    1C
    1U disc.inp                                                         
    1UUSER                                                              
    1UDATE              25.february.2021                                
    1UTIME              13:48:34                                        
    1UHOST                                                              
    1UPGM               CalculiX                                        
    1UVERSION           Version 2.17                             
    1UCOMPILETIME       Thu Jul 23 21:29:36 CEST 2020                    
    1UDIR                                                               
    1UDBN                                                               
    1UMAT    1STEEL                                                     
    2C                         15523                                     1
 -1         1 2.50000E+01 0.00000E+00 0.00000E+00
 -1         2 1.00000E+02 0.00000E+00 0.00000E+00
 -1         3 6.12323E-15 1.00000E+02 0.00000E+00
 -1         4 1.53081E-15 2.50000E+01 0.00000E+00
 -1         5 2.50000E+01 0.00000E+00 1.00000E+01
 -1         6 1.00000E+02 0.00000E+00 1.00000E+01
 -1         7 6.12323E-15 1.00000E+02 1.00000E+01
 -1         8 1.53081E-15 2.50000E+01 1.00000E+01
 -1         9 2.75000E+01 0.00000E+00 0.00000E+00
 -1        10 3.00000E+01 0.00000E+00 0.00000E+00
 -1        11 3.25000E+01 0.00000E+00 0.00000E+00
 -1        12 3.50000E+01 0.00000E+00 0.00000E+00
 -1        13 3.75000E+01 0.00000E+00 0.00000E+00
 -1        14 4.00000E+01 0.00000E+00 0.00000E+00
 -1        15 4.25000E+01 0.00000E+00 0.00000E+00
 -1        16 4.50000E+01 0.00000E+00 0.00000E+00
 -1        17 4.75000E+01 0.00000E+00 0.00000E+00
 -1        18 5.00000E+01 0.00000E+00 0.00000E+00
 -1        19 5.25000E+01 0.00000E+00 0.00000E+00
 -1        20 5.50000E+01 0.00000E+00 0.00000E+00
 -1        21 5.75000E+01 0.00000E+00 0.00000E+00
 -1        22 6.00000E+01 0.00000E+00 0.00000E+00
 -1        23 6.25000E+01 0.00000E+00 0.00000E+00
 -1        24 6.50000E+01 0.00000E+00 0.00000E+00
 -1        25 6.75000E+01 0.00000E+00 0.00000E+00
 -1        26 7.00000E+01 0.00000E+00 0.00000E+00
 -1        27 7.25000E+01 0.00000E+00 0.00000E+00
 -1        28 7.50000E+01 0.00000E+00 0.00000E+00
 -1        29 7.75000E+01 0.00000E+00 0.00000E+00
 -1        30 8.00000E+01 0.00000E+00 0.00000E+00
 -1        31 8.25000E+01 0.00000E+00 0.00000E+00
 -1        32 8.50000E+01 0.00000E+00 0.00000E+00
 -1        33 8.75000E+01 0.00000E+00 0.00000E+00
 -1        34 9.00000E+01 0.00000E+00 0.00000E+00
 -1        35 9.25000E+01 0.00000E+00 0.00000E+00
 -1        36 9.50000E+01 0.00000E+00 0.00000E+00
 -1        37 9.75000E+01 0.00000E+00 0.00000E+00
 -1        38 2.62500E+01 0.00000E+00 0.00000E+00
 -1        39 2.87500E+01 0.00000E+00 0.00000E+00
 -1        40 3.12500E+01 0.00000E+00 0.00000E+00
 -1        41 3.37500E+01 0.00000E+00 0.00000E+00
 -1        42 3.62500E+01 0.00000E+00 0.00000E+00
 -1        43 3.87500E+01 0.00000E+00 0.00000E+00
 -1        44 4.12500E+01 0.00000E+00 0.00000E+00
 -1        45 4.37500E+01 0.00000E+00 0.00000E+00
 -1        46 4.62500E+01 0.00000E+00 0.00000E+00
 -1        47 4.87500E+01 0.00000E+00 0.00000E+00
 -1        48 5.12500E+01 0.00000E+00 0.00000E+00
 -1        49 5.37500E+01 0.00000E+00 0.00000E+00
 -1        50 5.62500E+01 0.00000E+00 0.00000E+00
 -1        51 5.87500E+01 0.00000E+00 0.00000E+00
 -1        52 6.12500E+01 0.00000E+00 0.00000E+00
 -1        53 6.37500E+01 0.00000E+00 0.00000E+00
 -1        54 6.62500E+01 0.00000E+00 0.00000E+00
 -1        55 6.87500E+01 0.00000E+00 0.00000E+00
 -1        56 7.12500E+01 0.00000E+00 0.00000E+00
 -1        57 7.37500E+01 0.00000E+00 0.00000E+00
 -1        58 7.62500E+01 0.00000E+00 0.00000E+00
 -1        59 7.87500E+01 0.00000E+00 0.00000E+00
 -1        60 8.12500E+01 0.00000E+00 0.00000E+00
 -1        61 8.37500E+01 0.00000E+00 0.00000E+00
 -1        62 8.62500E+01 0.00000E+00 0.00000E+00
 -1        63 8.87500E+01 0.00000E+00 0.00000E+00
 -1        64 9.12500E+01 0.00000E+00 0.00000E+00
 -1        65 9.37500E+01 0.00000E+00 0.00000E+00
 -1        66 9.62500E+01 0.00000E+00 0.00000E+00
 -1        67 9.87500E+01 0.00000E+00 0.00000E+00
 -1        68 9.87688E+01 1.56434E+01 0.00000E+00
 -1        69 9.51057E+01 3.09017E+01 0.00000E+00
 -1        70 8.91007E+01 4.53991E+01 0.00000E+00
 -1        71 8.09017E+01 5.87785E+01 0.00000E+00
 -1        72 7.07107E+01 7.07107E+01 0.00000E+00
 -1        73 5.87785E+01 8.09017E+01 0.00000E+00
 -1        74 4.53991E+01 8.91007E+01 0.00000E+00
 -1        75 3.09017E+01 9.51057E+01 0.00000E+00
 -1        76 1.56434E+01 9.87688E+01 0.00000E+00
 -1        77 9.96917E+01 7.84591E+00 0.00000E+00
 -1        78 9.72370E+01 2.33445E+01 0.00000E+00
 -1        79 9.23880E+01 3.82683E+01 0.00000E+00
 -1        80 8.52640E+01 5.22499E+01 0.00000E+00
 -1        81 7.60406E+01 6.49448E+01 0.00000E+00
 -1        82 6.49448E+01 7.60406E+01 0.00000E+00
 -1        83 5.22499E+01 8.52640E+01 0.00000E+00
 -1        84 3.82683E+01 9.23880E+01 0.00000E+00
 -1        85 2.33445E+01 9.72370E+01 0.00000E+00
 -1        86 7.84591E+00 9.96917E+01 0.00000E+00
 -1        87 5.97015E-15 9.75000E+01 0.00000E+00
 -1        88 5.81707E-15 9.50000E+01 0.00000E+00
 -1        89 5.66399E-15 9.25000E+01 0.00000E+00
 -1        90 5.51091E-15 9.00000E+01 0.00000E+00
 -1        91 5.35783E-15 8.75000E+01 0.00000E+00
 -1        92 5.20475E-15 8.50000E+01 0.00000E+00
 -1        93 5.05167E-15 8.25000E+01 0.00000E+00
 -1        94 4.89859E-15 8.00000E+01 0.00000E+00
 -1        95 4.74551E-15 7.75000E+01 0.00000E+00
 -1        96 4.59243E-15 7.50000E+01 0.00000E+00
 -1        97 4.43934E-15 7.25000E+01 0.00000E+00
 -1        98 4.28626E-15 7.00000E+01 0.00000E+00
 -1        99 4.13318E-15 6.75000E+01 0.00000E+00
 -1       100 3.98010E-15 6.50000E+01 0.00000E+00
 -1       101 3.82702E-15 6.25000E+01 0.00000E+00
 -1       102 3.67394E-15 6.00000E+01 0.00000E+00
 -1       103 3.52086E-15 5.75000E+01 0.00000E+00
 -1       104 3.36778E-15 5.50000E+01 0.00000E+00
 -1       105 3.21470E-15 5.25000E+01 0.00000E+00
 -1       106 3.06162E-15 5.00000E+01 0.00000E+00
 -1       107 2.90854E-15 4.75000E+01 0.00000E+00
 -1       108 2.75546E-15 4.50000E+01 0.00000E+00
 -1       109 2.60237E-15 4.25000E+01 0.00000E+00
 -1       110 2.44929E-15 4.00000E+01 0.00000E+00
 -1       111 2.29621E-15 3.75000E+01 0.00000E+00
 -1       112 2.14313E-15 3.50000E+01 0.00000E+00
 -1       113 1.99005E-15 3.25000E+01 0.00000E+00
 -1       114 1.83697E-15 3.00000E+01 0.00000E+00
 -1       115 1.68389E-15 2.75000E+01 0.00000E+00
 -1       116 6.04669E-15 9.87500E+01 0.00000E+00
 -1       117 5.89361E-15 9.62500E+01 0.00000E+00
 -1       118 5.74053E-15 9.37500E+01 0.00000E+00
 -1       119 5.58745E-15 9.12500E+01 0.00000E+00
 -1       120 5.43437E-15 8.87500E+01 0.00000E+00
 -1       121 5.28129E-15 8.62500E+01 0.00000E+00
 -1       122 5.12821E-15 8.37500E+01 0.00000E+00
 -1       123 4.97513E-15 8.12500E+01 0.00000E+00
 -1       124 4.82205E-15 7.87500E+01 0.00000E+00
 -1       125 4.66897E-15 7.62500E+01 0.00000E+00
 -1       126 4.51589E-15 7.37500E+01 0.00000E+00
 -1       127 4.36280E-15 7.12500E+01 0.00000E+00
 -1       128 4.20972E-15 6.87500E+01 0.00000E+00
 -1       129 4.05664E-15 6.62500E+01 0.00000E+00
 -1       130 3.90356E-15 6.37500E+01 0.00000E+00
 -1       131 3.75048E-15 6.12500E+01 0.00000E+00
 -1       132 3.59740E-15 5.87500E+01 0.00000E+00
 -1       133 3.44432E-15 5.62500E+01 0.00000E+00
 -1       134 3.29124E-15 5.37500E+01 0.00000E+00
 -1       135 3.13816E-15 5.12500E+01 0.00000E+00
 -1       136 2.98508E-15 4.87500E+01 0.00000E+00
 -1       137 2.83200E-15 4.62500E+01 0.00000E+00
 -1       138 2.67891E-15 4.37500E+01 0.00000E+00
 -1       139 2.52583E-15 4.12500E+01 0.00000E+00
 -1       140 2.37275E-15 3.87500E+01 0.00000E+00
 -1       141 2.21967E-15 3.62500E+01 0.00000E+00
 -1       142 2.06659E-15 3.37500E+01 0.00000E+00
 -1       143 1.91351E-15 3.12500E+01 0.00000E+00
 -1       144 1.76043E-15 2.87500E+01 0.00000E+00
 -1       145 1.60735E-15 2.62500E+01 0.00000E+00
 -1       146 3.91086E+00 2.46922E+01 0.00000E+00
 -1       147 7.72542E+00 2.37764E+01 0.00000E+00
 -1       148 1.13498E+01 2.22752E+01 0.00000E+00
 -1       149 1.46946E+01 2.02254E+01 0.00000E+00
 -1       150 1.76777E+01 1.76777E+01 0.00000E+00
 -1       151 2.02254E+01 1.46946E+01 0.00000E+00
 -1       152 2.22752E+01 1.13498E+01 0.00000E+00
 -1       153 2.37764E+01 7.72542E+00 0.00000E+00
 -1       154 2.46922E+01 3.91086E+00 0.00000E+00
 -1       155 1.96148E+00 2.49229E+01 0.00000E+00
 -1       156 5.83613E+00 2.43092E+01 0.00000E+00
 -1       157 9.56709E+00 2.30970E+01 0.00000E+00
 -1       158 1.30625E+01 2.13160E+01 0.00000E+00
 -1       159 1.62362E+01 1.90101E+01 0.00000E+00
 -1       160 1.90101E+01 1.62362E+01 0.00000E+00
 -1       161 2.13160E+01 1.30625E+01 0.00000E+00
 -1       162 2.30970E+01 9.56709E+00 0.00000E+00
 -1       163 2.43092E+01 5.83613E+00 0.00000E+00
 -1       164 2.49229E+01 1.96148E+00 0.00000E+00
 -1       165 2.75000E+01 0.00000E+00 1.00000E+01
 -1       166 3.00000E+01 0.00000E+00 1.00000E+01
 -1       167 3.25000E+01 0.00000E+00 1.00000E+01
 -1       168 3.50000E+01 0.00000E+00 1.00000E+01
 -1       169 3.75000E+01 0.00000E+00 1.00000E+01
 -1       170 4.00000E+01 0.00000E+00 1.00000E+01
 -1       171 4.25000E+01 0.00000E+00 1.00000E+01
 -1       172 4.50000E+01 0.00000E+00 1.00000E+01
 -1       173 4.75000E+01 0.00000E+00 1.00000E+01
 -1       174 5.00000E+01 0.00000E+00 1.00000E+01
 -1       175 5.25000E+01 0.00000E+00 1.00000E+01
 -1       176 5.50000E+01 0.00000E+00 1.00000E+01
 -1       177 5.75000E+01 0.00000E+00 1.00000E+01
 -1       178 6.00000E+01 0.00000E+00 1.00000E+01
 -1       179 6.25000E+01 0.00000E+00 1.00000E+01
 -1       180 6.50000E+01 0.00000E+00 1.00000E+01
 -1       181 6.75000E+01 0.00000E+00 1.00000E+01
 -1       182 7.00000E+01 0.00000E+00 1.00000E+01
 -1       183 7.25000E+01 0.00000E+00 1.00000E+01
 -1       184 7.50000E+01 0.00000E+00 1.00000E+01
 -1       185 7.75000E+01 0.00000E+00 1.00000E+01
 -1       186 8.00000E+01 0.00000E+00 1.00000E+01
 -1       187 8.25000E+01 0.00000E+00 1.00000E+01
 -1       188 8.50000E+01 0.00000E+00 1.00000E+01
 -1       189 8.75000E+01 0.00000E+00 1.00000E+01
 -1       190 9.00000E+01 0.00000E+00 1.00000E+01
 -1       191 9.25000E+01 0.00000E+00 1.00000E+01
 -1       192 9.50000E+01 0.00000E+00 1.00000E+01
 -1       193 9.75000E+01 0.00000E+00 1.00000E+01
 -1       194 2.62500E+01 0.00000E+00 1.00000E+01
 -1       195 2.87500E+01 0.00000E+00 1.00000E+01
 -1       196 3.12500E+01 0.00000E+00 1.00000E+01
 -1       197 3.37500E+01 0.00000E+00 1.00000E+01
 -1       198 3.62500E+01 0.00000E+00 1.00000E+01
 -1       199 3.87500E+01 0.00000E+00 1.00000E+01
 -1       200 4.12500E+01 0.00000E+00 1.00000E+01
 -1       201 4.37500E+01 0.00000E+00 1.00000E+01
 -1       202 4.62500E+01 0.00000E+00 1.00000E+01
 -1       203 4.87500E+01 0.00000E+00 1.00000E+01
 -1       204 5.12500E+01 0.00000E+00 1.00000E+01
 -1       205 5.37500E+01 0.00000E+00 1.00000E+01
 -1       206 5.62500E+01 0.00000E+00 1.00000E+01
 -1       207 5.87500E+01 0.00000E+00 1.00000E+01
 -1       208 6.12500E+01 0.00000E+00 1.00000E+01
 -1       209 6.37500E+01 0.00000E+00 1.00000E+01
 -1       210 6.62500E+01 0.00000E+00 1.00000E+01
 -1       211 6.87500E+01 0.00000E+00 1.00000E+01
 -1       212 7.12500E+01 0.00000E+00 1.00000E+01
 -1       213 7.37500E+01 0.00000E+00 1.00000E+01
 -1       214 7.62500E+01 0.00000E+00 1.00000E+01
 -1       215 7.87500E+01 0.00000E+00 1.00000E+01
 -1       216 8.12500E+01 0.00000E+00 1.00000E+01
 -1       217 8.37500E+01 0.00000E+00 1.00000E+01
 -1       218 8.62500E+01 0.00000E+00 1.00000E+01
 -1       219 8.87500E+01 0.00000E+00 1.00000E+01
 -1       220 9.12500E+01 0.00000E+00 1.00000E+01
 -1       221 9.37500E+01 0.00000E+00 1.00000E+01
 -1       222 9.62500E+01 0.00000E+00 1.00000E+01
 -1       223 9.87500E+01 0.00000E+00 1.00000E+01
 -1       224 9.87688E+01 1.56434E+01 1.00000E+01
 -1       225 9.51057E+01 3.09017E+01 1.00000E+01
 -1       226 8.91007E+01 4.53991E+01 1.00000E+01
 -1       227 8.09017E+01 5.87785E+01 1.00000E+01
 -1       228 7.07107E+01 7.07107E+01 1.00000E+01
 -1       229 5.87785E+01 8.09017E+01 1.00000E+01
 -1       230 4.53991E+01 8.91007E+01 1.00000E+01
 -1       231 3.09017E+01 9.51057E+01 1.00000E+01
 -1       232 1.56434E+01 9.87688E+01 1.00000E+01
 -1       233 9.96917E+01 7.84591E+00 1.00000E+01
 -1       234 9.72370E+01 2.33445E+01 1.00000E+01
 -1       235 9.23880E+01 3.82683E+01 1.00000E+01
 -1       236 8.52640E+01 5.22499E+01 1.00000E+01
 -1       237 7.60406E+01 6.49448E+01 1.00000E+01
 -1       238 6.49448E+01 7.60406E+01 1.00000E+01
 -1       239 5.22499E+01 8.52640E+01 1.00000E+01
 -1       240 3.82683E+01 9.23880E+01 1.00000E+01
 -1       241 2.33445E+01 9.72370E+01 1.00000E+01
 -1       242 7.84591E+00 9.96917E+01 1.00000E+01
 -1       243 5.97015E-15 9.75000E+01 1.00000E+01
 -1       244 5.81707E-15 9.50000E+01 1.00000E+01
 -1       245 5.66399E-15 9.25000E+01 1.00000E+01
 -1       246 5.51091E-15 9.00000E+01 1.00000E+01
 -1       247 5.35783E-15 8.75000E+01 1.00000E+01
 -1       248 5.20475E-15 8.50000E+01 1.00000E+01
 -1       249 5.05167E-15 8.25000E+01 1.00000E+01
 -1       250 4.89859E-15 8.00000E+01 1.00000E+01
 -1       251 4.74551E-15 7.75000E+01 1.00000E+01
 -1       252 4.59243E-15 7.50000E+01 1.00000E+01
 -1       253 4.43934E-15 7.25000E+01 1.00000E+01
 -1       254 4.28626E-15 7.00000E+01 1.00000E+01
 -1       255 4.13318E-15 6.75000E+01 1.00000E+01
 -1       256 3.98010E-15 6.50000E+01 1.00000E+01
 -1       257 3.82702E-15 6.25000E+01 1.00000E+01
 -1       258 3.67394E-15 6.00000E+01 1.00000E+01
 -1       259 3.52086E-15 5.75000E+01 1.00000E+01
 -1       260 3.36778E-15 5.50000E+01 1.00000E+01
 -1       261 3.21470E-15 5.25000E+01 1.00000E+01
 -1       262 3.06162E-15 5.00000E+01 1.00000E+01
 -1       263 2.90854E-15 4.75000E+01 1.00000E+01
 -1       264 2.75546E-15 4.50000E+01 1.00000E+01
 -1       265 2.60237E-15 4.25000E+01 1.00000E+01
 -1       266 2.44929E-15 4.00000E+01 1.00000E+01
 -1       267 2.29621E-15 3.75000E+01 1.00000E+01
 -1       268 2.14313E-15 3.50000E+01 1.00000E+01
 -1       269 1.99005E-15 3.25000E+01 1.00000E+01
 -1       270 1.83697E-15 3.00000E+01 1.00000E+01
 -1       271 1.68389E-15 2.75000E+01 1.00000E+01
 -1       272 6.04669E-15 9.87500E+01 1.00000E+01
 -1       273 5.89361E-15 9.62500E+01 1.00000E+01
 -1       274 5.74053E-15 9.37500E+01 1.00000E+01
 -1       275 5.58745E-15 9.12500E+01 1.00000E+01
 -1       276 5.43437E-15 8.87500E+01 1.00000E+01
 -1       277 5.28129E-15 8.62500E+01 1.00000E+01
 -1       278 5.12821E-15 8.37500E+01 1.00000E+01
 -1       279 4.97513E-15 8.12500E+01 1.00000E+01
 -1       280 4.82205E-15 7.87500E+01 1.00000E+01
 -1       281 4.66897E-15 7.62500E+01 1.00000E+01
 -1       282 4.51589E-15 7.37500E+01 1.00000E+01
 -1       283 4.36280E-15 7.12500E+01 1.00000E+01
 -1       284 4.20972E-15 6.87500E+01 1.00000E+01
 -1       285 4.05664E-15 6.62500E+01 1.00000E+01
 -1       286 3.90356E-15 6.37500E+01 1.00000E+01
 -1       287 3.75048E-15 6.12500E+01 1.00000E+01
 -1       288 3.59740E-15 5.87500E+01 1.00000E+01
 -1       289 3.44432E-15 5.62500E+01 1.00000E+01
 -1       290 3.29124E-15 5.37500E+01 1.00000E+01
 -1       291 3.13816E-15 5.12500E+01 1.00000E+01
 -1       292 2.98508E-15 4.87500E+01 1.00000E+01
 -1       293 2.83200E-15 4.62500E+01 1.00000E+01
 -1       294 2.67891E-15 4.37500E+01 1.00000E+01
 -1       295 2.52583E-15 4.12500E+01 1.00000E+01
 -1       296 2.37275E-15 3.87500E+01 1.00000E+01
 -1       297 2.21967E-15 3.62500E+01 1.00000E+01
 -1       298 2.06659E-15 3.37500E+01 1.00000E+01
 -1       299 1.91351E-15 3.12500E+01 1.00000E+01
 -1       300 1.76043E-15 2.87500E+01 1.00000E+01
 -1       301 1.60735E-15 2.62500E+01 1.00000E+01
 -1       302 3.91086E+00 2.46922E+01 1.00000E+01
 -1       303 7.72542E+00 2.37764E+01 1.00000E+01
 -1       304 1.13498E+01 2.22752E+01 1.00000E+01
 -1       305 1.46946E+01 2.02254E+01 1.00000E+01
 -1       306 1.76777E+01 1.76777E+01 1.00000E+01
 -1       307 2.02254E+01 1.46946E+01 1.00000E+01
 -1       308 2.22752E+01 1.13498E+01 1.00000E+01
 -1       309 2.37764E+01 7.72542E+00 1.00000E+01
 -1       310 2.46922E+01 3.91086E+00 1.00000E+01
 -1       311 1.96148E+00 2.49229E+01 1.00000E+01
 -1       312 5.83613E+00 2.43092E+01 1.00000E+01
 -1       313 9.56709E+00 2.30970E+01 1.00000E+01
 -1       314 1.30625E+01 2.13160E+01 1.00000E+01
 -1       315 1.62362E+01 1.90101E+01 1.00000E+01
 -1       316 1.90101E+01 1.62362E+01 1.00000E+01
 -1       317 2.13160E+01 1.30625E+01 1.00000E+01
 -1       318 2.30970E+01 9.56709E+00 1.00000E+01
 -1       319 2.43092E+01 5.83613E+00 1.00000E+01
 -1       320 2.49229E+01 1.96148E+00 1.00000E+01
 -1       321 2.50000E+01 0.00000E+00 9.09091E-01
 -1       322 2.50000E+01 0.00000E+00 1.81818E+00
 -1       323 2.50000E+01 0.00000E+00 2.72727E+00
 -1       324 2.50000E+01 0.00000E+00 3.63636E+00
 -1       325 2.50000E+01 0.00000E+00 4.54545E+00
 -1       326 2.50000E+01 0.00000E+00 5.45455E+00
 -1       327 2.50000E+01 0.00000E+00 6.36364E+00
 -1       328 2.50000E+01 0.00000E+00 7.27273E+00
 -1       329 2.50000E+01 0.00000E+00 8.18182E+00
 -1       330 2.50000E+01 0.00000E+00 9.09091E+00
 -1       331 2.50000E+01 0.00000E+00 4.54545E-01
 -1       332 2.50000E+01 0.00000E+00 1.36364E+00
 -1       333 2.50000E+01 0.00000E+00 2.27273E+00
 -1       334 2.50000E+01 0.00000E+00 3.18182E+00
 -1       335 2.50000E+01 0.00000E+00 4.09091E+00
 -1       336 2.50000E+01 0.00000E+00 5.00000E+00
 -1       337 2.50000E+01 0.00000E+00 5.90909E+00
 -1       338 2.50000E+01 0.00000E+00 6.81818E+00
 -1       339 2.50000E+01 0.00000E+00 7.72727E+00
 -1       340 2.50000E+01 0.00000E+00 8.63636E+00
 -1       341 2.50000E+01 0.00000E+00 9.54545E+00
 -1       342 1.00000E+02 0.00000E+00 9.09091E-01
 -1       343 1.00000E+02 0.00000E+00 1.81818E+00
 -1       344 1.00000E+02 0.00000E+00 2.72727E+00
 -1       345 1.00000E+02 0.00000E+00 3.63636E+00
 -1       346 1.00000E+02 0.00000E+00 4.54545E+00
 -1       347 1.00000E+02 0.00000E+00 5.45455E+00
 -1       348 1.00000E+02 0.00000E+00 6.36364E+00
 -1       349 1.00000E+02 0.00000E+00 7.27273E+00
 -1       350 1.00000E+02 0.00000E+00 8.18182E+00
 -1       351 1.00000E+02 0.00000E+00 9.09091E+00
 -1       352 1.00000E+02 0.00000E+00 4.54545E-01
 -1       353 1.00000E+02 0.00000E+00 1.36364E+00
 -1       354 1.00000E+02 0.00000E+00 2.27273E+00
 -1       355 1.00000E+02 0.00000E+00 3.18182E+00
 -1       356 1.00000E+02 0.00000E+00 4.09091E+00
 -1       357 1.00000E+02 0.00000E+00 5.00000E+00
 -1       358 1.00000E+02 0.00000E+00 5.90909E+00
 -1       359 1.00000E+02 0.00000E+00 6.81818E+00
 -1       360 1.00000E+02 0.00000E+00 7.72727E+00
 -1       361 1.00000E+02 0.00000E+00 8.63636E+00
 -1       362 1.00000E+02 0.00000E+00 9.54545E+00
 -1       363 6.12323E-15 1.00000E+02 9.09091E-01
 -1       364 6.12323E-15 1.00000E+02 1.81818E+00
 -1       365 6.12323E-15 1.00000E+02 2.72727E+00
 -1       366 6.12323E-15 1.00000E+02 3.63636E+00
 -1       367 6.12323E-15 1.00000E+02 4.54545E+00
 -1       368 6.12323E-15 1.00000E+02 5.45455E+00
 -1       369 6.12323E-15 1.00000E+02 6.36364E+00
 -1       370 6.12323E-15 1.00000E+02 7.27273E+00
 -1       371 6.12323E-15 1.00000E+02 8.18182E+00
 -1       372 6.12323E-15 1.00000E+02 9.09091E+00
 -1       373 6.12323E-15 1.00000E+02 4.54545E-01
 -1       374 6.12323E-15 1.00000E+02 1.36364E+00
 -1       375 6.12323E-15 1.00000E+02 2.27273E+00
 -1       376 6.12323E-15 1.00000E+02 3.18182E+00
 -1       377 6.12323E-15 1.00000E+02 4.09091E+00
 -1       378 6.12323E-15 1.00000E+02 5.00000E+00
 -1       379 6.12323E-15 1.00000E+02 5.90909E+00
 -1       380 6.12323E-15 1.00000E+02 6.81818E+00
 -1       381 6.12323E-15 1.00000E+02 7.72727E+00
 -1       382 6.12323E-15 1.00000E+02 8.63636E+00
 -1       383 6.12323E-15 1.00000E+02 9.54545E+00
 -1       384 1.53081E-15 2.50000E+01 9.09091E-01
 -1       385 1.53081E-15 2.50000E+01 1.81818E+00
 -1       386 1.53081E-15 2.50000E+01 2.72727E+00
 -1       387 1.53081E-15 2.50000E+01 3.63636E+00
 -1       388 1.53081E-15 2.50000E+01 4.54545E+00
 -1       389 1.53081E-15 2.50000E+01 5.45455E+00
 -1       390 1.53081E-15 2.50000E+01 6.36364E+00
 -1       391 1.53081E-15 2.50000E+01 7.27273E+00
 -1       392 1.53081E-15 2.50000E+01 8.18182E+00
 -1       393 1.53081E-15 2.50000E+01 9.09091E+00
 -1       394 1.53081E-15 2.50000E+01 4.54545E-01
 -1       395 1.53081E-15 2.50000E+01 1.36364E+00
 -1       396 1.53081E-15 2.50000E+01 2.27273E+00
 -1       397 1.53081E-15 2.50000E+01 3.18182E+00
 -1       398 1.53081E-15 2.50000E+01 4.09091E+00
 -1       399 1.53081E-15 2.50000E+01 5.00000E+00
 -1       400 1.53081E-15 2.50000E+01 5.90909E+00
 -1       401 1.53081E-15 2.50000E+01 6.81818E+00
 -1       402 1.53081E-15 2.50000E+01 7.72727E+00
 -1       403 1.53081E-15 2.50000E+01 8.63636E+00
 -1       404 1.53081E-15 2.50000E+01 9.54545E+00
 -1       405 2.71614E+01 4.30195E+00 0.00000E+00
 -1       406 2.61541E+01 8.49797E+00 0.00000E+00
 -1       407 2.45027E+01 1.24847E+01 0.00000E+00
 -1       408 2.22480E+01 1.61641E+01 0.00000E+00
 -1       409 1.94454E+01 1.94454E+01 0.00000E+00
 -1       410 1.61641E+01 2.22480E+01 0.00000E+00
 -1       411 1.24847E+01 2.45027E+01 0.00000E+00
 -1       412 8.49797E+00 2.61541E+01 0.00000E+00
 -1       413 4.30195E+00 2.71614E+01 0.00000E+00
 -1       414 2.96306E+01 4.69303E+00 0.00000E+00
 -1       415 2.85317E+01 9.27051E+00 0.00000E+00
 -1       416 2.67302E+01 1.36197E+01 0.00000E+00
 -1       417 2.42705E+01 1.76336E+01 0.00000E+00
 -1       418 2.12132E+01 2.12132E+01 0.00000E+00
 -1       419 1.76336E+01 2.42705E+01 0.00000E+00
 -1       420 1.36197E+01 2.67302E+01 0.00000E+00
 -1       421 9.27051E+00 2.85317E+01 0.00000E+00
 -1       422 4.69303E+00 2.96306E+01 0.00000E+00
 -1       423 3.20999E+01 5.08412E+00 0.00000E+00
 -1       424 3.09093E+01 1.00431E+01 0.00000E+00
 -1       425 2.89577E+01 1.47547E+01 0.00000E+00
 -1       426 2.62931E+01 1.91030E+01 0.00000E+00
 -1       427 2.29810E+01 2.29810E+01 0.00000E+00
 -1       428 1.91030E+01 2.62931E+01 0.00000E+00
 -1       429 1.47547E+01 2.89577E+01 0.00000E+00
 -1       430 1.00431E+01 3.09093E+01 0.00000E+00
 -1       431 5.08412E+00 3.20999E+01 0.00000E+00
 -1       432 3.45691E+01 5.47521E+00 0.00000E+00
 -1       433 3.32870E+01 1.08156E+01 0.00000E+00
 -1       434 3.11852E+01 1.58897E+01 0.00000E+00
 -1       435 2.83156E+01 2.05725E+01 0.00000E+00
 -1       436 2.47487E+01 2.47487E+01 0.00000E+00
 -1       437 2.05725E+01 2.83156E+01 0.00000E+00
 -1       438 1.58897E+01 3.11852E+01 0.00000E+00
 -1       439 1.08156E+01 3.32870E+01 0.00000E+00
 -1       440 5.47521E+00 3.45691E+01 0.00000E+00
 -1       441 3.70383E+01 5.86629E+00 0.00000E+00
 -1       442 3.56646E+01 1.15881E+01 0.00000E+00
 -1       443 3.34127E+01 1.70246E+01 0.00000E+00
 -1       444 3.03381E+01 2.20419E+01 0.00000E+00
 -1       445 2.65165E+01 2.65165E+01 0.00000E+00
 -1       446 2.20419E+01 3.03381E+01 0.00000E+00
 -1       447 1.70246E+01 3.34127E+01 0.00000E+00
 -1       448 1.15881E+01 3.56646E+01 0.00000E+00
 -1       449 5.86629E+00 3.70383E+01 0.00000E+00
 -1       450 3.95075E+01 6.25738E+00 0.00000E+00
 -1       451 3.80423E+01 1.23607E+01 0.00000E+00
 -1       452 3.56403E+01 1.81596E+01 0.00000E+00
 -1       453 3.23607E+01 2.35114E+01 0.00000E+00
 -1       454 2.82843E+01 2.82843E+01 0.00000E+00
 -1       455 2.35114E+01 3.23607E+01 0.00000E+00
 -1       456 1.81596E+01 3.56403E+01 0.00000E+00
 -1       457 1.23607E+01 3.80423E+01 0.00000E+00
 -1       458 6.25738E+00 3.95075E+01 0.00000E+00
 -1       459 4.19768E+01 6.64846E+00 0.00000E+00
 -1       460 4.04199E+01 1.31332E+01 0.00000E+00
 -1       461 3.78678E+01 1.92946E+01 0.00000E+00
 -1       462 3.43832E+01 2.49809E+01 0.00000E+00
 -1       463 3.00520E+01 3.00520E+01 0.00000E+00
 -1       464 2.49809E+01 3.43832E+01 0.00000E+00
 -1       465 1.92946E+01 3.78678E+01 0.00000E+00
 -1       466 1.31332E+01 4.04199E+01 0.00000E+00
 -1       467 6.64846E+00 4.19768E+01 0.00000E+00
 -1       468 4.44460E+01 7.03955E+00 0.00000E+00
 -1       469 4.27975E+01 1.39058E+01 0.00000E+00
 -1       470 4.00953E+01 2.04296E+01 0.00000E+00
 -1       471 3.64058E+01 2.64503E+01 0.00000E+00
 -1       472 3.18198E+01 3.18198E+01 0.00000E+00
 -1       473 2.64503E+01 3.64058E+01 0.00000E+00
 -1       474 2.04296E+01 4.00953E+01 0.00000E+00
 -1       475 1.39058E+01 4.27975E+01 0.00000E+00
 -1       476 7.03955E+00 4.44460E+01 0.00000E+00
 -1       477 4.69152E+01 7.43064E+00 0.00000E+00
 -1       478 4.51752E+01 1.46783E+01 0.00000E+00
 -1       479 4.23228E+01 2.15645E+01 0.00000E+00
 -1       480 3.84283E+01 2.79198E+01 0.00000E+00
 -1       481 3.35876E+01 3.35876E+01 0.00000E+00
 -1       482 2.79198E+01 3.84283E+01 0.00000E+00
 -1       483 2.15645E+01 4.23228E+01 0.00000E+00
 -1       484 1.46783E+01 4.51752E+01 0.00000E+00
 -1       485 7.43064E+00 4.69152E+01 0.00000E+00
 -1       486 4.93844E+01 7.82172E+00 0.00000E+00
 -1       487 4.75528E+01 1.54508E+01 0.00000E+00
 -1       488 4.45503E+01 2.26995E+01 0.00000E+00
 -1       489 4.04509E+01 2.93893E+01 0.00000E+00
 -1       490 3.53553E+01 3.53553E+01 0.00000E+00
 -1       491 2.93893E+01 4.04509E+01 0.00000E+00
 -1       492 2.26995E+01 4.45503E+01 0.00000E+00
 -1       493 1.54508E+01 4.75528E+01 0.00000E+00
 -1       494 7.82172E+00 4.93844E+01 0.00000E+00
 -1       495 5.18536E+01 8.21281E+00 0.00000E+00
 -1       496 4.99305E+01 1.62234E+01 0.00000E+00
 -1       497 4.67778E+01 2.38345E+01 0.00000E+00
 -1       498 4.24734E+01 3.08587E+01 0.00000E+00
 -1       499 3.71231E+01 3.71231E+01 0.00000E+00
 -1       500 3.08587E+01 4.24734E+01 0.00000E+00
 -1       501 2.38345E+01 4.67778E+01 0.00000E+00
 -1       502 1.62234E+01 4.99305E+01 0.00000E+00
 -1       503 8.21281E+00 5.18536E+01 0.00000E+00
 -1       504 5.43229E+01 8.60390E+00 0.00000E+00
 -1       505 5.23081E+01 1.69959E+01 0.00000E+00
 -1       506 4.90054E+01 2.49695E+01 0.00000E+00
 -1       507 4.44959E+01 3.23282E+01 0.00000E+00
 -1       508 3.88909E+01 3.88909E+01 0.00000E+00
 -1       509 3.23282E+01 4.44959E+01 0.00000E+00
 -1       510 2.49695E+01 4.90054E+01 0.00000E+00
 -1       511 1.69959E+01 5.23081E+01 0.00000E+00
 -1       512 8.60390E+00 5.43229E+01 0.00000E+00
 -1       513 5.67921E+01 8.99498E+00 0.00000E+00
 -1       514 5.46857E+01 1.77685E+01 0.00000E+00
 -1       515 5.12329E+01 2.61045E+01 0.00000E+00
 -1       516 4.65185E+01 3.37977E+01 0.00000E+00
 -1       517 4.06586E+01 4.06586E+01 0.00000E+00
 -1       518 3.37977E+01 4.65185E+01 0.00000E+00
 -1       519 2.61045E+01 5.12329E+01 0.00000E+00
 -1       520 1.77685E+01 5.46857E+01 0.00000E+00
 -1       521 8.99498E+00 5.67921E+01 0.00000E+00
 -1       522 5.92613E+01 9.38607E+00 0.00000E+00
 -1       523 5.70634E+01 1.85410E+01 0.00000E+00
 -1       524 5.34604E+01 2.72394E+01 0.00000E+00
 -1       525 4.85410E+01 3.52671E+01 0.00000E+00
 -1       526 4.24264E+01 4.24264E+01 0.00000E+00
 -1       527 3.52671E+01 4.85410E+01 0.00000E+00
 -1       528 2.72394E+01 5.34604E+01 0.00000E+00
 -1       529 1.85410E+01 5.70634E+01 0.00000E+00
 -1       530 9.38607E+00 5.92613E+01 0.00000E+00
 -1       531 6.17305E+01 9.77715E+00 0.00000E+00
 -1       532 5.94410E+01 1.93136E+01 0.00000E+00
 -1       533 5.56879E+01 2.83744E+01 0.00000E+00
 -1       534 5.05636E+01 3.67366E+01 0.00000E+00
 -1       535 4.41942E+01 4.41942E+01 0.00000E+00
 -1       536 3.67366E+01 5.05636E+01 0.00000E+00
 -1       537 2.83744E+01 5.56879E+01 0.00000E+00
 -1       538 1.93136E+01 5.94410E+01 0.00000E+00
 -1       539 9.77715E+00 6.17305E+01 0.00000E+00
 -1       540 6.41997E+01 1.01682E+01 0.00000E+00
 -1       541 6.18187E+01 2.00861E+01 0.00000E+00
 -1       542 5.79154E+01 2.95094E+01 0.00000E+00
 -1       543 5.25861E+01 3.82060E+01 0.00000E+00
 -1       544 4.59619E+01 4.59619E+01 0.00000E+00
 -1       545 3.82060E+01 5.25861E+01 0.00000E+00
 -1       546 2.95094E+01 5.79154E+01 0.00000E+00
 -1       547 2.00861E+01 6.18187E+01 0.00000E+00
 -1       548 1.01682E+01 6.41997E+01 0.00000E+00
 -1       549 6.66690E+01 1.05593E+01 0.00000E+00
 -1       550 6.41963E+01 2.08586E+01 0.00000E+00
 -1       551 6.01429E+01 3.06444E+01 0.00000E+00
 -1       552 5.46086E+01 3.96755E+01 0.00000E+00
 -1       553 4.77297E+01 4.77297E+01 0.00000E+00
 -1       554 3.96755E+01 5.46086E+01 0.00000E+00
 -1       555 3.06444E+01 6.01429E+01 0.00000E+00
 -1       556 2.08586E+01 6.41963E+01 0.00000E+00
 -1       557 1.05593E+01 6.66690E+01 0.00000E+00
 -1       558 6.91382E+01 1.09504E+01 0.00000E+00
 -1       559 6.65740E+01 2.16312E+01 0.00000E+00
 -1       560 6.23705E+01 3.17793E+01 0.00000E+00
 -1       561 5.66312E+01 4.11450E+01 0.00000E+00
 -1       562 4.94975E+01 4.94975E+01 0.00000E+00
 -1       563 4.11450E+01 5.66312E+01 0.00000E+00
 -1       564 3.17793E+01 6.23705E+01 0.00000E+00
 -1       565 2.16312E+01 6.65740E+01 0.00000E+00
 -1       566 1.09504E+01 6.91382E+01 0.00000E+00
 -1       567 7.16074E+01 1.13415E+01 0.00000E+00
 -1       568 6.89516E+01 2.24037E+01 0.00000E+00
 -1       569 6.45980E+01 3.29143E+01 0.00000E+00
 -1       570 5.86537E+01 4.26144E+01 0.00000E+00
 -1       571 5.12652E+01 5.12652E+01 0.00000E+00
 -1       572 4.26144E+01 5.86537E+01 0.00000E+00
 -1       573 3.29143E+01 6.45980E+01 0.00000E+00
 -1       574 2.24037E+01 6.89516E+01 0.00000E+00
 -1       575 1.13415E+01 7.16074E+01 0.00000E+00
 -1       576 7.40766E+01 1.17326E+01 0.00000E+00
 -1       577 7.13292E+01 2.31763E+01 0.00000E+00
 -1       578 6.68255E+01 3.40493E+01 0.00000E+00
 -1       579 6.06763E+01 4.40839E+01 0.00000E+00
 -1       580 5.30330E+01 5.30330E+01 0.00000E+00
 -1       581 4.40839E+01 6.06763E+01 0.00000E+00
 -1       582 3.40493E+01 6.68255E+01 0.00000E+00
 -1       583 2.31763E+01 7.13292E+01 0.00000E+00
 -1       584 1.17326E+01 7.40766E+01 0.00000E+00
 -1       585 7.65458E+01 1.21237E+01 0.00000E+00
 -1       586 7.37069E+01 2.39488E+01 0.00000E+00
 -1       587 6.90530E+01 3.51843E+01 0.00000E+00
 -1       588 6.26988E+01 4.55534E+01 0.00000E+00
 -1       589 5.48008E+01 5.48008E+01 0.00000E+00
 -1       590 4.55534E+01 6.26988E+01 0.00000E+00
 -1       591 3.51843E+01 6.90530E+01 0.00000E+00
 -1       592 2.39488E+01 7.37069E+01 0.00000E+00
 -1       593 1.21237E+01 7.65458E+01 0.00000E+00
 -1       594 7.90151E+01 1.25148E+01 0.00000E+00
 -1       595 7.60845E+01 2.47214E+01 0.00000E+00
 -1       596 7.12805E+01 3.63192E+01 0.00000E+00
 -1       597 6.47214E+01 4.70228E+01 0.00000E+00
 -1       598 5.65685E+01 5.65685E+01 0.00000E+00
 -1       599 4.70228E+01 6.47214E+01 0.00000E+00
 -1       600 3.63192E+01 7.12805E+01 0.00000E+00
 -1       601 2.47214E+01 7.60845E+01 0.00000E+00
 -1       602 1.25148E+01 7.90151E+01 0.00000E+00
 -1       603 8.14843E+01 1.29058E+01 0.00000E+00
 -1       604 7.84622E+01 2.54939E+01 0.00000E+00
 -1       605 7.35080E+01 3.74542E+01 0.00000E+00
 -1       606 6.67439E+01 4.84923E+01 0.00000E+00
 -1       607 5.83363E+01 5.83363E+01 0.00000E+00
 -1       608 4.84923E+01 6.67439E+01 0.00000E+00
 -1       609 3.74542E+01 7.35080E+01 0.00000E+00
 -1       610 2.54939E+01 7.84622E+01 0.00000E+00
 -1       611 1.29058E+01 8.14843E+01 0.00000E+00
 -1       612 8.39535E+01 1.32969E+01 0.00000E+00
 -1       613 8.08398E+01 2.62664E+01 0.00000E+00
 -1       614 7.57356E+01 3.85892E+01 0.00000E+00
 -1       615 6.87664E+01 4.99617E+01 0.00000E+00
 -1       616 6.01041E+01 6.01041E+01 0.00000E+00
 -1       617 4.99617E+01 6.87664E+01 0.00000E+00
 -1       618 3.85892E+01 7.57356E+01 0.00000E+00
 -1       619 2.62664E+01 8.08398E+01 0.00000E+00
 -1       620 1.32969E+01 8.39535E+01 0.00000E+00
 -1       621 8.64227E+01 1.36880E+01 0.00000E+00
 -1       622 8.32174E+01 2.70390E+01 0.00000E+00
 -1       623 7.79631E+01 3.97242E+01 0.00000E+00
 -1       624 7.07890E+01 5.14312E+01 0.00000E+00
 -1       625 6.18718E+01 6.18718E+01 0.00000E+00
 -1       626 5.14312E+01 7.07890E+01 0.00000E+00
 -1       627 3.97242E+01 7.79631E+01 0.00000E+00
 -1       628 2.70390E+01 8.32174E+01 0.00000E+00
 -1       629 1.36880E+01 8.64227E+01 0.00000E+00
 -1       630 8.88920E+01 1.40791E+01 0.00000E+00
 -1       631 8.55951E+01 2.78115E+01 0.00000E+00
 -1       632 8.01906E+01 4.08591E+01 0.00000E+00
 -1       633 7.28115E+01 5.29007E+01 0.00000E+00
 -1       634 6.36396E+01 6.36396E+01 0.00000E+00
 -1       635 5.29007E+01 7.28115E+01 0.00000E+00
 -1       636 4.08591E+01 8.01906E+01 0.00000E+00
 -1       637 2.78115E+01 8.55951E+01 0.00000E+00
 -1       638 1.40791E+01 8.88920E+01 0.00000E+00
 -1       639 9.13612E+01 1.44702E+01 0.00000E+00
 -1       640 8.79727E+01 2.85841E+01 0.00000E+00
 -1       641 8.24181E+01 4.19941E+01 0.00000E+00
 -1       642 7.48341E+01 5.43701E+01 0.00000E+00
 -1       643 6.54074E+01 6.54074E+01 0.00000E+00
 -1       644 5.43701E+01 7.48341E+01 0.00000E+00
 -1       645 4.19941E+01 8.24181E+01 0.00000E+00
 -1       646 2.85841E+01 8.79727E+01 0.00000E+00
 -1       647 1.44702E+01 9.13612E+01 0.00000E+00
 -1       648 9.38304E+01 1.48613E+01 0.00000E+00
 -1       649 9.03504E+01 2.93566E+01 0.00000E+00
 -1       650 8.46456E+01 4.31291E+01 0.00000E+00
 -1       651 7.68566E+01 5.58396E+01 0.00000E+00
 -1       652 6.71751E+01 6.71751E+01 0.00000E+00
 -1       653 5.58396E+01 7.68566E+01 0.00000E+00
 -1       654 4.31291E+01 8.46456E+01 0.00000E+00
 -1       655 2.93566E+01 9.03504E+01 0.00000E+00
 -1       656 1.48613E+01 9.38304E+01 0.00000E+00
 -1       657 9.62996E+01 1.52524E+01 0.00000E+00
 -1       658 9.27280E+01 3.01292E+01 0.00000E+00
 -1       659 8.68731E+01 4.42641E+01 0.00000E+00
 -1       660 7.88792E+01 5.73091E+01 0.00000E+00
 -1       661 6.89429E+01 6.89429E+01 0.00000E+00
 -1       662 5.73091E+01 7.88792E+01 0.00000E+00
 -1       663 4.42641E+01 8.68731E+01 0.00000E+00
 -1       664 3.01292E+01 9.27280E+01 0.00000E+00
 -1       665 1.52524E+01 9.62996E+01 0.00000E+00
 -1       666 2.73307E+01 2.15097E+00 0.00000E+00
 -1       667 2.59268E+01 4.10640E+00 0.00000E+00
 -1       669 2.66577E+01 6.39996E+00 0.00000E+00
 -1       670 2.49652E+01 8.11170E+00 0.00000E+00
 -1       672 2.53284E+01 1.04914E+01 0.00000E+00
 -1       673 2.33889E+01 1.19173E+01 0.00000E+00
 -1       675 2.33753E+01 1.43244E+01 0.00000E+00
 -1       676 2.12367E+01 1.54294E+01 0.00000E+00
 -1       678 2.08467E+01 1.78048E+01 0.00000E+00
 -1       679 1.85616E+01 1.85616E+01 0.00000E+00
 -1       681 1.78048E+01 2.08467E+01 0.00000E+00
 -1       682 1.54294E+01 2.12367E+01 0.00000E+00
 -1       684 1.43244E+01 2.33753E+01 0.00000E+00
 -1       685 1.19173E+01 2.33889E+01 0.00000E+00
 -1       687 1.04914E+01 2.53284E+01 0.00000E+00
 -1       688 8.11170E+00 2.49652E+01 0.00000E+00
 -1       690 6.39996E+00 2.66577E+01 0.00000E+00
 -1       691 4.10640E+00 2.59268E+01 0.00000E+00
 -1       693 2.15097E+00 2.73307E+01 0.00000E+00
 -1       695 2.98153E+01 2.34652E+00 0.00000E+00
 -1       696 2.83960E+01 4.49749E+00 0.00000E+00
 -1       698 2.90812E+01 6.98177E+00 0.00000E+00
 -1       699 2.73429E+01 8.88424E+00 0.00000E+00
 -1       701 2.76309E+01 1.14451E+01 0.00000E+00
 -1       702 2.56164E+01 1.30522E+01 0.00000E+00
 -1       704 2.55004E+01 1.56266E+01 0.00000E+00
 -1       705 2.32592E+01 1.68988E+01 0.00000E+00
 -1       707 2.27419E+01 1.94234E+01 0.00000E+00
 -1       708 2.03293E+01 2.03293E+01 0.00000E+00
 -1       710 1.94234E+01 2.27419E+01 0.00000E+00
 -1       711 1.68988E+01 2.32592E+01 0.00000E+00
 -1       713 1.56266E+01 2.55004E+01 0.00000E+00
 -1       714 1.30522E+01 2.56164E+01 0.00000E+00
 -1       716 1.14451E+01 2.76309E+01 0.00000E+00
 -1       717 8.88424E+00 2.73429E+01 0.00000E+00
 -1       719 6.98177E+00 2.90812E+01 0.00000E+00
 -1       720 4.49749E+00 2.83960E+01 0.00000E+00
 -1       722 2.34652E+00 2.98153E+01 0.00000E+00
 -1       724 3.22999E+01 2.54206E+00 0.00000E+00
 -1       725 3.08653E+01 4.88858E+00 0.00000E+00
 -1       727 3.15046E+01 7.56359E+00 0.00000E+00
 -1       728 2.97205E+01 9.65678E+00 0.00000E+00
 -1       730 2.99335E+01 1.23989E+01 0.00000E+00
 -1       731 2.78440E+01 1.41872E+01 0.00000E+00
 -1       733 2.76254E+01 1.69289E+01 0.00000E+00
 -1       734 2.52818E+01 1.83683E+01 0.00000E+00
 -1       736 2.46370E+01 2.10420E+01 0.00000E+00
 -1       737 2.20971E+01 2.20971E+01 0.00000E+00
 -1       739 2.10420E+01 2.46370E+01 0.00000E+00
 -1       740 1.83683E+01 2.52818E+01 0.00000E+00
 -1       742 1.69289E+01 2.76254E+01 0.00000E+00
 -1       743 1.41872E+01 2.78440E+01 0.00000E+00
 -1       745 1.23989E+01 2.99335E+01 0.00000E+00
 -1       746 9.65678E+00 2.97205E+01 0.00000E+00
 -1       748 7.56359E+00 3.15046E+01 0.00000E+00
 -1       749 4.88858E+00 3.08653E+01 0.00000E+00
 -1       751 2.54206E+00 3.22999E+01 0.00000E+00
 -1       753 3.47845E+01 2.73760E+00 0.00000E+00
 -1       754 3.33345E+01 5.27966E+00 0.00000E+00
 -1       756 3.39280E+01 8.14540E+00 0.00000E+00
 -1       757 3.20982E+01 1.04293E+01 0.00000E+00
 -1       759 3.22361E+01 1.33526E+01 0.00000E+00
 -1       760 3.00715E+01 1.53222E+01 0.00000E+00
 -1       762 2.97504E+01 1.82311E+01 0.00000E+00
 -1       763 2.73043E+01 1.98378E+01 0.00000E+00
 -1       765 2.65322E+01 2.26606E+01 0.00000E+00
 -1       766 2.38649E+01 2.38649E+01 0.00000E+00
 -1       768 2.26606E+01 2.65322E+01 0.00000E+00
 -1       769 1.98378E+01 2.73043E+01 0.00000E+00
 -1       771 1.82311E+01 2.97504E+01 0.00000E+00
 -1       772 1.53222E+01 3.00715E+01 0.00000E+00
 -1       774 1.33526E+01 3.22361E+01 0.00000E+00
 -1       775 1.04293E+01 3.20982E+01 0.00000E+00
 -1       777 8.14540E+00 3.39280E+01 0.00000E+00
 -1       778 5.27966E+00 3.33345E+01 0.00000E+00
 -1       780 2.73760E+00 3.47845E+01 0.00000E+00
 -1       782 3.72692E+01 2.93315E+00 0.00000E+00
 -1       783 3.58037E+01 5.67075E+00 0.00000E+00
 -1       785 3.63515E+01 8.72721E+00 0.00000E+00
 -1       786 3.44758E+01 1.12019E+01 0.00000E+00
 -1       788 3.45387E+01 1.43064E+01 0.00000E+00
 -1       789 3.22990E+01 1.64572E+01 0.00000E+00
 -1       791 3.18754E+01 1.95333E+01 0.00000E+00
 -1       792 2.93269E+01 2.13072E+01 0.00000E+00
 -1       794 2.84273E+01 2.42792E+01 0.00000E+00
 -1       795 2.56326E+01 2.56326E+01 0.00000E+00
 -1       797 2.42792E+01 2.84273E+01 0.00000E+00
 -1       798 2.13072E+01 2.93269E+01 0.00000E+00
 -1       800 1.95333E+01 3.18754E+01 0.00000E+00
 -1       801 1.64572E+01 3.22990E+01 0.00000E+00
 -1       803 1.43064E+01 3.45387E+01 0.00000E+00
 -1       804 1.12019E+01 3.44758E+01 0.00000E+00
 -1       806 8.72721E+00 3.63515E+01 0.00000E+00
 -1       807 5.67075E+00 3.58037E+01 0.00000E+00
 -1       809 2.93315E+00 3.72692E+01 0.00000E+00
 -1       811 3.97538E+01 3.12869E+00 0.00000E+00
 -1       812 3.82729E+01 6.06184E+00 0.00000E+00
 -1       814 3.87749E+01 9.30903E+00 0.00000E+00
 -1       815 3.68534E+01 1.19744E+01 0.00000E+00
 -1       817 3.68413E+01 1.52601E+01 0.00000E+00
 -1       818 3.45265E+01 1.75921E+01 0.00000E+00
 -1       820 3.40005E+01 2.08355E+01 0.00000E+00
 -1       821 3.13494E+01 2.27767E+01 0.00000E+00
 -1       823 3.03225E+01 2.58978E+01 0.00000E+00
 -1       824 2.74004E+01 2.74004E+01 0.00000E+00
 -1       826 2.58978E+01 3.03225E+01 0.00000E+00
 -1       827 2.27767E+01 3.13494E+01 0.00000E+00
 -1       829 2.08355E+01 3.40005E+01 0.00000E+00
 -1       830 1.75921E+01 3.45265E+01 0.00000E+00
 -1       832 1.52601E+01 3.68413E+01 0.00000E+00
 -1       833 1.19744E+01 3.68534E+01 0.00000E+00
 -1       835 9.30903E+00 3.87749E+01 0.00000E+00
 -1       836 6.06184E+00 3.82729E+01 0.00000E+00
 -1       838 3.12869E+00 3.97538E+01 0.00000E+00
 -1       840 4.22384E+01 3.32423E+00 0.00000E+00
 -1       841 4.07421E+01 6.45292E+00 0.00000E+00
 -1       843 4.11983E+01 9.89084E+00 0.00000E+00
 -1       844 3.92311E+01 1.27470E+01 0.00000E+00
 -1       846 3.91438E+01 1.62139E+01 0.00000E+00
 -1       847 3.67540E+01 1.87271E+01 0.00000E+00
 -1       849 3.61255E+01 2.21377E+01 0.00000E+00
 -1       850 3.33720E+01 2.42461E+01 0.00000E+00
 -1       852 3.22176E+01 2.75165E+01 0.00000E+00
 -1       853 2.91682E+01 2.91682E+01 0.00000E+00
 -1       855 2.75165E+01 3.22176E+01 0.00000E+00
 -1       856 2.42461E+01 3.33720E+01 0.00000E+00
 -1       858 2.21377E+01 3.61255E+01 0.00000E+00
 -1       859 1.87271E+01 3.67540E+01 0.00000E+00
 -1       861 1.62139E+01 3.91438E+01 0.00000E+00
 -1       862 1.27470E+01 3.92311E+01 0.00000E+00
 -1       864 9.89084E+00 4.11983E+01 0.00000E+00
 -1       865 6.45292E+00 4.07421E+01 0.00000E+00
 -1       867 3.32423E+00 4.22384E+01 0.00000E+00
 -1       869 4.47230E+01 3.51978E+00 0.00000E+00
 -1       870 4.32114E+01 6.84401E+00 0.00000E+00
 -1       872 4.36218E+01 1.04727E+01 0.00000E+00
 -1       873 4.16087E+01 1.35195E+01 0.00000E+00
 -1       875 4.14464E+01 1.71677E+01 0.00000E+00
 -1       876 3.89815E+01 1.98621E+01 0.00000E+00
 -1       878 3.82505E+01 2.34400E+01 0.00000E+00
 -1       879 3.53945E+01 2.57156E+01 0.00000E+00
 -1       881 3.41128E+01 2.91351E+01 0.00000E+00
 -1       882 3.09359E+01 3.09359E+01 0.00000E+00
 -1       884 2.91351E+01 3.41128E+01 0.00000E+00
 -1       885 2.57156E+01 3.53945E+01 0.00000E+00
 -1       887 2.34400E+01 3.82505E+01 0.00000E+00
 -1       888 1.98621E+01 3.89815E+01 0.00000E+00
 -1       890 1.71677E+01 4.14464E+01 0.00000E+00
 -1       891 1.35195E+01 4.16087E+01 0.00000E+00
 -1       893 1.04727E+01 4.36218E+01 0.00000E+00
 -1       894 6.84401E+00 4.32114E+01 0.00000E+00
 -1       896 3.51978E+00 4.47230E+01 0.00000E+00
 -1       898 4.72076E+01 3.71532E+00 0.00000E+00
 -1       899 4.56806E+01 7.23509E+00 0.00000E+00
 -1       901 4.60452E+01 1.10545E+01 0.00000E+00
 -1       902 4.39864E+01 1.42920E+01 0.00000E+00
 -1       904 4.37490E+01 1.81214E+01 0.00000E+00
 -1       905 4.12091E+01 2.09971E+01 0.00000E+00
 -1       907 4.03756E+01 2.47422E+01 0.00000E+00
 -1       908 3.74170E+01 2.71851E+01 0.00000E+00
 -1       910 3.60079E+01 3.07537E+01 0.00000E+00
 -1       911 3.27037E+01 3.27037E+01 0.00000E+00
 -1       913 3.07537E+01 3.60079E+01 0.00000E+00
 -1       914 2.71851E+01 3.74170E+01 0.00000E+00
 -1       916 2.47422E+01 4.03756E+01 0.00000E+00
 -1       917 2.09971E+01 4.12091E+01 0.00000E+00
 -1       919 1.81214E+01 4.37490E+01 0.00000E+00
 -1       920 1.42920E+01 4.39864E+01 0.00000E+00
 -1       922 1.10545E+01 4.60452E+01 0.00000E+00
 -1       923 7.23509E+00 4.56806E+01 0.00000E+00
 -1       925 3.71532E+00 4.72076E+01 0.00000E+00
 -1       927 4.96922E+01 3.91086E+00 0.00000E+00
 -1       928 4.81498E+01 7.62618E+00 0.00000E+00
 -1       930 4.84686E+01 1.16363E+01 0.00000E+00
 -1       931 4.63640E+01 1.50646E+01 0.00000E+00
 -1       933 4.60516E+01 1.90752E+01 0.00000E+00
 -1       934 4.34366E+01 2.21320E+01 0.00000E+00
 -1       936 4.25006E+01 2.60444E+01 0.00000E+00
 -1       937 3.94396E+01 2.86545E+01 0.00000E+00
 -1       939 3.79031E+01 3.23723E+01 0.00000E+00
 -1       940 3.44715E+01 3.44715E+01 0.00000E+00
 -1       942 3.23723E+01 3.79031E+01 0.00000E+00
 -1       943 2.86545E+01 3.94396E+01 0.00000E+00
 -1       945 2.60444E+01 4.25006E+01 0.00000E+00
 -1       946 2.21320E+01 4.34366E+01 0.00000E+00
 -1       948 1.90752E+01 4.60516E+01 0.00000E+00
 -1       949 1.50646E+01 4.63640E+01 0.00000E+00
 -1       951 1.16363E+01 4.84686E+01 0.00000E+00
 -1       952 7.62618E+00 4.81498E+01 0.00000E+00
 -1       954 3.91086E+00 4.96922E+01 0.00000E+00
 -1       956 5.21768E+01 4.10640E+00 0.00000E+00
 -1       957 5.06190E+01 8.01727E+00 0.00000E+00
 -1       959 5.08921E+01 1.22181E+01 0.00000E+00
 -1       960 4.87416E+01 1.58371E+01 0.00000E+00
 -1       962 4.83542E+01 2.00289E+01 0.00000E+00
 -1       963 4.56641E+01 2.32670E+01 0.00000E+00
 -1       965 4.46256E+01 2.73466E+01 0.00000E+00
 -1       966 4.14621E+01 3.01240E+01 0.00000E+00
 -1       968 3.97982E+01 3.39909E+01 0.00000E+00
 -1       969 3.62392E+01 3.62392E+01 0.00000E+00
 -1       971 3.39909E+01 3.97982E+01 0.00000E+00
 -1       972 3.01240E+01 4.14621E+01 0.00000E+00
 -1       974 2.73466E+01 4.46256E+01 0.00000E+00
 -1       975 2.32670E+01 4.56641E+01 0.00000E+00
 -1       977 2.00289E+01 4.83542E+01 0.00000E+00
 -1       978 1.58371E+01 4.87416E+01 0.00000E+00
 -1       980 1.22181E+01 5.08921E+01 0.00000E+00
 -1       981 8.01727E+00 5.06190E+01 0.00000E+00
 -1       983 4.10640E+00 5.21768E+01 0.00000E+00
 -1       985 5.46614E+01 4.30195E+00 0.00000E+00
 -1       986 5.30882E+01 8.40835E+00 0.00000E+00
 -1       988 5.33155E+01 1.27999E+01 0.00000E+00
 -1       989 5.11193E+01 1.66097E+01 0.00000E+00
 -1       991 5.06567E+01 2.09827E+01 0.00000E+00
 -1       992 4.78916E+01 2.44020E+01 0.00000E+00
 -1       994 4.67506E+01 2.86488E+01 0.00000E+00
 -1       995 4.34847E+01 3.15935E+01 0.00000E+00
 -1       997 4.16934E+01 3.56095E+01 0.00000E+00
 -1       998 3.80070E+01 3.80070E+01 0.00000E+00
 -1      1000 3.56095E+01 4.16934E+01 0.00000E+00
 -1      1001 3.15935E+01 4.34847E+01 0.00000E+00
 -1      1003 2.86488E+01 4.67506E+01 0.00000E+00
 -1      1004 2.44020E+01 4.78916E+01 0.00000E+00
 -1      1006 2.09827E+01 5.06567E+01 0.00000E+00
 -1      1007 1.66097E+01 5.11193E+01 0.00000E+00
 -1      1009 1.27999E+01 5.33155E+01 0.00000E+00
 -1      1010 8.40835E+00 5.30882E+01 0.00000E+00
 -1      1012 4.30195E+00 5.46614E+01 0.00000E+00
 -1      1014 5.71460E+01 4.49749E+00 0.00000E+00
 -1      1015 5.55575E+01 8.79944E+00 0.00000E+00
 -1      1017 5.57389E+01 1.33817E+01 0.00000E+00
 -1      1018 5.34969E+01 1.73822E+01 0.00000E+00
 -1      1020 5.29593E+01 2.19365E+01 0.00000E+00
 -1      1021 5.01191E+01 2.55370E+01 0.00000E+00
 -1      1023 4.88757E+01 2.99511E+01 0.00000E+00
 -1      1024 4.55072E+01 3.30629E+01 0.00000E+00
 -1      1026 4.35886E+01 3.72281E+01 0.00000E+00
 -1      1027 3.97748E+01 3.97748E+01 0.00000E+00
 -1      1029 3.72281E+01 4.35886E+01 0.00000E+00
 -1      1030 3.30629E+01 4.55072E+01 0.00000E+00
 -1      1032 2.99511E+01 4.88757E+01 0.00000E+00
 -1      1033 2.55370E+01 5.01191E+01 0.00000E+00
 -1      1035 2.19365E+01 5.29593E+01 0.00000E+00
 -1      1036 1.73822E+01 5.34969E+01 0.00000E+00
 -1      1038 1.33817E+01 5.57389E+01 0.00000E+00
 -1      1039 8.79944E+00 5.55575E+01 0.00000E+00
 -1      1041 4.49749E+00 5.71460E+01 0.00000E+00
 -1      1043 5.96306E+01 4.69303E+00 0.00000E+00
 -1      1044 5.80267E+01 9.19053E+00 0.00000E+00
 -1      1046 5.81623E+01 1.39635E+01 0.00000E+00
 -1      1047 5.58746E+01 1.81547E+01 0.00000E+00
 -1      1049 5.52619E+01 2.28902E+01 0.00000E+00
 -1      1050 5.23466E+01 2.66719E+01 0.00000E+00
 -1      1052 5.10007E+01 3.12533E+01 0.00000E+00
 -1      1053 4.75297E+01 3.45324E+01 0.00000E+00
 -1      1055 4.54837E+01 3.88468E+01 0.00000E+00
 -1      1056 4.15425E+01 4.15425E+01 0.00000E+00
 -1      1058 3.88468E+01 4.54837E+01 0.00000E+00
 -1      1059 3.45324E+01 4.75297E+01 0.00000E+00
 -1      1061 3.12533E+01 5.10007E+01 0.00000E+00
 -1      1062 2.66719E+01 5.23466E+01 0.00000E+00
 -1      1064 2.28902E+01 5.52619E+01 0.00000E+00
 -1      1065 1.81547E+01 5.58746E+01 0.00000E+00
 -1      1067 1.39635E+01 5.81623E+01 0.00000E+00
 -1      1068 9.19053E+00 5.80267E+01 0.00000E+00
 -1      1070 4.69303E+00 5.96306E+01 0.00000E+00
 -1      1072 6.21153E+01 4.88858E+00 0.00000E+00
 -1      1073 6.04959E+01 9.58161E+00 0.00000E+00
 -1      1075 6.05858E+01 1.45454E+01 0.00000E+00
 -1      1076 5.82522E+01 1.89273E+01 0.00000E+00
 -1      1078 5.75645E+01 2.38440E+01 0.00000E+00
 -1      1079 5.45742E+01 2.78069E+01 0.00000E+00
 -1      1081 5.31257E+01 3.25555E+01 0.00000E+00
 -1      1082 4.95523E+01 3.60018E+01 0.00000E+00
 -1      1084 4.73789E+01 4.04654E+01 0.00000E+00
 -1      1085 4.33103E+01 4.33103E+01 0.00000E+00
 -1      1087 4.04654E+01 4.73789E+01 0.00000E+00
 -1      1088 3.60018E+01 4.95523E+01 0.00000E+00
 -1      1090 3.25555E+01 5.31257E+01 0.00000E+00
 -1      1091 2.78069E+01 5.45742E+01 0.00000E+00
 -1      1093 2.38440E+01 5.75645E+01 0.00000E+00
 -1      1094 1.89273E+01 5.82522E+01 0.00000E+00
 -1      1096 1.45454E+01 6.05858E+01 0.00000E+00
 -1      1097 9.58161E+00 6.04959E+01 0.00000E+00
 -1      1099 4.88858E+00 6.21153E+01 0.00000E+00
 -1      1101 6.45999E+01 5.08412E+00 0.00000E+00
 -1      1102 6.29651E+01 9.97270E+00 0.00000E+00
 -1      1104 6.30092E+01 1.51272E+01 0.00000E+00
 -1      1105 6.06299E+01 1.96998E+01 0.00000E+00
 -1      1107 5.98671E+01 2.47977E+01 0.00000E+00
 -1      1108 5.68017E+01 2.89419E+01 0.00000E+00
 -1      1110 5.52508E+01 3.38577E+01 0.00000E+00
 -1      1111 5.15748E+01 3.74713E+01 0.00000E+00
 -1      1113 4.92740E+01 4.20840E+01 0.00000E+00
 -1      1114 4.50781E+01 4.50781E+01 0.00000E+00
 -1      1116 4.20840E+01 4.92740E+01 0.00000E+00
 -1      1117 3.74713E+01 5.15748E+01 0.00000E+00
 -1      1119 3.38577E+01 5.52508E+01 0.00000E+00
 -1      1120 2.89419E+01 5.68017E+01 0.00000E+00
 -1      1122 2.47977E+01 5.98671E+01 0.00000E+00
 -1      1123 1.96998E+01 6.06299E+01 0.00000E+00
 -1      1125 1.51272E+01 6.30092E+01 0.00000E+00
 -1      1126 9.97270E+00 6.29651E+01 0.00000E+00
 -1      1128 5.08412E+00 6.45999E+01 0.00000E+00
 -1      1130 6.70845E+01 5.27966E+00 0.00000E+00
 -1      1131 6.54343E+01 1.03638E+01 0.00000E+00
 -1      1133 6.54326E+01 1.57090E+01 0.00000E+00
 -1      1134 6.30075E+01 2.04724E+01 0.00000E+00
 -1      1136 6.21696E+01 2.57515E+01 0.00000E+00
 -1      1137 5.90292E+01 3.00769E+01 0.00000E+00
 -1      1139 5.73758E+01 3.51599E+01 0.00000E+00
 -1      1140 5.35974E+01 3.89408E+01 0.00000E+00
 -1      1142 5.11692E+01 4.37026E+01 0.00000E+00
 -1      1143 4.68458E+01 4.68458E+01 0.00000E+00
 -1      1145 4.37026E+01 5.11692E+01 0.00000E+00
 -1      1146 3.89408E+01 5.35974E+01 0.00000E+00
 -1      1148 3.51599E+01 5.73758E+01 0.00000E+00
 -1      1149 3.00769E+01 5.90292E+01 0.00000E+00
 -1      1151 2.57515E+01 6.21696E+01 0.00000E+00
 -1      1152 2.04724E+01 6.30075E+01 0.00000E+00
 -1      1154 1.57090E+01 6.54326E+01 0.00000E+00
 -1      1155 1.03638E+01 6.54343E+01 0.00000E+00
 -1      1157 5.27966E+00 6.70845E+01 0.00000E+00
 -1      1159 6.95691E+01 5.47521E+00 0.00000E+00
 -1      1160 6.79036E+01 1.07549E+01 0.00000E+00
 -1      1162 6.78561E+01 1.62908E+01 0.00000E+00
 -1      1163 6.53851E+01 2.12449E+01 0.00000E+00
 -1      1165 6.44722E+01 2.67053E+01 0.00000E+00
 -1      1166 6.12567E+01 3.12118E+01 0.00000E+00
 -1      1168 5.95008E+01 3.64622E+01 0.00000E+00
 -1      1169 5.56199E+01 4.04102E+01 0.00000E+00
 -1      1171 5.30643E+01 4.53212E+01 0.00000E+00
 -1      1172 4.86136E+01 4.86136E+01 0.00000E+00
 -1      1174 4.53212E+01 5.30643E+01 0.00000E+00
 -1      1175 4.04102E+01 5.56199E+01 0.00000E+00
 -1      1177 3.64622E+01 5.95008E+01 0.00000E+00
 -1      1178 3.12118E+01 6.12567E+01 0.00000E+00
 -1      1180 2.67053E+01 6.44722E+01 0.00000E+00
 -1      1181 2.12449E+01 6.53851E+01 0.00000E+00
 -1      1183 1.62908E+01 6.78561E+01 0.00000E+00
 -1      1184 1.07549E+01 6.79036E+01 0.00000E+00
 -1      1186 5.47521E+00 6.95691E+01 0.00000E+00
 -1      1188 7.20537E+01 5.67075E+00 0.00000E+00
 -1      1189 7.03728E+01 1.11460E+01 0.00000E+00
 -1      1191 7.02795E+01 1.68726E+01 0.00000E+00
 -1      1192 6.77628E+01 2.20175E+01 0.00000E+00
 -1      1194 6.67748E+01 2.76590E+01 0.00000E+00
 -1      1195 6.34842E+01 3.23468E+01 0.00000E+00
 -1      1197 6.16259E+01 3.77644E+01 0.00000E+00
 -1      1198 5.76425E+01 4.18797E+01 0.00000E+00
 -1      1200 5.49595E+01 4.69398E+01 0.00000E+00
 -1      1201 5.03814E+01 5.03814E+01 0.00000E+00
 -1      1203 4.69398E+01 5.49595E+01 0.00000E+00
 -1      1204 4.18797E+01 5.76425E+01 0.00000E+00
 -1      1206 3.77644E+01 6.16259E+01 0.00000E+00
 -1      1207 3.23468E+01 6.34842E+01 0.00000E+00
 -1      1209 2.76590E+01 6.67748E+01 0.00000E+00
 -1      1210 2.20175E+01 6.77628E+01 0.00000E+00
 -1      1212 1.68726E+01 7.02795E+01 0.00000E+00
 -1      1213 1.11460E+01 7.03728E+01 0.00000E+00
 -1      1215 5.67075E+00 7.20537E+01 0.00000E+00
 -1      1217 7.45383E+01 5.86629E+00 0.00000E+00
 -1      1218 7.28420E+01 1.15370E+01 0.00000E+00
 -1      1220 7.27029E+01 1.74544E+01 0.00000E+00
 -1      1221 7.01404E+01 2.27900E+01 0.00000E+00
 -1      1223 6.90774E+01 2.86128E+01 0.00000E+00
 -1      1224 6.57117E+01 3.34818E+01 0.00000E+00
 -1      1226 6.37509E+01 3.90666E+01 0.00000E+00
 -1      1227 5.96650E+01 4.33492E+01 0.00000E+00
 -1      1229 5.68546E+01 4.85585E+01 0.00000E+00
 -1      1230 5.21491E+01 5.21491E+01 0.00000E+00
 -1      1232 4.85585E+01 5.68546E+01 0.00000E+00
 -1      1233 4.33492E+01 5.96650E+01 0.00000E+00
 -1      1235 3.90666E+01 6.37509E+01 0.00000E+00
 -1      1236 3.34818E+01 6.57117E+01 0.00000E+00
 -1      1238 2.86128E+01 6.90774E+01 0.00000E+00
 -1      1239 2.27900E+01 7.01404E+01 0.00000E+00
 -1      1241 1.74544E+01 7.27029E+01 0.00000E+00
 -1      1242 1.15370E+01 7.28420E+01 0.00000E+00
 -1      1244 5.86629E+00 7.45383E+01 0.00000E+00
 -1      1246 7.70229E+01 6.06184E+00 0.00000E+00
 -1      1247 7.53112E+01 1.19281E+01 0.00000E+00
 -1      1249 7.51264E+01 1.80362E+01 0.00000E+00
 -1      1250 7.25181E+01 2.35625E+01 0.00000E+00
 -1      1252 7.13799E+01 2.95665E+01 0.00000E+00
 -1      1253 6.79392E+01 3.46168E+01 0.00000E+00
 -1      1255 6.58759E+01 4.03688E+01 0.00000E+00
 -1      1256 6.16875E+01 4.48186E+01 0.00000E+00
 -1      1258 5.87498E+01 5.01771E+01 0.00000E+00
 -1      1259 5.39169E+01 5.39169E+01 0.00000E+00
 -1      1261 5.01771E+01 5.87498E+01 0.00000E+00
 -1      1262 4.48186E+01 6.16875E+01 0.00000E+00
 -1      1264 4.03688E+01 6.58759E+01 0.00000E+00
 -1      1265 3.46168E+01 6.79392E+01 0.00000E+00
 -1      1267 2.95665E+01 7.13799E+01 0.00000E+00
 -1      1268 2.35625E+01 7.25181E+01 0.00000E+00
 -1      1270 1.80362E+01 7.51264E+01 0.00000E+00
 -1      1271 1.19281E+01 7.53112E+01 0.00000E+00
 -1      1273 6.06184E+00 7.70229E+01 0.00000E+00
 -1      1275 7.95075E+01 6.25738E+00 0.00000E+00
 -1      1276 7.77805E+01 1.23192E+01 0.00000E+00
 -1      1278 7.75498E+01 1.86181E+01 0.00000E+00
 -1      1279 7.48957E+01 2.43351E+01 0.00000E+00
 -1      1281 7.36825E+01 3.05203E+01 0.00000E+00
 -1      1282 7.01668E+01 3.57518E+01 0.00000E+00
 -1      1284 6.80009E+01 4.16710E+01 0.00000E+00
 -1      1285 6.37101E+01 4.62881E+01 0.00000E+00
 -1      1287 6.06450E+01 5.17957E+01 0.00000E+00
 -1      1288 5.56847E+01 5.56847E+01 0.00000E+00
 -1      1290 5.17957E+01 6.06450E+01 0.00000E+00
 -1      1291 4.62881E+01 6.37101E+01 0.00000E+00
 -1      1293 4.16710E+01 6.80009E+01 0.00000E+00
 -1      1294 3.57518E+01 7.01668E+01 0.00000E+00
 -1      1296 3.05203E+01 7.36825E+01 0.00000E+00
 -1      1297 2.43351E+01 7.48957E+01 0.00000E+00
 -1      1299 1.86181E+01 7.75498E+01 0.00000E+00
 -1      1300 1.23192E+01 7.77805E+01 0.00000E+00
 -1      1302 6.25738E+00 7.95075E+01 0.00000E+00
 -1      1304 8.19921E+01 6.45292E+00 0.00000E+00
 -1      1305 8.02497E+01 1.27103E+01 0.00000E+00
 -1      1307 7.99732E+01 1.91999E+01 0.00000E+00
 -1      1308 7.72733E+01 2.51076E+01 0.00000E+00
 -1      1310 7.59851E+01 3.14741E+01 0.00000E+00
 -1      1311 7.23943E+01 3.68867E+01 0.00000E+00
 -1      1313 7.01260E+01 4.29733E+01 0.00000E+00
 -1      1314 6.57326E+01 4.77576E+01 0.00000E+00
 -1      1316 6.25401E+01 5.34143E+01 0.00000E+00
 -1      1317 5.74524E+01 5.74524E+01 0.00000E+00
 -1      1319 5.34143E+01 6.25401E+01 0.00000E+00
 -1      1320 4.77576E+01 6.57326E+01 0.00000E+00
 -1      1322 4.29733E+01 7.01260E+01 0.00000E+00
 -1      1323 3.68867E+01 7.23943E+01 0.00000E+00
 -1      1325 3.14741E+01 7.59851E+01 0.00000E+00
 -1      1326 2.51076E+01 7.72733E+01 0.00000E+00
 -1      1328 1.91999E+01 7.99732E+01 0.00000E+00
 -1      1329 1.27103E+01 8.02497E+01 0.00000E+00
 -1      1331 6.45292E+00 8.19921E+01 0.00000E+00
 -1      1333 8.44768E+01 6.64846E+00 0.00000E+00
 -1      1334 8.27189E+01 1.31014E+01 0.00000E+00
 -1      1336 8.23967E+01 1.97817E+01 0.00000E+00
 -1      1337 7.96510E+01 2.58802E+01 0.00000E+00
 -1      1339 7.82877E+01 3.24278E+01 0.00000E+00
 -1      1340 7.46218E+01 3.80217E+01 0.00000E+00
 -1      1342 7.22510E+01 4.42755E+01 0.00000E+00
 -1      1343 6.77552E+01 4.92270E+01 0.00000E+00
 -1      1345 6.44353E+01 5.50329E+01 0.00000E+00
 -1      1346 5.92202E+01 5.92202E+01 0.00000E+00
 -1      1348 5.50329E+01 6.44353E+01 0.00000E+00
 -1      1349 4.92270E+01 6.77552E+01 0.00000E+00
 -1      1351 4.42755E+01 7.22510E+01 0.00000E+00
 -1      1352 3.80217E+01 7.46218E+01 0.00000E+00
 -1      1354 3.24278E+01 7.82877E+01 0.00000E+00
 -1      1355 2.58802E+01 7.96510E+01 0.00000E+00
 -1      1357 1.97817E+01 8.23967E+01 0.00000E+00
 -1      1358 1.31014E+01 8.27189E+01 0.00000E+00
 -1      1360 6.64846E+00 8.44768E+01 0.00000E+00
 -1      1362 8.69614E+01 6.84401E+00 0.00000E+00
 -1      1363 8.51881E+01 1.34925E+01 0.00000E+00
 -1      1365 8.48201E+01 2.03635E+01 0.00000E+00
 -1      1366 8.20286E+01 2.66527E+01 0.00000E+00
 -1      1368 8.05903E+01 3.33816E+01 0.00000E+00
 -1      1369 7.68493E+01 3.91567E+01 0.00000E+00
 -1      1371 7.43760E+01 4.55777E+01 0.00000E+00
 -1      1372 6.97777E+01 5.06965E+01 0.00000E+00
 -1      1374 6.63304E+01 5.66515E+01 0.00000E+00
 -1      1375 6.09880E+01 6.09880E+01 0.00000E+00
 -1      1377 5.66515E+01 6.63304E+01 0.00000E+00
 -1      1378 5.06965E+01 6.97777E+01 0.00000E+00
 -1      1380 4.55777E+01 7.43760E+01 0.00000E+00
 -1      1381 3.91567E+01 7.68493E+01 0.00000E+00
 -1      1383 3.33816E+01 8.05903E+01 0.00000E+00
 -1      1384 2.66527E+01 8.20286E+01 0.00000E+00
 -1      1386 2.03635E+01 8.48201E+01 0.00000E+00
 -1      1387 1.34925E+01 8.51881E+01 0.00000E+00
 -1      1389 6.84401E+00 8.69614E+01 0.00000E+00
 -1      1391 8.94460E+01 7.03955E+00 0.00000E+00
 -1      1392 8.76573E+01 1.38836E+01 0.00000E+00
 -1      1394 8.72435E+01 2.09453E+01 0.00000E+00
 -1      1395 8.44063E+01 2.74253E+01 0.00000E+00
 -1      1397 8.28928E+01 3.43353E+01 0.00000E+00
 -1      1398 7.90768E+01 4.02917E+01 0.00000E+00
 -1      1400 7.65011E+01 4.68799E+01 0.00000E+00
 -1      1401 7.18003E+01 5.21659E+01 0.00000E+00
 -1      1403 6.82256E+01 5.82701E+01 0.00000E+00
 -1      1404 6.27557E+01 6.27557E+01 0.00000E+00
 -1      1406 5.82701E+01 6.82256E+01 0.00000E+00
 -1      1407 5.21659E+01 7.18003E+01 0.00000E+00
 -1      1409 4.68799E+01 7.65011E+01 0.00000E+00
 -1      1410 4.02917E+01 7.90768E+01 0.00000E+00
 -1      1412 3.43353E+01 8.28928E+01 0.00000E+00
 -1      1413 2.74253E+01 8.44063E+01 0.00000E+00
 -1      1415 2.09453E+01 8.72435E+01 0.00000E+00
 -1      1416 1.38836E+01 8.76573E+01 0.00000E+00
 -1      1418 7.03955E+00 8.94460E+01 0.00000E+00
 -1      1420 9.19306E+01 7.23509E+00 0.00000E+00
 -1      1421 9.01266E+01 1.42746E+01 0.00000E+00
 -1      1423 8.96669E+01 2.15271E+01 0.00000E+00
 -1      1424 8.67839E+01 2.81978E+01 0.00000E+00
 -1      1426 8.51954E+01 3.52891E+01 0.00000E+00
 -1      1427 8.13043E+01 4.14266E+01 0.00000E+00
 -1      1429 7.86261E+01 4.81821E+01 0.00000E+00
 -1      1430 7.38228E+01 5.36354E+01 0.00000E+00
 -1      1432 7.01207E+01 5.98888E+01 0.00000E+00
 -1      1433 6.45235E+01 6.45235E+01 0.00000E+00
 -1      1435 5.98888E+01 7.01207E+01 0.00000E+00
 -1      1436 5.36354E+01 7.38228E+01 0.00000E+00
 -1      1438 4.81821E+01 7.86261E+01 0.00000E+00
 -1      1439 4.14266E+01 8.13043E+01 0.00000E+00
 -1      1441 3.52891E+01 8.51954E+01 0.00000E+00
 -1      1442 2.81978E+01 8.67839E+01 0.00000E+00
 -1      1444 2.15271E+01 8.96669E+01 0.00000E+00
 -1      1445 1.42746E+01 9.01266E+01 0.00000E+00
 -1      1447 7.23509E+00 9.19306E+01 0.00000E+00
 -1      1449 9.44152E+01 7.43064E+00 0.00000E+00
 -1      1450 9.25958E+01 1.46657E+01 0.00000E+00
 -1      1452 9.20904E+01 2.21089E+01 0.00000E+00
 -1      1453 8.91615E+01 2.89703E+01 0.00000E+00
 -1      1455 8.74980E+01 3.62429E+01 0.00000E+00
 -1      1456 8.35319E+01 4.25616E+01 0.00000E+00
 -1      1458 8.07511E+01 4.94843E+01 0.00000E+00
 -1      1459 7.58453E+01 5.51049E+01 0.00000E+00
 -1      1461 7.20159E+01 6.15074E+01 0.00000E+00
 -1      1462 6.62913E+01 6.62913E+01 0.00000E+00
 -1      1464 6.15074E+01 7.20159E+01 0.00000E+00
 -1      1465 5.51049E+01 7.58453E+01 0.00000E+00
 -1      1467 4.94843E+01 8.07511E+01 0.00000E+00
 -1      1468 4.25616E+01 8.35319E+01 0.00000E+00
 -1      1470 3.62429E+01 8.74980E+01 0.00000E+00
 -1      1471 2.89703E+01 8.91615E+01 0.00000E+00
 -1      1473 2.21089E+01 9.20904E+01 0.00000E+00
 -1      1474 1.46657E+01 9.25958E+01 0.00000E+00
 -1      1476 7.43064E+00 9.44152E+01 0.00000E+00
 -1      1478 9.68998E+01 7.62618E+00 0.00000E+00
 -1      1479 9.50650E+01 1.50568E+01 0.00000E+00
 -1      1481 9.45138E+01 2.26908E+01 0.00000E+00
 -1      1482 9.15392E+01 2.97429E+01 0.00000E+00
 -1      1484 8.98006E+01 3.71966E+01 0.00000E+00
 -1      1485 8.57594E+01 4.36966E+01 0.00000E+00
 -1      1487 8.28761E+01 5.07866E+01 0.00000E+00
 -1      1488 7.78679E+01 5.65743E+01 0.00000E+00
 -1      1490 7.39110E+01 6.31260E+01 0.00000E+00
 -1      1491 6.80590E+01 6.80590E+01 0.00000E+00
 -1      1493 6.31260E+01 7.39110E+01 0.00000E+00
 -1      1494 5.65743E+01 7.78679E+01 0.00000E+00
 -1      1496 5.07866E+01 8.28761E+01 0.00000E+00
 -1      1497 4.36966E+01 8.57594E+01 0.00000E+00
 -1      1499 3.71966E+01 8.98006E+01 0.00000E+00
 -1      1500 2.97429E+01 9.15392E+01 0.00000E+00
 -1      1502 2.26908E+01 9.45138E+01 0.00000E+00
 -1      1503 1.50568E+01 9.50650E+01 0.00000E+00
 -1      1505 7.62618E+00 9.68998E+01 0.00000E+00
 -1      1507 9.75342E+01 1.54479E+01 0.00000E+00
 -1      1509 9.39168E+01 3.05154E+01 0.00000E+00
 -1      1511 8.79869E+01 4.48316E+01 0.00000E+00
 -1      1513 7.98904E+01 5.80438E+01 0.00000E+00
 -1      1515 6.98268E+01 6.98268E+01 0.00000E+00
 -1      1517 5.80438E+01 7.98904E+01 0.00000E+00
 -1      1519 4.48316E+01 8.79869E+01 0.00000E+00
 -1      1521 3.05154E+01 9.39168E+01 0.00000E+00
 -1      1523 1.54479E+01 9.75342E+01 0.00000E+00
 -1      1526 2.75000E+01 0.00000E+00 9.09091E-01
 -1      1527 2.75000E+01 0.00000E+00 1.81818E+00
 -1      1528 2.75000E+01 0.00000E+00 2.72727E+00
 -1      1529 2.75000E+01 0.00000E+00 3.63636E+00
 -1      1530 2.75000E+01 0.00000E+00 4.54545E+00
 -1      1531 2.75000E+01 0.00000E+00 5.45455E+00
 -1      1532 2.75000E+01 0.00000E+00 6.36364E+00
 -1      1533 2.75000E+01 0.00000E+00 7.27273E+00
 -1      1534 2.75000E+01 0.00000E+00 8.18182E+00
 -1      1535 2.75000E+01 0.00000E+00 9.09091E+00
 -1      1536 3.00000E+01 0.00000E+00 9.09091E-01
 -1      1537 3.00000E+01 0.00000E+00 1.81818E+00
 -1      1538 3.00000E+01 0.00000E+00 2.72727E+00
 -1      1539 3.00000E+01 0.00000E+00 3.63636E+00
 -1      1540 3.00000E+01 0.00000E+00 4.54545E+00
 -1      1541 3.00000E+01 0.00000E+00 5.45455E+00
 -1      1542 3.00000E+01 0.00000E+00 6.36364E+00
 -1      1543 3.00000E+01 0.00000E+00 7.27273E+00
 -1      1544 3.00000E+01 0.00000E+00 8.18182E+00
 -1      1545 3.00000E+01 0.00000E+00 9.09091E+00
 -1      1546 3.25000E+01 0.00000E+00 9.09091E-01
 -1      1547 3.25000E+01 0.00000E+00 1.81818E+00
 -1      1548 3.25000E+01 0.00000E+00 2.72727E+00
 -1      1549 3.25000E+01 0.00000E+00 3.63636E+00
 -1      1550 3.25000E+01 0.00000E+00 4.54545E+00
 -1      1551 3.25000E+01 0.00000E+00 5.45455E+00
 -1      1552 3.25000E+01 0.00000E+00 6.36364E+00
 -1      1553 3.25000E+01 0.00000E+00 7.27273E+00
 -1      1554 3.25000E+01 0.00000E+00 8.18182E+00
 -1      1555 3.25000E+01 0.00000E+00 9.09091E+00
 -1      1556 3.50000E+01 0.00000E+00 9.09091E-01
 -1      1557 3.50000E+01 0.00000E+00 1.81818E+00
 -1      1558 3.50000E+01 0.00000E+00 2.72727E+00
 -1      1559 3.50000E+01 0.00000E+00 3.63636E+00
 -1      1560 3.50000E+01 0.00000E+00 4.54545E+00
 -1      1561 3.50000E+01 0.00000E+00 5.45455E+00
 -1      1562 3.50000E+01 0.00000E+00 6.36364E+00
 -1      1563 3.50000E+01 0.00000E+00 7.27273E+00
 -1      1564 3.50000E+01 0.00000E+00 8.18182E+00
 -1      1565 3.50000E+01 0.00000E+00 9.09091E+00
 -1      1566 3.75000E+01 0.00000E+00 9.09091E-01
 -1      1567 3.75000E+01 0.00000E+00 1.81818E+00
 -1      1568 3.75000E+01 0.00000E+00 2.72727E+00
 -1      1569 3.75000E+01 0.00000E+00 3.63636E+00
 -1      1570 3.75000E+01 0.00000E+00 4.54545E+00
 -1      1571 3.75000E+01 0.00000E+00 5.45455E+00
 -1      1572 3.75000E+01 0.00000E+00 6.36364E+00
 -1      1573 3.75000E+01 0.00000E+00 7.27273E+00
 -1      1574 3.75000E+01 0.00000E+00 8.18182E+00
 -1      1575 3.75000E+01 0.00000E+00 9.09091E+00
 -1      1576 4.00000E+01 0.00000E+00 9.09091E-01
 -1      1577 4.00000E+01 0.00000E+00 1.81818E+00
 -1      1578 4.00000E+01 0.00000E+00 2.72727E+00
 -1      1579 4.00000E+01 0.00000E+00 3.63636E+00
 -1      1580 4.00000E+01 0.00000E+00 4.54545E+00
 -1      1581 4.00000E+01 0.00000E+00 5.45455E+00
 -1      1582 4.00000E+01 0.00000E+00 6.36364E+00
 -1      1583 4.00000E+01 0.00000E+00 7.27273E+00
 -1      1584 4.00000E+01 0.00000E+00 8.18182E+00
 -1      1585 4.00000E+01 0.00000E+00 9.09091E+00
 -1      1586 4.25000E+01 0.00000E+00 9.09091E-01
 -1      1587 4.25000E+01 0.00000E+00 1.81818E+00
 -1      1588 4.25000E+01 0.00000E+00 2.72727E+00
 -1      1589 4.25000E+01 0.00000E+00 3.63636E+00
 -1      1590 4.25000E+01 0.00000E+00 4.54545E+00
 -1      1591 4.25000E+01 0.00000E+00 5.45455E+00
 -1      1592 4.25000E+01 0.00000E+00 6.36364E+00
 -1      1593 4.25000E+01 0.00000E+00 7.27273E+00
 -1      1594 4.25000E+01 0.00000E+00 8.18182E+00
 -1      1595 4.25000E+01 0.00000E+00 9.09091E+00
 -1      1596 4.50000E+01 0.00000E+00 9.09091E-01
 -1      1597 4.50000E+01 0.00000E+00 1.81818E+00
 -1      1598 4.50000E+01 0.00000E+00 2.72727E+00
 -1      1599 4.50000E+01 0.00000E+00 3.63636E+00
 -1      1600 4.50000E+01 0.00000E+00 4.54545E+00
 -1      1601 4.50000E+01 0.00000E+00 5.45455E+00
 -1      1602 4.50000E+01 0.00000E+00 6.36364E+00
 -1      1603 4.50000E+01 0.00000E+00 7.27273E+00
 -1      1604 4.50000E+01 0.00000E+00 8.18182E+00
 -1      1605 4.50000E+01 0.00000E+00 9.09091E+00
 -1      1606 4.75000E+01 0.00000E+00 9.09091E-01
 -1      1607 4.75000E+01 0.00000E+00 1.81818E+00
 -1      1608 4.75000E+01 0.00000E+00 2.72727E+00
 -1      1609 4.75000E+01 0.00000E+00 3.63636E+00
 -1      1610 4.75000E+01 0.00000E+00 4.54545E+00
 -1      1611 4.75000E+01 0.00000E+00 5.45455E+00
 -1      1612 4.75000E+01 0.00000E+00 6.36364E+00
 -1      1613 4.75000E+01 0.00000E+00 7.27273E+00
 -1      1614 4.75000E+01 0.00000E+00 8.18182E+00
 -1      1615 4.75000E+01 0.00000E+00 9.09091E+00
 -1      1616 5.00000E+01 0.00000E+00 9.09091E-01
 -1      1617 5.00000E+01 0.00000E+00 1.81818E+00
 -1      1618 5.00000E+01 0.00000E+00 2.72727E+00
 -1      1619 5.00000E+01 0.00000E+00 3.63636E+00
 -1      1620 5.00000E+01 0.00000E+00 4.54545E+00
 -1      1621 5.00000E+01 0.00000E+00 5.45455E+00
 -1      1622 5.00000E+01 0.00000E+00 6.36364E+00
 -1      1623 5.00000E+01 0.00000E+00 7.27273E+00
 -1      1624 5.00000E+01 0.00000E+00 8.18182E+00
 -1      1625 5.00000E+01 0.00000E+00 9.09091E+00
 -1      1626 5.25000E+01 0.00000E+00 9.09091E-01
 -1      1627 5.25000E+01 0.00000E+00 1.81818E+00
 -1      1628 5.25000E+01 0.00000E+00 2.72727E+00
 -1      1629 5.25000E+01 0.00000E+00 3.63636E+00
 -1      1630 5.25000E+01 0.00000E+00 4.54545E+00
 -1      1631 5.25000E+01 0.00000E+00 5.45455E+00
 -1      1632 5.25000E+01 0.00000E+00 6.36364E+00
 -1      1633 5.25000E+01 0.00000E+00 7.27273E+00
 -1      1634 5.25000E+01 0.00000E+00 8.18182E+00
 -1      1635 5.25000E+01 0.00000E+00 9.09091E+00
 -1      1636 5.50000E+01 0.00000E+00 9.09091E-01
 -1      1637 5.50000E+01 0.00000E+00 1.81818E+00
 -1      1638 5.50000E+01 0.00000E+00 2.72727E+00
 -1      1639 5.50000E+01 0.00000E+00 3.63636E+00
 -1      1640 5.50000E+01 0.00000E+00 4.54545E+00
 -1      1641 5.50000E+01 0.00000E+00 5.45455E+00
 -1      1642 5.50000E+01 0.00000E+00 6.36364E+00
 -1      1643 5.50000E+01 0.00000E+00 7.27273E+00
 -1      1644 5.50000E+01 0.00000E+00 8.18182E+00
 -1      1645 5.50000E+01 0.00000E+00 9.09091E+00
 -1      1646 5.75000E+01 0.00000E+00 9.09091E-01
 -1      1647 5.75000E+01 0.00000E+00 1.81818E+00
 -1      1648 5.75000E+01 0.00000E+00 2.72727E+00
 -1      1649 5.75000E+01 0.00000E+00 3.63636E+00
 -1      1650 5.75000E+01 0.00000E+00 4.54545E+00
 -1      1651 5.75000E+01 0.00000E+00 5.45455E+00
 -1      1652 5.75000E+01 0.00000E+00 6.36364E+00
 -1      1653 5.75000E+01 0.00000E+00 7.27273E+00
 -1      1654 5.75000E+01 0.00000E+00 8.18182E+00
 -1      1655 5.75000E+01 0.00000E+00 9.09091E+00
 -1      1656 6.00000E+01 0.00000E+00 9.09091E-01
 -1      1657 6.00000E+01 0.00000E+00 1.81818E+00
 -1      1658 6.00000E+01 0.00000E+00 2.72727E+00
 -1      1659 6.00000E+01 0.00000E+00 3.63636E+00
 -1      1660 6.00000E+01 0.00000E+00 4.54545E+00
 -1      1661 6.00000E+01 0.00000E+00 5.45455E+00
 -1      1662 6.00000E+01 0.00000E+00 6.36364E+00
 -1      1663 6.00000E+01 0.00000E+00 7.27273E+00
 -1      1664 6.00000E+01 0.00000E+00 8.18182E+00
 -1      1665 6.00000E+01 0.00000E+00 9.09091E+00
 -1      1666 6.25000E+01 0.00000E+00 9.09091E-01
 -1      1667 6.25000E+01 0.00000E+00 1.81818E+00
 -1      1668 6.25000E+01 0.00000E+00 2.72727E+00
 -1      1669 6.25000E+01 0.00000E+00 3.63636E+00
 -1      1670 6.25000E+01 0.00000E+00 4.54545E+00
 -1      1671 6.25000E+01 0.00000E+00 5.45455E+00
 -1      1672 6.25000E+01 0.00000E+00 6.36364E+00
 -1      1673 6.25000E+01 0.00000E+00 7.27273E+00
 -1      1674 6.25000E+01 0.00000E+00 8.18182E+00
 -1      1675 6.25000E+01 0.00000E+00 9.09091E+00
 -1      1676 6.50000E+01 0.00000E+00 9.09091E-01
 -1      1677 6.50000E+01 0.00000E+00 1.81818E+00
 -1      1678 6.50000E+01 0.00000E+00 2.72727E+00
 -1      1679 6.50000E+01 0.00000E+00 3.63636E+00
 -1      1680 6.50000E+01 0.00000E+00 4.54545E+00
 -1      1681 6.50000E+01 0.00000E+00 5.45455E+00
 -1      1682 6.50000E+01 0.00000E+00 6.36364E+00
 -1      1683 6.50000E+01 0.00000E+00 7.27273E+00
 -1      1684 6.50000E+01 0.00000E+00 8.18182E+00
 -1      1685 6.50000E+01 0.00000E+00 9.09091E+00
 -1      1686 6.75000E+01 0.00000E+00 9.09091E-01
 -1      1687 6.75000E+01 0.00000E+00 1.81818E+00
 -1      1688 6.75000E+01 0.00000E+00 2.72727E+00
 -1      1689 6.75000E+01 0.00000E+00 3.63636E+00
 -1      1690 6.75000E+01 0.00000E+00 4.54545E+00
 -1      1691 6.75000E+01 0.00000E+00 5.45455E+00
 -1      1692 6.75000E+01 0.00000E+00 6.36364E+00
 -1      1693 6.75000E+01 0.00000E+00 7.27273E+00
 -1      1694 6.75000E+01 0.00000E+00 8.18182E+00
 -1      1695 6.75000E+01 0.00000E+00 9.09091E+00
 -1      1696 7.00000E+01 0.00000E+00 9.09091E-01
 -1      1697 7.00000E+01 0.00000E+00 1.81818E+00
 -1      1698 7.00000E+01 0.00000E+00 2.72727E+00
 -1      1699 7.00000E+01 0.00000E+00 3.63636E+00
 -1      1700 7.00000E+01 0.00000E+00 4.54545E+00
 -1      1701 7.00000E+01 0.00000E+00 5.45455E+00
 -1      1702 7.00000E+01 0.00000E+00 6.36364E+00
 -1      1703 7.00000E+01 0.00000E+00 7.27273E+00
 -1      1704 7.00000E+01 0.00000E+00 8.18182E+00
 -1      1705 7.00000E+01 0.00000E+00 9.09091E+00
 -1      1706 7.25000E+01 0.00000E+00 9.09091E-01
 -1      1707 7.25000E+01 0.00000E+00 1.81818E+00
 -1      1708 7.25000E+01 0.00000E+00 2.72727E+00
 -1      1709 7.25000E+01 0.00000E+00 3.63636E+00
 -1      1710 7.25000E+01 0.00000E+00 4.54545E+00
 -1      1711 7.25000E+01 0.00000E+00 5.45455E+00
 -1      1712 7.25000E+01 0.00000E+00 6.36364E+00
 -1      1713 7.25000E+01 0.00000E+00 7.27273E+00
 -1      1714 7.25000E+01 0.00000E+00 8.18182E+00
 -1      1715 7.25000E+01 0.00000E+00 9.09091E+00
 -1      1716 7.50000E+01 0.00000E+00 9.09091E-01
 -1      1717 7.50000E+01 0.00000E+00 1.81818E+00
 -1      1718 7.50000E+01 0.00000E+00 2.72727E+00
 -1      1719 7.50000E+01 0.00000E+00 3.63636E+00
 -1      1720 7.50000E+01 0.00000E+00 4.54545E+00
 -1      1721 7.50000E+01 0.00000E+00 5.45455E+00
 -1      1722 7.50000E+01 0.00000E+00 6.36364E+00
 -1      1723 7.50000E+01 0.00000E+00 7.27273E+00
 -1      1724 7.50000E+01 0.00000E+00 8.18182E+00
 -1      1725 7.50000E+01 0.00000E+00 9.09091E+00
 -1      1726 7.75000E+01 0.00000E+00 9.09091E-01
 -1      1727 7.75000E+01 0.00000E+00 1.81818E+00
 -1      1728 7.75000E+01 0.00000E+00 2.72727E+00
 -1      1729 7.75000E+01 0.00000E+00 3.63636E+00
 -1      1730 7.75000E+01 0.00000E+00 4.54545E+00
 -1      1731 7.75000E+01 0.00000E+00 5.45455E+00
 -1      1732 7.75000E+01 0.00000E+00 6.36364E+00
 -1      1733 7.75000E+01 0.00000E+00 7.27273E+00
 -1      1734 7.75000E+01 0.00000E+00 8.18182E+00
 -1      1735 7.75000E+01 0.00000E+00 9.09091E+00
 -1      1736 8.00000E+01 0.00000E+00 9.09091E-01
 -1      1737 8.00000E+01 0.00000E+00 1.81818E+00
 -1      1738 8.00000E+01 0.00000E+00 2.72727E+00
 -1      1739 8.00000E+01 0.00000E+00 3.63636E+00
 -1      1740 8.00000E+01 0.00000E+00 4.54545E+00
 -1      1741 8.00000E+01 0.00000E+00 5.45455E+00
 -1      1742 8.00000E+01 0.00000E+00 6.36364E+00
 -1      1743 8.00000E+01 0.00000E+00 7.27273E+00
 -1      1744 8.00000E+01 0.00000E+00 8.18182E+00
 -1      1745 8.00000E+01 0.00000E+00 9.09091E+00
 -1      1746 8.25000E+01 0.00000E+00 9.09091E-01
 -1      1747 8.25000E+01 0.00000E+00 1.81818E+00
 -1      1748 8.25000E+01 0.00000E+00 2.72727E+00
 -1      1749 8.25000E+01 0.00000E+00 3.63636E+00
 -1      1750 8.25000E+01 0.00000E+00 4.54545E+00
 -1      1751 8.25000E+01 0.00000E+00 5.45455E+00
 -1      1752 8.25000E+01 0.00000E+00 6.36364E+00
 -1      1753 8.25000E+01 0.00000E+00 7.27273E+00
 -1      1754 8.25000E+01 0.00000E+00 8.18182E+00
 -1      1755 8.25000E+01 0.00000E+00 9.09091E+00
 -1      1756 8.50000E+01 0.00000E+00 9.09091E-01
 -1      1757 8.50000E+01 0.00000E+00 1.81818E+00
 -1      1758 8.50000E+01 0.00000E+00 2.72727E+00
 -1      1759 8.50000E+01 0.00000E+00 3.63636E+00
 -1      1760 8.50000E+01 0.00000E+00 4.54545E+00
 -1      1761 8.50000E+01 0.00000E+00 5.45455E+00
 -1      1762 8.50000E+01 0.00000E+00 6.36364E+00
 -1      1763 8.50000E+01 0.00000E+00 7.27273E+00
 -1      1764 8.50000E+01 0.00000E+00 8.18182E+00
 -1      1765 8.50000E+01 0.00000E+00 9.09091E+00
 -1      1766 8.75000E+01 0.00000E+00 9.09091E-01
 -1      1767 8.75000E+01 0.00000E+00 1.81818E+00
 -1      1768 8.75000E+01 0.00000E+00 2.72727E+00
 -1      1769 8.75000E+01 0.00000E+00 3.63636E+00
 -1      1770 8.75000E+01 0.00000E+00 4.54545E+00
 -1      1771 8.75000E+01 0.00000E+00 5.45455E+00
 -1      1772 8.75000E+01 0.00000E+00 6.36364E+00
 -1      1773 8.75000E+01 0.00000E+00 7.27273E+00
 -1      1774 8.75000E+01 0.00000E+00 8.18182E+00
 -1      1775 8.75000E+01 0.00000E+00 9.09091E+00
 -1      1776 9.00000E+01 0.00000E+00 9.09091E-01
 -1      1777 9.00000E+01 0.00000E+00 1.81818E+00
 -1      1778 9.00000E+01 0.00000E+00 2.72727E+00
 -1      1779 9.00000E+01 0.00000E+00 3.63636E+00
 -1      1780 9.00000E+01 0.00000E+00 4.54545E+00
 -1      1781 9.00000E+01 0.00000E+00 5.45455E+00
 -1      1782 9.00000E+01 0.00000E+00 6.36364E+00
 -1      1783 9.00000E+01 0.00000E+00 7.27273E+00
 -1      1784 9.00000E+01 0.00000E+00 8.18182E+00
 -1      1785 9.00000E+01 0.00000E+00 9.09091E+00
 -1      1786 9.25000E+01 0.00000E+00 9.09091E-01
 -1      1787 9.25000E+01 0.00000E+00 1.81818E+00
 -1      1788 9.25000E+01 0.00000E+00 2.72727E+00
 -1      1789 9.25000E+01 0.00000E+00 3.63636E+00
 -1      1790 9.25000E+01 0.00000E+00 4.54545E+00
 -1      1791 9.25000E+01 0.00000E+00 5.45455E+00
 -1      1792 9.25000E+01 0.00000E+00 6.36364E+00
 -1      1793 9.25000E+01 0.00000E+00 7.27273E+00
 -1      1794 9.25000E+01 0.00000E+00 8.18182E+00
 -1      1795 9.25000E+01 0.00000E+00 9.09091E+00
 -1      1796 9.50000E+01 0.00000E+00 9.09091E-01
 -1      1797 9.50000E+01 0.00000E+00 1.81818E+00
 -1      1798 9.50000E+01 0.00000E+00 2.72727E+00
 -1      1799 9.50000E+01 0.00000E+00 3.63636E+00
 -1      1800 9.50000E+01 0.00000E+00 4.54545E+00
 -1      1801 9.50000E+01 0.00000E+00 5.45455E+00
 -1      1802 9.50000E+01 0.00000E+00 6.36364E+00
 -1      1803 9.50000E+01 0.00000E+00 7.27273E+00
 -1      1804 9.50000E+01 0.00000E+00 8.18182E+00
 -1      1805 9.50000E+01 0.00000E+00 9.09091E+00
 -1      1806 9.75000E+01 0.00000E+00 9.09091E-01
 -1      1807 9.75000E+01 0.00000E+00 1.81818E+00
 -1      1808 9.75000E+01 0.00000E+00 2.72727E+00
 -1      1809 9.75000E+01 0.00000E+00 3.63636E+00
 -1      1810 9.75000E+01 0.00000E+00 4.54545E+00
 -1      1811 9.75000E+01 0.00000E+00 5.45455E+00
 -1      1812 9.75000E+01 0.00000E+00 6.36364E+00
 -1      1813 9.75000E+01 0.00000E+00 7.27273E+00
 -1      1814 9.75000E+01 0.00000E+00 8.18182E+00
 -1      1815 9.75000E+01 0.00000E+00 9.09091E+00
 -1      1816 2.75000E+01 0.00000E+00 4.54545E-01
 -1      1817 2.62500E+01 0.00000E+00 9.09091E-01
 -1      1819 2.75000E+01 0.00000E+00 1.36364E+00
 -1      1820 2.62500E+01 0.00000E+00 1.81818E+00
 -1      1822 2.75000E+01 0.00000E+00 2.27273E+00
 -1      1823 2.62500E+01 0.00000E+00 2.72727E+00
 -1      1825 2.75000E+01 0.00000E+00 3.18182E+00
 -1      1826 2.62500E+01 0.00000E+00 3.63636E+00
 -1      1828 2.75000E+01 0.00000E+00 4.09091E+00
 -1      1829 2.62500E+01 0.00000E+00 4.54545E+00
 -1      1831 2.75000E+01 0.00000E+00 5.00000E+00
 -1      1832 2.62500E+01 0.00000E+00 5.45455E+00
 -1      1834 2.75000E+01 0.00000E+00 5.90909E+00
 -1      1835 2.62500E+01 0.00000E+00 6.36364E+00
 -1      1837 2.75000E+01 0.00000E+00 6.81818E+00
 -1      1838 2.62500E+01 0.00000E+00 7.27273E+00
 -1      1840 2.75000E+01 0.00000E+00 7.72727E+00
 -1      1841 2.62500E+01 0.00000E+00 8.18182E+00
 -1      1843 2.75000E+01 0.00000E+00 8.63636E+00
 -1      1844 2.62500E+01 0.00000E+00 9.09091E+00
 -1      1846 2.75000E+01 0.00000E+00 9.54545E+00
 -1      1848 3.00000E+01 0.00000E+00 4.54545E-01
 -1      1849 2.87500E+01 0.00000E+00 9.09091E-01
 -1      1851 3.00000E+01 0.00000E+00 1.36364E+00
 -1      1852 2.87500E+01 0.00000E+00 1.81818E+00
 -1      1854 3.00000E+01 0.00000E+00 2.27273E+00
 -1      1855 2.87500E+01 0.00000E+00 2.72727E+00
 -1      1857 3.00000E+01 0.00000E+00 3.18182E+00
 -1      1858 2.87500E+01 0.00000E+00 3.63636E+00
 -1      1860 3.00000E+01 0.00000E+00 4.09091E+00
 -1      1861 2.87500E+01 0.00000E+00 4.54545E+00
 -1      1863 3.00000E+01 0.00000E+00 5.00000E+00
 -1      1864 2.87500E+01 0.00000E+00 5.45455E+00
 -1      1866 3.00000E+01 0.00000E+00 5.90909E+00
 -1      1867 2.87500E+01 0.00000E+00 6.36364E+00
 -1      1869 3.00000E+01 0.00000E+00 6.81818E+00
 -1      1870 2.87500E+01 0.00000E+00 7.27273E+00
 -1      1872 3.00000E+01 0.00000E+00 7.72727E+00
 -1      1873 2.87500E+01 0.00000E+00 8.18182E+00
 -1      1875 3.00000E+01 0.00000E+00 8.63636E+00
 -1      1876 2.87500E+01 0.00000E+00 9.09091E+00
 -1      1878 3.00000E+01 0.00000E+00 9.54545E+00
 -1      1880 3.25000E+01 0.00000E+00 4.54545E-01
 -1      1881 3.12500E+01 0.00000E+00 9.09091E-01
 -1      1883 3.25000E+01 0.00000E+00 1.36364E+00
 -1      1884 3.12500E+01 0.00000E+00 1.81818E+00
 -1      1886 3.25000E+01 0.00000E+00 2.27273E+00
 -1      1887 3.12500E+01 0.00000E+00 2.72727E+00
 -1      1889 3.25000E+01 0.00000E+00 3.18182E+00
 -1      1890 3.12500E+01 0.00000E+00 3.63636E+00
 -1      1892 3.25000E+01 0.00000E+00 4.09091E+00
 -1      1893 3.12500E+01 0.00000E+00 4.54545E+00
 -1      1895 3.25000E+01 0.00000E+00 5.00000E+00
 -1      1896 3.12500E+01 0.00000E+00 5.45455E+00
 -1      1898 3.25000E+01 0.00000E+00 5.90909E+00
 -1      1899 3.12500E+01 0.00000E+00 6.36364E+00
 -1      1901 3.25000E+01 0.00000E+00 6.81818E+00
 -1      1902 3.12500E+01 0.00000E+00 7.27273E+00
 -1      1904 3.25000E+01 0.00000E+00 7.72727E+00
 -1      1905 3.12500E+01 0.00000E+00 8.18182E+00
 -1      1907 3.25000E+01 0.00000E+00 8.63636E+00
 -1      1908 3.12500E+01 0.00000E+00 9.09091E+00
 -1      1910 3.25000E+01 0.00000E+00 9.54545E+00
 -1      1912 3.50000E+01 0.00000E+00 4.54545E-01
 -1      1913 3.37500E+01 0.00000E+00 9.09091E-01
 -1      1915 3.50000E+01 0.00000E+00 1.36364E+00
 -1      1916 3.37500E+01 0.00000E+00 1.81818E+00
 -1      1918 3.50000E+01 0.00000E+00 2.27273E+00
 -1      1919 3.37500E+01 0.00000E+00 2.72727E+00
 -1      1921 3.50000E+01 0.00000E+00 3.18182E+00
 -1      1922 3.37500E+01 0.00000E+00 3.63636E+00
 -1      1924 3.50000E+01 0.00000E+00 4.09091E+00
 -1      1925 3.37500E+01 0.00000E+00 4.54545E+00
 -1      1927 3.50000E+01 0.00000E+00 5.00000E+00
 -1      1928 3.37500E+01 0.00000E+00 5.45455E+00
 -1      1930 3.50000E+01 0.00000E+00 5.90909E+00
 -1      1931 3.37500E+01 0.00000E+00 6.36364E+00
 -1      1933 3.50000E+01 0.00000E+00 6.81818E+00
 -1      1934 3.37500E+01 0.00000E+00 7.27273E+00
 -1      1936 3.50000E+01 0.00000E+00 7.72727E+00
 -1      1937 3.37500E+01 0.00000E+00 8.18182E+00
 -1      1939 3.50000E+01 0.00000E+00 8.63636E+00
 -1      1940 3.37500E+01 0.00000E+00 9.09091E+00
 -1      1942 3.50000E+01 0.00000E+00 9.54545E+00
 -1      1944 3.75000E+01 0.00000E+00 4.54545E-01
 -1      1945 3.62500E+01 0.00000E+00 9.09091E-01
 -1      1947 3.75000E+01 0.00000E+00 1.36364E+00
 -1      1948 3.62500E+01 0.00000E+00 1.81818E+00
 -1      1950 3.75000E+01 0.00000E+00 2.27273E+00
 -1      1951 3.62500E+01 0.00000E+00 2.72727E+00
 -1      1953 3.75000E+01 0.00000E+00 3.18182E+00
 -1      1954 3.62500E+01 0.00000E+00 3.63636E+00
 -1      1956 3.75000E+01 0.00000E+00 4.09091E+00
 -1      1957 3.62500E+01 0.00000E+00 4.54545E+00
 -1      1959 3.75000E+01 0.00000E+00 5.00000E+00
 -1      1960 3.62500E+01 0.00000E+00 5.45455E+00
 -1      1962 3.75000E+01 0.00000E+00 5.90909E+00
 -1      1963 3.62500E+01 0.00000E+00 6.36364E+00
 -1      1965 3.75000E+01 0.00000E+00 6.81818E+00
 -1      1966 3.62500E+01 0.00000E+00 7.27273E+00
 -1      1968 3.75000E+01 0.00000E+00 7.72727E+00
 -1      1969 3.62500E+01 0.00000E+00 8.18182E+00
 -1      1971 3.75000E+01 0.00000E+00 8.63636E+00
 -1      1972 3.62500E+01 0.00000E+00 9.09091E+00
 -1      1974 3.75000E+01 0.00000E+00 9.54545E+00
 -1      1976 4.00000E+01 0.00000E+00 4.54545E-01
 -1      1977 3.87500E+01 0.00000E+00 9.09091E-01
 -1      1979 4.00000E+01 0.00000E+00 1.36364E+00
 -1      1980 3.87500E+01 0.00000E+00 1.81818E+00
 -1      1982 4.00000E+01 0.00000E+00 2.27273E+00
 -1      1983 3.87500E+01 0.00000E+00 2.72727E+00
 -1      1985 4.00000E+01 0.00000E+00 3.18182E+00
 -1      1986 3.87500E+01 0.00000E+00 3.63636E+00
 -1      1988 4.00000E+01 0.00000E+00 4.09091E+00
 -1      1989 3.87500E+01 0.00000E+00 4.54545E+00
 -1      1991 4.00000E+01 0.00000E+00 5.00000E+00
 -1      1992 3.87500E+01 0.00000E+00 5.45455E+00
 -1      1994 4.00000E+01 0.00000E+00 5.90909E+00
 -1      1995 3.87500E+01 0.00000E+00 6.36364E+00
 -1      1997 4.00000E+01 0.00000E+00 6.81818E+00
 -1      1998 3.87500E+01 0.00000E+00 7.27273E+00
 -1      2000 4.00000E+01 0.00000E+00 7.72727E+00
 -1      2001 3.87500E+01 0.00000E+00 8.18182E+00
 -1      2003 4.00000E+01 0.00000E+00 8.63636E+00
 -1      2004 3.87500E+01 0.00000E+00 9.09091E+00
 -1      2006 4.00000E+01 0.00000E+00 9.54545E+00
 -1      2008 4.25000E+01 0.00000E+00 4.54545E-01
 -1      2009 4.12500E+01 0.00000E+00 9.09091E-01
 -1      2011 4.25000E+01 0.00000E+00 1.36364E+00
 -1      2012 4.12500E+01 0.00000E+00 1.81818E+00
 -1      2014 4.25000E+01 0.00000E+00 2.27273E+00
 -1      2015 4.12500E+01 0.00000E+00 2.72727E+00
 -1      2017 4.25000E+01 0.00000E+00 3.18182E+00
 -1      2018 4.12500E+01 0.00000E+00 3.63636E+00
 -1      2020 4.25000E+01 0.00000E+00 4.09091E+00
 -1      2021 4.12500E+01 0.00000E+00 4.54545E+00
 -1      2023 4.25000E+01 0.00000E+00 5.00000E+00
 -1      2024 4.12500E+01 0.00000E+00 5.45455E+00
 -1      2026 4.25000E+01 0.00000E+00 5.90909E+00
 -1      2027 4.12500E+01 0.00000E+00 6.36364E+00
 -1      2029 4.25000E+01 0.00000E+00 6.81818E+00
 -1      2030 4.12500E+01 0.00000E+00 7.27273E+00
 -1      2032 4.25000E+01 0.00000E+00 7.72727E+00
 -1      2033 4.12500E+01 0.00000E+00 8.18182E+00
 -1      2035 4.25000E+01 0.00000E+00 8.63636E+00
 -1      2036 4.12500E+01 0.00000E+00 9.09091E+00
 -1      2038 4.25000E+01 0.00000E+00 9.54545E+00
 -1      2040 4.50000E+01 0.00000E+00 4.54545E-01
 -1      2041 4.37500E+01 0.00000E+00 9.09091E-01
 -1      2043 4.50000E+01 0.00000E+00 1.36364E+00
 -1      2044 4.37500E+01 0.00000E+00 1.81818E+00
 -1      2046 4.50000E+01 0.00000E+00 2.27273E+00
 -1      2047 4.37500E+01 0.00000E+00 2.72727E+00
 -1      2049 4.50000E+01 0.00000E+00 3.18182E+00
 -1      2050 4.37500E+01 0.00000E+00 3.63636E+00
 -1      2052 4.50000E+01 0.00000E+00 4.09091E+00
 -1      2053 4.37500E+01 0.00000E+00 4.54545E+00
 -1      2055 4.50000E+01 0.00000E+00 5.00000E+00
 -1      2056 4.37500E+01 0.00000E+00 5.45455E+00
 -1      2058 4.50000E+01 0.00000E+00 5.90909E+00
 -1      2059 4.37500E+01 0.00000E+00 6.36364E+00
 -1      2061 4.50000E+01 0.00000E+00 6.81818E+00
 -1      2062 4.37500E+01 0.00000E+00 7.27273E+00
 -1      2064 4.50000E+01 0.00000E+00 7.72727E+00
 -1      2065 4.37500E+01 0.00000E+00 8.18182E+00
 -1      2067 4.50000E+01 0.00000E+00 8.63636E+00
 -1      2068 4.37500E+01 0.00000E+00 9.09091E+00
 -1      2070 4.50000E+01 0.00000E+00 9.54545E+00
 -1      2072 4.75000E+01 0.00000E+00 4.54545E-01
 -1      2073 4.62500E+01 0.00000E+00 9.09091E-01
 -1      2075 4.75000E+01 0.00000E+00 1.36364E+00
 -1      2076 4.62500E+01 0.00000E+00 1.81818E+00
 -1      2078 4.75000E+01 0.00000E+00 2.27273E+00
 -1      2079 4.62500E+01 0.00000E+00 2.72727E+00
 -1      2081 4.75000E+01 0.00000E+00 3.18182E+00
 -1      2082 4.62500E+01 0.00000E+00 3.63636E+00
 -1      2084 4.75000E+01 0.00000E+00 4.09091E+00
 -1      2085 4.62500E+01 0.00000E+00 4.54545E+00
 -1      2087 4.75000E+01 0.00000E+00 5.00000E+00
 -1      2088 4.62500E+01 0.00000E+00 5.45455E+00
 -1      2090 4.75000E+01 0.00000E+00 5.90909E+00
 -1      2091 4.62500E+01 0.00000E+00 6.36364E+00
 -1      2093 4.75000E+01 0.00000E+00 6.81818E+00
 -1      2094 4.62500E+01 0.00000E+00 7.27273E+00
 -1      2096 4.75000E+01 0.00000E+00 7.72727E+00
 -1      2097 4.62500E+01 0.00000E+00 8.18182E+00
 -1      2099 4.75000E+01 0.00000E+00 8.63636E+00
 -1      2100 4.62500E+01 0.00000E+00 9.09091E+00
 -1      2102 4.75000E+01 0.00000E+00 9.54545E+00
 -1      2104 5.00000E+01 0.00000E+00 4.54545E-01
 -1      2105 4.87500E+01 0.00000E+00 9.09091E-01
 -1      2107 5.00000E+01 0.00000E+00 1.36364E+00
 -1      2108 4.87500E+01 0.00000E+00 1.81818E+00
 -1      2110 5.00000E+01 0.00000E+00 2.27273E+00
 -1      2111 4.87500E+01 0.00000E+00 2.72727E+00
 -1      2113 5.00000E+01 0.00000E+00 3.18182E+00
 -1      2114 4.87500E+01 0.00000E+00 3.63636E+00
 -1      2116 5.00000E+01 0.00000E+00 4.09091E+00
 -1      2117 4.87500E+01 0.00000E+00 4.54545E+00
 -1      2119 5.00000E+01 0.00000E+00 5.00000E+00
 -1      2120 4.87500E+01 0.00000E+00 5.45455E+00
 -1      2122 5.00000E+01 0.00000E+00 5.90909E+00
 -1      2123 4.87500E+01 0.00000E+00 6.36364E+00
 -1      2125 5.00000E+01 0.00000E+00 6.81818E+00
 -1      2126 4.87500E+01 0.00000E+00 7.27273E+00
 -1      2128 5.00000E+01 0.00000E+00 7.72727E+00
 -1      2129 4.87500E+01 0.00000E+00 8.18182E+00
 -1      2131 5.00000E+01 0.00000E+00 8.63636E+00
 -1      2132 4.87500E+01 0.00000E+00 9.09091E+00
 -1      2134 5.00000E+01 0.00000E+00 9.54545E+00
 -1      2136 5.25000E+01 0.00000E+00 4.54545E-01
 -1      2137 5.12500E+01 0.00000E+00 9.09091E-01
 -1      2139 5.25000E+01 0.00000E+00 1.36364E+00
 -1      2140 5.12500E+01 0.00000E+00 1.81818E+00
 -1      2142 5.25000E+01 0.00000E+00 2.27273E+00
 -1      2143 5.12500E+01 0.00000E+00 2.72727E+00
 -1      2145 5.25000E+01 0.00000E+00 3.18182E+00
 -1      2146 5.12500E+01 0.00000E+00 3.63636E+00
 -1      2148 5.25000E+01 0.00000E+00 4.09091E+00
 -1      2149 5.12500E+01 0.00000E+00 4.54545E+00
 -1      2151 5.25000E+01 0.00000E+00 5.00000E+00
 -1      2152 5.12500E+01 0.00000E+00 5.45455E+00
 -1      2154 5.25000E+01 0.00000E+00 5.90909E+00
 -1      2155 5.12500E+01 0.00000E+00 6.36364E+00
 -1      2157 5.25000E+01 0.00000E+00 6.81818E+00
 -1      2158 5.12500E+01 0.00000E+00 7.27273E+00
 -1      2160 5.25000E+01 0.00000E+00 7.72727E+00
 -1      2161 5.12500E+01 0.00000E+00 8.18182E+00
 -1      2163 5.25000E+01 0.00000E+00 8.63636E+00
 -1      2164 5.12500E+01 0.00000E+00 9.09091E+00
 -1      2166 5.25000E+01 0.00000E+00 9.54545E+00
 -1      2168 5.50000E+01 0.00000E+00 4.54545E-01
 -1      2169 5.37500E+01 0.00000E+00 9.09091E-01
 -1      2171 5.50000E+01 0.00000E+00 1.36364E+00
 -1      2172 5.37500E+01 0.00000E+00 1.81818E+00
 -1      2174 5.50000E+01 0.00000E+00 2.27273E+00
 -1      2175 5.37500E+01 0.00000E+00 2.72727E+00
 -1      2177 5.50000E+01 0.00000E+00 3.18182E+00
 -1      2178 5.37500E+01 0.00000E+00 3.63636E+00
 -1      2180 5.50000E+01 0.00000E+00 4.09091E+00
 -1      2181 5.37500E+01 0.00000E+00 4.54545E+00
 -1      2183 5.50000E+01 0.00000E+00 5.00000E+00
 -1      2184 5.37500E+01 0.00000E+00 5.45455E+00
 -1      2186 5.50000E+01 0.00000E+00 5.90909E+00
 -1      2187 5.37500E+01 0.00000E+00 6.36364E+00
 -1      2189 5.50000E+01 0.00000E+00 6.81818E+00
 -1      2190 5.37500E+01 0.00000E+00 7.27273E+00
 -1      2192 5.50000E+01 0.00000E+00 7.72727E+00
 -1      2193 5.37500E+01 0.00000E+00 8.18182E+00
 -1      2195 5.50000E+01 0.00000E+00 8.63636E+00
 -1      2196 5.37500E+01 0.00000E+00 9.09091E+00
 -1      2198 5.50000E+01 0.00000E+00 9.54545E+00
 -1      2200 5.75000E+01 0.00000E+00 4.54545E-01
 -1      2201 5.62500E+01 0.00000E+00 9.09091E-01
 -1      2203 5.75000E+01 0.00000E+00 1.36364E+00
 -1      2204 5.62500E+01 0.00000E+00 1.81818E+00
 -1      2206 5.75000E+01 0.00000E+00 2.27273E+00
 -1      2207 5.62500E+01 0.00000E+00 2.72727E+00
 -1      2209 5.75000E+01 0.00000E+00 3.18182E+00
 -1      2210 5.62500E+01 0.00000E+00 3.63636E+00
 -1      2212 5.75000E+01 0.00000E+00 4.09091E+00
 -1      2213 5.62500E+01 0.00000E+00 4.54545E+00
 -1      2215 5.75000E+01 0.00000E+00 5.00000E+00
 -1      2216 5.62500E+01 0.00000E+00 5.45455E+00
 -1      2218 5.75000E+01 0.00000E+00 5.90909E+00
 -1      2219 5.62500E+01 0.00000E+00 6.36364E+00
 -1      2221 5.75000E+01 0.00000E+00 6.81818E+00
 -1      2222 5.62500E+01 0.00000E+00 7.27273E+00
 -1      2224 5.75000E+01 0.00000E+00 7.72727E+00
 -1      2225 5.62500E+01 0.00000E+00 8.18182E+00
 -1      2227 5.75000E+01 0.00000E+00 8.63636E+00
 -1      2228 5.62500E+01 0.00000E+00 9.09091E+00
 -1      2230 5.75000E+01 0.00000E+00 9.54545E+00
 -1      2232 6.00000E+01 0.00000E+00 4.54545E-01
 -1      2233 5.87500E+01 0.00000E+00 9.09091E-01
 -1      2235 6.00000E+01 0.00000E+00 1.36364E+00
 -1      2236 5.87500E+01 0.00000E+00 1.81818E+00
 -1      2238 6.00000E+01 0.00000E+00 2.27273E+00
 -1      2239 5.87500E+01 0.00000E+00 2.72727E+00
 -1      2241 6.00000E+01 0.00000E+00 3.18182E+00
 -1      2242 5.87500E+01 0.00000E+00 3.63636E+00
 -1      2244 6.00000E+01 0.00000E+00 4.09091E+00
 -1      2245 5.87500E+01 0.00000E+00 4.54545E+00
 -1      2247 6.00000E+01 0.00000E+00 5.00000E+00
 -1      2248 5.87500E+01 0.00000E+00 5.45455E+00
 -1      2250 6.00000E+01 0.00000E+00 5.90909E+00
 -1      2251 5.87500E+01 0.00000E+00 6.36364E+00
 -1      2253 6.00000E+01 0.00000E+00 6.81818E+00
 -1      2254 5.87500E+01 0.00000E+00 7.27273E+00
 -1      2256 6.00000E+01 0.00000E+00 7.72727E+00
 -1      2257 5.87500E+01 0.00000E+00 8.18182E+00
 -1      2259 6.00000E+01 0.00000E+00 8.63636E+00
 -1      2260 5.87500E+01 0.00000E+00 9.09091E+00
 -1      2262 6.00000E+01 0.00000E+00 9.54545E+00
 -1      2264 6.25000E+01 0.00000E+00 4.54545E-01
 -1      2265 6.12500E+01 0.00000E+00 9.09091E-01
 -1      2267 6.25000E+01 0.00000E+00 1.36364E+00
 -1      2268 6.12500E+01 0.00000E+00 1.81818E+00
 -1      2270 6.25000E+01 0.00000E+00 2.27273E+00
 -1      2271 6.12500E+01 0.00000E+00 2.72727E+00
 -1      2273 6.25000E+01 0.00000E+00 3.18182E+00
 -1      2274 6.12500E+01 0.00000E+00 3.63636E+00
 -1      2276 6.25000E+01 0.00000E+00 4.09091E+00
 -1      2277 6.12500E+01 0.00000E+00 4.54545E+00
 -1      2279 6.25000E+01 0.00000E+00 5.00000E+00
 -1      2280 6.12500E+01 0.00000E+00 5.45455E+00
 -1      2282 6.25000E+01 0.00000E+00 5.90909E+00
 -1      2283 6.12500E+01 0.00000E+00 6.36364E+00
 -1      2285 6.25000E+01 0.00000E+00 6.81818E+00
 -1      2286 6.12500E+01 0.00000E+00 7.27273E+00
 -1      2288 6.25000E+01 0.00000E+00 7.72727E+00
 -1      2289 6.12500E+01 0.00000E+00 8.18182E+00
 -1      2291 6.25000E+01 0.00000E+00 8.63636E+00
 -1      2292 6.12500E+01 0.00000E+00 9.09091E+00
 -1      2294 6.25000E+01 0.00000E+00 9.54545E+00
 -1      2296 6.50000E+01 0.00000E+00 4.54545E-01
 -1      2297 6.37500E+01 0.00000E+00 9.09091E-01
 -1      2299 6.50000E+01 0.00000E+00 1.36364E+00
 -1      2300 6.37500E+01 0.00000E+00 1.81818E+00
 -1      2302 6.50000E+01 0.00000E+00 2.27273E+00
 -1      2303 6.37500E+01 0.00000E+00 2.72727E+00
 -1      2305 6.50000E+01 0.00000E+00 3.18182E+00
 -1      2306 6.37500E+01 0.00000E+00 3.63636E+00
 -1      2308 6.50000E+01 0.00000E+00 4.09091E+00
 -1      2309 6.37500E+01 0.00000E+00 4.54545E+00
 -1      2311 6.50000E+01 0.00000E+00 5.00000E+00
 -1      2312 6.37500E+01 0.00000E+00 5.45455E+00
 -1      2314 6.50000E+01 0.00000E+00 5.90909E+00
 -1      2315 6.37500E+01 0.00000E+00 6.36364E+00
 -1      2317 6.50000E+01 0.00000E+00 6.81818E+00
 -1      2318 6.37500E+01 0.00000E+00 7.27273E+00
 -1      2320 6.50000E+01 0.00000E+00 7.72727E+00
 -1      2321 6.37500E+01 0.00000E+00 8.18182E+00
 -1      2323 6.50000E+01 0.00000E+00 8.63636E+00
 -1      2324 6.37500E+01 0.00000E+00 9.09091E+00
 -1      2326 6.50000E+01 0.00000E+00 9.54545E+00
 -1      2328 6.75000E+01 0.00000E+00 4.54545E-01
 -1      2329 6.62500E+01 0.00000E+00 9.09091E-01
 -1      2331 6.75000E+01 0.00000E+00 1.36364E+00
 -1      2332 6.62500E+01 0.00000E+00 1.81818E+00
 -1      2334 6.75000E+01 0.00000E+00 2.27273E+00
 -1      2335 6.62500E+01 0.00000E+00 2.72727E+00
 -1      2337 6.75000E+01 0.00000E+00 3.18182E+00
 -1      2338 6.62500E+01 0.00000E+00 3.63636E+00
 -1      2340 6.75000E+01 0.00000E+00 4.09091E+00
 -1      2341 6.62500E+01 0.00000E+00 4.54545E+00
 -1      2343 6.75000E+01 0.00000E+00 5.00000E+00
 -1      2344 6.62500E+01 0.00000E+00 5.45455E+00
 -1      2346 6.75000E+01 0.00000E+00 5.90909E+00
 -1      2347 6.62500E+01 0.00000E+00 6.36364E+00
 -1      2349 6.75000E+01 0.00000E+00 6.81818E+00
 -1      2350 6.62500E+01 0.00000E+00 7.27273E+00
 -1      2352 6.75000E+01 0.00000E+00 7.72727E+00
 -1      2353 6.62500E+01 0.00000E+00 8.18182E+00
 -1      2355 6.75000E+01 0.00000E+00 8.63636E+00
 -1      2356 6.62500E+01 0.00000E+00 9.09091E+00
 -1      2358 6.75000E+01 0.00000E+00 9.54545E+00
 -1      2360 7.00000E+01 0.00000E+00 4.54545E-01
 -1      2361 6.87500E+01 0.00000E+00 9.09091E-01
 -1      2363 7.00000E+01 0.00000E+00 1.36364E+00
 -1      2364 6.87500E+01 0.00000E+00 1.81818E+00
 -1      2366 7.00000E+01 0.00000E+00 2.27273E+00
 -1      2367 6.87500E+01 0.00000E+00 2.72727E+00
 -1      2369 7.00000E+01 0.00000E+00 3.18182E+00
 -1      2370 6.87500E+01 0.00000E+00 3.63636E+00
 -1      2372 7.00000E+01 0.00000E+00 4.09091E+00
 -1      2373 6.87500E+01 0.00000E+00 4.54545E+00
 -1      2375 7.00000E+01 0.00000E+00 5.00000E+00
 -1      2376 6.87500E+01 0.00000E+00 5.45455E+00
 -1      2378 7.00000E+01 0.00000E+00 5.90909E+00
 -1      2379 6.87500E+01 0.00000E+00 6.36364E+00
 -1      2381 7.00000E+01 0.00000E+00 6.81818E+00
 -1      2382 6.87500E+01 0.00000E+00 7.27273E+00
 -1      2384 7.00000E+01 0.00000E+00 7.72727E+00
 -1      2385 6.87500E+01 0.00000E+00 8.18182E+00
 -1      2387 7.00000E+01 0.00000E+00 8.63636E+00
 -1      2388 6.87500E+01 0.00000E+00 9.09091E+00
 -1      2390 7.00000E+01 0.00000E+00 9.54545E+00
 -1      2392 7.25000E+01 0.00000E+00 4.54545E-01
 -1      2393 7.12500E+01 0.00000E+00 9.09091E-01
 -1      2395 7.25000E+01 0.00000E+00 1.36364E+00
 -1      2396 7.12500E+01 0.00000E+00 1.81818E+00
 -1      2398 7.25000E+01 0.00000E+00 2.27273E+00
 -1      2399 7.12500E+01 0.00000E+00 2.72727E+00
 -1      2401 7.25000E+01 0.00000E+00 3.18182E+00
 -1      2402 7.12500E+01 0.00000E+00 3.63636E+00
 -1      2404 7.25000E+01 0.00000E+00 4.09091E+00
 -1      2405 7.12500E+01 0.00000E+00 4.54545E+00
 -1      2407 7.25000E+01 0.00000E+00 5.00000E+00
 -1      2408 7.12500E+01 0.00000E+00 5.45455E+00
 -1      2410 7.25000E+01 0.00000E+00 5.90909E+00
 -1      2411 7.12500E+01 0.00000E+00 6.36364E+00
 -1      2413 7.25000E+01 0.00000E+00 6.81818E+00
 -1      2414 7.12500E+01 0.00000E+00 7.27273E+00
 -1      2416 7.25000E+01 0.00000E+00 7.72727E+00
 -1      2417 7.12500E+01 0.00000E+00 8.18182E+00
 -1      2419 7.25000E+01 0.00000E+00 8.63636E+00
 -1      2420 7.12500E+01 0.00000E+00 9.09091E+00
 -1      2422 7.25000E+01 0.00000E+00 9.54545E+00
 -1      2424 7.50000E+01 0.00000E+00 4.54545E-01
 -1      2425 7.37500E+01 0.00000E+00 9.09091E-01
 -1      2427 7.50000E+01 0.00000E+00 1.36364E+00
 -1      2428 7.37500E+01 0.00000E+00 1.81818E+00
 -1      2430 7.50000E+01 0.00000E+00 2.27273E+00
 -1      2431 7.37500E+01 0.00000E+00 2.72727E+00
 -1      2433 7.50000E+01 0.00000E+00 3.18182E+00
 -1      2434 7.37500E+01 0.00000E+00 3.63636E+00
 -1      2436 7.50000E+01 0.00000E+00 4.09091E+00
 -1      2437 7.37500E+01 0.00000E+00 4.54545E+00
 -1      2439 7.50000E+01 0.00000E+00 5.00000E+00
 -1      2440 7.37500E+01 0.00000E+00 5.45455E+00
 -1      2442 7.50000E+01 0.00000E+00 5.90909E+00
 -1      2443 7.37500E+01 0.00000E+00 6.36364E+00
 -1      2445 7.50000E+01 0.00000E+00 6.81818E+00
 -1      2446 7.37500E+01 0.00000E+00 7.27273E+00
 -1      2448 7.50000E+01 0.00000E+00 7.72727E+00
 -1      2449 7.37500E+01 0.00000E+00 8.18182E+00
 -1      2451 7.50000E+01 0.00000E+00 8.63636E+00
 -1      2452 7.37500E+01 0.00000E+00 9.09091E+00
 -1      2454 7.50000E+01 0.00000E+00 9.54545E+00
 -1      2456 7.75000E+01 0.00000E+00 4.54545E-01
 -1      2457 7.62500E+01 0.00000E+00 9.09091E-01
 -1      2459 7.75000E+01 0.00000E+00 1.36364E+00
 -1      2460 7.62500E+01 0.00000E+00 1.81818E+00
 -1      2462 7.75000E+01 0.00000E+00 2.27273E+00
 -1      2463 7.62500E+01 0.00000E+00 2.72727E+00
 -1      2465 7.75000E+01 0.00000E+00 3.18182E+00
 -1      2466 7.62500E+01 0.00000E+00 3.63636E+00
 -1      2468 7.75000E+01 0.00000E+00 4.09091E+00
 -1      2469 7.62500E+01 0.00000E+00 4.54545E+00
 -1      2471 7.75000E+01 0.00000E+00 5.00000E+00
 -1      2472 7.62500E+01 0.00000E+00 5.45455E+00
 -1      2474 7.75000E+01 0.00000E+00 5.90909E+00
 -1      2475 7.62500E+01 0.00000E+00 6.36364E+00
 -1      2477 7.75000E+01 0.00000E+00 6.81818E+00
 -1      2478 7.62500E+01 0.00000E+00 7.27273E+00
 -1      2480 7.75000E+01 0.00000E+00 7.72727E+00
 -1      2481 7.62500E+01 0.00000E+00 8.18182E+00
 -1      2483 7.75000E+01 0.00000E+00 8.63636E+00
 -1      2484 7.62500E+01 0.00000E+00 9.09091E+00
 -1      2486 7.75000E+01 0.00000E+00 9.54545E+00
 -1      2488 8.00000E+01 0.00000E+00 4.54545E-01
 -1      2489 7.87500E+01 0.00000E+00 9.09091E-01
 -1      2491 8.00000E+01 0.00000E+00 1.36364E+00
 -1      2492 7.87500E+01 0.00000E+00 1.81818E+00
 -1      2494 8.00000E+01 0.00000E+00 2.27273E+00
 -1      2495 7.87500E+01 0.00000E+00 2.72727E+00
 -1      2497 8.00000E+01 0.00000E+00 3.18182E+00
 -1      2498 7.87500E+01 0.00000E+00 3.63636E+00
 -1      2500 8.00000E+01 0.00000E+00 4.09091E+00
 -1      2501 7.87500E+01 0.00000E+00 4.54545E+00
 -1      2503 8.00000E+01 0.00000E+00 5.00000E+00
 -1      2504 7.87500E+01 0.00000E+00 5.45455E+00
 -1      2506 8.00000E+01 0.00000E+00 5.90909E+00
 -1      2507 7.87500E+01 0.00000E+00 6.36364E+00
 -1      2509 8.00000E+01 0.00000E+00 6.81818E+00
 -1      2510 7.87500E+01 0.00000E+00 7.27273E+00
 -1      2512 8.00000E+01 0.00000E+00 7.72727E+00
 -1      2513 7.87500E+01 0.00000E+00 8.18182E+00
 -1      2515 8.00000E+01 0.00000E+00 8.63636E+00
 -1      2516 7.87500E+01 0.00000E+00 9.09091E+00
 -1      2518 8.00000E+01 0.00000E+00 9.54545E+00
 -1      2520 8.25000E+01 0.00000E+00 4.54545E-01
 -1      2521 8.12500E+01 0.00000E+00 9.09091E-01
 -1      2523 8.25000E+01 0.00000E+00 1.36364E+00
 -1      2524 8.12500E+01 0.00000E+00 1.81818E+00
 -1      2526 8.25000E+01 0.00000E+00 2.27273E+00
 -1      2527 8.12500E+01 0.00000E+00 2.72727E+00
 -1      2529 8.25000E+01 0.00000E+00 3.18182E+00
 -1      2530 8.12500E+01 0.00000E+00 3.63636E+00
 -1      2532 8.25000E+01 0.00000E+00 4.09091E+00
 -1      2533 8.12500E+01 0.00000E+00 4.54545E+00
 -1      2535 8.25000E+01 0.00000E+00 5.00000E+00
 -1      2536 8.12500E+01 0.00000E+00 5.45455E+00
 -1      2538 8.25000E+01 0.00000E+00 5.90909E+00
 -1      2539 8.12500E+01 0.00000E+00 6.36364E+00
 -1      2541 8.25000E+01 0.00000E+00 6.81818E+00
 -1      2542 8.12500E+01 0.00000E+00 7.27273E+00
 -1      2544 8.25000E+01 0.00000E+00 7.72727E+00
 -1      2545 8.12500E+01 0.00000E+00 8.18182E+00
 -1      2547 8.25000E+01 0.00000E+00 8.63636E+00
 -1      2548 8.12500E+01 0.00000E+00 9.09091E+00
 -1      2550 8.25000E+01 0.00000E+00 9.54545E+00
 -1      2552 8.50000E+01 0.00000E+00 4.54545E-01
 -1      2553 8.37500E+01 0.00000E+00 9.09091E-01
 -1      2555 8.50000E+01 0.00000E+00 1.36364E+00
 -1      2556 8.37500E+01 0.00000E+00 1.81818E+00
 -1      2558 8.50000E+01 0.00000E+00 2.27273E+00
 -1      2559 8.37500E+01 0.00000E+00 2.72727E+00
 -1      2561 8.50000E+01 0.00000E+00 3.18182E+00
 -1      2562 8.37500E+01 0.00000E+00 3.63636E+00
 -1      2564 8.50000E+01 0.00000E+00 4.09091E+00
 -1      2565 8.37500E+01 0.00000E+00 4.54545E+00
 -1      2567 8.50000E+01 0.00000E+00 5.00000E+00
 -1      2568 8.37500E+01 0.00000E+00 5.45455E+00
 -1      2570 8.50000E+01 0.00000E+00 5.90909E+00
 -1      2571 8.37500E+01 0.00000E+00 6.36364E+00
 -1      2573 8.50000E+01 0.00000E+00 6.81818E+00
 -1      2574 8.37500E+01 0.00000E+00 7.27273E+00
 -1      2576 8.50000E+01 0.00000E+00 7.72727E+00
 -1      2577 8.37500E+01 0.00000E+00 8.18182E+00
 -1      2579 8.50000E+01 0.00000E+00 8.63636E+00
 -1      2580 8.37500E+01 0.00000E+00 9.09091E+00
 -1      2582 8.50000E+01 0.00000E+00 9.54545E+00
 -1      2584 8.75000E+01 0.00000E+00 4.54545E-01
 -1      2585 8.62500E+01 0.00000E+00 9.09091E-01
 -1      2587 8.75000E+01 0.00000E+00 1.36364E+00
 -1      2588 8.62500E+01 0.00000E+00 1.81818E+00
 -1      2590 8.75000E+01 0.00000E+00 2.27273E+00
 -1      2591 8.62500E+01 0.00000E+00 2.72727E+00
 -1      2593 8.75000E+01 0.00000E+00 3.18182E+00
 -1      2594 8.62500E+01 0.00000E+00 3.63636E+00
 -1      2596 8.75000E+01 0.00000E+00 4.09091E+00
 -1      2597 8.62500E+01 0.00000E+00 4.54545E+00
 -1      2599 8.75000E+01 0.00000E+00 5.00000E+00
 -1      2600 8.62500E+01 0.00000E+00 5.45455E+00
 -1      2602 8.75000E+01 0.00000E+00 5.90909E+00
 -1      2603 8.62500E+01 0.00000E+00 6.36364E+00
 -1      2605 8.75000E+01 0.00000E+00 6.81818E+00
 -1      2606 8.62500E+01 0.00000E+00 7.27273E+00
 -1      2608 8.75000E+01 0.00000E+00 7.72727E+00
 -1      2609 8.62500E+01 0.00000E+00 8.18182E+00
 -1      2611 8.75000E+01 0.00000E+00 8.63636E+00
 -1      2612 8.62500E+01 0.00000E+00 9.09091E+00
 -1      2614 8.75000E+01 0.00000E+00 9.54545E+00
 -1      2616 9.00000E+01 0.00000E+00 4.54545E-01
 -1      2617 8.87500E+01 0.00000E+00 9.09091E-01
 -1      2619 9.00000E+01 0.00000E+00 1.36364E+00
 -1      2620 8.87500E+01 0.00000E+00 1.81818E+00
 -1      2622 9.00000E+01 0.00000E+00 2.27273E+00
 -1      2623 8.87500E+01 0.00000E+00 2.72727E+00
 -1      2625 9.00000E+01 0.00000E+00 3.18182E+00
 -1      2626 8.87500E+01 0.00000E+00 3.63636E+00
 -1      2628 9.00000E+01 0.00000E+00 4.09091E+00
 -1      2629 8.87500E+01 0.00000E+00 4.54545E+00
 -1      2631 9.00000E+01 0.00000E+00 5.00000E+00
 -1      2632 8.87500E+01 0.00000E+00 5.45455E+00
 -1      2634 9.00000E+01 0.00000E+00 5.90909E+00
 -1      2635 8.87500E+01 0.00000E+00 6.36364E+00
 -1      2637 9.00000E+01 0.00000E+00 6.81818E+00
 -1      2638 8.87500E+01 0.00000E+00 7.27273E+00
 -1      2640 9.00000E+01 0.00000E+00 7.72727E+00
 -1      2641 8.87500E+01 0.00000E+00 8.18182E+00
 -1      2643 9.00000E+01 0.00000E+00 8.63636E+00
 -1      2644 8.87500E+01 0.00000E+00 9.09091E+00
 -1      2646 9.00000E+01 0.00000E+00 9.54545E+00
 -1      2648 9.25000E+01 0.00000E+00 4.54545E-01
 -1      2649 9.12500E+01 0.00000E+00 9.09091E-01
 -1      2651 9.25000E+01 0.00000E+00 1.36364E+00
 -1      2652 9.12500E+01 0.00000E+00 1.81818E+00
 -1      2654 9.25000E+01 0.00000E+00 2.27273E+00
 -1      2655 9.12500E+01 0.00000E+00 2.72727E+00
 -1      2657 9.25000E+01 0.00000E+00 3.18182E+00
 -1      2658 9.12500E+01 0.00000E+00 3.63636E+00
 -1      2660 9.25000E+01 0.00000E+00 4.09091E+00
 -1      2661 9.12500E+01 0.00000E+00 4.54545E+00
 -1      2663 9.25000E+01 0.00000E+00 5.00000E+00
 -1      2664 9.12500E+01 0.00000E+00 5.45455E+00
 -1      2666 9.25000E+01 0.00000E+00 5.90909E+00
 -1      2667 9.12500E+01 0.00000E+00 6.36364E+00
 -1      2669 9.25000E+01 0.00000E+00 6.81818E+00
 -1      2670 9.12500E+01 0.00000E+00 7.27273E+00
 -1      2672 9.25000E+01 0.00000E+00 7.72727E+00
 -1      2673 9.12500E+01 0.00000E+00 8.18182E+00
 -1      2675 9.25000E+01 0.00000E+00 8.63636E+00
 -1      2676 9.12500E+01 0.00000E+00 9.09091E+00
 -1      2678 9.25000E+01 0.00000E+00 9.54545E+00
 -1      2680 9.50000E+01 0.00000E+00 4.54545E-01
 -1      2681 9.37500E+01 0.00000E+00 9.09091E-01
 -1      2683 9.50000E+01 0.00000E+00 1.36364E+00
 -1      2684 9.37500E+01 0.00000E+00 1.81818E+00
 -1      2686 9.50000E+01 0.00000E+00 2.27273E+00
 -1      2687 9.37500E+01 0.00000E+00 2.72727E+00
 -1      2689 9.50000E+01 0.00000E+00 3.18182E+00
 -1      2690 9.37500E+01 0.00000E+00 3.63636E+00
 -1      2692 9.50000E+01 0.00000E+00 4.09091E+00
 -1      2693 9.37500E+01 0.00000E+00 4.54545E+00
 -1      2695 9.50000E+01 0.00000E+00 5.00000E+00
 -1      2696 9.37500E+01 0.00000E+00 5.45455E+00
 -1      2698 9.50000E+01 0.00000E+00 5.90909E+00
 -1      2699 9.37500E+01 0.00000E+00 6.36364E+00
 -1      2701 9.50000E+01 0.00000E+00 6.81818E+00
 -1      2702 9.37500E+01 0.00000E+00 7.27273E+00
 -1      2704 9.50000E+01 0.00000E+00 7.72727E+00
 -1      2705 9.37500E+01 0.00000E+00 8.18182E+00
 -1      2707 9.50000E+01 0.00000E+00 8.63636E+00
 -1      2708 9.37500E+01 0.00000E+00 9.09091E+00
 -1      2710 9.50000E+01 0.00000E+00 9.54545E+00
 -1      2712 9.75000E+01 0.00000E+00 4.54545E-01
 -1      2713 9.62500E+01 0.00000E+00 9.09091E-01
 -1      2715 9.75000E+01 0.00000E+00 1.36364E+00
 -1      2716 9.62500E+01 0.00000E+00 1.81818E+00
 -1      2718 9.75000E+01 0.00000E+00 2.27273E+00
 -1      2719 9.62500E+01 0.00000E+00 2.72727E+00
 -1      2721 9.75000E+01 0.00000E+00 3.18182E+00
 -1      2722 9.62500E+01 0.00000E+00 3.63636E+00
 -1      2724 9.75000E+01 0.00000E+00 4.09091E+00
 -1      2725 9.62500E+01 0.00000E+00 4.54545E+00
 -1      2727 9.75000E+01 0.00000E+00 5.00000E+00
 -1      2728 9.62500E+01 0.00000E+00 5.45455E+00
 -1      2730 9.75000E+01 0.00000E+00 5.90909E+00
 -1      2731 9.62500E+01 0.00000E+00 6.36364E+00
 -1      2733 9.75000E+01 0.00000E+00 6.81818E+00
 -1      2734 9.62500E+01 0.00000E+00 7.27273E+00
 -1      2736 9.75000E+01 0.00000E+00 7.72727E+00
 -1      2737 9.62500E+01 0.00000E+00 8.18182E+00
 -1      2739 9.75000E+01 0.00000E+00 8.63636E+00
 -1      2740 9.62500E+01 0.00000E+00 9.09091E+00
 -1      2742 9.75000E+01 0.00000E+00 9.54545E+00
 -1      2744 9.87500E+01 0.00000E+00 9.09091E-01
 -1      2746 9.87500E+01 0.00000E+00 1.81818E+00
 -1      2748 9.87500E+01 0.00000E+00 2.72727E+00
 -1      2750 9.87500E+01 0.00000E+00 3.63636E+00
 -1      2752 9.87500E+01 0.00000E+00 4.54545E+00
 -1      2754 9.87500E+01 0.00000E+00 5.45455E+00
 -1      2756 9.87500E+01 0.00000E+00 6.36364E+00
 -1      2758 9.87500E+01 0.00000E+00 7.27273E+00
 -1      2760 9.87500E+01 0.00000E+00 8.18182E+00
 -1      2762 9.87500E+01 0.00000E+00 9.09091E+00
 -1      2765 9.87688E+01 1.56434E+01 9.09091E-01
 -1      2766 9.87688E+01 1.56434E+01 1.81818E+00
 -1      2767 9.87688E+01 1.56434E+01 2.72727E+00
 -1      2768 9.87688E+01 1.56434E+01 3.63636E+00
 -1      2769 9.87688E+01 1.56434E+01 4.54545E+00
 -1      2770 9.87688E+01 1.56434E+01 5.45455E+00
 -1      2771 9.87688E+01 1.56434E+01 6.36364E+00
 -1      2772 9.87688E+01 1.56434E+01 7.27273E+00
 -1      2773 9.87688E+01 1.56434E+01 8.18182E+00
 -1      2774 9.87688E+01 1.56434E+01 9.09091E+00
 -1      2775 9.51057E+01 3.09017E+01 9.09091E-01
 -1      2776 9.51057E+01 3.09017E+01 1.81818E+00
 -1      2777 9.51057E+01 3.09017E+01 2.72727E+00
 -1      2778 9.51057E+01 3.09017E+01 3.63636E+00
 -1      2779 9.51057E+01 3.09017E+01 4.54545E+00
 -1      2780 9.51057E+01 3.09017E+01 5.45455E+00
 -1      2781 9.51057E+01 3.09017E+01 6.36364E+00
 -1      2782 9.51057E+01 3.09017E+01 7.27273E+00
 -1      2783 9.51057E+01 3.09017E+01 8.18182E+00
 -1      2784 9.51057E+01 3.09017E+01 9.09091E+00
 -1      2785 8.91007E+01 4.53991E+01 9.09091E-01
 -1      2786 8.91007E+01 4.53991E+01 1.81818E+00
 -1      2787 8.91007E+01 4.53991E+01 2.72727E+00
 -1      2788 8.91007E+01 4.53991E+01 3.63636E+00
 -1      2789 8.91007E+01 4.53991E+01 4.54545E+00
 -1      2790 8.91007E+01 4.53991E+01 5.45455E+00
 -1      2791 8.91007E+01 4.53991E+01 6.36364E+00
 -1      2792 8.91007E+01 4.53991E+01 7.27273E+00
 -1      2793 8.91007E+01 4.53991E+01 8.18182E+00
 -1      2794 8.91007E+01 4.53991E+01 9.09091E+00
 -1      2795 8.09017E+01 5.87785E+01 9.09091E-01
 -1      2796 8.09017E+01 5.87785E+01 1.81818E+00
 -1      2797 8.09017E+01 5.87785E+01 2.72727E+00
 -1      2798 8.09017E+01 5.87785E+01 3.63636E+00
 -1      2799 8.09017E+01 5.87785E+01 4.54545E+00
 -1      2800 8.09017E+01 5.87785E+01 5.45455E+00
 -1      2801 8.09017E+01 5.87785E+01 6.36364E+00
 -1      2802 8.09017E+01 5.87785E+01 7.27273E+00
 -1      2803 8.09017E+01 5.87785E+01 8.18182E+00
 -1      2804 8.09017E+01 5.87785E+01 9.09091E+00
 -1      2805 7.07107E+01 7.07107E+01 9.09091E-01
 -1      2806 7.07107E+01 7.07107E+01 1.81818E+00
 -1      2807 7.07107E+01 7.07107E+01 2.72727E+00
 -1      2808 7.07107E+01 7.07107E+01 3.63636E+00
 -1      2809 7.07107E+01 7.07107E+01 4.54545E+00
 -1      2810 7.07107E+01 7.07107E+01 5.45455E+00
 -1      2811 7.07107E+01 7.07107E+01 6.36364E+00
 -1      2812 7.07107E+01 7.07107E+01 7.27273E+00
 -1      2813 7.07107E+01 7.07107E+01 8.18182E+00
 -1      2814 7.07107E+01 7.07107E+01 9.09091E+00
 -1      2815 5.87785E+01 8.09017E+01 9.09091E-01
 -1      2816 5.87785E+01 8.09017E+01 1.81818E+00
 -1      2817 5.87785E+01 8.09017E+01 2.72727E+00
 -1      2818 5.87785E+01 8.09017E+01 3.63636E+00
 -1      2819 5.87785E+01 8.09017E+01 4.54545E+00
 -1      2820 5.87785E+01 8.09017E+01 5.45455E+00
 -1      2821 5.87785E+01 8.09017E+01 6.36364E+00
 -1      2822 5.87785E+01 8.09017E+01 7.27273E+00
 -1      2823 5.87785E+01 8.09017E+01 8.18182E+00
 -1      2824 5.87785E+01 8.09017E+01 9.09091E+00
 -1      2825 4.53991E+01 8.91007E+01 9.09091E-01
 -1      2826 4.53991E+01 8.91007E+01 1.81818E+00
 -1      2827 4.53991E+01 8.91007E+01 2.72727E+00
 -1      2828 4.53991E+01 8.91007E+01 3.63636E+00
 -1      2829 4.53991E+01 8.91007E+01 4.54545E+00
 -1      2830 4.53991E+01 8.91007E+01 5.45455E+00
 -1      2831 4.53991E+01 8.91007E+01 6.36364E+00
 -1      2832 4.53991E+01 8.91007E+01 7.27273E+00
 -1      2833 4.53991E+01 8.91007E+01 8.18182E+00
 -1      2834 4.53991E+01 8.91007E+01 9.09091E+00
 -1      2835 3.09017E+01 9.51057E+01 9.09091E-01
 -1      2836 3.09017E+01 9.51057E+01 1.81818E+00
 -1      2837 3.09017E+01 9.51057E+01 2.72727E+00
 -1      2838 3.09017E+01 9.51057E+01 3.63636E+00
 -1      2839 3.09017E+01 9.51057E+01 4.54545E+00
 -1      2840 3.09017E+01 9.51057E+01 5.45455E+00
 -1      2841 3.09017E+01 9.51057E+01 6.36364E+00
 -1      2842 3.09017E+01 9.51057E+01 7.27273E+00
 -1      2843 3.09017E+01 9.51057E+01 8.18182E+00
 -1      2844 3.09017E+01 9.51057E+01 9.09091E+00
 -1      2845 1.56434E+01 9.87688E+01 9.09091E-01
 -1      2846 1.56434E+01 9.87688E+01 1.81818E+00
 -1      2847 1.56434E+01 9.87688E+01 2.72727E+00
 -1      2848 1.56434E+01 9.87688E+01 3.63636E+00
 -1      2849 1.56434E+01 9.87688E+01 4.54545E+00
 -1      2850 1.56434E+01 9.87688E+01 5.45455E+00
 -1      2851 1.56434E+01 9.87688E+01 6.36364E+00
 -1      2852 1.56434E+01 9.87688E+01 7.27273E+00
 -1      2853 1.56434E+01 9.87688E+01 8.18182E+00
 -1      2854 1.56434E+01 9.87688E+01 9.09091E+00
 -1      2855 9.87688E+01 1.56434E+01 4.54545E-01
 -1      2856 9.96917E+01 7.84591E+00 9.09091E-01
 -1      2858 9.87688E+01 1.56434E+01 1.36364E+00
 -1      2859 9.96917E+01 7.84591E+00 1.81818E+00
 -1      2861 9.87688E+01 1.56434E+01 2.27273E+00
 -1      2862 9.96917E+01 7.84591E+00 2.72727E+00
 -1      2864 9.87688E+01 1.56434E+01 3.18182E+00
 -1      2865 9.96917E+01 7.84591E+00 3.63636E+00
 -1      2867 9.87688E+01 1.56434E+01 4.09091E+00
 -1      2868 9.96917E+01 7.84591E+00 4.54545E+00
 -1      2870 9.87688E+01 1.56434E+01 5.00000E+00
 -1      2871 9.96917E+01 7.84591E+00 5.45455E+00
 -1      2873 9.87688E+01 1.56434E+01 5.90909E+00
 -1      2874 9.96917E+01 7.84591E+00 6.36364E+00
 -1      2876 9.87688E+01 1.56434E+01 6.81818E+00
 -1      2877 9.96917E+01 7.84591E+00 7.27273E+00
 -1      2879 9.87688E+01 1.56434E+01 7.72727E+00
 -1      2880 9.96917E+01 7.84591E+00 8.18182E+00
 -1      2882 9.87688E+01 1.56434E+01 8.63636E+00
 -1      2883 9.96917E+01 7.84591E+00 9.09091E+00
 -1      2885 9.87688E+01 1.56434E+01 9.54545E+00
 -1      2887 9.51057E+01 3.09017E+01 4.54545E-01
 -1      2888 9.72370E+01 2.33445E+01 9.09091E-01
 -1      2890 9.51057E+01 3.09017E+01 1.36364E+00
 -1      2891 9.72370E+01 2.33445E+01 1.81818E+00
 -1      2893 9.51057E+01 3.09017E+01 2.27273E+00
 -1      2894 9.72370E+01 2.33445E+01 2.72727E+00
 -1      2896 9.51057E+01 3.09017E+01 3.18182E+00
 -1      2897 9.72370E+01 2.33445E+01 3.63636E+00
 -1      2899 9.51057E+01 3.09017E+01 4.09091E+00
 -1      2900 9.72370E+01 2.33445E+01 4.54545E+00
 -1      2902 9.51057E+01 3.09017E+01 5.00000E+00
 -1      2903 9.72370E+01 2.33445E+01 5.45455E+00
 -1      2905 9.51057E+01 3.09017E+01 5.90909E+00
 -1      2906 9.72370E+01 2.33445E+01 6.36364E+00
 -1      2908 9.51057E+01 3.09017E+01 6.81818E+00
 -1      2909 9.72370E+01 2.33445E+01 7.27273E+00
 -1      2911 9.51057E+01 3.09017E+01 7.72727E+00
 -1      2912 9.72370E+01 2.33445E+01 8.18182E+00
 -1      2914 9.51057E+01 3.09017E+01 8.63636E+00
 -1      2915 9.72370E+01 2.33445E+01 9.09091E+00
 -1      2917 9.51057E+01 3.09017E+01 9.54545E+00
 -1      2919 8.91007E+01 4.53991E+01 4.54545E-01
 -1      2920 9.23880E+01 3.82683E+01 9.09091E-01
 -1      2922 8.91007E+01 4.53991E+01 1.36364E+00
 -1      2923 9.23880E+01 3.82683E+01 1.81818E+00
 -1      2925 8.91007E+01 4.53991E+01 2.27273E+00
 -1      2926 9.23880E+01 3.82683E+01 2.72727E+00
 -1      2928 8.91007E+01 4.53991E+01 3.18182E+00
 -1      2929 9.23880E+01 3.82683E+01 3.63636E+00
 -1      2931 8.91007E+01 4.53991E+01 4.09091E+00
 -1      2932 9.23880E+01 3.82683E+01 4.54545E+00
 -1      2934 8.91007E+01 4.53991E+01 5.00000E+00
 -1      2935 9.23880E+01 3.82683E+01 5.45455E+00
 -1      2937 8.91007E+01 4.53991E+01 5.90909E+00
 -1      2938 9.23880E+01 3.82683E+01 6.36364E+00
 -1      2940 8.91007E+01 4.53991E+01 6.81818E+00
 -1      2941 9.23880E+01 3.82683E+01 7.27273E+00
 -1      2943 8.91007E+01 4.53991E+01 7.72727E+00
 -1      2944 9.23880E+01 3.82683E+01 8.18182E+00
 -1      2946 8.91007E+01 4.53991E+01 8.63636E+00
 -1      2947 9.23880E+01 3.82683E+01 9.09091E+00
 -1      2949 8.91007E+01 4.53991E+01 9.54545E+00
 -1      2951 8.09017E+01 5.87785E+01 4.54545E-01
 -1      2952 8.52640E+01 5.22499E+01 9.09091E-01
 -1      2954 8.09017E+01 5.87785E+01 1.36364E+00
 -1      2955 8.52640E+01 5.22499E+01 1.81818E+00
 -1      2957 8.09017E+01 5.87785E+01 2.27273E+00
 -1      2958 8.52640E+01 5.22499E+01 2.72727E+00
 -1      2960 8.09017E+01 5.87785E+01 3.18182E+00
 -1      2961 8.52640E+01 5.22499E+01 3.63636E+00
 -1      2963 8.09017E+01 5.87785E+01 4.09091E+00
 -1      2964 8.52640E+01 5.22499E+01 4.54545E+00
 -1      2966 8.09017E+01 5.87785E+01 5.00000E+00
 -1      2967 8.52640E+01 5.22499E+01 5.45455E+00
 -1      2969 8.09017E+01 5.87785E+01 5.90909E+00
 -1      2970 8.52640E+01 5.22499E+01 6.36364E+00
 -1      2972 8.09017E+01 5.87785E+01 6.81818E+00
 -1      2973 8.52640E+01 5.22499E+01 7.27273E+00
 -1      2975 8.09017E+01 5.87785E+01 7.72727E+00
 -1      2976 8.52640E+01 5.22499E+01 8.18182E+00
 -1      2978 8.09017E+01 5.87785E+01 8.63636E+00
 -1      2979 8.52640E+01 5.22499E+01 9.09091E+00
 -1      2981 8.09017E+01 5.87785E+01 9.54545E+00
 -1      2983 7.07107E+01 7.07107E+01 4.54545E-01
 -1      2984 7.60406E+01 6.49448E+01 9.09091E-01
 -1      2986 7.07107E+01 7.07107E+01 1.36364E+00
 -1      2987 7.60406E+01 6.49448E+01 1.81818E+00
 -1      2989 7.07107E+01 7.07107E+01 2.27273E+00
 -1      2990 7.60406E+01 6.49448E+01 2.72727E+00
 -1      2992 7.07107E+01 7.07107E+01 3.18182E+00
 -1      2993 7.60406E+01 6.49448E+01 3.63636E+00
 -1      2995 7.07107E+01 7.07107E+01 4.09091E+00
 -1      2996 7.60406E+01 6.49448E+01 4.54545E+00
 -1      2998 7.07107E+01 7.07107E+01 5.00000E+00
 -1      2999 7.60406E+01 6.49448E+01 5.45455E+00
 -1      3001 7.07107E+01 7.07107E+01 5.90909E+00
 -1      3002 7.60406E+01 6.49448E+01 6.36364E+00
 -1      3004 7.07107E+01 7.07107E+01 6.81818E+00
 -1      3005 7.60406E+01 6.49448E+01 7.27273E+00
 -1      3007 7.07107E+01 7.07107E+01 7.72727E+00
 -1      3008 7.60406E+01 6.49448E+01 8.18182E+00
 -1      3010 7.07107E+01 7.07107E+01 8.63636E+00
 -1      3011 7.60406E+01 6.49448E+01 9.09091E+00
 -1      3013 7.07107E+01 7.07107E+01 9.54545E+00
 -1      3015 5.87785E+01 8.09017E+01 4.54545E-01
 -1      3016 6.49449E+01 7.60405E+01 9.09091E-01
 -1      3018 5.87785E+01 8.09017E+01 1.36364E+00
 -1      3019 6.49449E+01 7.60405E+01 1.81818E+00
 -1      3021 5.87785E+01 8.09017E+01 2.27273E+00
 -1      3022 6.49449E+01 7.60405E+01 2.72727E+00
 -1      3024 5.87785E+01 8.09017E+01 3.18182E+00
 -1      3025 6.49449E+01 7.60405E+01 3.63636E+00
 -1      3027 5.87785E+01 8.09017E+01 4.09091E+00
 -1      3028 6.49449E+01 7.60405E+01 4.54545E+00
 -1      3030 5.87785E+01 8.09017E+01 5.00000E+00
 -1      3031 6.49449E+01 7.60405E+01 5.45455E+00
 -1      3033 5.87785E+01 8.09017E+01 5.90909E+00
 -1      3034 6.49449E+01 7.60405E+01 6.36364E+00
 -1      3036 5.87785E+01 8.09017E+01 6.81818E+00
 -1      3037 6.49449E+01 7.60405E+01 7.27273E+00
 -1      3039 5.87785E+01 8.09017E+01 7.72727E+00
 -1      3040 6.49449E+01 7.60405E+01 8.18182E+00
 -1      3042 5.87785E+01 8.09017E+01 8.63636E+00
 -1      3043 6.49449E+01 7.60405E+01 9.09091E+00
 -1      3045 5.87785E+01 8.09017E+01 9.54545E+00
 -1      3047 4.53991E+01 8.91007E+01 4.54545E-01
 -1      3048 5.22499E+01 8.52640E+01 9.09091E-01
 -1      3050 4.53991E+01 8.91007E+01 1.36364E+00
 -1      3051 5.22499E+01 8.52640E+01 1.81818E+00
 -1      3053 4.53991E+01 8.91007E+01 2.27273E+00
 -1      3054 5.22499E+01 8.52640E+01 2.72727E+00
 -1      3056 4.53991E+01 8.91007E+01 3.18182E+00
 -1      3057 5.22499E+01 8.52640E+01 3.63636E+00
 -1      3059 4.53991E+01 8.91007E+01 4.09091E+00
 -1      3060 5.22499E+01 8.52640E+01 4.54545E+00
 -1      3062 4.53991E+01 8.91007E+01 5.00000E+00
 -1      3063 5.22499E+01 8.52640E+01 5.45455E+00
 -1      3065 4.53991E+01 8.91007E+01 5.90909E+00
 -1      3066 5.22499E+01 8.52640E+01 6.36364E+00
 -1      3068 4.53991E+01 8.91007E+01 6.81818E+00
 -1      3069 5.22499E+01 8.52640E+01 7.27273E+00
 -1      3071 4.53991E+01 8.91007E+01 7.72727E+00
 -1      3072 5.22499E+01 8.52640E+01 8.18182E+00
 -1      3074 4.53991E+01 8.91007E+01 8.63636E+00
 -1      3075 5.22499E+01 8.52640E+01 9.09091E+00
 -1      3077 4.53991E+01 8.91007E+01 9.54545E+00
 -1      3079 3.09017E+01 9.51057E+01 4.54545E-01
 -1      3080 3.82683E+01 9.23880E+01 9.09091E-01
 -1      3082 3.09017E+01 9.51057E+01 1.36364E+00
 -1      3083 3.82683E+01 9.23880E+01 1.81818E+00
 -1      3085 3.09017E+01 9.51057E+01 2.27273E+00
 -1      3086 3.82683E+01 9.23880E+01 2.72727E+00
 -1      3088 3.09017E+01 9.51057E+01 3.18182E+00
 -1      3089 3.82683E+01 9.23880E+01 3.63636E+00
 -1      3091 3.09017E+01 9.51057E+01 4.09091E+00
 -1      3092 3.82683E+01 9.23880E+01 4.54545E+00
 -1      3094 3.09017E+01 9.51057E+01 5.00000E+00
 -1      3095 3.82683E+01 9.23880E+01 5.45455E+00
 -1      3097 3.09017E+01 9.51057E+01 5.90909E+00
 -1      3098 3.82683E+01 9.23880E+01 6.36364E+00
 -1      3100 3.09017E+01 9.51057E+01 6.81818E+00
 -1      3101 3.82683E+01 9.23880E+01 7.27273E+00
 -1      3103 3.09017E+01 9.51057E+01 7.72727E+00
 -1      3104 3.82683E+01 9.23880E+01 8.18182E+00
 -1      3106 3.09017E+01 9.51057E+01 8.63636E+00
 -1      3107 3.82683E+01 9.23880E+01 9.09091E+00
 -1      3109 3.09017E+01 9.51057E+01 9.54545E+00
 -1      3111 1.56434E+01 9.87688E+01 4.54545E-01
 -1      3112 2.33447E+01 9.72370E+01 9.09091E-01
 -1      3114 1.56434E+01 9.87688E+01 1.36364E+00
 -1      3115 2.33447E+01 9.72370E+01 1.81818E+00
 -1      3117 1.56434E+01 9.87688E+01 2.27273E+00
 -1      3118 2.33447E+01 9.72370E+01 2.72727E+00
 -1      3120 1.56434E+01 9.87688E+01 3.18182E+00
 -1      3121 2.33447E+01 9.72370E+01 3.63636E+00
 -1      3123 1.56434E+01 9.87688E+01 4.09091E+00
 -1      3124 2.33447E+01 9.72370E+01 4.54545E+00
 -1      3126 1.56434E+01 9.87688E+01 5.00000E+00
 -1      3127 2.33447E+01 9.72370E+01 5.45455E+00
 -1      3129 1.56434E+01 9.87688E+01 5.90909E+00
 -1      3130 2.33447E+01 9.72370E+01 6.36364E+00
 -1      3132 1.56434E+01 9.87688E+01 6.81818E+00
 -1      3133 2.33447E+01 9.72370E+01 7.27273E+00
 -1      3135 1.56434E+01 9.87688E+01 7.72727E+00
 -1      3136 2.33447E+01 9.72370E+01 8.18182E+00
 -1      3138 1.56434E+01 9.87688E+01 8.63636E+00
 -1      3139 2.33447E+01 9.72370E+01 9.09091E+00
 -1      3141 1.56434E+01 9.87688E+01 9.54545E+00
 -1      3143 7.84602E+00 9.96917E+01 9.09091E-01
 -1      3145 7.84602E+00 9.96917E+01 1.81818E+00
 -1      3147 7.84602E+00 9.96917E+01 2.72727E+00
 -1      3149 7.84602E+00 9.96917E+01 3.63636E+00
 -1      3151 7.84602E+00 9.96917E+01 4.54545E+00
 -1      3153 7.84602E+00 9.96917E+01 5.45455E+00
 -1      3155 7.84602E+00 9.96917E+01 6.36364E+00
 -1      3157 7.84602E+00 9.96917E+01 7.27273E+00
 -1      3159 7.84602E+00 9.96917E+01 8.18182E+00
 -1      3161 7.84602E+00 9.96917E+01 9.09091E+00
 -1      3164 5.97015E-15 9.75000E+01 9.09091E-01
 -1      3165 5.97015E-15 9.75000E+01 1.81818E+00
 -1      3166 5.97015E-15 9.75000E+01 2.72727E+00
 -1      3167 5.97015E-15 9.75000E+01 3.63636E+00
 -1      3168 5.97015E-15 9.75000E+01 4.54545E+00
 -1      3169 5.97015E-15 9.75000E+01 5.45455E+00
 -1      3170 5.97015E-15 9.75000E+01 6.36364E+00
 -1      3171 5.97015E-15 9.75000E+01 7.27273E+00
 -1      3172 5.97015E-15 9.75000E+01 8.18182E+00
 -1      3173 5.97015E-15 9.75000E+01 9.09091E+00
 -1      3174 5.81707E-15 9.50000E+01 9.09091E-01
 -1      3175 5.81707E-15 9.50000E+01 1.81818E+00
 -1      3176 5.81707E-15 9.50000E+01 2.72727E+00
 -1      3177 5.81707E-15 9.50000E+01 3.63636E+00
 -1      3178 5.81707E-15 9.50000E+01 4.54545E+00
 -1      3179 5.81707E-15 9.50000E+01 5.45455E+00
 -1      3180 5.81707E-15 9.50000E+01 6.36364E+00
 -1      3181 5.81707E-15 9.50000E+01 7.27273E+00
 -1      3182 5.81707E-15 9.50000E+01 8.18182E+00
 -1      3183 5.81707E-15 9.50000E+01 9.09091E+00
 -1      3184 5.66399E-15 9.25000E+01 9.09091E-01
 -1      3185 5.66399E-15 9.25000E+01 1.81818E+00
 -1      3186 5.66399E-15 9.25000E+01 2.72727E+00
 -1      3187 5.66399E-15 9.25000E+01 3.63636E+00
 -1      3188 5.66399E-15 9.25000E+01 4.54545E+00
 -1      3189 5.66399E-15 9.25000E+01 5.45455E+00
 -1      3190 5.66399E-15 9.25000E+01 6.36364E+00
 -1      3191 5.66399E-15 9.25000E+01 7.27273E+00
 -1      3192 5.66399E-15 9.25000E+01 8.18182E+00
 -1      3193 5.66399E-15 9.25000E+01 9.09091E+00
 -1      3194 5.51091E-15 9.00000E+01 9.09091E-01
 -1      3195 5.51091E-15 9.00000E+01 1.81818E+00
 -1      3196 5.51091E-15 9.00000E+01 2.72727E+00
 -1      3197 5.51091E-15 9.00000E+01 3.63636E+00
 -1      3198 5.51091E-15 9.00000E+01 4.54545E+00
 -1      3199 5.51091E-15 9.00000E+01 5.45455E+00
 -1      3200 5.51091E-15 9.00000E+01 6.36364E+00
 -1      3201 5.51091E-15 9.00000E+01 7.27273E+00
 -1      3202 5.51091E-15 9.00000E+01 8.18182E+00
 -1      3203 5.51091E-15 9.00000E+01 9.09091E+00
 -1      3204 5.35783E-15 8.75000E+01 9.09091E-01
 -1      3205 5.35783E-15 8.75000E+01 1.81818E+00
 -1      3206 5.35783E-15 8.75000E+01 2.72727E+00
 -1      3207 5.35783E-15 8.75000E+01 3.63636E+00
 -1      3208 5.35783E-15 8.75000E+01 4.54545E+00
 -1      3209 5.35783E-15 8.75000E+01 5.45455E+00
 -1      3210 5.35783E-15 8.75000E+01 6.36364E+00
 -1      3211 5.35783E-15 8.75000E+01 7.27273E+00
 -1      3212 5.35783E-15 8.75000E+01 8.18182E+00
 -1      3213 5.35783E-15 8.75000E+01 9.09091E+00
 -1      3214 5.20475E-15 8.50000E+01 9.09091E-01
 -1      3215 5.20475E-15 8.50000E+01 1.81818E+00
 -1      3216 5.20475E-15 8.50000E+01 2.72727E+00
 -1      3217 5.20475E-15 8.50000E+01 3.63636E+00
 -1      3218 5.20475E-15 8.50000E+01 4.54545E+00
 -1      3219 5.20475E-15 8.50000E+01 5.45455E+00
 -1      3220 5.20475E-15 8.50000E+01 6.36364E+00
 -1      3221 5.20475E-15 8.50000E+01 7.27273E+00
 -1      3222 5.20475E-15 8.50000E+01 8.18182E+00
 -1      3223 5.20475E-15 8.50000E+01 9.09091E+00
 -1      3224 5.05167E-15 8.25000E+01 9.09091E-01
 -1      3225 5.05167E-15 8.25000E+01 1.81818E+00
 -1      3226 5.05167E-15 8.25000E+01 2.72727E+00
 -1      3227 5.05167E-15 8.25000E+01 3.63636E+00
 -1      3228 5.05167E-15 8.25000E+01 4.54545E+00
 -1      3229 5.05167E-15 8.25000E+01 5.45455E+00
 -1      3230 5.05167E-15 8.25000E+01 6.36364E+00
 -1      3231 5.05167E-15 8.25000E+01 7.27273E+00
 -1      3232 5.05167E-15 8.25000E+01 8.18182E+00
 -1      3233 5.05167E-15 8.25000E+01 9.09091E+00
 -1      3234 4.89859E-15 8.00000E+01 9.09091E-01
 -1      3235 4.89859E-15 8.00000E+01 1.81818E+00
 -1      3236 4.89859E-15 8.00000E+01 2.72727E+00
 -1      3237 4.89859E-15 8.00000E+01 3.63636E+00
 -1      3238 4.89859E-15 8.00000E+01 4.54545E+00
 -1      3239 4.89859E-15 8.00000E+01 5.45455E+00
 -1      3240 4.89859E-15 8.00000E+01 6.36364E+00
 -1      3241 4.89859E-15 8.00000E+01 7.27273E+00
 -1      3242 4.89859E-15 8.00000E+01 8.18182E+00
 -1      3243 4.89859E-15 8.00000E+01 9.09091E+00
 -1      3244 4.74551E-15 7.75000E+01 9.09091E-01
 -1      3245 4.74551E-15 7.75000E+01 1.81818E+00
 -1      3246 4.74551E-15 7.75000E+01 2.72727E+00
 -1      3247 4.74551E-15 7.75000E+01 3.63636E+00
 -1      3248 4.74551E-15 7.75000E+01 4.54545E+00
 -1      3249 4.74551E-15 7.75000E+01 5.45455E+00
 -1      3250 4.74551E-15 7.75000E+01 6.36364E+00
 -1      3251 4.74551E-15 7.75000E+01 7.27273E+00
 -1      3252 4.74551E-15 7.75000E+01 8.18182E+00
 -1      3253 4.74551E-15 7.75000E+01 9.09091E+00
 -1      3254 4.59243E-15 7.50000E+01 9.09091E-01
 -1      3255 4.59243E-15 7.50000E+01 1.81818E+00
 -1      3256 4.59243E-15 7.50000E+01 2.72727E+00
 -1      3257 4.59243E-15 7.50000E+01 3.63636E+00
 -1      3258 4.59243E-15 7.50000E+01 4.54545E+00
 -1      3259 4.59243E-15 7.50000E+01 5.45455E+00
 -1      3260 4.59243E-15 7.50000E+01 6.36364E+00
 -1      3261 4.59243E-15 7.50000E+01 7.27273E+00
 -1      3262 4.59243E-15 7.50000E+01 8.18182E+00
 -1      3263 4.59243E-15 7.50000E+01 9.09091E+00
 -1      3264 4.43934E-15 7.25000E+01 9.09091E-01
 -1      3265 4.43934E-15 7.25000E+01 1.81818E+00
 -1      3266 4.43934E-15 7.25000E+01 2.72727E+00
 -1      3267 4.43934E-15 7.25000E+01 3.63636E+00
 -1      3268 4.43934E-15 7.25000E+01 4.54545E+00
 -1      3269 4.43934E-15 7.25000E+01 5.45455E+00
 -1      3270 4.43934E-15 7.25000E+01 6.36364E+00
 -1      3271 4.43934E-15 7.25000E+01 7.27273E+00
 -1      3272 4.43934E-15 7.25000E+01 8.18182E+00
 -1      3273 4.43934E-15 7.25000E+01 9.09091E+00
 -1      3274 4.28626E-15 7.00000E+01 9.09091E-01
 -1      3275 4.28626E-15 7.00000E+01 1.81818E+00
 -1      3276 4.28626E-15 7.00000E+01 2.72727E+00
 -1      3277 4.28626E-15 7.00000E+01 3.63636E+00
 -1      3278 4.28626E-15 7.00000E+01 4.54545E+00
 -1      3279 4.28626E-15 7.00000E+01 5.45455E+00
 -1      3280 4.28626E-15 7.00000E+01 6.36364E+00
 -1      3281 4.28626E-15 7.00000E+01 7.27273E+00
 -1      3282 4.28626E-15 7.00000E+01 8.18182E+00
 -1      3283 4.28626E-15 7.00000E+01 9.09091E+00
 -1      3284 4.13318E-15 6.75000E+01 9.09091E-01
 -1      3285 4.13318E-15 6.75000E+01 1.81818E+00
 -1      3286 4.13318E-15 6.75000E+01 2.72727E+00
 -1      3287 4.13318E-15 6.75000E+01 3.63636E+00
 -1      3288 4.13318E-15 6.75000E+01 4.54545E+00
 -1      3289 4.13318E-15 6.75000E+01 5.45455E+00
 -1      3290 4.13318E-15 6.75000E+01 6.36364E+00
 -1      3291 4.13318E-15 6.75000E+01 7.27273E+00
 -1      3292 4.13318E-15 6.75000E+01 8.18182E+00
 -1      3293 4.13318E-15 6.75000E+01 9.09091E+00
 -1      3294 3.98010E-15 6.50000E+01 9.09091E-01
 -1      3295 3.98010E-15 6.50000E+01 1.81818E+00
 -1      3296 3.98010E-15 6.50000E+01 2.72727E+00
 -1      3297 3.98010E-15 6.50000E+01 3.63636E+00
 -1      3298 3.98010E-15 6.50000E+01 4.54545E+00
 -1      3299 3.98010E-15 6.50000E+01 5.45455E+00
 -1      3300 3.98010E-15 6.50000E+01 6.36364E+00
 -1      3301 3.98010E-15 6.50000E+01 7.27273E+00
 -1      3302 3.98010E-15 6.50000E+01 8.18182E+00
 -1      3303 3.98010E-15 6.50000E+01 9.09091E+00
 -1      3304 3.82702E-15 6.25000E+01 9.09091E-01
 -1      3305 3.82702E-15 6.25000E+01 1.81818E+00
 -1      3306 3.82702E-15 6.25000E+01 2.72727E+00
 -1      3307 3.82702E-15 6.25000E+01 3.63636E+00
 -1      3308 3.82702E-15 6.25000E+01 4.54545E+00
 -1      3309 3.82702E-15 6.25000E+01 5.45455E+00
 -1      3310 3.82702E-15 6.25000E+01 6.36364E+00
 -1      3311 3.82702E-15 6.25000E+01 7.27273E+00
 -1      3312 3.82702E-15 6.25000E+01 8.18182E+00
 -1      3313 3.82702E-15 6.25000E+01 9.09091E+00
 -1      3314 3.67394E-15 6.00000E+01 9.09091E-01
 -1      3315 3.67394E-15 6.00000E+01 1.81818E+00
 -1      3316 3.67394E-15 6.00000E+01 2.72727E+00
 -1      3317 3.67394E-15 6.00000E+01 3.63636E+00
 -1      3318 3.67394E-15 6.00000E+01 4.54545E+00
 -1      3319 3.67394E-15 6.00000E+01 5.45455E+00
 -1      3320 3.67394E-15 6.00000E+01 6.36364E+00
 -1      3321 3.67394E-15 6.00000E+01 7.27273E+00
 -1      3322 3.67394E-15 6.00000E+01 8.18182E+00
 -1      3323 3.67394E-15 6.00000E+01 9.09091E+00
 -1      3324 3.52086E-15 5.75000E+01 9.09091E-01
 -1      3325 3.52086E-15 5.75000E+01 1.81818E+00
 -1      3326 3.52086E-15 5.75000E+01 2.72727E+00
 -1      3327 3.52086E-15 5.75000E+01 3.63636E+00
 -1      3328 3.52086E-15 5.75000E+01 4.54545E+00
 -1      3329 3.52086E-15 5.75000E+01 5.45455E+00
 -1      3330 3.52086E-15 5.75000E+01 6.36364E+00
 -1      3331 3.52086E-15 5.75000E+01 7.27273E+00
 -1      3332 3.52086E-15 5.75000E+01 8.18182E+00
 -1      3333 3.52086E-15 5.75000E+01 9.09091E+00
 -1      3334 3.36778E-15 5.50000E+01 9.09091E-01
 -1      3335 3.36778E-15 5.50000E+01 1.81818E+00
 -1      3336 3.36778E-15 5.50000E+01 2.72727E+00
 -1      3337 3.36778E-15 5.50000E+01 3.63636E+00
 -1      3338 3.36778E-15 5.50000E+01 4.54545E+00
 -1      3339 3.36778E-15 5.50000E+01 5.45455E+00
 -1      3340 3.36778E-15 5.50000E+01 6.36364E+00
 -1      3341 3.36778E-15 5.50000E+01 7.27273E+00
 -1      3342 3.36778E-15 5.50000E+01 8.18182E+00
 -1      3343 3.36778E-15 5.50000E+01 9.09091E+00
 -1      3344 3.21470E-15 5.25000E+01 9.09091E-01
 -1      3345 3.21470E-15 5.25000E+01 1.81818E+00
 -1      3346 3.21470E-15 5.25000E+01 2.72727E+00
 -1      3347 3.21470E-15 5.25000E+01 3.63636E+00
 -1      3348 3.21470E-15 5.25000E+01 4.54545E+00
 -1      3349 3.21470E-15 5.25000E+01 5.45455E+00
 -1      3350 3.21470E-15 5.25000E+01 6.36364E+00
 -1      3351 3.21470E-15 5.25000E+01 7.27273E+00
 -1      3352 3.21470E-15 5.25000E+01 8.18182E+00
 -1      3353 3.21470E-15 5.25000E+01 9.09091E+00
 -1      3354 3.06162E-15 5.00000E+01 9.09091E-01
 -1      3355 3.06162E-15 5.00000E+01 1.81818E+00
 -1      3356 3.06162E-15 5.00000E+01 2.72727E+00
 -1      3357 3.06162E-15 5.00000E+01 3.63636E+00
 -1      3358 3.06162E-15 5.00000E+01 4.54545E+00
 -1      3359 3.06162E-15 5.00000E+01 5.45455E+00
 -1      3360 3.06162E-15 5.00000E+01 6.36364E+00
 -1      3361 3.06162E-15 5.00000E+01 7.27273E+00
 -1      3362 3.06162E-15 5.00000E+01 8.18182E+00
 -1      3363 3.06162E-15 5.00000E+01 9.09091E+00
 -1      3364 2.90854E-15 4.75000E+01 9.09091E-01
 -1      3365 2.90854E-15 4.75000E+01 1.81818E+00
 -1      3366 2.90854E-15 4.75000E+01 2.72727E+00
 -1      3367 2.90854E-15 4.75000E+01 3.63636E+00
 -1      3368 2.90854E-15 4.75000E+01 4.54545E+00
 -1      3369 2.90854E-15 4.75000E+01 5.45455E+00
 -1      3370 2.90854E-15 4.75000E+01 6.36364E+00
 -1      3371 2.90854E-15 4.75000E+01 7.27273E+00
 -1      3372 2.90854E-15 4.75000E+01 8.18182E+00
 -1      3373 2.90854E-15 4.75000E+01 9.09091E+00
 -1      3374 2.75546E-15 4.50000E+01 9.09091E-01
 -1      3375 2.75546E-15 4.50000E+01 1.81818E+00
 -1      3376 2.75546E-15 4.50000E+01 2.72727E+00
 -1      3377 2.75546E-15 4.50000E+01 3.63636E+00
 -1      3378 2.75546E-15 4.50000E+01 4.54545E+00
 -1      3379 2.75546E-15 4.50000E+01 5.45455E+00
 -1      3380 2.75546E-15 4.50000E+01 6.36364E+00
 -1      3381 2.75546E-15 4.50000E+01 7.27273E+00
 -1      3382 2.75546E-15 4.50000E+01 8.18182E+00
 -1      3383 2.75546E-15 4.50000E+01 9.09091E+00
 -1      3384 2.60237E-15 4.25000E+01 9.09091E-01
 -1      3385 2.60237E-15 4.25000E+01 1.81818E+00
 -1      3386 2.60237E-15 4.25000E+01 2.72727E+00
 -1      3387 2.60237E-15 4.25000E+01 3.63636E+00
 -1      3388 2.60237E-15 4.25000E+01 4.54545E+00
 -1      3389 2.60237E-15 4.25000E+01 5.45455E+00
 -1      3390 2.60237E-15 4.25000E+01 6.36364E+00
 -1      3391 2.60237E-15 4.25000E+01 7.27273E+00
 -1      3392 2.60237E-15 4.25000E+01 8.18182E+00
 -1      3393 2.60237E-15 4.25000E+01 9.09091E+00
 -1      3394 2.44929E-15 4.00000E+01 9.09091E-01
 -1      3395 2.44929E-15 4.00000E+01 1.81818E+00
 -1      3396 2.44929E-15 4.00000E+01 2.72727E+00
 -1      3397 2.44929E-15 4.00000E+01 3.63636E+00
 -1      3398 2.44929E-15 4.00000E+01 4.54545E+00
 -1      3399 2.44929E-15 4.00000E+01 5.45455E+00
 -1      3400 2.44929E-15 4.00000E+01 6.36364E+00
 -1      3401 2.44929E-15 4.00000E+01 7.27273E+00
 -1      3402 2.44929E-15 4.00000E+01 8.18182E+00
 -1      3403 2.44929E-15 4.00000E+01 9.09091E+00
 -1      3404 2.29621E-15 3.75000E+01 9.09091E-01
 -1      3405 2.29621E-15 3.75000E+01 1.81818E+00
 -1      3406 2.29621E-15 3.75000E+01 2.72727E+00
 -1      3407 2.29621E-15 3.75000E+01 3.63636E+00
 -1      3408 2.29621E-15 3.75000E+01 4.54545E+00
 -1      3409 2.29621E-15 3.75000E+01 5.45455E+00
 -1      3410 2.29621E-15 3.75000E+01 6.36364E+00
 -1      3411 2.29621E-15 3.75000E+01 7.27273E+00
 -1      3412 2.29621E-15 3.75000E+01 8.18182E+00
 -1      3413 2.29621E-15 3.75000E+01 9.09091E+00
 -1      3414 2.14313E-15 3.50000E+01 9.09091E-01
 -1      3415 2.14313E-15 3.50000E+01 1.81818E+00
 -1      3416 2.14313E-15 3.50000E+01 2.72727E+00
 -1      3417 2.14313E-15 3.50000E+01 3.63636E+00
 -1      3418 2.14313E-15 3.50000E+01 4.54545E+00
 -1      3419 2.14313E-15 3.50000E+01 5.45455E+00
 -1      3420 2.14313E-15 3.50000E+01 6.36364E+00
 -1      3421 2.14313E-15 3.50000E+01 7.27273E+00
 -1      3422 2.14313E-15 3.50000E+01 8.18182E+00
 -1      3423 2.14313E-15 3.50000E+01 9.09091E+00
 -1      3424 1.99005E-15 3.25000E+01 9.09091E-01
 -1      3425 1.99005E-15 3.25000E+01 1.81818E+00
 -1      3426 1.99005E-15 3.25000E+01 2.72727E+00
 -1      3427 1.99005E-15 3.25000E+01 3.63636E+00
 -1      3428 1.99005E-15 3.25000E+01 4.54545E+00
 -1      3429 1.99005E-15 3.25000E+01 5.45455E+00
 -1      3430 1.99005E-15 3.25000E+01 6.36364E+00
 -1      3431 1.99005E-15 3.25000E+01 7.27273E+00
 -1      3432 1.99005E-15 3.25000E+01 8.18182E+00
 -1      3433 1.99005E-15 3.25000E+01 9.09091E+00
 -1      3434 1.83697E-15 3.00000E+01 9.09091E-01
 -1      3435 1.83697E-15 3.00000E+01 1.81818E+00
 -1      3436 1.83697E-15 3.00000E+01 2.72727E+00
 -1      3437 1.83697E-15 3.00000E+01 3.63636E+00
 -1      3438 1.83697E-15 3.00000E+01 4.54545E+00
 -1      3439 1.83697E-15 3.00000E+01 5.45455E+00
 -1      3440 1.83697E-15 3.00000E+01 6.36364E+00
 -1      3441 1.83697E-15 3.00000E+01 7.27273E+00
 -1      3442 1.83697E-15 3.00000E+01 8.18182E+00
 -1      3443 1.83697E-15 3.00000E+01 9.09091E+00
 -1      3444 1.68389E-15 2.75000E+01 9.09091E-01
 -1      3445 1.68389E-15 2.75000E+01 1.81818E+00
 -1      3446 1.68389E-15 2.75000E+01 2.72727E+00
 -1      3447 1.68389E-15 2.75000E+01 3.63636E+00
 -1      3448 1.68389E-15 2.75000E+01 4.54545E+00
 -1      3449 1.68389E-15 2.75000E+01 5.45455E+00
 -1      3450 1.68389E-15 2.75000E+01 6.36364E+00
 -1      3451 1.68389E-15 2.75000E+01 7.27273E+00
 -1      3452 1.68389E-15 2.75000E+01 8.18182E+00
 -1      3453 1.68389E-15 2.75000E+01 9.09091E+00
 -1      3454 5.97015E-15 9.75000E+01 4.54545E-01
 -1      3455 6.04669E-15 9.87500E+01 9.09091E-01
 -1      3457 5.97015E-15 9.75000E+01 1.36364E+00
 -1      3458 6.04669E-15 9.87500E+01 1.81818E+00
 -1      3460 5.97015E-15 9.75000E+01 2.27273E+00
 -1      3461 6.04669E-15 9.87500E+01 2.72727E+00
 -1      3463 5.97015E-15 9.75000E+01 3.18182E+00
 -1      3464 6.04669E-15 9.87500E+01 3.63636E+00
 -1      3466 5.97015E-15 9.75000E+01 4.09091E+00
 -1      3467 6.04669E-15 9.87500E+01 4.54545E+00
 -1      3469 5.97015E-15 9.75000E+01 5.00000E+00
 -1      3470 6.04669E-15 9.87500E+01 5.45455E+00
 -1      3472 5.97015E-15 9.75000E+01 5.90909E+00
 -1      3473 6.04669E-15 9.87500E+01 6.36364E+00
 -1      3475 5.97015E-15 9.75000E+01 6.81818E+00
 -1      3476 6.04669E-15 9.87500E+01 7.27273E+00
 -1      3478 5.97015E-15 9.75000E+01 7.72727E+00
 -1      3479 6.04669E-15 9.87500E+01 8.18182E+00
 -1      3481 5.97015E-15 9.75000E+01 8.63636E+00
 -1      3482 6.04669E-15 9.87500E+01 9.09091E+00
 -1      3484 5.97015E-15 9.75000E+01 9.54545E+00
 -1      3486 5.81707E-15 9.50000E+01 4.54545E-01
 -1      3487 5.89361E-15 9.62500E+01 9.09091E-01
 -1      3489 5.81707E-15 9.50000E+01 1.36364E+00
 -1      3490 5.89361E-15 9.62500E+01 1.81818E+00
 -1      3492 5.81707E-15 9.50000E+01 2.27273E+00
 -1      3493 5.89361E-15 9.62500E+01 2.72727E+00
 -1      3495 5.81707E-15 9.50000E+01 3.18182E+00
 -1      3496 5.89361E-15 9.62500E+01 3.63636E+00
 -1      3498 5.81707E-15 9.50000E+01 4.09091E+00
 -1      3499 5.89361E-15 9.62500E+01 4.54545E+00
 -1      3501 5.81707E-15 9.50000E+01 5.00000E+00
 -1      3502 5.89361E-15 9.62500E+01 5.45455E+00
 -1      3504 5.81707E-15 9.50000E+01 5.90909E+00
 -1      3505 5.89361E-15 9.62500E+01 6.36364E+00
 -1      3507 5.81707E-15 9.50000E+01 6.81818E+00
 -1      3508 5.89361E-15 9.62500E+01 7.27273E+00
 -1      3510 5.81707E-15 9.50000E+01 7.72727E+00
 -1      3511 5.89361E-15 9.62500E+01 8.18182E+00
 -1      3513 5.81707E-15 9.50000E+01 8.63636E+00
 -1      3514 5.89361E-15 9.62500E+01 9.09091E+00
 -1      3516 5.81707E-15 9.50000E+01 9.54545E+00
 -1      3518 5.66399E-15 9.25000E+01 4.54545E-01
 -1      3519 5.74053E-15 9.37500E+01 9.09091E-01
 -1      3521 5.66399E-15 9.25000E+01 1.36364E+00
 -1      3522 5.74053E-15 9.37500E+01 1.81818E+00
 -1      3524 5.66399E-15 9.25000E+01 2.27273E+00
 -1      3525 5.74053E-15 9.37500E+01 2.72727E+00
 -1      3527 5.66399E-15 9.25000E+01 3.18182E+00
 -1      3528 5.74053E-15 9.37500E+01 3.63636E+00
 -1      3530 5.66399E-15 9.25000E+01 4.09091E+00
 -1      3531 5.74053E-15 9.37500E+01 4.54545E+00
 -1      3533 5.66399E-15 9.25000E+01 5.00000E+00
 -1      3534 5.74053E-15 9.37500E+01 5.45455E+00
 -1      3536 5.66399E-15 9.25000E+01 5.90909E+00
 -1      3537 5.74053E-15 9.37500E+01 6.36364E+00
 -1      3539 5.66399E-15 9.25000E+01 6.81818E+00
 -1      3540 5.74053E-15 9.37500E+01 7.27273E+00
 -1      3542 5.66399E-15 9.25000E+01 7.72727E+00
 -1      3543 5.74053E-15 9.37500E+01 8.18182E+00
 -1      3545 5.66399E-15 9.25000E+01 8.63636E+00
 -1      3546 5.74053E-15 9.37500E+01 9.09091E+00
 -1      3548 5.66399E-15 9.25000E+01 9.54545E+00
 -1      3550 5.51091E-15 9.00000E+01 4.54545E-01
 -1      3551 5.58745E-15 9.12500E+01 9.09091E-01
 -1      3553 5.51091E-15 9.00000E+01 1.36364E+00
 -1      3554 5.58745E-15 9.12500E+01 1.81818E+00
 -1      3556 5.51091E-15 9.00000E+01 2.27273E+00
 -1      3557 5.58745E-15 9.12500E+01 2.72727E+00
 -1      3559 5.51091E-15 9.00000E+01 3.18182E+00
 -1      3560 5.58745E-15 9.12500E+01 3.63636E+00
 -1      3562 5.51091E-15 9.00000E+01 4.09091E+00
 -1      3563 5.58745E-15 9.12500E+01 4.54545E+00
 -1      3565 5.51091E-15 9.00000E+01 5.00000E+00
 -1      3566 5.58745E-15 9.12500E+01 5.45455E+00
 -1      3568 5.51091E-15 9.00000E+01 5.90909E+00
 -1      3569 5.58745E-15 9.12500E+01 6.36364E+00
 -1      3571 5.51091E-15 9.00000E+01 6.81818E+00
 -1      3572 5.58745E-15 9.12500E+01 7.27273E+00
 -1      3574 5.51091E-15 9.00000E+01 7.72727E+00
 -1      3575 5.58745E-15 9.12500E+01 8.18182E+00
 -1      3577 5.51091E-15 9.00000E+01 8.63636E+00
 -1      3578 5.58745E-15 9.12500E+01 9.09091E+00
 -1      3580 5.51091E-15 9.00000E+01 9.54545E+00
 -1      3582 5.35783E-15 8.75000E+01 4.54545E-01
 -1      3583 5.43437E-15 8.87500E+01 9.09091E-01
 -1      3585 5.35783E-15 8.75000E+01 1.36364E+00
 -1      3586 5.43437E-15 8.87500E+01 1.81818E+00
 -1      3588 5.35783E-15 8.75000E+01 2.27273E+00
 -1      3589 5.43437E-15 8.87500E+01 2.72727E+00
 -1      3591 5.35783E-15 8.75000E+01 3.18182E+00
 -1      3592 5.43437E-15 8.87500E+01 3.63636E+00
 -1      3594 5.35783E-15 8.75000E+01 4.09091E+00
 -1      3595 5.43437E-15 8.87500E+01 4.54545E+00
 -1      3597 5.35783E-15 8.75000E+01 5.00000E+00
 -1      3598 5.43437E-15 8.87500E+01 5.45455E+00
 -1      3600 5.35783E-15 8.75000E+01 5.90909E+00
 -1      3601 5.43437E-15 8.87500E+01 6.36364E+00
 -1      3603 5.35783E-15 8.75000E+01 6.81818E+00
 -1      3604 5.43437E-15 8.87500E+01 7.27273E+00
 -1      3606 5.35783E-15 8.75000E+01 7.72727E+00
 -1      3607 5.43437E-15 8.87500E+01 8.18182E+00
 -1      3609 5.35783E-15 8.75000E+01 8.63636E+00
 -1      3610 5.43437E-15 8.87500E+01 9.09091E+00
 -1      3612 5.35783E-15 8.75000E+01 9.54545E+00
 -1      3614 5.20475E-15 8.50000E+01 4.54545E-01
 -1      3615 5.28129E-15 8.62500E+01 9.09091E-01
 -1      3617 5.20475E-15 8.50000E+01 1.36364E+00
 -1      3618 5.28129E-15 8.62500E+01 1.81818E+00
 -1      3620 5.20475E-15 8.50000E+01 2.27273E+00
 -1      3621 5.28129E-15 8.62500E+01 2.72727E+00
 -1      3623 5.20475E-15 8.50000E+01 3.18182E+00
 -1      3624 5.28129E-15 8.62500E+01 3.63636E+00
 -1      3626 5.20475E-15 8.50000E+01 4.09091E+00
 -1      3627 5.28129E-15 8.62500E+01 4.54545E+00
 -1      3629 5.20475E-15 8.50000E+01 5.00000E+00
 -1      3630 5.28129E-15 8.62500E+01 5.45455E+00
 -1      3632 5.20475E-15 8.50000E+01 5.90909E+00
 -1      3633 5.28129E-15 8.62500E+01 6.36364E+00
 -1      3635 5.20475E-15 8.50000E+01 6.81818E+00
 -1      3636 5.28129E-15 8.62500E+01 7.27273E+00
 -1      3638 5.20475E-15 8.50000E+01 7.72727E+00
 -1      3639 5.28129E-15 8.62500E+01 8.18182E+00
 -1      3641 5.20475E-15 8.50000E+01 8.63636E+00
 -1      3642 5.28129E-15 8.62500E+01 9.09091E+00
 -1      3644 5.20475E-15 8.50000E+01 9.54545E+00
 -1      3646 5.05167E-15 8.25000E+01 4.54545E-01
 -1      3647 5.12821E-15 8.37500E+01 9.09091E-01
 -1      3649 5.05167E-15 8.25000E+01 1.36364E+00
 -1      3650 5.12821E-15 8.37500E+01 1.81818E+00
 -1      3652 5.05167E-15 8.25000E+01 2.27273E+00
 -1      3653 5.12821E-15 8.37500E+01 2.72727E+00
 -1      3655 5.05167E-15 8.25000E+01 3.18182E+00
 -1      3656 5.12821E-15 8.37500E+01 3.63636E+00
 -1      3658 5.05167E-15 8.25000E+01 4.09091E+00
 -1      3659 5.12821E-15 8.37500E+01 4.54545E+00
 -1      3661 5.05167E-15 8.25000E+01 5.00000E+00
 -1      3662 5.12821E-15 8.37500E+01 5.45455E+00
 -1      3664 5.05167E-15 8.25000E+01 5.90909E+00
 -1      3665 5.12821E-15 8.37500E+01 6.36364E+00
 -1      3667 5.05167E-15 8.25000E+01 6.81818E+00
 -1      3668 5.12821E-15 8.37500E+01 7.27273E+00
 -1      3670 5.05167E-15 8.25000E+01 7.72727E+00
 -1      3671 5.12821E-15 8.37500E+01 8.18182E+00
 -1      3673 5.05167E-15 8.25000E+01 8.63636E+00
 -1      3674 5.12821E-15 8.37500E+01 9.09091E+00
 -1      3676 5.05167E-15 8.25000E+01 9.54545E+00
 -1      3678 4.89859E-15 8.00000E+01 4.54545E-01
 -1      3679 4.97513E-15 8.12500E+01 9.09091E-01
 -1      3681 4.89859E-15 8.00000E+01 1.36364E+00
 -1      3682 4.97513E-15 8.12500E+01 1.81818E+00
 -1      3684 4.89859E-15 8.00000E+01 2.27273E+00
 -1      3685 4.97513E-15 8.12500E+01 2.72727E+00
 -1      3687 4.89859E-15 8.00000E+01 3.18182E+00
 -1      3688 4.97513E-15 8.12500E+01 3.63636E+00
 -1      3690 4.89859E-15 8.00000E+01 4.09091E+00
 -1      3691 4.97513E-15 8.12500E+01 4.54545E+00
 -1      3693 4.89859E-15 8.00000E+01 5.00000E+00
 -1      3694 4.97513E-15 8.12500E+01 5.45455E+00
 -1      3696 4.89859E-15 8.00000E+01 5.90909E+00
 -1      3697 4.97513E-15 8.12500E+01 6.36364E+00
 -1      3699 4.89859E-15 8.00000E+01 6.81818E+00
 -1      3700 4.97513E-15 8.12500E+01 7.27273E+00
 -1      3702 4.89859E-15 8.00000E+01 7.72727E+00
 -1      3703 4.97513E-15 8.12500E+01 8.18182E+00
 -1      3705 4.89859E-15 8.00000E+01 8.63636E+00
 -1      3706 4.97513E-15 8.12500E+01 9.09091E+00
 -1      3708 4.89859E-15 8.00000E+01 9.54545E+00
 -1      3710 4.74551E-15 7.75000E+01 4.54545E-01
 -1      3711 4.82205E-15 7.87500E+01 9.09091E-01
 -1      3713 4.74551E-15 7.75000E+01 1.36364E+00
 -1      3714 4.82205E-15 7.87500E+01 1.81818E+00
 -1      3716 4.74551E-15 7.75000E+01 2.27273E+00
 -1      3717 4.82205E-15 7.87500E+01 2.72727E+00
 -1      3719 4.74551E-15 7.75000E+01 3.18182E+00
 -1      3720 4.82205E-15 7.87500E+01 3.63636E+00
 -1      3722 4.74551E-15 7.75000E+01 4.09091E+00
 -1      3723 4.82205E-15 7.87500E+01 4.54545E+00
 -1      3725 4.74551E-15 7.75000E+01 5.00000E+00
 -1      3726 4.82205E-15 7.87500E+01 5.45455E+00
 -1      3728 4.74551E-15 7.75000E+01 5.90909E+00
 -1      3729 4.82205E-15 7.87500E+01 6.36364E+00
 -1      3731 4.74551E-15 7.75000E+01 6.81818E+00
 -1      3732 4.82205E-15 7.87500E+01 7.27273E+00
 -1      3734 4.74551E-15 7.75000E+01 7.72727E+00
 -1      3735 4.82205E-15 7.87500E+01 8.18182E+00
 -1      3737 4.74551E-15 7.75000E+01 8.63636E+00
 -1      3738 4.82205E-15 7.87500E+01 9.09091E+00
 -1      3740 4.74551E-15 7.75000E+01 9.54545E+00
 -1      3742 4.59243E-15 7.50000E+01 4.54545E-01
 -1      3743 4.66897E-15 7.62500E+01 9.09091E-01
 -1      3745 4.59243E-15 7.50000E+01 1.36364E+00
 -1      3746 4.66897E-15 7.62500E+01 1.81818E+00
 -1      3748 4.59243E-15 7.50000E+01 2.27273E+00
 -1      3749 4.66897E-15 7.62500E+01 2.72727E+00
 -1      3751 4.59243E-15 7.50000E+01 3.18182E+00
 -1      3752 4.66897E-15 7.62500E+01 3.63636E+00
 -1      3754 4.59243E-15 7.50000E+01 4.09091E+00
 -1      3755 4.66897E-15 7.62500E+01 4.54545E+00
 -1      3757 4.59243E-15 7.50000E+01 5.00000E+00
 -1      3758 4.66897E-15 7.62500E+01 5.45455E+00
 -1      3760 4.59243E-15 7.50000E+01 5.90909E+00
 -1      3761 4.66897E-15 7.62500E+01 6.36364E+00
 -1      3763 4.59243E-15 7.50000E+01 6.81818E+00
 -1      3764 4.66897E-15 7.62500E+01 7.27273E+00
 -1      3766 4.59243E-15 7.50000E+01 7.72727E+00
 -1      3767 4.66897E-15 7.62500E+01 8.18182E+00
 -1      3769 4.59243E-15 7.50000E+01 8.63636E+00
 -1      3770 4.66897E-15 7.62500E+01 9.09091E+00
 -1      3772 4.59243E-15 7.50000E+01 9.54545E+00
 -1      3774 4.43934E-15 7.25000E+01 4.54545E-01
 -1      3775 4.51589E-15 7.37500E+01 9.09091E-01
 -1      3777 4.43934E-15 7.25000E+01 1.36364E+00
 -1      3778 4.51589E-15 7.37500E+01 1.81818E+00
 -1      3780 4.43934E-15 7.25000E+01 2.27273E+00
 -1      3781 4.51589E-15 7.37500E+01 2.72727E+00
 -1      3783 4.43934E-15 7.25000E+01 3.18182E+00
 -1      3784 4.51589E-15 7.37500E+01 3.63636E+00
 -1      3786 4.43934E-15 7.25000E+01 4.09091E+00
 -1      3787 4.51589E-15 7.37500E+01 4.54545E+00
 -1      3789 4.43934E-15 7.25000E+01 5.00000E+00
 -1      3790 4.51589E-15 7.37500E+01 5.45455E+00
 -1      3792 4.43934E-15 7.25000E+01 5.90909E+00
 -1      3793 4.51589E-15 7.37500E+01 6.36364E+00
 -1      3795 4.43934E-15 7.25000E+01 6.81818E+00
 -1      3796 4.51589E-15 7.37500E+01 7.27273E+00
 -1      3798 4.43934E-15 7.25000E+01 7.72727E+00
 -1      3799 4.51589E-15 7.37500E+01 8.18182E+00
 -1      3801 4.43934E-15 7.25000E+01 8.63636E+00
 -1      3802 4.51589E-15 7.37500E+01 9.09091E+00
 -1      3804 4.43934E-15 7.25000E+01 9.54545E+00
 -1      3806 4.28626E-15 7.00000E+01 4.54545E-01
 -1      3807 4.36280E-15 7.12500E+01 9.09091E-01
 -1      3809 4.28626E-15 7.00000E+01 1.36364E+00
 -1      3810 4.36280E-15 7.12500E+01 1.81818E+00
 -1      3812 4.28626E-15 7.00000E+01 2.27273E+00
 -1      3813 4.36280E-15 7.12500E+01 2.72727E+00
 -1      3815 4.28626E-15 7.00000E+01 3.18182E+00
 -1      3816 4.36280E-15 7.12500E+01 3.63636E+00
 -1      3818 4.28626E-15 7.00000E+01 4.09091E+00
 -1      3819 4.36280E-15 7.12500E+01 4.54545E+00
 -1      3821 4.28626E-15 7.00000E+01 5.00000E+00
 -1      3822 4.36280E-15 7.12500E+01 5.45455E+00
 -1      3824 4.28626E-15 7.00000E+01 5.90909E+00
 -1      3825 4.36280E-15 7.12500E+01 6.36364E+00
 -1      3827 4.28626E-15 7.00000E+01 6.81818E+00
 -1      3828 4.36280E-15 7.12500E+01 7.27273E+00
 -1      3830 4.28626E-15 7.00000E+01 7.72727E+00
 -1      3831 4.36280E-15 7.12500E+01 8.18182E+00
 -1      3833 4.28626E-15 7.00000E+01 8.63636E+00
 -1      3834 4.36280E-15 7.12500E+01 9.09091E+00
 -1      3836 4.28626E-15 7.00000E+01 9.54545E+00
 -1      3838 4.13318E-15 6.75000E+01 4.54545E-01
 -1      3839 4.20972E-15 6.87500E+01 9.09091E-01
 -1      3841 4.13318E-15 6.75000E+01 1.36364E+00
 -1      3842 4.20972E-15 6.87500E+01 1.81818E+00
 -1      3844 4.13318E-15 6.75000E+01 2.27273E+00
 -1      3845 4.20972E-15 6.87500E+01 2.72727E+00
 -1      3847 4.13318E-15 6.75000E+01 3.18182E+00
 -1      3848 4.20972E-15 6.87500E+01 3.63636E+00
 -1      3850 4.13318E-15 6.75000E+01 4.09091E+00
 -1      3851 4.20972E-15 6.87500E+01 4.54545E+00
 -1      3853 4.13318E-15 6.75000E+01 5.00000E+00
 -1      3854 4.20972E-15 6.87500E+01 5.45455E+00
 -1      3856 4.13318E-15 6.75000E+01 5.90909E+00
 -1      3857 4.20972E-15 6.87500E+01 6.36364E+00
 -1      3859 4.13318E-15 6.75000E+01 6.81818E+00
 -1      3860 4.20972E-15 6.87500E+01 7.27273E+00
 -1      3862 4.13318E-15 6.75000E+01 7.72727E+00
 -1      3863 4.20972E-15 6.87500E+01 8.18182E+00
 -1      3865 4.13318E-15 6.75000E+01 8.63636E+00
 -1      3866 4.20972E-15 6.87500E+01 9.09091E+00
 -1      3868 4.13318E-15 6.75000E+01 9.54545E+00
 -1      3870 3.98010E-15 6.50000E+01 4.54545E-01
 -1      3871 4.05664E-15 6.62500E+01 9.09091E-01
 -1      3873 3.98010E-15 6.50000E+01 1.36364E+00
 -1      3874 4.05664E-15 6.62500E+01 1.81818E+00
 -1      3876 3.98010E-15 6.50000E+01 2.27273E+00
 -1      3877 4.05664E-15 6.62500E+01 2.72727E+00
 -1      3879 3.98010E-15 6.50000E+01 3.18182E+00
 -1      3880 4.05664E-15 6.62500E+01 3.63636E+00
 -1      3882 3.98010E-15 6.50000E+01 4.09091E+00
 -1      3883 4.05664E-15 6.62500E+01 4.54545E+00
 -1      3885 3.98010E-15 6.50000E+01 5.00000E+00
 -1      3886 4.05664E-15 6.62500E+01 5.45455E+00
 -1      3888 3.98010E-15 6.50000E+01 5.90909E+00
 -1      3889 4.05664E-15 6.62500E+01 6.36364E+00
 -1      3891 3.98010E-15 6.50000E+01 6.81818E+00
 -1      3892 4.05664E-15 6.62500E+01 7.27273E+00
 -1      3894 3.98010E-15 6.50000E+01 7.72727E+00
 -1      3895 4.05664E-15 6.62500E+01 8.18182E+00
 -1      3897 3.98010E-15 6.50000E+01 8.63636E+00
 -1      3898 4.05664E-15 6.62500E+01 9.09091E+00
 -1      3900 3.98010E-15 6.50000E+01 9.54545E+00
 -1      3902 3.82702E-15 6.25000E+01 4.54545E-01
 -1      3903 3.90356E-15 6.37500E+01 9.09091E-01
 -1      3905 3.82702E-15 6.25000E+01 1.36364E+00
 -1      3906 3.90356E-15 6.37500E+01 1.81818E+00
 -1      3908 3.82702E-15 6.25000E+01 2.27273E+00
 -1      3909 3.90356E-15 6.37500E+01 2.72727E+00
 -1      3911 3.82702E-15 6.25000E+01 3.18182E+00
 -1      3912 3.90356E-15 6.37500E+01 3.63636E+00
 -1      3914 3.82702E-15 6.25000E+01 4.09091E+00
 -1      3915 3.90356E-15 6.37500E+01 4.54545E+00
 -1      3917 3.82702E-15 6.25000E+01 5.00000E+00
 -1      3918 3.90356E-15 6.37500E+01 5.45455E+00
 -1      3920 3.82702E-15 6.25000E+01 5.90909E+00
 -1      3921 3.90356E-15 6.37500E+01 6.36364E+00
 -1      3923 3.82702E-15 6.25000E+01 6.81818E+00
 -1      3924 3.90356E-15 6.37500E+01 7.27273E+00
 -1      3926 3.82702E-15 6.25000E+01 7.72727E+00
 -1      3927 3.90356E-15 6.37500E+01 8.18182E+00
 -1      3929 3.82702E-15 6.25000E+01 8.63636E+00
 -1      3930 3.90356E-15 6.37500E+01 9.09091E+00
 -1      3932 3.82702E-15 6.25000E+01 9.54545E+00
 -1      3934 3.67394E-15 6.00000E+01 4.54545E-01
 -1      3935 3.75048E-15 6.12500E+01 9.09091E-01
 -1      3937 3.67394E-15 6.00000E+01 1.36364E+00
 -1      3938 3.75048E-15 6.12500E+01 1.81818E+00
 -1      3940 3.67394E-15 6.00000E+01 2.27273E+00
 -1      3941 3.75048E-15 6.12500E+01 2.72727E+00
 -1      3943 3.67394E-15 6.00000E+01 3.18182E+00
 -1      3944 3.75048E-15 6.12500E+01 3.63636E+00
 -1      3946 3.67394E-15 6.00000E+01 4.09091E+00
 -1      3947 3.75048E-15 6.12500E+01 4.54545E+00
 -1      3949 3.67394E-15 6.00000E+01 5.00000E+00
 -1      3950 3.75048E-15 6.12500E+01 5.45455E+00
 -1      3952 3.67394E-15 6.00000E+01 5.90909E+00
 -1      3953 3.75048E-15 6.12500E+01 6.36364E+00
 -1      3955 3.67394E-15 6.00000E+01 6.81818E+00
 -1      3956 3.75048E-15 6.12500E+01 7.27273E+00
 -1      3958 3.67394E-15 6.00000E+01 7.72727E+00
 -1      3959 3.75048E-15 6.12500E+01 8.18182E+00
 -1      3961 3.67394E-15 6.00000E+01 8.63636E+00
 -1      3962 3.75048E-15 6.12500E+01 9.09091E+00
 -1      3964 3.67394E-15 6.00000E+01 9.54545E+00
 -1      3966 3.52086E-15 5.75000E+01 4.54545E-01
 -1      3967 3.59740E-15 5.87500E+01 9.09091E-01
 -1      3969 3.52086E-15 5.75000E+01 1.36364E+00
 -1      3970 3.59740E-15 5.87500E+01 1.81818E+00
 -1      3972 3.52086E-15 5.75000E+01 2.27273E+00
 -1      3973 3.59740E-15 5.87500E+01 2.72727E+00
 -1      3975 3.52086E-15 5.75000E+01 3.18182E+00
 -1      3976 3.59740E-15 5.87500E+01 3.63636E+00
 -1      3978 3.52086E-15 5.75000E+01 4.09091E+00
 -1      3979 3.59740E-15 5.87500E+01 4.54545E+00
 -1      3981 3.52086E-15 5.75000E+01 5.00000E+00
 -1      3982 3.59740E-15 5.87500E+01 5.45455E+00
 -1      3984 3.52086E-15 5.75000E+01 5.90909E+00
 -1      3985 3.59740E-15 5.87500E+01 6.36364E+00
 -1      3987 3.52086E-15 5.75000E+01 6.81818E+00
 -1      3988 3.59740E-15 5.87500E+01 7.27273E+00
 -1      3990 3.52086E-15 5.75000E+01 7.72727E+00
 -1      3991 3.59740E-15 5.87500E+01 8.18182E+00
 -1      3993 3.52086E-15 5.75000E+01 8.63636E+00
 -1      3994 3.59740E-15 5.87500E+01 9.09091E+00
 -1      3996 3.52086E-15 5.75000E+01 9.54545E+00
 -1      3998 3.36778E-15 5.50000E+01 4.54545E-01
 -1      3999 3.44432E-15 5.62500E+01 9.09091E-01
 -1      4001 3.36778E-15 5.50000E+01 1.36364E+00
 -1      4002 3.44432E-15 5.62500E+01 1.81818E+00
 -1      4004 3.36778E-15 5.50000E+01 2.27273E+00
 -1      4005 3.44432E-15 5.62500E+01 2.72727E+00
 -1      4007 3.36778E-15 5.50000E+01 3.18182E+00
 -1      4008 3.44432E-15 5.62500E+01 3.63636E+00
 -1      4010 3.36778E-15 5.50000E+01 4.09091E+00
 -1      4011 3.44432E-15 5.62500E+01 4.54545E+00
 -1      4013 3.36778E-15 5.50000E+01 5.00000E+00
 -1      4014 3.44432E-15 5.62500E+01 5.45455E+00
 -1      4016 3.36778E-15 5.50000E+01 5.90909E+00
 -1      4017 3.44432E-15 5.62500E+01 6.36364E+00
 -1      4019 3.36778E-15 5.50000E+01 6.81818E+00
 -1      4020 3.44432E-15 5.62500E+01 7.27273E+00
 -1      4022 3.36778E-15 5.50000E+01 7.72727E+00
 -1      4023 3.44432E-15 5.62500E+01 8.18182E+00
 -1      4025 3.36778E-15 5.50000E+01 8.63636E+00
 -1      4026 3.44432E-15 5.62500E+01 9.09091E+00
 -1      4028 3.36778E-15 5.50000E+01 9.54545E+00
 -1      4030 3.21470E-15 5.25000E+01 4.54545E-01
 -1      4031 3.29124E-15 5.37500E+01 9.09091E-01
 -1      4033 3.21470E-15 5.25000E+01 1.36364E+00
 -1      4034 3.29124E-15 5.37500E+01 1.81818E+00
 -1      4036 3.21470E-15 5.25000E+01 2.27273E+00
 -1      4037 3.29124E-15 5.37500E+01 2.72727E+00
 -1      4039 3.21470E-15 5.25000E+01 3.18182E+00
 -1      4040 3.29124E-15 5.37500E+01 3.63636E+00
 -1      4042 3.21470E-15 5.25000E+01 4.09091E+00
 -1      4043 3.29124E-15 5.37500E+01 4.54545E+00
 -1      4045 3.21470E-15 5.25000E+01 5.00000E+00
 -1      4046 3.29124E-15 5.37500E+01 5.45455E+00
 -1      4048 3.21470E-15 5.25000E+01 5.90909E+00
 -1      4049 3.29124E-15 5.37500E+01 6.36364E+00
 -1      4051 3.21470E-15 5.25000E+01 6.81818E+00
 -1      4052 3.29124E-15 5.37500E+01 7.27273E+00
 -1      4054 3.21470E-15 5.25000E+01 7.72727E+00
 -1      4055 3.29124E-15 5.37500E+01 8.18182E+00
 -1      4057 3.21470E-15 5.25000E+01 8.63636E+00
 -1      4058 3.29124E-15 5.37500E+01 9.09091E+00
 -1      4060 3.21470E-15 5.25000E+01 9.54545E+00
 -1      4062 3.06162E-15 5.00000E+01 4.54545E-01
 -1      4063 3.13816E-15 5.12500E+01 9.09091E-01
 -1      4065 3.06162E-15 5.00000E+01 1.36364E+00
 -1      4066 3.13816E-15 5.12500E+01 1.81818E+00
 -1      4068 3.06162E-15 5.00000E+01 2.27273E+00
 -1      4069 3.13816E-15 5.12500E+01 2.72727E+00
 -1      4071 3.06162E-15 5.00000E+01 3.18182E+00
 -1      4072 3.13816E-15 5.12500E+01 3.63636E+00
 -1      4074 3.06162E-15 5.00000E+01 4.09091E+00
 -1      4075 3.13816E-15 5.12500E+01 4.54545E+00
 -1      4077 3.06162E-15 5.00000E+01 5.00000E+00
 -1      4078 3.13816E-15 5.12500E+01 5.45455E+00
 -1      4080 3.06162E-15 5.00000E+01 5.90909E+00
 -1      4081 3.13816E-15 5.12500E+01 6.36364E+00
 -1      4083 3.06162E-15 5.00000E+01 6.81818E+00
 -1      4084 3.13816E-15 5.12500E+01 7.27273E+00
 -1      4086 3.06162E-15 5.00000E+01 7.72727E+00
 -1      4087 3.13816E-15 5.12500E+01 8.18182E+00
 -1      4089 3.06162E-15 5.00000E+01 8.63636E+00
 -1      4090 3.13816E-15 5.12500E+01 9.09091E+00
 -1      4092 3.06162E-15 5.00000E+01 9.54545E+00
 -1      4094 2.90854E-15 4.75000E+01 4.54545E-01
 -1      4095 2.98508E-15 4.87500E+01 9.09091E-01
 -1      4097 2.90854E-15 4.75000E+01 1.36364E+00
 -1      4098 2.98508E-15 4.87500E+01 1.81818E+00
 -1      4100 2.90854E-15 4.75000E+01 2.27273E+00
 -1      4101 2.98508E-15 4.87500E+01 2.72727E+00
 -1      4103 2.90854E-15 4.75000E+01 3.18182E+00
 -1      4104 2.98508E-15 4.87500E+01 3.63636E+00
 -1      4106 2.90854E-15 4.75000E+01 4.09091E+00
 -1      4107 2.98508E-15 4.87500E+01 4.54545E+00
 -1      4109 2.90854E-15 4.75000E+01 5.00000E+00
 -1      4110 2.98508E-15 4.87500E+01 5.45455E+00
 -1      4112 2.90854E-15 4.75000E+01 5.90909E+00
 -1      4113 2.98508E-15 4.87500E+01 6.36364E+00
 -1      4115 2.90854E-15 4.75000E+01 6.81818E+00
 -1      4116 2.98508E-15 4.87500E+01 7.27273E+00
 -1      4118 2.90854E-15 4.75000E+01 7.72727E+00
 -1      4119 2.98508E-15 4.87500E+01 8.18182E+00
 -1      4121 2.90854E-15 4.75000E+01 8.63636E+00
 -1      4122 2.98508E-15 4.87500E+01 9.09091E+00
 -1      4124 2.90854E-15 4.75000E+01 9.54545E+00
 -1      4126 2.75546E-15 4.50000E+01 4.54545E-01
 -1      4127 2.83200E-15 4.62500E+01 9.09091E-01
 -1      4129 2.75546E-15 4.50000E+01 1.36364E+00
 -1      4130 2.83200E-15 4.62500E+01 1.81818E+00
 -1      4132 2.75546E-15 4.50000E+01 2.27273E+00
 -1      4133 2.83200E-15 4.62500E+01 2.72727E+00
 -1      4135 2.75546E-15 4.50000E+01 3.18182E+00
 -1      4136 2.83200E-15 4.62500E+01 3.63636E+00
 -1      4138 2.75546E-15 4.50000E+01 4.09091E+00
 -1      4139 2.83200E-15 4.62500E+01 4.54545E+00
 -1      4141 2.75546E-15 4.50000E+01 5.00000E+00
 -1      4142 2.83200E-15 4.62500E+01 5.45455E+00
 -1      4144 2.75546E-15 4.50000E+01 5.90909E+00
 -1      4145 2.83200E-15 4.62500E+01 6.36364E+00
 -1      4147 2.75546E-15 4.50000E+01 6.81818E+00
 -1      4148 2.83200E-15 4.62500E+01 7.27273E+00
 -1      4150 2.75546E-15 4.50000E+01 7.72727E+00
 -1      4151 2.83200E-15 4.62500E+01 8.18182E+00
 -1      4153 2.75546E-15 4.50000E+01 8.63636E+00
 -1      4154 2.83200E-15 4.62500E+01 9.09091E+00
 -1      4156 2.75546E-15 4.50000E+01 9.54545E+00
 -1      4158 2.60237E-15 4.25000E+01 4.54545E-01
 -1      4159 2.67891E-15 4.37500E+01 9.09091E-01
 -1      4161 2.60237E-15 4.25000E+01 1.36364E+00
 -1      4162 2.67891E-15 4.37500E+01 1.81818E+00
 -1      4164 2.60237E-15 4.25000E+01 2.27273E+00
 -1      4165 2.67891E-15 4.37500E+01 2.72727E+00
 -1      4167 2.60237E-15 4.25000E+01 3.18182E+00
 -1      4168 2.67891E-15 4.37500E+01 3.63636E+00
 -1      4170 2.60237E-15 4.25000E+01 4.09091E+00
 -1      4171 2.67891E-15 4.37500E+01 4.54545E+00
 -1      4173 2.60237E-15 4.25000E+01 5.00000E+00
 -1      4174 2.67891E-15 4.37500E+01 5.45455E+00
 -1      4176 2.60237E-15 4.25000E+01 5.90909E+00
 -1      4177 2.67891E-15 4.37500E+01 6.36364E+00
 -1      4179 2.60237E-15 4.25000E+01 6.81818E+00
 -1      4180 2.67891E-15 4.37500E+01 7.27273E+00
 -1      4182 2.60237E-15 4.25000E+01 7.72727E+00
 -1      4183 2.67891E-15 4.37500E+01 8.18182E+00
 -1      4185 2.60237E-15 4.25000E+01 8.63636E+00
 -1      4186 2.67891E-15 4.37500E+01 9.09091E+00
 -1      4188 2.60237E-15 4.25000E+01 9.54545E+00
 -1      4190 2.44929E-15 4.00000E+01 4.54545E-01
 -1      4191 2.52583E-15 4.12500E+01 9.09091E-01
 -1      4193 2.44929E-15 4.00000E+01 1.36364E+00
 -1      4194 2.52583E-15 4.12500E+01 1.81818E+00
 -1      4196 2.44929E-15 4.00000E+01 2.27273E+00
 -1      4197 2.52583E-15 4.12500E+01 2.72727E+00
 -1      4199 2.44929E-15 4.00000E+01 3.18182E+00
 -1      4200 2.52583E-15 4.12500E+01 3.63636E+00
 -1      4202 2.44929E-15 4.00000E+01 4.09091E+00
 -1      4203 2.52583E-15 4.12500E+01 4.54545E+00
 -1      4205 2.44929E-15 4.00000E+01 5.00000E+00
 -1      4206 2.52583E-15 4.12500E+01 5.45455E+00
 -1      4208 2.44929E-15 4.00000E+01 5.90909E+00
 -1      4209 2.52583E-15 4.12500E+01 6.36364E+00
 -1      4211 2.44929E-15 4.00000E+01 6.81818E+00
 -1      4212 2.52583E-15 4.12500E+01 7.27273E+00
 -1      4214 2.44929E-15 4.00000E+01 7.72727E+00
 -1      4215 2.52583E-15 4.12500E+01 8.18182E+00
 -1      4217 2.44929E-15 4.00000E+01 8.63636E+00
 -1      4218 2.52583E-15 4.12500E+01 9.09091E+00
 -1      4220 2.44929E-15 4.00000E+01 9.54545E+00
 -1      4222 2.29621E-15 3.75000E+01 4.54545E-01
 -1      4223 2.37275E-15 3.87500E+01 9.09091E-01
 -1      4225 2.29621E-15 3.75000E+01 1.36364E+00
 -1      4226 2.37275E-15 3.87500E+01 1.81818E+00
 -1      4228 2.29621E-15 3.75000E+01 2.27273E+00
 -1      4229 2.37275E-15 3.87500E+01 2.72727E+00
 -1      4231 2.29621E-15 3.75000E+01 3.18182E+00
 -1      4232 2.37275E-15 3.87500E+01 3.63636E+00
 -1      4234 2.29621E-15 3.75000E+01 4.09091E+00
 -1      4235 2.37275E-15 3.87500E+01 4.54545E+00
 -1      4237 2.29621E-15 3.75000E+01 5.00000E+00
 -1      4238 2.37275E-15 3.87500E+01 5.45455E+00
 -1      4240 2.29621E-15 3.75000E+01 5.90909E+00
 -1      4241 2.37275E-15 3.87500E+01 6.36364E+00
 -1      4243 2.29621E-15 3.75000E+01 6.81818E+00
 -1      4244 2.37275E-15 3.87500E+01 7.27273E+00
 -1      4246 2.29621E-15 3.75000E+01 7.72727E+00
 -1      4247 2.37275E-15 3.87500E+01 8.18182E+00
 -1      4249 2.29621E-15 3.75000E+01 8.63636E+00
 -1      4250 2.37275E-15 3.87500E+01 9.09091E+00
 -1      4252 2.29621E-15 3.75000E+01 9.54545E+00
 -1      4254 2.14313E-15 3.50000E+01 4.54545E-01
 -1      4255 2.21967E-15 3.62500E+01 9.09091E-01
 -1      4257 2.14313E-15 3.50000E+01 1.36364E+00
 -1      4258 2.21967E-15 3.62500E+01 1.81818E+00
 -1      4260 2.14313E-15 3.50000E+01 2.27273E+00
 -1      4261 2.21967E-15 3.62500E+01 2.72727E+00
 -1      4263 2.14313E-15 3.50000E+01 3.18182E+00
 -1      4264 2.21967E-15 3.62500E+01 3.63636E+00
 -1      4266 2.14313E-15 3.50000E+01 4.09091E+00
 -1      4267 2.21967E-15 3.62500E+01 4.54545E+00
 -1      4269 2.14313E-15 3.50000E+01 5.00000E+00
 -1      4270 2.21967E-15 3.62500E+01 5.45455E+00
 -1      4272 2.14313E-15 3.50000E+01 5.90909E+00
 -1      4273 2.21967E-15 3.62500E+01 6.36364E+00
 -1      4275 2.14313E-15 3.50000E+01 6.81818E+00
 -1      4276 2.21967E-15 3.62500E+01 7.27273E+00
 -1      4278 2.14313E-15 3.50000E+01 7.72727E+00
 -1      4279 2.21967E-15 3.62500E+01 8.18182E+00
 -1      4281 2.14313E-15 3.50000E+01 8.63636E+00
 -1      4282 2.21967E-15 3.62500E+01 9.09091E+00
 -1      4284 2.14313E-15 3.50000E+01 9.54545E+00
 -1      4286 1.99005E-15 3.25000E+01 4.54545E-01
 -1      4287 2.06659E-15 3.37500E+01 9.09091E-01
 -1      4289 1.99005E-15 3.25000E+01 1.36364E+00
 -1      4290 2.06659E-15 3.37500E+01 1.81818E+00
 -1      4292 1.99005E-15 3.25000E+01 2.27273E+00
 -1      4293 2.06659E-15 3.37500E+01 2.72727E+00
 -1      4295 1.99005E-15 3.25000E+01 3.18182E+00
 -1      4296 2.06659E-15 3.37500E+01 3.63636E+00
 -1      4298 1.99005E-15 3.25000E+01 4.09091E+00
 -1      4299 2.06659E-15 3.37500E+01 4.54545E+00
 -1      4301 1.99005E-15 3.25000E+01 5.00000E+00
 -1      4302 2.06659E-15 3.37500E+01 5.45455E+00
 -1      4304 1.99005E-15 3.25000E+01 5.90909E+00
 -1      4305 2.06659E-15 3.37500E+01 6.36364E+00
 -1      4307 1.99005E-15 3.25000E+01 6.81818E+00
 -1      4308 2.06659E-15 3.37500E+01 7.27273E+00
 -1      4310 1.99005E-15 3.25000E+01 7.72727E+00
 -1      4311 2.06659E-15 3.37500E+01 8.18182E+00
 -1      4313 1.99005E-15 3.25000E+01 8.63636E+00
 -1      4314 2.06659E-15 3.37500E+01 9.09091E+00
 -1      4316 1.99005E-15 3.25000E+01 9.54545E+00
 -1      4318 1.83697E-15 3.00000E+01 4.54545E-01
 -1      4319 1.91351E-15 3.12500E+01 9.09091E-01
 -1      4321 1.83697E-15 3.00000E+01 1.36364E+00
 -1      4322 1.91351E-15 3.12500E+01 1.81818E+00
 -1      4324 1.83697E-15 3.00000E+01 2.27273E+00
 -1      4325 1.91351E-15 3.12500E+01 2.72727E+00
 -1      4327 1.83697E-15 3.00000E+01 3.18182E+00
 -1      4328 1.91351E-15 3.12500E+01 3.63636E+00
 -1      4330 1.83697E-15 3.00000E+01 4.09091E+00
 -1      4331 1.91351E-15 3.12500E+01 4.54545E+00
 -1      4333 1.83697E-15 3.00000E+01 5.00000E+00
 -1      4334 1.91351E-15 3.12500E+01 5.45455E+00
 -1      4336 1.83697E-15 3.00000E+01 5.90909E+00
 -1      4337 1.91351E-15 3.12500E+01 6.36364E+00
 -1      4339 1.83697E-15 3.00000E+01 6.81818E+00
 -1      4340 1.91351E-15 3.12500E+01 7.27273E+00
 -1      4342 1.83697E-15 3.00000E+01 7.72727E+00
 -1      4343 1.91351E-15 3.12500E+01 8.18182E+00
 -1      4345 1.83697E-15 3.00000E+01 8.63636E+00
 -1      4346 1.91351E-15 3.12500E+01 9.09091E+00
 -1      4348 1.83697E-15 3.00000E+01 9.54545E+00
 -1      4350 1.68389E-15 2.75000E+01 4.54545E-01
 -1      4351 1.76043E-15 2.87500E+01 9.09091E-01
 -1      4353 1.68389E-15 2.75000E+01 1.36364E+00
 -1      4354 1.76043E-15 2.87500E+01 1.81818E+00
 -1      4356 1.68389E-15 2.75000E+01 2.27273E+00
 -1      4357 1.76043E-15 2.87500E+01 2.72727E+00
 -1      4359 1.68389E-15 2.75000E+01 3.18182E+00
 -1      4360 1.76043E-15 2.87500E+01 3.63636E+00
 -1      4362 1.68389E-15 2.75000E+01 4.09091E+00
 -1      4363 1.76043E-15 2.87500E+01 4.54545E+00
 -1      4365 1.68389E-15 2.75000E+01 5.00000E+00
 -1      4366 1.76043E-15 2.87500E+01 5.45455E+00
 -1      4368 1.68389E-15 2.75000E+01 5.90909E+00
 -1      4369 1.76043E-15 2.87500E+01 6.36364E+00
 -1      4371 1.68389E-15 2.75000E+01 6.81818E+00
 -1      4372 1.76043E-15 2.87500E+01 7.27273E+00
 -1      4374 1.68389E-15 2.75000E+01 7.72727E+00
 -1      4375 1.76043E-15 2.87500E+01 8.18182E+00
 -1      4377 1.68389E-15 2.75000E+01 8.63636E+00
 -1      4378 1.76043E-15 2.87500E+01 9.09091E+00
 -1      4380 1.68389E-15 2.75000E+01 9.54545E+00
 -1      4382 1.60735E-15 2.62500E+01 9.09091E-01
 -1      4384 1.60735E-15 2.62500E+01 1.81818E+00
 -1      4386 1.60735E-15 2.62500E+01 2.72727E+00
 -1      4388 1.60735E-15 2.62500E+01 3.63636E+00
 -1      4390 1.60735E-15 2.62500E+01 4.54545E+00
 -1      4392 1.60735E-15 2.62500E+01 5.45455E+00
 -1      4394 1.60735E-15 2.62500E+01 6.36364E+00
 -1      4396 1.60735E-15 2.62500E+01 7.27273E+00
 -1      4398 1.60735E-15 2.62500E+01 8.18182E+00
 -1      4400 1.60735E-15 2.62500E+01 9.09091E+00
 -1      4403 3.91086E+00 2.46922E+01 9.09091E-01
 -1      4404 3.91086E+00 2.46922E+01 1.81818E+00
 -1      4405 3.91086E+00 2.46922E+01 2.72727E+00
 -1      4406 3.91086E+00 2.46922E+01 3.63636E+00
 -1      4407 3.91086E+00 2.46922E+01 4.54545E+00
 -1      4408 3.91086E+00 2.46922E+01 5.45455E+00
 -1      4409 3.91086E+00 2.46922E+01 6.36364E+00
 -1      4410 3.91086E+00 2.46922E+01 7.27273E+00
 -1      4411 3.91086E+00 2.46922E+01 8.18182E+00
 -1      4412 3.91086E+00 2.46922E+01 9.09091E+00
 -1      4413 7.72542E+00 2.37764E+01 9.09091E-01
 -1      4414 7.72542E+00 2.37764E+01 1.81818E+00
 -1      4415 7.72542E+00 2.37764E+01 2.72727E+00
 -1      4416 7.72542E+00 2.37764E+01 3.63636E+00
 -1      4417 7.72542E+00 2.37764E+01 4.54545E+00
 -1      4418 7.72542E+00 2.37764E+01 5.45455E+00
 -1      4419 7.72542E+00 2.37764E+01 6.36364E+00
 -1      4420 7.72542E+00 2.37764E+01 7.27273E+00
 -1      4421 7.72542E+00 2.37764E+01 8.18182E+00
 -1      4422 7.72542E+00 2.37764E+01 9.09091E+00
 -1      4423 1.13498E+01 2.22752E+01 9.09091E-01
 -1      4424 1.13498E+01 2.22752E+01 1.81818E+00
 -1      4425 1.13498E+01 2.22752E+01 2.72727E+00
 -1      4426 1.13498E+01 2.22752E+01 3.63636E+00
 -1      4427 1.13498E+01 2.22752E+01 4.54545E+00
 -1      4428 1.13498E+01 2.22752E+01 5.45455E+00
 -1      4429 1.13498E+01 2.22752E+01 6.36364E+00
 -1      4430 1.13498E+01 2.22752E+01 7.27273E+00
 -1      4431 1.13498E+01 2.22752E+01 8.18182E+00
 -1      4432 1.13498E+01 2.22752E+01 9.09091E+00
 -1      4433 1.46946E+01 2.02254E+01 9.09091E-01
 -1      4434 1.46946E+01 2.02254E+01 1.81818E+00
 -1      4435 1.46946E+01 2.02254E+01 2.72727E+00
 -1      4436 1.46946E+01 2.02254E+01 3.63636E+00
 -1      4437 1.46946E+01 2.02254E+01 4.54545E+00
 -1      4438 1.46946E+01 2.02254E+01 5.45455E+00
 -1      4439 1.46946E+01 2.02254E+01 6.36364E+00
 -1      4440 1.46946E+01 2.02254E+01 7.27273E+00
 -1      4441 1.46946E+01 2.02254E+01 8.18182E+00
 -1      4442 1.46946E+01 2.02254E+01 9.09091E+00
 -1      4443 1.76777E+01 1.76777E+01 9.09091E-01
 -1      4444 1.76777E+01 1.76777E+01 1.81818E+00
 -1      4445 1.76777E+01 1.76777E+01 2.72727E+00
 -1      4446 1.76777E+01 1.76777E+01 3.63636E+00
 -1      4447 1.76777E+01 1.76777E+01 4.54545E+00
 -1      4448 1.76777E+01 1.76777E+01 5.45455E+00
 -1      4449 1.76777E+01 1.76777E+01 6.36364E+00
 -1      4450 1.76777E+01 1.76777E+01 7.27273E+00
 -1      4451 1.76777E+01 1.76777E+01 8.18182E+00
 -1      4452 1.76777E+01 1.76777E+01 9.09091E+00
 -1      4453 2.02254E+01 1.46946E+01 9.09091E-01
 -1      4454 2.02254E+01 1.46946E+01 1.81818E+00
 -1      4455 2.02254E+01 1.46946E+01 2.72727E+00
 -1      4456 2.02254E+01 1.46946E+01 3.63636E+00
 -1      4457 2.02254E+01 1.46946E+01 4.54545E+00
 -1      4458 2.02254E+01 1.46946E+01 5.45455E+00
 -1      4459 2.02254E+01 1.46946E+01 6.36364E+00
 -1      4460 2.02254E+01 1.46946E+01 7.27273E+00
 -1      4461 2.02254E+01 1.46946E+01 8.18182E+00
 -1      4462 2.02254E+01 1.46946E+01 9.09091E+00
 -1      4463 2.22752E+01 1.13498E+01 9.09091E-01
 -1      4464 2.22752E+01 1.13498E+01 1.81818E+00
 -1      4465 2.22752E+01 1.13498E+01 2.72727E+00
 -1      4466 2.22752E+01 1.13498E+01 3.63636E+00
 -1      4467 2.22752E+01 1.13498E+01 4.54545E+00
 -1      4468 2.22752E+01 1.13498E+01 5.45455E+00
 -1      4469 2.22752E+01 1.13498E+01 6.36364E+00
 -1      4470 2.22752E+01 1.13498E+01 7.27273E+00
 -1      4471 2.22752E+01 1.13498E+01 8.18182E+00
 -1      4472 2.22752E+01 1.13498E+01 9.09091E+00
 -1      4473 2.37764E+01 7.72542E+00 9.09091E-01
 -1      4474 2.37764E+01 7.72542E+00 1.81818E+00
 -1      4475 2.37764E+01 7.72542E+00 2.72727E+00
 -1      4476 2.37764E+01 7.72542E+00 3.63636E+00
 -1      4477 2.37764E+01 7.72542E+00 4.54545E+00
 -1      4478 2.37764E+01 7.72542E+00 5.45455E+00
 -1      4479 2.37764E+01 7.72542E+00 6.36364E+00
 -1      4480 2.37764E+01 7.72542E+00 7.27273E+00
 -1      4481 2.37764E+01 7.72542E+00 8.18182E+00
 -1      4482 2.37764E+01 7.72542E+00 9.09091E+00
 -1      4483 2.46922E+01 3.91086E+00 9.09091E-01
 -1      4484 2.46922E+01 3.91086E+00 1.81818E+00
 -1      4485 2.46922E+01 3.91086E+00 2.72727E+00
 -1      4486 2.46922E+01 3.91086E+00 3.63636E+00
 -1      4487 2.46922E+01 3.91086E+00 4.54545E+00
 -1      4488 2.46922E+01 3.91086E+00 5.45455E+00
 -1      4489 2.46922E+01 3.91086E+00 6.36364E+00
 -1      4490 2.46922E+01 3.91086E+00 7.27273E+00
 -1      4491 2.46922E+01 3.91086E+00 8.18182E+00
 -1      4492 2.46922E+01 3.91086E+00 9.09091E+00
 -1      4493 3.91086E+00 2.46922E+01 4.54545E-01
 -1      4494 1.96148E+00 2.49229E+01 9.09091E-01
 -1      4496 3.91086E+00 2.46922E+01 1.36364E+00
 -1      4497 1.96148E+00 2.49229E+01 1.81818E+00
 -1      4499 3.91086E+00 2.46922E+01 2.27273E+00
 -1      4500 1.96148E+00 2.49229E+01 2.72727E+00
 -1      4502 3.91086E+00 2.46922E+01 3.18182E+00
 -1      4503 1.96148E+00 2.49229E+01 3.63636E+00
 -1      4505 3.91086E+00 2.46922E+01 4.09091E+00
 -1      4506 1.96148E+00 2.49229E+01 4.54545E+00
 -1      4508 3.91086E+00 2.46922E+01 5.00000E+00
 -1      4509 1.96148E+00 2.49229E+01 5.45455E+00
 -1      4511 3.91086E+00 2.46922E+01 5.90909E+00
 -1      4512 1.96148E+00 2.49229E+01 6.36364E+00
 -1      4514 3.91086E+00 2.46922E+01 6.81818E+00
 -1      4515 1.96148E+00 2.49229E+01 7.27273E+00
 -1      4517 3.91086E+00 2.46922E+01 7.72727E+00
 -1      4518 1.96148E+00 2.49229E+01 8.18182E+00
 -1      4520 3.91086E+00 2.46922E+01 8.63636E+00
 -1      4521 1.96148E+00 2.49229E+01 9.09091E+00
 -1      4523 3.91086E+00 2.46922E+01 9.54545E+00
 -1      4525 7.72542E+00 2.37764E+01 4.54545E-01
 -1      4526 5.83613E+00 2.43092E+01 9.09091E-01
 -1      4528 7.72542E+00 2.37764E+01 1.36364E+00
 -1      4529 5.83613E+00 2.43092E+01 1.81818E+00
 -1      4531 7.72542E+00 2.37764E+01 2.27273E+00
 -1      4532 5.83613E+00 2.43092E+01 2.72727E+00
 -1      4534 7.72542E+00 2.37764E+01 3.18182E+00
 -1      4535 5.83613E+00 2.43092E+01 3.63636E+00
 -1      4537 7.72542E+00 2.37764E+01 4.09091E+00
 -1      4538 5.83613E+00 2.43092E+01 4.54545E+00
 -1      4540 7.72542E+00 2.37764E+01 5.00000E+00
 -1      4541 5.83613E+00 2.43092E+01 5.45455E+00
 -1      4543 7.72542E+00 2.37764E+01 5.90909E+00
 -1      4544 5.83613E+00 2.43092E+01 6.36364E+00
 -1      4546 7.72542E+00 2.37764E+01 6.81818E+00
 -1      4547 5.83613E+00 2.43092E+01 7.27273E+00
 -1      4549 7.72542E+00 2.37764E+01 7.72727E+00
 -1      4550 5.83613E+00 2.43092E+01 8.18182E+00
 -1      4552 7.72542E+00 2.37764E+01 8.63636E+00
 -1      4553 5.83613E+00 2.43092E+01 9.09091E+00
 -1      4555 7.72542E+00 2.37764E+01 9.54545E+00
 -1      4557 1.13498E+01 2.22752E+01 4.54545E-01
 -1      4558 9.56709E+00 2.30970E+01 9.09091E-01
 -1      4560 1.13498E+01 2.22752E+01 1.36364E+00
 -1      4561 9.56709E+00 2.30970E+01 1.81818E+00
 -1      4563 1.13498E+01 2.22752E+01 2.27273E+00
 -1      4564 9.56709E+00 2.30970E+01 2.72727E+00
 -1      4566 1.13498E+01 2.22752E+01 3.18182E+00
 -1      4567 9.56709E+00 2.30970E+01 3.63636E+00
 -1      4569 1.13498E+01 2.22752E+01 4.09091E+00
 -1      4570 9.56709E+00 2.30970E+01 4.54545E+00
 -1      4572 1.13498E+01 2.22752E+01 5.00000E+00
 -1      4573 9.56709E+00 2.30970E+01 5.45455E+00
 -1      4575 1.13498E+01 2.22752E+01 5.90909E+00
 -1      4576 9.56709E+00 2.30970E+01 6.36364E+00
 -1      4578 1.13498E+01 2.22752E+01 6.81818E+00
 -1      4579 9.56709E+00 2.30970E+01 7.27273E+00
 -1      4581 1.13498E+01 2.22752E+01 7.72727E+00
 -1      4582 9.56709E+00 2.30970E+01 8.18182E+00
 -1      4584 1.13498E+01 2.22752E+01 8.63636E+00
 -1      4585 9.56709E+00 2.30970E+01 9.09091E+00
 -1      4587 1.13498E+01 2.22752E+01 9.54545E+00
 -1      4589 1.46946E+01 2.02254E+01 4.54545E-01
 -1      4590 1.30625E+01 2.13160E+01 9.09091E-01
 -1      4592 1.46946E+01 2.02254E+01 1.36364E+00
 -1      4593 1.30625E+01 2.13160E+01 1.81818E+00
 -1      4595 1.46946E+01 2.02254E+01 2.27273E+00
 -1      4596 1.30625E+01 2.13160E+01 2.72727E+00
 -1      4598 1.46946E+01 2.02254E+01 3.18182E+00
 -1      4599 1.30625E+01 2.13160E+01 3.63636E+00
 -1      4601 1.46946E+01 2.02254E+01 4.09091E+00
 -1      4602 1.30625E+01 2.13160E+01 4.54545E+00
 -1      4604 1.46946E+01 2.02254E+01 5.00000E+00
 -1      4605 1.30625E+01 2.13160E+01 5.45455E+00
 -1      4607 1.46946E+01 2.02254E+01 5.90909E+00
 -1      4608 1.30625E+01 2.13160E+01 6.36364E+00
 -1      4610 1.46946E+01 2.02254E+01 6.81818E+00
 -1      4611 1.30625E+01 2.13160E+01 7.27273E+00
 -1      4613 1.46946E+01 2.02254E+01 7.72727E+00
 -1      4614 1.30625E+01 2.13160E+01 8.18182E+00
 -1      4616 1.46946E+01 2.02254E+01 8.63636E+00
 -1      4617 1.30625E+01 2.13160E+01 9.09091E+00
 -1      4619 1.46946E+01 2.02254E+01 9.54545E+00
 -1      4621 1.76777E+01 1.76777E+01 4.54545E-01
 -1      4622 1.62362E+01 1.90101E+01 9.09091E-01
 -1      4624 1.76777E+01 1.76777E+01 1.36364E+00
 -1      4625 1.62362E+01 1.90101E+01 1.81818E+00
 -1      4627 1.76777E+01 1.76777E+01 2.27273E+00
 -1      4628 1.62362E+01 1.90101E+01 2.72727E+00
 -1      4630 1.76777E+01 1.76777E+01 3.18182E+00
 -1      4631 1.62362E+01 1.90101E+01 3.63636E+00
 -1      4633 1.76777E+01 1.76777E+01 4.09091E+00
 -1      4634 1.62362E+01 1.90101E+01 4.54545E+00
 -1      4636 1.76777E+01 1.76777E+01 5.00000E+00
 -1      4637 1.62362E+01 1.90101E+01 5.45455E+00
 -1      4639 1.76777E+01 1.76777E+01 5.90909E+00
 -1      4640 1.62362E+01 1.90101E+01 6.36364E+00
 -1      4642 1.76777E+01 1.76777E+01 6.81818E+00
 -1      4643 1.62362E+01 1.90101E+01 7.27273E+00
 -1      4645 1.76777E+01 1.76777E+01 7.72727E+00
 -1      4646 1.62362E+01 1.90101E+01 8.18182E+00
 -1      4648 1.76777E+01 1.76777E+01 8.63636E+00
 -1      4649 1.62362E+01 1.90101E+01 9.09091E+00
 -1      4651 1.76777E+01 1.76777E+01 9.54545E+00
 -1      4653 2.02254E+01 1.46946E+01 4.54545E-01
 -1      4654 1.90101E+01 1.62362E+01 9.09091E-01
 -1      4656 2.02254E+01 1.46946E+01 1.36364E+00
 -1      4657 1.90101E+01 1.62362E+01 1.81818E+00
 -1      4659 2.02254E+01 1.46946E+01 2.27273E+00
 -1      4660 1.90101E+01 1.62362E+01 2.72727E+00
 -1      4662 2.02254E+01 1.46946E+01 3.18182E+00
 -1      4663 1.90101E+01 1.62362E+01 3.63636E+00
 -1      4665 2.02254E+01 1.46946E+01 4.09091E+00
 -1      4666 1.90101E+01 1.62362E+01 4.54545E+00
 -1      4668 2.02254E+01 1.46946E+01 5.00000E+00
 -1      4669 1.90101E+01 1.62362E+01 5.45455E+00
 -1      4671 2.02254E+01 1.46946E+01 5.90909E+00
 -1      4672 1.90101E+01 1.62362E+01 6.36364E+00
 -1      4674 2.02254E+01 1.46946E+01 6.81818E+00
 -1      4675 1.90101E+01 1.62362E+01 7.27273E+00
 -1      4677 2.02254E+01 1.46946E+01 7.72727E+00
 -1      4678 1.90101E+01 1.62362E+01 8.18182E+00
 -1      4680 2.02254E+01 1.46946E+01 8.63636E+00
 -1      4681 1.90101E+01 1.62362E+01 9.09091E+00
 -1      4683 2.02254E+01 1.46946E+01 9.54545E+00
 -1      4685 2.22752E+01 1.13498E+01 4.54545E-01
 -1      4686 2.13160E+01 1.30625E+01 9.09091E-01
 -1      4688 2.22752E+01 1.13498E+01 1.36364E+00
 -1      4689 2.13160E+01 1.30625E+01 1.81818E+00
 -1      4691 2.22752E+01 1.13498E+01 2.27273E+00
 -1      4692 2.13160E+01 1.30625E+01 2.72727E+00
 -1      4694 2.22752E+01 1.13498E+01 3.18182E+00
 -1      4695 2.13160E+01 1.30625E+01 3.63636E+00
 -1      4697 2.22752E+01 1.13498E+01 4.09091E+00
 -1      4698 2.13160E+01 1.30625E+01 4.54545E+00
 -1      4700 2.22752E+01 1.13498E+01 5.00000E+00
 -1      4701 2.13160E+01 1.30625E+01 5.45455E+00
 -1      4703 2.22752E+01 1.13498E+01 5.90909E+00
 -1      4704 2.13160E+01 1.30625E+01 6.36364E+00
 -1      4706 2.22752E+01 1.13498E+01 6.81818E+00
 -1      4707 2.13160E+01 1.30625E+01 7.27273E+00
 -1      4709 2.22752E+01 1.13498E+01 7.72727E+00
 -1      4710 2.13160E+01 1.30625E+01 8.18182E+00
 -1      4712 2.22752E+01 1.13498E+01 8.63636E+00
 -1      4713 2.13160E+01 1.30625E+01 9.09091E+00
 -1      4715 2.22752E+01 1.13498E+01 9.54545E+00
 -1      4717 2.37764E+01 7.72542E+00 4.54545E-01
 -1      4718 2.30970E+01 9.56709E+00 9.09091E-01
 -1      4720 2.37764E+01 7.72542E+00 1.36364E+00
 -1      4721 2.30970E+01 9.56709E+00 1.81818E+00
 -1      4723 2.37764E+01 7.72542E+00 2.27273E+00
 -1      4724 2.30970E+01 9.56709E+00 2.72727E+00
 -1      4726 2.37764E+01 7.72542E+00 3.18182E+00
 -1      4727 2.30970E+01 9.56709E+00 3.63636E+00
 -1      4729 2.37764E+01 7.72542E+00 4.09091E+00
 -1      4730 2.30970E+01 9.56709E+00 4.54545E+00
 -1      4732 2.37764E+01 7.72542E+00 5.00000E+00
 -1      4733 2.30970E+01 9.56709E+00 5.45455E+00
 -1      4735 2.37764E+01 7.72542E+00 5.90909E+00
 -1      4736 2.30970E+01 9.56709E+00 6.36364E+00
 -1      4738 2.37764E+01 7.72542E+00 6.81818E+00
 -1      4739 2.30970E+01 9.56709E+00 7.27273E+00
 -1      4741 2.37764E+01 7.72542E+00 7.72727E+00
 -1      4742 2.30970E+01 9.56709E+00 8.18182E+00
 -1      4744 2.37764E+01 7.72542E+00 8.63636E+00
 -1      4745 2.30970E+01 9.56709E+00 9.09091E+00
 -1      4747 2.37764E+01 7.72542E+00 9.54545E+00
 -1      4749 2.46922E+01 3.91086E+00 4.54545E-01
 -1      4750 2.43092E+01 5.83613E+00 9.09091E-01
 -1      4752 2.46922E+01 3.91086E+00 1.36364E+00
 -1      4753 2.43092E+01 5.83613E+00 1.81818E+00
 -1      4755 2.46922E+01 3.91086E+00 2.27273E+00
 -1      4756 2.43092E+01 5.83613E+00 2.72727E+00
 -1      4758 2.46922E+01 3.91086E+00 3.18182E+00
 -1      4759 2.43092E+01 5.83613E+00 3.63636E+00
 -1      4761 2.46922E+01 3.91086E+00 4.09091E+00
 -1      4762 2.43092E+01 5.83613E+00 4.54545E+00
 -1      4764 2.46922E+01 3.91086E+00 5.00000E+00
 -1      4765 2.43092E+01 5.83613E+00 5.45455E+00
 -1      4767 2.46922E+01 3.91086E+00 5.90909E+00
 -1      4768 2.43092E+01 5.83613E+00 6.36364E+00
 -1      4770 2.46922E+01 3.91086E+00 6.81818E+00
 -1      4771 2.43092E+01 5.83613E+00 7.27273E+00
 -1      4773 2.46922E+01 3.91086E+00 7.72727E+00
 -1      4774 2.43092E+01 5.83613E+00 8.18182E+00
 -1      4776 2.46922E+01 3.91086E+00 8.63636E+00
 -1      4777 2.43092E+01 5.83613E+00 9.09091E+00
 -1      4779 2.46922E+01 3.91086E+00 9.54545E+00
 -1      4781 2.49229E+01 1.96148E+00 9.09091E-01
 -1      4783 2.49229E+01 1.96148E+00 1.81818E+00
 -1      4785 2.49229E+01 1.96148E+00 2.72727E+00
 -1      4787 2.49229E+01 1.96148E+00 3.63636E+00
 -1      4789 2.49229E+01 1.96148E+00 4.54545E+00
 -1      4791 2.49229E+01 1.96148E+00 5.45455E+00
 -1      4793 2.49229E+01 1.96148E+00 6.36364E+00
 -1      4795 2.49229E+01 1.96148E+00 7.27273E+00
 -1      4797 2.49229E+01 1.96148E+00 8.18182E+00
 -1      4799 2.49229E+01 1.96148E+00 9.09091E+00
 -1      4802 2.71614E+01 4.30195E+00 1.00000E+01
 -1      4803 2.61541E+01 8.49797E+00 1.00000E+01
 -1      4804 2.45027E+01 1.24847E+01 1.00000E+01
 -1      4805 2.22480E+01 1.61641E+01 1.00000E+01
 -1      4806 1.94454E+01 1.94454E+01 1.00000E+01
 -1      4807 1.61641E+01 2.22480E+01 1.00000E+01
 -1      4808 1.24847E+01 2.45027E+01 1.00000E+01
 -1      4809 8.49797E+00 2.61541E+01 1.00000E+01
 -1      4810 4.30195E+00 2.71614E+01 1.00000E+01
 -1      4811 2.96306E+01 4.69303E+00 1.00000E+01
 -1      4812 2.85317E+01 9.27051E+00 1.00000E+01
 -1      4813 2.67302E+01 1.36197E+01 1.00000E+01
 -1      4814 2.42705E+01 1.76336E+01 1.00000E+01
 -1      4815 2.12132E+01 2.12132E+01 1.00000E+01
 -1      4816 1.76336E+01 2.42705E+01 1.00000E+01
 -1      4817 1.36197E+01 2.67302E+01 1.00000E+01
 -1      4818 9.27051E+00 2.85317E+01 1.00000E+01
 -1      4819 4.69303E+00 2.96306E+01 1.00000E+01
 -1      4820 3.20999E+01 5.08412E+00 1.00000E+01
 -1      4821 3.09093E+01 1.00431E+01 1.00000E+01
 -1      4822 2.89577E+01 1.47547E+01 1.00000E+01
 -1      4823 2.62931E+01 1.91030E+01 1.00000E+01
 -1      4824 2.29810E+01 2.29810E+01 1.00000E+01
 -1      4825 1.91030E+01 2.62931E+01 1.00000E+01
 -1      4826 1.47547E+01 2.89577E+01 1.00000E+01
 -1      4827 1.00431E+01 3.09093E+01 1.00000E+01
 -1      4828 5.08412E+00 3.20999E+01 1.00000E+01
 -1      4829 3.45691E+01 5.47521E+00 1.00000E+01
 -1      4830 3.32870E+01 1.08156E+01 1.00000E+01
 -1      4831 3.11852E+01 1.58897E+01 1.00000E+01
 -1      4832 2.83156E+01 2.05725E+01 1.00000E+01
 -1      4833 2.47487E+01 2.47487E+01 1.00000E+01
 -1      4834 2.05725E+01 2.83156E+01 1.00000E+01
 -1      4835 1.58897E+01 3.11852E+01 1.00000E+01
 -1      4836 1.08156E+01 3.32870E+01 1.00000E+01
 -1      4837 5.47521E+00 3.45691E+01 1.00000E+01
 -1      4838 3.70383E+01 5.86629E+00 1.00000E+01
 -1      4839 3.56646E+01 1.15881E+01 1.00000E+01
 -1      4840 3.34127E+01 1.70246E+01 1.00000E+01
 -1      4841 3.03381E+01 2.20419E+01 1.00000E+01
 -1      4842 2.65165E+01 2.65165E+01 1.00000E+01
 -1      4843 2.20419E+01 3.03381E+01 1.00000E+01
 -1      4844 1.70246E+01 3.34127E+01 1.00000E+01
 -1      4845 1.15881E+01 3.56646E+01 1.00000E+01
 -1      4846 5.86629E+00 3.70383E+01 1.00000E+01
 -1      4847 3.95075E+01 6.25738E+00 1.00000E+01
 -1      4848 3.80423E+01 1.23607E+01 1.00000E+01
 -1      4849 3.56403E+01 1.81596E+01 1.00000E+01
 -1      4850 3.23607E+01 2.35114E+01 1.00000E+01
 -1      4851 2.82843E+01 2.82843E+01 1.00000E+01
 -1      4852 2.35114E+01 3.23607E+01 1.00000E+01
 -1      4853 1.81596E+01 3.56403E+01 1.00000E+01
 -1      4854 1.23607E+01 3.80423E+01 1.00000E+01
 -1      4855 6.25738E+00 3.95075E+01 1.00000E+01
 -1      4856 4.19768E+01 6.64846E+00 1.00000E+01
 -1      4857 4.04199E+01 1.31332E+01 1.00000E+01
 -1      4858 3.78678E+01 1.92946E+01 1.00000E+01
 -1      4859 3.43832E+01 2.49809E+01 1.00000E+01
 -1      4860 3.00520E+01 3.00520E+01 1.00000E+01
 -1      4861 2.49809E+01 3.43832E+01 1.00000E+01
 -1      4862 1.92946E+01 3.78678E+01 1.00000E+01
 -1      4863 1.31332E+01 4.04199E+01 1.00000E+01
 -1      4864 6.64846E+00 4.19768E+01 1.00000E+01
 -1      4865 4.44460E+01 7.03955E+00 1.00000E+01
 -1      4866 4.27975E+01 1.39058E+01 1.00000E+01
 -1      4867 4.00953E+01 2.04296E+01 1.00000E+01
 -1      4868 3.64058E+01 2.64503E+01 1.00000E+01
 -1      4869 3.18198E+01 3.18198E+01 1.00000E+01
 -1      4870 2.64503E+01 3.64058E+01 1.00000E+01
 -1      4871 2.04296E+01 4.00953E+01 1.00000E+01
 -1      4872 1.39058E+01 4.27975E+01 1.00000E+01
 -1      4873 7.03955E+00 4.44460E+01 1.00000E+01
 -1      4874 4.69152E+01 7.43064E+00 1.00000E+01
 -1      4875 4.51752E+01 1.46783E+01 1.00000E+01
 -1      4876 4.23228E+01 2.15645E+01 1.00000E+01
 -1      4877 3.84283E+01 2.79198E+01 1.00000E+01
 -1      4878 3.35876E+01 3.35876E+01 1.00000E+01
 -1      4879 2.79198E+01 3.84283E+01 1.00000E+01
 -1      4880 2.15645E+01 4.23228E+01 1.00000E+01
 -1      4881 1.46783E+01 4.51752E+01 1.00000E+01
 -1      4882 7.43064E+00 4.69152E+01 1.00000E+01
 -1      4883 4.93844E+01 7.82172E+00 1.00000E+01
 -1      4884 4.75528E+01 1.54508E+01 1.00000E+01
 -1      4885 4.45503E+01 2.26995E+01 1.00000E+01
 -1      4886 4.04509E+01 2.93893E+01 1.00000E+01
 -1      4887 3.53553E+01 3.53553E+01 1.00000E+01
 -1      4888 2.93893E+01 4.04509E+01 1.00000E+01
 -1      4889 2.26995E+01 4.45503E+01 1.00000E+01
 -1      4890 1.54508E+01 4.75528E+01 1.00000E+01
 -1      4891 7.82172E+00 4.93844E+01 1.00000E+01
 -1      4892 5.18536E+01 8.21281E+00 1.00000E+01
 -1      4893 4.99305E+01 1.62234E+01 1.00000E+01
 -1      4894 4.67778E+01 2.38345E+01 1.00000E+01
 -1      4895 4.24734E+01 3.08587E+01 1.00000E+01
 -1      4896 3.71231E+01 3.71231E+01 1.00000E+01
 -1      4897 3.08587E+01 4.24734E+01 1.00000E+01
 -1      4898 2.38345E+01 4.67778E+01 1.00000E+01
 -1      4899 1.62234E+01 4.99305E+01 1.00000E+01
 -1      4900 8.21281E+00 5.18536E+01 1.00000E+01
 -1      4901 5.43229E+01 8.60390E+00 1.00000E+01
 -1      4902 5.23081E+01 1.69959E+01 1.00000E+01
 -1      4903 4.90054E+01 2.49695E+01 1.00000E+01
 -1      4904 4.44959E+01 3.23282E+01 1.00000E+01
 -1      4905 3.88909E+01 3.88909E+01 1.00000E+01
 -1      4906 3.23282E+01 4.44959E+01 1.00000E+01
 -1      4907 2.49695E+01 4.90054E+01 1.00000E+01
 -1      4908 1.69959E+01 5.23081E+01 1.00000E+01
 -1      4909 8.60390E+00 5.43229E+01 1.00000E+01
 -1      4910 5.67921E+01 8.99498E+00 1.00000E+01
 -1      4911 5.46857E+01 1.77685E+01 1.00000E+01
 -1      4912 5.12329E+01 2.61045E+01 1.00000E+01
 -1      4913 4.65185E+01 3.37977E+01 1.00000E+01
 -1      4914 4.06586E+01 4.06586E+01 1.00000E+01
 -1      4915 3.37977E+01 4.65185E+01 1.00000E+01
 -1      4916 2.61045E+01 5.12329E+01 1.00000E+01
 -1      4917 1.77685E+01 5.46857E+01 1.00000E+01
 -1      4918 8.99498E+00 5.67921E+01 1.00000E+01
 -1      4919 5.92613E+01 9.38607E+00 1.00000E+01
 -1      4920 5.70634E+01 1.85410E+01 1.00000E+01
 -1      4921 5.34604E+01 2.72394E+01 1.00000E+01
 -1      4922 4.85410E+01 3.52671E+01 1.00000E+01
 -1      4923 4.24264E+01 4.24264E+01 1.00000E+01
 -1      4924 3.52671E+01 4.85410E+01 1.00000E+01
 -1      4925 2.72394E+01 5.34604E+01 1.00000E+01
 -1      4926 1.85410E+01 5.70634E+01 1.00000E+01
 -1      4927 9.38607E+00 5.92613E+01 1.00000E+01
 -1      4928 6.17305E+01 9.77715E+00 1.00000E+01
 -1      4929 5.94410E+01 1.93136E+01 1.00000E+01
 -1      4930 5.56879E+01 2.83744E+01 1.00000E+01
 -1      4931 5.05636E+01 3.67366E+01 1.00000E+01
 -1      4932 4.41942E+01 4.41942E+01 1.00000E+01
 -1      4933 3.67366E+01 5.05636E+01 1.00000E+01
 -1      4934 2.83744E+01 5.56879E+01 1.00000E+01
 -1      4935 1.93136E+01 5.94410E+01 1.00000E+01
 -1      4936 9.77715E+00 6.17305E+01 1.00000E+01
 -1      4937 6.41997E+01 1.01682E+01 1.00000E+01
 -1      4938 6.18187E+01 2.00861E+01 1.00000E+01
 -1      4939 5.79154E+01 2.95094E+01 1.00000E+01
 -1      4940 5.25861E+01 3.82060E+01 1.00000E+01
 -1      4941 4.59619E+01 4.59619E+01 1.00000E+01
 -1      4942 3.82060E+01 5.25861E+01 1.00000E+01
 -1      4943 2.95094E+01 5.79154E+01 1.00000E+01
 -1      4944 2.00861E+01 6.18187E+01 1.00000E+01
 -1      4945 1.01682E+01 6.41997E+01 1.00000E+01
 -1      4946 6.66690E+01 1.05593E+01 1.00000E+01
 -1      4947 6.41963E+01 2.08586E+01 1.00000E+01
 -1      4948 6.01429E+01 3.06444E+01 1.00000E+01
 -1      4949 5.46086E+01 3.96755E+01 1.00000E+01
 -1      4950 4.77297E+01 4.77297E+01 1.00000E+01
 -1      4951 3.96755E+01 5.46086E+01 1.00000E+01
 -1      4952 3.06444E+01 6.01429E+01 1.00000E+01
 -1      4953 2.08586E+01 6.41963E+01 1.00000E+01
 -1      4954 1.05593E+01 6.66690E+01 1.00000E+01
 -1      4955 6.91382E+01 1.09504E+01 1.00000E+01
 -1      4956 6.65740E+01 2.16312E+01 1.00000E+01
 -1      4957 6.23705E+01 3.17793E+01 1.00000E+01
 -1      4958 5.66312E+01 4.11450E+01 1.00000E+01
 -1      4959 4.94975E+01 4.94975E+01 1.00000E+01
 -1      4960 4.11450E+01 5.66312E+01 1.00000E+01
 -1      4961 3.17793E+01 6.23705E+01 1.00000E+01
 -1      4962 2.16312E+01 6.65740E+01 1.00000E+01
 -1      4963 1.09504E+01 6.91382E+01 1.00000E+01
 -1      4964 7.16074E+01 1.13415E+01 1.00000E+01
 -1      4965 6.89516E+01 2.24037E+01 1.00000E+01
 -1      4966 6.45980E+01 3.29143E+01 1.00000E+01
 -1      4967 5.86537E+01 4.26144E+01 1.00000E+01
 -1      4968 5.12652E+01 5.12652E+01 1.00000E+01
 -1      4969 4.26144E+01 5.86537E+01 1.00000E+01
 -1      4970 3.29143E+01 6.45980E+01 1.00000E+01
 -1      4971 2.24037E+01 6.89516E+01 1.00000E+01
 -1      4972 1.13415E+01 7.16074E+01 1.00000E+01
 -1      4973 7.40766E+01 1.17326E+01 1.00000E+01
 -1      4974 7.13292E+01 2.31763E+01 1.00000E+01
 -1      4975 6.68255E+01 3.40493E+01 1.00000E+01
 -1      4976 6.06763E+01 4.40839E+01 1.00000E+01
 -1      4977 5.30330E+01 5.30330E+01 1.00000E+01
 -1      4978 4.40839E+01 6.06763E+01 1.00000E+01
 -1      4979 3.40493E+01 6.68255E+01 1.00000E+01
 -1      4980 2.31763E+01 7.13292E+01 1.00000E+01
 -1      4981 1.17326E+01 7.40766E+01 1.00000E+01
 -1      4982 7.65458E+01 1.21237E+01 1.00000E+01
 -1      4983 7.37069E+01 2.39488E+01 1.00000E+01
 -1      4984 6.90530E+01 3.51843E+01 1.00000E+01
 -1      4985 6.26988E+01 4.55534E+01 1.00000E+01
 -1      4986 5.48008E+01 5.48008E+01 1.00000E+01
 -1      4987 4.55534E+01 6.26988E+01 1.00000E+01
 -1      4988 3.51843E+01 6.90530E+01 1.00000E+01
 -1      4989 2.39488E+01 7.37069E+01 1.00000E+01
 -1      4990 1.21237E+01 7.65458E+01 1.00000E+01
 -1      4991 7.90151E+01 1.25148E+01 1.00000E+01
 -1      4992 7.60845E+01 2.47214E+01 1.00000E+01
 -1      4993 7.12805E+01 3.63192E+01 1.00000E+01
 -1      4994 6.47214E+01 4.70228E+01 1.00000E+01
 -1      4995 5.65685E+01 5.65685E+01 1.00000E+01
 -1      4996 4.70228E+01 6.47214E+01 1.00000E+01
 -1      4997 3.63192E+01 7.12805E+01 1.00000E+01
 -1      4998 2.47214E+01 7.60845E+01 1.00000E+01
 -1      4999 1.25148E+01 7.90151E+01 1.00000E+01
 -1      5000 8.14843E+01 1.29058E+01 1.00000E+01
 -1      5001 7.84622E+01 2.54939E+01 1.00000E+01
 -1      5002 7.35080E+01 3.74542E+01 1.00000E+01
 -1      5003 6.67439E+01 4.84923E+01 1.00000E+01
 -1      5004 5.83363E+01 5.83363E+01 1.00000E+01
 -1      5005 4.84923E+01 6.67439E+01 1.00000E+01
 -1      5006 3.74542E+01 7.35080E+01 1.00000E+01
 -1      5007 2.54939E+01 7.84622E+01 1.00000E+01
 -1      5008 1.29058E+01 8.14843E+01 1.00000E+01
 -1      5009 8.39535E+01 1.32969E+01 1.00000E+01
 -1      5010 8.08398E+01 2.62664E+01 1.00000E+01
 -1      5011 7.57356E+01 3.85892E+01 1.00000E+01
 -1      5012 6.87664E+01 4.99617E+01 1.00000E+01
 -1      5013 6.01041E+01 6.01041E+01 1.00000E+01
 -1      5014 4.99617E+01 6.87664E+01 1.00000E+01
 -1      5015 3.85892E+01 7.57356E+01 1.00000E+01
 -1      5016 2.62664E+01 8.08398E+01 1.00000E+01
 -1      5017 1.32969E+01 8.39535E+01 1.00000E+01
 -1      5018 8.64227E+01 1.36880E+01 1.00000E+01
 -1      5019 8.32174E+01 2.70390E+01 1.00000E+01
 -1      5020 7.79631E+01 3.97242E+01 1.00000E+01
 -1      5021 7.07890E+01 5.14312E+01 1.00000E+01
 -1      5022 6.18718E+01 6.18718E+01 1.00000E+01
 -1      5023 5.14312E+01 7.07890E+01 1.00000E+01
 -1      5024 3.97242E+01 7.79631E+01 1.00000E+01
 -1      5025 2.70390E+01 8.32174E+01 1.00000E+01
 -1      5026 1.36880E+01 8.64227E+01 1.00000E+01
 -1      5027 8.88920E+01 1.40791E+01 1.00000E+01
 -1      5028 8.55951E+01 2.78115E+01 1.00000E+01
 -1      5029 8.01906E+01 4.08591E+01 1.00000E+01
 -1      5030 7.28115E+01 5.29007E+01 1.00000E+01
 -1      5031 6.36396E+01 6.36396E+01 1.00000E+01
 -1      5032 5.29007E+01 7.28115E+01 1.00000E+01
 -1      5033 4.08591E+01 8.01906E+01 1.00000E+01
 -1      5034 2.78115E+01 8.55951E+01 1.00000E+01
 -1      5035 1.40791E+01 8.88920E+01 1.00000E+01
 -1      5036 9.13612E+01 1.44702E+01 1.00000E+01
 -1      5037 8.79727E+01 2.85841E+01 1.00000E+01
 -1      5038 8.24181E+01 4.19941E+01 1.00000E+01
 -1      5039 7.48341E+01 5.43701E+01 1.00000E+01
 -1      5040 6.54074E+01 6.54074E+01 1.00000E+01
 -1      5041 5.43701E+01 7.48341E+01 1.00000E+01
 -1      5042 4.19941E+01 8.24181E+01 1.00000E+01
 -1      5043 2.85841E+01 8.79727E+01 1.00000E+01
 -1      5044 1.44702E+01 9.13612E+01 1.00000E+01
 -1      5045 9.38304E+01 1.48613E+01 1.00000E+01
 -1      5046 9.03504E+01 2.93566E+01 1.00000E+01
 -1      5047 8.46456E+01 4.31291E+01 1.00000E+01
 -1      5048 7.68566E+01 5.58396E+01 1.00000E+01
 -1      5049 6.71751E+01 6.71751E+01 1.00000E+01
 -1      5050 5.58396E+01 7.68566E+01 1.00000E+01
 -1      5051 4.31291E+01 8.46456E+01 1.00000E+01
 -1      5052 2.93566E+01 9.03504E+01 1.00000E+01
 -1      5053 1.48613E+01 9.38304E+01 1.00000E+01
 -1      5054 9.62996E+01 1.52524E+01 1.00000E+01
 -1      5055 9.27280E+01 3.01292E+01 1.00000E+01
 -1      5056 8.68731E+01 4.42641E+01 1.00000E+01
 -1      5057 7.88792E+01 5.73091E+01 1.00000E+01
 -1      5058 6.89429E+01 6.89429E+01 1.00000E+01
 -1      5059 5.73091E+01 7.88792E+01 1.00000E+01
 -1      5060 4.42641E+01 8.68731E+01 1.00000E+01
 -1      5061 3.01292E+01 9.27280E+01 1.00000E+01
 -1      5062 1.52524E+01 9.62996E+01 1.00000E+01
 -1      5063 2.73307E+01 2.15097E+00 1.00000E+01
 -1      5064 2.59268E+01 4.10640E+00 1.00000E+01
 -1      5066 2.66577E+01 6.39996E+00 1.00000E+01
 -1      5067 2.49652E+01 8.11170E+00 1.00000E+01
 -1      5069 2.53284E+01 1.04914E+01 1.00000E+01
 -1      5070 2.33889E+01 1.19173E+01 1.00000E+01
 -1      5072 2.33753E+01 1.43244E+01 1.00000E+01
 -1      5073 2.12367E+01 1.54294E+01 1.00000E+01
 -1      5075 2.08467E+01 1.78048E+01 1.00000E+01
 -1      5076 1.85616E+01 1.85616E+01 1.00000E+01
 -1      5078 1.78048E+01 2.08467E+01 1.00000E+01
 -1      5079 1.54294E+01 2.12367E+01 1.00000E+01
 -1      5081 1.43244E+01 2.33753E+01 1.00000E+01
 -1      5082 1.19173E+01 2.33889E+01 1.00000E+01
 -1      5084 1.04914E+01 2.53284E+01 1.00000E+01
 -1      5085 8.11170E+00 2.49652E+01 1.00000E+01
 -1      5087 6.39996E+00 2.66577E+01 1.00000E+01
 -1      5088 4.10640E+00 2.59268E+01 1.00000E+01
 -1      5090 2.15097E+00 2.73307E+01 1.00000E+01
 -1      5092 2.98153E+01 2.34652E+00 1.00000E+01
 -1      5093 2.83960E+01 4.49749E+00 1.00000E+01
 -1      5095 2.90812E+01 6.98177E+00 1.00000E+01
 -1      5096 2.73429E+01 8.88424E+00 1.00000E+01
 -1      5098 2.76309E+01 1.14451E+01 1.00000E+01
 -1      5099 2.56164E+01 1.30522E+01 1.00000E+01
 -1      5101 2.55004E+01 1.56266E+01 1.00000E+01
 -1      5102 2.32592E+01 1.68988E+01 1.00000E+01
 -1      5104 2.27419E+01 1.94234E+01 1.00000E+01
 -1      5105 2.03293E+01 2.03293E+01 1.00000E+01
 -1      5107 1.94234E+01 2.27419E+01 1.00000E+01
 -1      5108 1.68988E+01 2.32592E+01 1.00000E+01
 -1      5110 1.56266E+01 2.55004E+01 1.00000E+01
 -1      5111 1.30522E+01 2.56164E+01 1.00000E+01
 -1      5113 1.14451E+01 2.76309E+01 1.00000E+01
 -1      5114 8.88424E+00 2.73429E+01 1.00000E+01
 -1      5116 6.98177E+00 2.90812E+01 1.00000E+01
 -1      5117 4.49749E+00 2.83960E+01 1.00000E+01
 -1      5119 2.34652E+00 2.98153E+01 1.00000E+01
 -1      5121 3.22999E+01 2.54206E+00 1.00000E+01
 -1      5122 3.08653E+01 4.88858E+00 1.00000E+01
 -1      5124 3.15046E+01 7.56359E+00 1.00000E+01
 -1      5125 2.97205E+01 9.65678E+00 1.00000E+01
 -1      5127 2.99335E+01 1.23989E+01 1.00000E+01
 -1      5128 2.78440E+01 1.41872E+01 1.00000E+01
 -1      5130 2.76254E+01 1.69289E+01 1.00000E+01
 -1      5131 2.52818E+01 1.83683E+01 1.00000E+01
 -1      5133 2.46370E+01 2.10420E+01 1.00000E+01
 -1      5134 2.20971E+01 2.20971E+01 1.00000E+01
 -1      5136 2.10420E+01 2.46370E+01 1.00000E+01
 -1      5137 1.83683E+01 2.52818E+01 1.00000E+01
 -1      5139 1.69289E+01 2.76254E+01 1.00000E+01
 -1      5140 1.41872E+01 2.78440E+01 1.00000E+01
 -1      5142 1.23989E+01 2.99335E+01 1.00000E+01
 -1      5143 9.65678E+00 2.97205E+01 1.00000E+01
 -1      5145 7.56359E+00 3.15046E+01 1.00000E+01
 -1      5146 4.88858E+00 3.08653E+01 1.00000E+01
 -1      5148 2.54206E+00 3.22999E+01 1.00000E+01
 -1      5150 3.47845E+01 2.73760E+00 1.00000E+01
 -1      5151 3.33345E+01 5.27966E+00 1.00000E+01
 -1      5153 3.39280E+01 8.14540E+00 1.00000E+01
 -1      5154 3.20982E+01 1.04293E+01 1.00000E+01
 -1      5156 3.22361E+01 1.33526E+01 1.00000E+01
 -1      5157 3.00715E+01 1.53222E+01 1.00000E+01
 -1      5159 2.97504E+01 1.82311E+01 1.00000E+01
 -1      5160 2.73043E+01 1.98378E+01 1.00000E+01
 -1      5162 2.65322E+01 2.26606E+01 1.00000E+01
 -1      5163 2.38649E+01 2.38649E+01 1.00000E+01
 -1      5165 2.26606E+01 2.65322E+01 1.00000E+01
 -1      5166 1.98378E+01 2.73043E+01 1.00000E+01
 -1      5168 1.82311E+01 2.97504E+01 1.00000E+01
 -1      5169 1.53222E+01 3.00715E+01 1.00000E+01
 -1      5171 1.33526E+01 3.22361E+01 1.00000E+01
 -1      5172 1.04293E+01 3.20982E+01 1.00000E+01
 -1      5174 8.14540E+00 3.39280E+01 1.00000E+01
 -1      5175 5.27966E+00 3.33345E+01 1.00000E+01
 -1      5177 2.73760E+00 3.47845E+01 1.00000E+01
 -1      5179 3.72692E+01 2.93315E+00 1.00000E+01
 -1      5180 3.58037E+01 5.67075E+00 1.00000E+01
 -1      5182 3.63515E+01 8.72721E+00 1.00000E+01
 -1      5183 3.44758E+01 1.12019E+01 1.00000E+01
 -1      5185 3.45387E+01 1.43064E+01 1.00000E+01
 -1      5186 3.22990E+01 1.64572E+01 1.00000E+01
 -1      5188 3.18754E+01 1.95333E+01 1.00000E+01
 -1      5189 2.93269E+01 2.13072E+01 1.00000E+01
 -1      5191 2.84273E+01 2.42792E+01 1.00000E+01
 -1      5192 2.56326E+01 2.56326E+01 1.00000E+01
 -1      5194 2.42792E+01 2.84273E+01 1.00000E+01
 -1      5195 2.13072E+01 2.93269E+01 1.00000E+01
 -1      5197 1.95333E+01 3.18754E+01 1.00000E+01
 -1      5198 1.64572E+01 3.22990E+01 1.00000E+01
 -1      5200 1.43064E+01 3.45387E+01 1.00000E+01
 -1      5201 1.12019E+01 3.44758E+01 1.00000E+01
 -1      5203 8.72721E+00 3.63515E+01 1.00000E+01
 -1      5204 5.67075E+00 3.58037E+01 1.00000E+01
 -1      5206 2.93315E+00 3.72692E+01 1.00000E+01
 -1      5208 3.97538E+01 3.12869E+00 1.00000E+01
 -1      5209 3.82729E+01 6.06184E+00 1.00000E+01
 -1      5211 3.87749E+01 9.30903E+00 1.00000E+01
 -1      5212 3.68534E+01 1.19744E+01 1.00000E+01
 -1      5214 3.68413E+01 1.52601E+01 1.00000E+01
 -1      5215 3.45265E+01 1.75921E+01 1.00000E+01
 -1      5217 3.40005E+01 2.08355E+01 1.00000E+01
 -1      5218 3.13494E+01 2.27767E+01 1.00000E+01
 -1      5220 3.03225E+01 2.58978E+01 1.00000E+01
 -1      5221 2.74004E+01 2.74004E+01 1.00000E+01
 -1      5223 2.58978E+01 3.03225E+01 1.00000E+01
 -1      5224 2.27767E+01 3.13494E+01 1.00000E+01
 -1      5226 2.08355E+01 3.40005E+01 1.00000E+01
 -1      5227 1.75921E+01 3.45265E+01 1.00000E+01
 -1      5229 1.52601E+01 3.68413E+01 1.00000E+01
 -1      5230 1.19744E+01 3.68534E+01 1.00000E+01
 -1      5232 9.30903E+00 3.87749E+01 1.00000E+01
 -1      5233 6.06184E+00 3.82729E+01 1.00000E+01
 -1      5235 3.12869E+00 3.97538E+01 1.00000E+01
 -1      5237 4.22384E+01 3.32423E+00 1.00000E+01
 -1      5238 4.07421E+01 6.45292E+00 1.00000E+01
 -1      5240 4.11983E+01 9.89084E+00 1.00000E+01
 -1      5241 3.92311E+01 1.27470E+01 1.00000E+01
 -1      5243 3.91438E+01 1.62139E+01 1.00000E+01
 -1      5244 3.67540E+01 1.87271E+01 1.00000E+01
 -1      5246 3.61255E+01 2.21377E+01 1.00000E+01
 -1      5247 3.33720E+01 2.42461E+01 1.00000E+01
 -1      5249 3.22176E+01 2.75165E+01 1.00000E+01
 -1      5250 2.91682E+01 2.91682E+01 1.00000E+01
 -1      5252 2.75165E+01 3.22176E+01 1.00000E+01
 -1      5253 2.42461E+01 3.33720E+01 1.00000E+01
 -1      5255 2.21377E+01 3.61255E+01 1.00000E+01
 -1      5256 1.87271E+01 3.67540E+01 1.00000E+01
 -1      5258 1.62139E+01 3.91438E+01 1.00000E+01
 -1      5259 1.27470E+01 3.92311E+01 1.00000E+01
 -1      5261 9.89084E+00 4.11983E+01 1.00000E+01
 -1      5262 6.45292E+00 4.07421E+01 1.00000E+01
 -1      5264 3.32423E+00 4.22384E+01 1.00000E+01
 -1      5266 4.47230E+01 3.51978E+00 1.00000E+01
 -1      5267 4.32114E+01 6.84401E+00 1.00000E+01
 -1      5269 4.36218E+01 1.04727E+01 1.00000E+01
 -1      5270 4.16087E+01 1.35195E+01 1.00000E+01
 -1      5272 4.14464E+01 1.71677E+01 1.00000E+01
 -1      5273 3.89815E+01 1.98621E+01 1.00000E+01
 -1      5275 3.82505E+01 2.34400E+01 1.00000E+01
 -1      5276 3.53945E+01 2.57156E+01 1.00000E+01
 -1      5278 3.41128E+01 2.91351E+01 1.00000E+01
 -1      5279 3.09359E+01 3.09359E+01 1.00000E+01
 -1      5281 2.91351E+01 3.41128E+01 1.00000E+01
 -1      5282 2.57156E+01 3.53945E+01 1.00000E+01
 -1      5284 2.34400E+01 3.82505E+01 1.00000E+01
 -1      5285 1.98621E+01 3.89815E+01 1.00000E+01
 -1      5287 1.71677E+01 4.14464E+01 1.00000E+01
 -1      5288 1.35195E+01 4.16087E+01 1.00000E+01
 -1      5290 1.04727E+01 4.36218E+01 1.00000E+01
 -1      5291 6.84401E+00 4.32114E+01 1.00000E+01
 -1      5293 3.51978E+00 4.47230E+01 1.00000E+01
 -1      5295 4.72076E+01 3.71532E+00 1.00000E+01
 -1      5296 4.56806E+01 7.23509E+00 1.00000E+01
 -1      5298 4.60452E+01 1.10545E+01 1.00000E+01
 -1      5299 4.39864E+01 1.42920E+01 1.00000E+01
 -1      5301 4.37490E+01 1.81214E+01 1.00000E+01
 -1      5302 4.12091E+01 2.09971E+01 1.00000E+01
 -1      5304 4.03756E+01 2.47422E+01 1.00000E+01
 -1      5305 3.74170E+01 2.71851E+01 1.00000E+01
 -1      5307 3.60079E+01 3.07537E+01 1.00000E+01
 -1      5308 3.27037E+01 3.27037E+01 1.00000E+01
 -1      5310 3.07537E+01 3.60079E+01 1.00000E+01
 -1      5311 2.71851E+01 3.74170E+01 1.00000E+01
 -1      5313 2.47422E+01 4.03756E+01 1.00000E+01
 -1      5314 2.09971E+01 4.12091E+01 1.00000E+01
 -1      5316 1.81214E+01 4.37490E+01 1.00000E+01
 -1      5317 1.42920E+01 4.39864E+01 1.00000E+01
 -1      5319 1.10545E+01 4.60452E+01 1.00000E+01
 -1      5320 7.23509E+00 4.56806E+01 1.00000E+01
 -1      5322 3.71532E+00 4.72076E+01 1.00000E+01
 -1      5324 4.96922E+01 3.91086E+00 1.00000E+01
 -1      5325 4.81498E+01 7.62618E+00 1.00000E+01
 -1      5327 4.84686E+01 1.16363E+01 1.00000E+01
 -1      5328 4.63640E+01 1.50646E+01 1.00000E+01
 -1      5330 4.60516E+01 1.90752E+01 1.00000E+01
 -1      5331 4.34366E+01 2.21320E+01 1.00000E+01
 -1      5333 4.25006E+01 2.60444E+01 1.00000E+01
 -1      5334 3.94396E+01 2.86545E+01 1.00000E+01
 -1      5336 3.79031E+01 3.23723E+01 1.00000E+01
 -1      5337 3.44715E+01 3.44715E+01 1.00000E+01
 -1      5339 3.23723E+01 3.79031E+01 1.00000E+01
 -1      5340 2.86545E+01 3.94396E+01 1.00000E+01
 -1      5342 2.60444E+01 4.25006E+01 1.00000E+01
 -1      5343 2.21320E+01 4.34366E+01 1.00000E+01
 -1      5345 1.90752E+01 4.60516E+01 1.00000E+01
 -1      5346 1.50646E+01 4.63640E+01 1.00000E+01
 -1      5348 1.16363E+01 4.84686E+01 1.00000E+01
 -1      5349 7.62618E+00 4.81498E+01 1.00000E+01
 -1      5351 3.91086E+00 4.96922E+01 1.00000E+01
 -1      5353 5.21768E+01 4.10640E+00 1.00000E+01
 -1      5354 5.06190E+01 8.01727E+00 1.00000E+01
 -1      5356 5.08921E+01 1.22181E+01 1.00000E+01
 -1      5357 4.87416E+01 1.58371E+01 1.00000E+01
 -1      5359 4.83542E+01 2.00289E+01 1.00000E+01
 -1      5360 4.56641E+01 2.32670E+01 1.00000E+01
 -1      5362 4.46256E+01 2.73466E+01 1.00000E+01
 -1      5363 4.14621E+01 3.01240E+01 1.00000E+01
 -1      5365 3.97982E+01 3.39909E+01 1.00000E+01
 -1      5366 3.62392E+01 3.62392E+01 1.00000E+01
 -1      5368 3.39909E+01 3.97982E+01 1.00000E+01
 -1      5369 3.01240E+01 4.14621E+01 1.00000E+01
 -1      5371 2.73466E+01 4.46256E+01 1.00000E+01
 -1      5372 2.32670E+01 4.56641E+01 1.00000E+01
 -1      5374 2.00289E+01 4.83542E+01 1.00000E+01
 -1      5375 1.58371E+01 4.87416E+01 1.00000E+01
 -1      5377 1.22181E+01 5.08921E+01 1.00000E+01
 -1      5378 8.01727E+00 5.06190E+01 1.00000E+01
 -1      5380 4.10640E+00 5.21768E+01 1.00000E+01
 -1      5382 5.46614E+01 4.30195E+00 1.00000E+01
 -1      5383 5.30882E+01 8.40835E+00 1.00000E+01
 -1      5385 5.33155E+01 1.27999E+01 1.00000E+01
 -1      5386 5.11193E+01 1.66097E+01 1.00000E+01
 -1      5388 5.06567E+01 2.09827E+01 1.00000E+01
 -1      5389 4.78916E+01 2.44020E+01 1.00000E+01
 -1      5391 4.67506E+01 2.86488E+01 1.00000E+01
 -1      5392 4.34847E+01 3.15935E+01 1.00000E+01
 -1      5394 4.16934E+01 3.56095E+01 1.00000E+01
 -1      5395 3.80070E+01 3.80070E+01 1.00000E+01
 -1      5397 3.56095E+01 4.16934E+01 1.00000E+01
 -1      5398 3.15935E+01 4.34847E+01 1.00000E+01
 -1      5400 2.86488E+01 4.67506E+01 1.00000E+01
 -1      5401 2.44020E+01 4.78916E+01 1.00000E+01
 -1      5403 2.09827E+01 5.06567E+01 1.00000E+01
 -1      5404 1.66097E+01 5.11193E+01 1.00000E+01
 -1      5406 1.27999E+01 5.33155E+01 1.00000E+01
 -1      5407 8.40835E+00 5.30882E+01 1.00000E+01
 -1      5409 4.30195E+00 5.46614E+01 1.00000E+01
 -1      5411 5.71460E+01 4.49749E+00 1.00000E+01
 -1      5412 5.55575E+01 8.79944E+00 1.00000E+01
 -1      5414 5.57389E+01 1.33817E+01 1.00000E+01
 -1      5415 5.34969E+01 1.73822E+01 1.00000E+01
 -1      5417 5.29593E+01 2.19365E+01 1.00000E+01
 -1      5418 5.01191E+01 2.55370E+01 1.00000E+01
 -1      5420 4.88757E+01 2.99511E+01 1.00000E+01
 -1      5421 4.55072E+01 3.30629E+01 1.00000E+01
 -1      5423 4.35886E+01 3.72281E+01 1.00000E+01
 -1      5424 3.97748E+01 3.97748E+01 1.00000E+01
 -1      5426 3.72281E+01 4.35886E+01 1.00000E+01
 -1      5427 3.30629E+01 4.55072E+01 1.00000E+01
 -1      5429 2.99511E+01 4.88757E+01 1.00000E+01
 -1      5430 2.55370E+01 5.01191E+01 1.00000E+01
 -1      5432 2.19365E+01 5.29593E+01 1.00000E+01
 -1      5433 1.73822E+01 5.34969E+01 1.00000E+01
 -1      5435 1.33817E+01 5.57389E+01 1.00000E+01
 -1      5436 8.79944E+00 5.55575E+01 1.00000E+01
 -1      5438 4.49749E+00 5.71460E+01 1.00000E+01
 -1      5440 5.96306E+01 4.69303E+00 1.00000E+01
 -1      5441 5.80267E+01 9.19053E+00 1.00000E+01
 -1      5443 5.81623E+01 1.39635E+01 1.00000E+01
 -1      5444 5.58746E+01 1.81547E+01 1.00000E+01
 -1      5446 5.52619E+01 2.28902E+01 1.00000E+01
 -1      5447 5.23466E+01 2.66719E+01 1.00000E+01
 -1      5449 5.10007E+01 3.12533E+01 1.00000E+01
 -1      5450 4.75297E+01 3.45324E+01 1.00000E+01
 -1      5452 4.54837E+01 3.88468E+01 1.00000E+01
 -1      5453 4.15425E+01 4.15425E+01 1.00000E+01
 -1      5455 3.88468E+01 4.54837E+01 1.00000E+01
 -1      5456 3.45324E+01 4.75297E+01 1.00000E+01
 -1      5458 3.12533E+01 5.10007E+01 1.00000E+01
 -1      5459 2.66719E+01 5.23466E+01 1.00000E+01
 -1      5461 2.28902E+01 5.52619E+01 1.00000E+01
 -1      5462 1.81547E+01 5.58746E+01 1.00000E+01
 -1      5464 1.39635E+01 5.81623E+01 1.00000E+01
 -1      5465 9.19053E+00 5.80267E+01 1.00000E+01
 -1      5467 4.69303E+00 5.96306E+01 1.00000E+01
 -1      5469 6.21153E+01 4.88858E+00 1.00000E+01
 -1      5470 6.04959E+01 9.58161E+00 1.00000E+01
 -1      5472 6.05858E+01 1.45454E+01 1.00000E+01
 -1      5473 5.82522E+01 1.89273E+01 1.00000E+01
 -1      5475 5.75645E+01 2.38440E+01 1.00000E+01
 -1      5476 5.45742E+01 2.78069E+01 1.00000E+01
 -1      5478 5.31257E+01 3.25555E+01 1.00000E+01
 -1      5479 4.95523E+01 3.60018E+01 1.00000E+01
 -1      5481 4.73789E+01 4.04654E+01 1.00000E+01
 -1      5482 4.33103E+01 4.33103E+01 1.00000E+01
 -1      5484 4.04654E+01 4.73789E+01 1.00000E+01
 -1      5485 3.60018E+01 4.95523E+01 1.00000E+01
 -1      5487 3.25555E+01 5.31257E+01 1.00000E+01
 -1      5488 2.78069E+01 5.45742E+01 1.00000E+01
 -1      5490 2.38440E+01 5.75645E+01 1.00000E+01
 -1      5491 1.89273E+01 5.82522E+01 1.00000E+01
 -1      5493 1.45454E+01 6.05858E+01 1.00000E+01
 -1      5494 9.58161E+00 6.04959E+01 1.00000E+01
 -1      5496 4.88858E+00 6.21153E+01 1.00000E+01
 -1      5498 6.45999E+01 5.08412E+00 1.00000E+01
 -1      5499 6.29651E+01 9.97270E+00 1.00000E+01
 -1      5501 6.30092E+01 1.51272E+01 1.00000E+01
 -1      5502 6.06299E+01 1.96998E+01 1.00000E+01
 -1      5504 5.98671E+01 2.47977E+01 1.00000E+01
 -1      5505 5.68017E+01 2.89419E+01 1.00000E+01
 -1      5507 5.52508E+01 3.38577E+01 1.00000E+01
 -1      5508 5.15748E+01 3.74713E+01 1.00000E+01
 -1      5510 4.92740E+01 4.20840E+01 1.00000E+01
 -1      5511 4.50781E+01 4.50781E+01 1.00000E+01
 -1      5513 4.20840E+01 4.92740E+01 1.00000E+01
 -1      5514 3.74713E+01 5.15748E+01 1.00000E+01
 -1      5516 3.38577E+01 5.52508E+01 1.00000E+01
 -1      5517 2.89419E+01 5.68017E+01 1.00000E+01
 -1      5519 2.47977E+01 5.98671E+01 1.00000E+01
 -1      5520 1.96998E+01 6.06299E+01 1.00000E+01
 -1      5522 1.51272E+01 6.30092E+01 1.00000E+01
 -1      5523 9.97270E+00 6.29651E+01 1.00000E+01
 -1      5525 5.08412E+00 6.45999E+01 1.00000E+01
 -1      5527 6.70845E+01 5.27966E+00 1.00000E+01
 -1      5528 6.54343E+01 1.03638E+01 1.00000E+01
 -1      5530 6.54326E+01 1.57090E+01 1.00000E+01
 -1      5531 6.30075E+01 2.04724E+01 1.00000E+01
 -1      5533 6.21696E+01 2.57515E+01 1.00000E+01
 -1      5534 5.90292E+01 3.00769E+01 1.00000E+01
 -1      5536 5.73758E+01 3.51599E+01 1.00000E+01
 -1      5537 5.35974E+01 3.89408E+01 1.00000E+01
 -1      5539 5.11692E+01 4.37026E+01 1.00000E+01
 -1      5540 4.68458E+01 4.68458E+01 1.00000E+01
 -1      5542 4.37026E+01 5.11692E+01 1.00000E+01
 -1      5543 3.89408E+01 5.35974E+01 1.00000E+01
 -1      5545 3.51599E+01 5.73758E+01 1.00000E+01
 -1      5546 3.00769E+01 5.90292E+01 1.00000E+01
 -1      5548 2.57515E+01 6.21696E+01 1.00000E+01
 -1      5549 2.04724E+01 6.30075E+01 1.00000E+01
 -1      5551 1.57090E+01 6.54326E+01 1.00000E+01
 -1      5552 1.03638E+01 6.54343E+01 1.00000E+01
 -1      5554 5.27966E+00 6.70845E+01 1.00000E+01
 -1      5556 6.95691E+01 5.47521E+00 1.00000E+01
 -1      5557 6.79036E+01 1.07549E+01 1.00000E+01
 -1      5559 6.78561E+01 1.62908E+01 1.00000E+01
 -1      5560 6.53851E+01 2.12449E+01 1.00000E+01
 -1      5562 6.44722E+01 2.67053E+01 1.00000E+01
 -1      5563 6.12567E+01 3.12118E+01 1.00000E+01
 -1      5565 5.95008E+01 3.64622E+01 1.00000E+01
 -1      5566 5.56199E+01 4.04102E+01 1.00000E+01
 -1      5568 5.30643E+01 4.53212E+01 1.00000E+01
 -1      5569 4.86136E+01 4.86136E+01 1.00000E+01
 -1      5571 4.53212E+01 5.30643E+01 1.00000E+01
 -1      5572 4.04102E+01 5.56199E+01 1.00000E+01
 -1      5574 3.64622E+01 5.95008E+01 1.00000E+01
 -1      5575 3.12118E+01 6.12567E+01 1.00000E+01
 -1      5577 2.67053E+01 6.44722E+01 1.00000E+01
 -1      5578 2.12449E+01 6.53851E+01 1.00000E+01
 -1      5580 1.62908E+01 6.78561E+01 1.00000E+01
 -1      5581 1.07549E+01 6.79036E+01 1.00000E+01
 -1      5583 5.47521E+00 6.95691E+01 1.00000E+01
 -1      5585 7.20537E+01 5.67075E+00 1.00000E+01
 -1      5586 7.03728E+01 1.11460E+01 1.00000E+01
 -1      5588 7.02795E+01 1.68726E+01 1.00000E+01
 -1      5589 6.77628E+01 2.20175E+01 1.00000E+01
 -1      5591 6.67748E+01 2.76590E+01 1.00000E+01
 -1      5592 6.34842E+01 3.23468E+01 1.00000E+01
 -1      5594 6.16259E+01 3.77644E+01 1.00000E+01
 -1      5595 5.76425E+01 4.18797E+01 1.00000E+01
 -1      5597 5.49595E+01 4.69398E+01 1.00000E+01
 -1      5598 5.03814E+01 5.03814E+01 1.00000E+01
 -1      5600 4.69398E+01 5.49595E+01 1.00000E+01
 -1      5601 4.18797E+01 5.76425E+01 1.00000E+01
 -1      5603 3.77644E+01 6.16259E+01 1.00000E+01
 -1      5604 3.23468E+01 6.34842E+01 1.00000E+01
 -1      5606 2.76590E+01 6.67748E+01 1.00000E+01
 -1      5607 2.20175E+01 6.77628E+01 1.00000E+01
 -1      5609 1.68726E+01 7.02795E+01 1.00000E+01
 -1      5610 1.11460E+01 7.03728E+01 1.00000E+01
 -1      5612 5.67075E+00 7.20537E+01 1.00000E+01
 -1      5614 7.45383E+01 5.86629E+00 1.00000E+01
 -1      5615 7.28420E+01 1.15370E+01 1.00000E+01
 -1      5617 7.27029E+01 1.74544E+01 1.00000E+01
 -1      5618 7.01404E+01 2.27900E+01 1.00000E+01
 -1      5620 6.90774E+01 2.86128E+01 1.00000E+01
 -1      5621 6.57117E+01 3.34818E+01 1.00000E+01
 -1      5623 6.37509E+01 3.90666E+01 1.00000E+01
 -1      5624 5.96650E+01 4.33492E+01 1.00000E+01
 -1      5626 5.68546E+01 4.85585E+01 1.00000E+01
 -1      5627 5.21491E+01 5.21491E+01 1.00000E+01
 -1      5629 4.85585E+01 5.68546E+01 1.00000E+01
 -1      5630 4.33492E+01 5.96650E+01 1.00000E+01
 -1      5632 3.90666E+01 6.37509E+01 1.00000E+01
 -1      5633 3.34818E+01 6.57117E+01 1.00000E+01
 -1      5635 2.86128E+01 6.90774E+01 1.00000E+01
 -1      5636 2.27900E+01 7.01404E+01 1.00000E+01
 -1      5638 1.74544E+01 7.27029E+01 1.00000E+01
 -1      5639 1.15370E+01 7.28420E+01 1.00000E+01
 -1      5641 5.86629E+00 7.45383E+01 1.00000E+01
 -1      5643 7.70229E+01 6.06184E+00 1.00000E+01
 -1      5644 7.53112E+01 1.19281E+01 1.00000E+01
 -1      5646 7.51264E+01 1.80362E+01 1.00000E+01
 -1      5647 7.25181E+01 2.35625E+01 1.00000E+01
 -1      5649 7.13799E+01 2.95665E+01 1.00000E+01
 -1      5650 6.79392E+01 3.46168E+01 1.00000E+01
 -1      5652 6.58759E+01 4.03688E+01 1.00000E+01
 -1      5653 6.16875E+01 4.48186E+01 1.00000E+01
 -1      5655 5.87498E+01 5.01771E+01 1.00000E+01
 -1      5656 5.39169E+01 5.39169E+01 1.00000E+01
 -1      5658 5.01771E+01 5.87498E+01 1.00000E+01
 -1      5659 4.48186E+01 6.16875E+01 1.00000E+01
 -1      5661 4.03688E+01 6.58759E+01 1.00000E+01
 -1      5662 3.46168E+01 6.79392E+01 1.00000E+01
 -1      5664 2.95665E+01 7.13799E+01 1.00000E+01
 -1      5665 2.35625E+01 7.25181E+01 1.00000E+01
 -1      5667 1.80362E+01 7.51264E+01 1.00000E+01
 -1      5668 1.19281E+01 7.53112E+01 1.00000E+01
 -1      5670 6.06184E+00 7.70229E+01 1.00000E+01
 -1      5672 7.95075E+01 6.25738E+00 1.00000E+01
 -1      5673 7.77805E+01 1.23192E+01 1.00000E+01
 -1      5675 7.75498E+01 1.86181E+01 1.00000E+01
 -1      5676 7.48957E+01 2.43351E+01 1.00000E+01
 -1      5678 7.36825E+01 3.05203E+01 1.00000E+01
 -1      5679 7.01668E+01 3.57518E+01 1.00000E+01
 -1      5681 6.80009E+01 4.16710E+01 1.00000E+01
 -1      5682 6.37101E+01 4.62881E+01 1.00000E+01
 -1      5684 6.06450E+01 5.17957E+01 1.00000E+01
 -1      5685 5.56847E+01 5.56847E+01 1.00000E+01
 -1      5687 5.17957E+01 6.06450E+01 1.00000E+01
 -1      5688 4.62881E+01 6.37101E+01 1.00000E+01
 -1      5690 4.16710E+01 6.80009E+01 1.00000E+01
 -1      5691 3.57518E+01 7.01668E+01 1.00000E+01
 -1      5693 3.05203E+01 7.36825E+01 1.00000E+01
 -1      5694 2.43351E+01 7.48957E+01 1.00000E+01
 -1      5696 1.86181E+01 7.75498E+01 1.00000E+01
 -1      5697 1.23192E+01 7.77805E+01 1.00000E+01
 -1      5699 6.25738E+00 7.95075E+01 1.00000E+01
 -1      5701 8.19921E+01 6.45292E+00 1.00000E+01
 -1      5702 8.02497E+01 1.27103E+01 1.00000E+01
 -1      5704 7.99732E+01 1.91999E+01 1.00000E+01
 -1      5705 7.72733E+01 2.51076E+01 1.00000E+01
 -1      5707 7.59851E+01 3.14741E+01 1.00000E+01
 -1      5708 7.23943E+01 3.68867E+01 1.00000E+01
 -1      5710 7.01260E+01 4.29733E+01 1.00000E+01
 -1      5711 6.57326E+01 4.77576E+01 1.00000E+01
 -1      5713 6.25401E+01 5.34143E+01 1.00000E+01
 -1      5714 5.74524E+01 5.74524E+01 1.00000E+01
 -1      5716 5.34143E+01 6.25401E+01 1.00000E+01
 -1      5717 4.77576E+01 6.57326E+01 1.00000E+01
 -1      5719 4.29733E+01 7.01260E+01 1.00000E+01
 -1      5720 3.68867E+01 7.23943E+01 1.00000E+01
 -1      5722 3.14741E+01 7.59851E+01 1.00000E+01
 -1      5723 2.51076E+01 7.72733E+01 1.00000E+01
 -1      5725 1.91999E+01 7.99732E+01 1.00000E+01
 -1      5726 1.27103E+01 8.02497E+01 1.00000E+01
 -1      5728 6.45292E+00 8.19921E+01 1.00000E+01
 -1      5730 8.44768E+01 6.64846E+00 1.00000E+01
 -1      5731 8.27189E+01 1.31014E+01 1.00000E+01
 -1      5733 8.23967E+01 1.97817E+01 1.00000E+01
 -1      5734 7.96510E+01 2.58802E+01 1.00000E+01
 -1      5736 7.82877E+01 3.24278E+01 1.00000E+01
 -1      5737 7.46218E+01 3.80217E+01 1.00000E+01
 -1      5739 7.22510E+01 4.42755E+01 1.00000E+01
 -1      5740 6.77552E+01 4.92270E+01 1.00000E+01
 -1      5742 6.44353E+01 5.50329E+01 1.00000E+01
 -1      5743 5.92202E+01 5.92202E+01 1.00000E+01
 -1      5745 5.50329E+01 6.44353E+01 1.00000E+01
 -1      5746 4.92270E+01 6.77552E+01 1.00000E+01
 -1      5748 4.42755E+01 7.22510E+01 1.00000E+01
 -1      5749 3.80217E+01 7.46218E+01 1.00000E+01
 -1      5751 3.24278E+01 7.82877E+01 1.00000E+01
 -1      5752 2.58802E+01 7.96510E+01 1.00000E+01
 -1      5754 1.97817E+01 8.23967E+01 1.00000E+01
 -1      5755 1.31014E+01 8.27189E+01 1.00000E+01
 -1      5757 6.64846E+00 8.44768E+01 1.00000E+01
 -1      5759 8.69614E+01 6.84401E+00 1.00000E+01
 -1      5760 8.51881E+01 1.34925E+01 1.00000E+01
 -1      5762 8.48201E+01 2.03635E+01 1.00000E+01
 -1      5763 8.20286E+01 2.66527E+01 1.00000E+01
 -1      5765 8.05903E+01 3.33816E+01 1.00000E+01
 -1      5766 7.68493E+01 3.91567E+01 1.00000E+01
 -1      5768 7.43760E+01 4.55777E+01 1.00000E+01
 -1      5769 6.97777E+01 5.06965E+01 1.00000E+01
 -1      5771 6.63304E+01 5.66515E+01 1.00000E+01
 -1      5772 6.09880E+01 6.09880E+01 1.00000E+01
 -1      5774 5.66515E+01 6.63304E+01 1.00000E+01
 -1      5775 5.06965E+01 6.97777E+01 1.00000E+01
 -1      5777 4.55777E+01 7.43760E+01 1.00000E+01
 -1      5778 3.91567E+01 7.68493E+01 1.00000E+01
 -1      5780 3.33816E+01 8.05903E+01 1.00000E+01
 -1      5781 2.66527E+01 8.20286E+01 1.00000E+01
 -1      5783 2.03635E+01 8.48201E+01 1.00000E+01
 -1      5784 1.34925E+01 8.51881E+01 1.00000E+01
 -1      5786 6.84401E+00 8.69614E+01 1.00000E+01
 -1      5788 8.94460E+01 7.03955E+00 1.00000E+01
 -1      5789 8.76573E+01 1.38836E+01 1.00000E+01
 -1      5791 8.72435E+01 2.09453E+01 1.00000E+01
 -1      5792 8.44063E+01 2.74253E+01 1.00000E+01
 -1      5794 8.28928E+01 3.43353E+01 1.00000E+01
 -1      5795 7.90768E+01 4.02917E+01 1.00000E+01
 -1      5797 7.65011E+01 4.68799E+01 1.00000E+01
 -1      5798 7.18003E+01 5.21659E+01 1.00000E+01
 -1      5800 6.82256E+01 5.82701E+01 1.00000E+01
 -1      5801 6.27557E+01 6.27557E+01 1.00000E+01
 -1      5803 5.82701E+01 6.82256E+01 1.00000E+01
 -1      5804 5.21659E+01 7.18003E+01 1.00000E+01
 -1      5806 4.68799E+01 7.65011E+01 1.00000E+01
 -1      5807 4.02917E+01 7.90768E+01 1.00000E+01
 -1      5809 3.43353E+01 8.28928E+01 1.00000E+01
 -1      5810 2.74253E+01 8.44063E+01 1.00000E+01
 -1      5812 2.09453E+01 8.72435E+01 1.00000E+01
 -1      5813 1.38836E+01 8.76573E+01 1.00000E+01
 -1      5815 7.03955E+00 8.94460E+01 1.00000E+01
 -1      5817 9.19306E+01 7.23509E+00 1.00000E+01
 -1      5818 9.01266E+01 1.42746E+01 1.00000E+01
 -1      5820 8.96669E+01 2.15271E+01 1.00000E+01
 -1      5821 8.67839E+01 2.81978E+01 1.00000E+01
 -1      5823 8.51954E+01 3.52891E+01 1.00000E+01
 -1      5824 8.13043E+01 4.14266E+01 1.00000E+01
 -1      5826 7.86261E+01 4.81821E+01 1.00000E+01
 -1      5827 7.38228E+01 5.36354E+01 1.00000E+01
 -1      5829 7.01207E+01 5.98888E+01 1.00000E+01
 -1      5830 6.45235E+01 6.45235E+01 1.00000E+01
 -1      5832 5.98888E+01 7.01207E+01 1.00000E+01
 -1      5833 5.36354E+01 7.38228E+01 1.00000E+01
 -1      5835 4.81821E+01 7.86261E+01 1.00000E+01
 -1      5836 4.14266E+01 8.13043E+01 1.00000E+01
 -1      5838 3.52891E+01 8.51954E+01 1.00000E+01
 -1      5839 2.81978E+01 8.67839E+01 1.00000E+01
 -1      5841 2.15271E+01 8.96669E+01 1.00000E+01
 -1      5842 1.42746E+01 9.01266E+01 1.00000E+01
 -1      5844 7.23509E+00 9.19306E+01 1.00000E+01
 -1      5846 9.44152E+01 7.43064E+00 1.00000E+01
 -1      5847 9.25958E+01 1.46657E+01 1.00000E+01
 -1      5849 9.20904E+01 2.21089E+01 1.00000E+01
 -1      5850 8.91615E+01 2.89703E+01 1.00000E+01
 -1      5852 8.74980E+01 3.62429E+01 1.00000E+01
 -1      5853 8.35319E+01 4.25616E+01 1.00000E+01
 -1      5855 8.07511E+01 4.94843E+01 1.00000E+01
 -1      5856 7.58453E+01 5.51049E+01 1.00000E+01
 -1      5858 7.20159E+01 6.15074E+01 1.00000E+01
 -1      5859 6.62913E+01 6.62913E+01 1.00000E+01
 -1      5861 6.15074E+01 7.20159E+01 1.00000E+01
 -1      5862 5.51049E+01 7.58453E+01 1.00000E+01
 -1      5864 4.94843E+01 8.07511E+01 1.00000E+01
 -1      5865 4.25616E+01 8.35319E+01 1.00000E+01
 -1      5867 3.62429E+01 8.74980E+01 1.00000E+01
 -1      5868 2.89703E+01 8.91615E+01 1.00000E+01
 -1      5870 2.21089E+01 9.20904E+01 1.00000E+01
 -1      5871 1.46657E+01 9.25958E+01 1.00000E+01
 -1      5873 7.43064E+00 9.44152E+01 1.00000E+01
 -1      5875 9.68998E+01 7.62618E+00 1.00000E+01
 -1      5876 9.50650E+01 1.50568E+01 1.00000E+01
 -1      5878 9.45138E+01 2.26908E+01 1.00000E+01
 -1      5879 9.15392E+01 2.97429E+01 1.00000E+01
 -1      5881 8.98006E+01 3.71966E+01 1.00000E+01
 -1      5882 8.57594E+01 4.36966E+01 1.00000E+01
 -1      5884 8.28761E+01 5.07866E+01 1.00000E+01
 -1      5885 7.78679E+01 5.65743E+01 1.00000E+01
 -1      5887 7.39110E+01 6.31260E+01 1.00000E+01
 -1      5888 6.80590E+01 6.80590E+01 1.00000E+01
 -1      5890 6.31260E+01 7.39110E+01 1.00000E+01
 -1      5891 5.65743E+01 7.78679E+01 1.00000E+01
 -1      5893 5.07866E+01 8.28761E+01 1.00000E+01
 -1      5894 4.36966E+01 8.57594E+01 1.00000E+01
 -1      5896 3.71966E+01 8.98006E+01 1.00000E+01
 -1      5897 2.97429E+01 9.15392E+01 1.00000E+01
 -1      5899 2.26908E+01 9.45138E+01 1.00000E+01
 -1      5900 1.50568E+01 9.50650E+01 1.00000E+01
 -1      5902 7.62618E+00 9.68998E+01 1.00000E+01
 -1      5904 9.75342E+01 1.54479E+01 1.00000E+01
 -1      5906 9.39168E+01 3.05154E+01 1.00000E+01
 -1      5908 8.79869E+01 4.48316E+01 1.00000E+01
 -1      5910 7.98904E+01 5.80438E+01 1.00000E+01
 -1      5912 6.98268E+01 6.98268E+01 1.00000E+01
 -1      5914 5.80438E+01 7.98904E+01 1.00000E+01
 -1      5916 4.48316E+01 8.79869E+01 1.00000E+01
 -1      5918 3.05154E+01 9.39168E+01 1.00000E+01
 -1      5920 1.54479E+01 9.75342E+01 1.00000E+01
 -1      5923 2.71614E+01 4.30195E+00 9.09091E-01
 -1      5924 2.71614E+01 4.30195E+00 1.81818E+00
 -1      5925 2.71614E+01 4.30195E+00 2.72727E+00
 -1      5926 2.71614E+01 4.30195E+00 3.63636E+00
 -1      5927 2.71614E+01 4.30195E+00 4.54545E+00
 -1      5928 2.71614E+01 4.30195E+00 5.45455E+00
 -1      5929 2.71614E+01 4.30195E+00 6.36364E+00
 -1      5930 2.71614E+01 4.30195E+00 7.27273E+00
 -1      5931 2.71614E+01 4.30195E+00 8.18182E+00
 -1      5932 2.71614E+01 4.30195E+00 9.09091E+00
 -1      5933 2.61541E+01 8.49797E+00 9.09091E-01
 -1      5934 2.61541E+01 8.49797E+00 1.81818E+00
 -1      5935 2.61541E+01 8.49797E+00 2.72727E+00
 -1      5936 2.61541E+01 8.49797E+00 3.63636E+00
 -1      5937 2.61541E+01 8.49797E+00 4.54545E+00
 -1      5938 2.61541E+01 8.49797E+00 5.45455E+00
 -1      5939 2.61541E+01 8.49797E+00 6.36364E+00
 -1      5940 2.61541E+01 8.49797E+00 7.27273E+00
 -1      5941 2.61541E+01 8.49797E+00 8.18182E+00
 -1      5942 2.61541E+01 8.49797E+00 9.09091E+00
 -1      5943 2.45027E+01 1.24847E+01 9.09091E-01
 -1      5944 2.45027E+01 1.24847E+01 1.81818E+00
 -1      5945 2.45027E+01 1.24847E+01 2.72727E+00
 -1      5946 2.45027E+01 1.24847E+01 3.63636E+00
 -1      5947 2.45027E+01 1.24847E+01 4.54545E+00
 -1      5948 2.45027E+01 1.24847E+01 5.45455E+00
 -1      5949 2.45027E+01 1.24847E+01 6.36364E+00
 -1      5950 2.45027E+01 1.24847E+01 7.27273E+00
 -1      5951 2.45027E+01 1.24847E+01 8.18182E+00
 -1      5952 2.45027E+01 1.24847E+01 9.09091E+00
 -1      5953 2.22480E+01 1.61641E+01 9.09091E-01
 -1      5954 2.22480E+01 1.61641E+01 1.81818E+00
 -1      5955 2.22480E+01 1.61641E+01 2.72727E+00
 -1      5956 2.22480E+01 1.61641E+01 3.63636E+00
 -1      5957 2.22480E+01 1.61641E+01 4.54545E+00
 -1      5958 2.22480E+01 1.61641E+01 5.45455E+00
 -1      5959 2.22480E+01 1.61641E+01 6.36364E+00
 -1      5960 2.22480E+01 1.61641E+01 7.27273E+00
 -1      5961 2.22480E+01 1.61641E+01 8.18182E+00
 -1      5962 2.22480E+01 1.61641E+01 9.09091E+00
 -1      5963 1.94454E+01 1.94454E+01 9.09091E-01
 -1      5964 1.94454E+01 1.94454E+01 1.81818E+00
 -1      5965 1.94454E+01 1.94454E+01 2.72727E+00
 -1      5966 1.94454E+01 1.94454E+01 3.63636E+00
 -1      5967 1.94454E+01 1.94454E+01 4.54545E+00
 -1      5968 1.94454E+01 1.94454E+01 5.45455E+00
 -1      5969 1.94454E+01 1.94454E+01 6.36364E+00
 -1      5970 1.94454E+01 1.94454E+01 7.27273E+00
 -1      5971 1.94454E+01 1.94454E+01 8.18182E+00
 -1      5972 1.94454E+01 1.94454E+01 9.09091E+00
 -1      5973 1.61641E+01 2.22480E+01 9.09091E-01
 -1      5974 1.61641E+01 2.22480E+01 1.81818E+00
 -1      5975 1.61641E+01 2.22480E+01 2.72727E+00
 -1      5976 1.61641E+01 2.22480E+01 3.63636E+00
 -1      5977 1.61641E+01 2.22480E+01 4.54545E+00
 -1      5978 1.61641E+01 2.22480E+01 5.45455E+00
 -1      5979 1.61641E+01 2.22480E+01 6.36364E+00
 -1      5980 1.61641E+01 2.22480E+01 7.27273E+00
 -1      5981 1.61641E+01 2.22480E+01 8.18182E+00
 -1      5982 1.61641E+01 2.22480E+01 9.09091E+00
 -1      5983 1.24847E+01 2.45027E+01 9.09091E-01
 -1      5984 1.24847E+01 2.45027E+01 1.81818E+00
 -1      5985 1.24847E+01 2.45027E+01 2.72727E+00
 -1      5986 1.24847E+01 2.45027E+01 3.63636E+00
 -1      5987 1.24847E+01 2.45027E+01 4.54545E+00
 -1      5988 1.24847E+01 2.45027E+01 5.45455E+00
 -1      5989 1.24847E+01 2.45027E+01 6.36364E+00
 -1      5990 1.24847E+01 2.45027E+01 7.27273E+00
 -1      5991 1.24847E+01 2.45027E+01 8.18182E+00
 -1      5992 1.24847E+01 2.45027E+01 9.09091E+00
 -1      5993 8.49797E+00 2.61541E+01 9.09091E-01
 -1      5994 8.49797E+00 2.61541E+01 1.81818E+00
 -1      5995 8.49797E+00 2.61541E+01 2.72727E+00
 -1      5996 8.49797E+00 2.61541E+01 3.63636E+00
 -1      5997 8.49797E+00 2.61541E+01 4.54545E+00
 -1      5998 8.49797E+00 2.61541E+01 5.45455E+00
 -1      5999 8.49797E+00 2.61541E+01 6.36364E+00
 -1      6000 8.49797E+00 2.61541E+01 7.27273E+00
 -1      6001 8.49797E+00 2.61541E+01 8.18182E+00
 -1      6002 8.49797E+00 2.61541E+01 9.09091E+00
 -1      6003 4.30195E+00 2.71614E+01 9.09091E-01
 -1      6004 4.30195E+00 2.71614E+01 1.81818E+00
 -1      6005 4.30195E+00 2.71614E+01 2.72727E+00
 -1      6006 4.30195E+00 2.71614E+01 3.63636E+00
 -1      6007 4.30195E+00 2.71614E+01 4.54545E+00
 -1      6008 4.30195E+00 2.71614E+01 5.45455E+00
 -1      6009 4.30195E+00 2.71614E+01 6.36364E+00
 -1      6010 4.30195E+00 2.71614E+01 7.27273E+00
 -1      6011 4.30195E+00 2.71614E+01 8.18182E+00
 -1      6012 4.30195E+00 2.71614E+01 9.09091E+00
 -1      6013 2.96306E+01 4.69303E+00 9.09091E-01
 -1      6014 2.96306E+01 4.69303E+00 1.81818E+00
 -1      6015 2.96306E+01 4.69303E+00 2.72727E+00
 -1      6016 2.96306E+01 4.69303E+00 3.63636E+00
 -1      6017 2.96306E+01 4.69303E+00 4.54545E+00
 -1      6018 2.96306E+01 4.69303E+00 5.45455E+00
 -1      6019 2.96306E+01 4.69303E+00 6.36364E+00
 -1      6020 2.96306E+01 4.69303E+00 7.27273E+00
 -1      6021 2.96306E+01 4.69303E+00 8.18182E+00
 -1      6022 2.96306E+01 4.69303E+00 9.09091E+00
 -1      6023 2.85317E+01 9.27051E+00 9.09091E-01
 -1      6024 2.85317E+01 9.27051E+00 1.81818E+00
 -1      6025 2.85317E+01 9.27051E+00 2.72727E+00
 -1      6026 2.85317E+01 9.27051E+00 3.63636E+00
 -1      6027 2.85317E+01 9.27051E+00 4.54545E+00
 -1      6028 2.85317E+01 9.27051E+00 5.45455E+00
 -1      6029 2.85317E+01 9.27051E+00 6.36364E+00
 -1      6030 2.85317E+01 9.27051E+00 7.27273E+00
 -1      6031 2.85317E+01 9.27051E+00 8.18182E+00
 -1      6032 2.85317E+01 9.27051E+00 9.09091E+00
 -1      6033 2.67302E+01 1.36197E+01 9.09091E-01
 -1      6034 2.67302E+01 1.36197E+01 1.81818E+00
 -1      6035 2.67302E+01 1.36197E+01 2.72727E+00
 -1      6036 2.67302E+01 1.36197E+01 3.63636E+00
 -1      6037 2.67302E+01 1.36197E+01 4.54545E+00
 -1      6038 2.67302E+01 1.36197E+01 5.45455E+00
 -1      6039 2.67302E+01 1.36197E+01 6.36364E+00
 -1      6040 2.67302E+01 1.36197E+01 7.27273E+00
 -1      6041 2.67302E+01 1.36197E+01 8.18182E+00
 -1      6042 2.67302E+01 1.36197E+01 9.09091E+00
 -1      6043 2.42705E+01 1.76336E+01 9.09091E-01
 -1      6044 2.42705E+01 1.76336E+01 1.81818E+00
 -1      6045 2.42705E+01 1.76336E+01 2.72727E+00
 -1      6046 2.42705E+01 1.76336E+01 3.63636E+00
 -1      6047 2.42705E+01 1.76336E+01 4.54545E+00
 -1      6048 2.42705E+01 1.76336E+01 5.45455E+00
 -1      6049 2.42705E+01 1.76336E+01 6.36364E+00
 -1      6050 2.42705E+01 1.76336E+01 7.27273E+00
 -1      6051 2.42705E+01 1.76336E+01 8.18182E+00
 -1      6052 2.42705E+01 1.76336E+01 9.09091E+00
 -1      6053 2.12132E+01 2.12132E+01 9.09091E-01
 -1      6054 2.12132E+01 2.12132E+01 1.81818E+00
 -1      6055 2.12132E+01 2.12132E+01 2.72727E+00
 -1      6056 2.12132E+01 2.12132E+01 3.63636E+00
 -1      6057 2.12132E+01 2.12132E+01 4.54545E+00
 -1      6058 2.12132E+01 2.12132E+01 5.45455E+00
 -1      6059 2.12132E+01 2.12132E+01 6.36364E+00
 -1      6060 2.12132E+01 2.12132E+01 7.27273E+00
 -1      6061 2.12132E+01 2.12132E+01 8.18182E+00
 -1      6062 2.12132E+01 2.12132E+01 9.09091E+00
 -1      6063 1.76336E+01 2.42705E+01 9.09091E-01
 -1      6064 1.76336E+01 2.42705E+01 1.81818E+00
 -1      6065 1.76336E+01 2.42705E+01 2.72727E+00
 -1      6066 1.76336E+01 2.42705E+01 3.63636E+00
 -1      6067 1.76336E+01 2.42705E+01 4.54545E+00
 -1      6068 1.76336E+01 2.42705E+01 5.45455E+00
 -1      6069 1.76336E+01 2.42705E+01 6.36364E+00
 -1      6070 1.76336E+01 2.42705E+01 7.27273E+00
 -1      6071 1.76336E+01 2.42705E+01 8.18182E+00
 -1      6072 1.76336E+01 2.42705E+01 9.09091E+00
 -1      6073 1.36197E+01 2.67302E+01 9.09091E-01
 -1      6074 1.36197E+01 2.67302E+01 1.81818E+00
 -1      6075 1.36197E+01 2.67302E+01 2.72727E+00
 -1      6076 1.36197E+01 2.67302E+01 3.63636E+00
 -1      6077 1.36197E+01 2.67302E+01 4.54545E+00
 -1      6078 1.36197E+01 2.67302E+01 5.45455E+00
 -1      6079 1.36197E+01 2.67302E+01 6.36364E+00
 -1      6080 1.36197E+01 2.67302E+01 7.27273E+00
 -1      6081 1.36197E+01 2.67302E+01 8.18182E+00
 -1      6082 1.36197E+01 2.67302E+01 9.09091E+00
 -1      6083 9.27051E+00 2.85317E+01 9.09091E-01
 -1      6084 9.27051E+00 2.85317E+01 1.81818E+00
 -1      6085 9.27051E+00 2.85317E+01 2.72727E+00
 -1      6086 9.27051E+00 2.85317E+01 3.63636E+00
 -1      6087 9.27051E+00 2.85317E+01 4.54545E+00
 -1      6088 9.27051E+00 2.85317E+01 5.45455E+00
 -1      6089 9.27051E+00 2.85317E+01 6.36364E+00
 -1      6090 9.27051E+00 2.85317E+01 7.27273E+00
 -1      6091 9.27051E+00 2.85317E+01 8.18182E+00
 -1      6092 9.27051E+00 2.85317E+01 9.09091E+00
 -1      6093 4.69303E+00 2.96306E+01 9.09091E-01
 -1      6094 4.69303E+00 2.96306E+01 1.81818E+00
 -1      6095 4.69303E+00 2.96306E+01 2.72727E+00
 -1      6096 4.69303E+00 2.96306E+01 3.63636E+00
 -1      6097 4.69303E+00 2.96306E+01 4.54545E+00
 -1      6098 4.69303E+00 2.96306E+01 5.45455E+00
 -1      6099 4.69303E+00 2.96306E+01 6.36364E+00
 -1      6100 4.69303E+00 2.96306E+01 7.27273E+00
 -1      6101 4.69303E+00 2.96306E+01 8.18182E+00
 -1      6102 4.69303E+00 2.96306E+01 9.09091E+00
 -1      6103 3.20999E+01 5.08412E+00 9.09091E-01
 -1      6104 3.20999E+01 5.08412E+00 1.81818E+00
 -1      6105 3.20999E+01 5.08412E+00 2.72727E+00
 -1      6106 3.20999E+01 5.08412E+00 3.63636E+00
 -1      6107 3.20999E+01 5.08412E+00 4.54545E+00
 -1      6108 3.20999E+01 5.08412E+00 5.45455E+00
 -1      6109 3.20999E+01 5.08412E+00 6.36364E+00
 -1      6110 3.20999E+01 5.08412E+00 7.27273E+00
 -1      6111 3.20999E+01 5.08412E+00 8.18182E+00
 -1      6112 3.20999E+01 5.08412E+00 9.09091E+00
 -1      6113 3.09093E+01 1.00431E+01 9.09091E-01
 -1      6114 3.09093E+01 1.00431E+01 1.81818E+00
 -1      6115 3.09093E+01 1.00431E+01 2.72727E+00
 -1      6116 3.09093E+01 1.00431E+01 3.63636E+00
 -1      6117 3.09093E+01 1.00431E+01 4.54545E+00
 -1      6118 3.09093E+01 1.00431E+01 5.45455E+00
 -1      6119 3.09093E+01 1.00431E+01 6.36364E+00
 -1      6120 3.09093E+01 1.00431E+01 7.27273E+00
 -1      6121 3.09093E+01 1.00431E+01 8.18182E+00
 -1      6122 3.09093E+01 1.00431E+01 9.09091E+00
 -1      6123 2.89577E+01 1.47547E+01 9.09091E-01
 -1      6124 2.89577E+01 1.47547E+01 1.81818E+00
 -1      6125 2.89577E+01 1.47547E+01 2.72727E+00
 -1      6126 2.89577E+01 1.47547E+01 3.63636E+00
 -1      6127 2.89577E+01 1.47547E+01 4.54545E+00
 -1      6128 2.89577E+01 1.47547E+01 5.45455E+00
 -1      6129 2.89577E+01 1.47547E+01 6.36364E+00
 -1      6130 2.89577E+01 1.47547E+01 7.27273E+00
 -1      6131 2.89577E+01 1.47547E+01 8.18182E+00
 -1      6132 2.89577E+01 1.47547E+01 9.09091E+00
 -1      6133 2.62931E+01 1.91030E+01 9.09091E-01
 -1      6134 2.62931E+01 1.91030E+01 1.81818E+00
 -1      6135 2.62931E+01 1.91030E+01 2.72727E+00
 -1      6136 2.62931E+01 1.91030E+01 3.63636E+00
 -1      6137 2.62931E+01 1.91030E+01 4.54545E+00
 -1      6138 2.62931E+01 1.91030E+01 5.45455E+00
 -1      6139 2.62931E+01 1.91030E+01 6.36364E+00
 -1      6140 2.62931E+01 1.91030E+01 7.27273E+00
 -1      6141 2.62931E+01 1.91030E+01 8.18182E+00
 -1      6142 2.62931E+01 1.91030E+01 9.09091E+00
 -1      6143 2.29810E+01 2.29810E+01 9.09091E-01
 -1      6144 2.29810E+01 2.29810E+01 1.81818E+00
 -1      6145 2.29810E+01 2.29810E+01 2.72727E+00
 -1      6146 2.29810E+01 2.29810E+01 3.63636E+00
 -1      6147 2.29810E+01 2.29810E+01 4.54545E+00
 -1      6148 2.29810E+01 2.29810E+01 5.45455E+00
 -1      6149 2.29810E+01 2.29810E+01 6.36364E+00
 -1      6150 2.29810E+01 2.29810E+01 7.27273E+00
 -1      6151 2.29810E+01 2.29810E+01 8.18182E+00
 -1      6152 2.29810E+01 2.29810E+01 9.09091E+00
 -1      6153 1.91030E+01 2.62931E+01 9.09091E-01
 -1      6154 1.91030E+01 2.62931E+01 1.81818E+00
 -1      6155 1.91030E+01 2.62931E+01 2.72727E+00
 -1      6156 1.91030E+01 2.62931E+01 3.63636E+00
 -1      6157 1.91030E+01 2.62931E+01 4.54545E+00
 -1      6158 1.91030E+01 2.62931E+01 5.45455E+00
 -1      6159 1.91030E+01 2.62931E+01 6.36364E+00
 -1      6160 1.91030E+01 2.62931E+01 7.27273E+00
 -1      6161 1.91030E+01 2.62931E+01 8.18182E+00
 -1      6162 1.91030E+01 2.62931E+01 9.09091E+00
 -1      6163 1.47547E+01 2.89577E+01 9.09091E-01
 -1      6164 1.47547E+01 2.89577E+01 1.81818E+00
 -1      6165 1.47547E+01 2.89577E+01 2.72727E+00
 -1      6166 1.47547E+01 2.89577E+01 3.63636E+00
 -1      6167 1.47547E+01 2.89577E+01 4.54545E+00
 -1      6168 1.47547E+01 2.89577E+01 5.45455E+00
 -1      6169 1.47547E+01 2.89577E+01 6.36364E+00
 -1      6170 1.47547E+01 2.89577E+01 7.27273E+00
 -1      6171 1.47547E+01 2.89577E+01 8.18182E+00
 -1      6172 1.47547E+01 2.89577E+01 9.09091E+00
 -1      6173 1.00431E+01 3.09093E+01 9.09091E-01
 -1      6174 1.00431E+01 3.09093E+01 1.81818E+00
 -1      6175 1.00431E+01 3.09093E+01 2.72727E+00
 -1      6176 1.00431E+01 3.09093E+01 3.63636E+00
 -1      6177 1.00431E+01 3.09093E+01 4.54545E+00
 -1      6178 1.00431E+01 3.09093E+01 5.45455E+00
 -1      6179 1.00431E+01 3.09093E+01 6.36364E+00
 -1      6180 1.00431E+01 3.09093E+01 7.27273E+00
 -1      6181 1.00431E+01 3.09093E+01 8.18182E+00
 -1      6182 1.00431E+01 3.09093E+01 9.09091E+00
 -1      6183 5.08412E+00 3.20999E+01 9.09091E-01
 -1      6184 5.08412E+00 3.20999E+01 1.81818E+00
 -1      6185 5.08412E+00 3.20999E+01 2.72727E+00
 -1      6186 5.08412E+00 3.20999E+01 3.63636E+00
 -1      6187 5.08412E+00 3.20999E+01 4.54545E+00
 -1      6188 5.08412E+00 3.20999E+01 5.45455E+00
 -1      6189 5.08412E+00 3.20999E+01 6.36364E+00
 -1      6190 5.08412E+00 3.20999E+01 7.27273E+00
 -1      6191 5.08412E+00 3.20999E+01 8.18182E+00
 -1      6192 5.08412E+00 3.20999E+01 9.09091E+00
 -1      6193 3.45691E+01 5.47521E+00 9.09091E-01
 -1      6194 3.45691E+01 5.47521E+00 1.81818E+00
 -1      6195 3.45691E+01 5.47521E+00 2.72727E+00
 -1      6196 3.45691E+01 5.47521E+00 3.63636E+00
 -1      6197 3.45691E+01 5.47521E+00 4.54545E+00
 -1      6198 3.45691E+01 5.47521E+00 5.45455E+00
 -1      6199 3.45691E+01 5.47521E+00 6.36364E+00
 -1      6200 3.45691E+01 5.47521E+00 7.27273E+00
 -1      6201 3.45691E+01 5.47521E+00 8.18182E+00
 -1      6202 3.45691E+01 5.47521E+00 9.09091E+00
 -1      6203 3.32870E+01 1.08156E+01 9.09091E-01
 -1      6204 3.32870E+01 1.08156E+01 1.81818E+00
 -1      6205 3.32870E+01 1.08156E+01 2.72727E+00
 -1      6206 3.32870E+01 1.08156E+01 3.63636E+00
 -1      6207 3.32870E+01 1.08156E+01 4.54545E+00
 -1      6208 3.32870E+01 1.08156E+01 5.45455E+00
 -1      6209 3.32870E+01 1.08156E+01 6.36364E+00
 -1      6210 3.32870E+01 1.08156E+01 7.27273E+00
 -1      6211 3.32870E+01 1.08156E+01 8.18182E+00
 -1      6212 3.32870E+01 1.08156E+01 9.09091E+00
 -1      6213 3.11852E+01 1.58897E+01 9.09091E-01
 -1      6214 3.11852E+01 1.58897E+01 1.81818E+00
 -1      6215 3.11852E+01 1.58897E+01 2.72727E+00
 -1      6216 3.11852E+01 1.58897E+01 3.63636E+00
 -1      6217 3.11852E+01 1.58897E+01 4.54545E+00
 -1      6218 3.11852E+01 1.58897E+01 5.45455E+00
 -1      6219 3.11852E+01 1.58897E+01 6.36364E+00
 -1      6220 3.11852E+01 1.58897E+01 7.27273E+00
 -1      6221 3.11852E+01 1.58897E+01 8.18182E+00
 -1      6222 3.11852E+01 1.58897E+01 9.09091E+00
 -1      6223 2.83156E+01 2.05725E+01 9.09091E-01
 -1      6224 2.83156E+01 2.05725E+01 1.81818E+00
 -1      6225 2.83156E+01 2.05725E+01 2.72727E+00
 -1      6226 2.83156E+01 2.05725E+01 3.63636E+00
 -1      6227 2.83156E+01 2.05725E+01 4.54545E+00
 -1      6228 2.83156E+01 2.05725E+01 5.45455E+00
 -1      6229 2.83156E+01 2.05725E+01 6.36364E+00
 -1      6230 2.83156E+01 2.05725E+01 7.27273E+00
 -1      6231 2.83156E+01 2.05725E+01 8.18182E+00
 -1      6232 2.83156E+01 2.05725E+01 9.09091E+00
 -1      6233 2.47487E+01 2.47487E+01 9.09091E-01
 -1      6234 2.47487E+01 2.47487E+01 1.81818E+00
 -1      6235 2.47487E+01 2.47487E+01 2.72727E+00
 -1      6236 2.47487E+01 2.47487E+01 3.63636E+00
 -1      6237 2.47487E+01 2.47487E+01 4.54545E+00
 -1      6238 2.47487E+01 2.47487E+01 5.45455E+00
 -1      6239 2.47487E+01 2.47487E+01 6.36364E+00
 -1      6240 2.47487E+01 2.47487E+01 7.27273E+00
 -1      6241 2.47487E+01 2.47487E+01 8.18182E+00
 -1      6242 2.47487E+01 2.47487E+01 9.09091E+00
 -1      6243 2.05725E+01 2.83156E+01 9.09091E-01
 -1      6244 2.05725E+01 2.83156E+01 1.81818E+00
 -1      6245 2.05725E+01 2.83156E+01 2.72727E+00
 -1      6246 2.05725E+01 2.83156E+01 3.63636E+00
 -1      6247 2.05725E+01 2.83156E+01 4.54545E+00
 -1      6248 2.05725E+01 2.83156E+01 5.45455E+00
 -1      6249 2.05725E+01 2.83156E+01 6.36364E+00
 -1      6250 2.05725E+01 2.83156E+01 7.27273E+00
 -1      6251 2.05725E+01 2.83156E+01 8.18182E+00
 -1      6252 2.05725E+01 2.83156E+01 9.09091E+00
 -1      6253 1.58897E+01 3.11852E+01 9.09091E-01
 -1      6254 1.58897E+01 3.11852E+01 1.81818E+00
 -1      6255 1.58897E+01 3.11852E+01 2.72727E+00
 -1      6256 1.58897E+01 3.11852E+01 3.63636E+00
 -1      6257 1.58897E+01 3.11852E+01 4.54545E+00
 -1      6258 1.58897E+01 3.11852E+01 5.45455E+00
 -1      6259 1.58897E+01 3.11852E+01 6.36364E+00
 -1      6260 1.58897E+01 3.11852E+01 7.27273E+00
 -1      6261 1.58897E+01 3.11852E+01 8.18182E+00
 -1      6262 1.58897E+01 3.11852E+01 9.09091E+00
 -1      6263 1.08156E+01 3.32870E+01 9.09091E-01
 -1      6264 1.08156E+01 3.32870E+01 1.81818E+00
 -1      6265 1.08156E+01 3.32870E+01 2.72727E+00
 -1      6266 1.08156E+01 3.32870E+01 3.63636E+00
 -1      6267 1.08156E+01 3.32870E+01 4.54545E+00
 -1      6268 1.08156E+01 3.32870E+01 5.45455E+00
 -1      6269 1.08156E+01 3.32870E+01 6.36364E+00
 -1      6270 1.08156E+01 3.32870E+01 7.27273E+00
 -1      6271 1.08156E+01 3.32870E+01 8.18182E+00
 -1      6272 1.08156E+01 3.32870E+01 9.09091E+00
 -1      6273 5.47521E+00 3.45691E+01 9.09091E-01
 -1      6274 5.47521E+00 3.45691E+01 1.81818E+00
 -1      6275 5.47521E+00 3.45691E+01 2.72727E+00
 -1      6276 5.47521E+00 3.45691E+01 3.63636E+00
 -1      6277 5.47521E+00 3.45691E+01 4.54545E+00
 -1      6278 5.47521E+00 3.45691E+01 5.45455E+00
 -1      6279 5.47521E+00 3.45691E+01 6.36364E+00
 -1      6280 5.47521E+00 3.45691E+01 7.27273E+00
 -1      6281 5.47521E+00 3.45691E+01 8.18182E+00
 -1      6282 5.47521E+00 3.45691E+01 9.09091E+00
 -1      6283 3.70383E+01 5.86629E+00 9.09091E-01
 -1      6284 3.70383E+01 5.86629E+00 1.81818E+00
 -1      6285 3.70383E+01 5.86629E+00 2.72727E+00
 -1      6286 3.70383E+01 5.86629E+00 3.63636E+00
 -1      6287 3.70383E+01 5.86629E+00 4.54545E+00
 -1      6288 3.70383E+01 5.86629E+00 5.45455E+00
 -1      6289 3.70383E+01 5.86629E+00 6.36364E+00
 -1      6290 3.70383E+01 5.86629E+00 7.27273E+00
 -1      6291 3.70383E+01 5.86629E+00 8.18182E+00
 -1      6292 3.70383E+01 5.86629E+00 9.09091E+00
 -1      6293 3.56646E+01 1.15881E+01 9.09091E-01
 -1      6294 3.56646E+01 1.15881E+01 1.81818E+00
 -1      6295 3.56646E+01 1.15881E+01 2.72727E+00
 -1      6296 3.56646E+01 1.15881E+01 3.63636E+00
 -1      6297 3.56646E+01 1.15881E+01 4.54545E+00
 -1      6298 3.56646E+01 1.15881E+01 5.45455E+00
 -1      6299 3.56646E+01 1.15881E+01 6.36364E+00
 -1      6300 3.56646E+01 1.15881E+01 7.27273E+00
 -1      6301 3.56646E+01 1.15881E+01 8.18182E+00
 -1      6302 3.56646E+01 1.15881E+01 9.09091E+00
 -1      6303 3.34127E+01 1.70246E+01 9.09091E-01
 -1      6304 3.34127E+01 1.70246E+01 1.81818E+00
 -1      6305 3.34127E+01 1.70246E+01 2.72727E+00
 -1      6306 3.34127E+01 1.70246E+01 3.63636E+00
 -1      6307 3.34127E+01 1.70246E+01 4.54545E+00
 -1      6308 3.34127E+01 1.70246E+01 5.45455E+00
 -1      6309 3.34127E+01 1.70246E+01 6.36364E+00
 -1      6310 3.34127E+01 1.70246E+01 7.27273E+00
 -1      6311 3.34127E+01 1.70246E+01 8.18182E+00
 -1      6312 3.34127E+01 1.70246E+01 9.09091E+00
 -1      6313 3.03381E+01 2.20419E+01 9.09091E-01
 -1      6314 3.03381E+01 2.20419E+01 1.81818E+00
 -1      6315 3.03381E+01 2.20419E+01 2.72727E+00
 -1      6316 3.03381E+01 2.20419E+01 3.63636E+00
 -1      6317 3.03381E+01 2.20419E+01 4.54545E+00
 -1      6318 3.03381E+01 2.20419E+01 5.45455E+00
 -1      6319 3.03381E+01 2.20419E+01 6.36364E+00
 -1      6320 3.03381E+01 2.20419E+01 7.27273E+00
 -1      6321 3.03381E+01 2.20419E+01 8.18182E+00
 -1      6322 3.03381E+01 2.20419E+01 9.09091E+00
 -1      6323 2.65165E+01 2.65165E+01 9.09091E-01
 -1      6324 2.65165E+01 2.65165E+01 1.81818E+00
 -1      6325 2.65165E+01 2.65165E+01 2.72727E+00
 -1      6326 2.65165E+01 2.65165E+01 3.63636E+00
 -1      6327 2.65165E+01 2.65165E+01 4.54545E+00
 -1      6328 2.65165E+01 2.65165E+01 5.45455E+00
 -1      6329 2.65165E+01 2.65165E+01 6.36364E+00
 -1      6330 2.65165E+01 2.65165E+01 7.27273E+00
 -1      6331 2.65165E+01 2.65165E+01 8.18182E+00
 -1      6332 2.65165E+01 2.65165E+01 9.09091E+00
 -1      6333 2.20419E+01 3.03381E+01 9.09091E-01
 -1      6334 2.20419E+01 3.03381E+01 1.81818E+00
 -1      6335 2.20419E+01 3.03381E+01 2.72727E+00
 -1      6336 2.20419E+01 3.03381E+01 3.63636E+00
 -1      6337 2.20419E+01 3.03381E+01 4.54545E+00
 -1      6338 2.20419E+01 3.03381E+01 5.45455E+00
 -1      6339 2.20419E+01 3.03381E+01 6.36364E+00
 -1      6340 2.20419E+01 3.03381E+01 7.27273E+00
 -1      6341 2.20419E+01 3.03381E+01 8.18182E+00
 -1      6342 2.20419E+01 3.03381E+01 9.09091E+00
 -1      6343 1.70246E+01 3.34127E+01 9.09091E-01
 -1      6344 1.70246E+01 3.34127E+01 1.81818E+00
 -1      6345 1.70246E+01 3.34127E+01 2.72727E+00
 -1      6346 1.70246E+01 3.34127E+01 3.63636E+00
 -1      6347 1.70246E+01 3.34127E+01 4.54545E+00
 -1      6348 1.70246E+01 3.34127E+01 5.45455E+00
 -1      6349 1.70246E+01 3.34127E+01 6.36364E+00
 -1      6350 1.70246E+01 3.34127E+01 7.27273E+00
 -1      6351 1.70246E+01 3.34127E+01 8.18182E+00
 -1      6352 1.70246E+01 3.34127E+01 9.09091E+00
 -1      6353 1.15881E+01 3.56646E+01 9.09091E-01
 -1      6354 1.15881E+01 3.56646E+01 1.81818E+00
 -1      6355 1.15881E+01 3.56646E+01 2.72727E+00
 -1      6356 1.15881E+01 3.56646E+01 3.63636E+00
 -1      6357 1.15881E+01 3.56646E+01 4.54545E+00
 -1      6358 1.15881E+01 3.56646E+01 5.45455E+00
 -1      6359 1.15881E+01 3.56646E+01 6.36364E+00
 -1      6360 1.15881E+01 3.56646E+01 7.27273E+00
 -1      6361 1.15881E+01 3.56646E+01 8.18182E+00
 -1      6362 1.15881E+01 3.56646E+01 9.09091E+00
 -1      6363 5.86629E+00 3.70383E+01 9.09091E-01
 -1      6364 5.86629E+00 3.70383E+01 1.81818E+00
 -1      6365 5.86629E+00 3.70383E+01 2.72727E+00
 -1      6366 5.86629E+00 3.70383E+01 3.63636E+00
 -1      6367 5.86629E+00 3.70383E+01 4.54545E+00
 -1      6368 5.86629E+00 3.70383E+01 5.45455E+00
 -1      6369 5.86629E+00 3.70383E+01 6.36364E+00
 -1      6370 5.86629E+00 3.70383E+01 7.27273E+00
 -1      6371 5.86629E+00 3.70383E+01 8.18182E+00
 -1      6372 5.86629E+00 3.70383E+01 9.09091E+00
 -1      6373 3.95075E+01 6.25738E+00 9.09091E-01
 -1      6374 3.95075E+01 6.25738E+00 1.81818E+00
 -1      6375 3.95075E+01 6.25738E+00 2.72727E+00
 -1      6376 3.95075E+01 6.25738E+00 3.63636E+00
 -1      6377 3.95075E+01 6.25738E+00 4.54545E+00
 -1      6378 3.95075E+01 6.25738E+00 5.45455E+00
 -1      6379 3.95075E+01 6.25738E+00 6.36364E+00
 -1      6380 3.95075E+01 6.25738E+00 7.27273E+00
 -1      6381 3.95075E+01 6.25738E+00 8.18182E+00
 -1      6382 3.95075E+01 6.25738E+00 9.09091E+00
 -1      6383 3.80423E+01 1.23607E+01 9.09091E-01
 -1      6384 3.80423E+01 1.23607E+01 1.81818E+00
 -1      6385 3.80423E+01 1.23607E+01 2.72727E+00
 -1      6386 3.80423E+01 1.23607E+01 3.63636E+00
 -1      6387 3.80423E+01 1.23607E+01 4.54545E+00
 -1      6388 3.80423E+01 1.23607E+01 5.45455E+00
 -1      6389 3.80423E+01 1.23607E+01 6.36364E+00
 -1      6390 3.80423E+01 1.23607E+01 7.27273E+00
 -1      6391 3.80423E+01 1.23607E+01 8.18182E+00
 -1      6392 3.80423E+01 1.23607E+01 9.09091E+00
 -1      6393 3.56403E+01 1.81596E+01 9.09091E-01
 -1      6394 3.56403E+01 1.81596E+01 1.81818E+00
 -1      6395 3.56403E+01 1.81596E+01 2.72727E+00
 -1      6396 3.56403E+01 1.81596E+01 3.63636E+00
 -1      6397 3.56403E+01 1.81596E+01 4.54545E+00
 -1      6398 3.56403E+01 1.81596E+01 5.45455E+00
 -1      6399 3.56403E+01 1.81596E+01 6.36364E+00
 -1      6400 3.56403E+01 1.81596E+01 7.27273E+00
 -1      6401 3.56403E+01 1.81596E+01 8.18182E+00
 -1      6402 3.56403E+01 1.81596E+01 9.09091E+00
 -1      6403 3.23607E+01 2.35114E+01 9.09091E-01
 -1      6404 3.23607E+01 2.35114E+01 1.81818E+00
 -1      6405 3.23607E+01 2.35114E+01 2.72727E+00
 -1      6406 3.23607E+01 2.35114E+01 3.63636E+00
 -1      6407 3.23607E+01 2.35114E+01 4.54545E+00
 -1      6408 3.23607E+01 2.35114E+01 5.45455E+00
 -1      6409 3.23607E+01 2.35114E+01 6.36364E+00
 -1      6410 3.23607E+01 2.35114E+01 7.27273E+00
 -1      6411 3.23607E+01 2.35114E+01 8.18182E+00
 -1      6412 3.23607E+01 2.35114E+01 9.09091E+00
 -1      6413 2.82843E+01 2.82843E+01 9.09091E-01
 -1      6414 2.82843E+01 2.82843E+01 1.81818E+00
 -1      6415 2.82843E+01 2.82843E+01 2.72727E+00
 -1      6416 2.82843E+01 2.82843E+01 3.63636E+00
 -1      6417 2.82843E+01 2.82843E+01 4.54545E+00
 -1      6418 2.82843E+01 2.82843E+01 5.45455E+00
 -1      6419 2.82843E+01 2.82843E+01 6.36364E+00
 -1      6420 2.82843E+01 2.82843E+01 7.27273E+00
 -1      6421 2.82843E+01 2.82843E+01 8.18182E+00
 -1      6422 2.82843E+01 2.82843E+01 9.09091E+00
 -1      6423 2.35114E+01 3.23607E+01 9.09091E-01
 -1      6424 2.35114E+01 3.23607E+01 1.81818E+00
 -1      6425 2.35114E+01 3.23607E+01 2.72727E+00
 -1      6426 2.35114E+01 3.23607E+01 3.63636E+00
 -1      6427 2.35114E+01 3.23607E+01 4.54545E+00
 -1      6428 2.35114E+01 3.23607E+01 5.45455E+00
 -1      6429 2.35114E+01 3.23607E+01 6.36364E+00
 -1      6430 2.35114E+01 3.23607E+01 7.27273E+00
 -1      6431 2.35114E+01 3.23607E+01 8.18182E+00
 -1      6432 2.35114E+01 3.23607E+01 9.09091E+00
 -1      6433 1.81596E+01 3.56403E+01 9.09091E-01
 -1      6434 1.81596E+01 3.56403E+01 1.81818E+00
 -1      6435 1.81596E+01 3.56403E+01 2.72727E+00
 -1      6436 1.81596E+01 3.56403E+01 3.63636E+00
 -1      6437 1.81596E+01 3.56403E+01 4.54545E+00
 -1      6438 1.81596E+01 3.56403E+01 5.45455E+00
 -1      6439 1.81596E+01 3.56403E+01 6.36364E+00
 -1      6440 1.81596E+01 3.56403E+01 7.27273E+00
 -1      6441 1.81596E+01 3.56403E+01 8.18182E+00
 -1      6442 1.81596E+01 3.56403E+01 9.09091E+00
 -1      6443 1.23607E+01 3.80423E+01 9.09091E-01
 -1      6444 1.23607E+01 3.80423E+01 1.81818E+00
 -1      6445 1.23607E+01 3.80423E+01 2.72727E+00
 -1      6446 1.23607E+01 3.80423E+01 3.63636E+00
 -1      6447 1.23607E+01 3.80423E+01 4.54545E+00
 -1      6448 1.23607E+01 3.80423E+01 5.45455E+00
 -1      6449 1.23607E+01 3.80423E+01 6.36364E+00
 -1      6450 1.23607E+01 3.80423E+01 7.27273E+00
 -1      6451 1.23607E+01 3.80423E+01 8.18182E+00
 -1      6452 1.23607E+01 3.80423E+01 9.09091E+00
 -1      6453 6.25738E+00 3.95075E+01 9.09091E-01
 -1      6454 6.25738E+00 3.95075E+01 1.81818E+00
 -1      6455 6.25738E+00 3.95075E+01 2.72727E+00
 -1      6456 6.25738E+00 3.95075E+01 3.63636E+00
 -1      6457 6.25738E+00 3.95075E+01 4.54545E+00
 -1      6458 6.25738E+00 3.95075E+01 5.45455E+00
 -1      6459 6.25738E+00 3.95075E+01 6.36364E+00
 -1      6460 6.25738E+00 3.95075E+01 7.27273E+00
 -1      6461 6.25738E+00 3.95075E+01 8.18182E+00
 -1      6462 6.25738E+00 3.95075E+01 9.09091E+00
 -1      6463 4.19768E+01 6.64846E+00 9.09091E-01
 -1      6464 4.19768E+01 6.64846E+00 1.81818E+00
 -1      6465 4.19768E+01 6.64846E+00 2.72727E+00
 -1      6466 4.19768E+01 6.64846E+00 3.63636E+00
 -1      6467 4.19768E+01 6.64846E+00 4.54545E+00
 -1      6468 4.19768E+01 6.64846E+00 5.45455E+00
 -1      6469 4.19768E+01 6.64846E+00 6.36364E+00
 -1      6470 4.19768E+01 6.64846E+00 7.27273E+00
 -1      6471 4.19768E+01 6.64846E+00 8.18182E+00
 -1      6472 4.19768E+01 6.64846E+00 9.09091E+00
 -1      6473 4.04199E+01 1.31332E+01 9.09091E-01
 -1      6474 4.04199E+01 1.31332E+01 1.81818E+00
 -1      6475 4.04199E+01 1.31332E+01 2.72727E+00
 -1      6476 4.04199E+01 1.31332E+01 3.63636E+00
 -1      6477 4.04199E+01 1.31332E+01 4.54545E+00
 -1      6478 4.04199E+01 1.31332E+01 5.45455E+00
 -1      6479 4.04199E+01 1.31332E+01 6.36364E+00
 -1      6480 4.04199E+01 1.31332E+01 7.27273E+00
 -1      6481 4.04199E+01 1.31332E+01 8.18182E+00
 -1      6482 4.04199E+01 1.31332E+01 9.09091E+00
 -1      6483 3.78678E+01 1.92946E+01 9.09091E-01
 -1      6484 3.78678E+01 1.92946E+01 1.81818E+00
 -1      6485 3.78678E+01 1.92946E+01 2.72727E+00
 -1      6486 3.78678E+01 1.92946E+01 3.63636E+00
 -1      6487 3.78678E+01 1.92946E+01 4.54545E+00
 -1      6488 3.78678E+01 1.92946E+01 5.45455E+00
 -1      6489 3.78678E+01 1.92946E+01 6.36364E+00
 -1      6490 3.78678E+01 1.92946E+01 7.27273E+00
 -1      6491 3.78678E+01 1.92946E+01 8.18182E+00
 -1      6492 3.78678E+01 1.92946E+01 9.09091E+00
 -1      6493 3.43832E+01 2.49809E+01 9.09091E-01
 -1      6494 3.43832E+01 2.49809E+01 1.81818E+00
 -1      6495 3.43832E+01 2.49809E+01 2.72727E+00
 -1      6496 3.43832E+01 2.49809E+01 3.63636E+00
 -1      6497 3.43832E+01 2.49809E+01 4.54545E+00
 -1      6498 3.43832E+01 2.49809E+01 5.45455E+00
 -1      6499 3.43832E+01 2.49809E+01 6.36364E+00
 -1      6500 3.43832E+01 2.49809E+01 7.27273E+00
 -1      6501 3.43832E+01 2.49809E+01 8.18182E+00
 -1      6502 3.43832E+01 2.49809E+01 9.09091E+00
 -1      6503 3.00520E+01 3.00520E+01 9.09091E-01
 -1      6504 3.00520E+01 3.00520E+01 1.81818E+00
 -1      6505 3.00520E+01 3.00520E+01 2.72727E+00
 -1      6506 3.00520E+01 3.00520E+01 3.63636E+00
 -1      6507 3.00520E+01 3.00520E+01 4.54545E+00
 -1      6508 3.00520E+01 3.00520E+01 5.45455E+00
 -1      6509 3.00520E+01 3.00520E+01 6.36364E+00
 -1      6510 3.00520E+01 3.00520E+01 7.27273E+00
 -1      6511 3.00520E+01 3.00520E+01 8.18182E+00
 -1      6512 3.00520E+01 3.00520E+01 9.09091E+00
 -1      6513 2.49809E+01 3.43832E+01 9.09091E-01
 -1      6514 2.49809E+01 3.43832E+01 1.81818E+00
 -1      6515 2.49809E+01 3.43832E+01 2.72727E+00
 -1      6516 2.49809E+01 3.43832E+01 3.63636E+00
 -1      6517 2.49809E+01 3.43832E+01 4.54545E+00
 -1      6518 2.49809E+01 3.43832E+01 5.45455E+00
 -1      6519 2.49809E+01 3.43832E+01 6.36364E+00
 -1      6520 2.49809E+01 3.43832E+01 7.27273E+00
 -1      6521 2.49809E+01 3.43832E+01 8.18182E+00
 -1      6522 2.49809E+01 3.43832E+01 9.09091E+00
 -1      6523 1.92946E+01 3.78678E+01 9.09091E-01
 -1      6524 1.92946E+01 3.78678E+01 1.81818E+00
 -1      6525 1.92946E+01 3.78678E+01 2.72727E+00
 -1      6526 1.92946E+01 3.78678E+01 3.63636E+00
 -1      6527 1.92946E+01 3.78678E+01 4.54545E+00
 -1      6528 1.92946E+01 3.78678E+01 5.45455E+00
 -1      6529 1.92946E+01 3.78678E+01 6.36364E+00
 -1      6530 1.92946E+01 3.78678E+01 7.27273E+00
 -1      6531 1.92946E+01 3.78678E+01 8.18182E+00
 -1      6532 1.92946E+01 3.78678E+01 9.09091E+00
 -1      6533 1.31332E+01 4.04199E+01 9.09091E-01
 -1      6534 1.31332E+01 4.04199E+01 1.81818E+00
 -1      6535 1.31332E+01 4.04199E+01 2.72727E+00
 -1      6536 1.31332E+01 4.04199E+01 3.63636E+00
 -1      6537 1.31332E+01 4.04199E+01 4.54545E+00
 -1      6538 1.31332E+01 4.04199E+01 5.45455E+00
 -1      6539 1.31332E+01 4.04199E+01 6.36364E+00
 -1      6540 1.31332E+01 4.04199E+01 7.27273E+00
 -1      6541 1.31332E+01 4.04199E+01 8.18182E+00
 -1      6542 1.31332E+01 4.04199E+01 9.09091E+00
 -1      6543 6.64846E+00 4.19768E+01 9.09091E-01
 -1      6544 6.64846E+00 4.19768E+01 1.81818E+00
 -1      6545 6.64846E+00 4.19768E+01 2.72727E+00
 -1      6546 6.64846E+00 4.19768E+01 3.63636E+00
 -1      6547 6.64846E+00 4.19768E+01 4.54545E+00
 -1      6548 6.64846E+00 4.19768E+01 5.45455E+00
 -1      6549 6.64846E+00 4.19768E+01 6.36364E+00
 -1      6550 6.64846E+00 4.19768E+01 7.27273E+00
 -1      6551 6.64846E+00 4.19768E+01 8.18182E+00
 -1      6552 6.64846E+00 4.19768E+01 9.09091E+00
 -1      6553 4.44460E+01 7.03955E+00 9.09091E-01
 -1      6554 4.44460E+01 7.03955E+00 1.81818E+00
 -1      6555 4.44460E+01 7.03955E+00 2.72727E+00
 -1      6556 4.44460E+01 7.03955E+00 3.63636E+00
 -1      6557 4.44460E+01 7.03955E+00 4.54545E+00
 -1      6558 4.44460E+01 7.03955E+00 5.45455E+00
 -1      6559 4.44460E+01 7.03955E+00 6.36364E+00
 -1      6560 4.44460E+01 7.03955E+00 7.27273E+00
 -1      6561 4.44460E+01 7.03955E+00 8.18182E+00
 -1      6562 4.44460E+01 7.03955E+00 9.09091E+00
 -1      6563 4.27975E+01 1.39058E+01 9.09091E-01
 -1      6564 4.27975E+01 1.39058E+01 1.81818E+00
 -1      6565 4.27975E+01 1.39058E+01 2.72727E+00
 -1      6566 4.27975E+01 1.39058E+01 3.63636E+00
 -1      6567 4.27975E+01 1.39058E+01 4.54545E+00
 -1      6568 4.27975E+01 1.39058E+01 5.45455E+00
 -1      6569 4.27975E+01 1.39058E+01 6.36364E+00
 -1      6570 4.27975E+01 1.39058E+01 7.27273E+00
 -1      6571 4.27975E+01 1.39058E+01 8.18182E+00
 -1      6572 4.27975E+01 1.39058E+01 9.09091E+00
 -1      6573 4.00953E+01 2.04296E+01 9.09091E-01
 -1      6574 4.00953E+01 2.04296E+01 1.81818E+00
 -1      6575 4.00953E+01 2.04296E+01 2.72727E+00
 -1      6576 4.00953E+01 2.04296E+01 3.63636E+00
 -1      6577 4.00953E+01 2.04296E+01 4.54545E+00
 -1      6578 4.00953E+01 2.04296E+01 5.45455E+00
 -1      6579 4.00953E+01 2.04296E+01 6.36364E+00
 -1      6580 4.00953E+01 2.04296E+01 7.27273E+00
 -1      6581 4.00953E+01 2.04296E+01 8.18182E+00
 -1      6582 4.00953E+01 2.04296E+01 9.09091E+00
 -1      6583 3.64058E+01 2.64503E+01 9.09091E-01
 -1      6584 3.64058E+01 2.64503E+01 1.81818E+00
 -1      6585 3.64058E+01 2.64503E+01 2.72727E+00
 -1      6586 3.64058E+01 2.64503E+01 3.63636E+00
 -1      6587 3.64058E+01 2.64503E+01 4.54545E+00
 -1      6588 3.64058E+01 2.64503E+01 5.45455E+00
 -1      6589 3.64058E+01 2.64503E+01 6.36364E+00
 -1      6590 3.64058E+01 2.64503E+01 7.27273E+00
 -1      6591 3.64058E+01 2.64503E+01 8.18182E+00
 -1      6592 3.64058E+01 2.64503E+01 9.09091E+00
 -1      6593 3.18198E+01 3.18198E+01 9.09091E-01
 -1      6594 3.18198E+01 3.18198E+01 1.81818E+00
 -1      6595 3.18198E+01 3.18198E+01 2.72727E+00
 -1      6596 3.18198E+01 3.18198E+01 3.63636E+00
 -1      6597 3.18198E+01 3.18198E+01 4.54545E+00
 -1      6598 3.18198E+01 3.18198E+01 5.45455E+00
 -1      6599 3.18198E+01 3.18198E+01 6.36364E+00
 -1      6600 3.18198E+01 3.18198E+01 7.27273E+00
 -1      6601 3.18198E+01 3.18198E+01 8.18182E+00
 -1      6602 3.18198E+01 3.18198E+01 9.09091E+00
 -1      6603 2.64503E+01 3.64058E+01 9.09091E-01
 -1      6604 2.64503E+01 3.64058E+01 1.81818E+00
 -1      6605 2.64503E+01 3.64058E+01 2.72727E+00
 -1      6606 2.64503E+01 3.64058E+01 3.63636E+00
 -1      6607 2.64503E+01 3.64058E+01 4.54545E+00
 -1      6608 2.64503E+01 3.64058E+01 5.45455E+00
 -1      6609 2.64503E+01 3.64058E+01 6.36364E+00
 -1      6610 2.64503E+01 3.64058E+01 7.27273E+00
 -1      6611 2.64503E+01 3.64058E+01 8.18182E+00
 -1      6612 2.64503E+01 3.64058E+01 9.09091E+00
 -1      6613 2.04296E+01 4.00953E+01 9.09091E-01
 -1      6614 2.04296E+01 4.00953E+01 1.81818E+00
 -1      6615 2.04296E+01 4.00953E+01 2.72727E+00
 -1      6616 2.04296E+01 4.00953E+01 3.63636E+00
 -1      6617 2.04296E+01 4.00953E+01 4.54545E+00
 -1      6618 2.04296E+01 4.00953E+01 5.45455E+00
 -1      6619 2.04296E+01 4.00953E+01 6.36364E+00
 -1      6620 2.04296E+01 4.00953E+01 7.27273E+00
 -1      6621 2.04296E+01 4.00953E+01 8.18182E+00
 -1      6622 2.04296E+01 4.00953E+01 9.09091E+00
 -1      6623 1.39058E+01 4.27975E+01 9.09091E-01
 -1      6624 1.39058E+01 4.27975E+01 1.81818E+00
 -1      6625 1.39058E+01 4.27975E+01 2.72727E+00
 -1      6626 1.39058E+01 4.27975E+01 3.63636E+00
 -1      6627 1.39058E+01 4.27975E+01 4.54545E+00
 -1      6628 1.39058E+01 4.27975E+01 5.45455E+00
 -1      6629 1.39058E+01 4.27975E+01 6.36364E+00
 -1      6630 1.39058E+01 4.27975E+01 7.27273E+00
 -1      6631 1.39058E+01 4.27975E+01 8.18182E+00
 -1      6632 1.39058E+01 4.27975E+01 9.09091E+00
 -1      6633 7.03955E+00 4.44460E+01 9.09091E-01
 -1      6634 7.03955E+00 4.44460E+01 1.81818E+00
 -1      6635 7.03955E+00 4.44460E+01 2.72727E+00
 -1      6636 7.03955E+00 4.44460E+01 3.63636E+00
 -1      6637 7.03955E+00 4.44460E+01 4.54545E+00
 -1      6638 7.03955E+00 4.44460E+01 5.45455E+00
 -1      6639 7.03955E+00 4.44460E+01 6.36364E+00
 -1      6640 7.03955E+00 4.44460E+01 7.27273E+00
 -1      6641 7.03955E+00 4.44460E+01 8.18182E+00
 -1      6642 7.03955E+00 4.44460E+01 9.09091E+00
 -1      6643 4.69152E+01 7.43064E+00 9.09091E-01
 -1      6644 4.69152E+01 7.43064E+00 1.81818E+00
 -1      6645 4.69152E+01 7.43064E+00 2.72727E+00
 -1      6646 4.69152E+01 7.43064E+00 3.63636E+00
 -1      6647 4.69152E+01 7.43064E+00 4.54545E+00
 -1      6648 4.69152E+01 7.43064E+00 5.45455E+00
 -1      6649 4.69152E+01 7.43064E+00 6.36364E+00
 -1      6650 4.69152E+01 7.43064E+00 7.27273E+00
 -1      6651 4.69152E+01 7.43064E+00 8.18182E+00
 -1      6652 4.69152E+01 7.43064E+00 9.09091E+00
 -1      6653 4.51752E+01 1.46783E+01 9.09091E-01
 -1      6654 4.51752E+01 1.46783E+01 1.81818E+00
 -1      6655 4.51752E+01 1.46783E+01 2.72727E+00
 -1      6656 4.51752E+01 1.46783E+01 3.63636E+00
 -1      6657 4.51752E+01 1.46783E+01 4.54545E+00
 -1      6658 4.51752E+01 1.46783E+01 5.45455E+00
 -1      6659 4.51752E+01 1.46783E+01 6.36364E+00
 -1      6660 4.51752E+01 1.46783E+01 7.27273E+00
 -1      6661 4.51752E+01 1.46783E+01 8.18182E+00
 -1      6662 4.51752E+01 1.46783E+01 9.09091E+00
 -1      6663 4.23228E+01 2.15645E+01 9.09091E-01
 -1      6664 4.23228E+01 2.15645E+01 1.81818E+00
 -1      6665 4.23228E+01 2.15645E+01 2.72727E+00
 -1      6666 4.23228E+01 2.15645E+01 3.63636E+00
 -1      6667 4.23228E+01 2.15645E+01 4.54545E+00
 -1      6668 4.23228E+01 2.15645E+01 5.45455E+00
 -1      6669 4.23228E+01 2.15645E+01 6.36364E+00
 -1      6670 4.23228E+01 2.15645E+01 7.27273E+00
 -1      6671 4.23228E+01 2.15645E+01 8.18182E+00
 -1      6672 4.23228E+01 2.15645E+01 9.09091E+00
 -1      6673 3.84283E+01 2.79198E+01 9.09091E-01
 -1      6674 3.84283E+01 2.79198E+01 1.81818E+00
 -1      6675 3.84283E+01 2.79198E+01 2.72727E+00
 -1      6676 3.84283E+01 2.79198E+01 3.63636E+00
 -1      6677 3.84283E+01 2.79198E+01 4.54545E+00
 -1      6678 3.84283E+01 2.79198E+01 5.45455E+00
 -1      6679 3.84283E+01 2.79198E+01 6.36364E+00
 -1      6680 3.84283E+01 2.79198E+01 7.27273E+00
 -1      6681 3.84283E+01 2.79198E+01 8.18182E+00
 -1      6682 3.84283E+01 2.79198E+01 9.09091E+00
 -1      6683 3.35876E+01 3.35876E+01 9.09091E-01
 -1      6684 3.35876E+01 3.35876E+01 1.81818E+00
 -1      6685 3.35876E+01 3.35876E+01 2.72727E+00
 -1      6686 3.35876E+01 3.35876E+01 3.63636E+00
 -1      6687 3.35876E+01 3.35876E+01 4.54545E+00
 -1      6688 3.35876E+01 3.35876E+01 5.45455E+00
 -1      6689 3.35876E+01 3.35876E+01 6.36364E+00
 -1      6690 3.35876E+01 3.35876E+01 7.27273E+00
 -1      6691 3.35876E+01 3.35876E+01 8.18182E+00
 -1      6692 3.35876E+01 3.35876E+01 9.09091E+00
 -1      6693 2.79198E+01 3.84283E+01 9.09091E-01
 -1      6694 2.79198E+01 3.84283E+01 1.81818E+00
 -1      6695 2.79198E+01 3.84283E+01 2.72727E+00
 -1      6696 2.79198E+01 3.84283E+01 3.63636E+00
 -1      6697 2.79198E+01 3.84283E+01 4.54545E+00
 -1      6698 2.79198E+01 3.84283E+01 5.45455E+00
 -1      6699 2.79198E+01 3.84283E+01 6.36364E+00
 -1      6700 2.79198E+01 3.84283E+01 7.27273E+00
 -1      6701 2.79198E+01 3.84283E+01 8.18182E+00
 -1      6702 2.79198E+01 3.84283E+01 9.09091E+00
 -1      6703 2.15645E+01 4.23228E+01 9.09091E-01
 -1      6704 2.15645E+01 4.23228E+01 1.81818E+00
 -1      6705 2.15645E+01 4.23228E+01 2.72727E+00
 -1      6706 2.15645E+01 4.23228E+01 3.63636E+00
 -1      6707 2.15645E+01 4.23228E+01 4.54545E+00
 -1      6708 2.15645E+01 4.23228E+01 5.45455E+00
 -1      6709 2.15645E+01 4.23228E+01 6.36364E+00
 -1      6710 2.15645E+01 4.23228E+01 7.27273E+00
 -1      6711 2.15645E+01 4.23228E+01 8.18182E+00
 -1      6712 2.15645E+01 4.23228E+01 9.09091E+00
 -1      6713 1.46783E+01 4.51752E+01 9.09091E-01
 -1      6714 1.46783E+01 4.51752E+01 1.81818E+00
 -1      6715 1.46783E+01 4.51752E+01 2.72727E+00
 -1      6716 1.46783E+01 4.51752E+01 3.63636E+00
 -1      6717 1.46783E+01 4.51752E+01 4.54545E+00
 -1      6718 1.46783E+01 4.51752E+01 5.45455E+00
 -1      6719 1.46783E+01 4.51752E+01 6.36364E+00
 -1      6720 1.46783E+01 4.51752E+01 7.27273E+00
 -1      6721 1.46783E+01 4.51752E+01 8.18182E+00
 -1      6722 1.46783E+01 4.51752E+01 9.09091E+00
 -1      6723 7.43064E+00 4.69152E+01 9.09091E-01
 -1      6724 7.43064E+00 4.69152E+01 1.81818E+00
 -1      6725 7.43064E+00 4.69152E+01 2.72727E+00
 -1      6726 7.43064E+00 4.69152E+01 3.63636E+00
 -1      6727 7.43064E+00 4.69152E+01 4.54545E+00
 -1      6728 7.43064E+00 4.69152E+01 5.45455E+00
 -1      6729 7.43064E+00 4.69152E+01 6.36364E+00
 -1      6730 7.43064E+00 4.69152E+01 7.27273E+00
 -1      6731 7.43064E+00 4.69152E+01 8.18182E+00
 -1      6732 7.43064E+00 4.69152E+01 9.09091E+00
 -1      6733 4.93844E+01 7.82172E+00 9.09091E-01
 -1      6734 4.93844E+01 7.82172E+00 1.81818E+00
 -1      6735 4.93844E+01 7.82172E+00 2.72727E+00
 -1      6736 4.93844E+01 7.82172E+00 3.63636E+00
 -1      6737 4.93844E+01 7.82172E+00 4.54545E+00
 -1      6738 4.93844E+01 7.82172E+00 5.45455E+00
 -1      6739 4.93844E+01 7.82172E+00 6.36364E+00
 -1      6740 4.93844E+01 7.82172E+00 7.27273E+00
 -1      6741 4.93844E+01 7.82172E+00 8.18182E+00
 -1      6742 4.93844E+01 7.82172E+00 9.09091E+00
 -1      6743 4.75528E+01 1.54508E+01 9.09091E-01
 -1      6744 4.75528E+01 1.54508E+01 1.81818E+00
 -1      6745 4.75528E+01 1.54508E+01 2.72727E+00
 -1      6746 4.75528E+01 1.54508E+01 3.63636E+00
 -1      6747 4.75528E+01 1.54508E+01 4.54545E+00
 -1      6748 4.75528E+01 1.54508E+01 5.45455E+00
 -1      6749 4.75528E+01 1.54508E+01 6.36364E+00
 -1      6750 4.75528E+01 1.54508E+01 7.27273E+00
 -1      6751 4.75528E+01 1.54508E+01 8.18182E+00
 -1      6752 4.75528E+01 1.54508E+01 9.09091E+00
 -1      6753 4.45503E+01 2.26995E+01 9.09091E-01
 -1      6754 4.45503E+01 2.26995E+01 1.81818E+00
 -1      6755 4.45503E+01 2.26995E+01 2.72727E+00
 -1      6756 4.45503E+01 2.26995E+01 3.63636E+00
 -1      6757 4.45503E+01 2.26995E+01 4.54545E+00
 -1      6758 4.45503E+01 2.26995E+01 5.45455E+00
 -1      6759 4.45503E+01 2.26995E+01 6.36364E+00
 -1      6760 4.45503E+01 2.26995E+01 7.27273E+00
 -1      6761 4.45503E+01 2.26995E+01 8.18182E+00
 -1      6762 4.45503E+01 2.26995E+01 9.09091E+00
 -1      6763 4.04509E+01 2.93893E+01 9.09091E-01
 -1      6764 4.04509E+01 2.93893E+01 1.81818E+00
 -1      6765 4.04509E+01 2.93893E+01 2.72727E+00
 -1      6766 4.04509E+01 2.93893E+01 3.63636E+00
 -1      6767 4.04509E+01 2.93893E+01 4.54545E+00
 -1      6768 4.04509E+01 2.93893E+01 5.45455E+00
 -1      6769 4.04509E+01 2.93893E+01 6.36364E+00
 -1      6770 4.04509E+01 2.93893E+01 7.27273E+00
 -1      6771 4.04509E+01 2.93893E+01 8.18182E+00
 -1      6772 4.04509E+01 2.93893E+01 9.09091E+00
 -1      6773 3.53553E+01 3.53553E+01 9.09091E-01
 -1      6774 3.53553E+01 3.53553E+01 1.81818E+00
 -1      6775 3.53553E+01 3.53553E+01 2.72727E+00
 -1      6776 3.53553E+01 3.53553E+01 3.63636E+00
 -1      6777 3.53553E+01 3.53553E+01 4.54545E+00
 -1      6778 3.53553E+01 3.53553E+01 5.45455E+00
 -1      6779 3.53553E+01 3.53553E+01 6.36364E+00
 -1      6780 3.53553E+01 3.53553E+01 7.27273E+00
 -1      6781 3.53553E+01 3.53553E+01 8.18182E+00
 -1      6782 3.53553E+01 3.53553E+01 9.09091E+00
 -1      6783 2.93893E+01 4.04509E+01 9.09091E-01
 -1      6784 2.93893E+01 4.04509E+01 1.81818E+00
 -1      6785 2.93893E+01 4.04509E+01 2.72727E+00
 -1      6786 2.93893E+01 4.04509E+01 3.63636E+00
 -1      6787 2.93893E+01 4.04509E+01 4.54545E+00
 -1      6788 2.93893E+01 4.04509E+01 5.45455E+00
 -1      6789 2.93893E+01 4.04509E+01 6.36364E+00
 -1      6790 2.93893E+01 4.04509E+01 7.27273E+00
 -1      6791 2.93893E+01 4.04509E+01 8.18182E+00
 -1      6792 2.93893E+01 4.04509E+01 9.09091E+00
 -1      6793 2.26995E+01 4.45503E+01 9.09091E-01
 -1      6794 2.26995E+01 4.45503E+01 1.81818E+00
 -1      6795 2.26995E+01 4.45503E+01 2.72727E+00
 -1      6796 2.26995E+01 4.45503E+01 3.63636E+00
 -1      6797 2.26995E+01 4.45503E+01 4.54545E+00
 -1      6798 2.26995E+01 4.45503E+01 5.45455E+00
 -1      6799 2.26995E+01 4.45503E+01 6.36364E+00
 -1      6800 2.26995E+01 4.45503E+01 7.27273E+00
 -1      6801 2.26995E+01 4.45503E+01 8.18182E+00
 -1      6802 2.26995E+01 4.45503E+01 9.09091E+00
 -1      6803 1.54508E+01 4.75528E+01 9.09091E-01
 -1      6804 1.54508E+01 4.75528E+01 1.81818E+00
 -1      6805 1.54508E+01 4.75528E+01 2.72727E+00
 -1      6806 1.54508E+01 4.75528E+01 3.63636E+00
 -1      6807 1.54508E+01 4.75528E+01 4.54545E+00
 -1      6808 1.54508E+01 4.75528E+01 5.45455E+00
 -1      6809 1.54508E+01 4.75528E+01 6.36364E+00
 -1      6810 1.54508E+01 4.75528E+01 7.27273E+00
 -1      6811 1.54508E+01 4.75528E+01 8.18182E+00
 -1      6812 1.54508E+01 4.75528E+01 9.09091E+00
 -1      6813 7.82172E+00 4.93844E+01 9.09091E-01
 -1      6814 7.82172E+00 4.93844E+01 1.81818E+00
 -1      6815 7.82172E+00 4.93844E+01 2.72727E+00
 -1      6816 7.82172E+00 4.93844E+01 3.63636E+00
 -1      6817 7.82172E+00 4.93844E+01 4.54545E+00
 -1      6818 7.82172E+00 4.93844E+01 5.45455E+00
 -1      6819 7.82172E+00 4.93844E+01 6.36364E+00
 -1      6820 7.82172E+00 4.93844E+01 7.27273E+00
 -1      6821 7.82172E+00 4.93844E+01 8.18182E+00
 -1      6822 7.82172E+00 4.93844E+01 9.09091E+00
 -1      6823 5.18536E+01 8.21281E+00 9.09091E-01
 -1      6824 5.18536E+01 8.21281E+00 1.81818E+00
 -1      6825 5.18536E+01 8.21281E+00 2.72727E+00
 -1      6826 5.18536E+01 8.21281E+00 3.63636E+00
 -1      6827 5.18536E+01 8.21281E+00 4.54545E+00
 -1      6828 5.18536E+01 8.21281E+00 5.45455E+00
 -1      6829 5.18536E+01 8.21281E+00 6.36364E+00
 -1      6830 5.18536E+01 8.21281E+00 7.27273E+00
 -1      6831 5.18536E+01 8.21281E+00 8.18182E+00
 -1      6832 5.18536E+01 8.21281E+00 9.09091E+00
 -1      6833 4.99305E+01 1.62234E+01 9.09091E-01
 -1      6834 4.99305E+01 1.62234E+01 1.81818E+00
 -1      6835 4.99305E+01 1.62234E+01 2.72727E+00
 -1      6836 4.99305E+01 1.62234E+01 3.63636E+00
 -1      6837 4.99305E+01 1.62234E+01 4.54545E+00
 -1      6838 4.99305E+01 1.62234E+01 5.45455E+00
 -1      6839 4.99305E+01 1.62234E+01 6.36364E+00
 -1      6840 4.99305E+01 1.62234E+01 7.27273E+00
 -1      6841 4.99305E+01 1.62234E+01 8.18182E+00
 -1      6842 4.99305E+01 1.62234E+01 9.09091E+00
 -1      6843 4.67778E+01 2.38345E+01 9.09091E-01
 -1      6844 4.67778E+01 2.38345E+01 1.81818E+00
 -1      6845 4.67778E+01 2.38345E+01 2.72727E+00
 -1      6846 4.67778E+01 2.38345E+01 3.63636E+00
 -1      6847 4.67778E+01 2.38345E+01 4.54545E+00
 -1      6848 4.67778E+01 2.38345E+01 5.45455E+00
 -1      6849 4.67778E+01 2.38345E+01 6.36364E+00
 -1      6850 4.67778E+01 2.38345E+01 7.27273E+00
 -1      6851 4.67778E+01 2.38345E+01 8.18182E+00
 -1      6852 4.67778E+01 2.38345E+01 9.09091E+00
 -1      6853 4.24734E+01 3.08587E+01 9.09091E-01
 -1      6854 4.24734E+01 3.08587E+01 1.81818E+00
 -1      6855 4.24734E+01 3.08587E+01 2.72727E+00
 -1      6856 4.24734E+01 3.08587E+01 3.63636E+00
 -1      6857 4.24734E+01 3.08587E+01 4.54545E+00
 -1      6858 4.24734E+01 3.08587E+01 5.45455E+00
 -1      6859 4.24734E+01 3.08587E+01 6.36364E+00
 -1      6860 4.24734E+01 3.08587E+01 7.27273E+00
 -1      6861 4.24734E+01 3.08587E+01 8.18182E+00
 -1      6862 4.24734E+01 3.08587E+01 9.09091E+00
 -1      6863 3.71231E+01 3.71231E+01 9.09091E-01
 -1      6864 3.71231E+01 3.71231E+01 1.81818E+00
 -1      6865 3.71231E+01 3.71231E+01 2.72727E+00
 -1      6866 3.71231E+01 3.71231E+01 3.63636E+00
 -1      6867 3.71231E+01 3.71231E+01 4.54545E+00
 -1      6868 3.71231E+01 3.71231E+01 5.45455E+00
 -1      6869 3.71231E+01 3.71231E+01 6.36364E+00
 -1      6870 3.71231E+01 3.71231E+01 7.27273E+00
 -1      6871 3.71231E+01 3.71231E+01 8.18182E+00
 -1      6872 3.71231E+01 3.71231E+01 9.09091E+00
 -1      6873 3.08587E+01 4.24734E+01 9.09091E-01
 -1      6874 3.08587E+01 4.24734E+01 1.81818E+00
 -1      6875 3.08587E+01 4.24734E+01 2.72727E+00
 -1      6876 3.08587E+01 4.24734E+01 3.63636E+00
 -1      6877 3.08587E+01 4.24734E+01 4.54545E+00
 -1      6878 3.08587E+01 4.24734E+01 5.45455E+00
 -1      6879 3.08587E+01 4.24734E+01 6.36364E+00
 -1      6880 3.08587E+01 4.24734E+01 7.27273E+00
 -1      6881 3.08587E+01 4.24734E+01 8.18182E+00
 -1      6882 3.08587E+01 4.24734E+01 9.09091E+00
 -1      6883 2.38345E+01 4.67778E+01 9.09091E-01
 -1      6884 2.38345E+01 4.67778E+01 1.81818E+00
 -1      6885 2.38345E+01 4.67778E+01 2.72727E+00
 -1      6886 2.38345E+01 4.67778E+01 3.63636E+00
 -1      6887 2.38345E+01 4.67778E+01 4.54545E+00
 -1      6888 2.38345E+01 4.67778E+01 5.45455E+00
 -1      6889 2.38345E+01 4.67778E+01 6.36364E+00
 -1      6890 2.38345E+01 4.67778E+01 7.27273E+00
 -1      6891 2.38345E+01 4.67778E+01 8.18182E+00
 -1      6892 2.38345E+01 4.67778E+01 9.09091E+00
 -1      6893 1.62234E+01 4.99305E+01 9.09091E-01
 -1      6894 1.62234E+01 4.99305E+01 1.81818E+00
 -1      6895 1.62234E+01 4.99305E+01 2.72727E+00
 -1      6896 1.62234E+01 4.99305E+01 3.63636E+00
 -1      6897 1.62234E+01 4.99305E+01 4.54545E+00
 -1      6898 1.62234E+01 4.99305E+01 5.45455E+00
 -1      6899 1.62234E+01 4.99305E+01 6.36364E+00
 -1      6900 1.62234E+01 4.99305E+01 7.27273E+00
 -1      6901 1.62234E+01 4.99305E+01 8.18182E+00
 -1      6902 1.62234E+01 4.99305E+01 9.09091E+00
 -1      6903 8.21281E+00 5.18536E+01 9.09091E-01
 -1      6904 8.21281E+00 5.18536E+01 1.81818E+00
 -1      6905 8.21281E+00 5.18536E+01 2.72727E+00
 -1      6906 8.21281E+00 5.18536E+01 3.63636E+00
 -1      6907 8.21281E+00 5.18536E+01 4.54545E+00
 -1      6908 8.21281E+00 5.18536E+01 5.45455E+00
 -1      6909 8.21281E+00 5.18536E+01 6.36364E+00
 -1      6910 8.21281E+00 5.18536E+01 7.27273E+00
 -1      6911 8.21281E+00 5.18536E+01 8.18182E+00
 -1      6912 8.21281E+00 5.18536E+01 9.09091E+00
 -1      6913 5.43229E+01 8.60390E+00 9.09091E-01
 -1      6914 5.43229E+01 8.60390E+00 1.81818E+00
 -1      6915 5.43229E+01 8.60390E+00 2.72727E+00
 -1      6916 5.43229E+01 8.60390E+00 3.63636E+00
 -1      6917 5.43229E+01 8.60390E+00 4.54545E+00
 -1      6918 5.43229E+01 8.60390E+00 5.45455E+00
 -1      6919 5.43229E+01 8.60390E+00 6.36364E+00
 -1      6920 5.43229E+01 8.60390E+00 7.27273E+00
 -1      6921 5.43229E+01 8.60390E+00 8.18182E+00
 -1      6922 5.43229E+01 8.60390E+00 9.09091E+00
 -1      6923 5.23081E+01 1.69959E+01 9.09091E-01
 -1      6924 5.23081E+01 1.69959E+01 1.81818E+00
 -1      6925 5.23081E+01 1.69959E+01 2.72727E+00
 -1      6926 5.23081E+01 1.69959E+01 3.63636E+00
 -1      6927 5.23081E+01 1.69959E+01 4.54545E+00
 -1      6928 5.23081E+01 1.69959E+01 5.45455E+00
 -1      6929 5.23081E+01 1.69959E+01 6.36364E+00
 -1      6930 5.23081E+01 1.69959E+01 7.27273E+00
 -1      6931 5.23081E+01 1.69959E+01 8.18182E+00
 -1      6932 5.23081E+01 1.69959E+01 9.09091E+00
 -1      6933 4.90054E+01 2.49695E+01 9.09091E-01
 -1      6934 4.90054E+01 2.49695E+01 1.81818E+00
 -1      6935 4.90054E+01 2.49695E+01 2.72727E+00
 -1      6936 4.90054E+01 2.49695E+01 3.63636E+00
 -1      6937 4.90054E+01 2.49695E+01 4.54545E+00
 -1      6938 4.90054E+01 2.49695E+01 5.45455E+00
 -1      6939 4.90054E+01 2.49695E+01 6.36364E+00
 -1      6940 4.90054E+01 2.49695E+01 7.27273E+00
 -1      6941 4.90054E+01 2.49695E+01 8.18182E+00
 -1      6942 4.90054E+01 2.49695E+01 9.09091E+00
 -1      6943 4.44959E+01 3.23282E+01 9.09091E-01
 -1      6944 4.44959E+01 3.23282E+01 1.81818E+00
 -1      6945 4.44959E+01 3.23282E+01 2.72727E+00
 -1      6946 4.44959E+01 3.23282E+01 3.63636E+00
 -1      6947 4.44959E+01 3.23282E+01 4.54545E+00
 -1      6948 4.44959E+01 3.23282E+01 5.45455E+00
 -1      6949 4.44959E+01 3.23282E+01 6.36364E+00
 -1      6950 4.44959E+01 3.23282E+01 7.27273E+00
 -1      6951 4.44959E+01 3.23282E+01 8.18182E+00
 -1      6952 4.44959E+01 3.23282E+01 9.09091E+00
 -1      6953 3.88909E+01 3.88909E+01 9.09091E-01
 -1      6954 3.88909E+01 3.88909E+01 1.81818E+00
 -1      6955 3.88909E+01 3.88909E+01 2.72727E+00
 -1      6956 3.88909E+01 3.88909E+01 3.63636E+00
 -1      6957 3.88909E+01 3.88909E+01 4.54545E+00
 -1      6958 3.88909E+01 3.88909E+01 5.45455E+00
 -1      6959 3.88909E+01 3.88909E+01 6.36364E+00
 -1      6960 3.88909E+01 3.88909E+01 7.27273E+00
 -1      6961 3.88909E+01 3.88909E+01 8.18182E+00
 -1      6962 3.88909E+01 3.88909E+01 9.09091E+00
 -1      6963 3.23282E+01 4.44959E+01 9.09091E-01
 -1      6964 3.23282E+01 4.44959E+01 1.81818E+00
 -1      6965 3.23282E+01 4.44959E+01 2.72727E+00
 -1      6966 3.23282E+01 4.44959E+01 3.63636E+00
 -1      6967 3.23282E+01 4.44959E+01 4.54545E+00
 -1      6968 3.23282E+01 4.44959E+01 5.45455E+00
 -1      6969 3.23282E+01 4.44959E+01 6.36364E+00
 -1      6970 3.23282E+01 4.44959E+01 7.27273E+00
 -1      6971 3.23282E+01 4.44959E+01 8.18182E+00
 -1      6972 3.23282E+01 4.44959E+01 9.09091E+00
 -1      6973 2.49695E+01 4.90054E+01 9.09091E-01
 -1      6974 2.49695E+01 4.90054E+01 1.81818E+00
 -1      6975 2.49695E+01 4.90054E+01 2.72727E+00
 -1      6976 2.49695E+01 4.90054E+01 3.63636E+00
 -1      6977 2.49695E+01 4.90054E+01 4.54545E+00
 -1      6978 2.49695E+01 4.90054E+01 5.45455E+00
 -1      6979 2.49695E+01 4.90054E+01 6.36364E+00
 -1      6980 2.49695E+01 4.90054E+01 7.27273E+00
 -1      6981 2.49695E+01 4.90054E+01 8.18182E+00
 -1      6982 2.49695E+01 4.90054E+01 9.09091E+00
 -1      6983 1.69959E+01 5.23081E+01 9.09091E-01
 -1      6984 1.69959E+01 5.23081E+01 1.81818E+00
 -1      6985 1.69959E+01 5.23081E+01 2.72727E+00
 -1      6986 1.69959E+01 5.23081E+01 3.63636E+00
 -1      6987 1.69959E+01 5.23081E+01 4.54545E+00
 -1      6988 1.69959E+01 5.23081E+01 5.45455E+00
 -1      6989 1.69959E+01 5.23081E+01 6.36364E+00
 -1      6990 1.69959E+01 5.23081E+01 7.27273E+00
 -1      6991 1.69959E+01 5.23081E+01 8.18182E+00
 -1      6992 1.69959E+01 5.23081E+01 9.09091E+00
 -1      6993 8.60390E+00 5.43229E+01 9.09091E-01
 -1      6994 8.60390E+00 5.43229E+01 1.81818E+00
 -1      6995 8.60390E+00 5.43229E+01 2.72727E+00
 -1      6996 8.60390E+00 5.43229E+01 3.63636E+00
 -1      6997 8.60390E+00 5.43229E+01 4.54545E+00
 -1      6998 8.60390E+00 5.43229E+01 5.45455E+00
 -1      6999 8.60390E+00 5.43229E+01 6.36364E+00
 -1      7000 8.60390E+00 5.43229E+01 7.27273E+00
 -1      7001 8.60390E+00 5.43229E+01 8.18182E+00
 -1      7002 8.60390E+00 5.43229E+01 9.09091E+00
 -1      7003 5.67921E+01 8.99498E+00 9.09091E-01
 -1      7004 5.67921E+01 8.99498E+00 1.81818E+00
 -1      7005 5.67921E+01 8.99498E+00 2.72727E+00
 -1      7006 5.67921E+01 8.99498E+00 3.63636E+00
 -1      7007 5.67921E+01 8.99498E+00 4.54545E+00
 -1      7008 5.67921E+01 8.99498E+00 5.45455E+00
 -1      7009 5.67921E+01 8.99498E+00 6.36364E+00
 -1      7010 5.67921E+01 8.99498E+00 7.27273E+00
 -1      7011 5.67921E+01 8.99498E+00 8.18182E+00
 -1      7012 5.67921E+01 8.99498E+00 9.09091E+00
 -1      7013 5.46857E+01 1.77685E+01 9.09091E-01
 -1      7014 5.46857E+01 1.77685E+01 1.81818E+00
 -1      7015 5.46857E+01 1.77685E+01 2.72727E+00
 -1      7016 5.46857E+01 1.77685E+01 3.63636E+00
 -1      7017 5.46857E+01 1.77685E+01 4.54545E+00
 -1      7018 5.46857E+01 1.77685E+01 5.45455E+00
 -1      7019 5.46857E+01 1.77685E+01 6.36364E+00
 -1      7020 5.46857E+01 1.77685E+01 7.27273E+00
 -1      7021 5.46857E+01 1.77685E+01 8.18182E+00
 -1      7022 5.46857E+01 1.77685E+01 9.09091E+00
 -1      7023 5.12329E+01 2.61045E+01 9.09091E-01
 -1      7024 5.12329E+01 2.61045E+01 1.81818E+00
 -1      7025 5.12329E+01 2.61045E+01 2.72727E+00
 -1      7026 5.12329E+01 2.61045E+01 3.63636E+00
 -1      7027 5.12329E+01 2.61045E+01 4.54545E+00
 -1      7028 5.12329E+01 2.61045E+01 5.45455E+00
 -1      7029 5.12329E+01 2.61045E+01 6.36364E+00
 -1      7030 5.12329E+01 2.61045E+01 7.27273E+00
 -1      7031 5.12329E+01 2.61045E+01 8.18182E+00
 -1      7032 5.12329E+01 2.61045E+01 9.09091E+00
 -1      7033 4.65185E+01 3.37977E+01 9.09091E-01
 -1      7034 4.65185E+01 3.37977E+01 1.81818E+00
 -1      7035 4.65185E+01 3.37977E+01 2.72727E+00
 -1      7036 4.65185E+01 3.37977E+01 3.63636E+00
 -1      7037 4.65185E+01 3.37977E+01 4.54545E+00
 -1      7038 4.65185E+01 3.37977E+01 5.45455E+00
 -1      7039 4.65185E+01 3.37977E+01 6.36364E+00
 -1      7040 4.65185E+01 3.37977E+01 7.27273E+00
 -1      7041 4.65185E+01 3.37977E+01 8.18182E+00
 -1      7042 4.65185E+01 3.37977E+01 9.09091E+00
 -1      7043 4.06586E+01 4.06586E+01 9.09091E-01
 -1      7044 4.06586E+01 4.06586E+01 1.81818E+00
 -1      7045 4.06586E+01 4.06586E+01 2.72727E+00
 -1      7046 4.06586E+01 4.06586E+01 3.63636E+00
 -1      7047 4.06586E+01 4.06586E+01 4.54545E+00
 -1      7048 4.06586E+01 4.06586E+01 5.45455E+00
 -1      7049 4.06586E+01 4.06586E+01 6.36364E+00
 -1      7050 4.06586E+01 4.06586E+01 7.27273E+00
 -1      7051 4.06586E+01 4.06586E+01 8.18182E+00
 -1      7052 4.06586E+01 4.06586E+01 9.09091E+00
 -1      7053 3.37977E+01 4.65185E+01 9.09091E-01
 -1      7054 3.37977E+01 4.65185E+01 1.81818E+00
 -1      7055 3.37977E+01 4.65185E+01 2.72727E+00
 -1      7056 3.37977E+01 4.65185E+01 3.63636E+00
 -1      7057 3.37977E+01 4.65185E+01 4.54545E+00
 -1      7058 3.37977E+01 4.65185E+01 5.45455E+00
 -1      7059 3.37977E+01 4.65185E+01 6.36364E+00
 -1      7060 3.37977E+01 4.65185E+01 7.27273E+00
 -1      7061 3.37977E+01 4.65185E+01 8.18182E+00
 -1      7062 3.37977E+01 4.65185E+01 9.09091E+00
 -1      7063 2.61045E+01 5.12329E+01 9.09091E-01
 -1      7064 2.61045E+01 5.12329E+01 1.81818E+00
 -1      7065 2.61045E+01 5.12329E+01 2.72727E+00
 -1      7066 2.61045E+01 5.12329E+01 3.63636E+00
 -1      7067 2.61045E+01 5.12329E+01 4.54545E+00
 -1      7068 2.61045E+01 5.12329E+01 5.45455E+00
 -1      7069 2.61045E+01 5.12329E+01 6.36364E+00
 -1      7070 2.61045E+01 5.12329E+01 7.27273E+00
 -1      7071 2.61045E+01 5.12329E+01 8.18182E+00
 -1      7072 2.61045E+01 5.12329E+01 9.09091E+00
 -1      7073 1.77685E+01 5.46857E+01 9.09091E-01
 -1      7074 1.77685E+01 5.46857E+01 1.81818E+00
 -1      7075 1.77685E+01 5.46857E+01 2.72727E+00
 -1      7076 1.77685E+01 5.46857E+01 3.63636E+00
 -1      7077 1.77685E+01 5.46857E+01 4.54545E+00
 -1      7078 1.77685E+01 5.46857E+01 5.45455E+00
 -1      7079 1.77685E+01 5.46857E+01 6.36364E+00
 -1      7080 1.77685E+01 5.46857E+01 7.27273E+00
 -1      7081 1.77685E+01 5.46857E+01 8.18182E+00
 -1      7082 1.77685E+01 5.46857E+01 9.09091E+00
 -1      7083 8.99498E+00 5.67921E+01 9.09091E-01
 -1      7084 8.99498E+00 5.67921E+01 1.81818E+00
 -1      7085 8.99498E+00 5.67921E+01 2.72727E+00
 -1      7086 8.99498E+00 5.67921E+01 3.63636E+00
 -1      7087 8.99498E+00 5.67921E+01 4.54545E+00
 -1      7088 8.99498E+00 5.67921E+01 5.45455E+00
 -1      7089 8.99498E+00 5.67921E+01 6.36364E+00
 -1      7090 8.99498E+00 5.67921E+01 7.27273E+00
 -1      7091 8.99498E+00 5.67921E+01 8.18182E+00
 -1      7092 8.99498E+00 5.67921E+01 9.09091E+00
 -1      7093 5.92613E+01 9.38607E+00 9.09091E-01
 -1      7094 5.92613E+01 9.38607E+00 1.81818E+00
 -1      7095 5.92613E+01 9.38607E+00 2.72727E+00
 -1      7096 5.92613E+01 9.38607E+00 3.63636E+00
 -1      7097 5.92613E+01 9.38607E+00 4.54545E+00
 -1      7098 5.92613E+01 9.38607E+00 5.45455E+00
 -1      7099 5.92613E+01 9.38607E+00 6.36364E+00
 -1      7100 5.92613E+01 9.38607E+00 7.27273E+00
 -1      7101 5.92613E+01 9.38607E+00 8.18182E+00
 -1      7102 5.92613E+01 9.38607E+00 9.09091E+00
 -1      7103 5.70634E+01 1.85410E+01 9.09091E-01
 -1      7104 5.70634E+01 1.85410E+01 1.81818E+00
 -1      7105 5.70634E+01 1.85410E+01 2.72727E+00
 -1      7106 5.70634E+01 1.85410E+01 3.63636E+00
 -1      7107 5.70634E+01 1.85410E+01 4.54545E+00
 -1      7108 5.70634E+01 1.85410E+01 5.45455E+00
 -1      7109 5.70634E+01 1.85410E+01 6.36364E+00
 -1      7110 5.70634E+01 1.85410E+01 7.27273E+00
 -1      7111 5.70634E+01 1.85410E+01 8.18182E+00
 -1      7112 5.70634E+01 1.85410E+01 9.09091E+00
 -1      7113 5.34604E+01 2.72394E+01 9.09091E-01
 -1      7114 5.34604E+01 2.72394E+01 1.81818E+00
 -1      7115 5.34604E+01 2.72394E+01 2.72727E+00
 -1      7116 5.34604E+01 2.72394E+01 3.63636E+00
 -1      7117 5.34604E+01 2.72394E+01 4.54545E+00
 -1      7118 5.34604E+01 2.72394E+01 5.45455E+00
 -1      7119 5.34604E+01 2.72394E+01 6.36364E+00
 -1      7120 5.34604E+01 2.72394E+01 7.27273E+00
 -1      7121 5.34604E+01 2.72394E+01 8.18182E+00
 -1      7122 5.34604E+01 2.72394E+01 9.09091E+00
 -1      7123 4.85410E+01 3.52671E+01 9.09091E-01
 -1      7124 4.85410E+01 3.52671E+01 1.81818E+00
 -1      7125 4.85410E+01 3.52671E+01 2.72727E+00
 -1      7126 4.85410E+01 3.52671E+01 3.63636E+00
 -1      7127 4.85410E+01 3.52671E+01 4.54545E+00
 -1      7128 4.85410E+01 3.52671E+01 5.45455E+00
 -1      7129 4.85410E+01 3.52671E+01 6.36364E+00
 -1      7130 4.85410E+01 3.52671E+01 7.27273E+00
 -1      7131 4.85410E+01 3.52671E+01 8.18182E+00
 -1      7132 4.85410E+01 3.52671E+01 9.09091E+00
 -1      7133 4.24264E+01 4.24264E+01 9.09091E-01
 -1      7134 4.24264E+01 4.24264E+01 1.81818E+00
 -1      7135 4.24264E+01 4.24264E+01 2.72727E+00
 -1      7136 4.24264E+01 4.24264E+01 3.63636E+00
 -1      7137 4.24264E+01 4.24264E+01 4.54545E+00
 -1      7138 4.24264E+01 4.24264E+01 5.45455E+00
 -1      7139 4.24264E+01 4.24264E+01 6.36364E+00
 -1      7140 4.24264E+01 4.24264E+01 7.27273E+00
 -1      7141 4.24264E+01 4.24264E+01 8.18182E+00
 -1      7142 4.24264E+01 4.24264E+01 9.09091E+00
 -1      7143 3.52671E+01 4.85410E+01 9.09091E-01
 -1      7144 3.52671E+01 4.85410E+01 1.81818E+00
 -1      7145 3.52671E+01 4.85410E+01 2.72727E+00
 -1      7146 3.52671E+01 4.85410E+01 3.63636E+00
 -1      7147 3.52671E+01 4.85410E+01 4.54545E+00
 -1      7148 3.52671E+01 4.85410E+01 5.45455E+00
 -1      7149 3.52671E+01 4.85410E+01 6.36364E+00
 -1      7150 3.52671E+01 4.85410E+01 7.27273E+00
 -1      7151 3.52671E+01 4.85410E+01 8.18182E+00
 -1      7152 3.52671E+01 4.85410E+01 9.09091E+00
 -1      7153 2.72394E+01 5.34604E+01 9.09091E-01
 -1      7154 2.72394E+01 5.34604E+01 1.81818E+00
 -1      7155 2.72394E+01 5.34604E+01 2.72727E+00
 -1      7156 2.72394E+01 5.34604E+01 3.63636E+00
 -1      7157 2.72394E+01 5.34604E+01 4.54545E+00
 -1      7158 2.72394E+01 5.34604E+01 5.45455E+00
 -1      7159 2.72394E+01 5.34604E+01 6.36364E+00
 -1      7160 2.72394E+01 5.34604E+01 7.27273E+00
 -1      7161 2.72394E+01 5.34604E+01 8.18182E+00
 -1      7162 2.72394E+01 5.34604E+01 9.09091E+00
 -1      7163 1.85410E+01 5.70634E+01 9.09091E-01
 -1      7164 1.85410E+01 5.70634E+01 1.81818E+00
 -1      7165 1.85410E+01 5.70634E+01 2.72727E+00
 -1      7166 1.85410E+01 5.70634E+01 3.63636E+00
 -1      7167 1.85410E+01 5.70634E+01 4.54545E+00
 -1      7168 1.85410E+01 5.70634E+01 5.45455E+00
 -1      7169 1.85410E+01 5.70634E+01 6.36364E+00
 -1      7170 1.85410E+01 5.70634E+01 7.27273E+00
 -1      7171 1.85410E+01 5.70634E+01 8.18182E+00
 -1      7172 1.85410E+01 5.70634E+01 9.09091E+00
 -1      7173 9.38607E+00 5.92613E+01 9.09091E-01
 -1      7174 9.38607E+00 5.92613E+01 1.81818E+00
 -1      7175 9.38607E+00 5.92613E+01 2.72727E+00
 -1      7176 9.38607E+00 5.92613E+01 3.63636E+00
 -1      7177 9.38607E+00 5.92613E+01 4.54545E+00
 -1      7178 9.38607E+00 5.92613E+01 5.45455E+00
 -1      7179 9.38607E+00 5.92613E+01 6.36364E+00
 -1      7180 9.38607E+00 5.92613E+01 7.27273E+00
 -1      7181 9.38607E+00 5.92613E+01 8.18182E+00
 -1      7182 9.38607E+00 5.92613E+01 9.09091E+00
 -1      7183 6.17305E+01 9.77715E+00 9.09091E-01
 -1      7184 6.17305E+01 9.77715E+00 1.81818E+00
 -1      7185 6.17305E+01 9.77715E+00 2.72727E+00
 -1      7186 6.17305E+01 9.77715E+00 3.63636E+00
 -1      7187 6.17305E+01 9.77715E+00 4.54545E+00
 -1      7188 6.17305E+01 9.77715E+00 5.45455E+00
 -1      7189 6.17305E+01 9.77715E+00 6.36364E+00
 -1      7190 6.17305E+01 9.77715E+00 7.27273E+00
 -1      7191 6.17305E+01 9.77715E+00 8.18182E+00
 -1      7192 6.17305E+01 9.77715E+00 9.09091E+00
 -1      7193 5.94410E+01 1.93136E+01 9.09091E-01
 -1      7194 5.94410E+01 1.93136E+01 1.81818E+00
 -1      7195 5.94410E+01 1.93136E+01 2.72727E+00
 -1      7196 5.94410E+01 1.93136E+01 3.63636E+00
 -1      7197 5.94410E+01 1.93136E+01 4.54545E+00
 -1      7198 5.94410E+01 1.93136E+01 5.45455E+00
 -1      7199 5.94410E+01 1.93136E+01 6.36364E+00
 -1      7200 5.94410E+01 1.93136E+01 7.27273E+00
 -1      7201 5.94410E+01 1.93136E+01 8.18182E+00
 -1      7202 5.94410E+01 1.93136E+01 9.09091E+00
 -1      7203 5.56879E+01 2.83744E+01 9.09091E-01
 -1      7204 5.56879E+01 2.83744E+01 1.81818E+00
 -1      7205 5.56879E+01 2.83744E+01 2.72727E+00
 -1      7206 5.56879E+01 2.83744E+01 3.63636E+00
 -1      7207 5.56879E+01 2.83744E+01 4.54545E+00
 -1      7208 5.56879E+01 2.83744E+01 5.45455E+00
 -1      7209 5.56879E+01 2.83744E+01 6.36364E+00
 -1      7210 5.56879E+01 2.83744E+01 7.27273E+00
 -1      7211 5.56879E+01 2.83744E+01 8.18182E+00
 -1      7212 5.56879E+01 2.83744E+01 9.09091E+00
 -1      7213 5.05636E+01 3.67366E+01 9.09091E-01
 -1      7214 5.05636E+01 3.67366E+01 1.81818E+00
 -1      7215 5.05636E+01 3.67366E+01 2.72727E+00
 -1      7216 5.05636E+01 3.67366E+01 3.63636E+00
 -1      7217 5.05636E+01 3.67366E+01 4.54545E+00
 -1      7218 5.05636E+01 3.67366E+01 5.45455E+00
 -1      7219 5.05636E+01 3.67366E+01 6.36364E+00
 -1      7220 5.05636E+01 3.67366E+01 7.27273E+00
 -1      7221 5.05636E+01 3.67366E+01 8.18182E+00
 -1      7222 5.05636E+01 3.67366E+01 9.09091E+00
 -1      7223 4.41942E+01 4.41942E+01 9.09091E-01
 -1      7224 4.41942E+01 4.41942E+01 1.81818E+00
 -1      7225 4.41942E+01 4.41942E+01 2.72727E+00
 -1      7226 4.41942E+01 4.41942E+01 3.63636E+00
 -1      7227 4.41942E+01 4.41942E+01 4.54545E+00
 -1      7228 4.41942E+01 4.41942E+01 5.45455E+00
 -1      7229 4.41942E+01 4.41942E+01 6.36364E+00
 -1      7230 4.41942E+01 4.41942E+01 7.27273E+00
 -1      7231 4.41942E+01 4.41942E+01 8.18182E+00
 -1      7232 4.41942E+01 4.41942E+01 9.09091E+00
 -1      7233 3.67366E+01 5.05636E+01 9.09091E-01
 -1      7234 3.67366E+01 5.05636E+01 1.81818E+00
 -1      7235 3.67366E+01 5.05636E+01 2.72727E+00
 -1      7236 3.67366E+01 5.05636E+01 3.63636E+00
 -1      7237 3.67366E+01 5.05636E+01 4.54545E+00
 -1      7238 3.67366E+01 5.05636E+01 5.45455E+00
 -1      7239 3.67366E+01 5.05636E+01 6.36364E+00
 -1      7240 3.67366E+01 5.05636E+01 7.27273E+00
 -1      7241 3.67366E+01 5.05636E+01 8.18182E+00
 -1      7242 3.67366E+01 5.05636E+01 9.09091E+00
 -1      7243 2.83744E+01 5.56879E+01 9.09091E-01
 -1      7244 2.83744E+01 5.56879E+01 1.81818E+00
 -1      7245 2.83744E+01 5.56879E+01 2.72727E+00
 -1      7246 2.83744E+01 5.56879E+01 3.63636E+00
 -1      7247 2.83744E+01 5.56879E+01 4.54545E+00
 -1      7248 2.83744E+01 5.56879E+01 5.45455E+00
 -1      7249 2.83744E+01 5.56879E+01 6.36364E+00
 -1      7250 2.83744E+01 5.56879E+01 7.27273E+00
 -1      7251 2.83744E+01 5.56879E+01 8.18182E+00
 -1      7252 2.83744E+01 5.56879E+01 9.09091E+00
 -1      7253 1.93136E+01 5.94410E+01 9.09091E-01
 -1      7254 1.93136E+01 5.94410E+01 1.81818E+00
 -1      7255 1.93136E+01 5.94410E+01 2.72727E+00
 -1      7256 1.93136E+01 5.94410E+01 3.63636E+00
 -1      7257 1.93136E+01 5.94410E+01 4.54545E+00
 -1      7258 1.93136E+01 5.94410E+01 5.45455E+00
 -1      7259 1.93136E+01 5.94410E+01 6.36364E+00
 -1      7260 1.93136E+01 5.94410E+01 7.27273E+00
 -1      7261 1.93136E+01 5.94410E+01 8.18182E+00
 -1      7262 1.93136E+01 5.94410E+01 9.09091E+00
 -1      7263 9.77715E+00 6.17305E+01 9.09091E-01
 -1      7264 9.77715E+00 6.17305E+01 1.81818E+00
 -1      7265 9.77715E+00 6.17305E+01 2.72727E+00
 -1      7266 9.77715E+00 6.17305E+01 3.63636E+00
 -1      7267 9.77715E+00 6.17305E+01 4.54545E+00
 -1      7268 9.77715E+00 6.17305E+01 5.45455E+00
 -1      7269 9.77715E+00 6.17305E+01 6.36364E+00
 -1      7270 9.77715E+00 6.17305E+01 7.27273E+00
 -1      7271 9.77715E+00 6.17305E+01 8.18182E+00
 -1      7272 9.77715E+00 6.17305E+01 9.09091E+00
 -1      7273 6.41997E+01 1.01682E+01 9.09091E-01
 -1      7274 6.41997E+01 1.01682E+01 1.81818E+00
 -1      7275 6.41997E+01 1.01682E+01 2.72727E+00
 -1      7276 6.41997E+01 1.01682E+01 3.63636E+00
 -1      7277 6.41997E+01 1.01682E+01 4.54545E+00
 -1      7278 6.41997E+01 1.01682E+01 5.45455E+00
 -1      7279 6.41997E+01 1.01682E+01 6.36364E+00
 -1      7280 6.41997E+01 1.01682E+01 7.27273E+00
 -1      7281 6.41997E+01 1.01682E+01 8.18182E+00
 -1      7282 6.41997E+01 1.01682E+01 9.09091E+00
 -1      7283 6.18187E+01 2.00861E+01 9.09091E-01
 -1      7284 6.18187E+01 2.00861E+01 1.81818E+00
 -1      7285 6.18187E+01 2.00861E+01 2.72727E+00
 -1      7286 6.18187E+01 2.00861E+01 3.63636E+00
 -1      7287 6.18187E+01 2.00861E+01 4.54545E+00
 -1      7288 6.18187E+01 2.00861E+01 5.45455E+00
 -1      7289 6.18187E+01 2.00861E+01 6.36364E+00
 -1      7290 6.18187E+01 2.00861E+01 7.27273E+00
 -1      7291 6.18187E+01 2.00861E+01 8.18182E+00
 -1      7292 6.18187E+01 2.00861E+01 9.09091E+00
 -1      7293 5.79154E+01 2.95094E+01 9.09091E-01
 -1      7294 5.79154E+01 2.95094E+01 1.81818E+00
 -1      7295 5.79154E+01 2.95094E+01 2.72727E+00
 -1      7296 5.79154E+01 2.95094E+01 3.63636E+00
 -1      7297 5.79154E+01 2.95094E+01 4.54545E+00
 -1      7298 5.79154E+01 2.95094E+01 5.45455E+00
 -1      7299 5.79154E+01 2.95094E+01 6.36364E+00
 -1      7300 5.79154E+01 2.95094E+01 7.27273E+00
 -1      7301 5.79154E+01 2.95094E+01 8.18182E+00
 -1      7302 5.79154E+01 2.95094E+01 9.09091E+00
 -1      7303 5.25861E+01 3.82060E+01 9.09091E-01
 -1      7304 5.25861E+01 3.82060E+01 1.81818E+00
 -1      7305 5.25861E+01 3.82060E+01 2.72727E+00
 -1      7306 5.25861E+01 3.82060E+01 3.63636E+00
 -1      7307 5.25861E+01 3.82060E+01 4.54545E+00
 -1      7308 5.25861E+01 3.82060E+01 5.45455E+00
 -1      7309 5.25861E+01 3.82060E+01 6.36364E+00
 -1      7310 5.25861E+01 3.82060E+01 7.27273E+00
 -1      7311 5.25861E+01 3.82060E+01 8.18182E+00
 -1      7312 5.25861E+01 3.82060E+01 9.09091E+00
 -1      7313 4.59619E+01 4.59619E+01 9.09091E-01
 -1      7314 4.59619E+01 4.59619E+01 1.81818E+00
 -1      7315 4.59619E+01 4.59619E+01 2.72727E+00
 -1      7316 4.59619E+01 4.59619E+01 3.63636E+00
 -1      7317 4.59619E+01 4.59619E+01 4.54545E+00
 -1      7318 4.59619E+01 4.59619E+01 5.45455E+00
 -1      7319 4.59619E+01 4.59619E+01 6.36364E+00
 -1      7320 4.59619E+01 4.59619E+01 7.27273E+00
 -1      7321 4.59619E+01 4.59619E+01 8.18182E+00
 -1      7322 4.59619E+01 4.59619E+01 9.09091E+00
 -1      7323 3.82060E+01 5.25861E+01 9.09091E-01
 -1      7324 3.82060E+01 5.25861E+01 1.81818E+00
 -1      7325 3.82060E+01 5.25861E+01 2.72727E+00
 -1      7326 3.82060E+01 5.25861E+01 3.63636E+00
 -1      7327 3.82060E+01 5.25861E+01 4.54545E+00
 -1      7328 3.82060E+01 5.25861E+01 5.45455E+00
 -1      7329 3.82060E+01 5.25861E+01 6.36364E+00
 -1      7330 3.82060E+01 5.25861E+01 7.27273E+00
 -1      7331 3.82060E+01 5.25861E+01 8.18182E+00
 -1      7332 3.82060E+01 5.25861E+01 9.09091E+00
 -1      7333 2.95094E+01 5.79154E+01 9.09091E-01
 -1      7334 2.95094E+01 5.79154E+01 1.81818E+00
 -1      7335 2.95094E+01 5.79154E+01 2.72727E+00
 -1      7336 2.95094E+01 5.79154E+01 3.63636E+00
 -1      7337 2.95094E+01 5.79154E+01 4.54545E+00
 -1      7338 2.95094E+01 5.79154E+01 5.45455E+00
 -1      7339 2.95094E+01 5.79154E+01 6.36364E+00
 -1      7340 2.95094E+01 5.79154E+01 7.27273E+00
 -1      7341 2.95094E+01 5.79154E+01 8.18182E+00
 -1      7342 2.95094E+01 5.79154E+01 9.09091E+00
 -1      7343 2.00861E+01 6.18187E+01 9.09091E-01
 -1      7344 2.00861E+01 6.18187E+01 1.81818E+00
 -1      7345 2.00861E+01 6.18187E+01 2.72727E+00
 -1      7346 2.00861E+01 6.18187E+01 3.63636E+00
 -1      7347 2.00861E+01 6.18187E+01 4.54545E+00
 -1      7348 2.00861E+01 6.18187E+01 5.45455E+00
 -1      7349 2.00861E+01 6.18187E+01 6.36364E+00
 -1      7350 2.00861E+01 6.18187E+01 7.27273E+00
 -1      7351 2.00861E+01 6.18187E+01 8.18182E+00
 -1      7352 2.00861E+01 6.18187E+01 9.09091E+00
 -1      7353 1.01682E+01 6.41997E+01 9.09091E-01
 -1      7354 1.01682E+01 6.41997E+01 1.81818E+00
 -1      7355 1.01682E+01 6.41997E+01 2.72727E+00
 -1      7356 1.01682E+01 6.41997E+01 3.63636E+00
 -1      7357 1.01682E+01 6.41997E+01 4.54545E+00
 -1      7358 1.01682E+01 6.41997E+01 5.45455E+00
 -1      7359 1.01682E+01 6.41997E+01 6.36364E+00
 -1      7360 1.01682E+01 6.41997E+01 7.27273E+00
 -1      7361 1.01682E+01 6.41997E+01 8.18182E+00
 -1      7362 1.01682E+01 6.41997E+01 9.09091E+00
 -1      7363 6.66690E+01 1.05593E+01 9.09091E-01
 -1      7364 6.66690E+01 1.05593E+01 1.81818E+00
 -1      7365 6.66690E+01 1.05593E+01 2.72727E+00
 -1      7366 6.66690E+01 1.05593E+01 3.63636E+00
 -1      7367 6.66690E+01 1.05593E+01 4.54545E+00
 -1      7368 6.66690E+01 1.05593E+01 5.45455E+00
 -1      7369 6.66690E+01 1.05593E+01 6.36364E+00
 -1      7370 6.66690E+01 1.05593E+01 7.27273E+00
 -1      7371 6.66690E+01 1.05593E+01 8.18182E+00
 -1      7372 6.66690E+01 1.05593E+01 9.09091E+00
 -1      7373 6.41963E+01 2.08586E+01 9.09091E-01
 -1      7374 6.41963E+01 2.08586E+01 1.81818E+00
 -1      7375 6.41963E+01 2.08586E+01 2.72727E+00
 -1      7376 6.41963E+01 2.08586E+01 3.63636E+00
 -1      7377 6.41963E+01 2.08586E+01 4.54545E+00
 -1      7378 6.41963E+01 2.08586E+01 5.45455E+00
 -1      7379 6.41963E+01 2.08586E+01 6.36364E+00
 -1      7380 6.41963E+01 2.08586E+01 7.27273E+00
 -1      7381 6.41963E+01 2.08586E+01 8.18182E+00
 -1      7382 6.41963E+01 2.08586E+01 9.09091E+00
 -1      7383 6.01429E+01 3.06444E+01 9.09091E-01
 -1      7384 6.01429E+01 3.06444E+01 1.81818E+00
 -1      7385 6.01429E+01 3.06444E+01 2.72727E+00
 -1      7386 6.01429E+01 3.06444E+01 3.63636E+00
 -1      7387 6.01429E+01 3.06444E+01 4.54545E+00
 -1      7388 6.01429E+01 3.06444E+01 5.45455E+00
 -1      7389 6.01429E+01 3.06444E+01 6.36364E+00
 -1      7390 6.01429E+01 3.06444E+01 7.27273E+00
 -1      7391 6.01429E+01 3.06444E+01 8.18182E+00
 -1      7392 6.01429E+01 3.06444E+01 9.09091E+00
 -1      7393 5.46086E+01 3.96755E+01 9.09091E-01
 -1      7394 5.46086E+01 3.96755E+01 1.81818E+00
 -1      7395 5.46086E+01 3.96755E+01 2.72727E+00
 -1      7396 5.46086E+01 3.96755E+01 3.63636E+00
 -1      7397 5.46086E+01 3.96755E+01 4.54545E+00
 -1      7398 5.46086E+01 3.96755E+01 5.45455E+00
 -1      7399 5.46086E+01 3.96755E+01 6.36364E+00
 -1      7400 5.46086E+01 3.96755E+01 7.27273E+00
 -1      7401 5.46086E+01 3.96755E+01 8.18182E+00
 -1      7402 5.46086E+01 3.96755E+01 9.09091E+00
 -1      7403 4.77297E+01 4.77297E+01 9.09091E-01
 -1      7404 4.77297E+01 4.77297E+01 1.81818E+00
 -1      7405 4.77297E+01 4.77297E+01 2.72727E+00
 -1      7406 4.77297E+01 4.77297E+01 3.63636E+00
 -1      7407 4.77297E+01 4.77297E+01 4.54545E+00
 -1      7408 4.77297E+01 4.77297E+01 5.45455E+00
 -1      7409 4.77297E+01 4.77297E+01 6.36364E+00
 -1      7410 4.77297E+01 4.77297E+01 7.27273E+00
 -1      7411 4.77297E+01 4.77297E+01 8.18182E+00
 -1      7412 4.77297E+01 4.77297E+01 9.09091E+00
 -1      7413 3.96755E+01 5.46086E+01 9.09091E-01
 -1      7414 3.96755E+01 5.46086E+01 1.81818E+00
 -1      7415 3.96755E+01 5.46086E+01 2.72727E+00
 -1      7416 3.96755E+01 5.46086E+01 3.63636E+00
 -1      7417 3.96755E+01 5.46086E+01 4.54545E+00
 -1      7418 3.96755E+01 5.46086E+01 5.45455E+00
 -1      7419 3.96755E+01 5.46086E+01 6.36364E+00
 -1      7420 3.96755E+01 5.46086E+01 7.27273E+00
 -1      7421 3.96755E+01 5.46086E+01 8.18182E+00
 -1      7422 3.96755E+01 5.46086E+01 9.09091E+00
 -1      7423 3.06444E+01 6.01429E+01 9.09091E-01
 -1      7424 3.06444E+01 6.01429E+01 1.81818E+00
 -1      7425 3.06444E+01 6.01429E+01 2.72727E+00
 -1      7426 3.06444E+01 6.01429E+01 3.63636E+00
 -1      7427 3.06444E+01 6.01429E+01 4.54545E+00
 -1      7428 3.06444E+01 6.01429E+01 5.45455E+00
 -1      7429 3.06444E+01 6.01429E+01 6.36364E+00
 -1      7430 3.06444E+01 6.01429E+01 7.27273E+00
 -1      7431 3.06444E+01 6.01429E+01 8.18182E+00
 -1      7432 3.06444E+01 6.01429E+01 9.09091E+00
 -1      7433 2.08586E+01 6.41963E+01 9.09091E-01
 -1      7434 2.08586E+01 6.41963E+01 1.81818E+00
 -1      7435 2.08586E+01 6.41963E+01 2.72727E+00
 -1      7436 2.08586E+01 6.41963E+01 3.63636E+00
 -1      7437 2.08586E+01 6.41963E+01 4.54545E+00
 -1      7438 2.08586E+01 6.41963E+01 5.45455E+00
 -1      7439 2.08586E+01 6.41963E+01 6.36364E+00
 -1      7440 2.08586E+01 6.41963E+01 7.27273E+00
 -1      7441 2.08586E+01 6.41963E+01 8.18182E+00
 -1      7442 2.08586E+01 6.41963E+01 9.09091E+00
 -1      7443 1.05593E+01 6.66690E+01 9.09091E-01
 -1      7444 1.05593E+01 6.66690E+01 1.81818E+00
 -1      7445 1.05593E+01 6.66690E+01 2.72727E+00
 -1      7446 1.05593E+01 6.66690E+01 3.63636E+00
 -1      7447 1.05593E+01 6.66690E+01 4.54545E+00
 -1      7448 1.05593E+01 6.66690E+01 5.45455E+00
 -1      7449 1.05593E+01 6.66690E+01 6.36364E+00
 -1      7450 1.05593E+01 6.66690E+01 7.27273E+00
 -1      7451 1.05593E+01 6.66690E+01 8.18182E+00
 -1      7452 1.05593E+01 6.66690E+01 9.09091E+00
 -1      7453 6.91382E+01 1.09504E+01 9.09091E-01
 -1      7454 6.91382E+01 1.09504E+01 1.81818E+00
 -1      7455 6.91382E+01 1.09504E+01 2.72727E+00
 -1      7456 6.91382E+01 1.09504E+01 3.63636E+00
 -1      7457 6.91382E+01 1.09504E+01 4.54545E+00
 -1      7458 6.91382E+01 1.09504E+01 5.45455E+00
 -1      7459 6.91382E+01 1.09504E+01 6.36364E+00
 -1      7460 6.91382E+01 1.09504E+01 7.27273E+00
 -1      7461 6.91382E+01 1.09504E+01 8.18182E+00
 -1      7462 6.91382E+01 1.09504E+01 9.09091E+00
 -1      7463 6.65740E+01 2.16312E+01 9.09091E-01
 -1      7464 6.65740E+01 2.16312E+01 1.81818E+00
 -1      7465 6.65740E+01 2.16312E+01 2.72727E+00
 -1      7466 6.65740E+01 2.16312E+01 3.63636E+00
 -1      7467 6.65740E+01 2.16312E+01 4.54545E+00
 -1      7468 6.65740E+01 2.16312E+01 5.45455E+00
 -1      7469 6.65740E+01 2.16312E+01 6.36364E+00
 -1      7470 6.65740E+01 2.16312E+01 7.27273E+00
 -1      7471 6.65740E+01 2.16312E+01 8.18182E+00
 -1      7472 6.65740E+01 2.16312E+01 9.09091E+00
 -1      7473 6.23705E+01 3.17793E+01 9.09091E-01
 -1      7474 6.23705E+01 3.17793E+01 1.81818E+00
 -1      7475 6.23705E+01 3.17793E+01 2.72727E+00
 -1      7476 6.23705E+01 3.17793E+01 3.63636E+00
 -1      7477 6.23705E+01 3.17793E+01 4.54545E+00
 -1      7478 6.23705E+01 3.17793E+01 5.45455E+00
 -1      7479 6.23705E+01 3.17793E+01 6.36364E+00
 -1      7480 6.23705E+01 3.17793E+01 7.27273E+00
 -1      7481 6.23705E+01 3.17793E+01 8.18182E+00
 -1      7482 6.23705E+01 3.17793E+01 9.09091E+00
 -1      7483 5.66312E+01 4.11450E+01 9.09091E-01
 -1      7484 5.66312E+01 4.11450E+01 1.81818E+00
 -1      7485 5.66312E+01 4.11450E+01 2.72727E+00
 -1      7486 5.66312E+01 4.11450E+01 3.63636E+00
 -1      7487 5.66312E+01 4.11450E+01 4.54545E+00
 -1      7488 5.66312E+01 4.11450E+01 5.45455E+00
 -1      7489 5.66312E+01 4.11450E+01 6.36364E+00
 -1      7490 5.66312E+01 4.11450E+01 7.27273E+00
 -1      7491 5.66312E+01 4.11450E+01 8.18182E+00
 -1      7492 5.66312E+01 4.11450E+01 9.09091E+00
 -1      7493 4.94975E+01 4.94975E+01 9.09091E-01
 -1      7494 4.94975E+01 4.94975E+01 1.81818E+00
 -1      7495 4.94975E+01 4.94975E+01 2.72727E+00
 -1      7496 4.94975E+01 4.94975E+01 3.63636E+00
 -1      7497 4.94975E+01 4.94975E+01 4.54545E+00
 -1      7498 4.94975E+01 4.94975E+01 5.45455E+00
 -1      7499 4.94975E+01 4.94975E+01 6.36364E+00
 -1      7500 4.94975E+01 4.94975E+01 7.27273E+00
 -1      7501 4.94975E+01 4.94975E+01 8.18182E+00
 -1      7502 4.94975E+01 4.94975E+01 9.09091E+00
 -1      7503 4.11450E+01 5.66312E+01 9.09091E-01
 -1      7504 4.11450E+01 5.66312E+01 1.81818E+00
 -1      7505 4.11450E+01 5.66312E+01 2.72727E+00
 -1      7506 4.11450E+01 5.66312E+01 3.63636E+00
 -1      7507 4.11450E+01 5.66312E+01 4.54545E+00
 -1      7508 4.11450E+01 5.66312E+01 5.45455E+00
 -1      7509 4.11450E+01 5.66312E+01 6.36364E+00
 -1      7510 4.11450E+01 5.66312E+01 7.27273E+00
 -1      7511 4.11450E+01 5.66312E+01 8.18182E+00
 -1      7512 4.11450E+01 5.66312E+01 9.09091E+00
 -1      7513 3.17793E+01 6.23705E+01 9.09091E-01
 -1      7514 3.17793E+01 6.23705E+01 1.81818E+00
 -1      7515 3.17793E+01 6.23705E+01 2.72727E+00
 -1      7516 3.17793E+01 6.23705E+01 3.63636E+00
 -1      7517 3.17793E+01 6.23705E+01 4.54545E+00
 -1      7518 3.17793E+01 6.23705E+01 5.45455E+00
 -1      7519 3.17793E+01 6.23705E+01 6.36364E+00
 -1      7520 3.17793E+01 6.23705E+01 7.27273E+00
 -1      7521 3.17793E+01 6.23705E+01 8.18182E+00
 -1      7522 3.17793E+01 6.23705E+01 9.09091E+00
 -1      7523 2.16312E+01 6.65740E+01 9.09091E-01
 -1      7524 2.16312E+01 6.65740E+01 1.81818E+00
 -1      7525 2.16312E+01 6.65740E+01 2.72727E+00
 -1      7526 2.16312E+01 6.65740E+01 3.63636E+00
 -1      7527 2.16312E+01 6.65740E+01 4.54545E+00
 -1      7528 2.16312E+01 6.65740E+01 5.45455E+00
 -1      7529 2.16312E+01 6.65740E+01 6.36364E+00
 -1      7530 2.16312E+01 6.65740E+01 7.27273E+00
 -1      7531 2.16312E+01 6.65740E+01 8.18182E+00
 -1      7532 2.16312E+01 6.65740E+01 9.09091E+00
 -1      7533 1.09504E+01 6.91382E+01 9.09091E-01
 -1      7534 1.09504E+01 6.91382E+01 1.81818E+00
 -1      7535 1.09504E+01 6.91382E+01 2.72727E+00
 -1      7536 1.09504E+01 6.91382E+01 3.63636E+00
 -1      7537 1.09504E+01 6.91382E+01 4.54545E+00
 -1      7538 1.09504E+01 6.91382E+01 5.45455E+00
 -1      7539 1.09504E+01 6.91382E+01 6.36364E+00
 -1      7540 1.09504E+01 6.91382E+01 7.27273E+00
 -1      7541 1.09504E+01 6.91382E+01 8.18182E+00
 -1      7542 1.09504E+01 6.91382E+01 9.09091E+00
 -1      7543 7.16074E+01 1.13415E+01 9.09091E-01
 -1      7544 7.16074E+01 1.13415E+01 1.81818E+00
 -1      7545 7.16074E+01 1.13415E+01 2.72727E+00
 -1      7546 7.16074E+01 1.13415E+01 3.63636E+00
 -1      7547 7.16074E+01 1.13415E+01 4.54545E+00
 -1      7548 7.16074E+01 1.13415E+01 5.45455E+00
 -1      7549 7.16074E+01 1.13415E+01 6.36364E+00
 -1      7550 7.16074E+01 1.13415E+01 7.27273E+00
 -1      7551 7.16074E+01 1.13415E+01 8.18182E+00
 -1      7552 7.16074E+01 1.13415E+01 9.09091E+00
 -1      7553 6.89516E+01 2.24037E+01 9.09091E-01
 -1      7554 6.89516E+01 2.24037E+01 1.81818E+00
 -1      7555 6.89516E+01 2.24037E+01 2.72727E+00
 -1      7556 6.89516E+01 2.24037E+01 3.63636E+00
 -1      7557 6.89516E+01 2.24037E+01 4.54545E+00
 -1      7558 6.89516E+01 2.24037E+01 5.45455E+00
 -1      7559 6.89516E+01 2.24037E+01 6.36364E+00
 -1      7560 6.89516E+01 2.24037E+01 7.27273E+00
 -1      7561 6.89516E+01 2.24037E+01 8.18182E+00
 -1      7562 6.89516E+01 2.24037E+01 9.09091E+00
 -1      7563 6.45980E+01 3.29143E+01 9.09091E-01
 -1      7564 6.45980E+01 3.29143E+01 1.81818E+00
 -1      7565 6.45980E+01 3.29143E+01 2.72727E+00
 -1      7566 6.45980E+01 3.29143E+01 3.63636E+00
 -1      7567 6.45980E+01 3.29143E+01 4.54545E+00
 -1      7568 6.45980E+01 3.29143E+01 5.45455E+00
 -1      7569 6.45980E+01 3.29143E+01 6.36364E+00
 -1      7570 6.45980E+01 3.29143E+01 7.27273E+00
 -1      7571 6.45980E+01 3.29143E+01 8.18182E+00
 -1      7572 6.45980E+01 3.29143E+01 9.09091E+00
 -1      7573 5.86537E+01 4.26144E+01 9.09091E-01
 -1      7574 5.86537E+01 4.26144E+01 1.81818E+00
 -1      7575 5.86537E+01 4.26144E+01 2.72727E+00
 -1      7576 5.86537E+01 4.26144E+01 3.63636E+00
 -1      7577 5.86537E+01 4.26144E+01 4.54545E+00
 -1      7578 5.86537E+01 4.26144E+01 5.45455E+00
 -1      7579 5.86537E+01 4.26144E+01 6.36364E+00
 -1      7580 5.86537E+01 4.26144E+01 7.27273E+00
 -1      7581 5.86537E+01 4.26144E+01 8.18182E+00
 -1      7582 5.86537E+01 4.26144E+01 9.09091E+00
 -1      7583 5.12652E+01 5.12652E+01 9.09091E-01
 -1      7584 5.12652E+01 5.12652E+01 1.81818E+00
 -1      7585 5.12652E+01 5.12652E+01 2.72727E+00
 -1      7586 5.12652E+01 5.12652E+01 3.63636E+00
 -1      7587 5.12652E+01 5.12652E+01 4.54545E+00
 -1      7588 5.12652E+01 5.12652E+01 5.45455E+00
 -1      7589 5.12652E+01 5.12652E+01 6.36364E+00
 -1      7590 5.12652E+01 5.12652E+01 7.27273E+00
 -1      7591 5.12652E+01 5.12652E+01 8.18182E+00
 -1      7592 5.12652E+01 5.12652E+01 9.09091E+00
 -1      7593 4.26144E+01 5.86537E+01 9.09091E-01
 -1      7594 4.26144E+01 5.86537E+01 1.81818E+00
 -1      7595 4.26144E+01 5.86537E+01 2.72727E+00
 -1      7596 4.26144E+01 5.86537E+01 3.63636E+00
 -1      7597 4.26144E+01 5.86537E+01 4.54545E+00
 -1      7598 4.26144E+01 5.86537E+01 5.45455E+00
 -1      7599 4.26144E+01 5.86537E+01 6.36364E+00
 -1      7600 4.26144E+01 5.86537E+01 7.27273E+00
 -1      7601 4.26144E+01 5.86537E+01 8.18182E+00
 -1      7602 4.26144E+01 5.86537E+01 9.09091E+00
 -1      7603 3.29143E+01 6.45980E+01 9.09091E-01
 -1      7604 3.29143E+01 6.45980E+01 1.81818E+00
 -1      7605 3.29143E+01 6.45980E+01 2.72727E+00
 -1      7606 3.29143E+01 6.45980E+01 3.63636E+00
 -1      7607 3.29143E+01 6.45980E+01 4.54545E+00
 -1      7608 3.29143E+01 6.45980E+01 5.45455E+00
 -1      7609 3.29143E+01 6.45980E+01 6.36364E+00
 -1      7610 3.29143E+01 6.45980E+01 7.27273E+00
 -1      7611 3.29143E+01 6.45980E+01 8.18182E+00
 -1      7612 3.29143E+01 6.45980E+01 9.09091E+00
 -1      7613 2.24037E+01 6.89516E+01 9.09091E-01
 -1      7614 2.24037E+01 6.89516E+01 1.81818E+00
 -1      7615 2.24037E+01 6.89516E+01 2.72727E+00
 -1      7616 2.24037E+01 6.89516E+01 3.63636E+00
 -1      7617 2.24037E+01 6.89516E+01 4.54545E+00
 -1      7618 2.24037E+01 6.89516E+01 5.45455E+00
 -1      7619 2.24037E+01 6.89516E+01 6.36364E+00
 -1      7620 2.24037E+01 6.89516E+01 7.27273E+00
 -1      7621 2.24037E+01 6.89516E+01 8.18182E+00
 -1      7622 2.24037E+01 6.89516E+01 9.09091E+00
 -1      7623 1.13415E+01 7.16074E+01 9.09091E-01
 -1      7624 1.13415E+01 7.16074E+01 1.81818E+00
 -1      7625 1.13415E+01 7.16074E+01 2.72727E+00
 -1      7626 1.13415E+01 7.16074E+01 3.63636E+00
 -1      7627 1.13415E+01 7.16074E+01 4.54545E+00
 -1      7628 1.13415E+01 7.16074E+01 5.45455E+00
 -1      7629 1.13415E+01 7.16074E+01 6.36364E+00
 -1      7630 1.13415E+01 7.16074E+01 7.27273E+00
 -1      7631 1.13415E+01 7.16074E+01 8.18182E+00
 -1      7632 1.13415E+01 7.16074E+01 9.09091E+00
 -1      7633 7.40766E+01 1.17326E+01 9.09091E-01
 -1      7634 7.40766E+01 1.17326E+01 1.81818E+00
 -1      7635 7.40766E+01 1.17326E+01 2.72727E+00
 -1      7636 7.40766E+01 1.17326E+01 3.63636E+00
 -1      7637 7.40766E+01 1.17326E+01 4.54545E+00
 -1      7638 7.40766E+01 1.17326E+01 5.45455E+00
 -1      7639 7.40766E+01 1.17326E+01 6.36364E+00
 -1      7640 7.40766E+01 1.17326E+01 7.27273E+00
 -1      7641 7.40766E+01 1.17326E+01 8.18182E+00
 -1      7642 7.40766E+01 1.17326E+01 9.09091E+00
 -1      7643 7.13292E+01 2.31763E+01 9.09091E-01
 -1      7644 7.13292E+01 2.31763E+01 1.81818E+00
 -1      7645 7.13292E+01 2.31763E+01 2.72727E+00
 -1      7646 7.13292E+01 2.31763E+01 3.63636E+00
 -1      7647 7.13292E+01 2.31763E+01 4.54545E+00
 -1      7648 7.13292E+01 2.31763E+01 5.45455E+00
 -1      7649 7.13292E+01 2.31763E+01 6.36364E+00
 -1      7650 7.13292E+01 2.31763E+01 7.27273E+00
 -1      7651 7.13292E+01 2.31763E+01 8.18182E+00
 -1      7652 7.13292E+01 2.31763E+01 9.09091E+00
 -1      7653 6.68255E+01 3.40493E+01 9.09091E-01
 -1      7654 6.68255E+01 3.40493E+01 1.81818E+00
 -1      7655 6.68255E+01 3.40493E+01 2.72727E+00
 -1      7656 6.68255E+01 3.40493E+01 3.63636E+00
 -1      7657 6.68255E+01 3.40493E+01 4.54545E+00
 -1      7658 6.68255E+01 3.40493E+01 5.45455E+00
 -1      7659 6.68255E+01 3.40493E+01 6.36364E+00
 -1      7660 6.68255E+01 3.40493E+01 7.27273E+00
 -1      7661 6.68255E+01 3.40493E+01 8.18182E+00
 -1      7662 6.68255E+01 3.40493E+01 9.09091E+00
 -1      7663 6.06763E+01 4.40839E+01 9.09091E-01
 -1      7664 6.06763E+01 4.40839E+01 1.81818E+00
 -1      7665 6.06763E+01 4.40839E+01 2.72727E+00
 -1      7666 6.06763E+01 4.40839E+01 3.63636E+00
 -1      7667 6.06763E+01 4.40839E+01 4.54545E+00
 -1      7668 6.06763E+01 4.40839E+01 5.45455E+00
 -1      7669 6.06763E+01 4.40839E+01 6.36364E+00
 -1      7670 6.06763E+01 4.40839E+01 7.27273E+00
 -1      7671 6.06763E+01 4.40839E+01 8.18182E+00
 -1      7672 6.06763E+01 4.40839E+01 9.09091E+00
 -1      7673 5.30330E+01 5.30330E+01 9.09091E-01
 -1      7674 5.30330E+01 5.30330E+01 1.81818E+00
 -1      7675 5.30330E+01 5.30330E+01 2.72727E+00
 -1      7676 5.30330E+01 5.30330E+01 3.63636E+00
 -1      7677 5.30330E+01 5.30330E+01 4.54545E+00
 -1      7678 5.30330E+01 5.30330E+01 5.45455E+00
 -1      7679 5.30330E+01 5.30330E+01 6.36364E+00
 -1      7680 5.30330E+01 5.30330E+01 7.27273E+00
 -1      7681 5.30330E+01 5.30330E+01 8.18182E+00
 -1      7682 5.30330E+01 5.30330E+01 9.09091E+00
 -1      7683 4.40839E+01 6.06763E+01 9.09091E-01
 -1      7684 4.40839E+01 6.06763E+01 1.81818E+00
 -1      7685 4.40839E+01 6.06763E+01 2.72727E+00
 -1      7686 4.40839E+01 6.06763E+01 3.63636E+00
 -1      7687 4.40839E+01 6.06763E+01 4.54545E+00
 -1      7688 4.40839E+01 6.06763E+01 5.45455E+00
 -1      7689 4.40839E+01 6.06763E+01 6.36364E+00
 -1      7690 4.40839E+01 6.06763E+01 7.27273E+00
 -1      7691 4.40839E+01 6.06763E+01 8.18182E+00
 -1      7692 4.40839E+01 6.06763E+01 9.09091E+00
 -1      7693 3.40493E+01 6.68255E+01 9.09091E-01
 -1      7694 3.40493E+01 6.68255E+01 1.81818E+00
 -1      7695 3.40493E+01 6.68255E+01 2.72727E+00
 -1      7696 3.40493E+01 6.68255E+01 3.63636E+00
 -1      7697 3.40493E+01 6.68255E+01 4.54545E+00
 -1      7698 3.40493E+01 6.68255E+01 5.45455E+00
 -1      7699 3.40493E+01 6.68255E+01 6.36364E+00
 -1      7700 3.40493E+01 6.68255E+01 7.27273E+00
 -1      7701 3.40493E+01 6.68255E+01 8.18182E+00
 -1      7702 3.40493E+01 6.68255E+01 9.09091E+00
 -1      7703 2.31763E+01 7.13292E+01 9.09091E-01
 -1      7704 2.31763E+01 7.13292E+01 1.81818E+00
 -1      7705 2.31763E+01 7.13292E+01 2.72727E+00
 -1      7706 2.31763E+01 7.13292E+01 3.63636E+00
 -1      7707 2.31763E+01 7.13292E+01 4.54545E+00
 -1      7708 2.31763E+01 7.13292E+01 5.45455E+00
 -1      7709 2.31763E+01 7.13292E+01 6.36364E+00
 -1      7710 2.31763E+01 7.13292E+01 7.27273E+00
 -1      7711 2.31763E+01 7.13292E+01 8.18182E+00
 -1      7712 2.31763E+01 7.13292E+01 9.09091E+00
 -1      7713 1.17326E+01 7.40766E+01 9.09091E-01
 -1      7714 1.17326E+01 7.40766E+01 1.81818E+00
 -1      7715 1.17326E+01 7.40766E+01 2.72727E+00
 -1      7716 1.17326E+01 7.40766E+01 3.63636E+00
 -1      7717 1.17326E+01 7.40766E+01 4.54545E+00
 -1      7718 1.17326E+01 7.40766E+01 5.45455E+00
 -1      7719 1.17326E+01 7.40766E+01 6.36364E+00
 -1      7720 1.17326E+01 7.40766E+01 7.27273E+00
 -1      7721 1.17326E+01 7.40766E+01 8.18182E+00
 -1      7722 1.17326E+01 7.40766E+01 9.09091E+00
 -1      7723 7.65458E+01 1.21237E+01 9.09091E-01
 -1      7724 7.65458E+01 1.21237E+01 1.81818E+00
 -1      7725 7.65458E+01 1.21237E+01 2.72727E+00
 -1      7726 7.65458E+01 1.21237E+01 3.63636E+00
 -1      7727 7.65458E+01 1.21237E+01 4.54545E+00
 -1      7728 7.65458E+01 1.21237E+01 5.45455E+00
 -1      7729 7.65458E+01 1.21237E+01 6.36364E+00
 -1      7730 7.65458E+01 1.21237E+01 7.27273E+00
 -1      7731 7.65458E+01 1.21237E+01 8.18182E+00
 -1      7732 7.65458E+01 1.21237E+01 9.09091E+00
 -1      7733 7.37069E+01 2.39488E+01 9.09091E-01
 -1      7734 7.37069E+01 2.39488E+01 1.81818E+00
 -1      7735 7.37069E+01 2.39488E+01 2.72727E+00
 -1      7736 7.37069E+01 2.39488E+01 3.63636E+00
 -1      7737 7.37069E+01 2.39488E+01 4.54545E+00
 -1      7738 7.37069E+01 2.39488E+01 5.45455E+00
 -1      7739 7.37069E+01 2.39488E+01 6.36364E+00
 -1      7740 7.37069E+01 2.39488E+01 7.27273E+00
 -1      7741 7.37069E+01 2.39488E+01 8.18182E+00
 -1      7742 7.37069E+01 2.39488E+01 9.09091E+00
 -1      7743 6.90530E+01 3.51843E+01 9.09091E-01
 -1      7744 6.90530E+01 3.51843E+01 1.81818E+00
 -1      7745 6.90530E+01 3.51843E+01 2.72727E+00
 -1      7746 6.90530E+01 3.51843E+01 3.63636E+00
 -1      7747 6.90530E+01 3.51843E+01 4.54545E+00
 -1      7748 6.90530E+01 3.51843E+01 5.45455E+00
 -1      7749 6.90530E+01 3.51843E+01 6.36364E+00
 -1      7750 6.90530E+01 3.51843E+01 7.27273E+00
 -1      7751 6.90530E+01 3.51843E+01 8.18182E+00
 -1      7752 6.90530E+01 3.51843E+01 9.09091E+00
 -1      7753 6.26988E+01 4.55534E+01 9.09091E-01
 -1      7754 6.26988E+01 4.55534E+01 1.81818E+00
 -1      7755 6.26988E+01 4.55534E+01 2.72727E+00
 -1      7756 6.26988E+01 4.55534E+01 3.63636E+00
 -1      7757 6.26988E+01 4.55534E+01 4.54545E+00
 -1      7758 6.26988E+01 4.55534E+01 5.45455E+00
 -1      7759 6.26988E+01 4.55534E+01 6.36364E+00
 -1      7760 6.26988E+01 4.55534E+01 7.27273E+00
 -1      7761 6.26988E+01 4.55534E+01 8.18182E+00
 -1      7762 6.26988E+01 4.55534E+01 9.09091E+00
 -1      7763 5.48008E+01 5.48008E+01 9.09091E-01
 -1      7764 5.48008E+01 5.48008E+01 1.81818E+00
 -1      7765 5.48008E+01 5.48008E+01 2.72727E+00
 -1      7766 5.48008E+01 5.48008E+01 3.63636E+00
 -1      7767 5.48008E+01 5.48008E+01 4.54545E+00
 -1      7768 5.48008E+01 5.48008E+01 5.45455E+00
 -1      7769 5.48008E+01 5.48008E+01 6.36364E+00
 -1      7770 5.48008E+01 5.48008E+01 7.27273E+00
 -1      7771 5.48008E+01 5.48008E+01 8.18182E+00
 -1      7772 5.48008E+01 5.48008E+01 9.09091E+00
 -1      7773 4.55534E+01 6.26988E+01 9.09091E-01
 -1      7774 4.55534E+01 6.26988E+01 1.81818E+00
 -1      7775 4.55534E+01 6.26988E+01 2.72727E+00
 -1      7776 4.55534E+01 6.26988E+01 3.63636E+00
 -1      7777 4.55534E+01 6.26988E+01 4.54545E+00
 -1      7778 4.55534E+01 6.26988E+01 5.45455E+00
 -1      7779 4.55534E+01 6.26988E+01 6.36364E+00
 -1      7780 4.55534E+01 6.26988E+01 7.27273E+00
 -1      7781 4.55534E+01 6.26988E+01 8.18182E+00
 -1      7782 4.55534E+01 6.26988E+01 9.09091E+00
 -1      7783 3.51843E+01 6.90530E+01 9.09091E-01
 -1      7784 3.51843E+01 6.90530E+01 1.81818E+00
 -1      7785 3.51843E+01 6.90530E+01 2.72727E+00
 -1      7786 3.51843E+01 6.90530E+01 3.63636E+00
 -1      7787 3.51843E+01 6.90530E+01 4.54545E+00
 -1      7788 3.51843E+01 6.90530E+01 5.45455E+00
 -1      7789 3.51843E+01 6.90530E+01 6.36364E+00
 -1      7790 3.51843E+01 6.90530E+01 7.27273E+00
 -1      7791 3.51843E+01 6.90530E+01 8.18182E+00
 -1      7792 3.51843E+01 6.90530E+01 9.09091E+00
 -1      7793 2.39488E+01 7.37069E+01 9.09091E-01
 -1      7794 2.39488E+01 7.37069E+01 1.81818E+00
 -1      7795 2.39488E+01 7.37069E+01 2.72727E+00
 -1      7796 2.39488E+01 7.37069E+01 3.63636E+00
 -1      7797 2.39488E+01 7.37069E+01 4.54545E+00
 -1      7798 2.39488E+01 7.37069E+01 5.45455E+00
 -1      7799 2.39488E+01 7.37069E+01 6.36364E+00
 -1      7800 2.39488E+01 7.37069E+01 7.27273E+00
 -1      7801 2.39488E+01 7.37069E+01 8.18182E+00
 -1      7802 2.39488E+01 7.37069E+01 9.09091E+00
 -1      7803 1.21237E+01 7.65458E+01 9.09091E-01
 -1      7804 1.21237E+01 7.65458E+01 1.81818E+00
 -1      7805 1.21237E+01 7.65458E+01 2.72727E+00
 -1      7806 1.21237E+01 7.65458E+01 3.63636E+00
 -1      7807 1.21237E+01 7.65458E+01 4.54545E+00
 -1      7808 1.21237E+01 7.65458E+01 5.45455E+00
 -1      7809 1.21237E+01 7.65458E+01 6.36364E+00
 -1      7810 1.21237E+01 7.65458E+01 7.27273E+00
 -1      7811 1.21237E+01 7.65458E+01 8.18182E+00
 -1      7812 1.21237E+01 7.65458E+01 9.09091E+00
 -1      7813 7.90151E+01 1.25148E+01 9.09091E-01
 -1      7814 7.90151E+01 1.25148E+01 1.81818E+00
 -1      7815 7.90151E+01 1.25148E+01 2.72727E+00
 -1      7816 7.90151E+01 1.25148E+01 3.63636E+00
 -1      7817 7.90151E+01 1.25148E+01 4.54545E+00
 -1      7818 7.90151E+01 1.25148E+01 5.45455E+00
 -1      7819 7.90151E+01 1.25148E+01 6.36364E+00
 -1      7820 7.90151E+01 1.25148E+01 7.27273E+00
 -1      7821 7.90151E+01 1.25148E+01 8.18182E+00
 -1      7822 7.90151E+01 1.25148E+01 9.09091E+00
 -1      7823 7.60845E+01 2.47214E+01 9.09091E-01
 -1      7824 7.60845E+01 2.47214E+01 1.81818E+00
 -1      7825 7.60845E+01 2.47214E+01 2.72727E+00
 -1      7826 7.60845E+01 2.47214E+01 3.63636E+00
 -1      7827 7.60845E+01 2.47214E+01 4.54545E+00
 -1      7828 7.60845E+01 2.47214E+01 5.45455E+00
 -1      7829 7.60845E+01 2.47214E+01 6.36364E+00
 -1      7830 7.60845E+01 2.47214E+01 7.27273E+00
 -1      7831 7.60845E+01 2.47214E+01 8.18182E+00
 -1      7832 7.60845E+01 2.47214E+01 9.09091E+00
 -1      7833 7.12805E+01 3.63192E+01 9.09091E-01
 -1      7834 7.12805E+01 3.63192E+01 1.81818E+00
 -1      7835 7.12805E+01 3.63192E+01 2.72727E+00
 -1      7836 7.12805E+01 3.63192E+01 3.63636E+00
 -1      7837 7.12805E+01 3.63192E+01 4.54545E+00
 -1      7838 7.12805E+01 3.63192E+01 5.45455E+00
 -1      7839 7.12805E+01 3.63192E+01 6.36364E+00
 -1      7840 7.12805E+01 3.63192E+01 7.27273E+00
 -1      7841 7.12805E+01 3.63192E+01 8.18182E+00
 -1      7842 7.12805E+01 3.63192E+01 9.09091E+00
 -1      7843 6.47214E+01 4.70228E+01 9.09091E-01
 -1      7844 6.47214E+01 4.70228E+01 1.81818E+00
 -1      7845 6.47214E+01 4.70228E+01 2.72727E+00
 -1      7846 6.47214E+01 4.70228E+01 3.63636E+00
 -1      7847 6.47214E+01 4.70228E+01 4.54545E+00
 -1      7848 6.47214E+01 4.70228E+01 5.45455E+00
 -1      7849 6.47214E+01 4.70228E+01 6.36364E+00
 -1      7850 6.47214E+01 4.70228E+01 7.27273E+00
 -1      7851 6.47214E+01 4.70228E+01 8.18182E+00
 -1      7852 6.47214E+01 4.70228E+01 9.09091E+00
 -1      7853 5.65685E+01 5.65685E+01 9.09091E-01
 -1      7854 5.65685E+01 5.65685E+01 1.81818E+00
 -1      7855 5.65685E+01 5.65685E+01 2.72727E+00
 -1      7856 5.65685E+01 5.65685E+01 3.63636E+00
 -1      7857 5.65685E+01 5.65685E+01 4.54545E+00
 -1      7858 5.65685E+01 5.65685E+01 5.45455E+00
 -1      7859 5.65685E+01 5.65685E+01 6.36364E+00
 -1      7860 5.65685E+01 5.65685E+01 7.27273E+00
 -1      7861 5.65685E+01 5.65685E+01 8.18182E+00
 -1      7862 5.65685E+01 5.65685E+01 9.09091E+00
 -1      7863 4.70228E+01 6.47214E+01 9.09091E-01
 -1      7864 4.70228E+01 6.47214E+01 1.81818E+00
 -1      7865 4.70228E+01 6.47214E+01 2.72727E+00
 -1      7866 4.70228E+01 6.47214E+01 3.63636E+00
 -1      7867 4.70228E+01 6.47214E+01 4.54545E+00
 -1      7868 4.70228E+01 6.47214E+01 5.45455E+00
 -1      7869 4.70228E+01 6.47214E+01 6.36364E+00
 -1      7870 4.70228E+01 6.47214E+01 7.27273E+00
 -1      7871 4.70228E+01 6.47214E+01 8.18182E+00
 -1      7872 4.70228E+01 6.47214E+01 9.09091E+00
 -1      7873 3.63192E+01 7.12805E+01 9.09091E-01
 -1      7874 3.63192E+01 7.12805E+01 1.81818E+00
 -1      7875 3.63192E+01 7.12805E+01 2.72727E+00
 -1      7876 3.63192E+01 7.12805E+01 3.63636E+00
 -1      7877 3.63192E+01 7.12805E+01 4.54545E+00
 -1      7878 3.63192E+01 7.12805E+01 5.45455E+00
 -1      7879 3.63192E+01 7.12805E+01 6.36364E+00
 -1      7880 3.63192E+01 7.12805E+01 7.27273E+00
 -1      7881 3.63192E+01 7.12805E+01 8.18182E+00
 -1      7882 3.63192E+01 7.12805E+01 9.09091E+00
 -1      7883 2.47214E+01 7.60845E+01 9.09091E-01
 -1      7884 2.47214E+01 7.60845E+01 1.81818E+00
 -1      7885 2.47214E+01 7.60845E+01 2.72727E+00
 -1      7886 2.47214E+01 7.60845E+01 3.63636E+00
 -1      7887 2.47214E+01 7.60845E+01 4.54545E+00
 -1      7888 2.47214E+01 7.60845E+01 5.45455E+00
 -1      7889 2.47214E+01 7.60845E+01 6.36364E+00
 -1      7890 2.47214E+01 7.60845E+01 7.27273E+00
 -1      7891 2.47214E+01 7.60845E+01 8.18182E+00
 -1      7892 2.47214E+01 7.60845E+01 9.09091E+00
 -1      7893 1.25148E+01 7.90151E+01 9.09091E-01
 -1      7894 1.25148E+01 7.90151E+01 1.81818E+00
 -1      7895 1.25148E+01 7.90151E+01 2.72727E+00
 -1      7896 1.25148E+01 7.90151E+01 3.63636E+00
 -1      7897 1.25148E+01 7.90151E+01 4.54545E+00
 -1      7898 1.25148E+01 7.90151E+01 5.45455E+00
 -1      7899 1.25148E+01 7.90151E+01 6.36364E+00
 -1      7900 1.25148E+01 7.90151E+01 7.27273E+00
 -1      7901 1.25148E+01 7.90151E+01 8.18182E+00
 -1      7902 1.25148E+01 7.90151E+01 9.09091E+00
 -1      7903 8.14843E+01 1.29058E+01 9.09091E-01
 -1      7904 8.14843E+01 1.29058E+01 1.81818E+00
 -1      7905 8.14843E+01 1.29058E+01 2.72727E+00
 -1      7906 8.14843E+01 1.29058E+01 3.63636E+00
 -1      7907 8.14843E+01 1.29058E+01 4.54545E+00
 -1      7908 8.14843E+01 1.29058E+01 5.45455E+00
 -1      7909 8.14843E+01 1.29058E+01 6.36364E+00
 -1      7910 8.14843E+01 1.29058E+01 7.27273E+00
 -1      7911 8.14843E+01 1.29058E+01 8.18182E+00
 -1      7912 8.14843E+01 1.29058E+01 9.09091E+00
 -1      7913 7.84622E+01 2.54939E+01 9.09091E-01
 -1      7914 7.84622E+01 2.54939E+01 1.81818E+00
 -1      7915 7.84622E+01 2.54939E+01 2.72727E+00
 -1      7916 7.84622E+01 2.54939E+01 3.63636E+00
 -1      7917 7.84622E+01 2.54939E+01 4.54545E+00
 -1      7918 7.84622E+01 2.54939E+01 5.45455E+00
 -1      7919 7.84622E+01 2.54939E+01 6.36364E+00
 -1      7920 7.84622E+01 2.54939E+01 7.27273E+00
 -1      7921 7.84622E+01 2.54939E+01 8.18182E+00
 -1      7922 7.84622E+01 2.54939E+01 9.09091E+00
 -1      7923 7.35080E+01 3.74542E+01 9.09091E-01
 -1      7924 7.35080E+01 3.74542E+01 1.81818E+00
 -1      7925 7.35080E+01 3.74542E+01 2.72727E+00
 -1      7926 7.35080E+01 3.74542E+01 3.63636E+00
 -1      7927 7.35080E+01 3.74542E+01 4.54545E+00
 -1      7928 7.35080E+01 3.74542E+01 5.45455E+00
 -1      7929 7.35080E+01 3.74542E+01 6.36364E+00
 -1      7930 7.35080E+01 3.74542E+01 7.27273E+00
 -1      7931 7.35080E+01 3.74542E+01 8.18182E+00
 -1      7932 7.35080E+01 3.74542E+01 9.09091E+00
 -1      7933 6.67439E+01 4.84923E+01 9.09091E-01
 -1      7934 6.67439E+01 4.84923E+01 1.81818E+00
 -1      7935 6.67439E+01 4.84923E+01 2.72727E+00
 -1      7936 6.67439E+01 4.84923E+01 3.63636E+00
 -1      7937 6.67439E+01 4.84923E+01 4.54545E+00
 -1      7938 6.67439E+01 4.84923E+01 5.45455E+00
 -1      7939 6.67439E+01 4.84923E+01 6.36364E+00
 -1      7940 6.67439E+01 4.84923E+01 7.27273E+00
 -1      7941 6.67439E+01 4.84923E+01 8.18182E+00
 -1      7942 6.67439E+01 4.84923E+01 9.09091E+00
 -1      7943 5.83363E+01 5.83363E+01 9.09091E-01
 -1      7944 5.83363E+01 5.83363E+01 1.81818E+00
 -1      7945 5.83363E+01 5.83363E+01 2.72727E+00
 -1      7946 5.83363E+01 5.83363E+01 3.63636E+00
 -1      7947 5.83363E+01 5.83363E+01 4.54545E+00
 -1      7948 5.83363E+01 5.83363E+01 5.45455E+00
 -1      7949 5.83363E+01 5.83363E+01 6.36364E+00
 -1      7950 5.83363E+01 5.83363E+01 7.27273E+00
 -1      7951 5.83363E+01 5.83363E+01 8.18182E+00
 -1      7952 5.83363E+01 5.83363E+01 9.09091E+00
 -1      7953 4.84923E+01 6.67439E+01 9.09091E-01
 -1      7954 4.84923E+01 6.67439E+01 1.81818E+00
 -1      7955 4.84923E+01 6.67439E+01 2.72727E+00
 -1      7956 4.84923E+01 6.67439E+01 3.63636E+00
 -1      7957 4.84923E+01 6.67439E+01 4.54545E+00
 -1      7958 4.84923E+01 6.67439E+01 5.45455E+00
 -1      7959 4.84923E+01 6.67439E+01 6.36364E+00
 -1      7960 4.84923E+01 6.67439E+01 7.27273E+00
 -1      7961 4.84923E+01 6.67439E+01 8.18182E+00
 -1      7962 4.84923E+01 6.67439E+01 9.09091E+00
 -1      7963 3.74542E+01 7.35080E+01 9.09091E-01
 -1      7964 3.74542E+01 7.35080E+01 1.81818E+00
 -1      7965 3.74542E+01 7.35080E+01 2.72727E+00
 -1      7966 3.74542E+01 7.35080E+01 3.63636E+00
 -1      7967 3.74542E+01 7.35080E+01 4.54545E+00
 -1      7968 3.74542E+01 7.35080E+01 5.45455E+00
 -1      7969 3.74542E+01 7.35080E+01 6.36364E+00
 -1      7970 3.74542E+01 7.35080E+01 7.27273E+00
 -1      7971 3.74542E+01 7.35080E+01 8.18182E+00
 -1      7972 3.74542E+01 7.35080E+01 9.09091E+00
 -1      7973 2.54939E+01 7.84622E+01 9.09091E-01
 -1      7974 2.54939E+01 7.84622E+01 1.81818E+00
 -1      7975 2.54939E+01 7.84622E+01 2.72727E+00
 -1      7976 2.54939E+01 7.84622E+01 3.63636E+00
 -1      7977 2.54939E+01 7.84622E+01 4.54545E+00
 -1      7978 2.54939E+01 7.84622E+01 5.45455E+00
 -1      7979 2.54939E+01 7.84622E+01 6.36364E+00
 -1      7980 2.54939E+01 7.84622E+01 7.27273E+00
 -1      7981 2.54939E+01 7.84622E+01 8.18182E+00
 -1      7982 2.54939E+01 7.84622E+01 9.09091E+00
 -1      7983 1.29058E+01 8.14843E+01 9.09091E-01
 -1      7984 1.29058E+01 8.14843E+01 1.81818E+00
 -1      7985 1.29058E+01 8.14843E+01 2.72727E+00
 -1      7986 1.29058E+01 8.14843E+01 3.63636E+00
 -1      7987 1.29058E+01 8.14843E+01 4.54545E+00
 -1      7988 1.29058E+01 8.14843E+01 5.45455E+00
 -1      7989 1.29058E+01 8.14843E+01 6.36364E+00
 -1      7990 1.29058E+01 8.14843E+01 7.27273E+00
 -1      7991 1.29058E+01 8.14843E+01 8.18182E+00
 -1      7992 1.29058E+01 8.14843E+01 9.09091E+00
 -1      7993 8.39535E+01 1.32969E+01 9.09091E-01
 -1      7994 8.39535E+01 1.32969E+01 1.81818E+00
 -1      7995 8.39535E+01 1.32969E+01 2.72727E+00
 -1      7996 8.39535E+01 1.32969E+01 3.63636E+00
 -1      7997 8.39535E+01 1.32969E+01 4.54545E+00
 -1      7998 8.39535E+01 1.32969E+01 5.45455E+00
 -1      7999 8.39535E+01 1.32969E+01 6.36364E+00
 -1      8000 8.39535E+01 1.32969E+01 7.27273E+00
 -1      8001 8.39535E+01 1.32969E+01 8.18182E+00
 -1      8002 8.39535E+01 1.32969E+01 9.09091E+00
 -1      8003 8.08398E+01 2.62664E+01 9.09091E-01
 -1      8004 8.08398E+01 2.62664E+01 1.81818E+00
 -1      8005 8.08398E+01 2.62664E+01 2.72727E+00
 -1      8006 8.08398E+01 2.62664E+01 3.63636E+00
 -1      8007 8.08398E+01 2.62664E+01 4.54545E+00
 -1      8008 8.08398E+01 2.62664E+01 5.45455E+00
 -1      8009 8.08398E+01 2.62664E+01 6.36364E+00
 -1      8010 8.08398E+01 2.62664E+01 7.27273E+00
 -1      8011 8.08398E+01 2.62664E+01 8.18182E+00
 -1      8012 8.08398E+01 2.62664E+01 9.09091E+00
 -1      8013 7.57356E+01 3.85892E+01 9.09091E-01
 -1      8014 7.57356E+01 3.85892E+01 1.81818E+00
 -1      8015 7.57356E+01 3.85892E+01 2.72727E+00
 -1      8016 7.57356E+01 3.85892E+01 3.63636E+00
 -1      8017 7.57356E+01 3.85892E+01 4.54545E+00
 -1      8018 7.57356E+01 3.85892E+01 5.45455E+00
 -1      8019 7.57356E+01 3.85892E+01 6.36364E+00
 -1      8020 7.57356E+01 3.85892E+01 7.27273E+00
 -1      8021 7.57356E+01 3.85892E+01 8.18182E+00
 -1      8022 7.57356E+01 3.85892E+01 9.09091E+00
 -1      8023 6.87664E+01 4.99617E+01 9.09091E-01
 -1      8024 6.87664E+01 4.99617E+01 1.81818E+00
 -1      8025 6.87664E+01 4.99617E+01 2.72727E+00
 -1      8026 6.87664E+01 4.99617E+01 3.63636E+00
 -1      8027 6.87664E+01 4.99617E+01 4.54545E+00
 -1      8028 6.87664E+01 4.99617E+01 5.45455E+00
 -1      8029 6.87664E+01 4.99617E+01 6.36364E+00
 -1      8030 6.87664E+01 4.99617E+01 7.27273E+00
 -1      8031 6.87664E+01 4.99617E+01 8.18182E+00
 -1      8032 6.87664E+01 4.99617E+01 9.09091E+00
 -1      8033 6.01041E+01 6.01041E+01 9.09091E-01
 -1      8034 6.01041E+01 6.01041E+01 1.81818E+00
 -1      8035 6.01041E+01 6.01041E+01 2.72727E+00
 -1      8036 6.01041E+01 6.01041E+01 3.63636E+00
 -1      8037 6.01041E+01 6.01041E+01 4.54545E+00
 -1      8038 6.01041E+01 6.01041E+01 5.45455E+00
 -1      8039 6.01041E+01 6.01041E+01 6.36364E+00
 -1      8040 6.01041E+01 6.01041E+01 7.27273E+00
 -1      8041 6.01041E+01 6.01041E+01 8.18182E+00
 -1      8042 6.01041E+01 6.01041E+01 9.09091E+00
 -1      8043 4.99617E+01 6.87664E+01 9.09091E-01
 -1      8044 4.99617E+01 6.87664E+01 1.81818E+00
 -1      8045 4.99617E+01 6.87664E+01 2.72727E+00
 -1      8046 4.99617E+01 6.87664E+01 3.63636E+00
 -1      8047 4.99617E+01 6.87664E+01 4.54545E+00
 -1      8048 4.99617E+01 6.87664E+01 5.45455E+00
 -1      8049 4.99617E+01 6.87664E+01 6.36364E+00
 -1      8050 4.99617E+01 6.87664E+01 7.27273E+00
 -1      8051 4.99617E+01 6.87664E+01 8.18182E+00
 -1      8052 4.99617E+01 6.87664E+01 9.09091E+00
 -1      8053 3.85892E+01 7.57356E+01 9.09091E-01
 -1      8054 3.85892E+01 7.57356E+01 1.81818E+00
 -1      8055 3.85892E+01 7.57356E+01 2.72727E+00
 -1      8056 3.85892E+01 7.57356E+01 3.63636E+00
 -1      8057 3.85892E+01 7.57356E+01 4.54545E+00
 -1      8058 3.85892E+01 7.57356E+01 5.45455E+00
 -1      8059 3.85892E+01 7.57356E+01 6.36364E+00
 -1      8060 3.85892E+01 7.57356E+01 7.27273E+00
 -1      8061 3.85892E+01 7.57356E+01 8.18182E+00
 -1      8062 3.85892E+01 7.57356E+01 9.09091E+00
 -1      8063 2.62664E+01 8.08398E+01 9.09091E-01
 -1      8064 2.62664E+01 8.08398E+01 1.81818E+00
 -1      8065 2.62664E+01 8.08398E+01 2.72727E+00
 -1      8066 2.62664E+01 8.08398E+01 3.63636E+00
 -1      8067 2.62664E+01 8.08398E+01 4.54545E+00
 -1      8068 2.62664E+01 8.08398E+01 5.45455E+00
 -1      8069 2.62664E+01 8.08398E+01 6.36364E+00
 -1      8070 2.62664E+01 8.08398E+01 7.27273E+00
 -1      8071 2.62664E+01 8.08398E+01 8.18182E+00
 -1      8072 2.62664E+01 8.08398E+01 9.09091E+00
 -1      8073 1.32969E+01 8.39535E+01 9.09091E-01
 -1      8074 1.32969E+01 8.39535E+01 1.81818E+00
 -1      8075 1.32969E+01 8.39535E+01 2.72727E+00
 -1      8076 1.32969E+01 8.39535E+01 3.63636E+00
 -1      8077 1.32969E+01 8.39535E+01 4.54545E+00
 -1      8078 1.32969E+01 8.39535E+01 5.45455E+00
 -1      8079 1.32969E+01 8.39535E+01 6.36364E+00
 -1      8080 1.32969E+01 8.39535E+01 7.27273E+00
 -1      8081 1.32969E+01 8.39535E+01 8.18182E+00
 -1      8082 1.32969E+01 8.39535E+01 9.09091E+00
 -1      8083 8.64227E+01 1.36880E+01 9.09091E-01
 -1      8084 8.64227E+01 1.36880E+01 1.81818E+00
 -1      8085 8.64227E+01 1.36880E+01 2.72727E+00
 -1      8086 8.64227E+01 1.36880E+01 3.63636E+00
 -1      8087 8.64227E+01 1.36880E+01 4.54545E+00
 -1      8088 8.64227E+01 1.36880E+01 5.45455E+00
 -1      8089 8.64227E+01 1.36880E+01 6.36364E+00
 -1      8090 8.64227E+01 1.36880E+01 7.27273E+00
 -1      8091 8.64227E+01 1.36880E+01 8.18182E+00
 -1      8092 8.64227E+01 1.36880E+01 9.09091E+00
 -1      8093 8.32174E+01 2.70390E+01 9.09091E-01
 -1      8094 8.32174E+01 2.70390E+01 1.81818E+00
 -1      8095 8.32174E+01 2.70390E+01 2.72727E+00
 -1      8096 8.32174E+01 2.70390E+01 3.63636E+00
 -1      8097 8.32174E+01 2.70390E+01 4.54545E+00
 -1      8098 8.32174E+01 2.70390E+01 5.45455E+00
 -1      8099 8.32174E+01 2.70390E+01 6.36364E+00
 -1      8100 8.32174E+01 2.70390E+01 7.27273E+00
 -1      8101 8.32174E+01 2.70390E+01 8.18182E+00
 -1      8102 8.32174E+01 2.70390E+01 9.09091E+00
 -1      8103 7.79631E+01 3.97242E+01 9.09091E-01
 -1      8104 7.79631E+01 3.97242E+01 1.81818E+00
 -1      8105 7.79631E+01 3.97242E+01 2.72727E+00
 -1      8106 7.79631E+01 3.97242E+01 3.63636E+00
 -1      8107 7.79631E+01 3.97242E+01 4.54545E+00
 -1      8108 7.79631E+01 3.97242E+01 5.45455E+00
 -1      8109 7.79631E+01 3.97242E+01 6.36364E+00
 -1      8110 7.79631E+01 3.97242E+01 7.27273E+00
 -1      8111 7.79631E+01 3.97242E+01 8.18182E+00
 -1      8112 7.79631E+01 3.97242E+01 9.09091E+00
 -1      8113 7.07890E+01 5.14312E+01 9.09091E-01
 -1      8114 7.07890E+01 5.14312E+01 1.81818E+00
 -1      8115 7.07890E+01 5.14312E+01 2.72727E+00
 -1      8116 7.07890E+01 5.14312E+01 3.63636E+00
 -1      8117 7.07890E+01 5.14312E+01 4.54545E+00
 -1      8118 7.07890E+01 5.14312E+01 5.45455E+00
 -1      8119 7.07890E+01 5.14312E+01 6.36364E+00
 -1      8120 7.07890E+01 5.14312E+01 7.27273E+00
 -1      8121 7.07890E+01 5.14312E+01 8.18182E+00
 -1      8122 7.07890E+01 5.14312E+01 9.09091E+00
 -1      8123 6.18718E+01 6.18718E+01 9.09091E-01
 -1      8124 6.18718E+01 6.18718E+01 1.81818E+00
 -1      8125 6.18718E+01 6.18718E+01 2.72727E+00
 -1      8126 6.18718E+01 6.18718E+01 3.63636E+00
 -1      8127 6.18718E+01 6.18718E+01 4.54545E+00
 -1      8128 6.18718E+01 6.18718E+01 5.45455E+00
 -1      8129 6.18718E+01 6.18718E+01 6.36364E+00
 -1      8130 6.18718E+01 6.18718E+01 7.27273E+00
 -1      8131 6.18718E+01 6.18718E+01 8.18182E+00
 -1      8132 6.18718E+01 6.18718E+01 9.09091E+00
 -1      8133 5.14312E+01 7.07890E+01 9.09091E-01
 -1      8134 5.14312E+01 7.07890E+01 1.81818E+00
 -1      8135 5.14312E+01 7.07890E+01 2.72727E+00
 -1      8136 5.14312E+01 7.07890E+01 3.63636E+00
 -1      8137 5.14312E+01 7.07890E+01 4.54545E+00
 -1      8138 5.14312E+01 7.07890E+01 5.45455E+00
 -1      8139 5.14312E+01 7.07890E+01 6.36364E+00
 -1      8140 5.14312E+01 7.07890E+01 7.27273E+00
 -1      8141 5.14312E+01 7.07890E+01 8.18182E+00
 -1      8142 5.14312E+01 7.07890E+01 9.09091E+00
 -1      8143 3.97242E+01 7.79631E+01 9.09091E-01
 -1      8144 3.97242E+01 7.79631E+01 1.81818E+00
 -1      8145 3.97242E+01 7.79631E+01 2.72727E+00
 -1      8146 3.97242E+01 7.79631E+01 3.63636E+00
 -1      8147 3.97242E+01 7.79631E+01 4.54545E+00
 -1      8148 3.97242E+01 7.79631E+01 5.45455E+00
 -1      8149 3.97242E+01 7.79631E+01 6.36364E+00
 -1      8150 3.97242E+01 7.79631E+01 7.27273E+00
 -1      8151 3.97242E+01 7.79631E+01 8.18182E+00
 -1      8152 3.97242E+01 7.79631E+01 9.09091E+00
 -1      8153 2.70390E+01 8.32174E+01 9.09091E-01
 -1      8154 2.70390E+01 8.32174E+01 1.81818E+00
 -1      8155 2.70390E+01 8.32174E+01 2.72727E+00
 -1      8156 2.70390E+01 8.32174E+01 3.63636E+00
 -1      8157 2.70390E+01 8.32174E+01 4.54545E+00
 -1      8158 2.70390E+01 8.32174E+01 5.45455E+00
 -1      8159 2.70390E+01 8.32174E+01 6.36364E+00
 -1      8160 2.70390E+01 8.32174E+01 7.27273E+00
 -1      8161 2.70390E+01 8.32174E+01 8.18182E+00
 -1      8162 2.70390E+01 8.32174E+01 9.09091E+00
 -1      8163 1.36880E+01 8.64227E+01 9.09091E-01
 -1      8164 1.36880E+01 8.64227E+01 1.81818E+00
 -1      8165 1.36880E+01 8.64227E+01 2.72727E+00
 -1      8166 1.36880E+01 8.64227E+01 3.63636E+00
 -1      8167 1.36880E+01 8.64227E+01 4.54545E+00
 -1      8168 1.36880E+01 8.64227E+01 5.45455E+00
 -1      8169 1.36880E+01 8.64227E+01 6.36364E+00
 -1      8170 1.36880E+01 8.64227E+01 7.27273E+00
 -1      8171 1.36880E+01 8.64227E+01 8.18182E+00
 -1      8172 1.36880E+01 8.64227E+01 9.09091E+00
 -1      8173 8.88920E+01 1.40791E+01 9.09091E-01
 -1      8174 8.88920E+01 1.40791E+01 1.81818E+00
 -1      8175 8.88920E+01 1.40791E+01 2.72727E+00
 -1      8176 8.88920E+01 1.40791E+01 3.63636E+00
 -1      8177 8.88920E+01 1.40791E+01 4.54545E+00
 -1      8178 8.88920E+01 1.40791E+01 5.45455E+00
 -1      8179 8.88920E+01 1.40791E+01 6.36364E+00
 -1      8180 8.88920E+01 1.40791E+01 7.27273E+00
 -1      8181 8.88920E+01 1.40791E+01 8.18182E+00
 -1      8182 8.88920E+01 1.40791E+01 9.09091E+00
 -1      8183 8.55951E+01 2.78115E+01 9.09091E-01
 -1      8184 8.55951E+01 2.78115E+01 1.81818E+00
 -1      8185 8.55951E+01 2.78115E+01 2.72727E+00
 -1      8186 8.55951E+01 2.78115E+01 3.63636E+00
 -1      8187 8.55951E+01 2.78115E+01 4.54545E+00
 -1      8188 8.55951E+01 2.78115E+01 5.45455E+00
 -1      8189 8.55951E+01 2.78115E+01 6.36364E+00
 -1      8190 8.55951E+01 2.78115E+01 7.27273E+00
 -1      8191 8.55951E+01 2.78115E+01 8.18182E+00
 -1      8192 8.55951E+01 2.78115E+01 9.09091E+00
 -1      8193 8.01906E+01 4.08591E+01 9.09091E-01
 -1      8194 8.01906E+01 4.08591E+01 1.81818E+00
 -1      8195 8.01906E+01 4.08591E+01 2.72727E+00
 -1      8196 8.01906E+01 4.08591E+01 3.63636E+00
 -1      8197 8.01906E+01 4.08591E+01 4.54545E+00
 -1      8198 8.01906E+01 4.08591E+01 5.45455E+00
 -1      8199 8.01906E+01 4.08591E+01 6.36364E+00
 -1      8200 8.01906E+01 4.08591E+01 7.27273E+00
 -1      8201 8.01906E+01 4.08591E+01 8.18182E+00
 -1      8202 8.01906E+01 4.08591E+01 9.09091E+00
 -1      8203 7.28115E+01 5.29007E+01 9.09091E-01
 -1      8204 7.28115E+01 5.29007E+01 1.81818E+00
 -1      8205 7.28115E+01 5.29007E+01 2.72727E+00
 -1      8206 7.28115E+01 5.29007E+01 3.63636E+00
 -1      8207 7.28115E+01 5.29007E+01 4.54545E+00
 -1      8208 7.28115E+01 5.29007E+01 5.45455E+00
 -1      8209 7.28115E+01 5.29007E+01 6.36364E+00
 -1      8210 7.28115E+01 5.29007E+01 7.27273E+00
 -1      8211 7.28115E+01 5.29007E+01 8.18182E+00
 -1      8212 7.28115E+01 5.29007E+01 9.09091E+00
 -1      8213 6.36396E+01 6.36396E+01 9.09091E-01
 -1      8214 6.36396E+01 6.36396E+01 1.81818E+00
 -1      8215 6.36396E+01 6.36396E+01 2.72727E+00
 -1      8216 6.36396E+01 6.36396E+01 3.63636E+00
 -1      8217 6.36396E+01 6.36396E+01 4.54545E+00
 -1      8218 6.36396E+01 6.36396E+01 5.45455E+00
 -1      8219 6.36396E+01 6.36396E+01 6.36364E+00
 -1      8220 6.36396E+01 6.36396E+01 7.27273E+00
 -1      8221 6.36396E+01 6.36396E+01 8.18182E+00
 -1      8222 6.36396E+01 6.36396E+01 9.09091E+00
 -1      8223 5.29007E+01 7.28115E+01 9.09091E-01
 -1      8224 5.29007E+01 7.28115E+01 1.81818E+00
 -1      8225 5.29007E+01 7.28115E+01 2.72727E+00
 -1      8226 5.29007E+01 7.28115E+01 3.63636E+00
 -1      8227 5.29007E+01 7.28115E+01 4.54545E+00
 -1      8228 5.29007E+01 7.28115E+01 5.45455E+00
 -1      8229 5.29007E+01 7.28115E+01 6.36364E+00
 -1      8230 5.29007E+01 7.28115E+01 7.27273E+00
 -1      8231 5.29007E+01 7.28115E+01 8.18182E+00
 -1      8232 5.29007E+01 7.28115E+01 9.09091E+00
 -1      8233 4.08591E+01 8.01906E+01 9.09091E-01
 -1      8234 4.08591E+01 8.01906E+01 1.81818E+00
 -1      8235 4.08591E+01 8.01906E+01 2.72727E+00
 -1      8236 4.08591E+01 8.01906E+01 3.63636E+00
 -1      8237 4.08591E+01 8.01906E+01 4.54545E+00
 -1      8238 4.08591E+01 8.01906E+01 5.45455E+00
 -1      8239 4.08591E+01 8.01906E+01 6.36364E+00
 -1      8240 4.08591E+01 8.01906E+01 7.27273E+00
 -1      8241 4.08591E+01 8.01906E+01 8.18182E+00
 -1      8242 4.08591E+01 8.01906E+01 9.09091E+00
 -1      8243 2.78115E+01 8.55951E+01 9.09091E-01
 -1      8244 2.78115E+01 8.55951E+01 1.81818E+00
 -1      8245 2.78115E+01 8.55951E+01 2.72727E+00
 -1      8246 2.78115E+01 8.55951E+01 3.63636E+00
 -1      8247 2.78115E+01 8.55951E+01 4.54545E+00
 -1      8248 2.78115E+01 8.55951E+01 5.45455E+00
 -1      8249 2.78115E+01 8.55951E+01 6.36364E+00
 -1      8250 2.78115E+01 8.55951E+01 7.27273E+00
 -1      8251 2.78115E+01 8.55951E+01 8.18182E+00
 -1      8252 2.78115E+01 8.55951E+01 9.09091E+00
 -1      8253 1.40791E+01 8.88920E+01 9.09091E-01
 -1      8254 1.40791E+01 8.88920E+01 1.81818E+00
 -1      8255 1.40791E+01 8.88920E+01 2.72727E+00
 -1      8256 1.40791E+01 8.88920E+01 3.63636E+00
 -1      8257 1.40791E+01 8.88920E+01 4.54545E+00
 -1      8258 1.40791E+01 8.88920E+01 5.45455E+00
 -1      8259 1.40791E+01 8.88920E+01 6.36364E+00
 -1      8260 1.40791E+01 8.88920E+01 7.27273E+00
 -1      8261 1.40791E+01 8.88920E+01 8.18182E+00
 -1      8262 1.40791E+01 8.88920E+01 9.09091E+00
 -1      8263 9.13612E+01 1.44702E+01 9.09091E-01
 -1      8264 9.13612E+01 1.44702E+01 1.81818E+00
 -1      8265 9.13612E+01 1.44702E+01 2.72727E+00
 -1      8266 9.13612E+01 1.44702E+01 3.63636E+00
 -1      8267 9.13612E+01 1.44702E+01 4.54545E+00
 -1      8268 9.13612E+01 1.44702E+01 5.45455E+00
 -1      8269 9.13612E+01 1.44702E+01 6.36364E+00
 -1      8270 9.13612E+01 1.44702E+01 7.27273E+00
 -1      8271 9.13612E+01 1.44702E+01 8.18182E+00
 -1      8272 9.13612E+01 1.44702E+01 9.09091E+00
 -1      8273 8.79727E+01 2.85841E+01 9.09091E-01
 -1      8274 8.79727E+01 2.85841E+01 1.81818E+00
 -1      8275 8.79727E+01 2.85841E+01 2.72727E+00
 -1      8276 8.79727E+01 2.85841E+01 3.63636E+00
 -1      8277 8.79727E+01 2.85841E+01 4.54545E+00
 -1      8278 8.79727E+01 2.85841E+01 5.45455E+00
 -1      8279 8.79727E+01 2.85841E+01 6.36364E+00
 -1      8280 8.79727E+01 2.85841E+01 7.27273E+00
 -1      8281 8.79727E+01 2.85841E+01 8.18182E+00
 -1      8282 8.79727E+01 2.85841E+01 9.09091E+00
 -1      8283 8.24181E+01 4.19941E+01 9.09091E-01
 -1      8284 8.24181E+01 4.19941E+01 1.81818E+00
 -1      8285 8.24181E+01 4.19941E+01 2.72727E+00
 -1      8286 8.24181E+01 4.19941E+01 3.63636E+00
 -1      8287 8.24181E+01 4.19941E+01 4.54545E+00
 -1      8288 8.24181E+01 4.19941E+01 5.45455E+00
 -1      8289 8.24181E+01 4.19941E+01 6.36364E+00
 -1      8290 8.24181E+01 4.19941E+01 7.27273E+00
 -1      8291 8.24181E+01 4.19941E+01 8.18182E+00
 -1      8292 8.24181E+01 4.19941E+01 9.09091E+00
 -1      8293 7.48341E+01 5.43701E+01 9.09091E-01
 -1      8294 7.48341E+01 5.43701E+01 1.81818E+00
 -1      8295 7.48341E+01 5.43701E+01 2.72727E+00
 -1      8296 7.48341E+01 5.43701E+01 3.63636E+00
 -1      8297 7.48341E+01 5.43701E+01 4.54545E+00
 -1      8298 7.48341E+01 5.43701E+01 5.45455E+00
 -1      8299 7.48341E+01 5.43701E+01 6.36364E+00
 -1      8300 7.48341E+01 5.43701E+01 7.27273E+00
 -1      8301 7.48341E+01 5.43701E+01 8.18182E+00
 -1      8302 7.48341E+01 5.43701E+01 9.09091E+00
 -1      8303 6.54074E+01 6.54074E+01 9.09091E-01
 -1      8304 6.54074E+01 6.54074E+01 1.81818E+00
 -1      8305 6.54074E+01 6.54074E+01 2.72727E+00
 -1      8306 6.54074E+01 6.54074E+01 3.63636E+00
 -1      8307 6.54074E+01 6.54074E+01 4.54545E+00
 -1      8308 6.54074E+01 6.54074E+01 5.45455E+00
 -1      8309 6.54074E+01 6.54074E+01 6.36364E+00
 -1      8310 6.54074E+01 6.54074E+01 7.27273E+00
 -1      8311 6.54074E+01 6.54074E+01 8.18182E+00
 -1      8312 6.54074E+01 6.54074E+01 9.09091E+00
 -1      8313 5.43701E+01 7.48341E+01 9.09091E-01
 -1      8314 5.43701E+01 7.48341E+01 1.81818E+00
 -1      8315 5.43701E+01 7.48341E+01 2.72727E+00
 -1      8316 5.43701E+01 7.48341E+01 3.63636E+00
 -1      8317 5.43701E+01 7.48341E+01 4.54545E+00
 -1      8318 5.43701E+01 7.48341E+01 5.45455E+00
 -1      8319 5.43701E+01 7.48341E+01 6.36364E+00
 -1      8320 5.43701E+01 7.48341E+01 7.27273E+00
 -1      8321 5.43701E+01 7.48341E+01 8.18182E+00
 -1      8322 5.43701E+01 7.48341E+01 9.09091E+00
 -1      8323 4.19941E+01 8.24181E+01 9.09091E-01
 -1      8324 4.19941E+01 8.24181E+01 1.81818E+00
 -1      8325 4.19941E+01 8.24181E+01 2.72727E+00
 -1      8326 4.19941E+01 8.24181E+01 3.63636E+00
 -1      8327 4.19941E+01 8.24181E+01 4.54545E+00
 -1      8328 4.19941E+01 8.24181E+01 5.45455E+00
 -1      8329 4.19941E+01 8.24181E+01 6.36364E+00
 -1      8330 4.19941E+01 8.24181E+01 7.27273E+00
 -1      8331 4.19941E+01 8.24181E+01 8.18182E+00
 -1      8332 4.19941E+01 8.24181E+01 9.09091E+00
 -1      8333 2.85841E+01 8.79727E+01 9.09091E-01
 -1      8334 2.85841E+01 8.79727E+01 1.81818E+00
 -1      8335 2.85841E+01 8.79727E+01 2.72727E+00
 -1      8336 2.85841E+01 8.79727E+01 3.63636E+00
 -1      8337 2.85841E+01 8.79727E+01 4.54545E+00
 -1      8338 2.85841E+01 8.79727E+01 5.45455E+00
 -1      8339 2.85841E+01 8.79727E+01 6.36364E+00
 -1      8340 2.85841E+01 8.79727E+01 7.27273E+00
 -1      8341 2.85841E+01 8.79727E+01 8.18182E+00
 -1      8342 2.85841E+01 8.79727E+01 9.09091E+00
 -1      8343 1.44702E+01 9.13612E+01 9.09091E-01
 -1      8344 1.44702E+01 9.13612E+01 1.81818E+00
 -1      8345 1.44702E+01 9.13612E+01 2.72727E+00
 -1      8346 1.44702E+01 9.13612E+01 3.63636E+00
 -1      8347 1.44702E+01 9.13612E+01 4.54545E+00
 -1      8348 1.44702E+01 9.13612E+01 5.45455E+00
 -1      8349 1.44702E+01 9.13612E+01 6.36364E+00
 -1      8350 1.44702E+01 9.13612E+01 7.27273E+00
 -1      8351 1.44702E+01 9.13612E+01 8.18182E+00
 -1      8352 1.44702E+01 9.13612E+01 9.09091E+00
 -1      8353 9.38304E+01 1.48613E+01 9.09091E-01
 -1      8354 9.38304E+01 1.48613E+01 1.81818E+00
 -1      8355 9.38304E+01 1.48613E+01 2.72727E+00
 -1      8356 9.38304E+01 1.48613E+01 3.63636E+00
 -1      8357 9.38304E+01 1.48613E+01 4.54545E+00
 -1      8358 9.38304E+01 1.48613E+01 5.45455E+00
 -1      8359 9.38304E+01 1.48613E+01 6.36364E+00
 -1      8360 9.38304E+01 1.48613E+01 7.27273E+00
 -1      8361 9.38304E+01 1.48613E+01 8.18182E+00
 -1      8362 9.38304E+01 1.48613E+01 9.09091E+00
 -1      8363 9.03504E+01 2.93566E+01 9.09091E-01
 -1      8364 9.03504E+01 2.93566E+01 1.81818E+00
 -1      8365 9.03504E+01 2.93566E+01 2.72727E+00
 -1      8366 9.03504E+01 2.93566E+01 3.63636E+00
 -1      8367 9.03504E+01 2.93566E+01 4.54545E+00
 -1      8368 9.03504E+01 2.93566E+01 5.45455E+00
 -1      8369 9.03504E+01 2.93566E+01 6.36364E+00
 -1      8370 9.03504E+01 2.93566E+01 7.27273E+00
 -1      8371 9.03504E+01 2.93566E+01 8.18182E+00
 -1      8372 9.03504E+01 2.93566E+01 9.09091E+00
 -1      8373 8.46456E+01 4.31291E+01 9.09091E-01
 -1      8374 8.46456E+01 4.31291E+01 1.81818E+00
 -1      8375 8.46456E+01 4.31291E+01 2.72727E+00
 -1      8376 8.46456E+01 4.31291E+01 3.63636E+00
 -1      8377 8.46456E+01 4.31291E+01 4.54545E+00
 -1      8378 8.46456E+01 4.31291E+01 5.45455E+00
 -1      8379 8.46456E+01 4.31291E+01 6.36364E+00
 -1      8380 8.46456E+01 4.31291E+01 7.27273E+00
 -1      8381 8.46456E+01 4.31291E+01 8.18182E+00
 -1      8382 8.46456E+01 4.31291E+01 9.09091E+00
 -1      8383 7.68566E+01 5.58396E+01 9.09091E-01
 -1      8384 7.68566E+01 5.58396E+01 1.81818E+00
 -1      8385 7.68566E+01 5.58396E+01 2.72727E+00
 -1      8386 7.68566E+01 5.58396E+01 3.63636E+00
 -1      8387 7.68566E+01 5.58396E+01 4.54545E+00
 -1      8388 7.68566E+01 5.58396E+01 5.45455E+00
 -1      8389 7.68566E+01 5.58396E+01 6.36364E+00
 -1      8390 7.68566E+01 5.58396E+01 7.27273E+00
 -1      8391 7.68566E+01 5.58396E+01 8.18182E+00
 -1      8392 7.68566E+01 5.58396E+01 9.09091E+00
 -1      8393 6.71751E+01 6.71751E+01 9.09091E-01
 -1      8394 6.71751E+01 6.71751E+01 1.81818E+00
 -1      8395 6.71751E+01 6.71751E+01 2.72727E+00
 -1      8396 6.71751E+01 6.71751E+01 3.63636E+00
 -1      8397 6.71751E+01 6.71751E+01 4.54545E+00
 -1      8398 6.71751E+01 6.71751E+01 5.45455E+00
 -1      8399 6.71751E+01 6.71751E+01 6.36364E+00
 -1      8400 6.71751E+01 6.71751E+01 7.27273E+00
 -1      8401 6.71751E+01 6.71751E+01 8.18182E+00
 -1      8402 6.71751E+01 6.71751E+01 9.09091E+00
 -1      8403 5.58396E+01 7.68566E+01 9.09091E-01
 -1      8404 5.58396E+01 7.68566E+01 1.81818E+00
 -1      8405 5.58396E+01 7.68566E+01 2.72727E+00
 -1      8406 5.58396E+01 7.68566E+01 3.63636E+00
 -1      8407 5.58396E+01 7.68566E+01 4.54545E+00
 -1      8408 5.58396E+01 7.68566E+01 5.45455E+00
 -1      8409 5.58396E+01 7.68566E+01 6.36364E+00
 -1      8410 5.58396E+01 7.68566E+01 7.27273E+00
 -1      8411 5.58396E+01 7.68566E+01 8.18182E+00
 -1      8412 5.58396E+01 7.68566E+01 9.09091E+00
 -1      8413 4.31291E+01 8.46456E+01 9.09091E-01
 -1      8414 4.31291E+01 8.46456E+01 1.81818E+00
 -1      8415 4.31291E+01 8.46456E+01 2.72727E+00
 -1      8416 4.31291E+01 8.46456E+01 3.63636E+00
 -1      8417 4.31291E+01 8.46456E+01 4.54545E+00
 -1      8418 4.31291E+01 8.46456E+01 5.45455E+00
 -1      8419 4.31291E+01 8.46456E+01 6.36364E+00
 -1      8420 4.31291E+01 8.46456E+01 7.27273E+00
 -1      8421 4.31291E+01 8.46456E+01 8.18182E+00
 -1      8422 4.31291E+01 8.46456E+01 9.09091E+00
 -1      8423 2.93566E+01 9.03504E+01 9.09091E-01
 -1      8424 2.93566E+01 9.03504E+01 1.81818E+00
 -1      8425 2.93566E+01 9.03504E+01 2.72727E+00
 -1      8426 2.93566E+01 9.03504E+01 3.63636E+00
 -1      8427 2.93566E+01 9.03504E+01 4.54545E+00
 -1      8428 2.93566E+01 9.03504E+01 5.45455E+00
 -1      8429 2.93566E+01 9.03504E+01 6.36364E+00
 -1      8430 2.93566E+01 9.03504E+01 7.27273E+00
 -1      8431 2.93566E+01 9.03504E+01 8.18182E+00
 -1      8432 2.93566E+01 9.03504E+01 9.09091E+00
 -1      8433 1.48613E+01 9.38304E+01 9.09091E-01
 -1      8434 1.48613E+01 9.38304E+01 1.81818E+00
 -1      8435 1.48613E+01 9.38304E+01 2.72727E+00
 -1      8436 1.48613E+01 9.38304E+01 3.63636E+00
 -1      8437 1.48613E+01 9.38304E+01 4.54545E+00
 -1      8438 1.48613E+01 9.38304E+01 5.45455E+00
 -1      8439 1.48613E+01 9.38304E+01 6.36364E+00
 -1      8440 1.48613E+01 9.38304E+01 7.27273E+00
 -1      8441 1.48613E+01 9.38304E+01 8.18182E+00
 -1      8442 1.48613E+01 9.38304E+01 9.09091E+00
 -1      8443 9.62996E+01 1.52524E+01 9.09091E-01
 -1      8444 9.62996E+01 1.52524E+01 1.81818E+00
 -1      8445 9.62996E+01 1.52524E+01 2.72727E+00
 -1      8446 9.62996E+01 1.52524E+01 3.63636E+00
 -1      8447 9.62996E+01 1.52524E+01 4.54545E+00
 -1      8448 9.62996E+01 1.52524E+01 5.45455E+00
 -1      8449 9.62996E+01 1.52524E+01 6.36364E+00
 -1      8450 9.62996E+01 1.52524E+01 7.27273E+00
 -1      8451 9.62996E+01 1.52524E+01 8.18182E+00
 -1      8452 9.62996E+01 1.52524E+01 9.09091E+00
 -1      8453 9.27280E+01 3.01292E+01 9.09091E-01
 -1      8454 9.27280E+01 3.01292E+01 1.81818E+00
 -1      8455 9.27280E+01 3.01292E+01 2.72727E+00
 -1      8456 9.27280E+01 3.01292E+01 3.63636E+00
 -1      8457 9.27280E+01 3.01292E+01 4.54545E+00
 -1      8458 9.27280E+01 3.01292E+01 5.45455E+00
 -1      8459 9.27280E+01 3.01292E+01 6.36364E+00
 -1      8460 9.27280E+01 3.01292E+01 7.27273E+00
 -1      8461 9.27280E+01 3.01292E+01 8.18182E+00
 -1      8462 9.27280E+01 3.01292E+01 9.09091E+00
 -1      8463 8.68731E+01 4.42641E+01 9.09091E-01
 -1      8464 8.68731E+01 4.42641E+01 1.81818E+00
 -1      8465 8.68731E+01 4.42641E+01 2.72727E+00
 -1      8466 8.68731E+01 4.42641E+01 3.63636E+00
 -1      8467 8.68731E+01 4.42641E+01 4.54545E+00
 -1      8468 8.68731E+01 4.42641E+01 5.45455E+00
 -1      8469 8.68731E+01 4.42641E+01 6.36364E+00
 -1      8470 8.68731E+01 4.42641E+01 7.27273E+00
 -1      8471 8.68731E+01 4.42641E+01 8.18182E+00
 -1      8472 8.68731E+01 4.42641E+01 9.09091E+00
 -1      8473 7.88792E+01 5.73091E+01 9.09091E-01
 -1      8474 7.88792E+01 5.73091E+01 1.81818E+00
 -1      8475 7.88792E+01 5.73091E+01 2.72727E+00
 -1      8476 7.88792E+01 5.73091E+01 3.63636E+00
 -1      8477 7.88792E+01 5.73091E+01 4.54545E+00
 -1      8478 7.88792E+01 5.73091E+01 5.45455E+00
 -1      8479 7.88792E+01 5.73091E+01 6.36364E+00
 -1      8480 7.88792E+01 5.73091E+01 7.27273E+00
 -1      8481 7.88792E+01 5.73091E+01 8.18182E+00
 -1      8482 7.88792E+01 5.73091E+01 9.09091E+00
 -1      8483 6.89429E+01 6.89429E+01 9.09091E-01
 -1      8484 6.89429E+01 6.89429E+01 1.81818E+00
 -1      8485 6.89429E+01 6.89429E+01 2.72727E+00
 -1      8486 6.89429E+01 6.89429E+01 3.63636E+00
 -1      8487 6.89429E+01 6.89429E+01 4.54545E+00
 -1      8488 6.89429E+01 6.89429E+01 5.45455E+00
 -1      8489 6.89429E+01 6.89429E+01 6.36364E+00
 -1      8490 6.89429E+01 6.89429E+01 7.27273E+00
 -1      8491 6.89429E+01 6.89429E+01 8.18182E+00
 -1      8492 6.89429E+01 6.89429E+01 9.09091E+00
 -1      8493 5.73091E+01 7.88792E+01 9.09091E-01
 -1      8494 5.73091E+01 7.88792E+01 1.81818E+00
 -1      8495 5.73091E+01 7.88792E+01 2.72727E+00
 -1      8496 5.73091E+01 7.88792E+01 3.63636E+00
 -1      8497 5.73091E+01 7.88792E+01 4.54545E+00
 -1      8498 5.73091E+01 7.88792E+01 5.45455E+00
 -1      8499 5.73091E+01 7.88792E+01 6.36364E+00
 -1      8500 5.73091E+01 7.88792E+01 7.27273E+00
 -1      8501 5.73091E+01 7.88792E+01 8.18182E+00
 -1      8502 5.73091E+01 7.88792E+01 9.09091E+00
 -1      8503 4.42641E+01 8.68731E+01 9.09091E-01
 -1      8504 4.42641E+01 8.68731E+01 1.81818E+00
 -1      8505 4.42641E+01 8.68731E+01 2.72727E+00
 -1      8506 4.42641E+01 8.68731E+01 3.63636E+00
 -1      8507 4.42641E+01 8.68731E+01 4.54545E+00
 -1      8508 4.42641E+01 8.68731E+01 5.45455E+00
 -1      8509 4.42641E+01 8.68731E+01 6.36364E+00
 -1      8510 4.42641E+01 8.68731E+01 7.27273E+00
 -1      8511 4.42641E+01 8.68731E+01 8.18182E+00
 -1      8512 4.42641E+01 8.68731E+01 9.09091E+00
 -1      8513 3.01292E+01 9.27280E+01 9.09091E-01
 -1      8514 3.01292E+01 9.27280E+01 1.81818E+00
 -1      8515 3.01292E+01 9.27280E+01 2.72727E+00
 -1      8516 3.01292E+01 9.27280E+01 3.63636E+00
 -1      8517 3.01292E+01 9.27280E+01 4.54545E+00
 -1      8518 3.01292E+01 9.27280E+01 5.45455E+00
 -1      8519 3.01292E+01 9.27280E+01 6.36364E+00
 -1      8520 3.01292E+01 9.27280E+01 7.27273E+00
 -1      8521 3.01292E+01 9.27280E+01 8.18182E+00
 -1      8522 3.01292E+01 9.27280E+01 9.09091E+00
 -1      8523 1.52524E+01 9.62996E+01 9.09091E-01
 -1      8524 1.52524E+01 9.62996E+01 1.81818E+00
 -1      8525 1.52524E+01 9.62996E+01 2.72727E+00
 -1      8526 1.52524E+01 9.62996E+01 3.63636E+00
 -1      8527 1.52524E+01 9.62996E+01 4.54545E+00
 -1      8528 1.52524E+01 9.62996E+01 5.45455E+00
 -1      8529 1.52524E+01 9.62996E+01 6.36364E+00
 -1      8530 1.52524E+01 9.62996E+01 7.27273E+00
 -1      8531 1.52524E+01 9.62996E+01 8.18182E+00
 -1      8532 1.52524E+01 9.62996E+01 9.09091E+00
 -1      8533 2.71614E+01 4.30195E+00 4.54545E-01
 -1      8534 2.73307E+01 2.15097E+00 9.09091E-01
 -1      8535 2.59268E+01 4.10640E+00 9.09091E-01
 -1      8540 2.71614E+01 4.30195E+00 1.36364E+00
 -1      8541 2.73307E+01 2.15097E+00 1.81818E+00
 -1      8542 2.59268E+01 4.10640E+00 1.81818E+00
 -1      8547 2.71614E+01 4.30195E+00 2.27273E+00
 -1      8548 2.73307E+01 2.15097E+00 2.72727E+00
 -1      8549 2.59268E+01 4.10640E+00 2.72727E+00
 -1      8554 2.71614E+01 4.30195E+00 3.18182E+00
 -1      8555 2.73307E+01 2.15097E+00 3.63636E+00
 -1      8556 2.59268E+01 4.10640E+00 3.63636E+00
 -1      8561 2.71614E+01 4.30195E+00 4.09091E+00
 -1      8562 2.73307E+01 2.15097E+00 4.54545E+00
 -1      8563 2.59268E+01 4.10640E+00 4.54545E+00
 -1      8568 2.71614E+01 4.30195E+00 5.00000E+00
 -1      8569 2.73307E+01 2.15097E+00 5.45455E+00
 -1      8570 2.59268E+01 4.10640E+00 5.45455E+00
 -1      8575 2.71614E+01 4.30195E+00 5.90909E+00
 -1      8576 2.73307E+01 2.15097E+00 6.36364E+00
 -1      8577 2.59268E+01 4.10640E+00 6.36364E+00
 -1      8582 2.71614E+01 4.30195E+00 6.81818E+00
 -1      8583 2.73307E+01 2.15097E+00 7.27273E+00
 -1      8584 2.59268E+01 4.10640E+00 7.27273E+00
 -1      8589 2.71614E+01 4.30195E+00 7.72727E+00
 -1      8590 2.73307E+01 2.15097E+00 8.18182E+00
 -1      8591 2.59268E+01 4.10640E+00 8.18182E+00
 -1      8596 2.71614E+01 4.30195E+00 8.63636E+00
 -1      8597 2.73307E+01 2.15097E+00 9.09091E+00
 -1      8598 2.59268E+01 4.10640E+00 9.09091E+00
 -1      8603 2.71614E+01 4.30195E+00 9.54545E+00
 -1      8607 2.61541E+01 8.49797E+00 4.54545E-01
 -1      8608 2.66577E+01 6.39996E+00 9.09091E-01
 -1      8609 2.49652E+01 8.11170E+00 9.09091E-01
 -1      8614 2.61541E+01 8.49797E+00 1.36364E+00
 -1      8615 2.66577E+01 6.39996E+00 1.81818E+00
 -1      8616 2.49652E+01 8.11170E+00 1.81818E+00
 -1      8621 2.61541E+01 8.49797E+00 2.27273E+00
 -1      8622 2.66577E+01 6.39996E+00 2.72727E+00
 -1      8623 2.49652E+01 8.11170E+00 2.72727E+00
 -1      8628 2.61541E+01 8.49797E+00 3.18182E+00
 -1      8629 2.66577E+01 6.39996E+00 3.63636E+00
 -1      8630 2.49652E+01 8.11170E+00 3.63636E+00
 -1      8635 2.61541E+01 8.49797E+00 4.09091E+00
 -1      8636 2.66577E+01 6.39996E+00 4.54545E+00
 -1      8637 2.49652E+01 8.11170E+00 4.54545E+00
 -1      8642 2.61541E+01 8.49797E+00 5.00000E+00
 -1      8643 2.66577E+01 6.39996E+00 5.45455E+00
 -1      8644 2.49652E+01 8.11170E+00 5.45455E+00
 -1      8649 2.61541E+01 8.49797E+00 5.90909E+00
 -1      8650 2.66577E+01 6.39996E+00 6.36364E+00
 -1      8651 2.49652E+01 8.11170E+00 6.36364E+00
 -1      8656 2.61541E+01 8.49797E+00 6.81818E+00
 -1      8657 2.66577E+01 6.39996E+00 7.27273E+00
 -1      8658 2.49652E+01 8.11170E+00 7.27273E+00
 -1      8663 2.61541E+01 8.49797E+00 7.72727E+00
 -1      8664 2.66577E+01 6.39996E+00 8.18182E+00
 -1      8665 2.49652E+01 8.11170E+00 8.18182E+00
 -1      8670 2.61541E+01 8.49797E+00 8.63636E+00
 -1      8671 2.66577E+01 6.39996E+00 9.09091E+00
 -1      8672 2.49652E+01 8.11170E+00 9.09091E+00
 -1      8677 2.61541E+01 8.49797E+00 9.54545E+00
 -1      8681 2.45027E+01 1.24847E+01 4.54545E-01
 -1      8682 2.53284E+01 1.04914E+01 9.09091E-01
 -1      8683 2.33889E+01 1.19173E+01 9.09091E-01
 -1      8688 2.45027E+01 1.24847E+01 1.36364E+00
 -1      8689 2.53284E+01 1.04914E+01 1.81818E+00
 -1      8690 2.33889E+01 1.19173E+01 1.81818E+00
 -1      8695 2.45027E+01 1.24847E+01 2.27273E+00
 -1      8696 2.53284E+01 1.04914E+01 2.72727E+00
 -1      8697 2.33889E+01 1.19173E+01 2.72727E+00
 -1      8702 2.45027E+01 1.24847E+01 3.18182E+00
 -1      8703 2.53284E+01 1.04914E+01 3.63636E+00
 -1      8704 2.33889E+01 1.19173E+01 3.63636E+00
 -1      8709 2.45027E+01 1.24847E+01 4.09091E+00
 -1      8710 2.53284E+01 1.04914E+01 4.54545E+00
 -1      8711 2.33889E+01 1.19173E+01 4.54545E+00
 -1      8716 2.45027E+01 1.24847E+01 5.00000E+00
 -1      8717 2.53284E+01 1.04914E+01 5.45455E+00
 -1      8718 2.33889E+01 1.19173E+01 5.45455E+00
 -1      8723 2.45027E+01 1.24847E+01 5.90909E+00
 -1      8724 2.53284E+01 1.04914E+01 6.36364E+00
 -1      8725 2.33889E+01 1.19173E+01 6.36364E+00
 -1      8730 2.45027E+01 1.24847E+01 6.81818E+00
 -1      8731 2.53284E+01 1.04914E+01 7.27273E+00
 -1      8732 2.33889E+01 1.19173E+01 7.27273E+00
 -1      8737 2.45027E+01 1.24847E+01 7.72727E+00
 -1      8738 2.53284E+01 1.04914E+01 8.18182E+00
 -1      8739 2.33889E+01 1.19173E+01 8.18182E+00
 -1      8744 2.45027E+01 1.24847E+01 8.63636E+00
 -1      8745 2.53284E+01 1.04914E+01 9.09091E+00
 -1      8746 2.33889E+01 1.19173E+01 9.09091E+00
 -1      8751 2.45027E+01 1.24847E+01 9.54545E+00
 -1      8755 2.22480E+01 1.61641E+01 4.54545E-01
 -1      8756 2.33753E+01 1.43244E+01 9.09091E-01
 -1      8757 2.12367E+01 1.54294E+01 9.09091E-01
 -1      8762 2.22480E+01 1.61641E+01 1.36364E+00
 -1      8763 2.33753E+01 1.43244E+01 1.81818E+00
 -1      8764 2.12367E+01 1.54294E+01 1.81818E+00
 -1      8769 2.22480E+01 1.61641E+01 2.27273E+00
 -1      8770 2.33753E+01 1.43244E+01 2.72727E+00
 -1      8771 2.12367E+01 1.54294E+01 2.72727E+00
 -1      8776 2.22480E+01 1.61641E+01 3.18182E+00
 -1      8777 2.33753E+01 1.43244E+01 3.63636E+00
 -1      8778 2.12367E+01 1.54294E+01 3.63636E+00
 -1      8783 2.22480E+01 1.61641E+01 4.09091E+00
 -1      8784 2.33753E+01 1.43244E+01 4.54545E+00
 -1      8785 2.12367E+01 1.54294E+01 4.54545E+00
 -1      8790 2.22480E+01 1.61641E+01 5.00000E+00
 -1      8791 2.33753E+01 1.43244E+01 5.45455E+00
 -1      8792 2.12367E+01 1.54294E+01 5.45455E+00
 -1      8797 2.22480E+01 1.61641E+01 5.90909E+00
 -1      8798 2.33753E+01 1.43244E+01 6.36364E+00
 -1      8799 2.12367E+01 1.54294E+01 6.36364E+00
 -1      8804 2.22480E+01 1.61641E+01 6.81818E+00
 -1      8805 2.33753E+01 1.43244E+01 7.27273E+00
 -1      8806 2.12367E+01 1.54294E+01 7.27273E+00
 -1      8811 2.22480E+01 1.61641E+01 7.72727E+00
 -1      8812 2.33753E+01 1.43244E+01 8.18182E+00
 -1      8813 2.12367E+01 1.54294E+01 8.18182E+00
 -1      8818 2.22480E+01 1.61641E+01 8.63636E+00
 -1      8819 2.33753E+01 1.43244E+01 9.09091E+00
 -1      8820 2.12367E+01 1.54294E+01 9.09091E+00
 -1      8825 2.22480E+01 1.61641E+01 9.54545E+00
 -1      8829 1.94454E+01 1.94454E+01 4.54545E-01
 -1      8830 2.08467E+01 1.78048E+01 9.09091E-01
 -1      8831 1.85616E+01 1.85616E+01 9.09091E-01
 -1      8836 1.94454E+01 1.94454E+01 1.36364E+00
 -1      8837 2.08467E+01 1.78048E+01 1.81818E+00
 -1      8838 1.85616E+01 1.85616E+01 1.81818E+00
 -1      8843 1.94454E+01 1.94454E+01 2.27273E+00
 -1      8844 2.08467E+01 1.78048E+01 2.72727E+00
 -1      8845 1.85616E+01 1.85616E+01 2.72727E+00
 -1      8850 1.94454E+01 1.94454E+01 3.18182E+00
 -1      8851 2.08467E+01 1.78048E+01 3.63636E+00
 -1      8852 1.85616E+01 1.85616E+01 3.63636E+00
 -1      8857 1.94454E+01 1.94454E+01 4.09091E+00
 -1      8858 2.08467E+01 1.78048E+01 4.54545E+00
 -1      8859 1.85616E+01 1.85616E+01 4.54545E+00
 -1      8864 1.94454E+01 1.94454E+01 5.00000E+00
 -1      8865 2.08467E+01 1.78048E+01 5.45455E+00
 -1      8866 1.85616E+01 1.85616E+01 5.45455E+00
 -1      8871 1.94454E+01 1.94454E+01 5.90909E+00
 -1      8872 2.08467E+01 1.78048E+01 6.36364E+00
 -1      8873 1.85616E+01 1.85616E+01 6.36364E+00
 -1      8878 1.94454E+01 1.94454E+01 6.81818E+00
 -1      8879 2.08467E+01 1.78048E+01 7.27273E+00
 -1      8880 1.85616E+01 1.85616E+01 7.27273E+00
 -1      8885 1.94454E+01 1.94454E+01 7.72727E+00
 -1      8886 2.08467E+01 1.78048E+01 8.18182E+00
 -1      8887 1.85616E+01 1.85616E+01 8.18182E+00
 -1      8892 1.94454E+01 1.94454E+01 8.63636E+00
 -1      8893 2.08467E+01 1.78048E+01 9.09091E+00
 -1      8894 1.85616E+01 1.85616E+01 9.09091E+00
 -1      8899 1.94454E+01 1.94454E+01 9.54545E+00
 -1      8903 1.61641E+01 2.22480E+01 4.54545E-01
 -1      8904 1.78048E+01 2.08467E+01 9.09091E-01
 -1      8905 1.54294E+01 2.12367E+01 9.09091E-01
 -1      8910 1.61641E+01 2.22480E+01 1.36364E+00
 -1      8911 1.78048E+01 2.08467E+01 1.81818E+00
 -1      8912 1.54294E+01 2.12367E+01 1.81818E+00
 -1      8917 1.61641E+01 2.22480E+01 2.27273E+00
 -1      8918 1.78048E+01 2.08467E+01 2.72727E+00
 -1      8919 1.54294E+01 2.12367E+01 2.72727E+00
 -1      8924 1.61641E+01 2.22480E+01 3.18182E+00
 -1      8925 1.78048E+01 2.08467E+01 3.63636E+00
 -1      8926 1.54294E+01 2.12367E+01 3.63636E+00
 -1      8931 1.61641E+01 2.22480E+01 4.09091E+00
 -1      8932 1.78048E+01 2.08467E+01 4.54545E+00
 -1      8933 1.54294E+01 2.12367E+01 4.54545E+00
 -1      8938 1.61641E+01 2.22480E+01 5.00000E+00
 -1      8939 1.78048E+01 2.08467E+01 5.45455E+00
 -1      8940 1.54294E+01 2.12367E+01 5.45455E+00
 -1      8945 1.61641E+01 2.22480E+01 5.90909E+00
 -1      8946 1.78048E+01 2.08467E+01 6.36364E+00
 -1      8947 1.54294E+01 2.12367E+01 6.36364E+00
 -1      8952 1.61641E+01 2.22480E+01 6.81818E+00
 -1      8953 1.78048E+01 2.08467E+01 7.27273E+00
 -1      8954 1.54294E+01 2.12367E+01 7.27273E+00
 -1      8959 1.61641E+01 2.22480E+01 7.72727E+00
 -1      8960 1.78048E+01 2.08467E+01 8.18182E+00
 -1      8961 1.54294E+01 2.12367E+01 8.18182E+00
 -1      8966 1.61641E+01 2.22480E+01 8.63636E+00
 -1      8967 1.78048E+01 2.08467E+01 9.09091E+00
 -1      8968 1.54294E+01 2.12367E+01 9.09091E+00
 -1      8973 1.61641E+01 2.22480E+01 9.54545E+00
 -1      8977 1.24847E+01 2.45027E+01 4.54545E-01
 -1      8978 1.43244E+01 2.33753E+01 9.09091E-01
 -1      8979 1.19173E+01 2.33889E+01 9.09091E-01
 -1      8984 1.24847E+01 2.45027E+01 1.36364E+00
 -1      8985 1.43244E+01 2.33753E+01 1.81818E+00
 -1      8986 1.19173E+01 2.33889E+01 1.81818E+00
 -1      8991 1.24847E+01 2.45027E+01 2.27273E+00
 -1      8992 1.43244E+01 2.33753E+01 2.72727E+00
 -1      8993 1.19173E+01 2.33889E+01 2.72727E+00
 -1      8998 1.24847E+01 2.45027E+01 3.18182E+00
 -1      8999 1.43244E+01 2.33753E+01 3.63636E+00
 -1      9000 1.19173E+01 2.33889E+01 3.63636E+00
 -1      9005 1.24847E+01 2.45027E+01 4.09091E+00
 -1      9006 1.43244E+01 2.33753E+01 4.54545E+00
 -1      9007 1.19173E+01 2.33889E+01 4.54545E+00
 -1      9012 1.24847E+01 2.45027E+01 5.00000E+00
 -1      9013 1.43244E+01 2.33753E+01 5.45455E+00
 -1      9014 1.19173E+01 2.33889E+01 5.45455E+00
 -1      9019 1.24847E+01 2.45027E+01 5.90909E+00
 -1      9020 1.43244E+01 2.33753E+01 6.36364E+00
 -1      9021 1.19173E+01 2.33889E+01 6.36364E+00
 -1      9026 1.24847E+01 2.45027E+01 6.81818E+00
 -1      9027 1.43244E+01 2.33753E+01 7.27273E+00
 -1      9028 1.19173E+01 2.33889E+01 7.27273E+00
 -1      9033 1.24847E+01 2.45027E+01 7.72727E+00
 -1      9034 1.43244E+01 2.33753E+01 8.18182E+00
 -1      9035 1.19173E+01 2.33889E+01 8.18182E+00
 -1      9040 1.24847E+01 2.45027E+01 8.63636E+00
 -1      9041 1.43244E+01 2.33753E+01 9.09091E+00
 -1      9042 1.19173E+01 2.33889E+01 9.09091E+00
 -1      9047 1.24847E+01 2.45027E+01 9.54545E+00
 -1      9051 8.49797E+00 2.61541E+01 4.54545E-01
 -1      9052 1.04914E+01 2.53284E+01 9.09091E-01
 -1      9053 8.11170E+00 2.49652E+01 9.09091E-01
 -1      9058 8.49797E+00 2.61541E+01 1.36364E+00
 -1      9059 1.04914E+01 2.53284E+01 1.81818E+00
 -1      9060 8.11170E+00 2.49652E+01 1.81818E+00
 -1      9065 8.49797E+00 2.61541E+01 2.27273E+00
 -1      9066 1.04914E+01 2.53284E+01 2.72727E+00
 -1      9067 8.11170E+00 2.49652E+01 2.72727E+00
 -1      9072 8.49797E+00 2.61541E+01 3.18182E+00
 -1      9073 1.04914E+01 2.53284E+01 3.63636E+00
 -1      9074 8.11170E+00 2.49652E+01 3.63636E+00
 -1      9079 8.49797E+00 2.61541E+01 4.09091E+00
 -1      9080 1.04914E+01 2.53284E+01 4.54545E+00
 -1      9081 8.11170E+00 2.49652E+01 4.54545E+00
 -1      9086 8.49797E+00 2.61541E+01 5.00000E+00
 -1      9087 1.04914E+01 2.53284E+01 5.45455E+00
 -1      9088 8.11170E+00 2.49652E+01 5.45455E+00
 -1      9093 8.49797E+00 2.61541E+01 5.90909E+00
 -1      9094 1.04914E+01 2.53284E+01 6.36364E+00
 -1      9095 8.11170E+00 2.49652E+01 6.36364E+00
 -1      9100 8.49797E+00 2.61541E+01 6.81818E+00
 -1      9101 1.04914E+01 2.53284E+01 7.27273E+00
 -1      9102 8.11170E+00 2.49652E+01 7.27273E+00
 -1      9107 8.49797E+00 2.61541E+01 7.72727E+00
 -1      9108 1.04914E+01 2.53284E+01 8.18182E+00
 -1      9109 8.11170E+00 2.49652E+01 8.18182E+00
 -1      9114 8.49797E+00 2.61541E+01 8.63636E+00
 -1      9115 1.04914E+01 2.53284E+01 9.09091E+00
 -1      9116 8.11170E+00 2.49652E+01 9.09091E+00
 -1      9121 8.49797E+00 2.61541E+01 9.54545E+00
 -1      9125 4.30195E+00 2.71614E+01 4.54545E-01
 -1      9126 6.39996E+00 2.66577E+01 9.09091E-01
 -1      9127 4.10640E+00 2.59268E+01 9.09091E-01
 -1      9132 4.30195E+00 2.71614E+01 1.36364E+00
 -1      9133 6.39996E+00 2.66577E+01 1.81818E+00
 -1      9134 4.10640E+00 2.59268E+01 1.81818E+00
 -1      9139 4.30195E+00 2.71614E+01 2.27273E+00
 -1      9140 6.39996E+00 2.66577E+01 2.72727E+00
 -1      9141 4.10640E+00 2.59268E+01 2.72727E+00
 -1      9146 4.30195E+00 2.71614E+01 3.18182E+00
 -1      9147 6.39996E+00 2.66577E+01 3.63636E+00
 -1      9148 4.10640E+00 2.59268E+01 3.63636E+00
 -1      9153 4.30195E+00 2.71614E+01 4.09091E+00
 -1      9154 6.39996E+00 2.66577E+01 4.54545E+00
 -1      9155 4.10640E+00 2.59268E+01 4.54545E+00
 -1      9160 4.30195E+00 2.71614E+01 5.00000E+00
 -1      9161 6.39996E+00 2.66577E+01 5.45455E+00
 -1      9162 4.10640E+00 2.59268E+01 5.45455E+00
 -1      9167 4.30195E+00 2.71614E+01 5.90909E+00
 -1      9168 6.39996E+00 2.66577E+01 6.36364E+00
 -1      9169 4.10640E+00 2.59268E+01 6.36364E+00
 -1      9174 4.30195E+00 2.71614E+01 6.81818E+00
 -1      9175 6.39996E+00 2.66577E+01 7.27273E+00
 -1      9176 4.10640E+00 2.59268E+01 7.27273E+00
 -1      9181 4.30195E+00 2.71614E+01 7.72727E+00
 -1      9182 6.39996E+00 2.66577E+01 8.18182E+00
 -1      9183 4.10640E+00 2.59268E+01 8.18182E+00
 -1      9188 4.30195E+00 2.71614E+01 8.63636E+00
 -1      9189 6.39996E+00 2.66577E+01 9.09091E+00
 -1      9190 4.10640E+00 2.59268E+01 9.09091E+00
 -1      9195 4.30195E+00 2.71614E+01 9.54545E+00
 -1      9199 2.15097E+00 2.73307E+01 9.09091E-01
 -1      9203 2.15097E+00 2.73307E+01 1.81818E+00
 -1      9207 2.15097E+00 2.73307E+01 2.72727E+00
 -1      9211 2.15097E+00 2.73307E+01 3.63636E+00
 -1      9215 2.15097E+00 2.73307E+01 4.54545E+00
 -1      9219 2.15097E+00 2.73307E+01 5.45455E+00
 -1      9223 2.15097E+00 2.73307E+01 6.36364E+00
 -1      9227 2.15097E+00 2.73307E+01 7.27273E+00
 -1      9231 2.15097E+00 2.73307E+01 8.18182E+00
 -1      9235 2.15097E+00 2.73307E+01 9.09091E+00
 -1      9241 2.96306E+01 4.69303E+00 4.54545E-01
 -1      9242 2.98153E+01 2.34652E+00 9.09091E-01
 -1      9243 2.83960E+01 4.49749E+00 9.09091E-01
 -1      9248 2.96306E+01 4.69303E+00 1.36364E+00
 -1      9249 2.98153E+01 2.34652E+00 1.81818E+00
 -1      9250 2.83960E+01 4.49749E+00 1.81818E+00
 -1      9255 2.96306E+01 4.69303E+00 2.27273E+00
 -1      9256 2.98153E+01 2.34652E+00 2.72727E+00
 -1      9257 2.83960E+01 4.49749E+00 2.72727E+00
 -1      9262 2.96306E+01 4.69303E+00 3.18182E+00
 -1      9263 2.98153E+01 2.34652E+00 3.63636E+00
 -1      9264 2.83960E+01 4.49749E+00 3.63636E+00
 -1      9269 2.96306E+01 4.69303E+00 4.09091E+00
 -1      9270 2.98153E+01 2.34652E+00 4.54545E+00
 -1      9271 2.83960E+01 4.49749E+00 4.54545E+00
 -1      9276 2.96306E+01 4.69303E+00 5.00000E+00
 -1      9277 2.98153E+01 2.34652E+00 5.45455E+00
 -1      9278 2.83960E+01 4.49749E+00 5.45455E+00
 -1      9283 2.96306E+01 4.69303E+00 5.90909E+00
 -1      9284 2.98153E+01 2.34652E+00 6.36364E+00
 -1      9285 2.83960E+01 4.49749E+00 6.36364E+00
 -1      9290 2.96306E+01 4.69303E+00 6.81818E+00
 -1      9291 2.98153E+01 2.34652E+00 7.27273E+00
 -1      9292 2.83960E+01 4.49749E+00 7.27273E+00
 -1      9297 2.96306E+01 4.69303E+00 7.72727E+00
 -1      9298 2.98153E+01 2.34652E+00 8.18182E+00
 -1      9299 2.83960E+01 4.49749E+00 8.18182E+00
 -1      9304 2.96306E+01 4.69303E+00 8.63636E+00
 -1      9305 2.98153E+01 2.34652E+00 9.09091E+00
 -1      9306 2.83960E+01 4.49749E+00 9.09091E+00
 -1      9311 2.96306E+01 4.69303E+00 9.54545E+00
 -1      9315 2.85317E+01 9.27051E+00 4.54545E-01
 -1      9316 2.90812E+01 6.98177E+00 9.09091E-01
 -1      9317 2.73429E+01 8.88424E+00 9.09091E-01
 -1      9322 2.85317E+01 9.27051E+00 1.36364E+00
 -1      9323 2.90812E+01 6.98177E+00 1.81818E+00
 -1      9324 2.73429E+01 8.88424E+00 1.81818E+00
 -1      9329 2.85317E+01 9.27051E+00 2.27273E+00
 -1      9330 2.90812E+01 6.98177E+00 2.72727E+00
 -1      9331 2.73429E+01 8.88424E+00 2.72727E+00
 -1      9336 2.85317E+01 9.27051E+00 3.18182E+00
 -1      9337 2.90812E+01 6.98177E+00 3.63636E+00
 -1      9338 2.73429E+01 8.88424E+00 3.63636E+00
 -1      9343 2.85317E+01 9.27051E+00 4.09091E+00
 -1      9344 2.90812E+01 6.98177E+00 4.54545E+00
 -1      9345 2.73429E+01 8.88424E+00 4.54545E+00
 -1      9350 2.85317E+01 9.27051E+00 5.00000E+00
 -1      9351 2.90812E+01 6.98177E+00 5.45455E+00
 -1      9352 2.73429E+01 8.88424E+00 5.45455E+00
 -1      9357 2.85317E+01 9.27051E+00 5.90909E+00
 -1      9358 2.90812E+01 6.98177E+00 6.36364E+00
 -1      9359 2.73429E+01 8.88424E+00 6.36364E+00
 -1      9364 2.85317E+01 9.27051E+00 6.81818E+00
 -1      9365 2.90812E+01 6.98177E+00 7.27273E+00
 -1      9366 2.73429E+01 8.88424E+00 7.27273E+00
 -1      9371 2.85317E+01 9.27051E+00 7.72727E+00
 -1      9372 2.90812E+01 6.98177E+00 8.18182E+00
 -1      9373 2.73429E+01 8.88424E+00 8.18182E+00
 -1      9378 2.85317E+01 9.27051E+00 8.63636E+00
 -1      9379 2.90812E+01 6.98177E+00 9.09091E+00
 -1      9380 2.73429E+01 8.88424E+00 9.09091E+00
 -1      9385 2.85317E+01 9.27051E+00 9.54545E+00
 -1      9389 2.67302E+01 1.36197E+01 4.54545E-01
 -1      9390 2.76309E+01 1.14451E+01 9.09091E-01
 -1      9391 2.56164E+01 1.30522E+01 9.09091E-01
 -1      9396 2.67302E+01 1.36197E+01 1.36364E+00
 -1      9397 2.76309E+01 1.14451E+01 1.81818E+00
 -1      9398 2.56164E+01 1.30522E+01 1.81818E+00
 -1      9403 2.67302E+01 1.36197E+01 2.27273E+00
 -1      9404 2.76309E+01 1.14451E+01 2.72727E+00
 -1      9405 2.56164E+01 1.30522E+01 2.72727E+00
 -1      9410 2.67302E+01 1.36197E+01 3.18182E+00
 -1      9411 2.76309E+01 1.14451E+01 3.63636E+00
 -1      9412 2.56164E+01 1.30522E+01 3.63636E+00
 -1      9417 2.67302E+01 1.36197E+01 4.09091E+00
 -1      9418 2.76309E+01 1.14451E+01 4.54545E+00
 -1      9419 2.56164E+01 1.30522E+01 4.54545E+00
 -1      9424 2.67302E+01 1.36197E+01 5.00000E+00
 -1      9425 2.76309E+01 1.14451E+01 5.45455E+00
 -1      9426 2.56164E+01 1.30522E+01 5.45455E+00
 -1      9431 2.67302E+01 1.36197E+01 5.90909E+00
 -1      9432 2.76309E+01 1.14451E+01 6.36364E+00
 -1      9433 2.56164E+01 1.30522E+01 6.36364E+00
 -1      9438 2.67302E+01 1.36197E+01 6.81818E+00
 -1      9439 2.76309E+01 1.14451E+01 7.27273E+00
 -1      9440 2.56164E+01 1.30522E+01 7.27273E+00
 -1      9445 2.67302E+01 1.36197E+01 7.72727E+00
 -1      9446 2.76309E+01 1.14451E+01 8.18182E+00
 -1      9447 2.56164E+01 1.30522E+01 8.18182E+00
 -1      9452 2.67302E+01 1.36197E+01 8.63636E+00
 -1      9453 2.76309E+01 1.14451E+01 9.09091E+00
 -1      9454 2.56164E+01 1.30522E+01 9.09091E+00
 -1      9459 2.67302E+01 1.36197E+01 9.54545E+00
 -1      9463 2.42705E+01 1.76336E+01 4.54545E-01
 -1      9464 2.55004E+01 1.56266E+01 9.09091E-01
 -1      9465 2.32592E+01 1.68988E+01 9.09091E-01
 -1      9470 2.42705E+01 1.76336E+01 1.36364E+00
 -1      9471 2.55004E+01 1.56266E+01 1.81818E+00
 -1      9472 2.32592E+01 1.68988E+01 1.81818E+00
 -1      9477 2.42705E+01 1.76336E+01 2.27273E+00
 -1      9478 2.55004E+01 1.56266E+01 2.72727E+00
 -1      9479 2.32592E+01 1.68988E+01 2.72727E+00
 -1      9484 2.42705E+01 1.76336E+01 3.18182E+00
 -1      9485 2.55004E+01 1.56266E+01 3.63636E+00
 -1      9486 2.32592E+01 1.68988E+01 3.63636E+00
 -1      9491 2.42705E+01 1.76336E+01 4.09091E+00
 -1      9492 2.55004E+01 1.56266E+01 4.54545E+00
 -1      9493 2.32592E+01 1.68988E+01 4.54545E+00
 -1      9498 2.42705E+01 1.76336E+01 5.00000E+00
 -1      9499 2.55004E+01 1.56266E+01 5.45455E+00
 -1      9500 2.32592E+01 1.68988E+01 5.45455E+00
 -1      9505 2.42705E+01 1.76336E+01 5.90909E+00
 -1      9506 2.55004E+01 1.56266E+01 6.36364E+00
 -1      9507 2.32592E+01 1.68988E+01 6.36364E+00
 -1      9512 2.42705E+01 1.76336E+01 6.81818E+00
 -1      9513 2.55004E+01 1.56266E+01 7.27273E+00
 -1      9514 2.32592E+01 1.68988E+01 7.27273E+00
 -1      9519 2.42705E+01 1.76336E+01 7.72727E+00
 -1      9520 2.55004E+01 1.56266E+01 8.18182E+00
 -1      9521 2.32592E+01 1.68988E+01 8.18182E+00
 -1      9526 2.42705E+01 1.76336E+01 8.63636E+00
 -1      9527 2.55004E+01 1.56266E+01 9.09091E+00
 -1      9528 2.32592E+01 1.68988E+01 9.09091E+00
 -1      9533 2.42705E+01 1.76336E+01 9.54545E+00
 -1      9537 2.12132E+01 2.12132E+01 4.54545E-01
 -1      9538 2.27419E+01 1.94234E+01 9.09091E-01
 -1      9539 2.03293E+01 2.03293E+01 9.09091E-01
 -1      9544 2.12132E+01 2.12132E+01 1.36364E+00
 -1      9545 2.27419E+01 1.94234E+01 1.81818E+00
 -1      9546 2.03293E+01 2.03293E+01 1.81818E+00
 -1      9551 2.12132E+01 2.12132E+01 2.27273E+00
 -1      9552 2.27419E+01 1.94234E+01 2.72727E+00
 -1      9553 2.03293E+01 2.03293E+01 2.72727E+00
 -1      9558 2.12132E+01 2.12132E+01 3.18182E+00
 -1      9559 2.27419E+01 1.94234E+01 3.63636E+00
 -1      9560 2.03293E+01 2.03293E+01 3.63636E+00
 -1      9565 2.12132E+01 2.12132E+01 4.09091E+00
 -1      9566 2.27419E+01 1.94234E+01 4.54545E+00
 -1      9567 2.03293E+01 2.03293E+01 4.54545E+00
 -1      9572 2.12132E+01 2.12132E+01 5.00000E+00
 -1      9573 2.27419E+01 1.94234E+01 5.45455E+00
 -1      9574 2.03293E+01 2.03293E+01 5.45455E+00
 -1      9579 2.12132E+01 2.12132E+01 5.90909E+00
 -1      9580 2.27419E+01 1.94234E+01 6.36364E+00
 -1      9581 2.03293E+01 2.03293E+01 6.36364E+00
 -1      9586 2.12132E+01 2.12132E+01 6.81818E+00
 -1      9587 2.27419E+01 1.94234E+01 7.27273E+00
 -1      9588 2.03293E+01 2.03293E+01 7.27273E+00
 -1      9593 2.12132E+01 2.12132E+01 7.72727E+00
 -1      9594 2.27419E+01 1.94234E+01 8.18182E+00
 -1      9595 2.03293E+01 2.03293E+01 8.18182E+00
 -1      9600 2.12132E+01 2.12132E+01 8.63636E+00
 -1      9601 2.27419E+01 1.94234E+01 9.09091E+00
 -1      9602 2.03293E+01 2.03293E+01 9.09091E+00
 -1      9607 2.12132E+01 2.12132E+01 9.54545E+00
 -1      9611 1.76336E+01 2.42705E+01 4.54545E-01
 -1      9612 1.94234E+01 2.27419E+01 9.09091E-01
 -1      9613 1.68988E+01 2.32592E+01 9.09091E-01
 -1      9618 1.76336E+01 2.42705E+01 1.36364E+00
 -1      9619 1.94234E+01 2.27419E+01 1.81818E+00
 -1      9620 1.68988E+01 2.32592E+01 1.81818E+00
 -1      9625 1.76336E+01 2.42705E+01 2.27273E+00
 -1      9626 1.94234E+01 2.27419E+01 2.72727E+00
 -1      9627 1.68988E+01 2.32592E+01 2.72727E+00
 -1      9632 1.76336E+01 2.42705E+01 3.18182E+00
 -1      9633 1.94234E+01 2.27419E+01 3.63636E+00
 -1      9634 1.68988E+01 2.32592E+01 3.63636E+00
 -1      9639 1.76336E+01 2.42705E+01 4.09091E+00
 -1      9640 1.94234E+01 2.27419E+01 4.54545E+00
 -1      9641 1.68988E+01 2.32592E+01 4.54545E+00
 -1      9646 1.76336E+01 2.42705E+01 5.00000E+00
 -1      9647 1.94234E+01 2.27419E+01 5.45455E+00
 -1      9648 1.68988E+01 2.32592E+01 5.45455E+00
 -1      9653 1.76336E+01 2.42705E+01 5.90909E+00
 -1      9654 1.94234E+01 2.27419E+01 6.36364E+00
 -1      9655 1.68988E+01 2.32592E+01 6.36364E+00
 -1      9660 1.76336E+01 2.42705E+01 6.81818E+00
 -1      9661 1.94234E+01 2.27419E+01 7.27273E+00
 -1      9662 1.68988E+01 2.32592E+01 7.27273E+00
 -1      9667 1.76336E+01 2.42705E+01 7.72727E+00
 -1      9668 1.94234E+01 2.27419E+01 8.18182E+00
 -1      9669 1.68988E+01 2.32592E+01 8.18182E+00
 -1      9674 1.76336E+01 2.42705E+01 8.63636E+00
 -1      9675 1.94234E+01 2.27419E+01 9.09091E+00
 -1      9676 1.68988E+01 2.32592E+01 9.09091E+00
 -1      9681 1.76336E+01 2.42705E+01 9.54545E+00
 -1      9685 1.36197E+01 2.67302E+01 4.54545E-01
 -1      9686 1.56266E+01 2.55004E+01 9.09091E-01
 -1      9687 1.30522E+01 2.56164E+01 9.09091E-01
 -1      9692 1.36197E+01 2.67302E+01 1.36364E+00
 -1      9693 1.56266E+01 2.55004E+01 1.81818E+00
 -1      9694 1.30522E+01 2.56164E+01 1.81818E+00
 -1      9699 1.36197E+01 2.67302E+01 2.27273E+00
 -1      9700 1.56266E+01 2.55004E+01 2.72727E+00
 -1      9701 1.30522E+01 2.56164E+01 2.72727E+00
 -1      9706 1.36197E+01 2.67302E+01 3.18182E+00
 -1      9707 1.56266E+01 2.55004E+01 3.63636E+00
 -1      9708 1.30522E+01 2.56164E+01 3.63636E+00
 -1      9713 1.36197E+01 2.67302E+01 4.09091E+00
 -1      9714 1.56266E+01 2.55004E+01 4.54545E+00
 -1      9715 1.30522E+01 2.56164E+01 4.54545E+00
 -1      9720 1.36197E+01 2.67302E+01 5.00000E+00
 -1      9721 1.56266E+01 2.55004E+01 5.45455E+00
 -1      9722 1.30522E+01 2.56164E+01 5.45455E+00
 -1      9727 1.36197E+01 2.67302E+01 5.90909E+00
 -1      9728 1.56266E+01 2.55004E+01 6.36364E+00
 -1      9729 1.30522E+01 2.56164E+01 6.36364E+00
 -1      9734 1.36197E+01 2.67302E+01 6.81818E+00
 -1      9735 1.56266E+01 2.55004E+01 7.27273E+00
 -1      9736 1.30522E+01 2.56164E+01 7.27273E+00
 -1      9741 1.36197E+01 2.67302E+01 7.72727E+00
 -1      9742 1.56266E+01 2.55004E+01 8.18182E+00
 -1      9743 1.30522E+01 2.56164E+01 8.18182E+00
 -1      9748 1.36197E+01 2.67302E+01 8.63636E+00
 -1      9749 1.56266E+01 2.55004E+01 9.09091E+00
 -1      9750 1.30522E+01 2.56164E+01 9.09091E+00
 -1      9755 1.36197E+01 2.67302E+01 9.54545E+00
 -1      9759 9.27051E+00 2.85317E+01 4.54545E-01
 -1      9760 1.14451E+01 2.76309E+01 9.09091E-01
 -1      9761 8.88424E+00 2.73429E+01 9.09091E-01
 -1      9766 9.27051E+00 2.85317E+01 1.36364E+00
 -1      9767 1.14451E+01 2.76309E+01 1.81818E+00
 -1      9768 8.88424E+00 2.73429E+01 1.81818E+00
 -1      9773 9.27051E+00 2.85317E+01 2.27273E+00
 -1      9774 1.14451E+01 2.76309E+01 2.72727E+00
 -1      9775 8.88424E+00 2.73429E+01 2.72727E+00
 -1      9780 9.27051E+00 2.85317E+01 3.18182E+00
 -1      9781 1.14451E+01 2.76309E+01 3.63636E+00
 -1      9782 8.88424E+00 2.73429E+01 3.63636E+00
 -1      9787 9.27051E+00 2.85317E+01 4.09091E+00
 -1      9788 1.14451E+01 2.76309E+01 4.54545E+00
 -1      9789 8.88424E+00 2.73429E+01 4.54545E+00
 -1      9794 9.27051E+00 2.85317E+01 5.00000E+00
 -1      9795 1.14451E+01 2.76309E+01 5.45455E+00
 -1      9796 8.88424E+00 2.73429E+01 5.45455E+00
 -1      9801 9.27051E+00 2.85317E+01 5.90909E+00
 -1      9802 1.14451E+01 2.76309E+01 6.36364E+00
 -1      9803 8.88424E+00 2.73429E+01 6.36364E+00
 -1      9808 9.27051E+00 2.85317E+01 6.81818E+00
 -1      9809 1.14451E+01 2.76309E+01 7.27273E+00
 -1      9810 8.88424E+00 2.73429E+01 7.27273E+00
 -1      9815 9.27051E+00 2.85317E+01 7.72727E+00
 -1      9816 1.14451E+01 2.76309E+01 8.18182E+00
 -1      9817 8.88424E+00 2.73429E+01 8.18182E+00
 -1      9822 9.27051E+00 2.85317E+01 8.63636E+00
 -1      9823 1.14451E+01 2.76309E+01 9.09091E+00
 -1      9824 8.88424E+00 2.73429E+01 9.09091E+00
 -1      9829 9.27051E+00 2.85317E+01 9.54545E+00
 -1      9833 4.69303E+00 2.96306E+01 4.54545E-01
 -1      9834 6.98177E+00 2.90812E+01 9.09091E-01
 -1      9835 4.49749E+00 2.83960E+01 9.09091E-01
 -1      9840 4.69303E+00 2.96306E+01 1.36364E+00
 -1      9841 6.98177E+00 2.90812E+01 1.81818E+00
 -1      9842 4.49749E+00 2.83960E+01 1.81818E+00
 -1      9847 4.69303E+00 2.96306E+01 2.27273E+00
 -1      9848 6.98177E+00 2.90812E+01 2.72727E+00
 -1      9849 4.49749E+00 2.83960E+01 2.72727E+00
 -1      9854 4.69303E+00 2.96306E+01 3.18182E+00
 -1      9855 6.98177E+00 2.90812E+01 3.63636E+00
 -1      9856 4.49749E+00 2.83960E+01 3.63636E+00
 -1      9861 4.69303E+00 2.96306E+01 4.09091E+00
 -1      9862 6.98177E+00 2.90812E+01 4.54545E+00
 -1      9863 4.49749E+00 2.83960E+01 4.54545E+00
 -1      9868 4.69303E+00 2.96306E+01 5.00000E+00
 -1      9869 6.98177E+00 2.90812E+01 5.45455E+00
 -1      9870 4.49749E+00 2.83960E+01 5.45455E+00
 -1      9875 4.69303E+00 2.96306E+01 5.90909E+00
 -1      9876 6.98177E+00 2.90812E+01 6.36364E+00
 -1      9877 4.49749E+00 2.83960E+01 6.36364E+00
 -1      9882 4.69303E+00 2.96306E+01 6.81818E+00
 -1      9883 6.98177E+00 2.90812E+01 7.27273E+00
 -1      9884 4.49749E+00 2.83960E+01 7.27273E+00
 -1      9889 4.69303E+00 2.96306E+01 7.72727E+00
 -1      9890 6.98177E+00 2.90812E+01 8.18182E+00
 -1      9891 4.49749E+00 2.83960E+01 8.18182E+00
 -1      9896 4.69303E+00 2.96306E+01 8.63636E+00
 -1      9897 6.98177E+00 2.90812E+01 9.09091E+00
 -1      9898 4.49749E+00 2.83960E+01 9.09091E+00
 -1      9903 4.69303E+00 2.96306E+01 9.54545E+00
 -1      9907 2.34652E+00 2.98153E+01 9.09091E-01
 -1      9911 2.34652E+00 2.98153E+01 1.81818E+00
 -1      9915 2.34652E+00 2.98153E+01 2.72727E+00
 -1      9919 2.34652E+00 2.98153E+01 3.63636E+00
 -1      9923 2.34652E+00 2.98153E+01 4.54545E+00
 -1      9927 2.34652E+00 2.98153E+01 5.45455E+00
 -1      9931 2.34652E+00 2.98153E+01 6.36364E+00
 -1      9935 2.34652E+00 2.98153E+01 7.27273E+00
 -1      9939 2.34652E+00 2.98153E+01 8.18182E+00
 -1      9943 2.34652E+00 2.98153E+01 9.09091E+00
 -1      9949 3.20999E+01 5.08412E+00 4.54545E-01
 -1      9950 3.22999E+01 2.54206E+00 9.09091E-01
 -1      9951 3.08653E+01 4.88858E+00 9.09091E-01
 -1      9956 3.20999E+01 5.08412E+00 1.36364E+00
 -1      9957 3.22999E+01 2.54206E+00 1.81818E+00
 -1      9958 3.08653E+01 4.88858E+00 1.81818E+00
 -1      9963 3.20999E+01 5.08412E+00 2.27273E+00
 -1      9964 3.22999E+01 2.54206E+00 2.72727E+00
 -1      9965 3.08653E+01 4.88858E+00 2.72727E+00
 -1      9970 3.20999E+01 5.08412E+00 3.18182E+00
 -1      9971 3.22999E+01 2.54206E+00 3.63636E+00
 -1      9972 3.08653E+01 4.88858E+00 3.63636E+00
 -1      9977 3.20999E+01 5.08412E+00 4.09091E+00
 -1      9978 3.22999E+01 2.54206E+00 4.54545E+00
 -1      9979 3.08653E+01 4.88858E+00 4.54545E+00
 -1      9984 3.20999E+01 5.08412E+00 5.00000E+00
 -1      9985 3.22999E+01 2.54206E+00 5.45455E+00
 -1      9986 3.08653E+01 4.88858E+00 5.45455E+00
 -1      9991 3.20999E+01 5.08412E+00 5.90909E+00
 -1      9992 3.22999E+01 2.54206E+00 6.36364E+00
 -1      9993 3.08653E+01 4.88858E+00 6.36364E+00
 -1      9998 3.20999E+01 5.08412E+00 6.81818E+00
 -1      9999 3.22999E+01 2.54206E+00 7.27273E+00
 -1     10000 3.08653E+01 4.88858E+00 7.27273E+00
 -1     10005 3.20999E+01 5.08412E+00 7.72727E+00
 -1     10006 3.22999E+01 2.54206E+00 8.18182E+00
 -1     10007 3.08653E+01 4.88858E+00 8.18182E+00
 -1     10012 3.20999E+01 5.08412E+00 8.63636E+00
 -1     10013 3.22999E+01 2.54206E+00 9.09091E+00
 -1     10014 3.08653E+01 4.88858E+00 9.09091E+00
 -1     10019 3.20999E+01 5.08412E+00 9.54545E+00
 -1     10023 3.09093E+01 1.00431E+01 4.54545E-01
 -1     10024 3.15046E+01 7.56359E+00 9.09091E-01
 -1     10025 2.97205E+01 9.65678E+00 9.09091E-01
 -1     10030 3.09093E+01 1.00431E+01 1.36364E+00
 -1     10031 3.15046E+01 7.56359E+00 1.81818E+00
 -1     10032 2.97205E+01 9.65678E+00 1.81818E+00
 -1     10037 3.09093E+01 1.00431E+01 2.27273E+00
 -1     10038 3.15046E+01 7.56359E+00 2.72727E+00
 -1     10039 2.97205E+01 9.65678E+00 2.72727E+00
 -1     10044 3.09093E+01 1.00431E+01 3.18182E+00
 -1     10045 3.15046E+01 7.56359E+00 3.63636E+00
 -1     10046 2.97205E+01 9.65678E+00 3.63636E+00
 -1     10051 3.09093E+01 1.00431E+01 4.09091E+00
 -1     10052 3.15046E+01 7.56359E+00 4.54545E+00
 -1     10053 2.97205E+01 9.65678E+00 4.54545E+00
 -1     10058 3.09093E+01 1.00431E+01 5.00000E+00
 -1     10059 3.15046E+01 7.56359E+00 5.45455E+00
 -1     10060 2.97205E+01 9.65678E+00 5.45455E+00
 -1     10065 3.09093E+01 1.00431E+01 5.90909E+00
 -1     10066 3.15046E+01 7.56359E+00 6.36364E+00
 -1     10067 2.97205E+01 9.65678E+00 6.36364E+00
 -1     10072 3.09093E+01 1.00431E+01 6.81818E+00
 -1     10073 3.15046E+01 7.56359E+00 7.27273E+00
 -1     10074 2.97205E+01 9.65678E+00 7.27273E+00
 -1     10079 3.09093E+01 1.00431E+01 7.72727E+00
 -1     10080 3.15046E+01 7.56359E+00 8.18182E+00
 -1     10081 2.97205E+01 9.65678E+00 8.18182E+00
 -1     10086 3.09093E+01 1.00431E+01 8.63636E+00
 -1     10087 3.15046E+01 7.56359E+00 9.09091E+00
 -1     10088 2.97205E+01 9.65678E+00 9.09091E+00
 -1     10093 3.09093E+01 1.00431E+01 9.54545E+00
 -1     10097 2.89577E+01 1.47547E+01 4.54545E-01
 -1     10098 2.99335E+01 1.23989E+01 9.09091E-01
 -1     10099 2.78440E+01 1.41872E+01 9.09091E-01
 -1     10104 2.89577E+01 1.47547E+01 1.36364E+00
 -1     10105 2.99335E+01 1.23989E+01 1.81818E+00
 -1     10106 2.78440E+01 1.41872E+01 1.81818E+00
 -1     10111 2.89577E+01 1.47547E+01 2.27273E+00
 -1     10112 2.99335E+01 1.23989E+01 2.72727E+00
 -1     10113 2.78440E+01 1.41872E+01 2.72727E+00
 -1     10118 2.89577E+01 1.47547E+01 3.18182E+00
 -1     10119 2.99335E+01 1.23989E+01 3.63636E+00
 -1     10120 2.78440E+01 1.41872E+01 3.63636E+00
 -1     10125 2.89577E+01 1.47547E+01 4.09091E+00
 -1     10126 2.99335E+01 1.23989E+01 4.54545E+00
 -1     10127 2.78440E+01 1.41872E+01 4.54545E+00
 -1     10132 2.89577E+01 1.47547E+01 5.00000E+00
 -1     10133 2.99335E+01 1.23989E+01 5.45455E+00
 -1     10134 2.78440E+01 1.41872E+01 5.45455E+00
 -1     10139 2.89577E+01 1.47547E+01 5.90909E+00
 -1     10140 2.99335E+01 1.23989E+01 6.36364E+00
 -1     10141 2.78440E+01 1.41872E+01 6.36364E+00
 -1     10146 2.89577E+01 1.47547E+01 6.81818E+00
 -1     10147 2.99335E+01 1.23989E+01 7.27273E+00
 -1     10148 2.78440E+01 1.41872E+01 7.27273E+00
 -1     10153 2.89577E+01 1.47547E+01 7.72727E+00
 -1     10154 2.99335E+01 1.23989E+01 8.18182E+00
 -1     10155 2.78440E+01 1.41872E+01 8.18182E+00
 -1     10160 2.89577E+01 1.47547E+01 8.63636E+00
 -1     10161 2.99335E+01 1.23989E+01 9.09091E+00
 -1     10162 2.78440E+01 1.41872E+01 9.09091E+00
 -1     10167 2.89577E+01 1.47547E+01 9.54545E+00
 -1     10171 2.62931E+01 1.91030E+01 4.54545E-01
 -1     10172 2.76254E+01 1.69289E+01 9.09091E-01
 -1     10173 2.52818E+01 1.83683E+01 9.09091E-01
 -1     10178 2.62931E+01 1.91030E+01 1.36364E+00
 -1     10179 2.76254E+01 1.69289E+01 1.81818E+00
 -1     10180 2.52818E+01 1.83683E+01 1.81818E+00
 -1     10185 2.62931E+01 1.91030E+01 2.27273E+00
 -1     10186 2.76254E+01 1.69289E+01 2.72727E+00
 -1     10187 2.52818E+01 1.83683E+01 2.72727E+00
 -1     10192 2.62931E+01 1.91030E+01 3.18182E+00
 -1     10193 2.76254E+01 1.69289E+01 3.63636E+00
 -1     10194 2.52818E+01 1.83683E+01 3.63636E+00
 -1     10199 2.62931E+01 1.91030E+01 4.09091E+00
 -1     10200 2.76254E+01 1.69289E+01 4.54545E+00
 -1     10201 2.52818E+01 1.83683E+01 4.54545E+00
 -1     10206 2.62931E+01 1.91030E+01 5.00000E+00
 -1     10207 2.76254E+01 1.69289E+01 5.45455E+00
 -1     10208 2.52818E+01 1.83683E+01 5.45455E+00
 -1     10213 2.62931E+01 1.91030E+01 5.90909E+00
 -1     10214 2.76254E+01 1.69289E+01 6.36364E+00
 -1     10215 2.52818E+01 1.83683E+01 6.36364E+00
 -1     10220 2.62931E+01 1.91030E+01 6.81818E+00
 -1     10221 2.76254E+01 1.69289E+01 7.27273E+00
 -1     10222 2.52818E+01 1.83683E+01 7.27273E+00
 -1     10227 2.62931E+01 1.91030E+01 7.72727E+00
 -1     10228 2.76254E+01 1.69289E+01 8.18182E+00
 -1     10229 2.52818E+01 1.83683E+01 8.18182E+00
 -1     10234 2.62931E+01 1.91030E+01 8.63636E+00
 -1     10235 2.76254E+01 1.69289E+01 9.09091E+00
 -1     10236 2.52818E+01 1.83683E+01 9.09091E+00
 -1     10241 2.62931E+01 1.91030E+01 9.54545E+00
 -1     10245 2.29810E+01 2.29810E+01 4.54545E-01
 -1     10246 2.46370E+01 2.10420E+01 9.09091E-01
 -1     10247 2.20971E+01 2.20971E+01 9.09091E-01
 -1     10252 2.29810E+01 2.29810E+01 1.36364E+00
 -1     10253 2.46370E+01 2.10420E+01 1.81818E+00
 -1     10254 2.20971E+01 2.20971E+01 1.81818E+00
 -1     10259 2.29810E+01 2.29810E+01 2.27273E+00
 -1     10260 2.46370E+01 2.10420E+01 2.72727E+00
 -1     10261 2.20971E+01 2.20971E+01 2.72727E+00
 -1     10266 2.29810E+01 2.29810E+01 3.18182E+00
 -1     10267 2.46370E+01 2.10420E+01 3.63636E+00
 -1     10268 2.20971E+01 2.20971E+01 3.63636E+00
 -1     10273 2.29810E+01 2.29810E+01 4.09091E+00
 -1     10274 2.46370E+01 2.10420E+01 4.54545E+00
 -1     10275 2.20971E+01 2.20971E+01 4.54545E+00
 -1     10280 2.29810E+01 2.29810E+01 5.00000E+00
 -1     10281 2.46370E+01 2.10420E+01 5.45455E+00
 -1     10282 2.20971E+01 2.20971E+01 5.45455E+00
 -1     10287 2.29810E+01 2.29810E+01 5.90909E+00
 -1     10288 2.46370E+01 2.10420E+01 6.36364E+00
 -1     10289 2.20971E+01 2.20971E+01 6.36364E+00
 -1     10294 2.29810E+01 2.29810E+01 6.81818E+00
 -1     10295 2.46370E+01 2.10420E+01 7.27273E+00
 -1     10296 2.20971E+01 2.20971E+01 7.27273E+00
 -1     10301 2.29810E+01 2.29810E+01 7.72727E+00
 -1     10302 2.46370E+01 2.10420E+01 8.18182E+00
 -1     10303 2.20971E+01 2.20971E+01 8.18182E+00
 -1     10308 2.29810E+01 2.29810E+01 8.63636E+00
 -1     10309 2.46370E+01 2.10420E+01 9.09091E+00
 -1     10310 2.20971E+01 2.20971E+01 9.09091E+00
 -1     10315 2.29810E+01 2.29810E+01 9.54545E+00
 -1     10319 1.91030E+01 2.62931E+01 4.54545E-01
 -1     10320 2.10420E+01 2.46370E+01 9.09091E-01
 -1     10321 1.83683E+01 2.52818E+01 9.09091E-01
 -1     10326 1.91030E+01 2.62931E+01 1.36364E+00
 -1     10327 2.10420E+01 2.46370E+01 1.81818E+00
 -1     10328 1.83683E+01 2.52818E+01 1.81818E+00
 -1     10333 1.91030E+01 2.62931E+01 2.27273E+00
 -1     10334 2.10420E+01 2.46370E+01 2.72727E+00
 -1     10335 1.83683E+01 2.52818E+01 2.72727E+00
 -1     10340 1.91030E+01 2.62931E+01 3.18182E+00
 -1     10341 2.10420E+01 2.46370E+01 3.63636E+00
 -1     10342 1.83683E+01 2.52818E+01 3.63636E+00
 -1     10347 1.91030E+01 2.62931E+01 4.09091E+00
 -1     10348 2.10420E+01 2.46370E+01 4.54545E+00
 -1     10349 1.83683E+01 2.52818E+01 4.54545E+00
 -1     10354 1.91030E+01 2.62931E+01 5.00000E+00
 -1     10355 2.10420E+01 2.46370E+01 5.45455E+00
 -1     10356 1.83683E+01 2.52818E+01 5.45455E+00
 -1     10361 1.91030E+01 2.62931E+01 5.90909E+00
 -1     10362 2.10420E+01 2.46370E+01 6.36364E+00
 -1     10363 1.83683E+01 2.52818E+01 6.36364E+00
 -1     10368 1.91030E+01 2.62931E+01 6.81818E+00
 -1     10369 2.10420E+01 2.46370E+01 7.27273E+00
 -1     10370 1.83683E+01 2.52818E+01 7.27273E+00
 -1     10375 1.91030E+01 2.62931E+01 7.72727E+00
 -1     10376 2.10420E+01 2.46370E+01 8.18182E+00
 -1     10377 1.83683E+01 2.52818E+01 8.18182E+00
 -1     10382 1.91030E+01 2.62931E+01 8.63636E+00
 -1     10383 2.10420E+01 2.46370E+01 9.09091E+00
 -1     10384 1.83683E+01 2.52818E+01 9.09091E+00
 -1     10389 1.91030E+01 2.62931E+01 9.54545E+00
 -1     10393 1.47547E+01 2.89577E+01 4.54545E-01
 -1     10394 1.69289E+01 2.76254E+01 9.09091E-01
 -1     10395 1.41872E+01 2.78440E+01 9.09091E-01
 -1     10400 1.47547E+01 2.89577E+01 1.36364E+00
 -1     10401 1.69289E+01 2.76254E+01 1.81818E+00
 -1     10402 1.41872E+01 2.78440E+01 1.81818E+00
 -1     10407 1.47547E+01 2.89577E+01 2.27273E+00
 -1     10408 1.69289E+01 2.76254E+01 2.72727E+00
 -1     10409 1.41872E+01 2.78440E+01 2.72727E+00
 -1     10414 1.47547E+01 2.89577E+01 3.18182E+00
 -1     10415 1.69289E+01 2.76254E+01 3.63636E+00
 -1     10416 1.41872E+01 2.78440E+01 3.63636E+00
 -1     10421 1.47547E+01 2.89577E+01 4.09091E+00
 -1     10422 1.69289E+01 2.76254E+01 4.54545E+00
 -1     10423 1.41872E+01 2.78440E+01 4.54545E+00
 -1     10428 1.47547E+01 2.89577E+01 5.00000E+00
 -1     10429 1.69289E+01 2.76254E+01 5.45455E+00
 -1     10430 1.41872E+01 2.78440E+01 5.45455E+00
 -1     10435 1.47547E+01 2.89577E+01 5.90909E+00
 -1     10436 1.69289E+01 2.76254E+01 6.36364E+00
 -1     10437 1.41872E+01 2.78440E+01 6.36364E+00
 -1     10442 1.47547E+01 2.89577E+01 6.81818E+00
 -1     10443 1.69289E+01 2.76254E+01 7.27273E+00
 -1     10444 1.41872E+01 2.78440E+01 7.27273E+00
 -1     10449 1.47547E+01 2.89577E+01 7.72727E+00
 -1     10450 1.69289E+01 2.76254E+01 8.18182E+00
 -1     10451 1.41872E+01 2.78440E+01 8.18182E+00
 -1     10456 1.47547E+01 2.89577E+01 8.63636E+00
 -1     10457 1.69289E+01 2.76254E+01 9.09091E+00
 -1     10458 1.41872E+01 2.78440E+01 9.09091E+00
 -1     10463 1.47547E+01 2.89577E+01 9.54545E+00
 -1     10467 1.00431E+01 3.09093E+01 4.54545E-01
 -1     10468 1.23989E+01 2.99335E+01 9.09091E-01
 -1     10469 9.65678E+00 2.97205E+01 9.09091E-01
 -1     10474 1.00431E+01 3.09093E+01 1.36364E+00
 -1     10475 1.23989E+01 2.99335E+01 1.81818E+00
 -1     10476 9.65678E+00 2.97205E+01 1.81818E+00
 -1     10481 1.00431E+01 3.09093E+01 2.27273E+00
 -1     10482 1.23989E+01 2.99335E+01 2.72727E+00
 -1     10483 9.65678E+00 2.97205E+01 2.72727E+00
 -1     10488 1.00431E+01 3.09093E+01 3.18182E+00
 -1     10489 1.23989E+01 2.99335E+01 3.63636E+00
 -1     10490 9.65678E+00 2.97205E+01 3.63636E+00
 -1     10495 1.00431E+01 3.09093E+01 4.09091E+00
 -1     10496 1.23989E+01 2.99335E+01 4.54545E+00
 -1     10497 9.65678E+00 2.97205E+01 4.54545E+00
 -1     10502 1.00431E+01 3.09093E+01 5.00000E+00
 -1     10503 1.23989E+01 2.99335E+01 5.45455E+00
 -1     10504 9.65678E+00 2.97205E+01 5.45455E+00
 -1     10509 1.00431E+01 3.09093E+01 5.90909E+00
 -1     10510 1.23989E+01 2.99335E+01 6.36364E+00
 -1     10511 9.65678E+00 2.97205E+01 6.36364E+00
 -1     10516 1.00431E+01 3.09093E+01 6.81818E+00
 -1     10517 1.23989E+01 2.99335E+01 7.27273E+00
 -1     10518 9.65678E+00 2.97205E+01 7.27273E+00
 -1     10523 1.00431E+01 3.09093E+01 7.72727E+00
 -1     10524 1.23989E+01 2.99335E+01 8.18182E+00
 -1     10525 9.65678E+00 2.97205E+01 8.18182E+00
 -1     10530 1.00431E+01 3.09093E+01 8.63636E+00
 -1     10531 1.23989E+01 2.99335E+01 9.09091E+00
 -1     10532 9.65678E+00 2.97205E+01 9.09091E+00
 -1     10537 1.00431E+01 3.09093E+01 9.54545E+00
 -1     10541 5.08412E+00 3.20999E+01 4.54545E-01
 -1     10542 7.56359E+00 3.15046E+01 9.09091E-01
 -1     10543 4.88858E+00 3.08653E+01 9.09091E-01
 -1     10548 5.08412E+00 3.20999E+01 1.36364E+00
 -1     10549 7.56359E+00 3.15046E+01 1.81818E+00
 -1     10550 4.88858E+00 3.08653E+01 1.81818E+00
 -1     10555 5.08412E+00 3.20999E+01 2.27273E+00
 -1     10556 7.56359E+00 3.15046E+01 2.72727E+00
 -1     10557 4.88858E+00 3.08653E+01 2.72727E+00
 -1     10562 5.08412E+00 3.20999E+01 3.18182E+00
 -1     10563 7.56359E+00 3.15046E+01 3.63636E+00
 -1     10564 4.88858E+00 3.08653E+01 3.63636E+00
 -1     10569 5.08412E+00 3.20999E+01 4.09091E+00
 -1     10570 7.56359E+00 3.15046E+01 4.54545E+00
 -1     10571 4.88858E+00 3.08653E+01 4.54545E+00
 -1     10576 5.08412E+00 3.20999E+01 5.00000E+00
 -1     10577 7.56359E+00 3.15046E+01 5.45455E+00
 -1     10578 4.88858E+00 3.08653E+01 5.45455E+00
 -1     10583 5.08412E+00 3.20999E+01 5.90909E+00
 -1     10584 7.56359E+00 3.15046E+01 6.36364E+00
 -1     10585 4.88858E+00 3.08653E+01 6.36364E+00
 -1     10590 5.08412E+00 3.20999E+01 6.81818E+00
 -1     10591 7.56359E+00 3.15046E+01 7.27273E+00
 -1     10592 4.88858E+00 3.08653E+01 7.27273E+00
 -1     10597 5.08412E+00 3.20999E+01 7.72727E+00
 -1     10598 7.56359E+00 3.15046E+01 8.18182E+00
 -1     10599 4.88858E+00 3.08653E+01 8.18182E+00
 -1     10604 5.08412E+00 3.20999E+01 8.63636E+00
 -1     10605 7.56359E+00 3.15046E+01 9.09091E+00
 -1     10606 4.88858E+00 3.08653E+01 9.09091E+00
 -1     10611 5.08412E+00 3.20999E+01 9.54545E+00
 -1     10615 2.54206E+00 3.22999E+01 9.09091E-01
 -1     10619 2.54206E+00 3.22999E+01 1.81818E+00
 -1     10623 2.54206E+00 3.22999E+01 2.72727E+00
 -1     10627 2.54206E+00 3.22999E+01 3.63636E+00
 -1     10631 2.54206E+00 3.22999E+01 4.54545E+00
 -1     10635 2.54206E+00 3.22999E+01 5.45455E+00
 -1     10639 2.54206E+00 3.22999E+01 6.36364E+00
 -1     10643 2.54206E+00 3.22999E+01 7.27273E+00
 -1     10647 2.54206E+00 3.22999E+01 8.18182E+00
 -1     10651 2.54206E+00 3.22999E+01 9.09091E+00
 -1     10657 3.45691E+01 5.47521E+00 4.54545E-01
 -1     10658 3.47845E+01 2.73760E+00 9.09091E-01
 -1     10659 3.33345E+01 5.27966E+00 9.09091E-01
 -1     10664 3.45691E+01 5.47521E+00 1.36364E+00
 -1     10665 3.47845E+01 2.73760E+00 1.81818E+00
 -1     10666 3.33345E+01 5.27966E+00 1.81818E+00
 -1     10671 3.45691E+01 5.47521E+00 2.27273E+00
 -1     10672 3.47845E+01 2.73760E+00 2.72727E+00
 -1     10673 3.33345E+01 5.27966E+00 2.72727E+00
 -1     10678 3.45691E+01 5.47521E+00 3.18182E+00
 -1     10679 3.47845E+01 2.73760E+00 3.63636E+00
 -1     10680 3.33345E+01 5.27966E+00 3.63636E+00
 -1     10685 3.45691E+01 5.47521E+00 4.09091E+00
 -1     10686 3.47845E+01 2.73760E+00 4.54545E+00
 -1     10687 3.33345E+01 5.27966E+00 4.54545E+00
 -1     10692 3.45691E+01 5.47521E+00 5.00000E+00
 -1     10693 3.47845E+01 2.73760E+00 5.45455E+00
 -1     10694 3.33345E+01 5.27966E+00 5.45455E+00
 -1     10699 3.45691E+01 5.47521E+00 5.90909E+00
 -1     10700 3.47845E+01 2.73760E+00 6.36364E+00
 -1     10701 3.33345E+01 5.27966E+00 6.36364E+00
 -1     10706 3.45691E+01 5.47521E+00 6.81818E+00
 -1     10707 3.47845E+01 2.73760E+00 7.27273E+00
 -1     10708 3.33345E+01 5.27966E+00 7.27273E+00
 -1     10713 3.45691E+01 5.47521E+00 7.72727E+00
 -1     10714 3.47845E+01 2.73760E+00 8.18182E+00
 -1     10715 3.33345E+01 5.27966E+00 8.18182E+00
 -1     10720 3.45691E+01 5.47521E+00 8.63636E+00
 -1     10721 3.47845E+01 2.73760E+00 9.09091E+00
 -1     10722 3.33345E+01 5.27966E+00 9.09091E+00
 -1     10727 3.45691E+01 5.47521E+00 9.54545E+00
 -1     10731 3.32870E+01 1.08156E+01 4.54545E-01
 -1     10732 3.39280E+01 8.14540E+00 9.09091E-01
 -1     10733 3.20982E+01 1.04293E+01 9.09091E-01
 -1     10738 3.32870E+01 1.08156E+01 1.36364E+00
 -1     10739 3.39280E+01 8.14540E+00 1.81818E+00
 -1     10740 3.20982E+01 1.04293E+01 1.81818E+00
 -1     10745 3.32870E+01 1.08156E+01 2.27273E+00
 -1     10746 3.39280E+01 8.14540E+00 2.72727E+00
 -1     10747 3.20982E+01 1.04293E+01 2.72727E+00
 -1     10752 3.32870E+01 1.08156E+01 3.18182E+00
 -1     10753 3.39280E+01 8.14540E+00 3.63636E+00
 -1     10754 3.20982E+01 1.04293E+01 3.63636E+00
 -1     10759 3.32870E+01 1.08156E+01 4.09091E+00
 -1     10760 3.39280E+01 8.14540E+00 4.54545E+00
 -1     10761 3.20982E+01 1.04293E+01 4.54545E+00
 -1     10766 3.32870E+01 1.08156E+01 5.00000E+00
 -1     10767 3.39280E+01 8.14540E+00 5.45455E+00
 -1     10768 3.20982E+01 1.04293E+01 5.45455E+00
 -1     10773 3.32870E+01 1.08156E+01 5.90909E+00
 -1     10774 3.39280E+01 8.14540E+00 6.36364E+00
 -1     10775 3.20982E+01 1.04293E+01 6.36364E+00
 -1     10780 3.32870E+01 1.08156E+01 6.81818E+00
 -1     10781 3.39280E+01 8.14540E+00 7.27273E+00
 -1     10782 3.20982E+01 1.04293E+01 7.27273E+00
 -1     10787 3.32870E+01 1.08156E+01 7.72727E+00
 -1     10788 3.39280E+01 8.14540E+00 8.18182E+00
 -1     10789 3.20982E+01 1.04293E+01 8.18182E+00
 -1     10794 3.32870E+01 1.08156E+01 8.63636E+00
 -1     10795 3.39280E+01 8.14540E+00 9.09091E+00
 -1     10796 3.20982E+01 1.04293E+01 9.09091E+00
 -1     10801 3.32870E+01 1.08156E+01 9.54545E+00
 -1     10805 3.11852E+01 1.58897E+01 4.54545E-01
 -1     10806 3.22361E+01 1.33526E+01 9.09091E-01
 -1     10807 3.00715E+01 1.53222E+01 9.09091E-01
 -1     10812 3.11852E+01 1.58897E+01 1.36364E+00
 -1     10813 3.22361E+01 1.33526E+01 1.81818E+00
 -1     10814 3.00715E+01 1.53222E+01 1.81818E+00
 -1     10819 3.11852E+01 1.58897E+01 2.27273E+00
 -1     10820 3.22361E+01 1.33526E+01 2.72727E+00
 -1     10821 3.00715E+01 1.53222E+01 2.72727E+00
 -1     10826 3.11852E+01 1.58897E+01 3.18182E+00
 -1     10827 3.22361E+01 1.33526E+01 3.63636E+00
 -1     10828 3.00715E+01 1.53222E+01 3.63636E+00
 -1     10833 3.11852E+01 1.58897E+01 4.09091E+00
 -1     10834 3.22361E+01 1.33526E+01 4.54545E+00
 -1     10835 3.00715E+01 1.53222E+01 4.54545E+00
 -1     10840 3.11852E+01 1.58897E+01 5.00000E+00
 -1     10841 3.22361E+01 1.33526E+01 5.45455E+00
 -1     10842 3.00715E+01 1.53222E+01 5.45455E+00
 -1     10847 3.11852E+01 1.58897E+01 5.90909E+00
 -1     10848 3.22361E+01 1.33526E+01 6.36364E+00
 -1     10849 3.00715E+01 1.53222E+01 6.36364E+00
 -1     10854 3.11852E+01 1.58897E+01 6.81818E+00
 -1     10855 3.22361E+01 1.33526E+01 7.27273E+00
 -1     10856 3.00715E+01 1.53222E+01 7.27273E+00
 -1     10861 3.11852E+01 1.58897E+01 7.72727E+00
 -1     10862 3.22361E+01 1.33526E+01 8.18182E+00
 -1     10863 3.00715E+01 1.53222E+01 8.18182E+00
 -1     10868 3.11852E+01 1.58897E+01 8.63636E+00
 -1     10869 3.22361E+01 1.33526E+01 9.09091E+00
 -1     10870 3.00715E+01 1.53222E+01 9.09091E+00
 -1     10875 3.11852E+01 1.58897E+01 9.54545E+00
 -1     10879 2.83156E+01 2.05725E+01 4.54545E-01
 -1     10880 2.97504E+01 1.82311E+01 9.09091E-01
 -1     10881 2.73043E+01 1.98378E+01 9.09091E-01
 -1     10886 2.83156E+01 2.05725E+01 1.36364E+00
 -1     10887 2.97504E+01 1.82311E+01 1.81818E+00
 -1     10888 2.73043E+01 1.98378E+01 1.81818E+00
 -1     10893 2.83156E+01 2.05725E+01 2.27273E+00
 -1     10894 2.97504E+01 1.82311E+01 2.72727E+00
 -1     10895 2.73043E+01 1.98378E+01 2.72727E+00
 -1     10900 2.83156E+01 2.05725E+01 3.18182E+00
 -1     10901 2.97504E+01 1.82311E+01 3.63636E+00
 -1     10902 2.73043E+01 1.98378E+01 3.63636E+00
 -1     10907 2.83156E+01 2.05725E+01 4.09091E+00
 -1     10908 2.97504E+01 1.82311E+01 4.54545E+00
 -1     10909 2.73043E+01 1.98378E+01 4.54545E+00
 -1     10914 2.83156E+01 2.05725E+01 5.00000E+00
 -1     10915 2.97504E+01 1.82311E+01 5.45455E+00
 -1     10916 2.73043E+01 1.98378E+01 5.45455E+00
 -1     10921 2.83156E+01 2.05725E+01 5.90909E+00
 -1     10922 2.97504E+01 1.82311E+01 6.36364E+00
 -1     10923 2.73043E+01 1.98378E+01 6.36364E+00
 -1     10928 2.83156E+01 2.05725E+01 6.81818E+00
 -1     10929 2.97504E+01 1.82311E+01 7.27273E+00
 -1     10930 2.73043E+01 1.98378E+01 7.27273E+00
 -1     10935 2.83156E+01 2.05725E+01 7.72727E+00
 -1     10936 2.97504E+01 1.82311E+01 8.18182E+00
 -1     10937 2.73043E+01 1.98378E+01 8.18182E+00
 -1     10942 2.83156E+01 2.05725E+01 8.63636E+00
 -1     10943 2.97504E+01 1.82311E+01 9.09091E+00
 -1     10944 2.73043E+01 1.98378E+01 9.09091E+00
 -1     10949 2.83156E+01 2.05725E+01 9.54545E+00
 -1     10953 2.47487E+01 2.47487E+01 4.54545E-01
 -1     10954 2.65322E+01 2.26606E+01 9.09091E-01
 -1     10955 2.38649E+01 2.38649E+01 9.09091E-01
 -1     10960 2.47487E+01 2.47487E+01 1.36364E+00
 -1     10961 2.65322E+01 2.26606E+01 1.81818E+00
 -1     10962 2.38649E+01 2.38649E+01 1.81818E+00
 -1     10967 2.47487E+01 2.47487E+01 2.27273E+00
 -1     10968 2.65322E+01 2.26606E+01 2.72727E+00
 -1     10969 2.38649E+01 2.38649E+01 2.72727E+00
 -1     10974 2.47487E+01 2.47487E+01 3.18182E+00
 -1     10975 2.65322E+01 2.26606E+01 3.63636E+00
 -1     10976 2.38649E+01 2.38649E+01 3.63636E+00
 -1     10981 2.47487E+01 2.47487E+01 4.09091E+00
 -1     10982 2.65322E+01 2.26606E+01 4.54545E+00
 -1     10983 2.38649E+01 2.38649E+01 4.54545E+00
 -1     10988 2.47487E+01 2.47487E+01 5.00000E+00
 -1     10989 2.65322E+01 2.26606E+01 5.45455E+00
 -1     10990 2.38649E+01 2.38649E+01 5.45455E+00
 -1     10995 2.47487E+01 2.47487E+01 5.90909E+00
 -1     10996 2.65322E+01 2.26606E+01 6.36364E+00
 -1     10997 2.38649E+01 2.38649E+01 6.36364E+00
 -1     11002 2.47487E+01 2.47487E+01 6.81818E+00
 -1     11003 2.65322E+01 2.26606E+01 7.27273E+00
 -1     11004 2.38649E+01 2.38649E+01 7.27273E+00
 -1     11009 2.47487E+01 2.47487E+01 7.72727E+00
 -1     11010 2.65322E+01 2.26606E+01 8.18182E+00
 -1     11011 2.38649E+01 2.38649E+01 8.18182E+00
 -1     11016 2.47487E+01 2.47487E+01 8.63636E+00
 -1     11017 2.65322E+01 2.26606E+01 9.09091E+00
 -1     11018 2.38649E+01 2.38649E+01 9.09091E+00
 -1     11023 2.47487E+01 2.47487E+01 9.54545E+00
 -1     11027 2.05725E+01 2.83156E+01 4.54545E-01
 -1     11028 2.26606E+01 2.65322E+01 9.09091E-01
 -1     11029 1.98378E+01 2.73043E+01 9.09091E-01
 -1     11034 2.05725E+01 2.83156E+01 1.36364E+00
 -1     11035 2.26606E+01 2.65322E+01 1.81818E+00
 -1     11036 1.98378E+01 2.73043E+01 1.81818E+00
 -1     11041 2.05725E+01 2.83156E+01 2.27273E+00
 -1     11042 2.26606E+01 2.65322E+01 2.72727E+00
 -1     11043 1.98378E+01 2.73043E+01 2.72727E+00
 -1     11048 2.05725E+01 2.83156E+01 3.18182E+00
 -1     11049 2.26606E+01 2.65322E+01 3.63636E+00
 -1     11050 1.98378E+01 2.73043E+01 3.63636E+00
 -1     11055 2.05725E+01 2.83156E+01 4.09091E+00
 -1     11056 2.26606E+01 2.65322E+01 4.54545E+00
 -1     11057 1.98378E+01 2.73043E+01 4.54545E+00
 -1     11062 2.05725E+01 2.83156E+01 5.00000E+00
 -1     11063 2.26606E+01 2.65322E+01 5.45455E+00
 -1     11064 1.98378E+01 2.73043E+01 5.45455E+00
 -1     11069 2.05725E+01 2.83156E+01 5.90909E+00
 -1     11070 2.26606E+01 2.65322E+01 6.36364E+00
 -1     11071 1.98378E+01 2.73043E+01 6.36364E+00
 -1     11076 2.05725E+01 2.83156E+01 6.81818E+00
 -1     11077 2.26606E+01 2.65322E+01 7.27273E+00
 -1     11078 1.98378E+01 2.73043E+01 7.27273E+00
 -1     11083 2.05725E+01 2.83156E+01 7.72727E+00
 -1     11084 2.26606E+01 2.65322E+01 8.18182E+00
 -1     11085 1.98378E+01 2.73043E+01 8.18182E+00
 -1     11090 2.05725E+01 2.83156E+01 8.63636E+00
 -1     11091 2.26606E+01 2.65322E+01 9.09091E+00
 -1     11092 1.98378E+01 2.73043E+01 9.09091E+00
 -1     11097 2.05725E+01 2.83156E+01 9.54545E+00
 -1     11101 1.58897E+01 3.11852E+01 4.54545E-01
 -1     11102 1.82311E+01 2.97504E+01 9.09091E-01
 -1     11103 1.53222E+01 3.00715E+01 9.09091E-01
 -1     11108 1.58897E+01 3.11852E+01 1.36364E+00
 -1     11109 1.82311E+01 2.97504E+01 1.81818E+00
 -1     11110 1.53222E+01 3.00715E+01 1.81818E+00
 -1     11115 1.58897E+01 3.11852E+01 2.27273E+00
 -1     11116 1.82311E+01 2.97504E+01 2.72727E+00
 -1     11117 1.53222E+01 3.00715E+01 2.72727E+00
 -1     11122 1.58897E+01 3.11852E+01 3.18182E+00
 -1     11123 1.82311E+01 2.97504E+01 3.63636E+00
 -1     11124 1.53222E+01 3.00715E+01 3.63636E+00
 -1     11129 1.58897E+01 3.11852E+01 4.09091E+00
 -1     11130 1.82311E+01 2.97504E+01 4.54545E+00
 -1     11131 1.53222E+01 3.00715E+01 4.54545E+00
 -1     11136 1.58897E+01 3.11852E+01 5.00000E+00
 -1     11137 1.82311E+01 2.97504E+01 5.45455E+00
 -1     11138 1.53222E+01 3.00715E+01 5.45455E+00
 -1     11143 1.58897E+01 3.11852E+01 5.90909E+00
 -1     11144 1.82311E+01 2.97504E+01 6.36364E+00
 -1     11145 1.53222E+01 3.00715E+01 6.36364E+00
 -1     11150 1.58897E+01 3.11852E+01 6.81818E+00
 -1     11151 1.82311E+01 2.97504E+01 7.27273E+00
 -1     11152 1.53222E+01 3.00715E+01 7.27273E+00
 -1     11157 1.58897E+01 3.11852E+01 7.72727E+00
 -1     11158 1.82311E+01 2.97504E+01 8.18182E+00
 -1     11159 1.53222E+01 3.00715E+01 8.18182E+00
 -1     11164 1.58897E+01 3.11852E+01 8.63636E+00
 -1     11165 1.82311E+01 2.97504E+01 9.09091E+00
 -1     11166 1.53222E+01 3.00715E+01 9.09091E+00
 -1     11171 1.58897E+01 3.11852E+01 9.54545E+00
 -1     11175 1.08156E+01 3.32870E+01 4.54545E-01
 -1     11176 1.33526E+01 3.22361E+01 9.09091E-01
 -1     11177 1.04293E+01 3.20982E+01 9.09091E-01
 -1     11182 1.08156E+01 3.32870E+01 1.36364E+00
 -1     11183 1.33526E+01 3.22361E+01 1.81818E+00
 -1     11184 1.04293E+01 3.20982E+01 1.81818E+00
 -1     11189 1.08156E+01 3.32870E+01 2.27273E+00
 -1     11190 1.33526E+01 3.22361E+01 2.72727E+00
 -1     11191 1.04293E+01 3.20982E+01 2.72727E+00
 -1     11196 1.08156E+01 3.32870E+01 3.18182E+00
 -1     11197 1.33526E+01 3.22361E+01 3.63636E+00
 -1     11198 1.04293E+01 3.20982E+01 3.63636E+00
 -1     11203 1.08156E+01 3.32870E+01 4.09091E+00
 -1     11204 1.33526E+01 3.22361E+01 4.54545E+00
 -1     11205 1.04293E+01 3.20982E+01 4.54545E+00
 -1     11210 1.08156E+01 3.32870E+01 5.00000E+00
 -1     11211 1.33526E+01 3.22361E+01 5.45455E+00
 -1     11212 1.04293E+01 3.20982E+01 5.45455E+00
 -1     11217 1.08156E+01 3.32870E+01 5.90909E+00
 -1     11218 1.33526E+01 3.22361E+01 6.36364E+00
 -1     11219 1.04293E+01 3.20982E+01 6.36364E+00
 -1     11224 1.08156E+01 3.32870E+01 6.81818E+00
 -1     11225 1.33526E+01 3.22361E+01 7.27273E+00
 -1     11226 1.04293E+01 3.20982E+01 7.27273E+00
 -1     11231 1.08156E+01 3.32870E+01 7.72727E+00
 -1     11232 1.33526E+01 3.22361E+01 8.18182E+00
 -1     11233 1.04293E+01 3.20982E+01 8.18182E+00
 -1     11238 1.08156E+01 3.32870E+01 8.63636E+00
 -1     11239 1.33526E+01 3.22361E+01 9.09091E+00
 -1     11240 1.04293E+01 3.20982E+01 9.09091E+00
 -1     11245 1.08156E+01 3.32870E+01 9.54545E+00
 -1     11249 5.47521E+00 3.45691E+01 4.54545E-01
 -1     11250 8.14540E+00 3.39280E+01 9.09091E-01
 -1     11251 5.27966E+00 3.33345E+01 9.09091E-01
 -1     11256 5.47521E+00 3.45691E+01 1.36364E+00
 -1     11257 8.14540E+00 3.39280E+01 1.81818E+00
 -1     11258 5.27966E+00 3.33345E+01 1.81818E+00
 -1     11263 5.47521E+00 3.45691E+01 2.27273E+00
 -1     11264 8.14540E+00 3.39280E+01 2.72727E+00
 -1     11265 5.27966E+00 3.33345E+01 2.72727E+00
 -1     11270 5.47521E+00 3.45691E+01 3.18182E+00
 -1     11271 8.14540E+00 3.39280E+01 3.63636E+00
 -1     11272 5.27966E+00 3.33345E+01 3.63636E+00
 -1     11277 5.47521E+00 3.45691E+01 4.09091E+00
 -1     11278 8.14540E+00 3.39280E+01 4.54545E+00
 -1     11279 5.27966E+00 3.33345E+01 4.54545E+00
 -1     11284 5.47521E+00 3.45691E+01 5.00000E+00
 -1     11285 8.14540E+00 3.39280E+01 5.45455E+00
 -1     11286 5.27966E+00 3.33345E+01 5.45455E+00
 -1     11291 5.47521E+00 3.45691E+01 5.90909E+00
 -1     11292 8.14540E+00 3.39280E+01 6.36364E+00
 -1     11293 5.27966E+00 3.33345E+01 6.36364E+00
 -1     11298 5.47521E+00 3.45691E+01 6.81818E+00
 -1     11299 8.14540E+00 3.39280E+01 7.27273E+00
 -1     11300 5.27966E+00 3.33345E+01 7.27273E+00
 -1     11305 5.47521E+00 3.45691E+01 7.72727E+00
 -1     11306 8.14540E+00 3.39280E+01 8.18182E+00
 -1     11307 5.27966E+00 3.33345E+01 8.18182E+00
 -1     11312 5.47521E+00 3.45691E+01 8.63636E+00
 -1     11313 8.14540E+00 3.39280E+01 9.09091E+00
 -1     11314 5.27966E+00 3.33345E+01 9.09091E+00
 -1     11319 5.47521E+00 3.45691E+01 9.54545E+00
 -1     11323 2.73760E+00 3.47845E+01 9.09091E-01
 -1     11327 2.73760E+00 3.47845E+01 1.81818E+00
 -1     11331 2.73760E+00 3.47845E+01 2.72727E+00
 -1     11335 2.73760E+00 3.47845E+01 3.63636E+00
 -1     11339 2.73760E+00 3.47845E+01 4.54545E+00
 -1     11343 2.73760E+00 3.47845E+01 5.45455E+00
 -1     11347 2.73760E+00 3.47845E+01 6.36364E+00
 -1     11351 2.73760E+00 3.47845E+01 7.27273E+00
 -1     11355 2.73760E+00 3.47845E+01 8.18182E+00
 -1     11359 2.73760E+00 3.47845E+01 9.09091E+00
 -1     11365 3.70383E+01 5.86629E+00 4.54545E-01
 -1     11366 3.72692E+01 2.93315E+00 9.09091E-01
 -1     11367 3.58037E+01 5.67075E+00 9.09091E-01
 -1     11372 3.70383E+01 5.86629E+00 1.36364E+00
 -1     11373 3.72692E+01 2.93315E+00 1.81818E+00
 -1     11374 3.58037E+01 5.67075E+00 1.81818E+00
 -1     11379 3.70383E+01 5.86629E+00 2.27273E+00
 -1     11380 3.72692E+01 2.93315E+00 2.72727E+00
 -1     11381 3.58037E+01 5.67075E+00 2.72727E+00
 -1     11386 3.70383E+01 5.86629E+00 3.18182E+00
 -1     11387 3.72692E+01 2.93315E+00 3.63636E+00
 -1     11388 3.58037E+01 5.67075E+00 3.63636E+00
 -1     11393 3.70383E+01 5.86629E+00 4.09091E+00
 -1     11394 3.72692E+01 2.93315E+00 4.54545E+00
 -1     11395 3.58037E+01 5.67075E+00 4.54545E+00
 -1     11400 3.70383E+01 5.86629E+00 5.00000E+00
 -1     11401 3.72692E+01 2.93315E+00 5.45455E+00
 -1     11402 3.58037E+01 5.67075E+00 5.45455E+00
 -1     11407 3.70383E+01 5.86629E+00 5.90909E+00
 -1     11408 3.72692E+01 2.93315E+00 6.36364E+00
 -1     11409 3.58037E+01 5.67075E+00 6.36364E+00
 -1     11414 3.70383E+01 5.86629E+00 6.81818E+00
 -1     11415 3.72692E+01 2.93315E+00 7.27273E+00
 -1     11416 3.58037E+01 5.67075E+00 7.27273E+00
 -1     11421 3.70383E+01 5.86629E+00 7.72727E+00
 -1     11422 3.72692E+01 2.93315E+00 8.18182E+00
 -1     11423 3.58037E+01 5.67075E+00 8.18182E+00
 -1     11428 3.70383E+01 5.86629E+00 8.63636E+00
 -1     11429 3.72692E+01 2.93315E+00 9.09091E+00
 -1     11430 3.58037E+01 5.67075E+00 9.09091E+00
 -1     11435 3.70383E+01 5.86629E+00 9.54545E+00
 -1     11439 3.56646E+01 1.15881E+01 4.54545E-01
 -1     11440 3.63515E+01 8.72721E+00 9.09091E-01
 -1     11441 3.44758E+01 1.12019E+01 9.09091E-01
 -1     11446 3.56646E+01 1.15881E+01 1.36364E+00
 -1     11447 3.63515E+01 8.72721E+00 1.81818E+00
 -1     11448 3.44758E+01 1.12019E+01 1.81818E+00
 -1     11453 3.56646E+01 1.15881E+01 2.27273E+00
 -1     11454 3.63515E+01 8.72721E+00 2.72727E+00
 -1     11455 3.44758E+01 1.12019E+01 2.72727E+00
 -1     11460 3.56646E+01 1.15881E+01 3.18182E+00
 -1     11461 3.63515E+01 8.72721E+00 3.63636E+00
 -1     11462 3.44758E+01 1.12019E+01 3.63636E+00
 -1     11467 3.56646E+01 1.15881E+01 4.09091E+00
 -1     11468 3.63515E+01 8.72721E+00 4.54545E+00
 -1     11469 3.44758E+01 1.12019E+01 4.54545E+00
 -1     11474 3.56646E+01 1.15881E+01 5.00000E+00
 -1     11475 3.63515E+01 8.72721E+00 5.45455E+00
 -1     11476 3.44758E+01 1.12019E+01 5.45455E+00
 -1     11481 3.56646E+01 1.15881E+01 5.90909E+00
 -1     11482 3.63515E+01 8.72721E+00 6.36364E+00
 -1     11483 3.44758E+01 1.12019E+01 6.36364E+00
 -1     11488 3.56646E+01 1.15881E+01 6.81818E+00
 -1     11489 3.63515E+01 8.72721E+00 7.27273E+00
 -1     11490 3.44758E+01 1.12019E+01 7.27273E+00
 -1     11495 3.56646E+01 1.15881E+01 7.72727E+00
 -1     11496 3.63515E+01 8.72721E+00 8.18182E+00
 -1     11497 3.44758E+01 1.12019E+01 8.18182E+00
 -1     11502 3.56646E+01 1.15881E+01 8.63636E+00
 -1     11503 3.63515E+01 8.72721E+00 9.09091E+00
 -1     11504 3.44758E+01 1.12019E+01 9.09091E+00
 -1     11509 3.56646E+01 1.15881E+01 9.54545E+00
 -1     11513 3.34127E+01 1.70246E+01 4.54545E-01
 -1     11514 3.45387E+01 1.43064E+01 9.09091E-01
 -1     11515 3.22990E+01 1.64572E+01 9.09091E-01
 -1     11520 3.34127E+01 1.70246E+01 1.36364E+00
 -1     11521 3.45387E+01 1.43064E+01 1.81818E+00
 -1     11522 3.22990E+01 1.64572E+01 1.81818E+00
 -1     11527 3.34127E+01 1.70246E+01 2.27273E+00
 -1     11528 3.45387E+01 1.43064E+01 2.72727E+00
 -1     11529 3.22990E+01 1.64572E+01 2.72727E+00
 -1     11534 3.34127E+01 1.70246E+01 3.18182E+00
 -1     11535 3.45387E+01 1.43064E+01 3.63636E+00
 -1     11536 3.22990E+01 1.64572E+01 3.63636E+00
 -1     11541 3.34127E+01 1.70246E+01 4.09091E+00
 -1     11542 3.45387E+01 1.43064E+01 4.54545E+00
 -1     11543 3.22990E+01 1.64572E+01 4.54545E+00
 -1     11548 3.34127E+01 1.70246E+01 5.00000E+00
 -1     11549 3.45387E+01 1.43064E+01 5.45455E+00
 -1     11550 3.22990E+01 1.64572E+01 5.45455E+00
 -1     11555 3.34127E+01 1.70246E+01 5.90909E+00
 -1     11556 3.45387E+01 1.43064E+01 6.36364E+00
 -1     11557 3.22990E+01 1.64572E+01 6.36364E+00
 -1     11562 3.34127E+01 1.70246E+01 6.81818E+00
 -1     11563 3.45387E+01 1.43064E+01 7.27273E+00
 -1     11564 3.22990E+01 1.64572E+01 7.27273E+00
 -1     11569 3.34127E+01 1.70246E+01 7.72727E+00
 -1     11570 3.45387E+01 1.43064E+01 8.18182E+00
 -1     11571 3.22990E+01 1.64572E+01 8.18182E+00
 -1     11576 3.34127E+01 1.70246E+01 8.63636E+00
 -1     11577 3.45387E+01 1.43064E+01 9.09091E+00
 -1     11578 3.22990E+01 1.64572E+01 9.09091E+00
 -1     11583 3.34127E+01 1.70246E+01 9.54545E+00
 -1     11587 3.03381E+01 2.20419E+01 4.54545E-01
 -1     11588 3.18754E+01 1.95333E+01 9.09091E-01
 -1     11589 2.93269E+01 2.13072E+01 9.09091E-01
 -1     11594 3.03381E+01 2.20419E+01 1.36364E+00
 -1     11595 3.18754E+01 1.95333E+01 1.81818E+00
 -1     11596 2.93269E+01 2.13072E+01 1.81818E+00
 -1     11601 3.03381E+01 2.20419E+01 2.27273E+00
 -1     11602 3.18754E+01 1.95333E+01 2.72727E+00
 -1     11603 2.93269E+01 2.13072E+01 2.72727E+00
 -1     11608 3.03381E+01 2.20419E+01 3.18182E+00
 -1     11609 3.18754E+01 1.95333E+01 3.63636E+00
 -1     11610 2.93269E+01 2.13072E+01 3.63636E+00
 -1     11615 3.03381E+01 2.20419E+01 4.09091E+00
 -1     11616 3.18754E+01 1.95333E+01 4.54545E+00
 -1     11617 2.93269E+01 2.13072E+01 4.54545E+00
 -1     11622 3.03381E+01 2.20419E+01 5.00000E+00
 -1     11623 3.18754E+01 1.95333E+01 5.45455E+00
 -1     11624 2.93269E+01 2.13072E+01 5.45455E+00
 -1     11629 3.03381E+01 2.20419E+01 5.90909E+00
 -1     11630 3.18754E+01 1.95333E+01 6.36364E+00
 -1     11631 2.93269E+01 2.13072E+01 6.36364E+00
 -1     11636 3.03381E+01 2.20419E+01 6.81818E+00
 -1     11637 3.18754E+01 1.95333E+01 7.27273E+00
 -1     11638 2.93269E+01 2.13072E+01 7.27273E+00
 -1     11643 3.03381E+01 2.20419E+01 7.72727E+00
 -1     11644 3.18754E+01 1.95333E+01 8.18182E+00
 -1     11645 2.93269E+01 2.13072E+01 8.18182E+00
 -1     11650 3.03381E+01 2.20419E+01 8.63636E+00
 -1     11651 3.18754E+01 1.95333E+01 9.09091E+00
 -1     11652 2.93269E+01 2.13072E+01 9.09091E+00
 -1     11657 3.03381E+01 2.20419E+01 9.54545E+00
 -1     11661 2.65165E+01 2.65165E+01 4.54545E-01
 -1     11662 2.84273E+01 2.42792E+01 9.09091E-01
 -1     11663 2.56326E+01 2.56326E+01 9.09091E-01
 -1     11668 2.65165E+01 2.65165E+01 1.36364E+00
 -1     11669 2.84273E+01 2.42792E+01 1.81818E+00
 -1     11670 2.56326E+01 2.56326E+01 1.81818E+00
 -1     11675 2.65165E+01 2.65165E+01 2.27273E+00
 -1     11676 2.84273E+01 2.42792E+01 2.72727E+00
 -1     11677 2.56326E+01 2.56326E+01 2.72727E+00
 -1     11682 2.65165E+01 2.65165E+01 3.18182E+00
 -1     11683 2.84273E+01 2.42792E+01 3.63636E+00
 -1     11684 2.56326E+01 2.56326E+01 3.63636E+00
 -1     11689 2.65165E+01 2.65165E+01 4.09091E+00
 -1     11690 2.84273E+01 2.42792E+01 4.54545E+00
 -1     11691 2.56326E+01 2.56326E+01 4.54545E+00
 -1     11696 2.65165E+01 2.65165E+01 5.00000E+00
 -1     11697 2.84273E+01 2.42792E+01 5.45455E+00
 -1     11698 2.56326E+01 2.56326E+01 5.45455E+00
 -1     11703 2.65165E+01 2.65165E+01 5.90909E+00
 -1     11704 2.84273E+01 2.42792E+01 6.36364E+00
 -1     11705 2.56326E+01 2.56326E+01 6.36364E+00
 -1     11710 2.65165E+01 2.65165E+01 6.81818E+00
 -1     11711 2.84273E+01 2.42792E+01 7.27273E+00
 -1     11712 2.56326E+01 2.56326E+01 7.27273E+00
 -1     11717 2.65165E+01 2.65165E+01 7.72727E+00
 -1     11718 2.84273E+01 2.42792E+01 8.18182E+00
 -1     11719 2.56326E+01 2.56326E+01 8.18182E+00
 -1     11724 2.65165E+01 2.65165E+01 8.63636E+00
 -1     11725 2.84273E+01 2.42792E+01 9.09091E+00
 -1     11726 2.56326E+01 2.56326E+01 9.09091E+00
 -1     11731 2.65165E+01 2.65165E+01 9.54545E+00
 -1     11735 2.20419E+01 3.03381E+01 4.54545E-01
 -1     11736 2.42792E+01 2.84273E+01 9.09091E-01
 -1     11737 2.13072E+01 2.93269E+01 9.09091E-01
 -1     11742 2.20419E+01 3.03381E+01 1.36364E+00
 -1     11743 2.42792E+01 2.84273E+01 1.81818E+00
 -1     11744 2.13072E+01 2.93269E+01 1.81818E+00
 -1     11749 2.20419E+01 3.03381E+01 2.27273E+00
 -1     11750 2.42792E+01 2.84273E+01 2.72727E+00
 -1     11751 2.13072E+01 2.93269E+01 2.72727E+00
 -1     11756 2.20419E+01 3.03381E+01 3.18182E+00
 -1     11757 2.42792E+01 2.84273E+01 3.63636E+00
 -1     11758 2.13072E+01 2.93269E+01 3.63636E+00
 -1     11763 2.20419E+01 3.03381E+01 4.09091E+00
 -1     11764 2.42792E+01 2.84273E+01 4.54545E+00
 -1     11765 2.13072E+01 2.93269E+01 4.54545E+00
 -1     11770 2.20419E+01 3.03381E+01 5.00000E+00
 -1     11771 2.42792E+01 2.84273E+01 5.45455E+00
 -1     11772 2.13072E+01 2.93269E+01 5.45455E+00
 -1     11777 2.20419E+01 3.03381E+01 5.90909E+00
 -1     11778 2.42792E+01 2.84273E+01 6.36364E+00
 -1     11779 2.13072E+01 2.93269E+01 6.36364E+00
 -1     11784 2.20419E+01 3.03381E+01 6.81818E+00
 -1     11785 2.42792E+01 2.84273E+01 7.27273E+00
 -1     11786 2.13072E+01 2.93269E+01 7.27273E+00
 -1     11791 2.20419E+01 3.03381E+01 7.72727E+00
 -1     11792 2.42792E+01 2.84273E+01 8.18182E+00
 -1     11793 2.13072E+01 2.93269E+01 8.18182E+00
 -1     11798 2.20419E+01 3.03381E+01 8.63636E+00
 -1     11799 2.42792E+01 2.84273E+01 9.09091E+00
 -1     11800 2.13072E+01 2.93269E+01 9.09091E+00
 -1     11805 2.20419E+01 3.03381E+01 9.54545E+00
 -1     11809 1.70246E+01 3.34127E+01 4.54545E-01
 -1     11810 1.95333E+01 3.18754E+01 9.09091E-01
 -1     11811 1.64572E+01 3.22990E+01 9.09091E-01
 -1     11816 1.70246E+01 3.34127E+01 1.36364E+00
 -1     11817 1.95333E+01 3.18754E+01 1.81818E+00
 -1     11818 1.64572E+01 3.22990E+01 1.81818E+00
 -1     11823 1.70246E+01 3.34127E+01 2.27273E+00
 -1     11824 1.95333E+01 3.18754E+01 2.72727E+00
 -1     11825 1.64572E+01 3.22990E+01 2.72727E+00
 -1     11830 1.70246E+01 3.34127E+01 3.18182E+00
 -1     11831 1.95333E+01 3.18754E+01 3.63636E+00
 -1     11832 1.64572E+01 3.22990E+01 3.63636E+00
 -1     11837 1.70246E+01 3.34127E+01 4.09091E+00
 -1     11838 1.95333E+01 3.18754E+01 4.54545E+00
 -1     11839 1.64572E+01 3.22990E+01 4.54545E+00
 -1     11844 1.70246E+01 3.34127E+01 5.00000E+00
 -1     11845 1.95333E+01 3.18754E+01 5.45455E+00
 -1     11846 1.64572E+01 3.22990E+01 5.45455E+00
 -1     11851 1.70246E+01 3.34127E+01 5.90909E+00
 -1     11852 1.95333E+01 3.18754E+01 6.36364E+00
 -1     11853 1.64572E+01 3.22990E+01 6.36364E+00
 -1     11858 1.70246E+01 3.34127E+01 6.81818E+00
 -1     11859 1.95333E+01 3.18754E+01 7.27273E+00
 -1     11860 1.64572E+01 3.22990E+01 7.27273E+00
 -1     11865 1.70246E+01 3.34127E+01 7.72727E+00
 -1     11866 1.95333E+01 3.18754E+01 8.18182E+00
 -1     11867 1.64572E+01 3.22990E+01 8.18182E+00
 -1     11872 1.70246E+01 3.34127E+01 8.63636E+00
 -1     11873 1.95333E+01 3.18754E+01 9.09091E+00
 -1     11874 1.64572E+01 3.22990E+01 9.09091E+00
 -1     11879 1.70246E+01 3.34127E+01 9.54545E+00
 -1     11883 1.15881E+01 3.56646E+01 4.54545E-01
 -1     11884 1.43064E+01 3.45387E+01 9.09091E-01
 -1     11885 1.12019E+01 3.44758E+01 9.09091E-01
 -1     11890 1.15881E+01 3.56646E+01 1.36364E+00
 -1     11891 1.43064E+01 3.45387E+01 1.81818E+00
 -1     11892 1.12019E+01 3.44758E+01 1.81818E+00
 -1     11897 1.15881E+01 3.56646E+01 2.27273E+00
 -1     11898 1.43064E+01 3.45387E+01 2.72727E+00
 -1     11899 1.12019E+01 3.44758E+01 2.72727E+00
 -1     11904 1.15881E+01 3.56646E+01 3.18182E+00
 -1     11905 1.43064E+01 3.45387E+01 3.63636E+00
 -1     11906 1.12019E+01 3.44758E+01 3.63636E+00
 -1     11911 1.15881E+01 3.56646E+01 4.09091E+00
 -1     11912 1.43064E+01 3.45387E+01 4.54545E+00
 -1     11913 1.12019E+01 3.44758E+01 4.54545E+00
 -1     11918 1.15881E+01 3.56646E+01 5.00000E+00
 -1     11919 1.43064E+01 3.45387E+01 5.45455E+00
 -1     11920 1.12019E+01 3.44758E+01 5.45455E+00
 -1     11925 1.15881E+01 3.56646E+01 5.90909E+00
 -1     11926 1.43064E+01 3.45387E+01 6.36364E+00
 -1     11927 1.12019E+01 3.44758E+01 6.36364E+00
 -1     11932 1.15881E+01 3.56646E+01 6.81818E+00
 -1     11933 1.43064E+01 3.45387E+01 7.27273E+00
 -1     11934 1.12019E+01 3.44758E+01 7.27273E+00
 -1     11939 1.15881E+01 3.56646E+01 7.72727E+00
 -1     11940 1.43064E+01 3.45387E+01 8.18182E+00
 -1     11941 1.12019E+01 3.44758E+01 8.18182E+00
 -1     11946 1.15881E+01 3.56646E+01 8.63636E+00
 -1     11947 1.43064E+01 3.45387E+01 9.09091E+00
 -1     11948 1.12019E+01 3.44758E+01 9.09091E+00
 -1     11953 1.15881E+01 3.56646E+01 9.54545E+00
 -1     11957 5.86629E+00 3.70383E+01 4.54545E-01
 -1     11958 8.72721E+00 3.63515E+01 9.09091E-01
 -1     11959 5.67075E+00 3.58037E+01 9.09091E-01
 -1     11964 5.86629E+00 3.70383E+01 1.36364E+00
 -1     11965 8.72721E+00 3.63515E+01 1.81818E+00
 -1     11966 5.67075E+00 3.58037E+01 1.81818E+00
 -1     11971 5.86629E+00 3.70383E+01 2.27273E+00
 -1     11972 8.72721E+00 3.63515E+01 2.72727E+00
 -1     11973 5.67075E+00 3.58037E+01 2.72727E+00
 -1     11978 5.86629E+00 3.70383E+01 3.18182E+00
 -1     11979 8.72721E+00 3.63515E+01 3.63636E+00
 -1     11980 5.67075E+00 3.58037E+01 3.63636E+00
 -1     11985 5.86629E+00 3.70383E+01 4.09091E+00
 -1     11986 8.72721E+00 3.63515E+01 4.54545E+00
 -1     11987 5.67075E+00 3.58037E+01 4.54545E+00
 -1     11992 5.86629E+00 3.70383E+01 5.00000E+00
 -1     11993 8.72721E+00 3.63515E+01 5.45455E+00
 -1     11994 5.67075E+00 3.58037E+01 5.45455E+00
 -1     11999 5.86629E+00 3.70383E+01 5.90909E+00
 -1     12000 8.72721E+00 3.63515E+01 6.36364E+00
 -1     12001 5.67075E+00 3.58037E+01 6.36364E+00
 -1     12006 5.86629E+00 3.70383E+01 6.81818E+00
 -1     12007 8.72721E+00 3.63515E+01 7.27273E+00
 -1     12008 5.67075E+00 3.58037E+01 7.27273E+00
 -1     12013 5.86629E+00 3.70383E+01 7.72727E+00
 -1     12014 8.72721E+00 3.63515E+01 8.18182E+00
 -1     12015 5.67075E+00 3.58037E+01 8.18182E+00
 -1     12020 5.86629E+00 3.70383E+01 8.63636E+00
 -1     12021 8.72721E+00 3.63515E+01 9.09091E+00
 -1     12022 5.67075E+00 3.58037E+01 9.09091E+00
 -1     12027 5.86629E+00 3.70383E+01 9.54545E+00
 -1     12031 2.93315E+00 3.72692E+01 9.09091E-01
 -1     12035 2.93315E+00 3.72692E+01 1.81818E+00
 -1     12039 2.93315E+00 3.72692E+01 2.72727E+00
 -1     12043 2.93315E+00 3.72692E+01 3.63636E+00
 -1     12047 2.93315E+00 3.72692E+01 4.54545E+00
 -1     12051 2.93315E+00 3.72692E+01 5.45455E+00
 -1     12055 2.93315E+00 3.72692E+01 6.36364E+00
 -1     12059 2.93315E+00 3.72692E+01 7.27273E+00
 -1     12063 2.93315E+00 3.72692E+01 8.18182E+00
 -1     12067 2.93315E+00 3.72692E+01 9.09091E+00
 -1     12073 3.95075E+01 6.25738E+00 4.54545E-01
 -1     12074 3.97538E+01 3.12869E+00 9.09091E-01
 -1     12075 3.82729E+01 6.06184E+00 9.09091E-01
 -1     12080 3.95075E+01 6.25738E+00 1.36364E+00
 -1     12081 3.97538E+01 3.12869E+00 1.81818E+00
 -1     12082 3.82729E+01 6.06184E+00 1.81818E+00
 -1     12087 3.95075E+01 6.25738E+00 2.27273E+00
 -1     12088 3.97538E+01 3.12869E+00 2.72727E+00
 -1     12089 3.82729E+01 6.06184E+00 2.72727E+00
 -1     12094 3.95075E+01 6.25738E+00 3.18182E+00
 -1     12095 3.97538E+01 3.12869E+00 3.63636E+00
 -1     12096 3.82729E+01 6.06184E+00 3.63636E+00
 -1     12101 3.95075E+01 6.25738E+00 4.09091E+00
 -1     12102 3.97538E+01 3.12869E+00 4.54545E+00
 -1     12103 3.82729E+01 6.06184E+00 4.54545E+00
 -1     12108 3.95075E+01 6.25738E+00 5.00000E+00
 -1     12109 3.97538E+01 3.12869E+00 5.45455E+00
 -1     12110 3.82729E+01 6.06184E+00 5.45455E+00
 -1     12115 3.95075E+01 6.25738E+00 5.90909E+00
 -1     12116 3.97538E+01 3.12869E+00 6.36364E+00
 -1     12117 3.82729E+01 6.06184E+00 6.36364E+00
 -1     12122 3.95075E+01 6.25738E+00 6.81818E+00
 -1     12123 3.97538E+01 3.12869E+00 7.27273E+00
 -1     12124 3.82729E+01 6.06184E+00 7.27273E+00
 -1     12129 3.95075E+01 6.25738E+00 7.72727E+00
 -1     12130 3.97538E+01 3.12869E+00 8.18182E+00
 -1     12131 3.82729E+01 6.06184E+00 8.18182E+00
 -1     12136 3.95075E+01 6.25738E+00 8.63636E+00
 -1     12137 3.97538E+01 3.12869E+00 9.09091E+00
 -1     12138 3.82729E+01 6.06184E+00 9.09091E+00
 -1     12143 3.95075E+01 6.25738E+00 9.54545E+00
 -1     12147 3.80423E+01 1.23607E+01 4.54545E-01
 -1     12148 3.87749E+01 9.30903E+00 9.09091E-01
 -1     12149 3.68534E+01 1.19744E+01 9.09091E-01
 -1     12154 3.80423E+01 1.23607E+01 1.36364E+00
 -1     12155 3.87749E+01 9.30903E+00 1.81818E+00
 -1     12156 3.68534E+01 1.19744E+01 1.81818E+00
 -1     12161 3.80423E+01 1.23607E+01 2.27273E+00
 -1     12162 3.87749E+01 9.30903E+00 2.72727E+00
 -1     12163 3.68534E+01 1.19744E+01 2.72727E+00
 -1     12168 3.80423E+01 1.23607E+01 3.18182E+00
 -1     12169 3.87749E+01 9.30903E+00 3.63636E+00
 -1     12170 3.68534E+01 1.19744E+01 3.63636E+00
 -1     12175 3.80423E+01 1.23607E+01 4.09091E+00
 -1     12176 3.87749E+01 9.30903E+00 4.54545E+00
 -1     12177 3.68534E+01 1.19744E+01 4.54545E+00
 -1     12182 3.80423E+01 1.23607E+01 5.00000E+00
 -1     12183 3.87749E+01 9.30903E+00 5.45455E+00
 -1     12184 3.68534E+01 1.19744E+01 5.45455E+00
 -1     12189 3.80423E+01 1.23607E+01 5.90909E+00
 -1     12190 3.87749E+01 9.30903E+00 6.36364E+00
 -1     12191 3.68534E+01 1.19744E+01 6.36364E+00
 -1     12196 3.80423E+01 1.23607E+01 6.81818E+00
 -1     12197 3.87749E+01 9.30903E+00 7.27273E+00
 -1     12198 3.68534E+01 1.19744E+01 7.27273E+00
 -1     12203 3.80423E+01 1.23607E+01 7.72727E+00
 -1     12204 3.87749E+01 9.30903E+00 8.18182E+00
 -1     12205 3.68534E+01 1.19744E+01 8.18182E+00
 -1     12210 3.80423E+01 1.23607E+01 8.63636E+00
 -1     12211 3.87749E+01 9.30903E+00 9.09091E+00
 -1     12212 3.68534E+01 1.19744E+01 9.09091E+00
 -1     12217 3.80423E+01 1.23607E+01 9.54545E+00
 -1     12221 3.56403E+01 1.81596E+01 4.54545E-01
 -1     12222 3.68413E+01 1.52601E+01 9.09091E-01
 -1     12223 3.45265E+01 1.75921E+01 9.09091E-01
 -1     12228 3.56403E+01 1.81596E+01 1.36364E+00
 -1     12229 3.68413E+01 1.52601E+01 1.81818E+00
 -1     12230 3.45265E+01 1.75921E+01 1.81818E+00
 -1     12235 3.56403E+01 1.81596E+01 2.27273E+00
 -1     12236 3.68413E+01 1.52601E+01 2.72727E+00
 -1     12237 3.45265E+01 1.75921E+01 2.72727E+00
 -1     12242 3.56403E+01 1.81596E+01 3.18182E+00
 -1     12243 3.68413E+01 1.52601E+01 3.63636E+00
 -1     12244 3.45265E+01 1.75921E+01 3.63636E+00
 -1     12249 3.56403E+01 1.81596E+01 4.09091E+00
 -1     12250 3.68413E+01 1.52601E+01 4.54545E+00
 -1     12251 3.45265E+01 1.75921E+01 4.54545E+00
 -1     12256 3.56403E+01 1.81596E+01 5.00000E+00
 -1     12257 3.68413E+01 1.52601E+01 5.45455E+00
 -1     12258 3.45265E+01 1.75921E+01 5.45455E+00
 -1     12263 3.56403E+01 1.81596E+01 5.90909E+00
 -1     12264 3.68413E+01 1.52601E+01 6.36364E+00
 -1     12265 3.45265E+01 1.75921E+01 6.36364E+00
 -1     12270 3.56403E+01 1.81596E+01 6.81818E+00
 -1     12271 3.68413E+01 1.52601E+01 7.27273E+00
 -1     12272 3.45265E+01 1.75921E+01 7.27273E+00
 -1     12277 3.56403E+01 1.81596E+01 7.72727E+00
 -1     12278 3.68413E+01 1.52601E+01 8.18182E+00
 -1     12279 3.45265E+01 1.75921E+01 8.18182E+00
 -1     12284 3.56403E+01 1.81596E+01 8.63636E+00
 -1     12285 3.68413E+01 1.52601E+01 9.09091E+00
 -1     12286 3.45265E+01 1.75921E+01 9.09091E+00
 -1     12291 3.56403E+01 1.81596E+01 9.54545E+00
 -1     12295 3.23607E+01 2.35114E+01 4.54545E-01
 -1     12296 3.40005E+01 2.08355E+01 9.09091E-01
 -1     12297 3.13494E+01 2.27767E+01 9.09091E-01
 -1     12302 3.23607E+01 2.35114E+01 1.36364E+00
 -1     12303 3.40005E+01 2.08355E+01 1.81818E+00
 -1     12304 3.13494E+01 2.27767E+01 1.81818E+00
 -1     12309 3.23607E+01 2.35114E+01 2.27273E+00
 -1     12310 3.40005E+01 2.08355E+01 2.72727E+00
 -1     12311 3.13494E+01 2.27767E+01 2.72727E+00
 -1     12316 3.23607E+01 2.35114E+01 3.18182E+00
 -1     12317 3.40005E+01 2.08355E+01 3.63636E+00
 -1     12318 3.13494E+01 2.27767E+01 3.63636E+00
 -1     12323 3.23607E+01 2.35114E+01 4.09091E+00
 -1     12324 3.40005E+01 2.08355E+01 4.54545E+00
 -1     12325 3.13494E+01 2.27767E+01 4.54545E+00
 -1     12330 3.23607E+01 2.35114E+01 5.00000E+00
 -1     12331 3.40005E+01 2.08355E+01 5.45455E+00
 -1     12332 3.13494E+01 2.27767E+01 5.45455E+00
 -1     12337 3.23607E+01 2.35114E+01 5.90909E+00
 -1     12338 3.40005E+01 2.08355E+01 6.36364E+00
 -1     12339 3.13494E+01 2.27767E+01 6.36364E+00
 -1     12344 3.23607E+01 2.35114E+01 6.81818E+00
 -1     12345 3.40005E+01 2.08355E+01 7.27273E+00
 -1     12346 3.13494E+01 2.27767E+01 7.27273E+00
 -1     12351 3.23607E+01 2.35114E+01 7.72727E+00
 -1     12352 3.40005E+01 2.08355E+01 8.18182E+00
 -1     12353 3.13494E+01 2.27767E+01 8.18182E+00
 -1     12358 3.23607E+01 2.35114E+01 8.63636E+00
 -1     12359 3.40005E+01 2.08355E+01 9.09091E+00
 -1     12360 3.13494E+01 2.27767E+01 9.09091E+00
 -1     12365 3.23607E+01 2.35114E+01 9.54545E+00
 -1     12369 2.82843E+01 2.82843E+01 4.54545E-01
 -1     12370 3.03225E+01 2.58978E+01 9.09091E-01
 -1     12371 2.74004E+01 2.74004E+01 9.09091E-01
 -1     12376 2.82843E+01 2.82843E+01 1.36364E+00
 -1     12377 3.03225E+01 2.58978E+01 1.81818E+00
 -1     12378 2.74004E+01 2.74004E+01 1.81818E+00
 -1     12383 2.82843E+01 2.82843E+01 2.27273E+00
 -1     12384 3.03225E+01 2.58978E+01 2.72727E+00
 -1     12385 2.74004E+01 2.74004E+01 2.72727E+00
 -1     12390 2.82843E+01 2.82843E+01 3.18182E+00
 -1     12391 3.03225E+01 2.58978E+01 3.63636E+00
 -1     12392 2.74004E+01 2.74004E+01 3.63636E+00
 -1     12397 2.82843E+01 2.82843E+01 4.09091E+00
 -1     12398 3.03225E+01 2.58978E+01 4.54545E+00
 -1     12399 2.74004E+01 2.74004E+01 4.54545E+00
 -1     12404 2.82843E+01 2.82843E+01 5.00000E+00
 -1     12405 3.03225E+01 2.58978E+01 5.45455E+00
 -1     12406 2.74004E+01 2.74004E+01 5.45455E+00
 -1     12411 2.82843E+01 2.82843E+01 5.90909E+00
 -1     12412 3.03225E+01 2.58978E+01 6.36364E+00
 -1     12413 2.74004E+01 2.74004E+01 6.36364E+00
 -1     12418 2.82843E+01 2.82843E+01 6.81818E+00
 -1     12419 3.03225E+01 2.58978E+01 7.27273E+00
 -1     12420 2.74004E+01 2.74004E+01 7.27273E+00
 -1     12425 2.82843E+01 2.82843E+01 7.72727E+00
 -1     12426 3.03225E+01 2.58978E+01 8.18182E+00
 -1     12427 2.74004E+01 2.74004E+01 8.18182E+00
 -1     12432 2.82843E+01 2.82843E+01 8.63636E+00
 -1     12433 3.03225E+01 2.58978E+01 9.09091E+00
 -1     12434 2.74004E+01 2.74004E+01 9.09091E+00
 -1     12439 2.82843E+01 2.82843E+01 9.54545E+00
 -1     12443 2.35114E+01 3.23607E+01 4.54545E-01
 -1     12444 2.58978E+01 3.03225E+01 9.09091E-01
 -1     12445 2.27767E+01 3.13494E+01 9.09091E-01
 -1     12450 2.35114E+01 3.23607E+01 1.36364E+00
 -1     12451 2.58978E+01 3.03225E+01 1.81818E+00
 -1     12452 2.27767E+01 3.13494E+01 1.81818E+00
 -1     12457 2.35114E+01 3.23607E+01 2.27273E+00
 -1     12458 2.58978E+01 3.03225E+01 2.72727E+00
 -1     12459 2.27767E+01 3.13494E+01 2.72727E+00
 -1     12464 2.35114E+01 3.23607E+01 3.18182E+00
 -1     12465 2.58978E+01 3.03225E+01 3.63636E+00
 -1     12466 2.27767E+01 3.13494E+01 3.63636E+00
 -1     12471 2.35114E+01 3.23607E+01 4.09091E+00
 -1     12472 2.58978E+01 3.03225E+01 4.54545E+00
 -1     12473 2.27767E+01 3.13494E+01 4.54545E+00
 -1     12478 2.35114E+01 3.23607E+01 5.00000E+00
 -1     12479 2.58978E+01 3.03225E+01 5.45455E+00
 -1     12480 2.27767E+01 3.13494E+01 5.45455E+00
 -1     12485 2.35114E+01 3.23607E+01 5.90909E+00
 -1     12486 2.58978E+01 3.03225E+01 6.36364E+00
 -1     12487 2.27767E+01 3.13494E+01 6.36364E+00
 -1     12492 2.35114E+01 3.23607E+01 6.81818E+00
 -1     12493 2.58978E+01 3.03225E+01 7.27273E+00
 -1     12494 2.27767E+01 3.13494E+01 7.27273E+00
 -1     12499 2.35114E+01 3.23607E+01 7.72727E+00
 -1     12500 2.58978E+01 3.03225E+01 8.18182E+00
 -1     12501 2.27767E+01 3.13494E+01 8.18182E+00
 -1     12506 2.35114E+01 3.23607E+01 8.63636E+00
 -1     12507 2.58978E+01 3.03225E+01 9.09091E+00
 -1     12508 2.27767E+01 3.13494E+01 9.09091E+00
 -1     12513 2.35114E+01 3.23607E+01 9.54545E+00
 -1     12517 1.81596E+01 3.56403E+01 4.54545E-01
 -1     12518 2.08355E+01 3.40005E+01 9.09091E-01
 -1     12519 1.75921E+01 3.45265E+01 9.09091E-01
 -1     12524 1.81596E+01 3.56403E+01 1.36364E+00
 -1     12525 2.08355E+01 3.40005E+01 1.81818E+00
 -1     12526 1.75921E+01 3.45265E+01 1.81818E+00
 -1     12531 1.81596E+01 3.56403E+01 2.27273E+00
 -1     12532 2.08355E+01 3.40005E+01 2.72727E+00
 -1     12533 1.75921E+01 3.45265E+01 2.72727E+00
 -1     12538 1.81596E+01 3.56403E+01 3.18182E+00
 -1     12539 2.08355E+01 3.40005E+01 3.63636E+00
 -1     12540 1.75921E+01 3.45265E+01 3.63636E+00
 -1     12545 1.81596E+01 3.56403E+01 4.09091E+00
 -1     12546 2.08355E+01 3.40005E+01 4.54545E+00
 -1     12547 1.75921E+01 3.45265E+01 4.54545E+00
 -1     12552 1.81596E+01 3.56403E+01 5.00000E+00
 -1     12553 2.08355E+01 3.40005E+01 5.45455E+00
 -1     12554 1.75921E+01 3.45265E+01 5.45455E+00
 -1     12559 1.81596E+01 3.56403E+01 5.90909E+00
 -1     12560 2.08355E+01 3.40005E+01 6.36364E+00
 -1     12561 1.75921E+01 3.45265E+01 6.36364E+00
 -1     12566 1.81596E+01 3.56403E+01 6.81818E+00
 -1     12567 2.08355E+01 3.40005E+01 7.27273E+00
 -1     12568 1.75921E+01 3.45265E+01 7.27273E+00
 -1     12573 1.81596E+01 3.56403E+01 7.72727E+00
 -1     12574 2.08355E+01 3.40005E+01 8.18182E+00
 -1     12575 1.75921E+01 3.45265E+01 8.18182E+00
 -1     12580 1.81596E+01 3.56403E+01 8.63636E+00
 -1     12581 2.08355E+01 3.40005E+01 9.09091E+00
 -1     12582 1.75921E+01 3.45265E+01 9.09091E+00
 -1     12587 1.81596E+01 3.56403E+01 9.54545E+00
 -1     12591 1.23607E+01 3.80423E+01 4.54545E-01
 -1     12592 1.52601E+01 3.68413E+01 9.09091E-01
 -1     12593 1.19744E+01 3.68534E+01 9.09091E-01
 -1     12598 1.23607E+01 3.80423E+01 1.36364E+00
 -1     12599 1.52601E+01 3.68413E+01 1.81818E+00
 -1     12600 1.19744E+01 3.68534E+01 1.81818E+00
 -1     12605 1.23607E+01 3.80423E+01 2.27273E+00
 -1     12606 1.52601E+01 3.68413E+01 2.72727E+00
 -1     12607 1.19744E+01 3.68534E+01 2.72727E+00
 -1     12612 1.23607E+01 3.80423E+01 3.18182E+00
 -1     12613 1.52601E+01 3.68413E+01 3.63636E+00
 -1     12614 1.19744E+01 3.68534E+01 3.63636E+00
 -1     12619 1.23607E+01 3.80423E+01 4.09091E+00
 -1     12620 1.52601E+01 3.68413E+01 4.54545E+00
 -1     12621 1.19744E+01 3.68534E+01 4.54545E+00
 -1     12626 1.23607E+01 3.80423E+01 5.00000E+00
 -1     12627 1.52601E+01 3.68413E+01 5.45455E+00
 -1     12628 1.19744E+01 3.68534E+01 5.45455E+00
 -1     12633 1.23607E+01 3.80423E+01 5.90909E+00
 -1     12634 1.52601E+01 3.68413E+01 6.36364E+00
 -1     12635 1.19744E+01 3.68534E+01 6.36364E+00
 -1     12640 1.23607E+01 3.80423E+01 6.81818E+00
 -1     12641 1.52601E+01 3.68413E+01 7.27273E+00
 -1     12642 1.19744E+01 3.68534E+01 7.27273E+00
 -1     12647 1.23607E+01 3.80423E+01 7.72727E+00
 -1     12648 1.52601E+01 3.68413E+01 8.18182E+00
 -1     12649 1.19744E+01 3.68534E+01 8.18182E+00
 -1     12654 1.23607E+01 3.80423E+01 8.63636E+00
 -1     12655 1.52601E+01 3.68413E+01 9.09091E+00
 -1     12656 1.19744E+01 3.68534E+01 9.09091E+00
 -1     12661 1.23607E+01 3.80423E+01 9.54545E+00
 -1     12665 6.25738E+00 3.95075E+01 4.54545E-01
 -1     12666 9.30903E+00 3.87749E+01 9.09091E-01
 -1     12667 6.06184E+00 3.82729E+01 9.09091E-01
 -1     12672 6.25738E+00 3.95075E+01 1.36364E+00
 -1     12673 9.30903E+00 3.87749E+01 1.81818E+00
 -1     12674 6.06184E+00 3.82729E+01 1.81818E+00
 -1     12679 6.25738E+00 3.95075E+01 2.27273E+00
 -1     12680 9.30903E+00 3.87749E+01 2.72727E+00
 -1     12681 6.06184E+00 3.82729E+01 2.72727E+00
 -1     12686 6.25738E+00 3.95075E+01 3.18182E+00
 -1     12687 9.30903E+00 3.87749E+01 3.63636E+00
 -1     12688 6.06184E+00 3.82729E+01 3.63636E+00
 -1     12693 6.25738E+00 3.95075E+01 4.09091E+00
 -1     12694 9.30903E+00 3.87749E+01 4.54545E+00
 -1     12695 6.06184E+00 3.82729E+01 4.54545E+00
 -1     12700 6.25738E+00 3.95075E+01 5.00000E+00
 -1     12701 9.30903E+00 3.87749E+01 5.45455E+00
 -1     12702 6.06184E+00 3.82729E+01 5.45455E+00
 -1     12707 6.25738E+00 3.95075E+01 5.90909E+00
 -1     12708 9.30903E+00 3.87749E+01 6.36364E+00
 -1     12709 6.06184E+00 3.82729E+01 6.36364E+00
 -1     12714 6.25738E+00 3.95075E+01 6.81818E+00
 -1     12715 9.30903E+00 3.87749E+01 7.27273E+00
 -1     12716 6.06184E+00 3.82729E+01 7.27273E+00
 -1     12721 6.25738E+00 3.95075E+01 7.72727E+00
 -1     12722 9.30903E+00 3.87749E+01 8.18182E+00
 -1     12723 6.06184E+00 3.82729E+01 8.18182E+00
 -1     12728 6.25738E+00 3.95075E+01 8.63636E+00
 -1     12729 9.30903E+00 3.87749E+01 9.09091E+00
 -1     12730 6.06184E+00 3.82729E+01 9.09091E+00
 -1     12735 6.25738E+00 3.95075E+01 9.54545E+00
 -1     12739 3.12869E+00 3.97538E+01 9.09091E-01
 -1     12743 3.12869E+00 3.97538E+01 1.81818E+00
 -1     12747 3.12869E+00 3.97538E+01 2.72727E+00
 -1     12751 3.12869E+00 3.97538E+01 3.63636E+00
 -1     12755 3.12869E+00 3.97538E+01 4.54545E+00
 -1     12759 3.12869E+00 3.97538E+01 5.45455E+00
 -1     12763 3.12869E+00 3.97538E+01 6.36364E+00
 -1     12767 3.12869E+00 3.97538E+01 7.27273E+00
 -1     12771 3.12869E+00 3.97538E+01 8.18182E+00
 -1     12775 3.12869E+00 3.97538E+01 9.09091E+00
 -1     12781 4.19768E+01 6.64846E+00 4.54545E-01
 -1     12782 4.22384E+01 3.32423E+00 9.09091E-01
 -1     12783 4.07421E+01 6.45292E+00 9.09091E-01
 -1     12788 4.19768E+01 6.64846E+00 1.36364E+00
 -1     12789 4.22384E+01 3.32423E+00 1.81818E+00
 -1     12790 4.07421E+01 6.45292E+00 1.81818E+00
 -1     12795 4.19768E+01 6.64846E+00 2.27273E+00
 -1     12796 4.22384E+01 3.32423E+00 2.72727E+00
 -1     12797 4.07421E+01 6.45292E+00 2.72727E+00
 -1     12802 4.19768E+01 6.64846E+00 3.18182E+00
 -1     12803 4.22384E+01 3.32423E+00 3.63636E+00
 -1     12804 4.07421E+01 6.45292E+00 3.63636E+00
 -1     12809 4.19768E+01 6.64846E+00 4.09091E+00
 -1     12810 4.22384E+01 3.32423E+00 4.54545E+00
 -1     12811 4.07421E+01 6.45292E+00 4.54545E+00
 -1     12816 4.19768E+01 6.64846E+00 5.00000E+00
 -1     12817 4.22384E+01 3.32423E+00 5.45455E+00
 -1     12818 4.07421E+01 6.45292E+00 5.45455E+00
 -1     12823 4.19768E+01 6.64846E+00 5.90909E+00
 -1     12824 4.22384E+01 3.32423E+00 6.36364E+00
 -1     12825 4.07421E+01 6.45292E+00 6.36364E+00
 -1     12830 4.19768E+01 6.64846E+00 6.81818E+00
 -1     12831 4.22384E+01 3.32423E+00 7.27273E+00
 -1     12832 4.07421E+01 6.45292E+00 7.27273E+00
 -1     12837 4.19768E+01 6.64846E+00 7.72727E+00
 -1     12838 4.22384E+01 3.32423E+00 8.18182E+00
 -1     12839 4.07421E+01 6.45292E+00 8.18182E+00
 -1     12844 4.19768E+01 6.64846E+00 8.63636E+00
 -1     12845 4.22384E+01 3.32423E+00 9.09091E+00
 -1     12846 4.07421E+01 6.45292E+00 9.09091E+00
 -1     12851 4.19768E+01 6.64846E+00 9.54545E+00
 -1     12855 4.04199E+01 1.31332E+01 4.54545E-01
 -1     12856 4.11983E+01 9.89084E+00 9.09091E-01
 -1     12857 3.92311E+01 1.27470E+01 9.09091E-01
 -1     12862 4.04199E+01 1.31332E+01 1.36364E+00
 -1     12863 4.11983E+01 9.89084E+00 1.81818E+00
 -1     12864 3.92311E+01 1.27470E+01 1.81818E+00
 -1     12869 4.04199E+01 1.31332E+01 2.27273E+00
 -1     12870 4.11983E+01 9.89084E+00 2.72727E+00
 -1     12871 3.92311E+01 1.27470E+01 2.72727E+00
 -1     12876 4.04199E+01 1.31332E+01 3.18182E+00
 -1     12877 4.11983E+01 9.89084E+00 3.63636E+00
 -1     12878 3.92311E+01 1.27470E+01 3.63636E+00
 -1     12883 4.04199E+01 1.31332E+01 4.09091E+00
 -1     12884 4.11983E+01 9.89084E+00 4.54545E+00
 -1     12885 3.92311E+01 1.27470E+01 4.54545E+00
 -1     12890 4.04199E+01 1.31332E+01 5.00000E+00
 -1     12891 4.11983E+01 9.89084E+00 5.45455E+00
 -1     12892 3.92311E+01 1.27470E+01 5.45455E+00
 -1     12897 4.04199E+01 1.31332E+01 5.90909E+00
 -1     12898 4.11983E+01 9.89084E+00 6.36364E+00
 -1     12899 3.92311E+01 1.27470E+01 6.36364E+00
 -1     12904 4.04199E+01 1.31332E+01 6.81818E+00
 -1     12905 4.11983E+01 9.89084E+00 7.27273E+00
 -1     12906 3.92311E+01 1.27470E+01 7.27273E+00
 -1     12911 4.04199E+01 1.31332E+01 7.72727E+00
 -1     12912 4.11983E+01 9.89084E+00 8.18182E+00
 -1     12913 3.92311E+01 1.27470E+01 8.18182E+00
 -1     12918 4.04199E+01 1.31332E+01 8.63636E+00
 -1     12919 4.11983E+01 9.89084E+00 9.09091E+00
 -1     12920 3.92311E+01 1.27470E+01 9.09091E+00
 -1     12925 4.04199E+01 1.31332E+01 9.54545E+00
 -1     12929 3.78678E+01 1.92946E+01 4.54545E-01
 -1     12930 3.91438E+01 1.62139E+01 9.09091E-01
 -1     12931 3.67540E+01 1.87271E+01 9.09091E-01
 -1     12936 3.78678E+01 1.92946E+01 1.36364E+00
 -1     12937 3.91438E+01 1.62139E+01 1.81818E+00
 -1     12938 3.67540E+01 1.87271E+01 1.81818E+00
 -1     12943 3.78678E+01 1.92946E+01 2.27273E+00
 -1     12944 3.91438E+01 1.62139E+01 2.72727E+00
 -1     12945 3.67540E+01 1.87271E+01 2.72727E+00
 -1     12950 3.78678E+01 1.92946E+01 3.18182E+00
 -1     12951 3.91438E+01 1.62139E+01 3.63636E+00
 -1     12952 3.67540E+01 1.87271E+01 3.63636E+00
 -1     12957 3.78678E+01 1.92946E+01 4.09091E+00
 -1     12958 3.91438E+01 1.62139E+01 4.54545E+00
 -1     12959 3.67540E+01 1.87271E+01 4.54545E+00
 -1     12964 3.78678E+01 1.92946E+01 5.00000E+00
 -1     12965 3.91438E+01 1.62139E+01 5.45455E+00
 -1     12966 3.67540E+01 1.87271E+01 5.45455E+00
 -1     12971 3.78678E+01 1.92946E+01 5.90909E+00
 -1     12972 3.91438E+01 1.62139E+01 6.36364E+00
 -1     12973 3.67540E+01 1.87271E+01 6.36364E+00
 -1     12978 3.78678E+01 1.92946E+01 6.81818E+00
 -1     12979 3.91438E+01 1.62139E+01 7.27273E+00
 -1     12980 3.67540E+01 1.87271E+01 7.27273E+00
 -1     12985 3.78678E+01 1.92946E+01 7.72727E+00
 -1     12986 3.91438E+01 1.62139E+01 8.18182E+00
 -1     12987 3.67540E+01 1.87271E+01 8.18182E+00
 -1     12992 3.78678E+01 1.92946E+01 8.63636E+00
 -1     12993 3.91438E+01 1.62139E+01 9.09091E+00
 -1     12994 3.67540E+01 1.87271E+01 9.09091E+00
 -1     12999 3.78678E+01 1.92946E+01 9.54545E+00
 -1     13003 3.43832E+01 2.49809E+01 4.54545E-01
 -1     13004 3.61255E+01 2.21377E+01 9.09091E-01
 -1     13005 3.33720E+01 2.42461E+01 9.09091E-01
 -1     13010 3.43832E+01 2.49809E+01 1.36364E+00
 -1     13011 3.61255E+01 2.21377E+01 1.81818E+00
 -1     13012 3.33720E+01 2.42461E+01 1.81818E+00
 -1     13017 3.43832E+01 2.49809E+01 2.27273E+00
 -1     13018 3.61255E+01 2.21377E+01 2.72727E+00
 -1     13019 3.33720E+01 2.42461E+01 2.72727E+00
 -1     13024 3.43832E+01 2.49809E+01 3.18182E+00
 -1     13025 3.61255E+01 2.21377E+01 3.63636E+00
 -1     13026 3.33720E+01 2.42461E+01 3.63636E+00
 -1     13031 3.43832E+01 2.49809E+01 4.09091E+00
 -1     13032 3.61255E+01 2.21377E+01 4.54545E+00
 -1     13033 3.33720E+01 2.42461E+01 4.54545E+00
 -1     13038 3.43832E+01 2.49809E+01 5.00000E+00
 -1     13039 3.61255E+01 2.21377E+01 5.45455E+00
 -1     13040 3.33720E+01 2.42461E+01 5.45455E+00
 -1     13045 3.43832E+01 2.49809E+01 5.90909E+00
 -1     13046 3.61255E+01 2.21377E+01 6.36364E+00
 -1     13047 3.33720E+01 2.42461E+01 6.36364E+00
 -1     13052 3.43832E+01 2.49809E+01 6.81818E+00
 -1     13053 3.61255E+01 2.21377E+01 7.27273E+00
 -1     13054 3.33720E+01 2.42461E+01 7.27273E+00
 -1     13059 3.43832E+01 2.49809E+01 7.72727E+00
 -1     13060 3.61255E+01 2.21377E+01 8.18182E+00
 -1     13061 3.33720E+01 2.42461E+01 8.18182E+00
 -1     13066 3.43832E+01 2.49809E+01 8.63636E+00
 -1     13067 3.61255E+01 2.21377E+01 9.09091E+00
 -1     13068 3.33720E+01 2.42461E+01 9.09091E+00
 -1     13073 3.43832E+01 2.49809E+01 9.54545E+00
 -1     13077 3.00520E+01 3.00520E+01 4.54545E-01
 -1     13078 3.22176E+01 2.75165E+01 9.09091E-01
 -1     13079 2.91682E+01 2.91682E+01 9.09091E-01
 -1     13084 3.00520E+01 3.00520E+01 1.36364E+00
 -1     13085 3.22176E+01 2.75165E+01 1.81818E+00
 -1     13086 2.91682E+01 2.91682E+01 1.81818E+00
 -1     13091 3.00520E+01 3.00520E+01 2.27273E+00
 -1     13092 3.22176E+01 2.75165E+01 2.72727E+00
 -1     13093 2.91682E+01 2.91682E+01 2.72727E+00
 -1     13098 3.00520E+01 3.00520E+01 3.18182E+00
 -1     13099 3.22176E+01 2.75165E+01 3.63636E+00
 -1     13100 2.91682E+01 2.91682E+01 3.63636E+00
 -1     13105 3.00520E+01 3.00520E+01 4.09091E+00
 -1     13106 3.22176E+01 2.75165E+01 4.54545E+00
 -1     13107 2.91682E+01 2.91682E+01 4.54545E+00
 -1     13112 3.00520E+01 3.00520E+01 5.00000E+00
 -1     13113 3.22176E+01 2.75165E+01 5.45455E+00
 -1     13114 2.91682E+01 2.91682E+01 5.45455E+00
 -1     13119 3.00520E+01 3.00520E+01 5.90909E+00
 -1     13120 3.22176E+01 2.75165E+01 6.36364E+00
 -1     13121 2.91682E+01 2.91682E+01 6.36364E+00
 -1     13126 3.00520E+01 3.00520E+01 6.81818E+00
 -1     13127 3.22176E+01 2.75165E+01 7.27273E+00
 -1     13128 2.91682E+01 2.91682E+01 7.27273E+00
 -1     13133 3.00520E+01 3.00520E+01 7.72727E+00
 -1     13134 3.22176E+01 2.75165E+01 8.18182E+00
 -1     13135 2.91682E+01 2.91682E+01 8.18182E+00
 -1     13140 3.00520E+01 3.00520E+01 8.63636E+00
 -1     13141 3.22176E+01 2.75165E+01 9.09091E+00
 -1     13142 2.91682E+01 2.91682E+01 9.09091E+00
 -1     13147 3.00520E+01 3.00520E+01 9.54545E+00
 -1     13151 2.49809E+01 3.43832E+01 4.54545E-01
 -1     13152 2.75165E+01 3.22176E+01 9.09091E-01
 -1     13153 2.42461E+01 3.33720E+01 9.09091E-01
 -1     13158 2.49809E+01 3.43832E+01 1.36364E+00
 -1     13159 2.75165E+01 3.22176E+01 1.81818E+00
 -1     13160 2.42461E+01 3.33720E+01 1.81818E+00
 -1     13165 2.49809E+01 3.43832E+01 2.27273E+00
 -1     13166 2.75165E+01 3.22176E+01 2.72727E+00
 -1     13167 2.42461E+01 3.33720E+01 2.72727E+00
 -1     13172 2.49809E+01 3.43832E+01 3.18182E+00
 -1     13173 2.75165E+01 3.22176E+01 3.63636E+00
 -1     13174 2.42461E+01 3.33720E+01 3.63636E+00
 -1     13179 2.49809E+01 3.43832E+01 4.09091E+00
 -1     13180 2.75165E+01 3.22176E+01 4.54545E+00
 -1     13181 2.42461E+01 3.33720E+01 4.54545E+00
 -1     13186 2.49809E+01 3.43832E+01 5.00000E+00
 -1     13187 2.75165E+01 3.22176E+01 5.45455E+00
 -1     13188 2.42461E+01 3.33720E+01 5.45455E+00
 -1     13193 2.49809E+01 3.43832E+01 5.90909E+00
 -1     13194 2.75165E+01 3.22176E+01 6.36364E+00
 -1     13195 2.42461E+01 3.33720E+01 6.36364E+00
 -1     13200 2.49809E+01 3.43832E+01 6.81818E+00
 -1     13201 2.75165E+01 3.22176E+01 7.27273E+00
 -1     13202 2.42461E+01 3.33720E+01 7.27273E+00
 -1     13207 2.49809E+01 3.43832E+01 7.72727E+00
 -1     13208 2.75165E+01 3.22176E+01 8.18182E+00
 -1     13209 2.42461E+01 3.33720E+01 8.18182E+00
 -1     13214 2.49809E+01 3.43832E+01 8.63636E+00
 -1     13215 2.75165E+01 3.22176E+01 9.09091E+00
 -1     13216 2.42461E+01 3.33720E+01 9.09091E+00
 -1     13221 2.49809E+01 3.43832E+01 9.54545E+00
 -1     13225 1.92946E+01 3.78678E+01 4.54545E-01
 -1     13226 2.21377E+01 3.61255E+01 9.09091E-01
 -1     13227 1.87271E+01 3.67540E+01 9.09091E-01
 -1     13232 1.92946E+01 3.78678E+01 1.36364E+00
 -1     13233 2.21377E+01 3.61255E+01 1.81818E+00
 -1     13234 1.87271E+01 3.67540E+01 1.81818E+00
 -1     13239 1.92946E+01 3.78678E+01 2.27273E+00
 -1     13240 2.21377E+01 3.61255E+01 2.72727E+00
 -1     13241 1.87271E+01 3.67540E+01 2.72727E+00
 -1     13246 1.92946E+01 3.78678E+01 3.18182E+00
 -1     13247 2.21377E+01 3.61255E+01 3.63636E+00
 -1     13248 1.87271E+01 3.67540E+01 3.63636E+00
 -1     13253 1.92946E+01 3.78678E+01 4.09091E+00
 -1     13254 2.21377E+01 3.61255E+01 4.54545E+00
 -1     13255 1.87271E+01 3.67540E+01 4.54545E+00
 -1     13260 1.92946E+01 3.78678E+01 5.00000E+00
 -1     13261 2.21377E+01 3.61255E+01 5.45455E+00
 -1     13262 1.87271E+01 3.67540E+01 5.45455E+00
 -1     13267 1.92946E+01 3.78678E+01 5.90909E+00
 -1     13268 2.21377E+01 3.61255E+01 6.36364E+00
 -1     13269 1.87271E+01 3.67540E+01 6.36364E+00
 -1     13274 1.92946E+01 3.78678E+01 6.81818E+00
 -1     13275 2.21377E+01 3.61255E+01 7.27273E+00
 -1     13276 1.87271E+01 3.67540E+01 7.27273E+00
 -1     13281 1.92946E+01 3.78678E+01 7.72727E+00
 -1     13282 2.21377E+01 3.61255E+01 8.18182E+00
 -1     13283 1.87271E+01 3.67540E+01 8.18182E+00
 -1     13288 1.92946E+01 3.78678E+01 8.63636E+00
 -1     13289 2.21377E+01 3.61255E+01 9.09091E+00
 -1     13290 1.87271E+01 3.67540E+01 9.09091E+00
 -1     13295 1.92946E+01 3.78678E+01 9.54545E+00
 -1     13299 1.31332E+01 4.04199E+01 4.54545E-01
 -1     13300 1.62139E+01 3.91438E+01 9.09091E-01
 -1     13301 1.27470E+01 3.92311E+01 9.09091E-01
 -1     13306 1.31332E+01 4.04199E+01 1.36364E+00
 -1     13307 1.62139E+01 3.91438E+01 1.81818E+00
 -1     13308 1.27470E+01 3.92311E+01 1.81818E+00
 -1     13313 1.31332E+01 4.04199E+01 2.27273E+00
 -1     13314 1.62139E+01 3.91438E+01 2.72727E+00
 -1     13315 1.27470E+01 3.92311E+01 2.72727E+00
 -1     13320 1.31332E+01 4.04199E+01 3.18182E+00
 -1     13321 1.62139E+01 3.91438E+01 3.63636E+00
 -1     13322 1.27470E+01 3.92311E+01 3.63636E+00
 -1     13327 1.31332E+01 4.04199E+01 4.09091E+00
 -1     13328 1.62139E+01 3.91438E+01 4.54545E+00
 -1     13329 1.27470E+01 3.92311E+01 4.54545E+00
 -1     13334 1.31332E+01 4.04199E+01 5.00000E+00
 -1     13335 1.62139E+01 3.91438E+01 5.45455E+00
 -1     13336 1.27470E+01 3.92311E+01 5.45455E+00
 -1     13341 1.31332E+01 4.04199E+01 5.90909E+00
 -1     13342 1.62139E+01 3.91438E+01 6.36364E+00
 -1     13343 1.27470E+01 3.92311E+01 6.36364E+00
 -1     13348 1.31332E+01 4.04199E+01 6.81818E+00
 -1     13349 1.62139E+01 3.91438E+01 7.27273E+00
 -1     13350 1.27470E+01 3.92311E+01 7.27273E+00
 -1     13355 1.31332E+01 4.04199E+01 7.72727E+00
 -1     13356 1.62139E+01 3.91438E+01 8.18182E+00
 -1     13357 1.27470E+01 3.92311E+01 8.18182E+00
 -1     13362 1.31332E+01 4.04199E+01 8.63636E+00
 -1     13363 1.62139E+01 3.91438E+01 9.09091E+00
 -1     13364 1.27470E+01 3.92311E+01 9.09091E+00
 -1     13369 1.31332E+01 4.04199E+01 9.54545E+00
 -1     13373 6.64846E+00 4.19768E+01 4.54545E-01
 -1     13374 9.89084E+00 4.11983E+01 9.09091E-01
 -1     13375 6.45292E+00 4.07421E+01 9.09091E-01
 -1     13380 6.64846E+00 4.19768E+01 1.36364E+00
 -1     13381 9.89084E+00 4.11983E+01 1.81818E+00
 -1     13382 6.45292E+00 4.07421E+01 1.81818E+00
 -1     13387 6.64846E+00 4.19768E+01 2.27273E+00
 -1     13388 9.89084E+00 4.11983E+01 2.72727E+00
 -1     13389 6.45292E+00 4.07421E+01 2.72727E+00
 -1     13394 6.64846E+00 4.19768E+01 3.18182E+00
 -1     13395 9.89084E+00 4.11983E+01 3.63636E+00
 -1     13396 6.45292E+00 4.07421E+01 3.63636E+00
 -1     13401 6.64846E+00 4.19768E+01 4.09091E+00
 -1     13402 9.89084E+00 4.11983E+01 4.54545E+00
 -1     13403 6.45292E+00 4.07421E+01 4.54545E+00
 -1     13408 6.64846E+00 4.19768E+01 5.00000E+00
 -1     13409 9.89084E+00 4.11983E+01 5.45455E+00
 -1     13410 6.45292E+00 4.07421E+01 5.45455E+00
 -1     13415 6.64846E+00 4.19768E+01 5.90909E+00
 -1     13416 9.89084E+00 4.11983E+01 6.36364E+00
 -1     13417 6.45292E+00 4.07421E+01 6.36364E+00
 -1     13422 6.64846E+00 4.19768E+01 6.81818E+00
 -1     13423 9.89084E+00 4.11983E+01 7.27273E+00
 -1     13424 6.45292E+00 4.07421E+01 7.27273E+00
 -1     13429 6.64846E+00 4.19768E+01 7.72727E+00
 -1     13430 9.89084E+00 4.11983E+01 8.18182E+00
 -1     13431 6.45292E+00 4.07421E+01 8.18182E+00
 -1     13436 6.64846E+00 4.19768E+01 8.63636E+00
 -1     13437 9.89084E+00 4.11983E+01 9.09091E+00
 -1     13438 6.45292E+00 4.07421E+01 9.09091E+00
 -1     13443 6.64846E+00 4.19768E+01 9.54545E+00
 -1     13447 3.32423E+00 4.22384E+01 9.09091E-01
 -1     13451 3.32423E+00 4.22384E+01 1.81818E+00
 -1     13455 3.32423E+00 4.22384E+01 2.72727E+00
 -1     13459 3.32423E+00 4.22384E+01 3.63636E+00
 -1     13463 3.32423E+00 4.22384E+01 4.54545E+00
 -1     13467 3.32423E+00 4.22384E+01 5.45455E+00
 -1     13471 3.32423E+00 4.22384E+01 6.36364E+00
 -1     13475 3.32423E+00 4.22384E+01 7.27273E+00
 -1     13479 3.32423E+00 4.22384E+01 8.18182E+00
 -1     13483 3.32423E+00 4.22384E+01 9.09091E+00
 -1     13489 4.44460E+01 7.03955E+00 4.54545E-01
 -1     13490 4.47230E+01 3.51978E+00 9.09091E-01
 -1     13491 4.32114E+01 6.84401E+00 9.09091E-01
 -1     13496 4.44460E+01 7.03955E+00 1.36364E+00
 -1     13497 4.47230E+01 3.51978E+00 1.81818E+00
 -1     13498 4.32114E+01 6.84401E+00 1.81818E+00
 -1     13503 4.44460E+01 7.03955E+00 2.27273E+00
 -1     13504 4.47230E+01 3.51978E+00 2.72727E+00
 -1     13505 4.32114E+01 6.84401E+00 2.72727E+00
 -1     13510 4.44460E+01 7.03955E+00 3.18182E+00
 -1     13511 4.47230E+01 3.51978E+00 3.63636E+00
 -1     13512 4.32114E+01 6.84401E+00 3.63636E+00
 -1     13517 4.44460E+01 7.03955E+00 4.09091E+00
 -1     13518 4.47230E+01 3.51978E+00 4.54545E+00
 -1     13519 4.32114E+01 6.84401E+00 4.54545E+00
 -1     13524 4.44460E+01 7.03955E+00 5.00000E+00
 -1     13525 4.47230E+01 3.51978E+00 5.45455E+00
 -1     13526 4.32114E+01 6.84401E+00 5.45455E+00
 -1     13531 4.44460E+01 7.03955E+00 5.90909E+00
 -1     13532 4.47230E+01 3.51978E+00 6.36364E+00
 -1     13533 4.32114E+01 6.84401E+00 6.36364E+00
 -1     13538 4.44460E+01 7.03955E+00 6.81818E+00
 -1     13539 4.47230E+01 3.51978E+00 7.27273E+00
 -1     13540 4.32114E+01 6.84401E+00 7.27273E+00
 -1     13545 4.44460E+01 7.03955E+00 7.72727E+00
 -1     13546 4.47230E+01 3.51978E+00 8.18182E+00
 -1     13547 4.32114E+01 6.84401E+00 8.18182E+00
 -1     13552 4.44460E+01 7.03955E+00 8.63636E+00
 -1     13553 4.47230E+01 3.51978E+00 9.09091E+00
 -1     13554 4.32114E+01 6.84401E+00 9.09091E+00
 -1     13559 4.44460E+01 7.03955E+00 9.54545E+00
 -1     13563 4.27975E+01 1.39058E+01 4.54545E-01
 -1     13564 4.36218E+01 1.04727E+01 9.09091E-01
 -1     13565 4.16087E+01 1.35195E+01 9.09091E-01
 -1     13570 4.27975E+01 1.39058E+01 1.36364E+00
 -1     13571 4.36218E+01 1.04727E+01 1.81818E+00
 -1     13572 4.16087E+01 1.35195E+01 1.81818E+00
 -1     13577 4.27975E+01 1.39058E+01 2.27273E+00
 -1     13578 4.36218E+01 1.04727E+01 2.72727E+00
 -1     13579 4.16087E+01 1.35195E+01 2.72727E+00
 -1     13584 4.27975E+01 1.39058E+01 3.18182E+00
 -1     13585 4.36218E+01 1.04727E+01 3.63636E+00
 -1     13586 4.16087E+01 1.35195E+01 3.63636E+00
 -1     13591 4.27975E+01 1.39058E+01 4.09091E+00
 -1     13592 4.36218E+01 1.04727E+01 4.54545E+00
 -1     13593 4.16087E+01 1.35195E+01 4.54545E+00
 -1     13598 4.27975E+01 1.39058E+01 5.00000E+00
 -1     13599 4.36218E+01 1.04727E+01 5.45455E+00
 -1     13600 4.16087E+01 1.35195E+01 5.45455E+00
 -1     13605 4.27975E+01 1.39058E+01 5.90909E+00
 -1     13606 4.36218E+01 1.04727E+01 6.36364E+00
 -1     13607 4.16087E+01 1.35195E+01 6.36364E+00
 -1     13612 4.27975E+01 1.39058E+01 6.81818E+00
 -1     13613 4.36218E+01 1.04727E+01 7.27273E+00
 -1     13614 4.16087E+01 1.35195E+01 7.27273E+00
 -1     13619 4.27975E+01 1.39058E+01 7.72727E+00
 -1     13620 4.36218E+01 1.04727E+01 8.18182E+00
 -1     13621 4.16087E+01 1.35195E+01 8.18182E+00
 -1     13626 4.27975E+01 1.39058E+01 8.63636E+00
 -1     13627 4.36218E+01 1.04727E+01 9.09091E+00
 -1     13628 4.16087E+01 1.35195E+01 9.09091E+00
 -1     13633 4.27975E+01 1.39058E+01 9.54545E+00
 -1     13637 4.00953E+01 2.04296E+01 4.54545E-01
 -1     13638 4.14464E+01 1.71677E+01 9.09091E-01
 -1     13639 3.89815E+01 1.98621E+01 9.09091E-01
 -1     13644 4.00953E+01 2.04296E+01 1.36364E+00
 -1     13645 4.14464E+01 1.71677E+01 1.81818E+00
 -1     13646 3.89815E+01 1.98621E+01 1.81818E+00
 -1     13651 4.00953E+01 2.04296E+01 2.27273E+00
 -1     13652 4.14464E+01 1.71677E+01 2.72727E+00
 -1     13653 3.89815E+01 1.98621E+01 2.72727E+00
 -1     13658 4.00953E+01 2.04296E+01 3.18182E+00
 -1     13659 4.14464E+01 1.71677E+01 3.63636E+00
 -1     13660 3.89815E+01 1.98621E+01 3.63636E+00
 -1     13665 4.00953E+01 2.04296E+01 4.09091E+00
 -1     13666 4.14464E+01 1.71677E+01 4.54545E+00
 -1     13667 3.89815E+01 1.98621E+01 4.54545E+00
 -1     13672 4.00953E+01 2.04296E+01 5.00000E+00
 -1     13673 4.14464E+01 1.71677E+01 5.45455E+00
 -1     13674 3.89815E+01 1.98621E+01 5.45455E+00
 -1     13679 4.00953E+01 2.04296E+01 5.90909E+00
 -1     13680 4.14464E+01 1.71677E+01 6.36364E+00
 -1     13681 3.89815E+01 1.98621E+01 6.36364E+00
 -1     13686 4.00953E+01 2.04296E+01 6.81818E+00
 -1     13687 4.14464E+01 1.71677E+01 7.27273E+00
 -1     13688 3.89815E+01 1.98621E+01 7.27273E+00
 -1     13693 4.00953E+01 2.04296E+01 7.72727E+00
 -1     13694 4.14464E+01 1.71677E+01 8.18182E+00
 -1     13695 3.89815E+01 1.98621E+01 8.18182E+00
 -1     13700 4.00953E+01 2.04296E+01 8.63636E+00
 -1     13701 4.14464E+01 1.71677E+01 9.09091E+00
 -1     13702 3.89815E+01 1.98621E+01 9.09091E+00
 -1     13707 4.00953E+01 2.04296E+01 9.54545E+00
 -1     13711 3.64058E+01 2.64503E+01 4.54545E-01
 -1     13712 3.82505E+01 2.34400E+01 9.09091E-01
 -1     13713 3.53945E+01 2.57156E+01 9.09091E-01
 -1     13718 3.64058E+01 2.64503E+01 1.36364E+00
 -1     13719 3.82505E+01 2.34400E+01 1.81818E+00
 -1     13720 3.53945E+01 2.57156E+01 1.81818E+00
 -1     13725 3.64058E+01 2.64503E+01 2.27273E+00
 -1     13726 3.82505E+01 2.34400E+01 2.72727E+00
 -1     13727 3.53945E+01 2.57156E+01 2.72727E+00
 -1     13732 3.64058E+01 2.64503E+01 3.18182E+00
 -1     13733 3.82505E+01 2.34400E+01 3.63636E+00
 -1     13734 3.53945E+01 2.57156E+01 3.63636E+00
 -1     13739 3.64058E+01 2.64503E+01 4.09091E+00
 -1     13740 3.82505E+01 2.34400E+01 4.54545E+00
 -1     13741 3.53945E+01 2.57156E+01 4.54545E+00
 -1     13746 3.64058E+01 2.64503E+01 5.00000E+00
 -1     13747 3.82505E+01 2.34400E+01 5.45455E+00
 -1     13748 3.53945E+01 2.57156E+01 5.45455E+00
 -1     13753 3.64058E+01 2.64503E+01 5.90909E+00
 -1     13754 3.82505E+01 2.34400E+01 6.36364E+00
 -1     13755 3.53945E+01 2.57156E+01 6.36364E+00
 -1     13760 3.64058E+01 2.64503E+01 6.81818E+00
 -1     13761 3.82505E+01 2.34400E+01 7.27273E+00
 -1     13762 3.53945E+01 2.57156E+01 7.27273E+00
 -1     13767 3.64058E+01 2.64503E+01 7.72727E+00
 -1     13768 3.82505E+01 2.34400E+01 8.18182E+00
 -1     13769 3.53945E+01 2.57156E+01 8.18182E+00
 -1     13774 3.64058E+01 2.64503E+01 8.63636E+00
 -1     13775 3.82505E+01 2.34400E+01 9.09091E+00
 -1     13776 3.53945E+01 2.57156E+01 9.09091E+00
 -1     13781 3.64058E+01 2.64503E+01 9.54545E+00
 -1     13785 3.18198E+01 3.18198E+01 4.54545E-01
 -1     13786 3.41128E+01 2.91351E+01 9.09091E-01
 -1     13787 3.09359E+01 3.09359E+01 9.09091E-01
 -1     13792 3.18198E+01 3.18198E+01 1.36364E+00
 -1     13793 3.41128E+01 2.91351E+01 1.81818E+00
 -1     13794 3.09359E+01 3.09359E+01 1.81818E+00
 -1     13799 3.18198E+01 3.18198E+01 2.27273E+00
 -1     13800 3.41128E+01 2.91351E+01 2.72727E+00
 -1     13801 3.09359E+01 3.09359E+01 2.72727E+00
 -1     13806 3.18198E+01 3.18198E+01 3.18182E+00
 -1     13807 3.41128E+01 2.91351E+01 3.63636E+00
 -1     13808 3.09359E+01 3.09359E+01 3.63636E+00
 -1     13813 3.18198E+01 3.18198E+01 4.09091E+00
 -1     13814 3.41128E+01 2.91351E+01 4.54545E+00
 -1     13815 3.09359E+01 3.09359E+01 4.54545E+00
 -1     13820 3.18198E+01 3.18198E+01 5.00000E+00
 -1     13821 3.41128E+01 2.91351E+01 5.45455E+00
 -1     13822 3.09359E+01 3.09359E+01 5.45455E+00
 -1     13827 3.18198E+01 3.18198E+01 5.90909E+00
 -1     13828 3.41128E+01 2.91351E+01 6.36364E+00
 -1     13829 3.09359E+01 3.09359E+01 6.36364E+00
 -1     13834 3.18198E+01 3.18198E+01 6.81818E+00
 -1     13835 3.41128E+01 2.91351E+01 7.27273E+00
 -1     13836 3.09359E+01 3.09359E+01 7.27273E+00
 -1     13841 3.18198E+01 3.18198E+01 7.72727E+00
 -1     13842 3.41128E+01 2.91351E+01 8.18182E+00
 -1     13843 3.09359E+01 3.09359E+01 8.18182E+00
 -1     13848 3.18198E+01 3.18198E+01 8.63636E+00
 -1     13849 3.41128E+01 2.91351E+01 9.09091E+00
 -1     13850 3.09359E+01 3.09359E+01 9.09091E+00
 -1     13855 3.18198E+01 3.18198E+01 9.54545E+00
 -1     13859 2.64503E+01 3.64058E+01 4.54545E-01
 -1     13860 2.91351E+01 3.41128E+01 9.09091E-01
 -1     13861 2.57156E+01 3.53945E+01 9.09091E-01
 -1     13866 2.64503E+01 3.64058E+01 1.36364E+00
 -1     13867 2.91351E+01 3.41128E+01 1.81818E+00
 -1     13868 2.57156E+01 3.53945E+01 1.81818E+00
 -1     13873 2.64503E+01 3.64058E+01 2.27273E+00
 -1     13874 2.91351E+01 3.41128E+01 2.72727E+00
 -1     13875 2.57156E+01 3.53945E+01 2.72727E+00
 -1     13880 2.64503E+01 3.64058E+01 3.18182E+00
 -1     13881 2.91351E+01 3.41128E+01 3.63636E+00
 -1     13882 2.57156E+01 3.53945E+01 3.63636E+00
 -1     13887 2.64503E+01 3.64058E+01 4.09091E+00
 -1     13888 2.91351E+01 3.41128E+01 4.54545E+00
 -1     13889 2.57156E+01 3.53945E+01 4.54545E+00
 -1     13894 2.64503E+01 3.64058E+01 5.00000E+00
 -1     13895 2.91351E+01 3.41128E+01 5.45455E+00
 -1     13896 2.57156E+01 3.53945E+01 5.45455E+00
 -1     13901 2.64503E+01 3.64058E+01 5.90909E+00
 -1     13902 2.91351E+01 3.41128E+01 6.36364E+00
 -1     13903 2.57156E+01 3.53945E+01 6.36364E+00
 -1     13908 2.64503E+01 3.64058E+01 6.81818E+00
 -1     13909 2.91351E+01 3.41128E+01 7.27273E+00
 -1     13910 2.57156E+01 3.53945E+01 7.27273E+00
 -1     13915 2.64503E+01 3.64058E+01 7.72727E+00
 -1     13916 2.91351E+01 3.41128E+01 8.18182E+00
 -1     13917 2.57156E+01 3.53945E+01 8.18182E+00
 -1     13922 2.64503E+01 3.64058E+01 8.63636E+00
 -1     13923 2.91351E+01 3.41128E+01 9.09091E+00
 -1     13924 2.57156E+01 3.53945E+01 9.09091E+00
 -1     13929 2.64503E+01 3.64058E+01 9.54545E+00
 -1     13933 2.04296E+01 4.00953E+01 4.54545E-01
 -1     13934 2.34400E+01 3.82505E+01 9.09091E-01
 -1     13935 1.98621E+01 3.89815E+01 9.09091E-01
 -1     13940 2.04296E+01 4.00953E+01 1.36364E+00
 -1     13941 2.34400E+01 3.82505E+01 1.81818E+00
 -1     13942 1.98621E+01 3.89815E+01 1.81818E+00
 -1     13947 2.04296E+01 4.00953E+01 2.27273E+00
 -1     13948 2.34400E+01 3.82505E+01 2.72727E+00
 -1     13949 1.98621E+01 3.89815E+01 2.72727E+00
 -1     13954 2.04296E+01 4.00953E+01 3.18182E+00
 -1     13955 2.34400E+01 3.82505E+01 3.63636E+00
 -1     13956 1.98621E+01 3.89815E+01 3.63636E+00
 -1     13961 2.04296E+01 4.00953E+01 4.09091E+00
 -1     13962 2.34400E+01 3.82505E+01 4.54545E+00
 -1     13963 1.98621E+01 3.89815E+01 4.54545E+00
 -1     13968 2.04296E+01 4.00953E+01 5.00000E+00
 -1     13969 2.34400E+01 3.82505E+01 5.45455E+00
 -1     13970 1.98621E+01 3.89815E+01 5.45455E+00
 -1     13975 2.04296E+01 4.00953E+01 5.90909E+00
 -1     13976 2.34400E+01 3.82505E+01 6.36364E+00
 -1     13977 1.98621E+01 3.89815E+01 6.36364E+00
 -1     13982 2.04296E+01 4.00953E+01 6.81818E+00
 -1     13983 2.34400E+01 3.82505E+01 7.27273E+00
 -1     13984 1.98621E+01 3.89815E+01 7.27273E+00
 -1     13989 2.04296E+01 4.00953E+01 7.72727E+00
 -1     13990 2.34400E+01 3.82505E+01 8.18182E+00
 -1     13991 1.98621E+01 3.89815E+01 8.18182E+00
 -1     13996 2.04296E+01 4.00953E+01 8.63636E+00
 -1     13997 2.34400E+01 3.82505E+01 9.09091E+00
 -1     13998 1.98621E+01 3.89815E+01 9.09091E+00
 -1     14003 2.04296E+01 4.00953E+01 9.54545E+00
 -1     14007 1.39058E+01 4.27975E+01 4.54545E-01
 -1     14008 1.71677E+01 4.14464E+01 9.09091E-01
 -1     14009 1.35195E+01 4.16087E+01 9.09091E-01
 -1     14014 1.39058E+01 4.27975E+01 1.36364E+00
 -1     14015 1.71677E+01 4.14464E+01 1.81818E+00
 -1     14016 1.35195E+01 4.16087E+01 1.81818E+00
 -1     14021 1.39058E+01 4.27975E+01 2.27273E+00
 -1     14022 1.71677E+01 4.14464E+01 2.72727E+00
 -1     14023 1.35195E+01 4.16087E+01 2.72727E+00
 -1     14028 1.39058E+01 4.27975E+01 3.18182E+00
 -1     14029 1.71677E+01 4.14464E+01 3.63636E+00
 -1     14030 1.35195E+01 4.16087E+01 3.63636E+00
 -1     14035 1.39058E+01 4.27975E+01 4.09091E+00
 -1     14036 1.71677E+01 4.14464E+01 4.54545E+00
 -1     14037 1.35195E+01 4.16087E+01 4.54545E+00
 -1     14042 1.39058E+01 4.27975E+01 5.00000E+00
 -1     14043 1.71677E+01 4.14464E+01 5.45455E+00
 -1     14044 1.35195E+01 4.16087E+01 5.45455E+00
 -1     14049 1.39058E+01 4.27975E+01 5.90909E+00
 -1     14050 1.71677E+01 4.14464E+01 6.36364E+00
 -1     14051 1.35195E+01 4.16087E+01 6.36364E+00
 -1     14056 1.39058E+01 4.27975E+01 6.81818E+00
 -1     14057 1.71677E+01 4.14464E+01 7.27273E+00
 -1     14058 1.35195E+01 4.16087E+01 7.27273E+00
 -1     14063 1.39058E+01 4.27975E+01 7.72727E+00
 -1     14064 1.71677E+01 4.14464E+01 8.18182E+00
 -1     14065 1.35195E+01 4.16087E+01 8.18182E+00
 -1     14070 1.39058E+01 4.27975E+01 8.63636E+00
 -1     14071 1.71677E+01 4.14464E+01 9.09091E+00
 -1     14072 1.35195E+01 4.16087E+01 9.09091E+00
 -1     14077 1.39058E+01 4.27975E+01 9.54545E+00
 -1     14081 7.03955E+00 4.44460E+01 4.54545E-01
 -1     14082 1.04727E+01 4.36218E+01 9.09091E-01
 -1     14083 6.84401E+00 4.32114E+01 9.09091E-01
 -1     14088 7.03955E+00 4.44460E+01 1.36364E+00
 -1     14089 1.04727E+01 4.36218E+01 1.81818E+00
 -1     14090 6.84401E+00 4.32114E+01 1.81818E+00
 -1     14095 7.03955E+00 4.44460E+01 2.27273E+00
 -1     14096 1.04727E+01 4.36218E+01 2.72727E+00
 -1     14097 6.84401E+00 4.32114E+01 2.72727E+00
 -1     14102 7.03955E+00 4.44460E+01 3.18182E+00
 -1     14103 1.04727E+01 4.36218E+01 3.63636E+00
 -1     14104 6.84401E+00 4.32114E+01 3.63636E+00
 -1     14109 7.03955E+00 4.44460E+01 4.09091E+00
 -1     14110 1.04727E+01 4.36218E+01 4.54545E+00
 -1     14111 6.84401E+00 4.32114E+01 4.54545E+00
 -1     14116 7.03955E+00 4.44460E+01 5.00000E+00
 -1     14117 1.04727E+01 4.36218E+01 5.45455E+00
 -1     14118 6.84401E+00 4.32114E+01 5.45455E+00
 -1     14123 7.03955E+00 4.44460E+01 5.90909E+00
 -1     14124 1.04727E+01 4.36218E+01 6.36364E+00
 -1     14125 6.84401E+00 4.32114E+01 6.36364E+00
 -1     14130 7.03955E+00 4.44460E+01 6.81818E+00
 -1     14131 1.04727E+01 4.36218E+01 7.27273E+00
 -1     14132 6.84401E+00 4.32114E+01 7.27273E+00
 -1     14137 7.03955E+00 4.44460E+01 7.72727E+00
 -1     14138 1.04727E+01 4.36218E+01 8.18182E+00
 -1     14139 6.84401E+00 4.32114E+01 8.18182E+00
 -1     14144 7.03955E+00 4.44460E+01 8.63636E+00
 -1     14145 1.04727E+01 4.36218E+01 9.09091E+00
 -1     14146 6.84401E+00 4.32114E+01 9.09091E+00
 -1     14151 7.03955E+00 4.44460E+01 9.54545E+00
 -1     14155 3.51978E+00 4.47230E+01 9.09091E-01
 -1     14159 3.51978E+00 4.47230E+01 1.81818E+00
 -1     14163 3.51978E+00 4.47230E+01 2.72727E+00
 -1     14167 3.51978E+00 4.47230E+01 3.63636E+00
 -1     14171 3.51978E+00 4.47230E+01 4.54545E+00
 -1     14175 3.51978E+00 4.47230E+01 5.45455E+00
 -1     14179 3.51978E+00 4.47230E+01 6.36364E+00
 -1     14183 3.51978E+00 4.47230E+01 7.27273E+00
 -1     14187 3.51978E+00 4.47230E+01 8.18182E+00
 -1     14191 3.51978E+00 4.47230E+01 9.09091E+00
 -1     14197 4.69152E+01 7.43064E+00 4.54545E-01
 -1     14198 4.72076E+01 3.71532E+00 9.09091E-01
 -1     14199 4.56806E+01 7.23509E+00 9.09091E-01
 -1     14204 4.69152E+01 7.43064E+00 1.36364E+00
 -1     14205 4.72076E+01 3.71532E+00 1.81818E+00
 -1     14206 4.56806E+01 7.23509E+00 1.81818E+00
 -1     14211 4.69152E+01 7.43064E+00 2.27273E+00
 -1     14212 4.72076E+01 3.71532E+00 2.72727E+00
 -1     14213 4.56806E+01 7.23509E+00 2.72727E+00
 -1     14218 4.69152E+01 7.43064E+00 3.18182E+00
 -1     14219 4.72076E+01 3.71532E+00 3.63636E+00
 -1     14220 4.56806E+01 7.23509E+00 3.63636E+00
 -1     14225 4.69152E+01 7.43064E+00 4.09091E+00
 -1     14226 4.72076E+01 3.71532E+00 4.54545E+00
 -1     14227 4.56806E+01 7.23509E+00 4.54545E+00
 -1     14232 4.69152E+01 7.43064E+00 5.00000E+00
 -1     14233 4.72076E+01 3.71532E+00 5.45455E+00
 -1     14234 4.56806E+01 7.23509E+00 5.45455E+00
 -1     14239 4.69152E+01 7.43064E+00 5.90909E+00
 -1     14240 4.72076E+01 3.71532E+00 6.36364E+00
 -1     14241 4.56806E+01 7.23509E+00 6.36364E+00
 -1     14246 4.69152E+01 7.43064E+00 6.81818E+00
 -1     14247 4.72076E+01 3.71532E+00 7.27273E+00
 -1     14248 4.56806E+01 7.23509E+00 7.27273E+00
 -1     14253 4.69152E+01 7.43064E+00 7.72727E+00
 -1     14254 4.72076E+01 3.71532E+00 8.18182E+00
 -1     14255 4.56806E+01 7.23509E+00 8.18182E+00
 -1     14260 4.69152E+01 7.43064E+00 8.63636E+00
 -1     14261 4.72076E+01 3.71532E+00 9.09091E+00
 -1     14262 4.56806E+01 7.23509E+00 9.09091E+00
 -1     14267 4.69152E+01 7.43064E+00 9.54545E+00
 -1     14271 4.51752E+01 1.46783E+01 4.54545E-01
 -1     14272 4.60452E+01 1.10545E+01 9.09091E-01
 -1     14273 4.39864E+01 1.42920E+01 9.09091E-01
 -1     14278 4.51752E+01 1.46783E+01 1.36364E+00
 -1     14279 4.60452E+01 1.10545E+01 1.81818E+00
 -1     14280 4.39864E+01 1.42920E+01 1.81818E+00
 -1     14285 4.51752E+01 1.46783E+01 2.27273E+00
 -1     14286 4.60452E+01 1.10545E+01 2.72727E+00
 -1     14287 4.39864E+01 1.42920E+01 2.72727E+00
 -1     14292 4.51752E+01 1.46783E+01 3.18182E+00
 -1     14293 4.60452E+01 1.10545E+01 3.63636E+00
 -1     14294 4.39864E+01 1.42920E+01 3.63636E+00
 -1     14299 4.51752E+01 1.46783E+01 4.09091E+00
 -1     14300 4.60452E+01 1.10545E+01 4.54545E+00
 -1     14301 4.39864E+01 1.42920E+01 4.54545E+00
 -1     14306 4.51752E+01 1.46783E+01 5.00000E+00
 -1     14307 4.60452E+01 1.10545E+01 5.45455E+00
 -1     14308 4.39864E+01 1.42920E+01 5.45455E+00
 -1     14313 4.51752E+01 1.46783E+01 5.90909E+00
 -1     14314 4.60452E+01 1.10545E+01 6.36364E+00
 -1     14315 4.39864E+01 1.42920E+01 6.36364E+00
 -1     14320 4.51752E+01 1.46783E+01 6.81818E+00
 -1     14321 4.60452E+01 1.10545E+01 7.27273E+00
 -1     14322 4.39864E+01 1.42920E+01 7.27273E+00
 -1     14327 4.51752E+01 1.46783E+01 7.72727E+00
 -1     14328 4.60452E+01 1.10545E+01 8.18182E+00
 -1     14329 4.39864E+01 1.42920E+01 8.18182E+00
 -1     14334 4.51752E+01 1.46783E+01 8.63636E+00
 -1     14335 4.60452E+01 1.10545E+01 9.09091E+00
 -1     14336 4.39864E+01 1.42920E+01 9.09091E+00
 -1     14341 4.51752E+01 1.46783E+01 9.54545E+00
 -1     14345 4.23228E+01 2.15645E+01 4.54545E-01
 -1     14346 4.37490E+01 1.81214E+01 9.09091E-01
 -1     14347 4.12091E+01 2.09971E+01 9.09091E-01
 -1     14352 4.23228E+01 2.15645E+01 1.36364E+00
 -1     14353 4.37490E+01 1.81214E+01 1.81818E+00
 -1     14354 4.12091E+01 2.09971E+01 1.81818E+00
 -1     14359 4.23228E+01 2.15645E+01 2.27273E+00
 -1     14360 4.37490E+01 1.81214E+01 2.72727E+00
 -1     14361 4.12091E+01 2.09971E+01 2.72727E+00
 -1     14366 4.23228E+01 2.15645E+01 3.18182E+00
 -1     14367 4.37490E+01 1.81214E+01 3.63636E+00
 -1     14368 4.12091E+01 2.09971E+01 3.63636E+00
 -1     14373 4.23228E+01 2.15645E+01 4.09091E+00
 -1     14374 4.37490E+01 1.81214E+01 4.54545E+00
 -1     14375 4.12091E+01 2.09971E+01 4.54545E+00
 -1     14380 4.23228E+01 2.15645E+01 5.00000E+00
 -1     14381 4.37490E+01 1.81214E+01 5.45455E+00
 -1     14382 4.12091E+01 2.09971E+01 5.45455E+00
 -1     14387 4.23228E+01 2.15645E+01 5.90909E+00
 -1     14388 4.37490E+01 1.81214E+01 6.36364E+00
 -1     14389 4.12091E+01 2.09971E+01 6.36364E+00
 -1     14394 4.23228E+01 2.15645E+01 6.81818E+00
 -1     14395 4.37490E+01 1.81214E+01 7.27273E+00
 -1     14396 4.12091E+01 2.09971E+01 7.27273E+00
 -1     14401 4.23228E+01 2.15645E+01 7.72727E+00
 -1     14402 4.37490E+01 1.81214E+01 8.18182E+00
 -1     14403 4.12091E+01 2.09971E+01 8.18182E+00
 -1     14408 4.23228E+01 2.15645E+01 8.63636E+00
 -1     14409 4.37490E+01 1.81214E+01 9.09091E+00
 -1     14410 4.12091E+01 2.09971E+01 9.09091E+00
 -1     14415 4.23228E+01 2.15645E+01 9.54545E+00
 -1     14419 3.84283E+01 2.79198E+01 4.54545E-01
 -1     14420 4.03756E+01 2.47422E+01 9.09091E-01
 -1     14421 3.74170E+01 2.71851E+01 9.09091E-01
 -1     14426 3.84283E+01 2.79198E+01 1.36364E+00
 -1     14427 4.03756E+01 2.47422E+01 1.81818E+00
 -1     14428 3.74170E+01 2.71851E+01 1.81818E+00
 -1     14433 3.84283E+01 2.79198E+01 2.27273E+00
 -1     14434 4.03756E+01 2.47422E+01 2.72727E+00
 -1     14435 3.74170E+01 2.71851E+01 2.72727E+00
 -1     14440 3.84283E+01 2.79198E+01 3.18182E+00
 -1     14441 4.03756E+01 2.47422E+01 3.63636E+00
 -1     14442 3.74170E+01 2.71851E+01 3.63636E+00
 -1     14447 3.84283E+01 2.79198E+01 4.09091E+00
 -1     14448 4.03756E+01 2.47422E+01 4.54545E+00
 -1     14449 3.74170E+01 2.71851E+01 4.54545E+00
 -1     14454 3.84283E+01 2.79198E+01 5.00000E+00
 -1     14455 4.03756E+01 2.47422E+01 5.45455E+00
 -1     14456 3.74170E+01 2.71851E+01 5.45455E+00
 -1     14461 3.84283E+01 2.79198E+01 5.90909E+00
 -1     14462 4.03756E+01 2.47422E+01 6.36364E+00
 -1     14463 3.74170E+01 2.71851E+01 6.36364E+00
 -1     14468 3.84283E+01 2.79198E+01 6.81818E+00
 -1     14469 4.03756E+01 2.47422E+01 7.27273E+00
 -1     14470 3.74170E+01 2.71851E+01 7.27273E+00
 -1     14475 3.84283E+01 2.79198E+01 7.72727E+00
 -1     14476 4.03756E+01 2.47422E+01 8.18182E+00
 -1     14477 3.74170E+01 2.71851E+01 8.18182E+00
 -1     14482 3.84283E+01 2.79198E+01 8.63636E+00
 -1     14483 4.03756E+01 2.47422E+01 9.09091E+00
 -1     14484 3.74170E+01 2.71851E+01 9.09091E+00
 -1     14489 3.84283E+01 2.79198E+01 9.54545E+00
 -1     14493 3.35876E+01 3.35876E+01 4.54545E-01
 -1     14494 3.60079E+01 3.07537E+01 9.09091E-01
 -1     14495 3.27037E+01 3.27037E+01 9.09091E-01
 -1     14500 3.35876E+01 3.35876E+01 1.36364E+00
 -1     14501 3.60079E+01 3.07537E+01 1.81818E+00
 -1     14502 3.27037E+01 3.27037E+01 1.81818E+00
 -1     14507 3.35876E+01 3.35876E+01 2.27273E+00
 -1     14508 3.60079E+01 3.07537E+01 2.72727E+00
 -1     14509 3.27037E+01 3.27037E+01 2.72727E+00
 -1     14514 3.35876E+01 3.35876E+01 3.18182E+00
 -1     14515 3.60079E+01 3.07537E+01 3.63636E+00
 -1     14516 3.27037E+01 3.27037E+01 3.63636E+00
 -1     14521 3.35876E+01 3.35876E+01 4.09091E+00
 -1     14522 3.60079E+01 3.07537E+01 4.54545E+00
 -1     14523 3.27037E+01 3.27037E+01 4.54545E+00
 -1     14528 3.35876E+01 3.35876E+01 5.00000E+00
 -1     14529 3.60079E+01 3.07537E+01 5.45455E+00
 -1     14530 3.27037E+01 3.27037E+01 5.45455E+00
 -1     14535 3.35876E+01 3.35876E+01 5.90909E+00
 -1     14536 3.60079E+01 3.07537E+01 6.36364E+00
 -1     14537 3.27037E+01 3.27037E+01 6.36364E+00
 -1     14542 3.35876E+01 3.35876E+01 6.81818E+00
 -1     14543 3.60079E+01 3.07537E+01 7.27273E+00
 -1     14544 3.27037E+01 3.27037E+01 7.27273E+00
 -1     14549 3.35876E+01 3.35876E+01 7.72727E+00
 -1     14550 3.60079E+01 3.07537E+01 8.18182E+00
 -1     14551 3.27037E+01 3.27037E+01 8.18182E+00
 -1     14556 3.35876E+01 3.35876E+01 8.63636E+00
 -1     14557 3.60079E+01 3.07537E+01 9.09091E+00
 -1     14558 3.27037E+01 3.27037E+01 9.09091E+00
 -1     14563 3.35876E+01 3.35876E+01 9.54545E+00
 -1     14567 2.79198E+01 3.84283E+01 4.54545E-01
 -1     14568 3.07537E+01 3.60079E+01 9.09091E-01
 -1     14569 2.71851E+01 3.74170E+01 9.09091E-01
 -1     14574 2.79198E+01 3.84283E+01 1.36364E+00
 -1     14575 3.07537E+01 3.60079E+01 1.81818E+00
 -1     14576 2.71851E+01 3.74170E+01 1.81818E+00
 -1     14581 2.79198E+01 3.84283E+01 2.27273E+00
 -1     14582 3.07537E+01 3.60079E+01 2.72727E+00
 -1     14583 2.71851E+01 3.74170E+01 2.72727E+00
 -1     14588 2.79198E+01 3.84283E+01 3.18182E+00
 -1     14589 3.07537E+01 3.60079E+01 3.63636E+00
 -1     14590 2.71851E+01 3.74170E+01 3.63636E+00
 -1     14595 2.79198E+01 3.84283E+01 4.09091E+00
 -1     14596 3.07537E+01 3.60079E+01 4.54545E+00
 -1     14597 2.71851E+01 3.74170E+01 4.54545E+00
 -1     14602 2.79198E+01 3.84283E+01 5.00000E+00
 -1     14603 3.07537E+01 3.60079E+01 5.45455E+00
 -1     14604 2.71851E+01 3.74170E+01 5.45455E+00
 -1     14609 2.79198E+01 3.84283E+01 5.90909E+00
 -1     14610 3.07537E+01 3.60079E+01 6.36364E+00
 -1     14611 2.71851E+01 3.74170E+01 6.36364E+00
 -1     14616 2.79198E+01 3.84283E+01 6.81818E+00
 -1     14617 3.07537E+01 3.60079E+01 7.27273E+00
 -1     14618 2.71851E+01 3.74170E+01 7.27273E+00
 -1     14623 2.79198E+01 3.84283E+01 7.72727E+00
 -1     14624 3.07537E+01 3.60079E+01 8.18182E+00
 -1     14625 2.71851E+01 3.74170E+01 8.18182E+00
 -1     14630 2.79198E+01 3.84283E+01 8.63636E+00
 -1     14631 3.07537E+01 3.60079E+01 9.09091E+00
 -1     14632 2.71851E+01 3.74170E+01 9.09091E+00
 -1     14637 2.79198E+01 3.84283E+01 9.54545E+00
 -1     14641 2.15645E+01 4.23228E+01 4.54545E-01
 -1     14642 2.47422E+01 4.03756E+01 9.09091E-01
 -1     14643 2.09971E+01 4.12091E+01 9.09091E-01
 -1     14648 2.15645E+01 4.23228E+01 1.36364E+00
 -1     14649 2.47422E+01 4.03756E+01 1.81818E+00
 -1     14650 2.09971E+01 4.12091E+01 1.81818E+00
 -1     14655 2.15645E+01 4.23228E+01 2.27273E+00
 -1     14656 2.47422E+01 4.03756E+01 2.72727E+00
 -1     14657 2.09971E+01 4.12091E+01 2.72727E+00
 -1     14662 2.15645E+01 4.23228E+01 3.18182E+00
 -1     14663 2.47422E+01 4.03756E+01 3.63636E+00
 -1     14664 2.09971E+01 4.12091E+01 3.63636E+00
 -1     14669 2.15645E+01 4.23228E+01 4.09091E+00
 -1     14670 2.47422E+01 4.03756E+01 4.54545E+00
 -1     14671 2.09971E+01 4.12091E+01 4.54545E+00
 -1     14676 2.15645E+01 4.23228E+01 5.00000E+00
 -1     14677 2.47422E+01 4.03756E+01 5.45455E+00
 -1     14678 2.09971E+01 4.12091E+01 5.45455E+00
 -1     14683 2.15645E+01 4.23228E+01 5.90909E+00
 -1     14684 2.47422E+01 4.03756E+01 6.36364E+00
 -1     14685 2.09971E+01 4.12091E+01 6.36364E+00
 -1     14690 2.15645E+01 4.23228E+01 6.81818E+00
 -1     14691 2.47422E+01 4.03756E+01 7.27273E+00
 -1     14692 2.09971E+01 4.12091E+01 7.27273E+00
 -1     14697 2.15645E+01 4.23228E+01 7.72727E+00
 -1     14698 2.47422E+01 4.03756E+01 8.18182E+00
 -1     14699 2.09971E+01 4.12091E+01 8.18182E+00
 -1     14704 2.15645E+01 4.23228E+01 8.63636E+00
 -1     14705 2.47422E+01 4.03756E+01 9.09091E+00
 -1     14706 2.09971E+01 4.12091E+01 9.09091E+00
 -1     14711 2.15645E+01 4.23228E+01 9.54545E+00
 -1     14715 1.46783E+01 4.51752E+01 4.54545E-01
 -1     14716 1.81214E+01 4.37490E+01 9.09091E-01
 -1     14717 1.42920E+01 4.39864E+01 9.09091E-01
 -1     14722 1.46783E+01 4.51752E+01 1.36364E+00
 -1     14723 1.81214E+01 4.37490E+01 1.81818E+00
 -1     14724 1.42920E+01 4.39864E+01 1.81818E+00
 -1     14729 1.46783E+01 4.51752E+01 2.27273E+00
 -1     14730 1.81214E+01 4.37490E+01 2.72727E+00
 -1     14731 1.42920E+01 4.39864E+01 2.72727E+00
 -1     14736 1.46783E+01 4.51752E+01 3.18182E+00
 -1     14737 1.81214E+01 4.37490E+01 3.63636E+00
 -1     14738 1.42920E+01 4.39864E+01 3.63636E+00
 -1     14743 1.46783E+01 4.51752E+01 4.09091E+00
 -1     14744 1.81214E+01 4.37490E+01 4.54545E+00
 -1     14745 1.42920E+01 4.39864E+01 4.54545E+00
 -1     14750 1.46783E+01 4.51752E+01 5.00000E+00
 -1     14751 1.81214E+01 4.37490E+01 5.45455E+00
 -1     14752 1.42920E+01 4.39864E+01 5.45455E+00
 -1     14757 1.46783E+01 4.51752E+01 5.90909E+00
 -1     14758 1.81214E+01 4.37490E+01 6.36364E+00
 -1     14759 1.42920E+01 4.39864E+01 6.36364E+00
 -1     14764 1.46783E+01 4.51752E+01 6.81818E+00
 -1     14765 1.81214E+01 4.37490E+01 7.27273E+00
 -1     14766 1.42920E+01 4.39864E+01 7.27273E+00
 -1     14771 1.46783E+01 4.51752E+01 7.72727E+00
 -1     14772 1.81214E+01 4.37490E+01 8.18182E+00
 -1     14773 1.42920E+01 4.39864E+01 8.18182E+00
 -1     14778 1.46783E+01 4.51752E+01 8.63636E+00
 -1     14779 1.81214E+01 4.37490E+01 9.09091E+00
 -1     14780 1.42920E+01 4.39864E+01 9.09091E+00
 -1     14785 1.46783E+01 4.51752E+01 9.54545E+00
 -1     14789 7.43064E+00 4.69152E+01 4.54545E-01
 -1     14790 1.10545E+01 4.60452E+01 9.09091E-01
 -1     14791 7.23509E+00 4.56806E+01 9.09091E-01
 -1     14796 7.43064E+00 4.69152E+01 1.36364E+00
 -1     14797 1.10545E+01 4.60452E+01 1.81818E+00
 -1     14798 7.23509E+00 4.56806E+01 1.81818E+00
 -1     14803 7.43064E+00 4.69152E+01 2.27273E+00
 -1     14804 1.10545E+01 4.60452E+01 2.72727E+00
 -1     14805 7.23509E+00 4.56806E+01 2.72727E+00
 -1     14810 7.43064E+00 4.69152E+01 3.18182E+00
 -1     14811 1.10545E+01 4.60452E+01 3.63636E+00
 -1     14812 7.23509E+00 4.56806E+01 3.63636E+00
 -1     14817 7.43064E+00 4.69152E+01 4.09091E+00
 -1     14818 1.10545E+01 4.60452E+01 4.54545E+00
 -1     14819 7.23509E+00 4.56806E+01 4.54545E+00
 -1     14824 7.43064E+00 4.69152E+01 5.00000E+00
 -1     14825 1.10545E+01 4.60452E+01 5.45455E+00
 -1     14826 7.23509E+00 4.56806E+01 5.45455E+00
 -1     14831 7.43064E+00 4.69152E+01 5.90909E+00
 -1     14832 1.10545E+01 4.60452E+01 6.36364E+00
 -1     14833 7.23509E+00 4.56806E+01 6.36364E+00
 -1     14838 7.43064E+00 4.69152E+01 6.81818E+00
 -1     14839 1.10545E+01 4.60452E+01 7.27273E+00
 -1     14840 7.23509E+00 4.56806E+01 7.27273E+00
 -1     14845 7.43064E+00 4.69152E+01 7.72727E+00
 -1     14846 1.10545E+01 4.60452E+01 8.18182E+00
 -1     14847 7.23509E+00 4.56806E+01 8.18182E+00
 -1     14852 7.43064E+00 4.69152E+01 8.63636E+00
 -1     14853 1.10545E+01 4.60452E+01 9.09091E+00
 -1     14854 7.23509E+00 4.56806E+01 9.09091E+00
 -1     14859 7.43064E+00 4.69152E+01 9.54545E+00
 -1     14863 3.71532E+00 4.72076E+01 9.09091E-01
 -1     14867 3.71532E+00 4.72076E+01 1.81818E+00
 -1     14871 3.71532E+00 4.72076E+01 2.72727E+00
 -1     14875 3.71532E+00 4.72076E+01 3.63636E+00
 -1     14879 3.71532E+00 4.72076E+01 4.54545E+00
 -1     14883 3.71532E+00 4.72076E+01 5.45455E+00
 -1     14887 3.71532E+00 4.72076E+01 6.36364E+00
 -1     14891 3.71532E+00 4.72076E+01 7.27273E+00
 -1     14895 3.71532E+00 4.72076E+01 8.18182E+00
 -1     14899 3.71532E+00 4.72076E+01 9.09091E+00
 -1     14905 4.93844E+01 7.82172E+00 4.54545E-01
 -1     14906 4.96922E+01 3.91086E+00 9.09091E-01
 -1     14907 4.81498E+01 7.62618E+00 9.09091E-01
 -1     14912 4.93844E+01 7.82172E+00 1.36364E+00
 -1     14913 4.96922E+01 3.91086E+00 1.81818E+00
 -1     14914 4.81498E+01 7.62618E+00 1.81818E+00
 -1     14919 4.93844E+01 7.82172E+00 2.27273E+00
 -1     14920 4.96922E+01 3.91086E+00 2.72727E+00
 -1     14921 4.81498E+01 7.62618E+00 2.72727E+00
 -1     14926 4.93844E+01 7.82172E+00 3.18182E+00
 -1     14927 4.96922E+01 3.91086E+00 3.63636E+00
 -1     14928 4.81498E+01 7.62618E+00 3.63636E+00
 -1     14933 4.93844E+01 7.82172E+00 4.09091E+00
 -1     14934 4.96922E+01 3.91086E+00 4.54545E+00
 -1     14935 4.81498E+01 7.62618E+00 4.54545E+00
 -1     14940 4.93844E+01 7.82172E+00 5.00000E+00
 -1     14941 4.96922E+01 3.91086E+00 5.45455E+00
 -1     14942 4.81498E+01 7.62618E+00 5.45455E+00
 -1     14947 4.93844E+01 7.82172E+00 5.90909E+00
 -1     14948 4.96922E+01 3.91086E+00 6.36364E+00
 -1     14949 4.81498E+01 7.62618E+00 6.36364E+00
 -1     14954 4.93844E+01 7.82172E+00 6.81818E+00
 -1     14955 4.96922E+01 3.91086E+00 7.27273E+00
 -1     14956 4.81498E+01 7.62618E+00 7.27273E+00
 -1     14961 4.93844E+01 7.82172E+00 7.72727E+00
 -1     14962 4.96922E+01 3.91086E+00 8.18182E+00
 -1     14963 4.81498E+01 7.62618E+00 8.18182E+00
 -1     14968 4.93844E+01 7.82172E+00 8.63636E+00
 -1     14969 4.96922E+01 3.91086E+00 9.09091E+00
 -1     14970 4.81498E+01 7.62618E+00 9.09091E+00
 -1     14975 4.93844E+01 7.82172E+00 9.54545E+00
 -1     14979 4.75528E+01 1.54508E+01 4.54545E-01
 -1     14980 4.84686E+01 1.16363E+01 9.09091E-01
 -1     14981 4.63640E+01 1.50646E+01 9.09091E-01
 -1     14986 4.75528E+01 1.54508E+01 1.36364E+00
 -1     14987 4.84686E+01 1.16363E+01 1.81818E+00
 -1     14988 4.63640E+01 1.50646E+01 1.81818E+00
 -1     14993 4.75528E+01 1.54508E+01 2.27273E+00
 -1     14994 4.84686E+01 1.16363E+01 2.72727E+00
 -1     14995 4.63640E+01 1.50646E+01 2.72727E+00
 -1     15000 4.75528E+01 1.54508E+01 3.18182E+00
 -1     15001 4.84686E+01 1.16363E+01 3.63636E+00
 -1     15002 4.63640E+01 1.50646E+01 3.63636E+00
 -1     15007 4.75528E+01 1.54508E+01 4.09091E+00
 -1     15008 4.84686E+01 1.16363E+01 4.54545E+00
 -1     15009 4.63640E+01 1.50646E+01 4.54545E+00
 -1     15014 4.75528E+01 1.54508E+01 5.00000E+00
 -1     15015 4.84686E+01 1.16363E+01 5.45455E+00
 -1     15016 4.63640E+01 1.50646E+01 5.45455E+00
 -1     15021 4.75528E+01 1.54508E+01 5.90909E+00
 -1     15022 4.84686E+01 1.16363E+01 6.36364E+00
 -1     15023 4.63640E+01 1.50646E+01 6.36364E+00
 -1     15028 4.75528E+01 1.54508E+01 6.81818E+00
 -1     15029 4.84686E+01 1.16363E+01 7.27273E+00
 -1     15030 4.63640E+01 1.50646E+01 7.27273E+00
 -1     15035 4.75528E+01 1.54508E+01 7.72727E+00
 -1     15036 4.84686E+01 1.16363E+01 8.18182E+00
 -1     15037 4.63640E+01 1.50646E+01 8.18182E+00
 -1     15042 4.75528E+01 1.54508E+01 8.63636E+00
 -1     15043 4.84686E+01 1.16363E+01 9.09091E+00
 -1     15044 4.63640E+01 1.50646E+01 9.09091E+00
 -1     15049 4.75528E+01 1.54508E+01 9.54545E+00
 -1     15053 4.45503E+01 2.26995E+01 4.54545E-01
 -1     15054 4.60516E+01 1.90752E+01 9.09091E-01
 -1     15055 4.34366E+01 2.21320E+01 9.09091E-01
 -1     15060 4.45503E+01 2.26995E+01 1.36364E+00
 -1     15061 4.60516E+01 1.90752E+01 1.81818E+00
 -1     15062 4.34366E+01 2.21320E+01 1.81818E+00
 -1     15067 4.45503E+01 2.26995E+01 2.27273E+00
 -1     15068 4.60516E+01 1.90752E+01 2.72727E+00
 -1     15069 4.34366E+01 2.21320E+01 2.72727E+00
 -1     15074 4.45503E+01 2.26995E+01 3.18182E+00
 -1     15075 4.60516E+01 1.90752E+01 3.63636E+00
 -1     15076 4.34366E+01 2.21320E+01 3.63636E+00
 -1     15081 4.45503E+01 2.26995E+01 4.09091E+00
 -1     15082 4.60516E+01 1.90752E+01 4.54545E+00
 -1     15083 4.34366E+01 2.21320E+01 4.54545E+00
 -1     15088 4.45503E+01 2.26995E+01 5.00000E+00
 -1     15089 4.60516E+01 1.90752E+01 5.45455E+00
 -1     15090 4.34366E+01 2.21320E+01 5.45455E+00
 -1     15095 4.45503E+01 2.26995E+01 5.90909E+00
 -1     15096 4.60516E+01 1.90752E+01 6.36364E+00
 -1     15097 4.34366E+01 2.21320E+01 6.36364E+00
 -1     15102 4.45503E+01 2.26995E+01 6.81818E+00
 -1     15103 4.60516E+01 1.90752E+01 7.27273E+00
 -1     15104 4.34366E+01 2.21320E+01 7.27273E+00
 -1     15109 4.45503E+01 2.26995E+01 7.72727E+00
 -1     15110 4.60516E+01 1.90752E+01 8.18182E+00
 -1     15111 4.34366E+01 2.21320E+01 8.18182E+00
 -1     15116 4.45503E+01 2.26995E+01 8.63636E+00
 -1     15117 4.60516E+01 1.90752E+01 9.09091E+00
 -1     15118 4.34366E+01 2.21320E+01 9.09091E+00
 -1     15123 4.45503E+01 2.26995E+01 9.54545E+00
 -1     15127 4.04509E+01 2.93893E+01 4.54545E-01
 -1     15128 4.25006E+01 2.60444E+01 9.09091E-01
 -1     15129 3.94396E+01 2.86545E+01 9.09091E-01
 -1     15134 4.04509E+01 2.93893E+01 1.36364E+00
 -1     15135 4.25006E+01 2.60444E+01 1.81818E+00
 -1     15136 3.94396E+01 2.86545E+01 1.81818E+00
 -1     15141 4.04509E+01 2.93893E+01 2.27273E+00
 -1     15142 4.25006E+01 2.60444E+01 2.72727E+00
 -1     15143 3.94396E+01 2.86545E+01 2.72727E+00
 -1     15148 4.04509E+01 2.93893E+01 3.18182E+00
 -1     15149 4.25006E+01 2.60444E+01 3.63636E+00
 -1     15150 3.94396E+01 2.86545E+01 3.63636E+00
 -1     15155 4.04509E+01 2.93893E+01 4.09091E+00
 -1     15156 4.25006E+01 2.60444E+01 4.54545E+00
 -1     15157 3.94396E+01 2.86545E+01 4.54545E+00
 -1     15162 4.04509E+01 2.93893E+01 5.00000E+00
 -1     15163 4.25006E+01 2.60444E+01 5.45455E+00
 -1     15164 3.94396E+01 2.86545E+01 5.45455E+00
 -1     15169 4.04509E+01 2.93893E+01 5.90909E+00
 -1     15170 4.25006E+01 2.60444E+01 6.36364E+00
 -1     15171 3.94396E+01 2.86545E+01 6.36364E+00
 -1     15176 4.04509E+01 2.93893E+01 6.81818E+00
 -1     15177 4.25006E+01 2.60444E+01 7.27273E+00
 -1     15178 3.94396E+01 2.86545E+01 7.27273E+00
 -1     15183 4.04509E+01 2.93893E+01 7.72727E+00
 -1     15184 4.25006E+01 2.60444E+01 8.18182E+00
 -1     15185 3.94396E+01 2.86545E+01 8.18182E+00
 -1     15190 4.04509E+01 2.93893E+01 8.63636E+00
 -1     15191 4.25006E+01 2.60444E+01 9.09091E+00
 -1     15192 3.94396E+01 2.86545E+01 9.09091E+00
 -1     15197 4.04509E+01 2.93893E+01 9.54545E+00
 -1     15201 3.53553E+01 3.53553E+01 4.54545E-01
 -1     15202 3.79031E+01 3.23723E+01 9.09091E-01
 -1     15203 3.44715E+01 3.44715E+01 9.09091E-01
 -1     15208 3.53553E+01 3.53553E+01 1.36364E+00
 -1     15209 3.79031E+01 3.23723E+01 1.81818E+00
 -1     15210 3.44715E+01 3.44715E+01 1.81818E+00
 -1     15215 3.53553E+01 3.53553E+01 2.27273E+00
 -1     15216 3.79031E+01 3.23723E+01 2.72727E+00
 -1     15217 3.44715E+01 3.44715E+01 2.72727E+00
 -1     15222 3.53553E+01 3.53553E+01 3.18182E+00
 -1     15223 3.79031E+01 3.23723E+01 3.63636E+00
 -1     15224 3.44715E+01 3.44715E+01 3.63636E+00
 -1     15229 3.53553E+01 3.53553E+01 4.09091E+00
 -1     15230 3.79031E+01 3.23723E+01 4.54545E+00
 -1     15231 3.44715E+01 3.44715E+01 4.54545E+00
 -1     15236 3.53553E+01 3.53553E+01 5.00000E+00
 -1     15237 3.79031E+01 3.23723E+01 5.45455E+00
 -1     15238 3.44715E+01 3.44715E+01 5.45455E+00
 -1     15243 3.53553E+01 3.53553E+01 5.90909E+00
 -1     15244 3.79031E+01 3.23723E+01 6.36364E+00
 -1     15245 3.44715E+01 3.44715E+01 6.36364E+00
 -1     15250 3.53553E+01 3.53553E+01 6.81818E+00
 -1     15251 3.79031E+01 3.23723E+01 7.27273E+00
 -1     15252 3.44715E+01 3.44715E+01 7.27273E+00
 -1     15257 3.53553E+01 3.53553E+01 7.72727E+00
 -1     15258 3.79031E+01 3.23723E+01 8.18182E+00
 -1     15259 3.44715E+01 3.44715E+01 8.18182E+00
 -1     15264 3.53553E+01 3.53553E+01 8.63636E+00
 -1     15265 3.79031E+01 3.23723E+01 9.09091E+00
 -1     15266 3.44715E+01 3.44715E+01 9.09091E+00
 -1     15271 3.53553E+01 3.53553E+01 9.54545E+00
 -1     15275 2.93893E+01 4.04509E+01 4.54545E-01
 -1     15276 3.23723E+01 3.79031E+01 9.09091E-01
 -1     15277 2.86545E+01 3.94396E+01 9.09091E-01
 -1     15282 2.93893E+01 4.04509E+01 1.36364E+00
 -1     15283 3.23723E+01 3.79031E+01 1.81818E+00
 -1     15284 2.86545E+01 3.94396E+01 1.81818E+00
 -1     15289 2.93893E+01 4.04509E+01 2.27273E+00
 -1     15290 3.23723E+01 3.79031E+01 2.72727E+00
 -1     15291 2.86545E+01 3.94396E+01 2.72727E+00
 -1     15296 2.93893E+01 4.04509E+01 3.18182E+00
 -1     15297 3.23723E+01 3.79031E+01 3.63636E+00
 -1     15298 2.86545E+01 3.94396E+01 3.63636E+00
 -1     15303 2.93893E+01 4.04509E+01 4.09091E+00
 -1     15304 3.23723E+01 3.79031E+01 4.54545E+00
 -1     15305 2.86545E+01 3.94396E+01 4.54545E+00
 -1     15310 2.93893E+01 4.04509E+01 5.00000E+00
 -1     15311 3.23723E+01 3.79031E+01 5.45455E+00
 -1     15312 2.86545E+01 3.94396E+01 5.45455E+00
 -1     15317 2.93893E+01 4.04509E+01 5.90909E+00
 -1     15318 3.23723E+01 3.79031E+01 6.36364E+00
 -1     15319 2.86545E+01 3.94396E+01 6.36364E+00
 -1     15324 2.93893E+01 4.04509E+01 6.81818E+00
 -1     15325 3.23723E+01 3.79031E+01 7.27273E+00
 -1     15326 2.86545E+01 3.94396E+01 7.27273E+00
 -1     15331 2.93893E+01 4.04509E+01 7.72727E+00
 -1     15332 3.23723E+01 3.79031E+01 8.18182E+00
 -1     15333 2.86545E+01 3.94396E+01 8.18182E+00
 -1     15338 2.93893E+01 4.04509E+01 8.63636E+00
 -1     15339 3.23723E+01 3.79031E+01 9.09091E+00
 -1     15340 2.86545E+01 3.94396E+01 9.09091E+00
 -1     15345 2.93893E+01 4.04509E+01 9.54545E+00
 -1     15349 2.26995E+01 4.45503E+01 4.54545E-01
 -1     15350 2.60444E+01 4.25006E+01 9.09091E-01
 -1     15351 2.21320E+01 4.34366E+01 9.09091E-01
 -1     15356 2.26995E+01 4.45503E+01 1.36364E+00
 -1     15357 2.60444E+01 4.25006E+01 1.81818E+00
 -1     15358 2.21320E+01 4.34366E+01 1.81818E+00
 -1     15363 2.26995E+01 4.45503E+01 2.27273E+00
 -1     15364 2.60444E+01 4.25006E+01 2.72727E+00
 -1     15365 2.21320E+01 4.34366E+01 2.72727E+00
 -1     15370 2.26995E+01 4.45503E+01 3.18182E+00
 -1     15371 2.60444E+01 4.25006E+01 3.63636E+00
 -1     15372 2.21320E+01 4.34366E+01 3.63636E+00
 -1     15377 2.26995E+01 4.45503E+01 4.09091E+00
 -1     15378 2.60444E+01 4.25006E+01 4.54545E+00
 -1     15379 2.21320E+01 4.34366E+01 4.54545E+00
 -1     15384 2.26995E+01 4.45503E+01 5.00000E+00
 -1     15385 2.60444E+01 4.25006E+01 5.45455E+00
 -1     15386 2.21320E+01 4.34366E+01 5.45455E+00
 -1     15391 2.26995E+01 4.45503E+01 5.90909E+00
 -1     15392 2.60444E+01 4.25006E+01 6.36364E+00
 -1     15393 2.21320E+01 4.34366E+01 6.36364E+00
 -1     15398 2.26995E+01 4.45503E+01 6.81818E+00
 -1     15399 2.60444E+01 4.25006E+01 7.27273E+00
 -1     15400 2.21320E+01 4.34366E+01 7.27273E+00
 -1     15405 2.26995E+01 4.45503E+01 7.72727E+00
 -1     15406 2.60444E+01 4.25006E+01 8.18182E+00
 -1     15407 2.21320E+01 4.34366E+01 8.18182E+00
 -1     15412 2.26995E+01 4.45503E+01 8.63636E+00
 -1     15413 2.60444E+01 4.25006E+01 9.09091E+00
 -1     15414 2.21320E+01 4.34366E+01 9.09091E+00
 -1     15419 2.26995E+01 4.45503E+01 9.54545E+00
 -1     15423 1.54508E+01 4.75528E+01 4.54545E-01
 -1     15424 1.90752E+01 4.60516E+01 9.09091E-01
 -1     15425 1.50646E+01 4.63640E+01 9.09091E-01
 -1     15430 1.54508E+01 4.75528E+01 1.36364E+00
 -1     15431 1.90752E+01 4.60516E+01 1.81818E+00
 -1     15432 1.50646E+01 4.63640E+01 1.81818E+00
 -1     15437 1.54508E+01 4.75528E+01 2.27273E+00
 -1     15438 1.90752E+01 4.60516E+01 2.72727E+00
 -1     15439 1.50646E+01 4.63640E+01 2.72727E+00
 -1     15444 1.54508E+01 4.75528E+01 3.18182E+00
 -1     15445 1.90752E+01 4.60516E+01 3.63636E+00
 -1     15446 1.50646E+01 4.63640E+01 3.63636E+00
 -1     15451 1.54508E+01 4.75528E+01 4.09091E+00
 -1     15452 1.90752E+01 4.60516E+01 4.54545E+00
 -1     15453 1.50646E+01 4.63640E+01 4.54545E+00
 -1     15458 1.54508E+01 4.75528E+01 5.00000E+00
 -1     15459 1.90752E+01 4.60516E+01 5.45455E+00
 -1     15460 1.50646E+01 4.63640E+01 5.45455E+00
 -1     15465 1.54508E+01 4.75528E+01 5.90909E+00
 -1     15466 1.90752E+01 4.60516E+01 6.36364E+00
 -1     15467 1.50646E+01 4.63640E+01 6.36364E+00
 -1     15472 1.54508E+01 4.75528E+01 6.81818E+00
 -1     15473 1.90752E+01 4.60516E+01 7.27273E+00
 -1     15474 1.50646E+01 4.63640E+01 7.27273E+00
 -1     15479 1.54508E+01 4.75528E+01 7.72727E+00
 -1     15480 1.90752E+01 4.60516E+01 8.18182E+00
 -1     15481 1.50646E+01 4.63640E+01 8.18182E+00
 -1     15486 1.54508E+01 4.75528E+01 8.63636E+00
 -1     15487 1.90752E+01 4.60516E+01 9.09091E+00
 -1     15488 1.50646E+01 4.63640E+01 9.09091E+00
 -1     15493 1.54508E+01 4.75528E+01 9.54545E+00
 -1     15497 7.82172E+00 4.93844E+01 4.54545E-01
 -1     15498 1.16363E+01 4.84686E+01 9.09091E-01
 -1     15499 7.62618E+00 4.81498E+01 9.09091E-01
 -1     15504 7.82172E+00 4.93844E+01 1.36364E+00
 -1     15505 1.16363E+01 4.84686E+01 1.81818E+00
 -1     15506 7.62618E+00 4.81498E+01 1.81818E+00
 -1     15511 7.82172E+00 4.93844E+01 2.27273E+00
 -1     15512 1.16363E+01 4.84686E+01 2.72727E+00
 -1     15513 7.62618E+00 4.81498E+01 2.72727E+00
 -1     15518 7.82172E+00 4.93844E+01 3.18182E+00
 -1     15519 1.16363E+01 4.84686E+01 3.63636E+00
 -1     15520 7.62618E+00 4.81498E+01 3.63636E+00
 -1     15525 7.82172E+00 4.93844E+01 4.09091E+00
 -1     15526 1.16363E+01 4.84686E+01 4.54545E+00
 -1     15527 7.62618E+00 4.81498E+01 4.54545E+00
 -1     15532 7.82172E+00 4.93844E+01 5.00000E+00
 -1     15533 1.16363E+01 4.84686E+01 5.45455E+00
 -1     15534 7.62618E+00 4.81498E+01 5.45455E+00
 -1     15539 7.82172E+00 4.93844E+01 5.90909E+00
 -1     15540 1.16363E+01 4.84686E+01 6.36364E+00
 -1     15541 7.62618E+00 4.81498E+01 6.36364E+00
 -1     15546 7.82172E+00 4.93844E+01 6.81818E+00
 -1     15547 1.16363E+01 4.84686E+01 7.27273E+00
 -1     15548 7.62618E+00 4.81498E+01 7.27273E+00
 -1     15553 7.82172E+00 4.93844E+01 7.72727E+00
 -1     15554 1.16363E+01 4.84686E+01 8.18182E+00
 -1     15555 7.62618E+00 4.81498E+01 8.18182E+00
 -1     15560 7.82172E+00 4.93844E+01 8.63636E+00
 -1     15561 1.16363E+01 4.84686E+01 9.09091E+00
 -1     15562 7.62618E+00 4.81498E+01 9.09091E+00
 -1     15567 7.82172E+00 4.93844E+01 9.54545E+00
 -1     15571 3.91086E+00 4.96922E+01 9.09091E-01
 -1     15575 3.91086E+00 4.96922E+01 1.81818E+00
 -1     15579 3.91086E+00 4.96922E+01 2.72727E+00
 -1     15583 3.91086E+00 4.96922E+01 3.63636E+00
 -1     15587 3.91086E+00 4.96922E+01 4.54545E+00
 -1     15591 3.91086E+00 4.96922E+01 5.45455E+00
 -1     15595 3.91086E+00 4.96922E+01 6.36364E+00
 -1     15599 3.91086E+00 4.96922E+01 7.27273E+00
 -1     15603 3.91086E+00 4.96922E+01 8.18182E+00
 -1     15607 3.91086E+00 4.96922E+01 9.09091E+00
 -1     15613 5.18536E+01 8.21281E+00 4.54545E-01
 -1     15614 5.21768E+01 4.10640E+00 9.09091E-01
 -1     15615 5.06190E+01 8.01727E+00 9.09091E-01
 -1     15620 5.18536E+01 8.21281E+00 1.36364E+00
 -1     15621 5.21768E+01 4.10640E+00 1.81818E+00
 -1     15622 5.06190E+01 8.01727E+00 1.81818E+00
 -1     15627 5.18536E+01 8.21281E+00 2.27273E+00
 -1     15628 5.21768E+01 4.10640E+00 2.72727E+00
 -1     15629 5.06190E+01 8.01727E+00 2.72727E+00
 -1     15634 5.18536E+01 8.21281E+00 3.18182E+00
 -1     15635 5.21768E+01 4.10640E+00 3.63636E+00
 -1     15636 5.06190E+01 8.01727E+00 3.63636E+00
 -1     15641 5.18536E+01 8.21281E+00 4.09091E+00
 -1     15642 5.21768E+01 4.10640E+00 4.54545E+00
 -1     15643 5.06190E+01 8.01727E+00 4.54545E+00
 -1     15648 5.18536E+01 8.21281E+00 5.00000E+00
 -1     15649 5.21768E+01 4.10640E+00 5.45455E+00
 -1     15650 5.06190E+01 8.01727E+00 5.45455E+00
 -1     15655 5.18536E+01 8.21281E+00 5.90909E+00
 -1     15656 5.21768E+01 4.10640E+00 6.36364E+00
 -1     15657 5.06190E+01 8.01727E+00 6.36364E+00
 -1     15662 5.18536E+01 8.21281E+00 6.81818E+00
 -1     15663 5.21768E+01 4.10640E+00 7.27273E+00
 -1     15664 5.06190E+01 8.01727E+00 7.27273E+00
 -1     15669 5.18536E+01 8.21281E+00 7.72727E+00
 -1     15670 5.21768E+01 4.10640E+00 8.18182E+00
 -1     15671 5.06190E+01 8.01727E+00 8.18182E+00
 -1     15676 5.18536E+01 8.21281E+00 8.63636E+00
 -1     15677 5.21768E+01 4.10640E+00 9.09091E+00
 -1     15678 5.06190E+01 8.01727E+00 9.09091E+00
 -1     15683 5.18536E+01 8.21281E+00 9.54545E+00
 -1     15687 4.99305E+01 1.62234E+01 4.54545E-01
 -1     15688 5.08921E+01 1.22181E+01 9.09091E-01
 -1     15689 4.87416E+01 1.58371E+01 9.09091E-01
 -1     15694 4.99305E+01 1.62234E+01 1.36364E+00
 -1     15695 5.08921E+01 1.22181E+01 1.81818E+00
 -1     15696 4.87416E+01 1.58371E+01 1.81818E+00
 -1     15701 4.99305E+01 1.62234E+01 2.27273E+00
 -1     15702 5.08921E+01 1.22181E+01 2.72727E+00
 -1     15703 4.87416E+01 1.58371E+01 2.72727E+00
 -1     15708 4.99305E+01 1.62234E+01 3.18182E+00
 -1     15709 5.08921E+01 1.22181E+01 3.63636E+00
 -1     15710 4.87416E+01 1.58371E+01 3.63636E+00
 -1     15715 4.99305E+01 1.62234E+01 4.09091E+00
 -1     15716 5.08921E+01 1.22181E+01 4.54545E+00
 -1     15717 4.87416E+01 1.58371E+01 4.54545E+00
 -1     15722 4.99305E+01 1.62234E+01 5.00000E+00
 -1     15723 5.08921E+01 1.22181E+01 5.45455E+00
 -1     15724 4.87416E+01 1.58371E+01 5.45455E+00
 -1     15729 4.99305E+01 1.62234E+01 5.90909E+00
 -1     15730 5.08921E+01 1.22181E+01 6.36364E+00
 -1     15731 4.87416E+01 1.58371E+01 6.36364E+00
 -1     15736 4.99305E+01 1.62234E+01 6.81818E+00
 -1     15737 5.08921E+01 1.22181E+01 7.27273E+00
 -1     15738 4.87416E+01 1.58371E+01 7.27273E+00
 -1     15743 4.99305E+01 1.62234E+01 7.72727E+00
 -1     15744 5.08921E+01 1.22181E+01 8.18182E+00
 -1     15745 4.87416E+01 1.58371E+01 8.18182E+00
 -1     15750 4.99305E+01 1.62234E+01 8.63636E+00
 -1     15751 5.08921E+01 1.22181E+01 9.09091E+00
 -1     15752 4.87416E+01 1.58371E+01 9.09091E+00
 -1     15757 4.99305E+01 1.62234E+01 9.54545E+00
 -1     15761 4.67778E+01 2.38345E+01 4.54545E-01
 -1     15762 4.83542E+01 2.00289E+01 9.09091E-01
 -1     15763 4.56641E+01 2.32670E+01 9.09091E-01
 -1     15768 4.67778E+01 2.38345E+01 1.36364E+00
 -1     15769 4.83542E+01 2.00289E+01 1.81818E+00
 -1     15770 4.56641E+01 2.32670E+01 1.81818E+00
 -1     15775 4.67778E+01 2.38345E+01 2.27273E+00
 -1     15776 4.83542E+01 2.00289E+01 2.72727E+00
 -1     15777 4.56641E+01 2.32670E+01 2.72727E+00
 -1     15782 4.67778E+01 2.38345E+01 3.18182E+00
 -1     15783 4.83542E+01 2.00289E+01 3.63636E+00
 -1     15784 4.56641E+01 2.32670E+01 3.63636E+00
 -1     15789 4.67778E+01 2.38345E+01 4.09091E+00
 -1     15790 4.83542E+01 2.00289E+01 4.54545E+00
 -1     15791 4.56641E+01 2.32670E+01 4.54545E+00
 -1     15796 4.67778E+01 2.38345E+01 5.00000E+00
 -1     15797 4.83542E+01 2.00289E+01 5.45455E+00
 -1     15798 4.56641E+01 2.32670E+01 5.45455E+00
 -1     15803 4.67778E+01 2.38345E+01 5.90909E+00
 -1     15804 4.83542E+01 2.00289E+01 6.36364E+00
 -1     15805 4.56641E+01 2.32670E+01 6.36364E+00
 -1     15810 4.67778E+01 2.38345E+01 6.81818E+00
 -1     15811 4.83542E+01 2.00289E+01 7.27273E+00
 -1     15812 4.56641E+01 2.32670E+01 7.27273E+00
 -1     15817 4.67778E+01 2.38345E+01 7.72727E+00
 -1     15818 4.83542E+01 2.00289E+01 8.18182E+00
 -1     15819 4.56641E+01 2.32670E+01 8.18182E+00
 -1     15824 4.67778E+01 2.38345E+01 8.63636E+00
 -1     15825 4.83542E+01 2.00289E+01 9.09091E+00
 -1     15826 4.56641E+01 2.32670E+01 9.09091E+00
 -1     15831 4.67778E+01 2.38345E+01 9.54545E+00
 -1     15835 4.24734E+01 3.08587E+01 4.54545E-01
 -1     15836 4.46256E+01 2.73466E+01 9.09091E-01
 -1     15837 4.14621E+01 3.01240E+01 9.09091E-01
 -1     15842 4.24734E+01 3.08587E+01 1.36364E+00
 -1     15843 4.46256E+01 2.73466E+01 1.81818E+00
 -1     15844 4.14621E+01 3.01240E+01 1.81818E+00
 -1     15849 4.24734E+01 3.08587E+01 2.27273E+00
 -1     15850 4.46256E+01 2.73466E+01 2.72727E+00
 -1     15851 4.14621E+01 3.01240E+01 2.72727E+00
 -1     15856 4.24734E+01 3.08587E+01 3.18182E+00
 -1     15857 4.46256E+01 2.73466E+01 3.63636E+00
 -1     15858 4.14621E+01 3.01240E+01 3.63636E+00
 -1     15863 4.24734E+01 3.08587E+01 4.09091E+00
 -1     15864 4.46256E+01 2.73466E+01 4.54545E+00
 -1     15865 4.14621E+01 3.01240E+01 4.54545E+00
 -1     15870 4.24734E+01 3.08587E+01 5.00000E+00
 -1     15871 4.46256E+01 2.73466E+01 5.45455E+00
 -1     15872 4.14621E+01 3.01240E+01 5.45455E+00
 -1     15877 4.24734E+01 3.08587E+01 5.90909E+00
 -1     15878 4.46256E+01 2.73466E+01 6.36364E+00
 -1     15879 4.14621E+01 3.01240E+01 6.36364E+00
 -1     15884 4.24734E+01 3.08587E+01 6.81818E+00
 -1     15885 4.46256E+01 2.73466E+01 7.27273E+00
 -1     15886 4.14621E+01 3.01240E+01 7.27273E+00
 -1     15891 4.24734E+01 3.08587E+01 7.72727E+00
 -1     15892 4.46256E+01 2.73466E+01 8.18182E+00
 -1     15893 4.14621E+01 3.01240E+01 8.18182E+00
 -1     15898 4.24734E+01 3.08587E+01 8.63636E+00
 -1     15899 4.46256E+01 2.73466E+01 9.09091E+00
 -1     15900 4.14621E+01 3.01240E+01 9.09091E+00
 -1     15905 4.24734E+01 3.08587E+01 9.54545E+00
 -1     15909 3.71231E+01 3.71231E+01 4.54545E-01
 -1     15910 3.97982E+01 3.39909E+01 9.09091E-01
 -1     15911 3.62392E+01 3.62392E+01 9.09091E-01
 -1     15916 3.71231E+01 3.71231E+01 1.36364E+00
 -1     15917 3.97982E+01 3.39909E+01 1.81818E+00
 -1     15918 3.62392E+01 3.62392E+01 1.81818E+00
 -1     15923 3.71231E+01 3.71231E+01 2.27273E+00
 -1     15924 3.97982E+01 3.39909E+01 2.72727E+00
 -1     15925 3.62392E+01 3.62392E+01 2.72727E+00
 -1     15930 3.71231E+01 3.71231E+01 3.18182E+00
 -1     15931 3.97982E+01 3.39909E+01 3.63636E+00
 -1     15932 3.62392E+01 3.62392E+01 3.63636E+00
 -1     15937 3.71231E+01 3.71231E+01 4.09091E+00
 -1     15938 3.97982E+01 3.39909E+01 4.54545E+00
 -1     15939 3.62392E+01 3.62392E+01 4.54545E+00
 -1     15944 3.71231E+01 3.71231E+01 5.00000E+00
 -1     15945 3.97982E+01 3.39909E+01 5.45455E+00
 -1     15946 3.62392E+01 3.62392E+01 5.45455E+00
 -1     15951 3.71231E+01 3.71231E+01 5.90909E+00
 -1     15952 3.97982E+01 3.39909E+01 6.36364E+00
 -1     15953 3.62392E+01 3.62392E+01 6.36364E+00
 -1     15958 3.71231E+01 3.71231E+01 6.81818E+00
 -1     15959 3.97982E+01 3.39909E+01 7.27273E+00
 -1     15960 3.62392E+01 3.62392E+01 7.27273E+00
 -1     15965 3.71231E+01 3.71231E+01 7.72727E+00
 -1     15966 3.97982E+01 3.39909E+01 8.18182E+00
 -1     15967 3.62392E+01 3.62392E+01 8.18182E+00
 -1     15972 3.71231E+01 3.71231E+01 8.63636E+00
 -1     15973 3.97982E+01 3.39909E+01 9.09091E+00
 -1     15974 3.62392E+01 3.62392E+01 9.09091E+00
 -1     15979 3.71231E+01 3.71231E+01 9.54545E+00
 -1     15983 3.08587E+01 4.24734E+01 4.54545E-01
 -1     15984 3.39909E+01 3.97982E+01 9.09091E-01
 -1     15985 3.01240E+01 4.14621E+01 9.09091E-01
 -1     15990 3.08587E+01 4.24734E+01 1.36364E+00
 -1     15991 3.39909E+01 3.97982E+01 1.81818E+00
 -1     15992 3.01240E+01 4.14621E+01 1.81818E+00
 -1     15997 3.08587E+01 4.24734E+01 2.27273E+00
 -1     15998 3.39909E+01 3.97982E+01 2.72727E+00
 -1     15999 3.01240E+01 4.14621E+01 2.72727E+00
 -1     16004 3.08587E+01 4.24734E+01 3.18182E+00
 -1     16005 3.39909E+01 3.97982E+01 3.63636E+00
 -1     16006 3.01240E+01 4.14621E+01 3.63636E+00
 -1     16011 3.08587E+01 4.24734E+01 4.09091E+00
 -1     16012 3.39909E+01 3.97982E+01 4.54545E+00
 -1     16013 3.01240E+01 4.14621E+01 4.54545E+00
 -1     16018 3.08587E+01 4.24734E+01 5.00000E+00
 -1     16019 3.39909E+01 3.97982E+01 5.45455E+00
 -1     16020 3.01240E+01 4.14621E+01 5.45455E+00
 -1     16025 3.08587E+01 4.24734E+01 5.90909E+00
 -1     16026 3.39909E+01 3.97982E+01 6.36364E+00
 -1     16027 3.01240E+01 4.14621E+01 6.36364E+00
 -1     16032 3.08587E+01 4.24734E+01 6.81818E+00
 -1     16033 3.39909E+01 3.97982E+01 7.27273E+00
 -1     16034 3.01240E+01 4.14621E+01 7.27273E+00
 -1     16039 3.08587E+01 4.24734E+01 7.72727E+00
 -1     16040 3.39909E+01 3.97982E+01 8.18182E+00
 -1     16041 3.01240E+01 4.14621E+01 8.18182E+00
 -1     16046 3.08587E+01 4.24734E+01 8.63636E+00
 -1     16047 3.39909E+01 3.97982E+01 9.09091E+00
 -1     16048 3.01240E+01 4.14621E+01 9.09091E+00
 -1     16053 3.08587E+01 4.24734E+01 9.54545E+00
 -1     16057 2.38345E+01 4.67778E+01 4.54545E-01
 -1     16058 2.73466E+01 4.46256E+01 9.09091E-01
 -1     16059 2.32670E+01 4.56641E+01 9.09091E-01
 -1     16064 2.38345E+01 4.67778E+01 1.36364E+00
 -1     16065 2.73466E+01 4.46256E+01 1.81818E+00
 -1     16066 2.32670E+01 4.56641E+01 1.81818E+00
 -1     16071 2.38345E+01 4.67778E+01 2.27273E+00
 -1     16072 2.73466E+01 4.46256E+01 2.72727E+00
 -1     16073 2.32670E+01 4.56641E+01 2.72727E+00
 -1     16078 2.38345E+01 4.67778E+01 3.18182E+00
 -1     16079 2.73466E+01 4.46256E+01 3.63636E+00
 -1     16080 2.32670E+01 4.56641E+01 3.63636E+00
 -1     16085 2.38345E+01 4.67778E+01 4.09091E+00
 -1     16086 2.73466E+01 4.46256E+01 4.54545E+00
 -1     16087 2.32670E+01 4.56641E+01 4.54545E+00
 -1     16092 2.38345E+01 4.67778E+01 5.00000E+00
 -1     16093 2.73466E+01 4.46256E+01 5.45455E+00
 -1     16094 2.32670E+01 4.56641E+01 5.45455E+00
 -1     16099 2.38345E+01 4.67778E+01 5.90909E+00
 -1     16100 2.73466E+01 4.46256E+01 6.36364E+00
 -1     16101 2.32670E+01 4.56641E+01 6.36364E+00
 -1     16106 2.38345E+01 4.67778E+01 6.81818E+00
 -1     16107 2.73466E+01 4.46256E+01 7.27273E+00
 -1     16108 2.32670E+01 4.56641E+01 7.27273E+00
 -1     16113 2.38345E+01 4.67778E+01 7.72727E+00
 -1     16114 2.73466E+01 4.46256E+01 8.18182E+00
 -1     16115 2.32670E+01 4.56641E+01 8.18182E+00
 -1     16120 2.38345E+01 4.67778E+01 8.63636E+00
 -1     16121 2.73466E+01 4.46256E+01 9.09091E+00
 -1     16122 2.32670E+01 4.56641E+01 9.09091E+00
 -1     16127 2.38345E+01 4.67778E+01 9.54545E+00
 -1     16131 1.62234E+01 4.99305E+01 4.54545E-01
 -1     16132 2.00289E+01 4.83542E+01 9.09091E-01
 -1     16133 1.58371E+01 4.87416E+01 9.09091E-01
 -1     16138 1.62234E+01 4.99305E+01 1.36364E+00
 -1     16139 2.00289E+01 4.83542E+01 1.81818E+00
 -1     16140 1.58371E+01 4.87416E+01 1.81818E+00
 -1     16145 1.62234E+01 4.99305E+01 2.27273E+00
 -1     16146 2.00289E+01 4.83542E+01 2.72727E+00
 -1     16147 1.58371E+01 4.87416E+01 2.72727E+00
 -1     16152 1.62234E+01 4.99305E+01 3.18182E+00
 -1     16153 2.00289E+01 4.83542E+01 3.63636E+00
 -1     16154 1.58371E+01 4.87416E+01 3.63636E+00
 -1     16159 1.62234E+01 4.99305E+01 4.09091E+00
 -1     16160 2.00289E+01 4.83542E+01 4.54545E+00
 -1     16161 1.58371E+01 4.87416E+01 4.54545E+00
 -1     16166 1.62234E+01 4.99305E+01 5.00000E+00
 -1     16167 2.00289E+01 4.83542E+01 5.45455E+00
 -1     16168 1.58371E+01 4.87416E+01 5.45455E+00
 -1     16173 1.62234E+01 4.99305E+01 5.90909E+00
 -1     16174 2.00289E+01 4.83542E+01 6.36364E+00
 -1     16175 1.58371E+01 4.87416E+01 6.36364E+00
 -1     16180 1.62234E+01 4.99305E+01 6.81818E+00
 -1     16181 2.00289E+01 4.83542E+01 7.27273E+00
 -1     16182 1.58371E+01 4.87416E+01 7.27273E+00
 -1     16187 1.62234E+01 4.99305E+01 7.72727E+00
 -1     16188 2.00289E+01 4.83542E+01 8.18182E+00
 -1     16189 1.58371E+01 4.87416E+01 8.18182E+00
 -1     16194 1.62234E+01 4.99305E+01 8.63636E+00
 -1     16195 2.00289E+01 4.83542E+01 9.09091E+00
 -1     16196 1.58371E+01 4.87416E+01 9.09091E+00
 -1     16201 1.62234E+01 4.99305E+01 9.54545E+00
 -1     16205 8.21281E+00 5.18536E+01 4.54545E-01
 -1     16206 1.22181E+01 5.08921E+01 9.09091E-01
 -1     16207 8.01727E+00 5.06190E+01 9.09091E-01
 -1     16212 8.21281E+00 5.18536E+01 1.36364E+00
 -1     16213 1.22181E+01 5.08921E+01 1.81818E+00
 -1     16214 8.01727E+00 5.06190E+01 1.81818E+00
 -1     16219 8.21281E+00 5.18536E+01 2.27273E+00
 -1     16220 1.22181E+01 5.08921E+01 2.72727E+00
 -1     16221 8.01727E+00 5.06190E+01 2.72727E+00
 -1     16226 8.21281E+00 5.18536E+01 3.18182E+00
 -1     16227 1.22181E+01 5.08921E+01 3.63636E+00
 -1     16228 8.01727E+00 5.06190E+01 3.63636E+00
 -1     16233 8.21281E+00 5.18536E+01 4.09091E+00
 -1     16234 1.22181E+01 5.08921E+01 4.54545E+00
 -1     16235 8.01727E+00 5.06190E+01 4.54545E+00
 -1     16240 8.21281E+00 5.18536E+01 5.00000E+00
 -1     16241 1.22181E+01 5.08921E+01 5.45455E+00
 -1     16242 8.01727E+00 5.06190E+01 5.45455E+00
 -1     16247 8.21281E+00 5.18536E+01 5.90909E+00
 -1     16248 1.22181E+01 5.08921E+01 6.36364E+00
 -1     16249 8.01727E+00 5.06190E+01 6.36364E+00
 -1     16254 8.21281E+00 5.18536E+01 6.81818E+00
 -1     16255 1.22181E+01 5.08921E+01 7.27273E+00
 -1     16256 8.01727E+00 5.06190E+01 7.27273E+00
 -1     16261 8.21281E+00 5.18536E+01 7.72727E+00
 -1     16262 1.22181E+01 5.08921E+01 8.18182E+00
 -1     16263 8.01727E+00 5.06190E+01 8.18182E+00
 -1     16268 8.21281E+00 5.18536E+01 8.63636E+00
 -1     16269 1.22181E+01 5.08921E+01 9.09091E+00
 -1     16270 8.01727E+00 5.06190E+01 9.09091E+00
 -1     16275 8.21281E+00 5.18536E+01 9.54545E+00
 -1     16279 4.10640E+00 5.21768E+01 9.09091E-01
 -1     16283 4.10640E+00 5.21768E+01 1.81818E+00
 -1     16287 4.10640E+00 5.21768E+01 2.72727E+00
 -1     16291 4.10640E+00 5.21768E+01 3.63636E+00
 -1     16295 4.10640E+00 5.21768E+01 4.54545E+00
 -1     16299 4.10640E+00 5.21768E+01 5.45455E+00
 -1     16303 4.10640E+00 5.21768E+01 6.36364E+00
 -1     16307 4.10640E+00 5.21768E+01 7.27273E+00
 -1     16311 4.10640E+00 5.21768E+01 8.18182E+00
 -1     16315 4.10640E+00 5.21768E+01 9.09091E+00
 -1     16321 5.43229E+01 8.60390E+00 4.54545E-01
 -1     16322 5.46614E+01 4.30195E+00 9.09091E-01
 -1     16323 5.30882E+01 8.40835E+00 9.09091E-01
 -1     16328 5.43229E+01 8.60390E+00 1.36364E+00
 -1     16329 5.46614E+01 4.30195E+00 1.81818E+00
 -1     16330 5.30882E+01 8.40835E+00 1.81818E+00
 -1     16335 5.43229E+01 8.60390E+00 2.27273E+00
 -1     16336 5.46614E+01 4.30195E+00 2.72727E+00
 -1     16337 5.30882E+01 8.40835E+00 2.72727E+00
 -1     16342 5.43229E+01 8.60390E+00 3.18182E+00
 -1     16343 5.46614E+01 4.30195E+00 3.63636E+00
 -1     16344 5.30882E+01 8.40835E+00 3.63636E+00
 -1     16349 5.43229E+01 8.60390E+00 4.09091E+00
 -1     16350 5.46614E+01 4.30195E+00 4.54545E+00
 -1     16351 5.30882E+01 8.40835E+00 4.54545E+00
 -1     16356 5.43229E+01 8.60390E+00 5.00000E+00
 -1     16357 5.46614E+01 4.30195E+00 5.45455E+00
 -1     16358 5.30882E+01 8.40835E+00 5.45455E+00
 -1     16363 5.43229E+01 8.60390E+00 5.90909E+00
 -1     16364 5.46614E+01 4.30195E+00 6.36364E+00
 -1     16365 5.30882E+01 8.40835E+00 6.36364E+00
 -1     16370 5.43229E+01 8.60390E+00 6.81818E+00
 -1     16371 5.46614E+01 4.30195E+00 7.27273E+00
 -1     16372 5.30882E+01 8.40835E+00 7.27273E+00
 -1     16377 5.43229E+01 8.60390E+00 7.72727E+00
 -1     16378 5.46614E+01 4.30195E+00 8.18182E+00
 -1     16379 5.30882E+01 8.40835E+00 8.18182E+00
 -1     16384 5.43229E+01 8.60390E+00 8.63636E+00
 -1     16385 5.46614E+01 4.30195E+00 9.09091E+00
 -1     16386 5.30882E+01 8.40835E+00 9.09091E+00
 -1     16391 5.43229E+01 8.60390E+00 9.54545E+00
 -1     16395 5.23081E+01 1.69959E+01 4.54545E-01
 -1     16396 5.33155E+01 1.27999E+01 9.09091E-01
 -1     16397 5.11193E+01 1.66097E+01 9.09091E-01
 -1     16402 5.23081E+01 1.69959E+01 1.36364E+00
 -1     16403 5.33155E+01 1.27999E+01 1.81818E+00
 -1     16404 5.11193E+01 1.66097E+01 1.81818E+00
 -1     16409 5.23081E+01 1.69959E+01 2.27273E+00
 -1     16410 5.33155E+01 1.27999E+01 2.72727E+00
 -1     16411 5.11193E+01 1.66097E+01 2.72727E+00
 -1     16416 5.23081E+01 1.69959E+01 3.18182E+00
 -1     16417 5.33155E+01 1.27999E+01 3.63636E+00
 -1     16418 5.11193E+01 1.66097E+01 3.63636E+00
 -1     16423 5.23081E+01 1.69959E+01 4.09091E+00
 -1     16424 5.33155E+01 1.27999E+01 4.54545E+00
 -1     16425 5.11193E+01 1.66097E+01 4.54545E+00
 -1     16430 5.23081E+01 1.69959E+01 5.00000E+00
 -1     16431 5.33155E+01 1.27999E+01 5.45455E+00
 -1     16432 5.11193E+01 1.66097E+01 5.45455E+00
 -1     16437 5.23081E+01 1.69959E+01 5.90909E+00
 -1     16438 5.33155E+01 1.27999E+01 6.36364E+00
 -1     16439 5.11193E+01 1.66097E+01 6.36364E+00
 -1     16444 5.23081E+01 1.69959E+01 6.81818E+00
 -1     16445 5.33155E+01 1.27999E+01 7.27273E+00
 -1     16446 5.11193E+01 1.66097E+01 7.27273E+00
 -1     16451 5.23081E+01 1.69959E+01 7.72727E+00
 -1     16452 5.33155E+01 1.27999E+01 8.18182E+00
 -1     16453 5.11193E+01 1.66097E+01 8.18182E+00
 -1     16458 5.23081E+01 1.69959E+01 8.63636E+00
 -1     16459 5.33155E+01 1.27999E+01 9.09091E+00
 -1     16460 5.11193E+01 1.66097E+01 9.09091E+00
 -1     16465 5.23081E+01 1.69959E+01 9.54545E+00
 -1     16469 4.90054E+01 2.49695E+01 4.54545E-01
 -1     16470 5.06567E+01 2.09827E+01 9.09091E-01
 -1     16471 4.78916E+01 2.44020E+01 9.09091E-01
 -1     16476 4.90054E+01 2.49695E+01 1.36364E+00
 -1     16477 5.06567E+01 2.09827E+01 1.81818E+00
 -1     16478 4.78916E+01 2.44020E+01 1.81818E+00
 -1     16483 4.90054E+01 2.49695E+01 2.27273E+00
 -1     16484 5.06567E+01 2.09827E+01 2.72727E+00
 -1     16485 4.78916E+01 2.44020E+01 2.72727E+00
 -1     16490 4.90054E+01 2.49695E+01 3.18182E+00
 -1     16491 5.06567E+01 2.09827E+01 3.63636E+00
 -1     16492 4.78916E+01 2.44020E+01 3.63636E+00
 -1     16497 4.90054E+01 2.49695E+01 4.09091E+00
 -1     16498 5.06567E+01 2.09827E+01 4.54545E+00
 -1     16499 4.78916E+01 2.44020E+01 4.54545E+00
 -1     16504 4.90054E+01 2.49695E+01 5.00000E+00
 -1     16505 5.06567E+01 2.09827E+01 5.45455E+00
 -1     16506 4.78916E+01 2.44020E+01 5.45455E+00
 -1     16511 4.90054E+01 2.49695E+01 5.90909E+00
 -1     16512 5.06567E+01 2.09827E+01 6.36364E+00
 -1     16513 4.78916E+01 2.44020E+01 6.36364E+00
 -1     16518 4.90054E+01 2.49695E+01 6.81818E+00
 -1     16519 5.06567E+01 2.09827E+01 7.27273E+00
 -1     16520 4.78916E+01 2.44020E+01 7.27273E+00
 -1     16525 4.90054E+01 2.49695E+01 7.72727E+00
 -1     16526 5.06567E+01 2.09827E+01 8.18182E+00
 -1     16527 4.78916E+01 2.44020E+01 8.18182E+00
 -1     16532 4.90054E+01 2.49695E+01 8.63636E+00
 -1     16533 5.06567E+01 2.09827E+01 9.09091E+00
 -1     16534 4.78916E+01 2.44020E+01 9.09091E+00
 -1     16539 4.90054E+01 2.49695E+01 9.54545E+00
 -1     16543 4.44959E+01 3.23282E+01 4.54545E-01
 -1     16544 4.67506E+01 2.86488E+01 9.09091E-01
 -1     16545 4.34847E+01 3.15935E+01 9.09091E-01
 -1     16550 4.44959E+01 3.23282E+01 1.36364E+00
 -1     16551 4.67506E+01 2.86488E+01 1.81818E+00
 -1     16552 4.34847E+01 3.15935E+01 1.81818E+00
 -1     16557 4.44959E+01 3.23282E+01 2.27273E+00
 -1     16558 4.67506E+01 2.86488E+01 2.72727E+00
 -1     16559 4.34847E+01 3.15935E+01 2.72727E+00
 -1     16564 4.44959E+01 3.23282E+01 3.18182E+00
 -1     16565 4.67506E+01 2.86488E+01 3.63636E+00
 -1     16566 4.34847E+01 3.15935E+01 3.63636E+00
 -1     16571 4.44959E+01 3.23282E+01 4.09091E+00
 -1     16572 4.67506E+01 2.86488E+01 4.54545E+00
 -1     16573 4.34847E+01 3.15935E+01 4.54545E+00
 -1     16578 4.44959E+01 3.23282E+01 5.00000E+00
 -1     16579 4.67506E+01 2.86488E+01 5.45455E+00
 -1     16580 4.34847E+01 3.15935E+01 5.45455E+00
 -1     16585 4.44959E+01 3.23282E+01 5.90909E+00
 -1     16586 4.67506E+01 2.86488E+01 6.36364E+00
 -1     16587 4.34847E+01 3.15935E+01 6.36364E+00
 -1     16592 4.44959E+01 3.23282E+01 6.81818E+00
 -1     16593 4.67506E+01 2.86488E+01 7.27273E+00
 -1     16594 4.34847E+01 3.15935E+01 7.27273E+00
 -1     16599 4.44959E+01 3.23282E+01 7.72727E+00
 -1     16600 4.67506E+01 2.86488E+01 8.18182E+00
 -1     16601 4.34847E+01 3.15935E+01 8.18182E+00
 -1     16606 4.44959E+01 3.23282E+01 8.63636E+00
 -1     16607 4.67506E+01 2.86488E+01 9.09091E+00
 -1     16608 4.34847E+01 3.15935E+01 9.09091E+00
 -1     16613 4.44959E+01 3.23282E+01 9.54545E+00
 -1     16617 3.88909E+01 3.88909E+01 4.54545E-01
 -1     16618 4.16934E+01 3.56095E+01 9.09091E-01
 -1     16619 3.80070E+01 3.80070E+01 9.09091E-01
 -1     16624 3.88909E+01 3.88909E+01 1.36364E+00
 -1     16625 4.16934E+01 3.56095E+01 1.81818E+00
 -1     16626 3.80070E+01 3.80070E+01 1.81818E+00
 -1     16631 3.88909E+01 3.88909E+01 2.27273E+00
 -1     16632 4.16934E+01 3.56095E+01 2.72727E+00
 -1     16633 3.80070E+01 3.80070E+01 2.72727E+00
 -1     16638 3.88909E+01 3.88909E+01 3.18182E+00
 -1     16639 4.16934E+01 3.56095E+01 3.63636E+00
 -1     16640 3.80070E+01 3.80070E+01 3.63636E+00
 -1     16645 3.88909E+01 3.88909E+01 4.09091E+00
 -1     16646 4.16934E+01 3.56095E+01 4.54545E+00
 -1     16647 3.80070E+01 3.80070E+01 4.54545E+00
 -1     16652 3.88909E+01 3.88909E+01 5.00000E+00
 -1     16653 4.16934E+01 3.56095E+01 5.45455E+00
 -1     16654 3.80070E+01 3.80070E+01 5.45455E+00
 -1     16659 3.88909E+01 3.88909E+01 5.90909E+00
 -1     16660 4.16934E+01 3.56095E+01 6.36364E+00
 -1     16661 3.80070E+01 3.80070E+01 6.36364E+00
 -1     16666 3.88909E+01 3.88909E+01 6.81818E+00
 -1     16667 4.16934E+01 3.56095E+01 7.27273E+00
 -1     16668 3.80070E+01 3.80070E+01 7.27273E+00
 -1     16673 3.88909E+01 3.88909E+01 7.72727E+00
 -1     16674 4.16934E+01 3.56095E+01 8.18182E+00
 -1     16675 3.80070E+01 3.80070E+01 8.18182E+00
 -1     16680 3.88909E+01 3.88909E+01 8.63636E+00
 -1     16681 4.16934E+01 3.56095E+01 9.09091E+00
 -1     16682 3.80070E+01 3.80070E+01 9.09091E+00
 -1     16687 3.88909E+01 3.88909E+01 9.54545E+00
 -1     16691 3.23282E+01 4.44959E+01 4.54545E-01
 -1     16692 3.56095E+01 4.16934E+01 9.09091E-01
 -1     16693 3.15935E+01 4.34847E+01 9.09091E-01
 -1     16698 3.23282E+01 4.44959E+01 1.36364E+00
 -1     16699 3.56095E+01 4.16934E+01 1.81818E+00
 -1     16700 3.15935E+01 4.34847E+01 1.81818E+00
 -1     16705 3.23282E+01 4.44959E+01 2.27273E+00
 -1     16706 3.56095E+01 4.16934E+01 2.72727E+00
 -1     16707 3.15935E+01 4.34847E+01 2.72727E+00
 -1     16712 3.23282E+01 4.44959E+01 3.18182E+00
 -1     16713 3.56095E+01 4.16934E+01 3.63636E+00
 -1     16714 3.15935E+01 4.34847E+01 3.63636E+00
 -1     16719 3.23282E+01 4.44959E+01 4.09091E+00
 -1     16720 3.56095E+01 4.16934E+01 4.54545E+00
 -1     16721 3.15935E+01 4.34847E+01 4.54545E+00
 -1     16726 3.23282E+01 4.44959E+01 5.00000E+00
 -1     16727 3.56095E+01 4.16934E+01 5.45455E+00
 -1     16728 3.15935E+01 4.34847E+01 5.45455E+00
 -1     16733 3.23282E+01 4.44959E+01 5.90909E+00
 -1     16734 3.56095E+01 4.16934E+01 6.36364E+00
 -1     16735 3.15935E+01 4.34847E+01 6.36364E+00
 -1     16740 3.23282E+01 4.44959E+01 6.81818E+00
 -1     16741 3.56095E+01 4.16934E+01 7.27273E+00
 -1     16742 3.15935E+01 4.34847E+01 7.27273E+00
 -1     16747 3.23282E+01 4.44959E+01 7.72727E+00
 -1     16748 3.56095E+01 4.16934E+01 8.18182E+00
 -1     16749 3.15935E+01 4.34847E+01 8.18182E+00
 -1     16754 3.23282E+01 4.44959E+01 8.63636E+00
 -1     16755 3.56095E+01 4.16934E+01 9.09091E+00
 -1     16756 3.15935E+01 4.34847E+01 9.09091E+00
 -1     16761 3.23282E+01 4.44959E+01 9.54545E+00
 -1     16765 2.49695E+01 4.90054E+01 4.54545E-01
 -1     16766 2.86488E+01 4.67506E+01 9.09091E-01
 -1     16767 2.44020E+01 4.78916E+01 9.09091E-01
 -1     16772 2.49695E+01 4.90054E+01 1.36364E+00
 -1     16773 2.86488E+01 4.67506E+01 1.81818E+00
 -1     16774 2.44020E+01 4.78916E+01 1.81818E+00
 -1     16779 2.49695E+01 4.90054E+01 2.27273E+00
 -1     16780 2.86488E+01 4.67506E+01 2.72727E+00
 -1     16781 2.44020E+01 4.78916E+01 2.72727E+00
 -1     16786 2.49695E+01 4.90054E+01 3.18182E+00
 -1     16787 2.86488E+01 4.67506E+01 3.63636E+00
 -1     16788 2.44020E+01 4.78916E+01 3.63636E+00
 -1     16793 2.49695E+01 4.90054E+01 4.09091E+00
 -1     16794 2.86488E+01 4.67506E+01 4.54545E+00
 -1     16795 2.44020E+01 4.78916E+01 4.54545E+00
 -1     16800 2.49695E+01 4.90054E+01 5.00000E+00
 -1     16801 2.86488E+01 4.67506E+01 5.45455E+00
 -1     16802 2.44020E+01 4.78916E+01 5.45455E+00
 -1     16807 2.49695E+01 4.90054E+01 5.90909E+00
 -1     16808 2.86488E+01 4.67506E+01 6.36364E+00
 -1     16809 2.44020E+01 4.78916E+01 6.36364E+00
 -1     16814 2.49695E+01 4.90054E+01 6.81818E+00
 -1     16815 2.86488E+01 4.67506E+01 7.27273E+00
 -1     16816 2.44020E+01 4.78916E+01 7.27273E+00
 -1     16821 2.49695E+01 4.90054E+01 7.72727E+00
 -1     16822 2.86488E+01 4.67506E+01 8.18182E+00
 -1     16823 2.44020E+01 4.78916E+01 8.18182E+00
 -1     16828 2.49695E+01 4.90054E+01 8.63636E+00
 -1     16829 2.86488E+01 4.67506E+01 9.09091E+00
 -1     16830 2.44020E+01 4.78916E+01 9.09091E+00
 -1     16835 2.49695E+01 4.90054E+01 9.54545E+00
 -1     16839 1.69959E+01 5.23081E+01 4.54545E-01
 -1     16840 2.09827E+01 5.06567E+01 9.09091E-01
 -1     16841 1.66097E+01 5.11193E+01 9.09091E-01
 -1     16846 1.69959E+01 5.23081E+01 1.36364E+00
 -1     16847 2.09827E+01 5.06567E+01 1.81818E+00
 -1     16848 1.66097E+01 5.11193E+01 1.81818E+00
 -1     16853 1.69959E+01 5.23081E+01 2.27273E+00
 -1     16854 2.09827E+01 5.06567E+01 2.72727E+00
 -1     16855 1.66097E+01 5.11193E+01 2.72727E+00
 -1     16860 1.69959E+01 5.23081E+01 3.18182E+00
 -1     16861 2.09827E+01 5.06567E+01 3.63636E+00
 -1     16862 1.66097E+01 5.11193E+01 3.63636E+00
 -1     16867 1.69959E+01 5.23081E+01 4.09091E+00
 -1     16868 2.09827E+01 5.06567E+01 4.54545E+00
 -1     16869 1.66097E+01 5.11193E+01 4.54545E+00
 -1     16874 1.69959E+01 5.23081E+01 5.00000E+00
 -1     16875 2.09827E+01 5.06567E+01 5.45455E+00
 -1     16876 1.66097E+01 5.11193E+01 5.45455E+00
 -1     16881 1.69959E+01 5.23081E+01 5.90909E+00
 -1     16882 2.09827E+01 5.06567E+01 6.36364E+00
 -1     16883 1.66097E+01 5.11193E+01 6.36364E+00
 -1     16888 1.69959E+01 5.23081E+01 6.81818E+00
 -1     16889 2.09827E+01 5.06567E+01 7.27273E+00
 -1     16890 1.66097E+01 5.11193E+01 7.27273E+00
 -1     16895 1.69959E+01 5.23081E+01 7.72727E+00
 -1     16896 2.09827E+01 5.06567E+01 8.18182E+00
 -1     16897 1.66097E+01 5.11193E+01 8.18182E+00
 -1     16902 1.69959E+01 5.23081E+01 8.63636E+00
 -1     16903 2.09827E+01 5.06567E+01 9.09091E+00
 -1     16904 1.66097E+01 5.11193E+01 9.09091E+00
 -1     16909 1.69959E+01 5.23081E+01 9.54545E+00
 -1     16913 8.60390E+00 5.43229E+01 4.54545E-01
 -1     16914 1.27999E+01 5.33155E+01 9.09091E-01
 -1     16915 8.40835E+00 5.30882E+01 9.09091E-01
 -1     16920 8.60390E+00 5.43229E+01 1.36364E+00
 -1     16921 1.27999E+01 5.33155E+01 1.81818E+00
 -1     16922 8.40835E+00 5.30882E+01 1.81818E+00
 -1     16927 8.60390E+00 5.43229E+01 2.27273E+00
 -1     16928 1.27999E+01 5.33155E+01 2.72727E+00
 -1     16929 8.40835E+00 5.30882E+01 2.72727E+00
 -1     16934 8.60390E+00 5.43229E+01 3.18182E+00
 -1     16935 1.27999E+01 5.33155E+01 3.63636E+00
 -1     16936 8.40835E+00 5.30882E+01 3.63636E+00
 -1     16941 8.60390E+00 5.43229E+01 4.09091E+00
 -1     16942 1.27999E+01 5.33155E+01 4.54545E+00
 -1     16943 8.40835E+00 5.30882E+01 4.54545E+00
 -1     16948 8.60390E+00 5.43229E+01 5.00000E+00
 -1     16949 1.27999E+01 5.33155E+01 5.45455E+00
 -1     16950 8.40835E+00 5.30882E+01 5.45455E+00
 -1     16955 8.60390E+00 5.43229E+01 5.90909E+00
 -1     16956 1.27999E+01 5.33155E+01 6.36364E+00
 -1     16957 8.40835E+00 5.30882E+01 6.36364E+00
 -1     16962 8.60390E+00 5.43229E+01 6.81818E+00
 -1     16963 1.27999E+01 5.33155E+01 7.27273E+00
 -1     16964 8.40835E+00 5.30882E+01 7.27273E+00
 -1     16969 8.60390E+00 5.43229E+01 7.72727E+00
 -1     16970 1.27999E+01 5.33155E+01 8.18182E+00
 -1     16971 8.40835E+00 5.30882E+01 8.18182E+00
 -1     16976 8.60390E+00 5.43229E+01 8.63636E+00
 -1     16977 1.27999E+01 5.33155E+01 9.09091E+00
 -1     16978 8.40835E+00 5.30882E+01 9.09091E+00
 -1     16983 8.60390E+00 5.43229E+01 9.54545E+00
 -1     16987 4.30195E+00 5.46614E+01 9.09091E-01
 -1     16991 4.30195E+00 5.46614E+01 1.81818E+00
 -1     16995 4.30195E+00 5.46614E+01 2.72727E+00
 -1     16999 4.30195E+00 5.46614E+01 3.63636E+00
 -1     17003 4.30195E+00 5.46614E+01 4.54545E+00
 -1     17007 4.30195E+00 5.46614E+01 5.45455E+00
 -1     17011 4.30195E+00 5.46614E+01 6.36364E+00
 -1     17015 4.30195E+00 5.46614E+01 7.27273E+00
 -1     17019 4.30195E+00 5.46614E+01 8.18182E+00
 -1     17023 4.30195E+00 5.46614E+01 9.09091E+00
 -1     17029 5.67921E+01 8.99498E+00 4.54545E-01
 -1     17030 5.71460E+01 4.49749E+00 9.09091E-01
 -1     17031 5.55575E+01 8.79944E+00 9.09091E-01
 -1     17036 5.67921E+01 8.99498E+00 1.36364E+00
 -1     17037 5.71460E+01 4.49749E+00 1.81818E+00
 -1     17038 5.55575E+01 8.79944E+00 1.81818E+00
 -1     17043 5.67921E+01 8.99498E+00 2.27273E+00
 -1     17044 5.71460E+01 4.49749E+00 2.72727E+00
 -1     17045 5.55575E+01 8.79944E+00 2.72727E+00
 -1     17050 5.67921E+01 8.99498E+00 3.18182E+00
 -1     17051 5.71460E+01 4.49749E+00 3.63636E+00
 -1     17052 5.55575E+01 8.79944E+00 3.63636E+00
 -1     17057 5.67921E+01 8.99498E+00 4.09091E+00
 -1     17058 5.71460E+01 4.49749E+00 4.54545E+00
 -1     17059 5.55575E+01 8.79944E+00 4.54545E+00
 -1     17064 5.67921E+01 8.99498E+00 5.00000E+00
 -1     17065 5.71460E+01 4.49749E+00 5.45455E+00
 -1     17066 5.55575E+01 8.79944E+00 5.45455E+00
 -1     17071 5.67921E+01 8.99498E+00 5.90909E+00
 -1     17072 5.71460E+01 4.49749E+00 6.36364E+00
 -1     17073 5.55575E+01 8.79944E+00 6.36364E+00
 -1     17078 5.67921E+01 8.99498E+00 6.81818E+00
 -1     17079 5.71460E+01 4.49749E+00 7.27273E+00
 -1     17080 5.55575E+01 8.79944E+00 7.27273E+00
 -1     17085 5.67921E+01 8.99498E+00 7.72727E+00
 -1     17086 5.71460E+01 4.49749E+00 8.18182E+00
 -1     17087 5.55575E+01 8.79944E+00 8.18182E+00
 -1     17092 5.67921E+01 8.99498E+00 8.63636E+00
 -1     17093 5.71460E+01 4.49749E+00 9.09091E+00
 -1     17094 5.55575E+01 8.79944E+00 9.09091E+00
 -1     17099 5.67921E+01 8.99498E+00 9.54545E+00
 -1     17103 5.46857E+01 1.77685E+01 4.54545E-01
 -1     17104 5.57389E+01 1.33817E+01 9.09091E-01
 -1     17105 5.34969E+01 1.73822E+01 9.09091E-01
 -1     17110 5.46857E+01 1.77685E+01 1.36364E+00
 -1     17111 5.57389E+01 1.33817E+01 1.81818E+00
 -1     17112 5.34969E+01 1.73822E+01 1.81818E+00
 -1     17117 5.46857E+01 1.77685E+01 2.27273E+00
 -1     17118 5.57389E+01 1.33817E+01 2.72727E+00
 -1     17119 5.34969E+01 1.73822E+01 2.72727E+00
 -1     17124 5.46857E+01 1.77685E+01 3.18182E+00
 -1     17125 5.57389E+01 1.33817E+01 3.63636E+00
 -1     17126 5.34969E+01 1.73822E+01 3.63636E+00
 -1     17131 5.46857E+01 1.77685E+01 4.09091E+00
 -1     17132 5.57389E+01 1.33817E+01 4.54545E+00
 -1     17133 5.34969E+01 1.73822E+01 4.54545E+00
 -1     17138 5.46857E+01 1.77685E+01 5.00000E+00
 -1     17139 5.57389E+01 1.33817E+01 5.45455E+00
 -1     17140 5.34969E+01 1.73822E+01 5.45455E+00
 -1     17145 5.46857E+01 1.77685E+01 5.90909E+00
 -1     17146 5.57389E+01 1.33817E+01 6.36364E+00
 -1     17147 5.34969E+01 1.73822E+01 6.36364E+00
 -1     17152 5.46857E+01 1.77685E+01 6.81818E+00
 -1     17153 5.57389E+01 1.33817E+01 7.27273E+00
 -1     17154 5.34969E+01 1.73822E+01 7.27273E+00
 -1     17159 5.46857E+01 1.77685E+01 7.72727E+00
 -1     17160 5.57389E+01 1.33817E+01 8.18182E+00
 -1     17161 5.34969E+01 1.73822E+01 8.18182E+00
 -1     17166 5.46857E+01 1.77685E+01 8.63636E+00
 -1     17167 5.57389E+01 1.33817E+01 9.09091E+00
 -1     17168 5.34969E+01 1.73822E+01 9.09091E+00
 -1     17173 5.46857E+01 1.77685E+01 9.54545E+00
 -1     17177 5.12329E+01 2.61045E+01 4.54545E-01
 -1     17178 5.29593E+01 2.19365E+01 9.09091E-01
 -1     17179 5.01191E+01 2.55370E+01 9.09091E-01
 -1     17184 5.12329E+01 2.61045E+01 1.36364E+00
 -1     17185 5.29593E+01 2.19365E+01 1.81818E+00
 -1     17186 5.01191E+01 2.55370E+01 1.81818E+00
 -1     17191 5.12329E+01 2.61045E+01 2.27273E+00
 -1     17192 5.29593E+01 2.19365E+01 2.72727E+00
 -1     17193 5.01191E+01 2.55370E+01 2.72727E+00
 -1     17198 5.12329E+01 2.61045E+01 3.18182E+00
 -1     17199 5.29593E+01 2.19365E+01 3.63636E+00
 -1     17200 5.01191E+01 2.55370E+01 3.63636E+00
 -1     17205 5.12329E+01 2.61045E+01 4.09091E+00
 -1     17206 5.29593E+01 2.19365E+01 4.54545E+00
 -1     17207 5.01191E+01 2.55370E+01 4.54545E+00
 -1     17212 5.12329E+01 2.61045E+01 5.00000E+00
 -1     17213 5.29593E+01 2.19365E+01 5.45455E+00
 -1     17214 5.01191E+01 2.55370E+01 5.45455E+00
 -1     17219 5.12329E+01 2.61045E+01 5.90909E+00
 -1     17220 5.29593E+01 2.19365E+01 6.36364E+00
 -1     17221 5.01191E+01 2.55370E+01 6.36364E+00
 -1     17226 5.12329E+01 2.61045E+01 6.81818E+00
 -1     17227 5.29593E+01 2.19365E+01 7.27273E+00
 -1     17228 5.01191E+01 2.55370E+01 7.27273E+00
 -1     17233 5.12329E+01 2.61045E+01 7.72727E+00
 -1     17234 5.29593E+01 2.19365E+01 8.18182E+00
 -1     17235 5.01191E+01 2.55370E+01 8.18182E+00
 -1     17240 5.12329E+01 2.61045E+01 8.63636E+00
 -1     17241 5.29593E+01 2.19365E+01 9.09091E+00
 -1     17242 5.01191E+01 2.55370E+01 9.09091E+00
 -1     17247 5.12329E+01 2.61045E+01 9.54545E+00
 -1     17251 4.65185E+01 3.37977E+01 4.54545E-01
 -1     17252 4.88757E+01 2.99511E+01 9.09091E-01
 -1     17253 4.55072E+01 3.30629E+01 9.09091E-01
 -1     17258 4.65185E+01 3.37977E+01 1.36364E+00
 -1     17259 4.88757E+01 2.99511E+01 1.81818E+00
 -1     17260 4.55072E+01 3.30629E+01 1.81818E+00
 -1     17265 4.65185E+01 3.37977E+01 2.27273E+00
 -1     17266 4.88757E+01 2.99511E+01 2.72727E+00
 -1     17267 4.55072E+01 3.30629E+01 2.72727E+00
 -1     17272 4.65185E+01 3.37977E+01 3.18182E+00
 -1     17273 4.88757E+01 2.99511E+01 3.63636E+00
 -1     17274 4.55072E+01 3.30629E+01 3.63636E+00
 -1     17279 4.65185E+01 3.37977E+01 4.09091E+00
 -1     17280 4.88757E+01 2.99511E+01 4.54545E+00
 -1     17281 4.55072E+01 3.30629E+01 4.54545E+00
 -1     17286 4.65185E+01 3.37977E+01 5.00000E+00
 -1     17287 4.88757E+01 2.99511E+01 5.45455E+00
 -1     17288 4.55072E+01 3.30629E+01 5.45455E+00
 -1     17293 4.65185E+01 3.37977E+01 5.90909E+00
 -1     17294 4.88757E+01 2.99511E+01 6.36364E+00
 -1     17295 4.55072E+01 3.30629E+01 6.36364E+00
 -1     17300 4.65185E+01 3.37977E+01 6.81818E+00
 -1     17301 4.88757E+01 2.99511E+01 7.27273E+00
 -1     17302 4.55072E+01 3.30629E+01 7.27273E+00
 -1     17307 4.65185E+01 3.37977E+01 7.72727E+00
 -1     17308 4.88757E+01 2.99511E+01 8.18182E+00
 -1     17309 4.55072E+01 3.30629E+01 8.18182E+00
 -1     17314 4.65185E+01 3.37977E+01 8.63636E+00
 -1     17315 4.88757E+01 2.99511E+01 9.09091E+00
 -1     17316 4.55072E+01 3.30629E+01 9.09091E+00
 -1     17321 4.65185E+01 3.37977E+01 9.54545E+00
 -1     17325 4.06586E+01 4.06586E+01 4.54545E-01
 -1     17326 4.35886E+01 3.72281E+01 9.09091E-01
 -1     17327 3.97748E+01 3.97748E+01 9.09091E-01
 -1     17332 4.06586E+01 4.06586E+01 1.36364E+00
 -1     17333 4.35886E+01 3.72281E+01 1.81818E+00
 -1     17334 3.97748E+01 3.97748E+01 1.81818E+00
 -1     17339 4.06586E+01 4.06586E+01 2.27273E+00
 -1     17340 4.35886E+01 3.72281E+01 2.72727E+00
 -1     17341 3.97748E+01 3.97748E+01 2.72727E+00
 -1     17346 4.06586E+01 4.06586E+01 3.18182E+00
 -1     17347 4.35886E+01 3.72281E+01 3.63636E+00
 -1     17348 3.97748E+01 3.97748E+01 3.63636E+00
 -1     17353 4.06586E+01 4.06586E+01 4.09091E+00
 -1     17354 4.35886E+01 3.72281E+01 4.54545E+00
 -1     17355 3.97748E+01 3.97748E+01 4.54545E+00
 -1     17360 4.06586E+01 4.06586E+01 5.00000E+00
 -1     17361 4.35886E+01 3.72281E+01 5.45455E+00
 -1     17362 3.97748E+01 3.97748E+01 5.45455E+00
 -1     17367 4.06586E+01 4.06586E+01 5.90909E+00
 -1     17368 4.35886E+01 3.72281E+01 6.36364E+00
 -1     17369 3.97748E+01 3.97748E+01 6.36364E+00
 -1     17374 4.06586E+01 4.06586E+01 6.81818E+00
 -1     17375 4.35886E+01 3.72281E+01 7.27273E+00
 -1     17376 3.97748E+01 3.97748E+01 7.27273E+00
 -1     17381 4.06586E+01 4.06586E+01 7.72727E+00
 -1     17382 4.35886E+01 3.72281E+01 8.18182E+00
 -1     17383 3.97748E+01 3.97748E+01 8.18182E+00
 -1     17388 4.06586E+01 4.06586E+01 8.63636E+00
 -1     17389 4.35886E+01 3.72281E+01 9.09091E+00
 -1     17390 3.97748E+01 3.97748E+01 9.09091E+00
 -1     17395 4.06586E+01 4.06586E+01 9.54545E+00
 -1     17399 3.37977E+01 4.65185E+01 4.54545E-01
 -1     17400 3.72281E+01 4.35886E+01 9.09091E-01
 -1     17401 3.30629E+01 4.55072E+01 9.09091E-01
 -1     17406 3.37977E+01 4.65185E+01 1.36364E+00
 -1     17407 3.72281E+01 4.35886E+01 1.81818E+00
 -1     17408 3.30629E+01 4.55072E+01 1.81818E+00
 -1     17413 3.37977E+01 4.65185E+01 2.27273E+00
 -1     17414 3.72281E+01 4.35886E+01 2.72727E+00
 -1     17415 3.30629E+01 4.55072E+01 2.72727E+00
 -1     17420 3.37977E+01 4.65185E+01 3.18182E+00
 -1     17421 3.72281E+01 4.35886E+01 3.63636E+00
 -1     17422 3.30629E+01 4.55072E+01 3.63636E+00
 -1     17427 3.37977E+01 4.65185E+01 4.09091E+00
 -1     17428 3.72281E+01 4.35886E+01 4.54545E+00
 -1     17429 3.30629E+01 4.55072E+01 4.54545E+00
 -1     17434 3.37977E+01 4.65185E+01 5.00000E+00
 -1     17435 3.72281E+01 4.35886E+01 5.45455E+00
 -1     17436 3.30629E+01 4.55072E+01 5.45455E+00
 -1     17441 3.37977E+01 4.65185E+01 5.90909E+00
 -1     17442 3.72281E+01 4.35886E+01 6.36364E+00
 -1     17443 3.30629E+01 4.55072E+01 6.36364E+00
 -1     17448 3.37977E+01 4.65185E+01 6.81818E+00
 -1     17449 3.72281E+01 4.35886E+01 7.27273E+00
 -1     17450 3.30629E+01 4.55072E+01 7.27273E+00
 -1     17455 3.37977E+01 4.65185E+01 7.72727E+00
 -1     17456 3.72281E+01 4.35886E+01 8.18182E+00
 -1     17457 3.30629E+01 4.55072E+01 8.18182E+00
 -1     17462 3.37977E+01 4.65185E+01 8.63636E+00
 -1     17463 3.72281E+01 4.35886E+01 9.09091E+00
 -1     17464 3.30629E+01 4.55072E+01 9.09091E+00
 -1     17469 3.37977E+01 4.65185E+01 9.54545E+00
 -1     17473 2.61045E+01 5.12329E+01 4.54545E-01
 -1     17474 2.99511E+01 4.88757E+01 9.09091E-01
 -1     17475 2.55370E+01 5.01191E+01 9.09091E-01
 -1     17480 2.61045E+01 5.12329E+01 1.36364E+00
 -1     17481 2.99511E+01 4.88757E+01 1.81818E+00
 -1     17482 2.55370E+01 5.01191E+01 1.81818E+00
 -1     17487 2.61045E+01 5.12329E+01 2.27273E+00
 -1     17488 2.99511E+01 4.88757E+01 2.72727E+00
 -1     17489 2.55370E+01 5.01191E+01 2.72727E+00
 -1     17494 2.61045E+01 5.12329E+01 3.18182E+00
 -1     17495 2.99511E+01 4.88757E+01 3.63636E+00
 -1     17496 2.55370E+01 5.01191E+01 3.63636E+00
 -1     17501 2.61045E+01 5.12329E+01 4.09091E+00
 -1     17502 2.99511E+01 4.88757E+01 4.54545E+00
 -1     17503 2.55370E+01 5.01191E+01 4.54545E+00
 -1     17508 2.61045E+01 5.12329E+01 5.00000E+00
 -1     17509 2.99511E+01 4.88757E+01 5.45455E+00
 -1     17510 2.55370E+01 5.01191E+01 5.45455E+00
 -1     17515 2.61045E+01 5.12329E+01 5.90909E+00
 -1     17516 2.99511E+01 4.88757E+01 6.36364E+00
 -1     17517 2.55370E+01 5.01191E+01 6.36364E+00
 -1     17522 2.61045E+01 5.12329E+01 6.81818E+00
 -1     17523 2.99511E+01 4.88757E+01 7.27273E+00
 -1     17524 2.55370E+01 5.01191E+01 7.27273E+00
 -1     17529 2.61045E+01 5.12329E+01 7.72727E+00
 -1     17530 2.99511E+01 4.88757E+01 8.18182E+00
 -1     17531 2.55370E+01 5.01191E+01 8.18182E+00
 -1     17536 2.61045E+01 5.12329E+01 8.63636E+00
 -1     17537 2.99511E+01 4.88757E+01 9.09091E+00
 -1     17538 2.55370E+01 5.01191E+01 9.09091E+00
 -1     17543 2.61045E+01 5.12329E+01 9.54545E+00
 -1     17547 1.77685E+01 5.46857E+01 4.54545E-01
 -1     17548 2.19365E+01 5.29593E+01 9.09091E-01
 -1     17549 1.73822E+01 5.34969E+01 9.09091E-01
 -1     17554 1.77685E+01 5.46857E+01 1.36364E+00
 -1     17555 2.19365E+01 5.29593E+01 1.81818E+00
 -1     17556 1.73822E+01 5.34969E+01 1.81818E+00
 -1     17561 1.77685E+01 5.46857E+01 2.27273E+00
 -1     17562 2.19365E+01 5.29593E+01 2.72727E+00
 -1     17563 1.73822E+01 5.34969E+01 2.72727E+00
 -1     17568 1.77685E+01 5.46857E+01 3.18182E+00
 -1     17569 2.19365E+01 5.29593E+01 3.63636E+00
 -1     17570 1.73822E+01 5.34969E+01 3.63636E+00
 -1     17575 1.77685E+01 5.46857E+01 4.09091E+00
 -1     17576 2.19365E+01 5.29593E+01 4.54545E+00
 -1     17577 1.73822E+01 5.34969E+01 4.54545E+00
 -1     17582 1.77685E+01 5.46857E+01 5.00000E+00
 -1     17583 2.19365E+01 5.29593E+01 5.45455E+00
 -1     17584 1.73822E+01 5.34969E+01 5.45455E+00
 -1     17589 1.77685E+01 5.46857E+01 5.90909E+00
 -1     17590 2.19365E+01 5.29593E+01 6.36364E+00
 -1     17591 1.73822E+01 5.34969E+01 6.36364E+00
 -1     17596 1.77685E+01 5.46857E+01 6.81818E+00
 -1     17597 2.19365E+01 5.29593E+01 7.27273E+00
 -1     17598 1.73822E+01 5.34969E+01 7.27273E+00
 -1     17603 1.77685E+01 5.46857E+01 7.72727E+00
 -1     17604 2.19365E+01 5.29593E+01 8.18182E+00
 -1     17605 1.73822E+01 5.34969E+01 8.18182E+00
 -1     17610 1.77685E+01 5.46857E+01 8.63636E+00
 -1     17611 2.19365E+01 5.29593E+01 9.09091E+00
 -1     17612 1.73822E+01 5.34969E+01 9.09091E+00
 -1     17617 1.77685E+01 5.46857E+01 9.54545E+00
 -1     17621 8.99498E+00 5.67921E+01 4.54545E-01
 -1     17622 1.33817E+01 5.57389E+01 9.09091E-01
 -1     17623 8.79944E+00 5.55575E+01 9.09091E-01
 -1     17628 8.99498E+00 5.67921E+01 1.36364E+00
 -1     17629 1.33817E+01 5.57389E+01 1.81818E+00
 -1     17630 8.79944E+00 5.55575E+01 1.81818E+00
 -1     17635 8.99498E+00 5.67921E+01 2.27273E+00
 -1     17636 1.33817E+01 5.57389E+01 2.72727E+00
 -1     17637 8.79944E+00 5.55575E+01 2.72727E+00
 -1     17642 8.99498E+00 5.67921E+01 3.18182E+00
 -1     17643 1.33817E+01 5.57389E+01 3.63636E+00
 -1     17644 8.79944E+00 5.55575E+01 3.63636E+00
 -1     17649 8.99498E+00 5.67921E+01 4.09091E+00
 -1     17650 1.33817E+01 5.57389E+01 4.54545E+00
 -1     17651 8.79944E+00 5.55575E+01 4.54545E+00
 -1     17656 8.99498E+00 5.67921E+01 5.00000E+00
 -1     17657 1.33817E+01 5.57389E+01 5.45455E+00
 -1     17658 8.79944E+00 5.55575E+01 5.45455E+00
 -1     17663 8.99498E+00 5.67921E+01 5.90909E+00
 -1     17664 1.33817E+01 5.57389E+01 6.36364E+00
 -1     17665 8.79944E+00 5.55575E+01 6.36364E+00
 -1     17670 8.99498E+00 5.67921E+01 6.81818E+00
 -1     17671 1.33817E+01 5.57389E+01 7.27273E+00
 -1     17672 8.79944E+00 5.55575E+01 7.27273E+00
 -1     17677 8.99498E+00 5.67921E+01 7.72727E+00
 -1     17678 1.33817E+01 5.57389E+01 8.18182E+00
 -1     17679 8.79944E+00 5.55575E+01 8.18182E+00
 -1     17684 8.99498E+00 5.67921E+01 8.63636E+00
 -1     17685 1.33817E+01 5.57389E+01 9.09091E+00
 -1     17686 8.79944E+00 5.55575E+01 9.09091E+00
 -1     17691 8.99498E+00 5.67921E+01 9.54545E+00
 -1     17695 4.49749E+00 5.71460E+01 9.09091E-01
 -1     17699 4.49749E+00 5.71460E+01 1.81818E+00
 -1     17703 4.49749E+00 5.71460E+01 2.72727E+00
 -1     17707 4.49749E+00 5.71460E+01 3.63636E+00
 -1     17711 4.49749E+00 5.71460E+01 4.54545E+00
 -1     17715 4.49749E+00 5.71460E+01 5.45455E+00
 -1     17719 4.49749E+00 5.71460E+01 6.36364E+00
 -1     17723 4.49749E+00 5.71460E+01 7.27273E+00
 -1     17727 4.49749E+00 5.71460E+01 8.18182E+00
 -1     17731 4.49749E+00 5.71460E+01 9.09091E+00
 -1     17737 5.92613E+01 9.38607E+00 4.54545E-01
 -1     17738 5.96306E+01 4.69303E+00 9.09091E-01
 -1     17739 5.80267E+01 9.19053E+00 9.09091E-01
 -1     17744 5.92613E+01 9.38607E+00 1.36364E+00
 -1     17745 5.96306E+01 4.69303E+00 1.81818E+00
 -1     17746 5.80267E+01 9.19053E+00 1.81818E+00
 -1     17751 5.92613E+01 9.38607E+00 2.27273E+00
 -1     17752 5.96306E+01 4.69303E+00 2.72727E+00
 -1     17753 5.80267E+01 9.19053E+00 2.72727E+00
 -1     17758 5.92613E+01 9.38607E+00 3.18182E+00
 -1     17759 5.96306E+01 4.69303E+00 3.63636E+00
 -1     17760 5.80267E+01 9.19053E+00 3.63636E+00
 -1     17765 5.92613E+01 9.38607E+00 4.09091E+00
 -1     17766 5.96306E+01 4.69303E+00 4.54545E+00
 -1     17767 5.80267E+01 9.19053E+00 4.54545E+00
 -1     17772 5.92613E+01 9.38607E+00 5.00000E+00
 -1     17773 5.96306E+01 4.69303E+00 5.45455E+00
 -1     17774 5.80267E+01 9.19053E+00 5.45455E+00
 -1     17779 5.92613E+01 9.38607E+00 5.90909E+00
 -1     17780 5.96306E+01 4.69303E+00 6.36364E+00
 -1     17781 5.80267E+01 9.19053E+00 6.36364E+00
 -1     17786 5.92613E+01 9.38607E+00 6.81818E+00
 -1     17787 5.96306E+01 4.69303E+00 7.27273E+00
 -1     17788 5.80267E+01 9.19053E+00 7.27273E+00
 -1     17793 5.92613E+01 9.38607E+00 7.72727E+00
 -1     17794 5.96306E+01 4.69303E+00 8.18182E+00
 -1     17795 5.80267E+01 9.19053E+00 8.18182E+00
 -1     17800 5.92613E+01 9.38607E+00 8.63636E+00
 -1     17801 5.96306E+01 4.69303E+00 9.09091E+00
 -1     17802 5.80267E+01 9.19053E+00 9.09091E+00
 -1     17807 5.92613E+01 9.38607E+00 9.54545E+00
 -1     17811 5.70634E+01 1.85410E+01 4.54545E-01
 -1     17812 5.81623E+01 1.39635E+01 9.09091E-01
 -1     17813 5.58746E+01 1.81547E+01 9.09091E-01
 -1     17818 5.70634E+01 1.85410E+01 1.36364E+00
 -1     17819 5.81623E+01 1.39635E+01 1.81818E+00
 -1     17820 5.58746E+01 1.81547E+01 1.81818E+00
 -1     17825 5.70634E+01 1.85410E+01 2.27273E+00
 -1     17826 5.81623E+01 1.39635E+01 2.72727E+00
 -1     17827 5.58746E+01 1.81547E+01 2.72727E+00
 -1     17832 5.70634E+01 1.85410E+01 3.18182E+00
 -1     17833 5.81623E+01 1.39635E+01 3.63636E+00
 -1     17834 5.58746E+01 1.81547E+01 3.63636E+00
 -1     17839 5.70634E+01 1.85410E+01 4.09091E+00
 -1     17840 5.81623E+01 1.39635E+01 4.54545E+00
 -1     17841 5.58746E+01 1.81547E+01 4.54545E+00
 -1     17846 5.70634E+01 1.85410E+01 5.00000E+00
 -1     17847 5.81623E+01 1.39635E+01 5.45455E+00
 -1     17848 5.58746E+01 1.81547E+01 5.45455E+00
 -1     17853 5.70634E+01 1.85410E+01 5.90909E+00
 -1     17854 5.81623E+01 1.39635E+01 6.36364E+00
 -1     17855 5.58746E+01 1.81547E+01 6.36364E+00
 -1     17860 5.70634E+01 1.85410E+01 6.81818E+00
 -1     17861 5.81623E+01 1.39635E+01 7.27273E+00
 -1     17862 5.58746E+01 1.81547E+01 7.27273E+00
 -1     17867 5.70634E+01 1.85410E+01 7.72727E+00
 -1     17868 5.81623E+01 1.39635E+01 8.18182E+00
 -1     17869 5.58746E+01 1.81547E+01 8.18182E+00
 -1     17874 5.70634E+01 1.85410E+01 8.63636E+00
 -1     17875 5.81623E+01 1.39635E+01 9.09091E+00
 -1     17876 5.58746E+01 1.81547E+01 9.09091E+00
 -1     17881 5.70634E+01 1.85410E+01 9.54545E+00
 -1     17885 5.34604E+01 2.72394E+01 4.54545E-01
 -1     17886 5.52619E+01 2.28902E+01 9.09091E-01
 -1     17887 5.23466E+01 2.66719E+01 9.09091E-01
 -1     17892 5.34604E+01 2.72394E+01 1.36364E+00
 -1     17893 5.52619E+01 2.28902E+01 1.81818E+00
 -1     17894 5.23466E+01 2.66719E+01 1.81818E+00
 -1     17899 5.34604E+01 2.72394E+01 2.27273E+00
 -1     17900 5.52619E+01 2.28902E+01 2.72727E+00
 -1     17901 5.23466E+01 2.66719E+01 2.72727E+00
 -1     17906 5.34604E+01 2.72394E+01 3.18182E+00
 -1     17907 5.52619E+01 2.28902E+01 3.63636E+00
 -1     17908 5.23466E+01 2.66719E+01 3.63636E+00
 -1     17913 5.34604E+01 2.72394E+01 4.09091E+00
 -1     17914 5.52619E+01 2.28902E+01 4.54545E+00
 -1     17915 5.23466E+01 2.66719E+01 4.54545E+00
 -1     17920 5.34604E+01 2.72394E+01 5.00000E+00
 -1     17921 5.52619E+01 2.28902E+01 5.45455E+00
 -1     17922 5.23466E+01 2.66719E+01 5.45455E+00
 -1     17927 5.34604E+01 2.72394E+01 5.90909E+00
 -1     17928 5.52619E+01 2.28902E+01 6.36364E+00
 -1     17929 5.23466E+01 2.66719E+01 6.36364E+00
 -1     17934 5.34604E+01 2.72394E+01 6.81818E+00
 -1     17935 5.52619E+01 2.28902E+01 7.27273E+00
 -1     17936 5.23466E+01 2.66719E+01 7.27273E+00
 -1     17941 5.34604E+01 2.72394E+01 7.72727E+00
 -1     17942 5.52619E+01 2.28902E+01 8.18182E+00
 -1     17943 5.23466E+01 2.66719E+01 8.18182E+00
 -1     17948 5.34604E+01 2.72394E+01 8.63636E+00
 -1     17949 5.52619E+01 2.28902E+01 9.09091E+00
 -1     17950 5.23466E+01 2.66719E+01 9.09091E+00
 -1     17955 5.34604E+01 2.72394E+01 9.54545E+00
 -1     17959 4.85410E+01 3.52671E+01 4.54545E-01
 -1     17960 5.10007E+01 3.12533E+01 9.09091E-01
 -1     17961 4.75297E+01 3.45324E+01 9.09091E-01
 -1     17966 4.85410E+01 3.52671E+01 1.36364E+00
 -1     17967 5.10007E+01 3.12533E+01 1.81818E+00
 -1     17968 4.75297E+01 3.45324E+01 1.81818E+00
 -1     17973 4.85410E+01 3.52671E+01 2.27273E+00
 -1     17974 5.10007E+01 3.12533E+01 2.72727E+00
 -1     17975 4.75297E+01 3.45324E+01 2.72727E+00
 -1     17980 4.85410E+01 3.52671E+01 3.18182E+00
 -1     17981 5.10007E+01 3.12533E+01 3.63636E+00
 -1     17982 4.75297E+01 3.45324E+01 3.63636E+00
 -1     17987 4.85410E+01 3.52671E+01 4.09091E+00
 -1     17988 5.10007E+01 3.12533E+01 4.54545E+00
 -1     17989 4.75297E+01 3.45324E+01 4.54545E+00
 -1     17994 4.85410E+01 3.52671E+01 5.00000E+00
 -1     17995 5.10007E+01 3.12533E+01 5.45455E+00
 -1     17996 4.75297E+01 3.45324E+01 5.45455E+00
 -1     18001 4.85410E+01 3.52671E+01 5.90909E+00
 -1     18002 5.10007E+01 3.12533E+01 6.36364E+00
 -1     18003 4.75297E+01 3.45324E+01 6.36364E+00
 -1     18008 4.85410E+01 3.52671E+01 6.81818E+00
 -1     18009 5.10007E+01 3.12533E+01 7.27273E+00
 -1     18010 4.75297E+01 3.45324E+01 7.27273E+00
 -1     18015 4.85410E+01 3.52671E+01 7.72727E+00
 -1     18016 5.10007E+01 3.12533E+01 8.18182E+00
 -1     18017 4.75297E+01 3.45324E+01 8.18182E+00
 -1     18022 4.85410E+01 3.52671E+01 8.63636E+00
 -1     18023 5.10007E+01 3.12533E+01 9.09091E+00
 -1     18024 4.75297E+01 3.45324E+01 9.09091E+00
 -1     18029 4.85410E+01 3.52671E+01 9.54545E+00
 -1     18033 4.24264E+01 4.24264E+01 4.54545E-01
 -1     18034 4.54837E+01 3.88468E+01 9.09091E-01
 -1     18035 4.15425E+01 4.15425E+01 9.09091E-01
 -1     18040 4.24264E+01 4.24264E+01 1.36364E+00
 -1     18041 4.54837E+01 3.88468E+01 1.81818E+00
 -1     18042 4.15425E+01 4.15425E+01 1.81818E+00
 -1     18047 4.24264E+01 4.24264E+01 2.27273E+00
 -1     18048 4.54837E+01 3.88468E+01 2.72727E+00
 -1     18049 4.15425E+01 4.15425E+01 2.72727E+00
 -1     18054 4.24264E+01 4.24264E+01 3.18182E+00
 -1     18055 4.54837E+01 3.88468E+01 3.63636E+00
 -1     18056 4.15425E+01 4.15425E+01 3.63636E+00
 -1     18061 4.24264E+01 4.24264E+01 4.09091E+00
 -1     18062 4.54837E+01 3.88468E+01 4.54545E+00
 -1     18063 4.15425E+01 4.15425E+01 4.54545E+00
 -1     18068 4.24264E+01 4.24264E+01 5.00000E+00
 -1     18069 4.54837E+01 3.88468E+01 5.45455E+00
 -1     18070 4.15425E+01 4.15425E+01 5.45455E+00
 -1     18075 4.24264E+01 4.24264E+01 5.90909E+00
 -1     18076 4.54837E+01 3.88468E+01 6.36364E+00
 -1     18077 4.15425E+01 4.15425E+01 6.36364E+00
 -1     18082 4.24264E+01 4.24264E+01 6.81818E+00
 -1     18083 4.54837E+01 3.88468E+01 7.27273E+00
 -1     18084 4.15425E+01 4.15425E+01 7.27273E+00
 -1     18089 4.24264E+01 4.24264E+01 7.72727E+00
 -1     18090 4.54837E+01 3.88468E+01 8.18182E+00
 -1     18091 4.15425E+01 4.15425E+01 8.18182E+00
 -1     18096 4.24264E+01 4.24264E+01 8.63636E+00
 -1     18097 4.54837E+01 3.88468E+01 9.09091E+00
 -1     18098 4.15425E+01 4.15425E+01 9.09091E+00
 -1     18103 4.24264E+01 4.24264E+01 9.54545E+00
 -1     18107 3.52671E+01 4.85410E+01 4.54545E-01
 -1     18108 3.88468E+01 4.54837E+01 9.09091E-01
 -1     18109 3.45324E+01 4.75297E+01 9.09091E-01
 -1     18114 3.52671E+01 4.85410E+01 1.36364E+00
 -1     18115 3.88468E+01 4.54837E+01 1.81818E+00
 -1     18116 3.45324E+01 4.75297E+01 1.81818E+00
 -1     18121 3.52671E+01 4.85410E+01 2.27273E+00
 -1     18122 3.88468E+01 4.54837E+01 2.72727E+00
 -1     18123 3.45324E+01 4.75297E+01 2.72727E+00
 -1     18128 3.52671E+01 4.85410E+01 3.18182E+00
 -1     18129 3.88468E+01 4.54837E+01 3.63636E+00
 -1     18130 3.45324E+01 4.75297E+01 3.63636E+00
 -1     18135 3.52671E+01 4.85410E+01 4.09091E+00
 -1     18136 3.88468E+01 4.54837E+01 4.54545E+00
 -1     18137 3.45324E+01 4.75297E+01 4.54545E+00
 -1     18142 3.52671E+01 4.85410E+01 5.00000E+00
 -1     18143 3.88468E+01 4.54837E+01 5.45455E+00
 -1     18144 3.45324E+01 4.75297E+01 5.45455E+00
 -1     18149 3.52671E+01 4.85410E+01 5.90909E+00
 -1     18150 3.88468E+01 4.54837E+01 6.36364E+00
 -1     18151 3.45324E+01 4.75297E+01 6.36364E+00
 -1     18156 3.52671E+01 4.85410E+01 6.81818E+00
 -1     18157 3.88468E+01 4.54837E+01 7.27273E+00
 -1     18158 3.45324E+01 4.75297E+01 7.27273E+00
 -1     18163 3.52671E+01 4.85410E+01 7.72727E+00
 -1     18164 3.88468E+01 4.54837E+01 8.18182E+00
 -1     18165 3.45324E+01 4.75297E+01 8.18182E+00
 -1     18170 3.52671E+01 4.85410E+01 8.63636E+00
 -1     18171 3.88468E+01 4.54837E+01 9.09091E+00
 -1     18172 3.45324E+01 4.75297E+01 9.09091E+00
 -1     18177 3.52671E+01 4.85410E+01 9.54545E+00
 -1     18181 2.72394E+01 5.34604E+01 4.54545E-01
 -1     18182 3.12533E+01 5.10007E+01 9.09091E-01
 -1     18183 2.66719E+01 5.23466E+01 9.09091E-01
 -1     18188 2.72394E+01 5.34604E+01 1.36364E+00
 -1     18189 3.12533E+01 5.10007E+01 1.81818E+00
 -1     18190 2.66719E+01 5.23466E+01 1.81818E+00
 -1     18195 2.72394E+01 5.34604E+01 2.27273E+00
 -1     18196 3.12533E+01 5.10007E+01 2.72727E+00
 -1     18197 2.66719E+01 5.23466E+01 2.72727E+00
 -1     18202 2.72394E+01 5.34604E+01 3.18182E+00
 -1     18203 3.12533E+01 5.10007E+01 3.63636E+00
 -1     18204 2.66719E+01 5.23466E+01 3.63636E+00
 -1     18209 2.72394E+01 5.34604E+01 4.09091E+00
 -1     18210 3.12533E+01 5.10007E+01 4.54545E+00
 -1     18211 2.66719E+01 5.23466E+01 4.54545E+00
 -1     18216 2.72394E+01 5.34604E+01 5.00000E+00
 -1     18217 3.12533E+01 5.10007E+01 5.45455E+00
 -1     18218 2.66719E+01 5.23466E+01 5.45455E+00
 -1     18223 2.72394E+01 5.34604E+01 5.90909E+00
 -1     18224 3.12533E+01 5.10007E+01 6.36364E+00
 -1     18225 2.66719E+01 5.23466E+01 6.36364E+00
 -1     18230 2.72394E+01 5.34604E+01 6.81818E+00
 -1     18231 3.12533E+01 5.10007E+01 7.27273E+00
 -1     18232 2.66719E+01 5.23466E+01 7.27273E+00
 -1     18237 2.72394E+01 5.34604E+01 7.72727E+00
 -1     18238 3.12533E+01 5.10007E+01 8.18182E+00
 -1     18239 2.66719E+01 5.23466E+01 8.18182E+00
 -1     18244 2.72394E+01 5.34604E+01 8.63636E+00
 -1     18245 3.12533E+01 5.10007E+01 9.09091E+00
 -1     18246 2.66719E+01 5.23466E+01 9.09091E+00
 -1     18251 2.72394E+01 5.34604E+01 9.54545E+00
 -1     18255 1.85410E+01 5.70634E+01 4.54545E-01
 -1     18256 2.28902E+01 5.52619E+01 9.09091E-01
 -1     18257 1.81547E+01 5.58746E+01 9.09091E-01
 -1     18262 1.85410E+01 5.70634E+01 1.36364E+00
 -1     18263 2.28902E+01 5.52619E+01 1.81818E+00
 -1     18264 1.81547E+01 5.58746E+01 1.81818E+00
 -1     18269 1.85410E+01 5.70634E+01 2.27273E+00
 -1     18270 2.28902E+01 5.52619E+01 2.72727E+00
 -1     18271 1.81547E+01 5.58746E+01 2.72727E+00
 -1     18276 1.85410E+01 5.70634E+01 3.18182E+00
 -1     18277 2.28902E+01 5.52619E+01 3.63636E+00
 -1     18278 1.81547E+01 5.58746E+01 3.63636E+00
 -1     18283 1.85410E+01 5.70634E+01 4.09091E+00
 -1     18284 2.28902E+01 5.52619E+01 4.54545E+00
 -1     18285 1.81547E+01 5.58746E+01 4.54545E+00
 -1     18290 1.85410E+01 5.70634E+01 5.00000E+00
 -1     18291 2.28902E+01 5.52619E+01 5.45455E+00
 -1     18292 1.81547E+01 5.58746E+01 5.45455E+00
 -1     18297 1.85410E+01 5.70634E+01 5.90909E+00
 -1     18298 2.28902E+01 5.52619E+01 6.36364E+00
 -1     18299 1.81547E+01 5.58746E+01 6.36364E+00
 -1     18304 1.85410E+01 5.70634E+01 6.81818E+00
 -1     18305 2.28902E+01 5.52619E+01 7.27273E+00
 -1     18306 1.81547E+01 5.58746E+01 7.27273E+00
 -1     18311 1.85410E+01 5.70634E+01 7.72727E+00
 -1     18312 2.28902E+01 5.52619E+01 8.18182E+00
 -1     18313 1.81547E+01 5.58746E+01 8.18182E+00
 -1     18318 1.85410E+01 5.70634E+01 8.63636E+00
 -1     18319 2.28902E+01 5.52619E+01 9.09091E+00
 -1     18320 1.81547E+01 5.58746E+01 9.09091E+00
 -1     18325 1.85410E+01 5.70634E+01 9.54545E+00
 -1     18329 9.38607E+00 5.92613E+01 4.54545E-01
 -1     18330 1.39635E+01 5.81623E+01 9.09091E-01
 -1     18331 9.19053E+00 5.80267E+01 9.09091E-01
 -1     18336 9.38607E+00 5.92613E+01 1.36364E+00
 -1     18337 1.39635E+01 5.81623E+01 1.81818E+00
 -1     18338 9.19053E+00 5.80267E+01 1.81818E+00
 -1     18343 9.38607E+00 5.92613E+01 2.27273E+00
 -1     18344 1.39635E+01 5.81623E+01 2.72727E+00
 -1     18345 9.19053E+00 5.80267E+01 2.72727E+00
 -1     18350 9.38607E+00 5.92613E+01 3.18182E+00
 -1     18351 1.39635E+01 5.81623E+01 3.63636E+00
 -1     18352 9.19053E+00 5.80267E+01 3.63636E+00
 -1     18357 9.38607E+00 5.92613E+01 4.09091E+00
 -1     18358 1.39635E+01 5.81623E+01 4.54545E+00
 -1     18359 9.19053E+00 5.80267E+01 4.54545E+00
 -1     18364 9.38607E+00 5.92613E+01 5.00000E+00
 -1     18365 1.39635E+01 5.81623E+01 5.45455E+00
 -1     18366 9.19053E+00 5.80267E+01 5.45455E+00
 -1     18371 9.38607E+00 5.92613E+01 5.90909E+00
 -1     18372 1.39635E+01 5.81623E+01 6.36364E+00
 -1     18373 9.19053E+00 5.80267E+01 6.36364E+00
 -1     18378 9.38607E+00 5.92613E+01 6.81818E+00
 -1     18379 1.39635E+01 5.81623E+01 7.27273E+00
 -1     18380 9.19053E+00 5.80267E+01 7.27273E+00
 -1     18385 9.38607E+00 5.92613E+01 7.72727E+00
 -1     18386 1.39635E+01 5.81623E+01 8.18182E+00
 -1     18387 9.19053E+00 5.80267E+01 8.18182E+00
 -1     18392 9.38607E+00 5.92613E+01 8.63636E+00
 -1     18393 1.39635E+01 5.81623E+01 9.09091E+00
 -1     18394 9.19053E+00 5.80267E+01 9.09091E+00
 -1     18399 9.38607E+00 5.92613E+01 9.54545E+00
 -1     18403 4.69303E+00 5.96306E+01 9.09091E-01
 -1     18407 4.69303E+00 5.96306E+01 1.81818E+00
 -1     18411 4.69303E+00 5.96306E+01 2.72727E+00
 -1     18415 4.69303E+00 5.96306E+01 3.63636E+00
 -1     18419 4.69303E+00 5.96306E+01 4.54545E+00
 -1     18423 4.69303E+00 5.96306E+01 5.45455E+00
 -1     18427 4.69303E+00 5.96306E+01 6.36364E+00
 -1     18431 4.69303E+00 5.96306E+01 7.27273E+00
 -1     18435 4.69303E+00 5.96306E+01 8.18182E+00
 -1     18439 4.69303E+00 5.96306E+01 9.09091E+00
 -1     18445 6.17305E+01 9.77715E+00 4.54545E-01
 -1     18446 6.21153E+01 4.88858E+00 9.09091E-01
 -1     18447 6.04959E+01 9.58161E+00 9.09091E-01
 -1     18452 6.17305E+01 9.77715E+00 1.36364E+00
 -1     18453 6.21153E+01 4.88858E+00 1.81818E+00
 -1     18454 6.04959E+01 9.58161E+00 1.81818E+00
 -1     18459 6.17305E+01 9.77715E+00 2.27273E+00
 -1     18460 6.21153E+01 4.88858E+00 2.72727E+00
 -1     18461 6.04959E+01 9.58161E+00 2.72727E+00
 -1     18466 6.17305E+01 9.77715E+00 3.18182E+00
 -1     18467 6.21153E+01 4.88858E+00 3.63636E+00
 -1     18468 6.04959E+01 9.58161E+00 3.63636E+00
 -1     18473 6.17305E+01 9.77715E+00 4.09091E+00
 -1     18474 6.21153E+01 4.88858E+00 4.54545E+00
 -1     18475 6.04959E+01 9.58161E+00 4.54545E+00
 -1     18480 6.17305E+01 9.77715E+00 5.00000E+00
 -1     18481 6.21153E+01 4.88858E+00 5.45455E+00
 -1     18482 6.04959E+01 9.58161E+00 5.45455E+00
 -1     18487 6.17305E+01 9.77715E+00 5.90909E+00
 -1     18488 6.21153E+01 4.88858E+00 6.36364E+00
 -1     18489 6.04959E+01 9.58161E+00 6.36364E+00
 -1     18494 6.17305E+01 9.77715E+00 6.81818E+00
 -1     18495 6.21153E+01 4.88858E+00 7.27273E+00
 -1     18496 6.04959E+01 9.58161E+00 7.27273E+00
 -1     18501 6.17305E+01 9.77715E+00 7.72727E+00
 -1     18502 6.21153E+01 4.88858E+00 8.18182E+00
 -1     18503 6.04959E+01 9.58161E+00 8.18182E+00
 -1     18508 6.17305E+01 9.77715E+00 8.63636E+00
 -1     18509 6.21153E+01 4.88858E+00 9.09091E+00
 -1     18510 6.04959E+01 9.58161E+00 9.09091E+00
 -1     18515 6.17305E+01 9.77715E+00 9.54545E+00
 -1     18519 5.94410E+01 1.93136E+01 4.54545E-01
 -1     18520 6.05858E+01 1.45454E+01 9.09091E-01
 -1     18521 5.82522E+01 1.89273E+01 9.09091E-01
 -1     18526 5.94410E+01 1.93136E+01 1.36364E+00
 -1     18527 6.05858E+01 1.45454E+01 1.81818E+00
 -1     18528 5.82522E+01 1.89273E+01 1.81818E+00
 -1     18533 5.94410E+01 1.93136E+01 2.27273E+00
 -1     18534 6.05858E+01 1.45454E+01 2.72727E+00
 -1     18535 5.82522E+01 1.89273E+01 2.72727E+00
 -1     18540 5.94410E+01 1.93136E+01 3.18182E+00
 -1     18541 6.05858E+01 1.45454E+01 3.63636E+00
 -1     18542 5.82522E+01 1.89273E+01 3.63636E+00
 -1     18547 5.94410E+01 1.93136E+01 4.09091E+00
 -1     18548 6.05858E+01 1.45454E+01 4.54545E+00
 -1     18549 5.82522E+01 1.89273E+01 4.54545E+00
 -1     18554 5.94410E+01 1.93136E+01 5.00000E+00
 -1     18555 6.05858E+01 1.45454E+01 5.45455E+00
 -1     18556 5.82522E+01 1.89273E+01 5.45455E+00
 -1     18561 5.94410E+01 1.93136E+01 5.90909E+00
 -1     18562 6.05858E+01 1.45454E+01 6.36364E+00
 -1     18563 5.82522E+01 1.89273E+01 6.36364E+00
 -1     18568 5.94410E+01 1.93136E+01 6.81818E+00
 -1     18569 6.05858E+01 1.45454E+01 7.27273E+00
 -1     18570 5.82522E+01 1.89273E+01 7.27273E+00
 -1     18575 5.94410E+01 1.93136E+01 7.72727E+00
 -1     18576 6.05858E+01 1.45454E+01 8.18182E+00
 -1     18577 5.82522E+01 1.89273E+01 8.18182E+00
 -1     18582 5.94410E+01 1.93136E+01 8.63636E+00
 -1     18583 6.05858E+01 1.45454E+01 9.09091E+00
 -1     18584 5.82522E+01 1.89273E+01 9.09091E+00
 -1     18589 5.94410E+01 1.93136E+01 9.54545E+00
 -1     18593 5.56879E+01 2.83744E+01 4.54545E-01
 -1     18594 5.75645E+01 2.38440E+01 9.09091E-01
 -1     18595 5.45742E+01 2.78069E+01 9.09091E-01
 -1     18600 5.56879E+01 2.83744E+01 1.36364E+00
 -1     18601 5.75645E+01 2.38440E+01 1.81818E+00
 -1     18602 5.45742E+01 2.78069E+01 1.81818E+00
 -1     18607 5.56879E+01 2.83744E+01 2.27273E+00
 -1     18608 5.75645E+01 2.38440E+01 2.72727E+00
 -1     18609 5.45742E+01 2.78069E+01 2.72727E+00
 -1     18614 5.56879E+01 2.83744E+01 3.18182E+00
 -1     18615 5.75645E+01 2.38440E+01 3.63636E+00
 -1     18616 5.45742E+01 2.78069E+01 3.63636E+00
 -1     18621 5.56879E+01 2.83744E+01 4.09091E+00
 -1     18622 5.75645E+01 2.38440E+01 4.54545E+00
 -1     18623 5.45742E+01 2.78069E+01 4.54545E+00
 -1     18628 5.56879E+01 2.83744E+01 5.00000E+00
 -1     18629 5.75645E+01 2.38440E+01 5.45455E+00
 -1     18630 5.45742E+01 2.78069E+01 5.45455E+00
 -1     18635 5.56879E+01 2.83744E+01 5.90909E+00
 -1     18636 5.75645E+01 2.38440E+01 6.36364E+00
 -1     18637 5.45742E+01 2.78069E+01 6.36364E+00
 -1     18642 5.56879E+01 2.83744E+01 6.81818E+00
 -1     18643 5.75645E+01 2.38440E+01 7.27273E+00
 -1     18644 5.45742E+01 2.78069E+01 7.27273E+00
 -1     18649 5.56879E+01 2.83744E+01 7.72727E+00
 -1     18650 5.75645E+01 2.38440E+01 8.18182E+00
 -1     18651 5.45742E+01 2.78069E+01 8.18182E+00
 -1     18656 5.56879E+01 2.83744E+01 8.63636E+00
 -1     18657 5.75645E+01 2.38440E+01 9.09091E+00
 -1     18658 5.45742E+01 2.78069E+01 9.09091E+00
 -1     18663 5.56879E+01 2.83744E+01 9.54545E+00
 -1     18667 5.05636E+01 3.67366E+01 4.54545E-01
 -1     18668 5.31257E+01 3.25555E+01 9.09091E-01
 -1     18669 4.95523E+01 3.60018E+01 9.09091E-01
 -1     18674 5.05636E+01 3.67366E+01 1.36364E+00
 -1     18675 5.31257E+01 3.25555E+01 1.81818E+00
 -1     18676 4.95523E+01 3.60018E+01 1.81818E+00
 -1     18681 5.05636E+01 3.67366E+01 2.27273E+00
 -1     18682 5.31257E+01 3.25555E+01 2.72727E+00
 -1     18683 4.95523E+01 3.60018E+01 2.72727E+00
 -1     18688 5.05636E+01 3.67366E+01 3.18182E+00
 -1     18689 5.31257E+01 3.25555E+01 3.63636E+00
 -1     18690 4.95523E+01 3.60018E+01 3.63636E+00
 -1     18695 5.05636E+01 3.67366E+01 4.09091E+00
 -1     18696 5.31257E+01 3.25555E+01 4.54545E+00
 -1     18697 4.95523E+01 3.60018E+01 4.54545E+00
 -1     18702 5.05636E+01 3.67366E+01 5.00000E+00
 -1     18703 5.31257E+01 3.25555E+01 5.45455E+00
 -1     18704 4.95523E+01 3.60018E+01 5.45455E+00
 -1     18709 5.05636E+01 3.67366E+01 5.90909E+00
 -1     18710 5.31257E+01 3.25555E+01 6.36364E+00
 -1     18711 4.95523E+01 3.60018E+01 6.36364E+00
 -1     18716 5.05636E+01 3.67366E+01 6.81818E+00
 -1     18717 5.31257E+01 3.25555E+01 7.27273E+00
 -1     18718 4.95523E+01 3.60018E+01 7.27273E+00
 -1     18723 5.05636E+01 3.67366E+01 7.72727E+00
 -1     18724 5.31257E+01 3.25555E+01 8.18182E+00
 -1     18725 4.95523E+01 3.60018E+01 8.18182E+00
 -1     18730 5.05636E+01 3.67366E+01 8.63636E+00
 -1     18731 5.31257E+01 3.25555E+01 9.09091E+00
 -1     18732 4.95523E+01 3.60018E+01 9.09091E+00
 -1     18737 5.05636E+01 3.67366E+01 9.54545E+00
 -1     18741 4.41942E+01 4.41942E+01 4.54545E-01
 -1     18742 4.73789E+01 4.04654E+01 9.09091E-01
 -1     18743 4.33103E+01 4.33103E+01 9.09091E-01
 -1     18748 4.41942E+01 4.41942E+01 1.36364E+00
 -1     18749 4.73789E+01 4.04654E+01 1.81818E+00
 -1     18750 4.33103E+01 4.33103E+01 1.81818E+00
 -1     18755 4.41942E+01 4.41942E+01 2.27273E+00
 -1     18756 4.73789E+01 4.04654E+01 2.72727E+00
 -1     18757 4.33103E+01 4.33103E+01 2.72727E+00
 -1     18762 4.41942E+01 4.41942E+01 3.18182E+00
 -1     18763 4.73789E+01 4.04654E+01 3.63636E+00
 -1     18764 4.33103E+01 4.33103E+01 3.63636E+00
 -1     18769 4.41942E+01 4.41942E+01 4.09091E+00
 -1     18770 4.73789E+01 4.04654E+01 4.54545E+00
 -1     18771 4.33103E+01 4.33103E+01 4.54545E+00
 -1     18776 4.41942E+01 4.41942E+01 5.00000E+00
 -1     18777 4.73789E+01 4.04654E+01 5.45455E+00
 -1     18778 4.33103E+01 4.33103E+01 5.45455E+00
 -1     18783 4.41942E+01 4.41942E+01 5.90909E+00
 -1     18784 4.73789E+01 4.04654E+01 6.36364E+00
 -1     18785 4.33103E+01 4.33103E+01 6.36364E+00
 -1     18790 4.41942E+01 4.41942E+01 6.81818E+00
 -1     18791 4.73789E+01 4.04654E+01 7.27273E+00
 -1     18792 4.33103E+01 4.33103E+01 7.27273E+00
 -1     18797 4.41942E+01 4.41942E+01 7.72727E+00
 -1     18798 4.73789E+01 4.04654E+01 8.18182E+00
 -1     18799 4.33103E+01 4.33103E+01 8.18182E+00
 -1     18804 4.41942E+01 4.41942E+01 8.63636E+00
 -1     18805 4.73789E+01 4.04654E+01 9.09091E+00
 -1     18806 4.33103E+01 4.33103E+01 9.09091E+00
 -1     18811 4.41942E+01 4.41942E+01 9.54545E+00
 -1     18815 3.67366E+01 5.05636E+01 4.54545E-01
 -1     18816 4.04654E+01 4.73789E+01 9.09091E-01
 -1     18817 3.60018E+01 4.95523E+01 9.09091E-01
 -1     18822 3.67366E+01 5.05636E+01 1.36364E+00
 -1     18823 4.04654E+01 4.73789E+01 1.81818E+00
 -1     18824 3.60018E+01 4.95523E+01 1.81818E+00
 -1     18829 3.67366E+01 5.05636E+01 2.27273E+00
 -1     18830 4.04654E+01 4.73789E+01 2.72727E+00
 -1     18831 3.60018E+01 4.95523E+01 2.72727E+00
 -1     18836 3.67366E+01 5.05636E+01 3.18182E+00
 -1     18837 4.04654E+01 4.73789E+01 3.63636E+00
 -1     18838 3.60018E+01 4.95523E+01 3.63636E+00
 -1     18843 3.67366E+01 5.05636E+01 4.09091E+00
 -1     18844 4.04654E+01 4.73789E+01 4.54545E+00
 -1     18845 3.60018E+01 4.95523E+01 4.54545E+00
 -1     18850 3.67366E+01 5.05636E+01 5.00000E+00
 -1     18851 4.04654E+01 4.73789E+01 5.45455E+00
 -1     18852 3.60018E+01 4.95523E+01 5.45455E+00
 -1     18857 3.67366E+01 5.05636E+01 5.90909E+00
 -1     18858 4.04654E+01 4.73789E+01 6.36364E+00
 -1     18859 3.60018E+01 4.95523E+01 6.36364E+00
 -1     18864 3.67366E+01 5.05636E+01 6.81818E+00
 -1     18865 4.04654E+01 4.73789E+01 7.27273E+00
 -1     18866 3.60018E+01 4.95523E+01 7.27273E+00
 -1     18871 3.67366E+01 5.05636E+01 7.72727E+00
 -1     18872 4.04654E+01 4.73789E+01 8.18182E+00
 -1     18873 3.60018E+01 4.95523E+01 8.18182E+00
 -1     18878 3.67366E+01 5.05636E+01 8.63636E+00
 -1     18879 4.04654E+01 4.73789E+01 9.09091E+00
 -1     18880 3.60018E+01 4.95523E+01 9.09091E+00
 -1     18885 3.67366E+01 5.05636E+01 9.54545E+00
 -1     18889 2.83744E+01 5.56879E+01 4.54545E-01
 -1     18890 3.25555E+01 5.31257E+01 9.09091E-01
 -1     18891 2.78069E+01 5.45742E+01 9.09091E-01
 -1     18896 2.83744E+01 5.56879E+01 1.36364E+00
 -1     18897 3.25555E+01 5.31257E+01 1.81818E+00
 -1     18898 2.78069E+01 5.45742E+01 1.81818E+00
 -1     18903 2.83744E+01 5.56879E+01 2.27273E+00
 -1     18904 3.25555E+01 5.31257E+01 2.72727E+00
 -1     18905 2.78069E+01 5.45742E+01 2.72727E+00
 -1     18910 2.83744E+01 5.56879E+01 3.18182E+00
 -1     18911 3.25555E+01 5.31257E+01 3.63636E+00
 -1     18912 2.78069E+01 5.45742E+01 3.63636E+00
 -1     18917 2.83744E+01 5.56879E+01 4.09091E+00
 -1     18918 3.25555E+01 5.31257E+01 4.54545E+00
 -1     18919 2.78069E+01 5.45742E+01 4.54545E+00
 -1     18924 2.83744E+01 5.56879E+01 5.00000E+00
 -1     18925 3.25555E+01 5.31257E+01 5.45455E+00
 -1     18926 2.78069E+01 5.45742E+01 5.45455E+00
 -1     18931 2.83744E+01 5.56879E+01 5.90909E+00
 -1     18932 3.25555E+01 5.31257E+01 6.36364E+00
 -1     18933 2.78069E+01 5.45742E+01 6.36364E+00
 -1     18938 2.83744E+01 5.56879E+01 6.81818E+00
 -1     18939 3.25555E+01 5.31257E+01 7.27273E+00
 -1     18940 2.78069E+01 5.45742E+01 7.27273E+00
 -1     18945 2.83744E+01 5.56879E+01 7.72727E+00
 -1     18946 3.25555E+01 5.31257E+01 8.18182E+00
 -1     18947 2.78069E+01 5.45742E+01 8.18182E+00
 -1     18952 2.83744E+01 5.56879E+01 8.63636E+00
 -1     18953 3.25555E+01 5.31257E+01 9.09091E+00
 -1     18954 2.78069E+01 5.45742E+01 9.09091E+00
 -1     18959 2.83744E+01 5.56879E+01 9.54545E+00
 -1     18963 1.93136E+01 5.94410E+01 4.54545E-01
 -1     18964 2.38440E+01 5.75645E+01 9.09091E-01
 -1     18965 1.89273E+01 5.82522E+01 9.09091E-01
 -1     18970 1.93136E+01 5.94410E+01 1.36364E+00
 -1     18971 2.38440E+01 5.75645E+01 1.81818E+00
 -1     18972 1.89273E+01 5.82522E+01 1.81818E+00
 -1     18977 1.93136E+01 5.94410E+01 2.27273E+00
 -1     18978 2.38440E+01 5.75645E+01 2.72727E+00
 -1     18979 1.89273E+01 5.82522E+01 2.72727E+00
 -1     18984 1.93136E+01 5.94410E+01 3.18182E+00
 -1     18985 2.38440E+01 5.75645E+01 3.63636E+00
 -1     18986 1.89273E+01 5.82522E+01 3.63636E+00
 -1     18991 1.93136E+01 5.94410E+01 4.09091E+00
 -1     18992 2.38440E+01 5.75645E+01 4.54545E+00
 -1     18993 1.89273E+01 5.82522E+01 4.54545E+00
 -1     18998 1.93136E+01 5.94410E+01 5.00000E+00
 -1     18999 2.38440E+01 5.75645E+01 5.45455E+00
 -1     19000 1.89273E+01 5.82522E+01 5.45455E+00
 -1     19005 1.93136E+01 5.94410E+01 5.90909E+00
 -1     19006 2.38440E+01 5.75645E+01 6.36364E+00
 -1     19007 1.89273E+01 5.82522E+01 6.36364E+00
 -1     19012 1.93136E+01 5.94410E+01 6.81818E+00
 -1     19013 2.38440E+01 5.75645E+01 7.27273E+00
 -1     19014 1.89273E+01 5.82522E+01 7.27273E+00
 -1     19019 1.93136E+01 5.94410E+01 7.72727E+00
 -1     19020 2.38440E+01 5.75645E+01 8.18182E+00
 -1     19021 1.89273E+01 5.82522E+01 8.18182E+00
 -1     19026 1.93136E+01 5.94410E+01 8.63636E+00
 -1     19027 2.38440E+01 5.75645E+01 9.09091E+00
 -1     19028 1.89273E+01 5.82522E+01 9.09091E+00
 -1     19033 1.93136E+01 5.94410E+01 9.54545E+00
 -1     19037 9.77715E+00 6.17305E+01 4.54545E-01
 -1     19038 1.45454E+01 6.05858E+01 9.09091E-01
 -1     19039 9.58161E+00 6.04959E+01 9.09091E-01
 -1     19044 9.77715E+00 6.17305E+01 1.36364E+00
 -1     19045 1.45454E+01 6.05858E+01 1.81818E+00
 -1     19046 9.58161E+00 6.04959E+01 1.81818E+00
 -1     19051 9.77715E+00 6.17305E+01 2.27273E+00
 -1     19052 1.45454E+01 6.05858E+01 2.72727E+00
 -1     19053 9.58161E+00 6.04959E+01 2.72727E+00
 -1     19058 9.77715E+00 6.17305E+01 3.18182E+00
 -1     19059 1.45454E+01 6.05858E+01 3.63636E+00
 -1     19060 9.58161E+00 6.04959E+01 3.63636E+00
 -1     19065 9.77715E+00 6.17305E+01 4.09091E+00
 -1     19066 1.45454E+01 6.05858E+01 4.54545E+00
 -1     19067 9.58161E+00 6.04959E+01 4.54545E+00
 -1     19072 9.77715E+00 6.17305E+01 5.00000E+00
 -1     19073 1.45454E+01 6.05858E+01 5.45455E+00
 -1     19074 9.58161E+00 6.04959E+01 5.45455E+00
 -1     19079 9.77715E+00 6.17305E+01 5.90909E+00
 -1     19080 1.45454E+01 6.05858E+01 6.36364E+00
 -1     19081 9.58161E+00 6.04959E+01 6.36364E+00
 -1     19086 9.77715E+00 6.17305E+01 6.81818E+00
 -1     19087 1.45454E+01 6.05858E+01 7.27273E+00
 -1     19088 9.58161E+00 6.04959E+01 7.27273E+00
 -1     19093 9.77715E+00 6.17305E+01 7.72727E+00
 -1     19094 1.45454E+01 6.05858E+01 8.18182E+00
 -1     19095 9.58161E+00 6.04959E+01 8.18182E+00
 -1     19100 9.77715E+00 6.17305E+01 8.63636E+00
 -1     19101 1.45454E+01 6.05858E+01 9.09091E+00
 -1     19102 9.58161E+00 6.04959E+01 9.09091E+00
 -1     19107 9.77715E+00 6.17305E+01 9.54545E+00
 -1     19111 4.88858E+00 6.21153E+01 9.09091E-01
 -1     19115 4.88858E+00 6.21153E+01 1.81818E+00
 -1     19119 4.88858E+00 6.21153E+01 2.72727E+00
 -1     19123 4.88858E+00 6.21153E+01 3.63636E+00
 -1     19127 4.88858E+00 6.21153E+01 4.54545E+00
 -1     19131 4.88858E+00 6.21153E+01 5.45455E+00
 -1     19135 4.88858E+00 6.21153E+01 6.36364E+00
 -1     19139 4.88858E+00 6.21153E+01 7.27273E+00
 -1     19143 4.88858E+00 6.21153E+01 8.18182E+00
 -1     19147 4.88858E+00 6.21153E+01 9.09091E+00
 -1     19153 6.41997E+01 1.01682E+01 4.54545E-01
 -1     19154 6.45999E+01 5.08412E+00 9.09091E-01
 -1     19155 6.29651E+01 9.97270E+00 9.09091E-01
 -1     19160 6.41997E+01 1.01682E+01 1.36364E+00
 -1     19161 6.45999E+01 5.08412E+00 1.81818E+00
 -1     19162 6.29651E+01 9.97270E+00 1.81818E+00
 -1     19167 6.41997E+01 1.01682E+01 2.27273E+00
 -1     19168 6.45999E+01 5.08412E+00 2.72727E+00
 -1     19169 6.29651E+01 9.97270E+00 2.72727E+00
 -1     19174 6.41997E+01 1.01682E+01 3.18182E+00
 -1     19175 6.45999E+01 5.08412E+00 3.63636E+00
 -1     19176 6.29651E+01 9.97270E+00 3.63636E+00
 -1     19181 6.41997E+01 1.01682E+01 4.09091E+00
 -1     19182 6.45999E+01 5.08412E+00 4.54545E+00
 -1     19183 6.29651E+01 9.97270E+00 4.54545E+00
 -1     19188 6.41997E+01 1.01682E+01 5.00000E+00
 -1     19189 6.45999E+01 5.08412E+00 5.45455E+00
 -1     19190 6.29651E+01 9.97270E+00 5.45455E+00
 -1     19195 6.41997E+01 1.01682E+01 5.90909E+00
 -1     19196 6.45999E+01 5.08412E+00 6.36364E+00
 -1     19197 6.29651E+01 9.97270E+00 6.36364E+00
 -1     19202 6.41997E+01 1.01682E+01 6.81818E+00
 -1     19203 6.45999E+01 5.08412E+00 7.27273E+00
 -1     19204 6.29651E+01 9.97270E+00 7.27273E+00
 -1     19209 6.41997E+01 1.01682E+01 7.72727E+00
 -1     19210 6.45999E+01 5.08412E+00 8.18182E+00
 -1     19211 6.29651E+01 9.97270E+00 8.18182E+00
 -1     19216 6.41997E+01 1.01682E+01 8.63636E+00
 -1     19217 6.45999E+01 5.08412E+00 9.09091E+00
 -1     19218 6.29651E+01 9.97270E+00 9.09091E+00
 -1     19223 6.41997E+01 1.01682E+01 9.54545E+00
 -1     19227 6.18187E+01 2.00861E+01 4.54545E-01
 -1     19228 6.30092E+01 1.51272E+01 9.09091E-01
 -1     19229 6.06299E+01 1.96998E+01 9.09091E-01
 -1     19234 6.18187E+01 2.00861E+01 1.36364E+00
 -1     19235 6.30092E+01 1.51272E+01 1.81818E+00
 -1     19236 6.06299E+01 1.96998E+01 1.81818E+00
 -1     19241 6.18187E+01 2.00861E+01 2.27273E+00
 -1     19242 6.30092E+01 1.51272E+01 2.72727E+00
 -1     19243 6.06299E+01 1.96998E+01 2.72727E+00
 -1     19248 6.18187E+01 2.00861E+01 3.18182E+00
 -1     19249 6.30092E+01 1.51272E+01 3.63636E+00
 -1     19250 6.06299E+01 1.96998E+01 3.63636E+00
 -1     19255 6.18187E+01 2.00861E+01 4.09091E+00
 -1     19256 6.30092E+01 1.51272E+01 4.54545E+00
 -1     19257 6.06299E+01 1.96998E+01 4.54545E+00
 -1     19262 6.18187E+01 2.00861E+01 5.00000E+00
 -1     19263 6.30092E+01 1.51272E+01 5.45455E+00
 -1     19264 6.06299E+01 1.96998E+01 5.45455E+00
 -1     19269 6.18187E+01 2.00861E+01 5.90909E+00
 -1     19270 6.30092E+01 1.51272E+01 6.36364E+00
 -1     19271 6.06299E+01 1.96998E+01 6.36364E+00
 -1     19276 6.18187E+01 2.00861E+01 6.81818E+00
 -1     19277 6.30092E+01 1.51272E+01 7.27273E+00
 -1     19278 6.06299E+01 1.96998E+01 7.27273E+00
 -1     19283 6.18187E+01 2.00861E+01 7.72727E+00
 -1     19284 6.30092E+01 1.51272E+01 8.18182E+00
 -1     19285 6.06299E+01 1.96998E+01 8.18182E+00
 -1     19290 6.18187E+01 2.00861E+01 8.63636E+00
 -1     19291 6.30092E+01 1.51272E+01 9.09091E+00
 -1     19292 6.06299E+01 1.96998E+01 9.09091E+00
 -1     19297 6.18187E+01 2.00861E+01 9.54545E+00
 -1     19301 5.79154E+01 2.95094E+01 4.54545E-01
 -1     19302 5.98671E+01 2.47977E+01 9.09091E-01
 -1     19303 5.68017E+01 2.89419E+01 9.09091E-01
 -1     19308 5.79154E+01 2.95094E+01 1.36364E+00
 -1     19309 5.98671E+01 2.47977E+01 1.81818E+00
 -1     19310 5.68017E+01 2.89419E+01 1.81818E+00
 -1     19315 5.79154E+01 2.95094E+01 2.27273E+00
 -1     19316 5.98671E+01 2.47977E+01 2.72727E+00
 -1     19317 5.68017E+01 2.89419E+01 2.72727E+00
 -1     19322 5.79154E+01 2.95094E+01 3.18182E+00
 -1     19323 5.98671E+01 2.47977E+01 3.63636E+00
 -1     19324 5.68017E+01 2.89419E+01 3.63636E+00
 -1     19329 5.79154E+01 2.95094E+01 4.09091E+00
 -1     19330 5.98671E+01 2.47977E+01 4.54545E+00
 -1     19331 5.68017E+01 2.89419E+01 4.54545E+00
 -1     19336 5.79154E+01 2.95094E+01 5.00000E+00
 -1     19337 5.98671E+01 2.47977E+01 5.45455E+00
 -1     19338 5.68017E+01 2.89419E+01 5.45455E+00
 -1     19343 5.79154E+01 2.95094E+01 5.90909E+00
 -1     19344 5.98671E+01 2.47977E+01 6.36364E+00
 -1     19345 5.68017E+01 2.89419E+01 6.36364E+00
 -1     19350 5.79154E+01 2.95094E+01 6.81818E+00
 -1     19351 5.98671E+01 2.47977E+01 7.27273E+00
 -1     19352 5.68017E+01 2.89419E+01 7.27273E+00
 -1     19357 5.79154E+01 2.95094E+01 7.72727E+00
 -1     19358 5.98671E+01 2.47977E+01 8.18182E+00
 -1     19359 5.68017E+01 2.89419E+01 8.18182E+00
 -1     19364 5.79154E+01 2.95094E+01 8.63636E+00
 -1     19365 5.98671E+01 2.47977E+01 9.09091E+00
 -1     19366 5.68017E+01 2.89419E+01 9.09091E+00
 -1     19371 5.79154E+01 2.95094E+01 9.54545E+00
 -1     19375 5.25861E+01 3.82060E+01 4.54545E-01
 -1     19376 5.52508E+01 3.38577E+01 9.09091E-01
 -1     19377 5.15748E+01 3.74713E+01 9.09091E-01
 -1     19382 5.25861E+01 3.82060E+01 1.36364E+00
 -1     19383 5.52508E+01 3.38577E+01 1.81818E+00
 -1     19384 5.15748E+01 3.74713E+01 1.81818E+00
 -1     19389 5.25861E+01 3.82060E+01 2.27273E+00
 -1     19390 5.52508E+01 3.38577E+01 2.72727E+00
 -1     19391 5.15748E+01 3.74713E+01 2.72727E+00
 -1     19396 5.25861E+01 3.82060E+01 3.18182E+00
 -1     19397 5.52508E+01 3.38577E+01 3.63636E+00
 -1     19398 5.15748E+01 3.74713E+01 3.63636E+00
 -1     19403 5.25861E+01 3.82060E+01 4.09091E+00
 -1     19404 5.52508E+01 3.38577E+01 4.54545E+00
 -1     19405 5.15748E+01 3.74713E+01 4.54545E+00
 -1     19410 5.25861E+01 3.82060E+01 5.00000E+00
 -1     19411 5.52508E+01 3.38577E+01 5.45455E+00
 -1     19412 5.15748E+01 3.74713E+01 5.45455E+00
 -1     19417 5.25861E+01 3.82060E+01 5.90909E+00
 -1     19418 5.52508E+01 3.38577E+01 6.36364E+00
 -1     19419 5.15748E+01 3.74713E+01 6.36364E+00
 -1     19424 5.25861E+01 3.82060E+01 6.81818E+00
 -1     19425 5.52508E+01 3.38577E+01 7.27273E+00
 -1     19426 5.15748E+01 3.74713E+01 7.27273E+00
 -1     19431 5.25861E+01 3.82060E+01 7.72727E+00
 -1     19432 5.52508E+01 3.38577E+01 8.18182E+00
 -1     19433 5.15748E+01 3.74713E+01 8.18182E+00
 -1     19438 5.25861E+01 3.82060E+01 8.63636E+00
 -1     19439 5.52508E+01 3.38577E+01 9.09091E+00
 -1     19440 5.15748E+01 3.74713E+01 9.09091E+00
 -1     19445 5.25861E+01 3.82060E+01 9.54545E+00
 -1     19449 4.59619E+01 4.59619E+01 4.54545E-01
 -1     19450 4.92740E+01 4.20840E+01 9.09091E-01
 -1     19451 4.50781E+01 4.50781E+01 9.09091E-01
 -1     19456 4.59619E+01 4.59619E+01 1.36364E+00
 -1     19457 4.92740E+01 4.20840E+01 1.81818E+00
 -1     19458 4.50781E+01 4.50781E+01 1.81818E+00
 -1     19463 4.59619E+01 4.59619E+01 2.27273E+00
 -1     19464 4.92740E+01 4.20840E+01 2.72727E+00
 -1     19465 4.50781E+01 4.50781E+01 2.72727E+00
 -1     19470 4.59619E+01 4.59619E+01 3.18182E+00
 -1     19471 4.92740E+01 4.20840E+01 3.63636E+00
 -1     19472 4.50781E+01 4.50781E+01 3.63636E+00
 -1     19477 4.59619E+01 4.59619E+01 4.09091E+00
 -1     19478 4.92740E+01 4.20840E+01 4.54545E+00
 -1     19479 4.50781E+01 4.50781E+01 4.54545E+00
 -1     19484 4.59619E+01 4.59619E+01 5.00000E+00
 -1     19485 4.92740E+01 4.20840E+01 5.45455E+00
 -1     19486 4.50781E+01 4.50781E+01 5.45455E+00
 -1     19491 4.59619E+01 4.59619E+01 5.90909E+00
 -1     19492 4.92740E+01 4.20840E+01 6.36364E+00
 -1     19493 4.50781E+01 4.50781E+01 6.36364E+00
 -1     19498 4.59619E+01 4.59619E+01 6.81818E+00
 -1     19499 4.92740E+01 4.20840E+01 7.27273E+00
 -1     19500 4.50781E+01 4.50781E+01 7.27273E+00
 -1     19505 4.59619E+01 4.59619E+01 7.72727E+00
 -1     19506 4.92740E+01 4.20840E+01 8.18182E+00
 -1     19507 4.50781E+01 4.50781E+01 8.18182E+00
 -1     19512 4.59619E+01 4.59619E+01 8.63636E+00
 -1     19513 4.92740E+01 4.20840E+01 9.09091E+00
 -1     19514 4.50781E+01 4.50781E+01 9.09091E+00
 -1     19519 4.59619E+01 4.59619E+01 9.54545E+00
 -1     19523 3.82060E+01 5.25861E+01 4.54545E-01
 -1     19524 4.20840E+01 4.92740E+01 9.09091E-01
 -1     19525 3.74713E+01 5.15748E+01 9.09091E-01
 -1     19530 3.82060E+01 5.25861E+01 1.36364E+00
 -1     19531 4.20840E+01 4.92740E+01 1.81818E+00
 -1     19532 3.74713E+01 5.15748E+01 1.81818E+00
 -1     19537 3.82060E+01 5.25861E+01 2.27273E+00
 -1     19538 4.20840E+01 4.92740E+01 2.72727E+00
 -1     19539 3.74713E+01 5.15748E+01 2.72727E+00
 -1     19544 3.82060E+01 5.25861E+01 3.18182E+00
 -1     19545 4.20840E+01 4.92740E+01 3.63636E+00
 -1     19546 3.74713E+01 5.15748E+01 3.63636E+00
 -1     19551 3.82060E+01 5.25861E+01 4.09091E+00
 -1     19552 4.20840E+01 4.92740E+01 4.54545E+00
 -1     19553 3.74713E+01 5.15748E+01 4.54545E+00
 -1     19558 3.82060E+01 5.25861E+01 5.00000E+00
 -1     19559 4.20840E+01 4.92740E+01 5.45455E+00
 -1     19560 3.74713E+01 5.15748E+01 5.45455E+00
 -1     19565 3.82060E+01 5.25861E+01 5.90909E+00
 -1     19566 4.20840E+01 4.92740E+01 6.36364E+00
 -1     19567 3.74713E+01 5.15748E+01 6.36364E+00
 -1     19572 3.82060E+01 5.25861E+01 6.81818E+00
 -1     19573 4.20840E+01 4.92740E+01 7.27273E+00
 -1     19574 3.74713E+01 5.15748E+01 7.27273E+00
 -1     19579 3.82060E+01 5.25861E+01 7.72727E+00
 -1     19580 4.20840E+01 4.92740E+01 8.18182E+00
 -1     19581 3.74713E+01 5.15748E+01 8.18182E+00
 -1     19586 3.82060E+01 5.25861E+01 8.63636E+00
 -1     19587 4.20840E+01 4.92740E+01 9.09091E+00
 -1     19588 3.74713E+01 5.15748E+01 9.09091E+00
 -1     19593 3.82060E+01 5.25861E+01 9.54545E+00
 -1     19597 2.95094E+01 5.79154E+01 4.54545E-01
 -1     19598 3.38577E+01 5.52508E+01 9.09091E-01
 -1     19599 2.89419E+01 5.68017E+01 9.09091E-01
 -1     19604 2.95094E+01 5.79154E+01 1.36364E+00
 -1     19605 3.38577E+01 5.52508E+01 1.81818E+00
 -1     19606 2.89419E+01 5.68017E+01 1.81818E+00
 -1     19611 2.95094E+01 5.79154E+01 2.27273E+00
 -1     19612 3.38577E+01 5.52508E+01 2.72727E+00
 -1     19613 2.89419E+01 5.68017E+01 2.72727E+00
 -1     19618 2.95094E+01 5.79154E+01 3.18182E+00
 -1     19619 3.38577E+01 5.52508E+01 3.63636E+00
 -1     19620 2.89419E+01 5.68017E+01 3.63636E+00
 -1     19625 2.95094E+01 5.79154E+01 4.09091E+00
 -1     19626 3.38577E+01 5.52508E+01 4.54545E+00
 -1     19627 2.89419E+01 5.68017E+01 4.54545E+00
 -1     19632 2.95094E+01 5.79154E+01 5.00000E+00
 -1     19633 3.38577E+01 5.52508E+01 5.45455E+00
 -1     19634 2.89419E+01 5.68017E+01 5.45455E+00
 -1     19639 2.95094E+01 5.79154E+01 5.90909E+00
 -1     19640 3.38577E+01 5.52508E+01 6.36364E+00
 -1     19641 2.89419E+01 5.68017E+01 6.36364E+00
 -1     19646 2.95094E+01 5.79154E+01 6.81818E+00
 -1     19647 3.38577E+01 5.52508E+01 7.27273E+00
 -1     19648 2.89419E+01 5.68017E+01 7.27273E+00
 -1     19653 2.95094E+01 5.79154E+01 7.72727E+00
 -1     19654 3.38577E+01 5.52508E+01 8.18182E+00
 -1     19655 2.89419E+01 5.68017E+01 8.18182E+00
 -1     19660 2.95094E+01 5.79154E+01 8.63636E+00
 -1     19661 3.38577E+01 5.52508E+01 9.09091E+00
 -1     19662 2.89419E+01 5.68017E+01 9.09091E+00
 -1     19667 2.95094E+01 5.79154E+01 9.54545E+00
 -1     19671 2.00861E+01 6.18187E+01 4.54545E-01
 -1     19672 2.47977E+01 5.98671E+01 9.09091E-01
 -1     19673 1.96998E+01 6.06299E+01 9.09091E-01
 -1     19678 2.00861E+01 6.18187E+01 1.36364E+00
 -1     19679 2.47977E+01 5.98671E+01 1.81818E+00
 -1     19680 1.96998E+01 6.06299E+01 1.81818E+00
 -1     19685 2.00861E+01 6.18187E+01 2.27273E+00
 -1     19686 2.47977E+01 5.98671E+01 2.72727E+00
 -1     19687 1.96998E+01 6.06299E+01 2.72727E+00
 -1     19692 2.00861E+01 6.18187E+01 3.18182E+00
 -1     19693 2.47977E+01 5.98671E+01 3.63636E+00
 -1     19694 1.96998E+01 6.06299E+01 3.63636E+00
 -1     19699 2.00861E+01 6.18187E+01 4.09091E+00
 -1     19700 2.47977E+01 5.98671E+01 4.54545E+00
 -1     19701 1.96998E+01 6.06299E+01 4.54545E+00
 -1     19706 2.00861E+01 6.18187E+01 5.00000E+00
 -1     19707 2.47977E+01 5.98671E+01 5.45455E+00
 -1     19708 1.96998E+01 6.06299E+01 5.45455E+00
 -1     19713 2.00861E+01 6.18187E+01 5.90909E+00
 -1     19714 2.47977E+01 5.98671E+01 6.36364E+00
 -1     19715 1.96998E+01 6.06299E+01 6.36364E+00
 -1     19720 2.00861E+01 6.18187E+01 6.81818E+00
 -1     19721 2.47977E+01 5.98671E+01 7.27273E+00
 -1     19722 1.96998E+01 6.06299E+01 7.27273E+00
 -1     19727 2.00861E+01 6.18187E+01 7.72727E+00
 -1     19728 2.47977E+01 5.98671E+01 8.18182E+00
 -1     19729 1.96998E+01 6.06299E+01 8.18182E+00
 -1     19734 2.00861E+01 6.18187E+01 8.63636E+00
 -1     19735 2.47977E+01 5.98671E+01 9.09091E+00
 -1     19736 1.96998E+01 6.06299E+01 9.09091E+00
 -1     19741 2.00861E+01 6.18187E+01 9.54545E+00
 -1     19745 1.01682E+01 6.41997E+01 4.54545E-01
 -1     19746 1.51272E+01 6.30092E+01 9.09091E-01
 -1     19747 9.97270E+00 6.29651E+01 9.09091E-01
 -1     19752 1.01682E+01 6.41997E+01 1.36364E+00
 -1     19753 1.51272E+01 6.30092E+01 1.81818E+00
 -1     19754 9.97270E+00 6.29651E+01 1.81818E+00
 -1     19759 1.01682E+01 6.41997E+01 2.27273E+00
 -1     19760 1.51272E+01 6.30092E+01 2.72727E+00
 -1     19761 9.97270E+00 6.29651E+01 2.72727E+00
 -1     19766 1.01682E+01 6.41997E+01 3.18182E+00
 -1     19767 1.51272E+01 6.30092E+01 3.63636E+00
 -1     19768 9.97270E+00 6.29651E+01 3.63636E+00
 -1     19773 1.01682E+01 6.41997E+01 4.09091E+00
 -1     19774 1.51272E+01 6.30092E+01 4.54545E+00
 -1     19775 9.97270E+00 6.29651E+01 4.54545E+00
 -1     19780 1.01682E+01 6.41997E+01 5.00000E+00
 -1     19781 1.51272E+01 6.30092E+01 5.45455E+00
 -1     19782 9.97270E+00 6.29651E+01 5.45455E+00
 -1     19787 1.01682E+01 6.41997E+01 5.90909E+00
 -1     19788 1.51272E+01 6.30092E+01 6.36364E+00
 -1     19789 9.97270E+00 6.29651E+01 6.36364E+00
 -1     19794 1.01682E+01 6.41997E+01 6.81818E+00
 -1     19795 1.51272E+01 6.30092E+01 7.27273E+00
 -1     19796 9.97270E+00 6.29651E+01 7.27273E+00
 -1     19801 1.01682E+01 6.41997E+01 7.72727E+00
 -1     19802 1.51272E+01 6.30092E+01 8.18182E+00
 -1     19803 9.97270E+00 6.29651E+01 8.18182E+00
 -1     19808 1.01682E+01 6.41997E+01 8.63636E+00
 -1     19809 1.51272E+01 6.30092E+01 9.09091E+00
 -1     19810 9.97270E+00 6.29651E+01 9.09091E+00
 -1     19815 1.01682E+01 6.41997E+01 9.54545E+00
 -1     19819 5.08412E+00 6.45999E+01 9.09091E-01
 -1     19823 5.08412E+00 6.45999E+01 1.81818E+00
 -1     19827 5.08412E+00 6.45999E+01 2.72727E+00
 -1     19831 5.08412E+00 6.45999E+01 3.63636E+00
 -1     19835 5.08412E+00 6.45999E+01 4.54545E+00
 -1     19839 5.08412E+00 6.45999E+01 5.45455E+00
 -1     19843 5.08412E+00 6.45999E+01 6.36364E+00
 -1     19847 5.08412E+00 6.45999E+01 7.27273E+00
 -1     19851 5.08412E+00 6.45999E+01 8.18182E+00
 -1     19855 5.08412E+00 6.45999E+01 9.09091E+00
 -1     19861 6.66690E+01 1.05593E+01 4.54545E-01
 -1     19862 6.70845E+01 5.27966E+00 9.09091E-01
 -1     19863 6.54343E+01 1.03638E+01 9.09091E-01
 -1     19868 6.66690E+01 1.05593E+01 1.36364E+00
 -1     19869 6.70845E+01 5.27966E+00 1.81818E+00
 -1     19870 6.54343E+01 1.03638E+01 1.81818E+00
 -1     19875 6.66690E+01 1.05593E+01 2.27273E+00
 -1     19876 6.70845E+01 5.27966E+00 2.72727E+00
 -1     19877 6.54343E+01 1.03638E+01 2.72727E+00
 -1     19882 6.66690E+01 1.05593E+01 3.18182E+00
 -1     19883 6.70845E+01 5.27966E+00 3.63636E+00
 -1     19884 6.54343E+01 1.03638E+01 3.63636E+00
 -1     19889 6.66690E+01 1.05593E+01 4.09091E+00
 -1     19890 6.70845E+01 5.27966E+00 4.54545E+00
 -1     19891 6.54343E+01 1.03638E+01 4.54545E+00
 -1     19896 6.66690E+01 1.05593E+01 5.00000E+00
 -1     19897 6.70845E+01 5.27966E+00 5.45455E+00
 -1     19898 6.54343E+01 1.03638E+01 5.45455E+00
 -1     19903 6.66690E+01 1.05593E+01 5.90909E+00
 -1     19904 6.70845E+01 5.27966E+00 6.36364E+00
 -1     19905 6.54343E+01 1.03638E+01 6.36364E+00
 -1     19910 6.66690E+01 1.05593E+01 6.81818E+00
 -1     19911 6.70845E+01 5.27966E+00 7.27273E+00
 -1     19912 6.54343E+01 1.03638E+01 7.27273E+00
 -1     19917 6.66690E+01 1.05593E+01 7.72727E+00
 -1     19918 6.70845E+01 5.27966E+00 8.18182E+00
 -1     19919 6.54343E+01 1.03638E+01 8.18182E+00
 -1     19924 6.66690E+01 1.05593E+01 8.63636E+00
 -1     19925 6.70845E+01 5.27966E+00 9.09091E+00
 -1     19926 6.54343E+01 1.03638E+01 9.09091E+00
 -1     19931 6.66690E+01 1.05593E+01 9.54545E+00
 -1     19935 6.41963E+01 2.08586E+01 4.54545E-01
 -1     19936 6.54326E+01 1.57090E+01 9.09091E-01
 -1     19937 6.30075E+01 2.04724E+01 9.09091E-01
 -1     19942 6.41963E+01 2.08586E+01 1.36364E+00
 -1     19943 6.54326E+01 1.57090E+01 1.81818E+00
 -1     19944 6.30075E+01 2.04724E+01 1.81818E+00
 -1     19949 6.41963E+01 2.08586E+01 2.27273E+00
 -1     19950 6.54326E+01 1.57090E+01 2.72727E+00
 -1     19951 6.30075E+01 2.04724E+01 2.72727E+00
 -1     19956 6.41963E+01 2.08586E+01 3.18182E+00
 -1     19957 6.54326E+01 1.57090E+01 3.63636E+00
 -1     19958 6.30075E+01 2.04724E+01 3.63636E+00
 -1     19963 6.41963E+01 2.08586E+01 4.09091E+00
 -1     19964 6.54326E+01 1.57090E+01 4.54545E+00
 -1     19965 6.30075E+01 2.04724E+01 4.54545E+00
 -1     19970 6.41963E+01 2.08586E+01 5.00000E+00
 -1     19971 6.54326E+01 1.57090E+01 5.45455E+00
 -1     19972 6.30075E+01 2.04724E+01 5.45455E+00
 -1     19977 6.41963E+01 2.08586E+01 5.90909E+00
 -1     19978 6.54326E+01 1.57090E+01 6.36364E+00
 -1     19979 6.30075E+01 2.04724E+01 6.36364E+00
 -1     19984 6.41963E+01 2.08586E+01 6.81818E+00
 -1     19985 6.54326E+01 1.57090E+01 7.27273E+00
 -1     19986 6.30075E+01 2.04724E+01 7.27273E+00
 -1     19991 6.41963E+01 2.08586E+01 7.72727E+00
 -1     19992 6.54326E+01 1.57090E+01 8.18182E+00
 -1     19993 6.30075E+01 2.04724E+01 8.18182E+00
 -1     19998 6.41963E+01 2.08586E+01 8.63636E+00
 -1     19999 6.54326E+01 1.57090E+01 9.09091E+00
 -1     20000 6.30075E+01 2.04724E+01 9.09091E+00
 -1     20005 6.41963E+01 2.08586E+01 9.54545E+00
 -1     20009 6.01429E+01 3.06444E+01 4.54545E-01
 -1     20010 6.21696E+01 2.57515E+01 9.09091E-01
 -1     20011 5.90292E+01 3.00769E+01 9.09091E-01
 -1     20016 6.01429E+01 3.06444E+01 1.36364E+00
 -1     20017 6.21696E+01 2.57515E+01 1.81818E+00
 -1     20018 5.90292E+01 3.00769E+01 1.81818E+00
 -1     20023 6.01429E+01 3.06444E+01 2.27273E+00
 -1     20024 6.21696E+01 2.57515E+01 2.72727E+00
 -1     20025 5.90292E+01 3.00769E+01 2.72727E+00
 -1     20030 6.01429E+01 3.06444E+01 3.18182E+00
 -1     20031 6.21696E+01 2.57515E+01 3.63636E+00
 -1     20032 5.90292E+01 3.00769E+01 3.63636E+00
 -1     20037 6.01429E+01 3.06444E+01 4.09091E+00
 -1     20038 6.21696E+01 2.57515E+01 4.54545E+00
 -1     20039 5.90292E+01 3.00769E+01 4.54545E+00
 -1     20044 6.01429E+01 3.06444E+01 5.00000E+00
 -1     20045 6.21696E+01 2.57515E+01 5.45455E+00
 -1     20046 5.90292E+01 3.00769E+01 5.45455E+00
 -1     20051 6.01429E+01 3.06444E+01 5.90909E+00
 -1     20052 6.21696E+01 2.57515E+01 6.36364E+00
 -1     20053 5.90292E+01 3.00769E+01 6.36364E+00
 -1     20058 6.01429E+01 3.06444E+01 6.81818E+00
 -1     20059 6.21696E+01 2.57515E+01 7.27273E+00
 -1     20060 5.90292E+01 3.00769E+01 7.27273E+00
 -1     20065 6.01429E+01 3.06444E+01 7.72727E+00
 -1     20066 6.21696E+01 2.57515E+01 8.18182E+00
 -1     20067 5.90292E+01 3.00769E+01 8.18182E+00
 -1     20072 6.01429E+01 3.06444E+01 8.63636E+00
 -1     20073 6.21696E+01 2.57515E+01 9.09091E+00
 -1     20074 5.90292E+01 3.00769E+01 9.09091E+00
 -1     20079 6.01429E+01 3.06444E+01 9.54545E+00
 -1     20083 5.46086E+01 3.96755E+01 4.54545E-01
 -1     20084 5.73758E+01 3.51599E+01 9.09091E-01
 -1     20085 5.35974E+01 3.89408E+01 9.09091E-01
 -1     20090 5.46086E+01 3.96755E+01 1.36364E+00
 -1     20091 5.73758E+01 3.51599E+01 1.81818E+00
 -1     20092 5.35974E+01 3.89408E+01 1.81818E+00
 -1     20097 5.46086E+01 3.96755E+01 2.27273E+00
 -1     20098 5.73758E+01 3.51599E+01 2.72727E+00
 -1     20099 5.35974E+01 3.89408E+01 2.72727E+00
 -1     20104 5.46086E+01 3.96755E+01 3.18182E+00
 -1     20105 5.73758E+01 3.51599E+01 3.63636E+00
 -1     20106 5.35974E+01 3.89408E+01 3.63636E+00
 -1     20111 5.46086E+01 3.96755E+01 4.09091E+00
 -1     20112 5.73758E+01 3.51599E+01 4.54545E+00
 -1     20113 5.35974E+01 3.89408E+01 4.54545E+00
 -1     20118 5.46086E+01 3.96755E+01 5.00000E+00
 -1     20119 5.73758E+01 3.51599E+01 5.45455E+00
 -1     20120 5.35974E+01 3.89408E+01 5.45455E+00
 -1     20125 5.46086E+01 3.96755E+01 5.90909E+00
 -1     20126 5.73758E+01 3.51599E+01 6.36364E+00
 -1     20127 5.35974E+01 3.89408E+01 6.36364E+00
 -1     20132 5.46086E+01 3.96755E+01 6.81818E+00
 -1     20133 5.73758E+01 3.51599E+01 7.27273E+00
 -1     20134 5.35974E+01 3.89408E+01 7.27273E+00
 -1     20139 5.46086E+01 3.96755E+01 7.72727E+00
 -1     20140 5.73758E+01 3.51599E+01 8.18182E+00
 -1     20141 5.35974E+01 3.89408E+01 8.18182E+00
 -1     20146 5.46086E+01 3.96755E+01 8.63636E+00
 -1     20147 5.73758E+01 3.51599E+01 9.09091E+00
 -1     20148 5.35974E+01 3.89408E+01 9.09091E+00
 -1     20153 5.46086E+01 3.96755E+01 9.54545E+00
 -1     20157 4.77297E+01 4.77297E+01 4.54545E-01
 -1     20158 5.11692E+01 4.37026E+01 9.09091E-01
 -1     20159 4.68458E+01 4.68458E+01 9.09091E-01
 -1     20164 4.77297E+01 4.77297E+01 1.36364E+00
 -1     20165 5.11692E+01 4.37026E+01 1.81818E+00
 -1     20166 4.68458E+01 4.68458E+01 1.81818E+00
 -1     20171 4.77297E+01 4.77297E+01 2.27273E+00
 -1     20172 5.11692E+01 4.37026E+01 2.72727E+00
 -1     20173 4.68458E+01 4.68458E+01 2.72727E+00
 -1     20178 4.77297E+01 4.77297E+01 3.18182E+00
 -1     20179 5.11692E+01 4.37026E+01 3.63636E+00
 -1     20180 4.68458E+01 4.68458E+01 3.63636E+00
 -1     20185 4.77297E+01 4.77297E+01 4.09091E+00
 -1     20186 5.11692E+01 4.37026E+01 4.54545E+00
 -1     20187 4.68458E+01 4.68458E+01 4.54545E+00
 -1     20192 4.77297E+01 4.77297E+01 5.00000E+00
 -1     20193 5.11692E+01 4.37026E+01 5.45455E+00
 -1     20194 4.68458E+01 4.68458E+01 5.45455E+00
 -1     20199 4.77297E+01 4.77297E+01 5.90909E+00
 -1     20200 5.11692E+01 4.37026E+01 6.36364E+00
 -1     20201 4.68458E+01 4.68458E+01 6.36364E+00
 -1     20206 4.77297E+01 4.77297E+01 6.81818E+00
 -1     20207 5.11692E+01 4.37026E+01 7.27273E+00
 -1     20208 4.68458E+01 4.68458E+01 7.27273E+00
 -1     20213 4.77297E+01 4.77297E+01 7.72727E+00
 -1     20214 5.11692E+01 4.37026E+01 8.18182E+00
 -1     20215 4.68458E+01 4.68458E+01 8.18182E+00
 -1     20220 4.77297E+01 4.77297E+01 8.63636E+00
 -1     20221 5.11692E+01 4.37026E+01 9.09091E+00
 -1     20222 4.68458E+01 4.68458E+01 9.09091E+00
 -1     20227 4.77297E+01 4.77297E+01 9.54545E+00
 -1     20231 3.96755E+01 5.46086E+01 4.54545E-01
 -1     20232 4.37026E+01 5.11692E+01 9.09091E-01
 -1     20233 3.89408E+01 5.35974E+01 9.09091E-01
 -1     20238 3.96755E+01 5.46086E+01 1.36364E+00
 -1     20239 4.37026E+01 5.11692E+01 1.81818E+00
 -1     20240 3.89408E+01 5.35974E+01 1.81818E+00
 -1     20245 3.96755E+01 5.46086E+01 2.27273E+00
 -1     20246 4.37026E+01 5.11692E+01 2.72727E+00
 -1     20247 3.89408E+01 5.35974E+01 2.72727E+00
 -1     20252 3.96755E+01 5.46086E+01 3.18182E+00
 -1     20253 4.37026E+01 5.11692E+01 3.63636E+00
 -1     20254 3.89408E+01 5.35974E+01 3.63636E+00
 -1     20259 3.96755E+01 5.46086E+01 4.09091E+00
 -1     20260 4.37026E+01 5.11692E+01 4.54545E+00
 -1     20261 3.89408E+01 5.35974E+01 4.54545E+00
 -1     20266 3.96755E+01 5.46086E+01 5.00000E+00
 -1     20267 4.37026E+01 5.11692E+01 5.45455E+00
 -1     20268 3.89408E+01 5.35974E+01 5.45455E+00
 -1     20273 3.96755E+01 5.46086E+01 5.90909E+00
 -1     20274 4.37026E+01 5.11692E+01 6.36364E+00
 -1     20275 3.89408E+01 5.35974E+01 6.36364E+00
 -1     20280 3.96755E+01 5.46086E+01 6.81818E+00
 -1     20281 4.37026E+01 5.11692E+01 7.27273E+00
 -1     20282 3.89408E+01 5.35974E+01 7.27273E+00
 -1     20287 3.96755E+01 5.46086E+01 7.72727E+00
 -1     20288 4.37026E+01 5.11692E+01 8.18182E+00
 -1     20289 3.89408E+01 5.35974E+01 8.18182E+00
 -1     20294 3.96755E+01 5.46086E+01 8.63636E+00
 -1     20295 4.37026E+01 5.11692E+01 9.09091E+00
 -1     20296 3.89408E+01 5.35974E+01 9.09091E+00
 -1     20301 3.96755E+01 5.46086E+01 9.54545E+00
 -1     20305 3.06444E+01 6.01429E+01 4.54545E-01
 -1     20306 3.51599E+01 5.73758E+01 9.09091E-01
 -1     20307 3.00769E+01 5.90292E+01 9.09091E-01
 -1     20312 3.06444E+01 6.01429E+01 1.36364E+00
 -1     20313 3.51599E+01 5.73758E+01 1.81818E+00
 -1     20314 3.00769E+01 5.90292E+01 1.81818E+00
 -1     20319 3.06444E+01 6.01429E+01 2.27273E+00
 -1     20320 3.51599E+01 5.73758E+01 2.72727E+00
 -1     20321 3.00769E+01 5.90292E+01 2.72727E+00
 -1     20326 3.06444E+01 6.01429E+01 3.18182E+00
 -1     20327 3.51599E+01 5.73758E+01 3.63636E+00
 -1     20328 3.00769E+01 5.90292E+01 3.63636E+00
 -1     20333 3.06444E+01 6.01429E+01 4.09091E+00
 -1     20334 3.51599E+01 5.73758E+01 4.54545E+00
 -1     20335 3.00769E+01 5.90292E+01 4.54545E+00
 -1     20340 3.06444E+01 6.01429E+01 5.00000E+00
 -1     20341 3.51599E+01 5.73758E+01 5.45455E+00
 -1     20342 3.00769E+01 5.90292E+01 5.45455E+00
 -1     20347 3.06444E+01 6.01429E+01 5.90909E+00
 -1     20348 3.51599E+01 5.73758E+01 6.36364E+00
 -1     20349 3.00769E+01 5.90292E+01 6.36364E+00
 -1     20354 3.06444E+01 6.01429E+01 6.81818E+00
 -1     20355 3.51599E+01 5.73758E+01 7.27273E+00
 -1     20356 3.00769E+01 5.90292E+01 7.27273E+00
 -1     20361 3.06444E+01 6.01429E+01 7.72727E+00
 -1     20362 3.51599E+01 5.73758E+01 8.18182E+00
 -1     20363 3.00769E+01 5.90292E+01 8.18182E+00
 -1     20368 3.06444E+01 6.01429E+01 8.63636E+00
 -1     20369 3.51599E+01 5.73758E+01 9.09091E+00
 -1     20370 3.00769E+01 5.90292E+01 9.09091E+00
 -1     20375 3.06444E+01 6.01429E+01 9.54545E+00
 -1     20379 2.08586E+01 6.41963E+01 4.54545E-01
 -1     20380 2.57515E+01 6.21696E+01 9.09091E-01
 -1     20381 2.04724E+01 6.30075E+01 9.09091E-01
 -1     20386 2.08586E+01 6.41963E+01 1.36364E+00
 -1     20387 2.57515E+01 6.21696E+01 1.81818E+00
 -1     20388 2.04724E+01 6.30075E+01 1.81818E+00
 -1     20393 2.08586E+01 6.41963E+01 2.27273E+00
 -1     20394 2.57515E+01 6.21696E+01 2.72727E+00
 -1     20395 2.04724E+01 6.30075E+01 2.72727E+00
 -1     20400 2.08586E+01 6.41963E+01 3.18182E+00
 -1     20401 2.57515E+01 6.21696E+01 3.63636E+00
 -1     20402 2.04724E+01 6.30075E+01 3.63636E+00
 -1     20407 2.08586E+01 6.41963E+01 4.09091E+00
 -1     20408 2.57515E+01 6.21696E+01 4.54545E+00
 -1     20409 2.04724E+01 6.30075E+01 4.54545E+00
 -1     20414 2.08586E+01 6.41963E+01 5.00000E+00
 -1     20415 2.57515E+01 6.21696E+01 5.45455E+00
 -1     20416 2.04724E+01 6.30075E+01 5.45455E+00
 -1     20421 2.08586E+01 6.41963E+01 5.90909E+00
 -1     20422 2.57515E+01 6.21696E+01 6.36364E+00
 -1     20423 2.04724E+01 6.30075E+01 6.36364E+00
 -1     20428 2.08586E+01 6.41963E+01 6.81818E+00
 -1     20429 2.57515E+01 6.21696E+01 7.27273E+00
 -1     20430 2.04724E+01 6.30075E+01 7.27273E+00
 -1     20435 2.08586E+01 6.41963E+01 7.72727E+00
 -1     20436 2.57515E+01 6.21696E+01 8.18182E+00
 -1     20437 2.04724E+01 6.30075E+01 8.18182E+00
 -1     20442 2.08586E+01 6.41963E+01 8.63636E+00
 -1     20443 2.57515E+01 6.21696E+01 9.09091E+00
 -1     20444 2.04724E+01 6.30075E+01 9.09091E+00
 -1     20449 2.08586E+01 6.41963E+01 9.54545E+00
 -1     20453 1.05593E+01 6.66690E+01 4.54545E-01
 -1     20454 1.57090E+01 6.54326E+01 9.09091E-01
 -1     20455 1.03638E+01 6.54343E+01 9.09091E-01
 -1     20460 1.05593E+01 6.66690E+01 1.36364E+00
 -1     20461 1.57090E+01 6.54326E+01 1.81818E+00
 -1     20462 1.03638E+01 6.54343E+01 1.81818E+00
 -1     20467 1.05593E+01 6.66690E+01 2.27273E+00
 -1     20468 1.57090E+01 6.54326E+01 2.72727E+00
 -1     20469 1.03638E+01 6.54343E+01 2.72727E+00
 -1     20474 1.05593E+01 6.66690E+01 3.18182E+00
 -1     20475 1.57090E+01 6.54326E+01 3.63636E+00
 -1     20476 1.03638E+01 6.54343E+01 3.63636E+00
 -1     20481 1.05593E+01 6.66690E+01 4.09091E+00
 -1     20482 1.57090E+01 6.54326E+01 4.54545E+00
 -1     20483 1.03638E+01 6.54343E+01 4.54545E+00
 -1     20488 1.05593E+01 6.66690E+01 5.00000E+00
 -1     20489 1.57090E+01 6.54326E+01 5.45455E+00
 -1     20490 1.03638E+01 6.54343E+01 5.45455E+00
 -1     20495 1.05593E+01 6.66690E+01 5.90909E+00
 -1     20496 1.57090E+01 6.54326E+01 6.36364E+00
 -1     20497 1.03638E+01 6.54343E+01 6.36364E+00
 -1     20502 1.05593E+01 6.66690E+01 6.81818E+00
 -1     20503 1.57090E+01 6.54326E+01 7.27273E+00
 -1     20504 1.03638E+01 6.54343E+01 7.27273E+00
 -1     20509 1.05593E+01 6.66690E+01 7.72727E+00
 -1     20510 1.57090E+01 6.54326E+01 8.18182E+00
 -1     20511 1.03638E+01 6.54343E+01 8.18182E+00
 -1     20516 1.05593E+01 6.66690E+01 8.63636E+00
 -1     20517 1.57090E+01 6.54326E+01 9.09091E+00
 -1     20518 1.03638E+01 6.54343E+01 9.09091E+00
 -1     20523 1.05593E+01 6.66690E+01 9.54545E+00
 -1     20527 5.27966E+00 6.70845E+01 9.09091E-01
 -1     20531 5.27966E+00 6.70845E+01 1.81818E+00
 -1     20535 5.27966E+00 6.70845E+01 2.72727E+00
 -1     20539 5.27966E+00 6.70845E+01 3.63636E+00
 -1     20543 5.27966E+00 6.70845E+01 4.54545E+00
 -1     20547 5.27966E+00 6.70845E+01 5.45455E+00
 -1     20551 5.27966E+00 6.70845E+01 6.36364E+00
 -1     20555 5.27966E+00 6.70845E+01 7.27273E+00
 -1     20559 5.27966E+00 6.70845E+01 8.18182E+00
 -1     20563 5.27966E+00 6.70845E+01 9.09091E+00
 -1     20569 6.91382E+01 1.09504E+01 4.54545E-01
 -1     20570 6.95691E+01 5.47521E+00 9.09091E-01
 -1     20571 6.79036E+01 1.07549E+01 9.09091E-01
 -1     20576 6.91382E+01 1.09504E+01 1.36364E+00
 -1     20577 6.95691E+01 5.47521E+00 1.81818E+00
 -1     20578 6.79036E+01 1.07549E+01 1.81818E+00
 -1     20583 6.91382E+01 1.09504E+01 2.27273E+00
 -1     20584 6.95691E+01 5.47521E+00 2.72727E+00
 -1     20585 6.79036E+01 1.07549E+01 2.72727E+00
 -1     20590 6.91382E+01 1.09504E+01 3.18182E+00
 -1     20591 6.95691E+01 5.47521E+00 3.63636E+00
 -1     20592 6.79036E+01 1.07549E+01 3.63636E+00
 -1     20597 6.91382E+01 1.09504E+01 4.09091E+00
 -1     20598 6.95691E+01 5.47521E+00 4.54545E+00
 -1     20599 6.79036E+01 1.07549E+01 4.54545E+00
 -1     20604 6.91382E+01 1.09504E+01 5.00000E+00
 -1     20605 6.95691E+01 5.47521E+00 5.45455E+00
 -1     20606 6.79036E+01 1.07549E+01 5.45455E+00
 -1     20611 6.91382E+01 1.09504E+01 5.90909E+00
 -1     20612 6.95691E+01 5.47521E+00 6.36364E+00
 -1     20613 6.79036E+01 1.07549E+01 6.36364E+00
 -1     20618 6.91382E+01 1.09504E+01 6.81818E+00
 -1     20619 6.95691E+01 5.47521E+00 7.27273E+00
 -1     20620 6.79036E+01 1.07549E+01 7.27273E+00
 -1     20625 6.91382E+01 1.09504E+01 7.72727E+00
 -1     20626 6.95691E+01 5.47521E+00 8.18182E+00
 -1     20627 6.79036E+01 1.07549E+01 8.18182E+00
 -1     20632 6.91382E+01 1.09504E+01 8.63636E+00
 -1     20633 6.95691E+01 5.47521E+00 9.09091E+00
 -1     20634 6.79036E+01 1.07549E+01 9.09091E+00
 -1     20639 6.91382E+01 1.09504E+01 9.54545E+00
 -1     20643 6.65740E+01 2.16312E+01 4.54545E-01
 -1     20644 6.78561E+01 1.62908E+01 9.09091E-01
 -1     20645 6.53851E+01 2.12449E+01 9.09091E-01
 -1     20650 6.65740E+01 2.16312E+01 1.36364E+00
 -1     20651 6.78561E+01 1.62908E+01 1.81818E+00
 -1     20652 6.53851E+01 2.12449E+01 1.81818E+00
 -1     20657 6.65740E+01 2.16312E+01 2.27273E+00
 -1     20658 6.78561E+01 1.62908E+01 2.72727E+00
 -1     20659 6.53851E+01 2.12449E+01 2.72727E+00
 -1     20664 6.65740E+01 2.16312E+01 3.18182E+00
 -1     20665 6.78561E+01 1.62908E+01 3.63636E+00
 -1     20666 6.53851E+01 2.12449E+01 3.63636E+00
 -1     20671 6.65740E+01 2.16312E+01 4.09091E+00
 -1     20672 6.78561E+01 1.62908E+01 4.54545E+00
 -1     20673 6.53851E+01 2.12449E+01 4.54545E+00
 -1     20678 6.65740E+01 2.16312E+01 5.00000E+00
 -1     20679 6.78561E+01 1.62908E+01 5.45455E+00
 -1     20680 6.53851E+01 2.12449E+01 5.45455E+00
 -1     20685 6.65740E+01 2.16312E+01 5.90909E+00
 -1     20686 6.78561E+01 1.62908E+01 6.36364E+00
 -1     20687 6.53851E+01 2.12449E+01 6.36364E+00
 -1     20692 6.65740E+01 2.16312E+01 6.81818E+00
 -1     20693 6.78561E+01 1.62908E+01 7.27273E+00
 -1     20694 6.53851E+01 2.12449E+01 7.27273E+00
 -1     20699 6.65740E+01 2.16312E+01 7.72727E+00
 -1     20700 6.78561E+01 1.62908E+01 8.18182E+00
 -1     20701 6.53851E+01 2.12449E+01 8.18182E+00
 -1     20706 6.65740E+01 2.16312E+01 8.63636E+00
 -1     20707 6.78561E+01 1.62908E+01 9.09091E+00
 -1     20708 6.53851E+01 2.12449E+01 9.09091E+00
 -1     20713 6.65740E+01 2.16312E+01 9.54545E+00
 -1     20717 6.23705E+01 3.17793E+01 4.54545E-01
 -1     20718 6.44722E+01 2.67053E+01 9.09091E-01
 -1     20719 6.12567E+01 3.12118E+01 9.09091E-01
 -1     20724 6.23705E+01 3.17793E+01 1.36364E+00
 -1     20725 6.44722E+01 2.67053E+01 1.81818E+00
 -1     20726 6.12567E+01 3.12118E+01 1.81818E+00
 -1     20731 6.23705E+01 3.17793E+01 2.27273E+00
 -1     20732 6.44722E+01 2.67053E+01 2.72727E+00
 -1     20733 6.12567E+01 3.12118E+01 2.72727E+00
 -1     20738 6.23705E+01 3.17793E+01 3.18182E+00
 -1     20739 6.44722E+01 2.67053E+01 3.63636E+00
 -1     20740 6.12567E+01 3.12118E+01 3.63636E+00
 -1     20745 6.23705E+01 3.17793E+01 4.09091E+00
 -1     20746 6.44722E+01 2.67053E+01 4.54545E+00
 -1     20747 6.12567E+01 3.12118E+01 4.54545E+00
 -1     20752 6.23705E+01 3.17793E+01 5.00000E+00
 -1     20753 6.44722E+01 2.67053E+01 5.45455E+00
 -1     20754 6.12567E+01 3.12118E+01 5.45455E+00
 -1     20759 6.23705E+01 3.17793E+01 5.90909E+00
 -1     20760 6.44722E+01 2.67053E+01 6.36364E+00
 -1     20761 6.12567E+01 3.12118E+01 6.36364E+00
 -1     20766 6.23705E+01 3.17793E+01 6.81818E+00
 -1     20767 6.44722E+01 2.67053E+01 7.27273E+00
 -1     20768 6.12567E+01 3.12118E+01 7.27273E+00
 -1     20773 6.23705E+01 3.17793E+01 7.72727E+00
 -1     20774 6.44722E+01 2.67053E+01 8.18182E+00
 -1     20775 6.12567E+01 3.12118E+01 8.18182E+00
 -1     20780 6.23705E+01 3.17793E+01 8.63636E+00
 -1     20781 6.44722E+01 2.67053E+01 9.09091E+00
 -1     20782 6.12567E+01 3.12118E+01 9.09091E+00
 -1     20787 6.23705E+01 3.17793E+01 9.54545E+00
 -1     20791 5.66312E+01 4.11450E+01 4.54545E-01
 -1     20792 5.95008E+01 3.64622E+01 9.09091E-01
 -1     20793 5.56199E+01 4.04102E+01 9.09091E-01
 -1     20798 5.66312E+01 4.11450E+01 1.36364E+00
 -1     20799 5.95008E+01 3.64622E+01 1.81818E+00
 -1     20800 5.56199E+01 4.04102E+01 1.81818E+00
 -1     20805 5.66312E+01 4.11450E+01 2.27273E+00
 -1     20806 5.95008E+01 3.64622E+01 2.72727E+00
 -1     20807 5.56199E+01 4.04102E+01 2.72727E+00
 -1     20812 5.66312E+01 4.11450E+01 3.18182E+00
 -1     20813 5.95008E+01 3.64622E+01 3.63636E+00
 -1     20814 5.56199E+01 4.04102E+01 3.63636E+00
 -1     20819 5.66312E+01 4.11450E+01 4.09091E+00
 -1     20820 5.95008E+01 3.64622E+01 4.54545E+00
 -1     20821 5.56199E+01 4.04102E+01 4.54545E+00
 -1     20826 5.66312E+01 4.11450E+01 5.00000E+00
 -1     20827 5.95008E+01 3.64622E+01 5.45455E+00
 -1     20828 5.56199E+01 4.04102E+01 5.45455E+00
 -1     20833 5.66312E+01 4.11450E+01 5.90909E+00
 -1     20834 5.95008E+01 3.64622E+01 6.36364E+00
 -1     20835 5.56199E+01 4.04102E+01 6.36364E+00
 -1     20840 5.66312E+01 4.11450E+01 6.81818E+00
 -1     20841 5.95008E+01 3.64622E+01 7.27273E+00
 -1     20842 5.56199E+01 4.04102E+01 7.27273E+00
 -1     20847 5.66312E+01 4.11450E+01 7.72727E+00
 -1     20848 5.95008E+01 3.64622E+01 8.18182E+00
 -1     20849 5.56199E+01 4.04102E+01 8.18182E+00
 -1     20854 5.66312E+01 4.11450E+01 8.63636E+00
 -1     20855 5.95008E+01 3.64622E+01 9.09091E+00
 -1     20856 5.56199E+01 4.04102E+01 9.09091E+00
 -1     20861 5.66312E+01 4.11450E+01 9.54545E+00
 -1     20865 4.94975E+01 4.94975E+01 4.54545E-01
 -1     20866 5.30643E+01 4.53212E+01 9.09091E-01
 -1     20867 4.86136E+01 4.86136E+01 9.09091E-01
 -1     20872 4.94975E+01 4.94975E+01 1.36364E+00
 -1     20873 5.30643E+01 4.53212E+01 1.81818E+00
 -1     20874 4.86136E+01 4.86136E+01 1.81818E+00
 -1     20879 4.94975E+01 4.94975E+01 2.27273E+00
 -1     20880 5.30643E+01 4.53212E+01 2.72727E+00
 -1     20881 4.86136E+01 4.86136E+01 2.72727E+00
 -1     20886 4.94975E+01 4.94975E+01 3.18182E+00
 -1     20887 5.30643E+01 4.53212E+01 3.63636E+00
 -1     20888 4.86136E+01 4.86136E+01 3.63636E+00
 -1     20893 4.94975E+01 4.94975E+01 4.09091E+00
 -1     20894 5.30643E+01 4.53212E+01 4.54545E+00
 -1     20895 4.86136E+01 4.86136E+01 4.54545E+00
 -1     20900 4.94975E+01 4.94975E+01 5.00000E+00
 -1     20901 5.30643E+01 4.53212E+01 5.45455E+00
 -1     20902 4.86136E+01 4.86136E+01 5.45455E+00
 -1     20907 4.94975E+01 4.94975E+01 5.90909E+00
 -1     20908 5.30643E+01 4.53212E+01 6.36364E+00
 -1     20909 4.86136E+01 4.86136E+01 6.36364E+00
 -1     20914 4.94975E+01 4.94975E+01 6.81818E+00
 -1     20915 5.30643E+01 4.53212E+01 7.27273E+00
 -1     20916 4.86136E+01 4.86136E+01 7.27273E+00
 -1     20921 4.94975E+01 4.94975E+01 7.72727E+00
 -1     20922 5.30643E+01 4.53212E+01 8.18182E+00
 -1     20923 4.86136E+01 4.86136E+01 8.18182E+00
 -1     20928 4.94975E+01 4.94975E+01 8.63636E+00
 -1     20929 5.30643E+01 4.53212E+01 9.09091E+00
 -1     20930 4.86136E+01 4.86136E+01 9.09091E+00
 -1     20935 4.94975E+01 4.94975E+01 9.54545E+00
 -1     20939 4.11450E+01 5.66312E+01 4.54545E-01
 -1     20940 4.53212E+01 5.30643E+01 9.09091E-01
 -1     20941 4.04102E+01 5.56199E+01 9.09091E-01
 -1     20946 4.11450E+01 5.66312E+01 1.36364E+00
 -1     20947 4.53212E+01 5.30643E+01 1.81818E+00
 -1     20948 4.04102E+01 5.56199E+01 1.81818E+00
 -1     20953 4.11450E+01 5.66312E+01 2.27273E+00
 -1     20954 4.53212E+01 5.30643E+01 2.72727E+00
 -1     20955 4.04102E+01 5.56199E+01 2.72727E+00
 -1     20960 4.11450E+01 5.66312E+01 3.18182E+00
 -1     20961 4.53212E+01 5.30643E+01 3.63636E+00
 -1     20962 4.04102E+01 5.56199E+01 3.63636E+00
 -1     20967 4.11450E+01 5.66312E+01 4.09091E+00
 -1     20968 4.53212E+01 5.30643E+01 4.54545E+00
 -1     20969 4.04102E+01 5.56199E+01 4.54545E+00
 -1     20974 4.11450E+01 5.66312E+01 5.00000E+00
 -1     20975 4.53212E+01 5.30643E+01 5.45455E+00
 -1     20976 4.04102E+01 5.56199E+01 5.45455E+00
 -1     20981 4.11450E+01 5.66312E+01 5.90909E+00
 -1     20982 4.53212E+01 5.30643E+01 6.36364E+00
 -1     20983 4.04102E+01 5.56199E+01 6.36364E+00
 -1     20988 4.11450E+01 5.66312E+01 6.81818E+00
 -1     20989 4.53212E+01 5.30643E+01 7.27273E+00
 -1     20990 4.04102E+01 5.56199E+01 7.27273E+00
 -1     20995 4.11450E+01 5.66312E+01 7.72727E+00
 -1     20996 4.53212E+01 5.30643E+01 8.18182E+00
 -1     20997 4.04102E+01 5.56199E+01 8.18182E+00
 -1     21002 4.11450E+01 5.66312E+01 8.63636E+00
 -1     21003 4.53212E+01 5.30643E+01 9.09091E+00
 -1     21004 4.04102E+01 5.56199E+01 9.09091E+00
 -1     21009 4.11450E+01 5.66312E+01 9.54545E+00
 -1     21013 3.17793E+01 6.23705E+01 4.54545E-01
 -1     21014 3.64622E+01 5.95008E+01 9.09091E-01
 -1     21015 3.12118E+01 6.12567E+01 9.09091E-01
 -1     21020 3.17793E+01 6.23705E+01 1.36364E+00
 -1     21021 3.64622E+01 5.95008E+01 1.81818E+00
 -1     21022 3.12118E+01 6.12567E+01 1.81818E+00
 -1     21027 3.17793E+01 6.23705E+01 2.27273E+00
 -1     21028 3.64622E+01 5.95008E+01 2.72727E+00
 -1     21029 3.12118E+01 6.12567E+01 2.72727E+00
 -1     21034 3.17793E+01 6.23705E+01 3.18182E+00
 -1     21035 3.64622E+01 5.95008E+01 3.63636E+00
 -1     21036 3.12118E+01 6.12567E+01 3.63636E+00
 -1     21041 3.17793E+01 6.23705E+01 4.09091E+00
 -1     21042 3.64622E+01 5.95008E+01 4.54545E+00
 -1     21043 3.12118E+01 6.12567E+01 4.54545E+00
 -1     21048 3.17793E+01 6.23705E+01 5.00000E+00
 -1     21049 3.64622E+01 5.95008E+01 5.45455E+00
 -1     21050 3.12118E+01 6.12567E+01 5.45455E+00
 -1     21055 3.17793E+01 6.23705E+01 5.90909E+00
 -1     21056 3.64622E+01 5.95008E+01 6.36364E+00
 -1     21057 3.12118E+01 6.12567E+01 6.36364E+00
 -1     21062 3.17793E+01 6.23705E+01 6.81818E+00
 -1     21063 3.64622E+01 5.95008E+01 7.27273E+00
 -1     21064 3.12118E+01 6.12567E+01 7.27273E+00
 -1     21069 3.17793E+01 6.23705E+01 7.72727E+00
 -1     21070 3.64622E+01 5.95008E+01 8.18182E+00
 -1     21071 3.12118E+01 6.12567E+01 8.18182E+00
 -1     21076 3.17793E+01 6.23705E+01 8.63636E+00
 -1     21077 3.64622E+01 5.95008E+01 9.09091E+00
 -1     21078 3.12118E+01 6.12567E+01 9.09091E+00
 -1     21083 3.17793E+01 6.23705E+01 9.54545E+00
 -1     21087 2.16312E+01 6.65740E+01 4.54545E-01
 -1     21088 2.67053E+01 6.44722E+01 9.09091E-01
 -1     21089 2.12449E+01 6.53851E+01 9.09091E-01
 -1     21094 2.16312E+01 6.65740E+01 1.36364E+00
 -1     21095 2.67053E+01 6.44722E+01 1.81818E+00
 -1     21096 2.12449E+01 6.53851E+01 1.81818E+00
 -1     21101 2.16312E+01 6.65740E+01 2.27273E+00
 -1     21102 2.67053E+01 6.44722E+01 2.72727E+00
 -1     21103 2.12449E+01 6.53851E+01 2.72727E+00
 -1     21108 2.16312E+01 6.65740E+01 3.18182E+00
 -1     21109 2.67053E+01 6.44722E+01 3.63636E+00
 -1     21110 2.12449E+01 6.53851E+01 3.63636E+00
 -1     21115 2.16312E+01 6.65740E+01 4.09091E+00
 -1     21116 2.67053E+01 6.44722E+01 4.54545E+00
 -1     21117 2.12449E+01 6.53851E+01 4.54545E+00
 -1     21122 2.16312E+01 6.65740E+01 5.00000E+00
 -1     21123 2.67053E+01 6.44722E+01 5.45455E+00
 -1     21124 2.12449E+01 6.53851E+01 5.45455E+00
 -1     21129 2.16312E+01 6.65740E+01 5.90909E+00
 -1     21130 2.67053E+01 6.44722E+01 6.36364E+00
 -1     21131 2.12449E+01 6.53851E+01 6.36364E+00
 -1     21136 2.16312E+01 6.65740E+01 6.81818E+00
 -1     21137 2.67053E+01 6.44722E+01 7.27273E+00
 -1     21138 2.12449E+01 6.53851E+01 7.27273E+00
 -1     21143 2.16312E+01 6.65740E+01 7.72727E+00
 -1     21144 2.67053E+01 6.44722E+01 8.18182E+00
 -1     21145 2.12449E+01 6.53851E+01 8.18182E+00
 -1     21150 2.16312E+01 6.65740E+01 8.63636E+00
 -1     21151 2.67053E+01 6.44722E+01 9.09091E+00
 -1     21152 2.12449E+01 6.53851E+01 9.09091E+00
 -1     21157 2.16312E+01 6.65740E+01 9.54545E+00
 -1     21161 1.09504E+01 6.91382E+01 4.54545E-01
 -1     21162 1.62908E+01 6.78561E+01 9.09091E-01
 -1     21163 1.07549E+01 6.79036E+01 9.09091E-01
 -1     21168 1.09504E+01 6.91382E+01 1.36364E+00
 -1     21169 1.62908E+01 6.78561E+01 1.81818E+00
 -1     21170 1.07549E+01 6.79036E+01 1.81818E+00
 -1     21175 1.09504E+01 6.91382E+01 2.27273E+00
 -1     21176 1.62908E+01 6.78561E+01 2.72727E+00
 -1     21177 1.07549E+01 6.79036E+01 2.72727E+00
 -1     21182 1.09504E+01 6.91382E+01 3.18182E+00
 -1     21183 1.62908E+01 6.78561E+01 3.63636E+00
 -1     21184 1.07549E+01 6.79036E+01 3.63636E+00
 -1     21189 1.09504E+01 6.91382E+01 4.09091E+00
 -1     21190 1.62908E+01 6.78561E+01 4.54545E+00
 -1     21191 1.07549E+01 6.79036E+01 4.54545E+00
 -1     21196 1.09504E+01 6.91382E+01 5.00000E+00
 -1     21197 1.62908E+01 6.78561E+01 5.45455E+00
 -1     21198 1.07549E+01 6.79036E+01 5.45455E+00
 -1     21203 1.09504E+01 6.91382E+01 5.90909E+00
 -1     21204 1.62908E+01 6.78561E+01 6.36364E+00
 -1     21205 1.07549E+01 6.79036E+01 6.36364E+00
 -1     21210 1.09504E+01 6.91382E+01 6.81818E+00
 -1     21211 1.62908E+01 6.78561E+01 7.27273E+00
 -1     21212 1.07549E+01 6.79036E+01 7.27273E+00
 -1     21217 1.09504E+01 6.91382E+01 7.72727E+00
 -1     21218 1.62908E+01 6.78561E+01 8.18182E+00
 -1     21219 1.07549E+01 6.79036E+01 8.18182E+00
 -1     21224 1.09504E+01 6.91382E+01 8.63636E+00
 -1     21225 1.62908E+01 6.78561E+01 9.09091E+00
 -1     21226 1.07549E+01 6.79036E+01 9.09091E+00
 -1     21231 1.09504E+01 6.91382E+01 9.54545E+00
 -1     21235 5.47521E+00 6.95691E+01 9.09091E-01
 -1     21239 5.47521E+00 6.95691E+01 1.81818E+00
 -1     21243 5.47521E+00 6.95691E+01 2.72727E+00
 -1     21247 5.47521E+00 6.95691E+01 3.63636E+00
 -1     21251 5.47521E+00 6.95691E+01 4.54545E+00
 -1     21255 5.47521E+00 6.95691E+01 5.45455E+00
 -1     21259 5.47521E+00 6.95691E+01 6.36364E+00
 -1     21263 5.47521E+00 6.95691E+01 7.27273E+00
 -1     21267 5.47521E+00 6.95691E+01 8.18182E+00
 -1     21271 5.47521E+00 6.95691E+01 9.09091E+00
 -1     21277 7.16074E+01 1.13415E+01 4.54545E-01
 -1     21278 7.20537E+01 5.67075E+00 9.09091E-01
 -1     21279 7.03728E+01 1.11460E+01 9.09091E-01
 -1     21284 7.16074E+01 1.13415E+01 1.36364E+00
 -1     21285 7.20537E+01 5.67075E+00 1.81818E+00
 -1     21286 7.03728E+01 1.11460E+01 1.81818E+00
 -1     21291 7.16074E+01 1.13415E+01 2.27273E+00
 -1     21292 7.20537E+01 5.67075E+00 2.72727E+00
 -1     21293 7.03728E+01 1.11460E+01 2.72727E+00
 -1     21298 7.16074E+01 1.13415E+01 3.18182E+00
 -1     21299 7.20537E+01 5.67075E+00 3.63636E+00
 -1     21300 7.03728E+01 1.11460E+01 3.63636E+00
 -1     21305 7.16074E+01 1.13415E+01 4.09091E+00
 -1     21306 7.20537E+01 5.67075E+00 4.54545E+00
 -1     21307 7.03728E+01 1.11460E+01 4.54545E+00
 -1     21312 7.16074E+01 1.13415E+01 5.00000E+00
 -1     21313 7.20537E+01 5.67075E+00 5.45455E+00
 -1     21314 7.03728E+01 1.11460E+01 5.45455E+00
 -1     21319 7.16074E+01 1.13415E+01 5.90909E+00
 -1     21320 7.20537E+01 5.67075E+00 6.36364E+00
 -1     21321 7.03728E+01 1.11460E+01 6.36364E+00
 -1     21326 7.16074E+01 1.13415E+01 6.81818E+00
 -1     21327 7.20537E+01 5.67075E+00 7.27273E+00
 -1     21328 7.03728E+01 1.11460E+01 7.27273E+00
 -1     21333 7.16074E+01 1.13415E+01 7.72727E+00
 -1     21334 7.20537E+01 5.67075E+00 8.18182E+00
 -1     21335 7.03728E+01 1.11460E+01 8.18182E+00
 -1     21340 7.16074E+01 1.13415E+01 8.63636E+00
 -1     21341 7.20537E+01 5.67075E+00 9.09091E+00
 -1     21342 7.03728E+01 1.11460E+01 9.09091E+00
 -1     21347 7.16074E+01 1.13415E+01 9.54545E+00
 -1     21351 6.89516E+01 2.24037E+01 4.54545E-01
 -1     21352 7.02795E+01 1.68726E+01 9.09091E-01
 -1     21353 6.77628E+01 2.20175E+01 9.09091E-01
 -1     21358 6.89516E+01 2.24037E+01 1.36364E+00
 -1     21359 7.02795E+01 1.68726E+01 1.81818E+00
 -1     21360 6.77628E+01 2.20175E+01 1.81818E+00
 -1     21365 6.89516E+01 2.24037E+01 2.27273E+00
 -1     21366 7.02795E+01 1.68726E+01 2.72727E+00
 -1     21367 6.77628E+01 2.20175E+01 2.72727E+00
 -1     21372 6.89516E+01 2.24037E+01 3.18182E+00
 -1     21373 7.02795E+01 1.68726E+01 3.63636E+00
 -1     21374 6.77628E+01 2.20175E+01 3.63636E+00
 -1     21379 6.89516E+01 2.24037E+01 4.09091E+00
 -1     21380 7.02795E+01 1.68726E+01 4.54545E+00
 -1     21381 6.77628E+01 2.20175E+01 4.54545E+00
 -1     21386 6.89516E+01 2.24037E+01 5.00000E+00
 -1     21387 7.02795E+01 1.68726E+01 5.45455E+00
 -1     21388 6.77628E+01 2.20175E+01 5.45455E+00
 -1     21393 6.89516E+01 2.24037E+01 5.90909E+00
 -1     21394 7.02795E+01 1.68726E+01 6.36364E+00
 -1     21395 6.77628E+01 2.20175E+01 6.36364E+00
 -1     21400 6.89516E+01 2.24037E+01 6.81818E+00
 -1     21401 7.02795E+01 1.68726E+01 7.27273E+00
 -1     21402 6.77628E+01 2.20175E+01 7.27273E+00
 -1     21407 6.89516E+01 2.24037E+01 7.72727E+00
 -1     21408 7.02795E+01 1.68726E+01 8.18182E+00
 -1     21409 6.77628E+01 2.20175E+01 8.18182E+00
 -1     21414 6.89516E+01 2.24037E+01 8.63636E+00
 -1     21415 7.02795E+01 1.68726E+01 9.09091E+00
 -1     21416 6.77628E+01 2.20175E+01 9.09091E+00
 -1     21421 6.89516E+01 2.24037E+01 9.54545E+00
 -1     21425 6.45980E+01 3.29143E+01 4.54545E-01
 -1     21426 6.67748E+01 2.76590E+01 9.09091E-01
 -1     21427 6.34842E+01 3.23468E+01 9.09091E-01
 -1     21432 6.45980E+01 3.29143E+01 1.36364E+00
 -1     21433 6.67748E+01 2.76590E+01 1.81818E+00
 -1     21434 6.34842E+01 3.23468E+01 1.81818E+00
 -1     21439 6.45980E+01 3.29143E+01 2.27273E+00
 -1     21440 6.67748E+01 2.76590E+01 2.72727E+00
 -1     21441 6.34842E+01 3.23468E+01 2.72727E+00
 -1     21446 6.45980E+01 3.29143E+01 3.18182E+00
 -1     21447 6.67748E+01 2.76590E+01 3.63636E+00
 -1     21448 6.34842E+01 3.23468E+01 3.63636E+00
 -1     21453 6.45980E+01 3.29143E+01 4.09091E+00
 -1     21454 6.67748E+01 2.76590E+01 4.54545E+00
 -1     21455 6.34842E+01 3.23468E+01 4.54545E+00
 -1     21460 6.45980E+01 3.29143E+01 5.00000E+00
 -1     21461 6.67748E+01 2.76590E+01 5.45455E+00
 -1     21462 6.34842E+01 3.23468E+01 5.45455E+00
 -1     21467 6.45980E+01 3.29143E+01 5.90909E+00
 -1     21468 6.67748E+01 2.76590E+01 6.36364E+00
 -1     21469 6.34842E+01 3.23468E+01 6.36364E+00
 -1     21474 6.45980E+01 3.29143E+01 6.81818E+00
 -1     21475 6.67748E+01 2.76590E+01 7.27273E+00
 -1     21476 6.34842E+01 3.23468E+01 7.27273E+00
 -1     21481 6.45980E+01 3.29143E+01 7.72727E+00
 -1     21482 6.67748E+01 2.76590E+01 8.18182E+00
 -1     21483 6.34842E+01 3.23468E+01 8.18182E+00
 -1     21488 6.45980E+01 3.29143E+01 8.63636E+00
 -1     21489 6.67748E+01 2.76590E+01 9.09091E+00
 -1     21490 6.34842E+01 3.23468E+01 9.09091E+00
 -1     21495 6.45980E+01 3.29143E+01 9.54545E+00
 -1     21499 5.86537E+01 4.26144E+01 4.54545E-01
 -1     21500 6.16259E+01 3.77644E+01 9.09091E-01
 -1     21501 5.76425E+01 4.18797E+01 9.09091E-01
 -1     21506 5.86537E+01 4.26144E+01 1.36364E+00
 -1     21507 6.16259E+01 3.77644E+01 1.81818E+00
 -1     21508 5.76425E+01 4.18797E+01 1.81818E+00
 -1     21513 5.86537E+01 4.26144E+01 2.27273E+00
 -1     21514 6.16259E+01 3.77644E+01 2.72727E+00
 -1     21515 5.76425E+01 4.18797E+01 2.72727E+00
 -1     21520 5.86537E+01 4.26144E+01 3.18182E+00
 -1     21521 6.16259E+01 3.77644E+01 3.63636E+00
 -1     21522 5.76425E+01 4.18797E+01 3.63636E+00
 -1     21527 5.86537E+01 4.26144E+01 4.09091E+00
 -1     21528 6.16259E+01 3.77644E+01 4.54545E+00
 -1     21529 5.76425E+01 4.18797E+01 4.54545E+00
 -1     21534 5.86537E+01 4.26144E+01 5.00000E+00
 -1     21535 6.16259E+01 3.77644E+01 5.45455E+00
 -1     21536 5.76425E+01 4.18797E+01 5.45455E+00
 -1     21541 5.86537E+01 4.26144E+01 5.90909E+00
 -1     21542 6.16259E+01 3.77644E+01 6.36364E+00
 -1     21543 5.76425E+01 4.18797E+01 6.36364E+00
 -1     21548 5.86537E+01 4.26144E+01 6.81818E+00
 -1     21549 6.16259E+01 3.77644E+01 7.27273E+00
 -1     21550 5.76425E+01 4.18797E+01 7.27273E+00
 -1     21555 5.86537E+01 4.26144E+01 7.72727E+00
 -1     21556 6.16259E+01 3.77644E+01 8.18182E+00
 -1     21557 5.76425E+01 4.18797E+01 8.18182E+00
 -1     21562 5.86537E+01 4.26144E+01 8.63636E+00
 -1     21563 6.16259E+01 3.77644E+01 9.09091E+00
 -1     21564 5.76425E+01 4.18797E+01 9.09091E+00
 -1     21569 5.86537E+01 4.26144E+01 9.54545E+00
 -1     21573 5.12652E+01 5.12652E+01 4.54545E-01
 -1     21574 5.49595E+01 4.69398E+01 9.09091E-01
 -1     21575 5.03814E+01 5.03814E+01 9.09091E-01
 -1     21580 5.12652E+01 5.12652E+01 1.36364E+00
 -1     21581 5.49595E+01 4.69398E+01 1.81818E+00
 -1     21582 5.03814E+01 5.03814E+01 1.81818E+00
 -1     21587 5.12652E+01 5.12652E+01 2.27273E+00
 -1     21588 5.49595E+01 4.69398E+01 2.72727E+00
 -1     21589 5.03814E+01 5.03814E+01 2.72727E+00
 -1     21594 5.12652E+01 5.12652E+01 3.18182E+00
 -1     21595 5.49595E+01 4.69398E+01 3.63636E+00
 -1     21596 5.03814E+01 5.03814E+01 3.63636E+00
 -1     21601 5.12652E+01 5.12652E+01 4.09091E+00
 -1     21602 5.49595E+01 4.69398E+01 4.54545E+00
 -1     21603 5.03814E+01 5.03814E+01 4.54545E+00
 -1     21608 5.12652E+01 5.12652E+01 5.00000E+00
 -1     21609 5.49595E+01 4.69398E+01 5.45455E+00
 -1     21610 5.03814E+01 5.03814E+01 5.45455E+00
 -1     21615 5.12652E+01 5.12652E+01 5.90909E+00
 -1     21616 5.49595E+01 4.69398E+01 6.36364E+00
 -1     21617 5.03814E+01 5.03814E+01 6.36364E+00
 -1     21622 5.12652E+01 5.12652E+01 6.81818E+00
 -1     21623 5.49595E+01 4.69398E+01 7.27273E+00
 -1     21624 5.03814E+01 5.03814E+01 7.27273E+00
 -1     21629 5.12652E+01 5.12652E+01 7.72727E+00
 -1     21630 5.49595E+01 4.69398E+01 8.18182E+00
 -1     21631 5.03814E+01 5.03814E+01 8.18182E+00
 -1     21636 5.12652E+01 5.12652E+01 8.63636E+00
 -1     21637 5.49595E+01 4.69398E+01 9.09091E+00
 -1     21638 5.03814E+01 5.03814E+01 9.09091E+00
 -1     21643 5.12652E+01 5.12652E+01 9.54545E+00
 -1     21647 4.26144E+01 5.86537E+01 4.54545E-01
 -1     21648 4.69398E+01 5.49595E+01 9.09091E-01
 -1     21649 4.18797E+01 5.76425E+01 9.09091E-01
 -1     21654 4.26144E+01 5.86537E+01 1.36364E+00
 -1     21655 4.69398E+01 5.49595E+01 1.81818E+00
 -1     21656 4.18797E+01 5.76425E+01 1.81818E+00
 -1     21661 4.26144E+01 5.86537E+01 2.27273E+00
 -1     21662 4.69398E+01 5.49595E+01 2.72727E+00
 -1     21663 4.18797E+01 5.76425E+01 2.72727E+00
 -1     21668 4.26144E+01 5.86537E+01 3.18182E+00
 -1     21669 4.69398E+01 5.49595E+01 3.63636E+00
 -1     21670 4.18797E+01 5.76425E+01 3.63636E+00
 -1     21675 4.26144E+01 5.86537E+01 4.09091E+00
 -1     21676 4.69398E+01 5.49595E+01 4.54545E+00
 -1     21677 4.18797E+01 5.76425E+01 4.54545E+00
 -1     21682 4.26144E+01 5.86537E+01 5.00000E+00
 -1     21683 4.69398E+01 5.49595E+01 5.45455E+00
 -1     21684 4.18797E+01 5.76425E+01 5.45455E+00
 -1     21689 4.26144E+01 5.86537E+01 5.90909E+00
 -1     21690 4.69398E+01 5.49595E+01 6.36364E+00
 -1     21691 4.18797E+01 5.76425E+01 6.36364E+00
 -1     21696 4.26144E+01 5.86537E+01 6.81818E+00
 -1     21697 4.69398E+01 5.49595E+01 7.27273E+00
 -1     21698 4.18797E+01 5.76425E+01 7.27273E+00
 -1     21703 4.26144E+01 5.86537E+01 7.72727E+00
 -1     21704 4.69398E+01 5.49595E+01 8.18182E+00
 -1     21705 4.18797E+01 5.76425E+01 8.18182E+00
 -1     21710 4.26144E+01 5.86537E+01 8.63636E+00
 -1     21711 4.69398E+01 5.49595E+01 9.09091E+00
 -1     21712 4.18797E+01 5.76425E+01 9.09091E+00
 -1     21717 4.26144E+01 5.86537E+01 9.54545E+00
 -1     21721 3.29143E+01 6.45980E+01 4.54545E-01
 -1     21722 3.77644E+01 6.16259E+01 9.09091E-01
 -1     21723 3.23468E+01 6.34842E+01 9.09091E-01
 -1     21728 3.29143E+01 6.45980E+01 1.36364E+00
 -1     21729 3.77644E+01 6.16259E+01 1.81818E+00
 -1     21730 3.23468E+01 6.34842E+01 1.81818E+00
 -1     21735 3.29143E+01 6.45980E+01 2.27273E+00
 -1     21736 3.77644E+01 6.16259E+01 2.72727E+00
 -1     21737 3.23468E+01 6.34842E+01 2.72727E+00
 -1     21742 3.29143E+01 6.45980E+01 3.18182E+00
 -1     21743 3.77644E+01 6.16259E+01 3.63636E+00
 -1     21744 3.23468E+01 6.34842E+01 3.63636E+00
 -1     21749 3.29143E+01 6.45980E+01 4.09091E+00
 -1     21750 3.77644E+01 6.16259E+01 4.54545E+00
 -1     21751 3.23468E+01 6.34842E+01 4.54545E+00
 -1     21756 3.29143E+01 6.45980E+01 5.00000E+00
 -1     21757 3.77644E+01 6.16259E+01 5.45455E+00
 -1     21758 3.23468E+01 6.34842E+01 5.45455E+00
 -1     21763 3.29143E+01 6.45980E+01 5.90909E+00
 -1     21764 3.77644E+01 6.16259E+01 6.36364E+00
 -1     21765 3.23468E+01 6.34842E+01 6.36364E+00
 -1     21770 3.29143E+01 6.45980E+01 6.81818E+00
 -1     21771 3.77644E+01 6.16259E+01 7.27273E+00
 -1     21772 3.23468E+01 6.34842E+01 7.27273E+00
 -1     21777 3.29143E+01 6.45980E+01 7.72727E+00
 -1     21778 3.77644E+01 6.16259E+01 8.18182E+00
 -1     21779 3.23468E+01 6.34842E+01 8.18182E+00
 -1     21784 3.29143E+01 6.45980E+01 8.63636E+00
 -1     21785 3.77644E+01 6.16259E+01 9.09091E+00
 -1     21786 3.23468E+01 6.34842E+01 9.09091E+00
 -1     21791 3.29143E+01 6.45980E+01 9.54545E+00
 -1     21795 2.24037E+01 6.89516E+01 4.54545E-01
 -1     21796 2.76590E+01 6.67748E+01 9.09091E-01
 -1     21797 2.20175E+01 6.77628E+01 9.09091E-01
 -1     21802 2.24037E+01 6.89516E+01 1.36364E+00
 -1     21803 2.76590E+01 6.67748E+01 1.81818E+00
 -1     21804 2.20175E+01 6.77628E+01 1.81818E+00
 -1     21809 2.24037E+01 6.89516E+01 2.27273E+00
 -1     21810 2.76590E+01 6.67748E+01 2.72727E+00
 -1     21811 2.20175E+01 6.77628E+01 2.72727E+00
 -1     21816 2.24037E+01 6.89516E+01 3.18182E+00
 -1     21817 2.76590E+01 6.67748E+01 3.63636E+00
 -1     21818 2.20175E+01 6.77628E+01 3.63636E+00
 -1     21823 2.24037E+01 6.89516E+01 4.09091E+00
 -1     21824 2.76590E+01 6.67748E+01 4.54545E+00
 -1     21825 2.20175E+01 6.77628E+01 4.54545E+00
 -1     21830 2.24037E+01 6.89516E+01 5.00000E+00
 -1     21831 2.76590E+01 6.67748E+01 5.45455E+00
 -1     21832 2.20175E+01 6.77628E+01 5.45455E+00
 -1     21837 2.24037E+01 6.89516E+01 5.90909E+00
 -1     21838 2.76590E+01 6.67748E+01 6.36364E+00
 -1     21839 2.20175E+01 6.77628E+01 6.36364E+00
 -1     21844 2.24037E+01 6.89516E+01 6.81818E+00
 -1     21845 2.76590E+01 6.67748E+01 7.27273E+00
 -1     21846 2.20175E+01 6.77628E+01 7.27273E+00
 -1     21851 2.24037E+01 6.89516E+01 7.72727E+00
 -1     21852 2.76590E+01 6.67748E+01 8.18182E+00
 -1     21853 2.20175E+01 6.77628E+01 8.18182E+00
 -1     21858 2.24037E+01 6.89516E+01 8.63636E+00
 -1     21859 2.76590E+01 6.67748E+01 9.09091E+00
 -1     21860 2.20175E+01 6.77628E+01 9.09091E+00
 -1     21865 2.24037E+01 6.89516E+01 9.54545E+00
 -1     21869 1.13415E+01 7.16074E+01 4.54545E-01
 -1     21870 1.68726E+01 7.02795E+01 9.09091E-01
 -1     21871 1.11460E+01 7.03728E+01 9.09091E-01
 -1     21876 1.13415E+01 7.16074E+01 1.36364E+00
 -1     21877 1.68726E+01 7.02795E+01 1.81818E+00
 -1     21878 1.11460E+01 7.03728E+01 1.81818E+00
 -1     21883 1.13415E+01 7.16074E+01 2.27273E+00
 -1     21884 1.68726E+01 7.02795E+01 2.72727E+00
 -1     21885 1.11460E+01 7.03728E+01 2.72727E+00
 -1     21890 1.13415E+01 7.16074E+01 3.18182E+00
 -1     21891 1.68726E+01 7.02795E+01 3.63636E+00
 -1     21892 1.11460E+01 7.03728E+01 3.63636E+00
 -1     21897 1.13415E+01 7.16074E+01 4.09091E+00
 -1     21898 1.68726E+01 7.02795E+01 4.54545E+00
 -1     21899 1.11460E+01 7.03728E+01 4.54545E+00
 -1     21904 1.13415E+01 7.16074E+01 5.00000E+00
 -1     21905 1.68726E+01 7.02795E+01 5.45455E+00
 -1     21906 1.11460E+01 7.03728E+01 5.45455E+00
 -1     21911 1.13415E+01 7.16074E+01 5.90909E+00
 -1     21912 1.68726E+01 7.02795E+01 6.36364E+00
 -1     21913 1.11460E+01 7.03728E+01 6.36364E+00
 -1     21918 1.13415E+01 7.16074E+01 6.81818E+00
 -1     21919 1.68726E+01 7.02795E+01 7.27273E+00
 -1     21920 1.11460E+01 7.03728E+01 7.27273E+00
 -1     21925 1.13415E+01 7.16074E+01 7.72727E+00
 -1     21926 1.68726E+01 7.02795E+01 8.18182E+00
 -1     21927 1.11460E+01 7.03728E+01 8.18182E+00
 -1     21932 1.13415E+01 7.16074E+01 8.63636E+00
 -1     21933 1.68726E+01 7.02795E+01 9.09091E+00
 -1     21934 1.11460E+01 7.03728E+01 9.09091E+00
 -1     21939 1.13415E+01 7.16074E+01 9.54545E+00
 -1     21943 5.67075E+00 7.20537E+01 9.09091E-01
 -1     21947 5.67075E+00 7.20537E+01 1.81818E+00
 -1     21951 5.67075E+00 7.20537E+01 2.72727E+00
 -1     21955 5.67075E+00 7.20537E+01 3.63636E+00
 -1     21959 5.67075E+00 7.20537E+01 4.54545E+00
 -1     21963 5.67075E+00 7.20537E+01 5.45455E+00
 -1     21967 5.67075E+00 7.20537E+01 6.36364E+00
 -1     21971 5.67075E+00 7.20537E+01 7.27273E+00
 -1     21975 5.67075E+00 7.20537E+01 8.18182E+00
 -1     21979 5.67075E+00 7.20537E+01 9.09091E+00
 -1     21985 7.40766E+01 1.17326E+01 4.54545E-01
 -1     21986 7.45383E+01 5.86629E+00 9.09091E-01
 -1     21987 7.28420E+01 1.15370E+01 9.09091E-01
 -1     21992 7.40766E+01 1.17326E+01 1.36364E+00
 -1     21993 7.45383E+01 5.86629E+00 1.81818E+00
 -1     21994 7.28420E+01 1.15370E+01 1.81818E+00
 -1     21999 7.40766E+01 1.17326E+01 2.27273E+00
 -1     22000 7.45383E+01 5.86629E+00 2.72727E+00
 -1     22001 7.28420E+01 1.15370E+01 2.72727E+00
 -1     22006 7.40766E+01 1.17326E+01 3.18182E+00
 -1     22007 7.45383E+01 5.86629E+00 3.63636E+00
 -1     22008 7.28420E+01 1.15370E+01 3.63636E+00
 -1     22013 7.40766E+01 1.17326E+01 4.09091E+00
 -1     22014 7.45383E+01 5.86629E+00 4.54545E+00
 -1     22015 7.28420E+01 1.15370E+01 4.54545E+00
 -1     22020 7.40766E+01 1.17326E+01 5.00000E+00
 -1     22021 7.45383E+01 5.86629E+00 5.45455E+00
 -1     22022 7.28420E+01 1.15370E+01 5.45455E+00
 -1     22027 7.40766E+01 1.17326E+01 5.90909E+00
 -1     22028 7.45383E+01 5.86629E+00 6.36364E+00
 -1     22029 7.28420E+01 1.15370E+01 6.36364E+00
 -1     22034 7.40766E+01 1.17326E+01 6.81818E+00
 -1     22035 7.45383E+01 5.86629E+00 7.27273E+00
 -1     22036 7.28420E+01 1.15370E+01 7.27273E+00
 -1     22041 7.40766E+01 1.17326E+01 7.72727E+00
 -1     22042 7.45383E+01 5.86629E+00 8.18182E+00
 -1     22043 7.28420E+01 1.15370E+01 8.18182E+00
 -1     22048 7.40766E+01 1.17326E+01 8.63636E+00
 -1     22049 7.45383E+01 5.86629E+00 9.09091E+00
 -1     22050 7.28420E+01 1.15370E+01 9.09091E+00
 -1     22055 7.40766E+01 1.17326E+01 9.54545E+00
 -1     22059 7.13292E+01 2.31763E+01 4.54545E-01
 -1     22060 7.27029E+01 1.74544E+01 9.09091E-01
 -1     22061 7.01404E+01 2.27900E+01 9.09091E-01
 -1     22066 7.13292E+01 2.31763E+01 1.36364E+00
 -1     22067 7.27029E+01 1.74544E+01 1.81818E+00
 -1     22068 7.01404E+01 2.27900E+01 1.81818E+00
 -1     22073 7.13292E+01 2.31763E+01 2.27273E+00
 -1     22074 7.27029E+01 1.74544E+01 2.72727E+00
 -1     22075 7.01404E+01 2.27900E+01 2.72727E+00
 -1     22080 7.13292E+01 2.31763E+01 3.18182E+00
 -1     22081 7.27029E+01 1.74544E+01 3.63636E+00
 -1     22082 7.01404E+01 2.27900E+01 3.63636E+00
 -1     22087 7.13292E+01 2.31763E+01 4.09091E+00
 -1     22088 7.27029E+01 1.74544E+01 4.54545E+00
 -1     22089 7.01404E+01 2.27900E+01 4.54545E+00
 -1     22094 7.13292E+01 2.31763E+01 5.00000E+00
 -1     22095 7.27029E+01 1.74544E+01 5.45455E+00
 -1     22096 7.01404E+01 2.27900E+01 5.45455E+00
 -1     22101 7.13292E+01 2.31763E+01 5.90909E+00
 -1     22102 7.27029E+01 1.74544E+01 6.36364E+00
 -1     22103 7.01404E+01 2.27900E+01 6.36364E+00
 -1     22108 7.13292E+01 2.31763E+01 6.81818E+00
 -1     22109 7.27029E+01 1.74544E+01 7.27273E+00
 -1     22110 7.01404E+01 2.27900E+01 7.27273E+00
 -1     22115 7.13292E+01 2.31763E+01 7.72727E+00
 -1     22116 7.27029E+01 1.74544E+01 8.18182E+00
 -1     22117 7.01404E+01 2.27900E+01 8.18182E+00
 -1     22122 7.13292E+01 2.31763E+01 8.63636E+00
 -1     22123 7.27029E+01 1.74544E+01 9.09091E+00
 -1     22124 7.01404E+01 2.27900E+01 9.09091E+00
 -1     22129 7.13292E+01 2.31763E+01 9.54545E+00
 -1     22133 6.68255E+01 3.40493E+01 4.54545E-01
 -1     22134 6.90774E+01 2.86128E+01 9.09091E-01
 -1     22135 6.57117E+01 3.34818E+01 9.09091E-01
 -1     22140 6.68255E+01 3.40493E+01 1.36364E+00
 -1     22141 6.90774E+01 2.86128E+01 1.81818E+00
 -1     22142 6.57117E+01 3.34818E+01 1.81818E+00
 -1     22147 6.68255E+01 3.40493E+01 2.27273E+00
 -1     22148 6.90774E+01 2.86128E+01 2.72727E+00
 -1     22149 6.57117E+01 3.34818E+01 2.72727E+00
 -1     22154 6.68255E+01 3.40493E+01 3.18182E+00
 -1     22155 6.90774E+01 2.86128E+01 3.63636E+00
 -1     22156 6.57117E+01 3.34818E+01 3.63636E+00
 -1     22161 6.68255E+01 3.40493E+01 4.09091E+00
 -1     22162 6.90774E+01 2.86128E+01 4.54545E+00
 -1     22163 6.57117E+01 3.34818E+01 4.54545E+00
 -1     22168 6.68255E+01 3.40493E+01 5.00000E+00
 -1     22169 6.90774E+01 2.86128E+01 5.45455E+00
 -1     22170 6.57117E+01 3.34818E+01 5.45455E+00
 -1     22175 6.68255E+01 3.40493E+01 5.90909E+00
 -1     22176 6.90774E+01 2.86128E+01 6.36364E+00
 -1     22177 6.57117E+01 3.34818E+01 6.36364E+00
 -1     22182 6.68255E+01 3.40493E+01 6.81818E+00
 -1     22183 6.90774E+01 2.86128E+01 7.27273E+00
 -1     22184 6.57117E+01 3.34818E+01 7.27273E+00
 -1     22189 6.68255E+01 3.40493E+01 7.72727E+00
 -1     22190 6.90774E+01 2.86128E+01 8.18182E+00
 -1     22191 6.57117E+01 3.34818E+01 8.18182E+00
 -1     22196 6.68255E+01 3.40493E+01 8.63636E+00
 -1     22197 6.90774E+01 2.86128E+01 9.09091E+00
 -1     22198 6.57117E+01 3.34818E+01 9.09091E+00
 -1     22203 6.68255E+01 3.40493E+01 9.54545E+00
 -1     22207 6.06763E+01 4.40839E+01 4.54545E-01
 -1     22208 6.37509E+01 3.90666E+01 9.09091E-01
 -1     22209 5.96650E+01 4.33492E+01 9.09091E-01
 -1     22214 6.06763E+01 4.40839E+01 1.36364E+00
 -1     22215 6.37509E+01 3.90666E+01 1.81818E+00
 -1     22216 5.96650E+01 4.33492E+01 1.81818E+00
 -1     22221 6.06763E+01 4.40839E+01 2.27273E+00
 -1     22222 6.37509E+01 3.90666E+01 2.72727E+00
 -1     22223 5.96650E+01 4.33492E+01 2.72727E+00
 -1     22228 6.06763E+01 4.40839E+01 3.18182E+00
 -1     22229 6.37509E+01 3.90666E+01 3.63636E+00
 -1     22230 5.96650E+01 4.33492E+01 3.63636E+00
 -1     22235 6.06763E+01 4.40839E+01 4.09091E+00
 -1     22236 6.37509E+01 3.90666E+01 4.54545E+00
 -1     22237 5.96650E+01 4.33492E+01 4.54545E+00
 -1     22242 6.06763E+01 4.40839E+01 5.00000E+00
 -1     22243 6.37509E+01 3.90666E+01 5.45455E+00
 -1     22244 5.96650E+01 4.33492E+01 5.45455E+00
 -1     22249 6.06763E+01 4.40839E+01 5.90909E+00
 -1     22250 6.37509E+01 3.90666E+01 6.36364E+00
 -1     22251 5.96650E+01 4.33492E+01 6.36364E+00
 -1     22256 6.06763E+01 4.40839E+01 6.81818E+00
 -1     22257 6.37509E+01 3.90666E+01 7.27273E+00
 -1     22258 5.96650E+01 4.33492E+01 7.27273E+00
 -1     22263 6.06763E+01 4.40839E+01 7.72727E+00
 -1     22264 6.37509E+01 3.90666E+01 8.18182E+00
 -1     22265 5.96650E+01 4.33492E+01 8.18182E+00
 -1     22270 6.06763E+01 4.40839E+01 8.63636E+00
 -1     22271 6.37509E+01 3.90666E+01 9.09091E+00
 -1     22272 5.96650E+01 4.33492E+01 9.09091E+00
 -1     22277 6.06763E+01 4.40839E+01 9.54545E+00
 -1     22281 5.30330E+01 5.30330E+01 4.54545E-01
 -1     22282 5.68546E+01 4.85585E+01 9.09091E-01
 -1     22283 5.21491E+01 5.21491E+01 9.09091E-01
 -1     22288 5.30330E+01 5.30330E+01 1.36364E+00
 -1     22289 5.68546E+01 4.85585E+01 1.81818E+00
 -1     22290 5.21491E+01 5.21491E+01 1.81818E+00
 -1     22295 5.30330E+01 5.30330E+01 2.27273E+00
 -1     22296 5.68546E+01 4.85585E+01 2.72727E+00
 -1     22297 5.21491E+01 5.21491E+01 2.72727E+00
 -1     22302 5.30330E+01 5.30330E+01 3.18182E+00
 -1     22303 5.68546E+01 4.85585E+01 3.63636E+00
 -1     22304 5.21491E+01 5.21491E+01 3.63636E+00
 -1     22309 5.30330E+01 5.30330E+01 4.09091E+00
 -1     22310 5.68546E+01 4.85585E+01 4.54545E+00
 -1     22311 5.21491E+01 5.21491E+01 4.54545E+00
 -1     22316 5.30330E+01 5.30330E+01 5.00000E+00
 -1     22317 5.68546E+01 4.85585E+01 5.45455E+00
 -1     22318 5.21491E+01 5.21491E+01 5.45455E+00
 -1     22323 5.30330E+01 5.30330E+01 5.90909E+00
 -1     22324 5.68546E+01 4.85585E+01 6.36364E+00
 -1     22325 5.21491E+01 5.21491E+01 6.36364E+00
 -1     22330 5.30330E+01 5.30330E+01 6.81818E+00
 -1     22331 5.68546E+01 4.85585E+01 7.27273E+00
 -1     22332 5.21491E+01 5.21491E+01 7.27273E+00
 -1     22337 5.30330E+01 5.30330E+01 7.72727E+00
 -1     22338 5.68546E+01 4.85585E+01 8.18182E+00
 -1     22339 5.21491E+01 5.21491E+01 8.18182E+00
 -1     22344 5.30330E+01 5.30330E+01 8.63636E+00
 -1     22345 5.68546E+01 4.85585E+01 9.09091E+00
 -1     22346 5.21491E+01 5.21491E+01 9.09091E+00
 -1     22351 5.30330E+01 5.30330E+01 9.54545E+00
 -1     22355 4.40839E+01 6.06763E+01 4.54545E-01
 -1     22356 4.85585E+01 5.68546E+01 9.09091E-01
 -1     22357 4.33492E+01 5.96650E+01 9.09091E-01
 -1     22362 4.40839E+01 6.06763E+01 1.36364E+00
 -1     22363 4.85585E+01 5.68546E+01 1.81818E+00
 -1     22364 4.33492E+01 5.96650E+01 1.81818E+00
 -1     22369 4.40839E+01 6.06763E+01 2.27273E+00
 -1     22370 4.85585E+01 5.68546E+01 2.72727E+00
 -1     22371 4.33492E+01 5.96650E+01 2.72727E+00
 -1     22376 4.40839E+01 6.06763E+01 3.18182E+00
 -1     22377 4.85585E+01 5.68546E+01 3.63636E+00
 -1     22378 4.33492E+01 5.96650E+01 3.63636E+00
 -1     22383 4.40839E+01 6.06763E+01 4.09091E+00
 -1     22384 4.85585E+01 5.68546E+01 4.54545E+00
 -1     22385 4.33492E+01 5.96650E+01 4.54545E+00
 -1     22390 4.40839E+01 6.06763E+01 5.00000E+00
 -1     22391 4.85585E+01 5.68546E+01 5.45455E+00
 -1     22392 4.33492E+01 5.96650E+01 5.45455E+00
 -1     22397 4.40839E+01 6.06763E+01 5.90909E+00
 -1     22398 4.85585E+01 5.68546E+01 6.36364E+00
 -1     22399 4.33492E+01 5.96650E+01 6.36364E+00
 -1     22404 4.40839E+01 6.06763E+01 6.81818E+00
 -1     22405 4.85585E+01 5.68546E+01 7.27273E+00
 -1     22406 4.33492E+01 5.96650E+01 7.27273E+00
 -1     22411 4.40839E+01 6.06763E+01 7.72727E+00
 -1     22412 4.85585E+01 5.68546E+01 8.18182E+00
 -1     22413 4.33492E+01 5.96650E+01 8.18182E+00
 -1     22418 4.40839E+01 6.06763E+01 8.63636E+00
 -1     22419 4.85585E+01 5.68546E+01 9.09091E+00
 -1     22420 4.33492E+01 5.96650E+01 9.09091E+00
 -1     22425 4.40839E+01 6.06763E+01 9.54545E+00
 -1     22429 3.40493E+01 6.68255E+01 4.54545E-01
 -1     22430 3.90666E+01 6.37509E+01 9.09091E-01
 -1     22431 3.34818E+01 6.57117E+01 9.09091E-01
 -1     22436 3.40493E+01 6.68255E+01 1.36364E+00
 -1     22437 3.90666E+01 6.37509E+01 1.81818E+00
 -1     22438 3.34818E+01 6.57117E+01 1.81818E+00
 -1     22443 3.40493E+01 6.68255E+01 2.27273E+00
 -1     22444 3.90666E+01 6.37509E+01 2.72727E+00
 -1     22445 3.34818E+01 6.57117E+01 2.72727E+00
 -1     22450 3.40493E+01 6.68255E+01 3.18182E+00
 -1     22451 3.90666E+01 6.37509E+01 3.63636E+00
 -1     22452 3.34818E+01 6.57117E+01 3.63636E+00
 -1     22457 3.40493E+01 6.68255E+01 4.09091E+00
 -1     22458 3.90666E+01 6.37509E+01 4.54545E+00
 -1     22459 3.34818E+01 6.57117E+01 4.54545E+00
 -1     22464 3.40493E+01 6.68255E+01 5.00000E+00
 -1     22465 3.90666E+01 6.37509E+01 5.45455E+00
 -1     22466 3.34818E+01 6.57117E+01 5.45455E+00
 -1     22471 3.40493E+01 6.68255E+01 5.90909E+00
 -1     22472 3.90666E+01 6.37509E+01 6.36364E+00
 -1     22473 3.34818E+01 6.57117E+01 6.36364E+00
 -1     22478 3.40493E+01 6.68255E+01 6.81818E+00
 -1     22479 3.90666E+01 6.37509E+01 7.27273E+00
 -1     22480 3.34818E+01 6.57117E+01 7.27273E+00
 -1     22485 3.40493E+01 6.68255E+01 7.72727E+00
 -1     22486 3.90666E+01 6.37509E+01 8.18182E+00
 -1     22487 3.34818E+01 6.57117E+01 8.18182E+00
 -1     22492 3.40493E+01 6.68255E+01 8.63636E+00
 -1     22493 3.90666E+01 6.37509E+01 9.09091E+00
 -1     22494 3.34818E+01 6.57117E+01 9.09091E+00
 -1     22499 3.40493E+01 6.68255E+01 9.54545E+00
 -1     22503 2.31763E+01 7.13292E+01 4.54545E-01
 -1     22504 2.86128E+01 6.90774E+01 9.09091E-01
 -1     22505 2.27900E+01 7.01404E+01 9.09091E-01
 -1     22510 2.31763E+01 7.13292E+01 1.36364E+00
 -1     22511 2.86128E+01 6.90774E+01 1.81818E+00
 -1     22512 2.27900E+01 7.01404E+01 1.81818E+00
 -1     22517 2.31763E+01 7.13292E+01 2.27273E+00
 -1     22518 2.86128E+01 6.90774E+01 2.72727E+00
 -1     22519 2.27900E+01 7.01404E+01 2.72727E+00
 -1     22524 2.31763E+01 7.13292E+01 3.18182E+00
 -1     22525 2.86128E+01 6.90774E+01 3.63636E+00
 -1     22526 2.27900E+01 7.01404E+01 3.63636E+00
 -1     22531 2.31763E+01 7.13292E+01 4.09091E+00
 -1     22532 2.86128E+01 6.90774E+01 4.54545E+00
 -1     22533 2.27900E+01 7.01404E+01 4.54545E+00
 -1     22538 2.31763E+01 7.13292E+01 5.00000E+00
 -1     22539 2.86128E+01 6.90774E+01 5.45455E+00
 -1     22540 2.27900E+01 7.01404E+01 5.45455E+00
 -1     22545 2.31763E+01 7.13292E+01 5.90909E+00
 -1     22546 2.86128E+01 6.90774E+01 6.36364E+00
 -1     22547 2.27900E+01 7.01404E+01 6.36364E+00
 -1     22552 2.31763E+01 7.13292E+01 6.81818E+00
 -1     22553 2.86128E+01 6.90774E+01 7.27273E+00
 -1     22554 2.27900E+01 7.01404E+01 7.27273E+00
 -1     22559 2.31763E+01 7.13292E+01 7.72727E+00
 -1     22560 2.86128E+01 6.90774E+01 8.18182E+00
 -1     22561 2.27900E+01 7.01404E+01 8.18182E+00
 -1     22566 2.31763E+01 7.13292E+01 8.63636E+00
 -1     22567 2.86128E+01 6.90774E+01 9.09091E+00
 -1     22568 2.27900E+01 7.01404E+01 9.09091E+00
 -1     22573 2.31763E+01 7.13292E+01 9.54545E+00
 -1     22577 1.17326E+01 7.40766E+01 4.54545E-01
 -1     22578 1.74544E+01 7.27029E+01 9.09091E-01
 -1     22579 1.15370E+01 7.28420E+01 9.09091E-01
 -1     22584 1.17326E+01 7.40766E+01 1.36364E+00
 -1     22585 1.74544E+01 7.27029E+01 1.81818E+00
 -1     22586 1.15370E+01 7.28420E+01 1.81818E+00
 -1     22591 1.17326E+01 7.40766E+01 2.27273E+00
 -1     22592 1.74544E+01 7.27029E+01 2.72727E+00
 -1     22593 1.15370E+01 7.28420E+01 2.72727E+00
 -1     22598 1.17326E+01 7.40766E+01 3.18182E+00
 -1     22599 1.74544E+01 7.27029E+01 3.63636E+00
 -1     22600 1.15370E+01 7.28420E+01 3.63636E+00
 -1     22605 1.17326E+01 7.40766E+01 4.09091E+00
 -1     22606 1.74544E+01 7.27029E+01 4.54545E+00
 -1     22607 1.15370E+01 7.28420E+01 4.54545E+00
 -1     22612 1.17326E+01 7.40766E+01 5.00000E+00
 -1     22613 1.74544E+01 7.27029E+01 5.45455E+00
 -1     22614 1.15370E+01 7.28420E+01 5.45455E+00
 -1     22619 1.17326E+01 7.40766E+01 5.90909E+00
 -1     22620 1.74544E+01 7.27029E+01 6.36364E+00
 -1     22621 1.15370E+01 7.28420E+01 6.36364E+00
 -1     22626 1.17326E+01 7.40766E+01 6.81818E+00
 -1     22627 1.74544E+01 7.27029E+01 7.27273E+00
 -1     22628 1.15370E+01 7.28420E+01 7.27273E+00
 -1     22633 1.17326E+01 7.40766E+01 7.72727E+00
 -1     22634 1.74544E+01 7.27029E+01 8.18182E+00
 -1     22635 1.15370E+01 7.28420E+01 8.18182E+00
 -1     22640 1.17326E+01 7.40766E+01 8.63636E+00
 -1     22641 1.74544E+01 7.27029E+01 9.09091E+00
 -1     22642 1.15370E+01 7.28420E+01 9.09091E+00
 -1     22647 1.17326E+01 7.40766E+01 9.54545E+00
 -1     22651 5.86629E+00 7.45383E+01 9.09091E-01
 -1     22655 5.86629E+00 7.45383E+01 1.81818E+00
 -1     22659 5.86629E+00 7.45383E+01 2.72727E+00
 -1     22663 5.86629E+00 7.45383E+01 3.63636E+00
 -1     22667 5.86629E+00 7.45383E+01 4.54545E+00
 -1     22671 5.86629E+00 7.45383E+01 5.45455E+00
 -1     22675 5.86629E+00 7.45383E+01 6.36364E+00
 -1     22679 5.86629E+00 7.45383E+01 7.27273E+00
 -1     22683 5.86629E+00 7.45383E+01 8.18182E+00
 -1     22687 5.86629E+00 7.45383E+01 9.09091E+00
 -1     22693 7.65458E+01 1.21237E+01 4.54545E-01
 -1     22694 7.70229E+01 6.06184E+00 9.09091E-01
 -1     22695 7.53112E+01 1.19281E+01 9.09091E-01
 -1     22700 7.65458E+01 1.21237E+01 1.36364E+00
 -1     22701 7.70229E+01 6.06184E+00 1.81818E+00
 -1     22702 7.53112E+01 1.19281E+01 1.81818E+00
 -1     22707 7.65458E+01 1.21237E+01 2.27273E+00
 -1     22708 7.70229E+01 6.06184E+00 2.72727E+00
 -1     22709 7.53112E+01 1.19281E+01 2.72727E+00
 -1     22714 7.65458E+01 1.21237E+01 3.18182E+00
 -1     22715 7.70229E+01 6.06184E+00 3.63636E+00
 -1     22716 7.53112E+01 1.19281E+01 3.63636E+00
 -1     22721 7.65458E+01 1.21237E+01 4.09091E+00
 -1     22722 7.70229E+01 6.06184E+00 4.54545E+00
 -1     22723 7.53112E+01 1.19281E+01 4.54545E+00
 -1     22728 7.65458E+01 1.21237E+01 5.00000E+00
 -1     22729 7.70229E+01 6.06184E+00 5.45455E+00
 -1     22730 7.53112E+01 1.19281E+01 5.45455E+00
 -1     22735 7.65458E+01 1.21237E+01 5.90909E+00
 -1     22736 7.70229E+01 6.06184E+00 6.36364E+00
 -1     22737 7.53112E+01 1.19281E+01 6.36364E+00
 -1     22742 7.65458E+01 1.21237E+01 6.81818E+00
 -1     22743 7.70229E+01 6.06184E+00 7.27273E+00
 -1     22744 7.53112E+01 1.19281E+01 7.27273E+00
 -1     22749 7.65458E+01 1.21237E+01 7.72727E+00
 -1     22750 7.70229E+01 6.06184E+00 8.18182E+00
 -1     22751 7.53112E+01 1.19281E+01 8.18182E+00
 -1     22756 7.65458E+01 1.21237E+01 8.63636E+00
 -1     22757 7.70229E+01 6.06184E+00 9.09091E+00
 -1     22758 7.53112E+01 1.19281E+01 9.09091E+00
 -1     22763 7.65458E+01 1.21237E+01 9.54545E+00
 -1     22767 7.37069E+01 2.39488E+01 4.54545E-01
 -1     22768 7.51264E+01 1.80362E+01 9.09091E-01
 -1     22769 7.25181E+01 2.35625E+01 9.09091E-01
 -1     22774 7.37069E+01 2.39488E+01 1.36364E+00
 -1     22775 7.51264E+01 1.80362E+01 1.81818E+00
 -1     22776 7.25181E+01 2.35625E+01 1.81818E+00
 -1     22781 7.37069E+01 2.39488E+01 2.27273E+00
 -1     22782 7.51264E+01 1.80362E+01 2.72727E+00
 -1     22783 7.25181E+01 2.35625E+01 2.72727E+00
 -1     22788 7.37069E+01 2.39488E+01 3.18182E+00
 -1     22789 7.51264E+01 1.80362E+01 3.63636E+00
 -1     22790 7.25181E+01 2.35625E+01 3.63636E+00
 -1     22795 7.37069E+01 2.39488E+01 4.09091E+00
 -1     22796 7.51264E+01 1.80362E+01 4.54545E+00
 -1     22797 7.25181E+01 2.35625E+01 4.54545E+00
 -1     22802 7.37069E+01 2.39488E+01 5.00000E+00
 -1     22803 7.51264E+01 1.80362E+01 5.45455E+00
 -1     22804 7.25181E+01 2.35625E+01 5.45455E+00
 -1     22809 7.37069E+01 2.39488E+01 5.90909E+00
 -1     22810 7.51264E+01 1.80362E+01 6.36364E+00
 -1     22811 7.25181E+01 2.35625E+01 6.36364E+00
 -1     22816 7.37069E+01 2.39488E+01 6.81818E+00
 -1     22817 7.51264E+01 1.80362E+01 7.27273E+00
 -1     22818 7.25181E+01 2.35625E+01 7.27273E+00
 -1     22823 7.37069E+01 2.39488E+01 7.72727E+00
 -1     22824 7.51264E+01 1.80362E+01 8.18182E+00
 -1     22825 7.25181E+01 2.35625E+01 8.18182E+00
 -1     22830 7.37069E+01 2.39488E+01 8.63636E+00
 -1     22831 7.51264E+01 1.80362E+01 9.09091E+00
 -1     22832 7.25181E+01 2.35625E+01 9.09091E+00
 -1     22837 7.37069E+01 2.39488E+01 9.54545E+00
 -1     22841 6.90530E+01 3.51843E+01 4.54545E-01
 -1     22842 7.13799E+01 2.95665E+01 9.09091E-01
 -1     22843 6.79392E+01 3.46168E+01 9.09091E-01
 -1     22848 6.90530E+01 3.51843E+01 1.36364E+00
 -1     22849 7.13799E+01 2.95665E+01 1.81818E+00
 -1     22850 6.79392E+01 3.46168E+01 1.81818E+00
 -1     22855 6.90530E+01 3.51843E+01 2.27273E+00
 -1     22856 7.13799E+01 2.95665E+01 2.72727E+00
 -1     22857 6.79392E+01 3.46168E+01 2.72727E+00
 -1     22862 6.90530E+01 3.51843E+01 3.18182E+00
 -1     22863 7.13799E+01 2.95665E+01 3.63636E+00
 -1     22864 6.79392E+01 3.46168E+01 3.63636E+00
 -1     22869 6.90530E+01 3.51843E+01 4.09091E+00
 -1     22870 7.13799E+01 2.95665E+01 4.54545E+00
 -1     22871 6.79392E+01 3.46168E+01 4.54545E+00
 -1     22876 6.90530E+01 3.51843E+01 5.00000E+00
 -1     22877 7.13799E+01 2.95665E+01 5.45455E+00
 -1     22878 6.79392E+01 3.46168E+01 5.45455E+00
 -1     22883 6.90530E+01 3.51843E+01 5.90909E+00
 -1     22884 7.13799E+01 2.95665E+01 6.36364E+00
 -1     22885 6.79392E+01 3.46168E+01 6.36364E+00
 -1     22890 6.90530E+01 3.51843E+01 6.81818E+00
 -1     22891 7.13799E+01 2.95665E+01 7.27273E+00
 -1     22892 6.79392E+01 3.46168E+01 7.27273E+00
 -1     22897 6.90530E+01 3.51843E+01 7.72727E+00
 -1     22898 7.13799E+01 2.95665E+01 8.18182E+00
 -1     22899 6.79392E+01 3.46168E+01 8.18182E+00
 -1     22904 6.90530E+01 3.51843E+01 8.63636E+00
 -1     22905 7.13799E+01 2.95665E+01 9.09091E+00
 -1     22906 6.79392E+01 3.46168E+01 9.09091E+00
 -1     22911 6.90530E+01 3.51843E+01 9.54545E+00
 -1     22915 6.26988E+01 4.55534E+01 4.54545E-01
 -1     22916 6.58759E+01 4.03688E+01 9.09091E-01
 -1     22917 6.16875E+01 4.48186E+01 9.09091E-01
 -1     22922 6.26988E+01 4.55534E+01 1.36364E+00
 -1     22923 6.58759E+01 4.03688E+01 1.81818E+00
 -1     22924 6.16875E+01 4.48186E+01 1.81818E+00
 -1     22929 6.26988E+01 4.55534E+01 2.27273E+00
 -1     22930 6.58759E+01 4.03688E+01 2.72727E+00
 -1     22931 6.16875E+01 4.48186E+01 2.72727E+00
 -1     22936 6.26988E+01 4.55534E+01 3.18182E+00
 -1     22937 6.58759E+01 4.03688E+01 3.63636E+00
 -1     22938 6.16875E+01 4.48186E+01 3.63636E+00
 -1     22943 6.26988E+01 4.55534E+01 4.09091E+00
 -1     22944 6.58759E+01 4.03688E+01 4.54545E+00
 -1     22945 6.16875E+01 4.48186E+01 4.54545E+00
 -1     22950 6.26988E+01 4.55534E+01 5.00000E+00
 -1     22951 6.58759E+01 4.03688E+01 5.45455E+00
 -1     22952 6.16875E+01 4.48186E+01 5.45455E+00
 -1     22957 6.26988E+01 4.55534E+01 5.90909E+00
 -1     22958 6.58759E+01 4.03688E+01 6.36364E+00
 -1     22959 6.16875E+01 4.48186E+01 6.36364E+00
 -1     22964 6.26988E+01 4.55534E+01 6.81818E+00
 -1     22965 6.58759E+01 4.03688E+01 7.27273E+00
 -1     22966 6.16875E+01 4.48186E+01 7.27273E+00
 -1     22971 6.26988E+01 4.55534E+01 7.72727E+00
 -1     22972 6.58759E+01 4.03688E+01 8.18182E+00
 -1     22973 6.16875E+01 4.48186E+01 8.18182E+00
 -1     22978 6.26988E+01 4.55534E+01 8.63636E+00
 -1     22979 6.58759E+01 4.03688E+01 9.09091E+00
 -1     22980 6.16875E+01 4.48186E+01 9.09091E+00
 -1     22985 6.26988E+01 4.55534E+01 9.54545E+00
 -1     22989 5.48008E+01 5.48008E+01 4.54545E-01
 -1     22990 5.87498E+01 5.01771E+01 9.09091E-01
 -1     22991 5.39169E+01 5.39169E+01 9.09091E-01
 -1     22996 5.48008E+01 5.48008E+01 1.36364E+00
 -1     22997 5.87498E+01 5.01771E+01 1.81818E+00
 -1     22998 5.39169E+01 5.39169E+01 1.81818E+00
 -1     23003 5.48008E+01 5.48008E+01 2.27273E+00
 -1     23004 5.87498E+01 5.01771E+01 2.72727E+00
 -1     23005 5.39169E+01 5.39169E+01 2.72727E+00
 -1     23010 5.48008E+01 5.48008E+01 3.18182E+00
 -1     23011 5.87498E+01 5.01771E+01 3.63636E+00
 -1     23012 5.39169E+01 5.39169E+01 3.63636E+00
 -1     23017 5.48008E+01 5.48008E+01 4.09091E+00
 -1     23018 5.87498E+01 5.01771E+01 4.54545E+00
 -1     23019 5.39169E+01 5.39169E+01 4.54545E+00
 -1     23024 5.48008E+01 5.48008E+01 5.00000E+00
 -1     23025 5.87498E+01 5.01771E+01 5.45455E+00
 -1     23026 5.39169E+01 5.39169E+01 5.45455E+00
 -1     23031 5.48008E+01 5.48008E+01 5.90909E+00
 -1     23032 5.87498E+01 5.01771E+01 6.36364E+00
 -1     23033 5.39169E+01 5.39169E+01 6.36364E+00
 -1     23038 5.48008E+01 5.48008E+01 6.81818E+00
 -1     23039 5.87498E+01 5.01771E+01 7.27273E+00
 -1     23040 5.39169E+01 5.39169E+01 7.27273E+00
 -1     23045 5.48008E+01 5.48008E+01 7.72727E+00
 -1     23046 5.87498E+01 5.01771E+01 8.18182E+00
 -1     23047 5.39169E+01 5.39169E+01 8.18182E+00
 -1     23052 5.48008E+01 5.48008E+01 8.63636E+00
 -1     23053 5.87498E+01 5.01771E+01 9.09091E+00
 -1     23054 5.39169E+01 5.39169E+01 9.09091E+00
 -1     23059 5.48008E+01 5.48008E+01 9.54545E+00
 -1     23063 4.55534E+01 6.26988E+01 4.54545E-01
 -1     23064 5.01771E+01 5.87498E+01 9.09091E-01
 -1     23065 4.48186E+01 6.16875E+01 9.09091E-01
 -1     23070 4.55534E+01 6.26988E+01 1.36364E+00
 -1     23071 5.01771E+01 5.87498E+01 1.81818E+00
 -1     23072 4.48186E+01 6.16875E+01 1.81818E+00
 -1     23077 4.55534E+01 6.26988E+01 2.27273E+00
 -1     23078 5.01771E+01 5.87498E+01 2.72727E+00
 -1     23079 4.48186E+01 6.16875E+01 2.72727E+00
 -1     23084 4.55534E+01 6.26988E+01 3.18182E+00
 -1     23085 5.01771E+01 5.87498E+01 3.63636E+00
 -1     23086 4.48186E+01 6.16875E+01 3.63636E+00
 -1     23091 4.55534E+01 6.26988E+01 4.09091E+00
 -1     23092 5.01771E+01 5.87498E+01 4.54545E+00
 -1     23093 4.48186E+01 6.16875E+01 4.54545E+00
 -1     23098 4.55534E+01 6.26988E+01 5.00000E+00
 -1     23099 5.01771E+01 5.87498E+01 5.45455E+00
 -1     23100 4.48186E+01 6.16875E+01 5.45455E+00
 -1     23105 4.55534E+01 6.26988E+01 5.90909E+00
 -1     23106 5.01771E+01 5.87498E+01 6.36364E+00
 -1     23107 4.48186E+01 6.16875E+01 6.36364E+00
 -1     23112 4.55534E+01 6.26988E+01 6.81818E+00
 -1     23113 5.01771E+01 5.87498E+01 7.27273E+00
 -1     23114 4.48186E+01 6.16875E+01 7.27273E+00
 -1     23119 4.55534E+01 6.26988E+01 7.72727E+00
 -1     23120 5.01771E+01 5.87498E+01 8.18182E+00
 -1     23121 4.48186E+01 6.16875E+01 8.18182E+00
 -1     23126 4.55534E+01 6.26988E+01 8.63636E+00
 -1     23127 5.01771E+01 5.87498E+01 9.09091E+00
 -1     23128 4.48186E+01 6.16875E+01 9.09091E+00
 -1     23133 4.55534E+01 6.26988E+01 9.54545E+00
 -1     23137 3.51843E+01 6.90530E+01 4.54545E-01
 -1     23138 4.03688E+01 6.58759E+01 9.09091E-01
 -1     23139 3.46168E+01 6.79392E+01 9.09091E-01
 -1     23144 3.51843E+01 6.90530E+01 1.36364E+00
 -1     23145 4.03688E+01 6.58759E+01 1.81818E+00
 -1     23146 3.46168E+01 6.79392E+01 1.81818E+00
 -1     23151 3.51843E+01 6.90530E+01 2.27273E+00
 -1     23152 4.03688E+01 6.58759E+01 2.72727E+00
 -1     23153 3.46168E+01 6.79392E+01 2.72727E+00
 -1     23158 3.51843E+01 6.90530E+01 3.18182E+00
 -1     23159 4.03688E+01 6.58759E+01 3.63636E+00
 -1     23160 3.46168E+01 6.79392E+01 3.63636E+00
 -1     23165 3.51843E+01 6.90530E+01 4.09091E+00
 -1     23166 4.03688E+01 6.58759E+01 4.54545E+00
 -1     23167 3.46168E+01 6.79392E+01 4.54545E+00
 -1     23172 3.51843E+01 6.90530E+01 5.00000E+00
 -1     23173 4.03688E+01 6.58759E+01 5.45455E+00
 -1     23174 3.46168E+01 6.79392E+01 5.45455E+00
 -1     23179 3.51843E+01 6.90530E+01 5.90909E+00
 -1     23180 4.03688E+01 6.58759E+01 6.36364E+00
 -1     23181 3.46168E+01 6.79392E+01 6.36364E+00
 -1     23186 3.51843E+01 6.90530E+01 6.81818E+00
 -1     23187 4.03688E+01 6.58759E+01 7.27273E+00
 -1     23188 3.46168E+01 6.79392E+01 7.27273E+00
 -1     23193 3.51843E+01 6.90530E+01 7.72727E+00
 -1     23194 4.03688E+01 6.58759E+01 8.18182E+00
 -1     23195 3.46168E+01 6.79392E+01 8.18182E+00
 -1     23200 3.51843E+01 6.90530E+01 8.63636E+00
 -1     23201 4.03688E+01 6.58759E+01 9.09091E+00
 -1     23202 3.46168E+01 6.79392E+01 9.09091E+00
 -1     23207 3.51843E+01 6.90530E+01 9.54545E+00
 -1     23211 2.39488E+01 7.37069E+01 4.54545E-01
 -1     23212 2.95665E+01 7.13799E+01 9.09091E-01
 -1     23213 2.35625E+01 7.25181E+01 9.09091E-01
 -1     23218 2.39488E+01 7.37069E+01 1.36364E+00
 -1     23219 2.95665E+01 7.13799E+01 1.81818E+00
 -1     23220 2.35625E+01 7.25181E+01 1.81818E+00
 -1     23225 2.39488E+01 7.37069E+01 2.27273E+00
 -1     23226 2.95665E+01 7.13799E+01 2.72727E+00
 -1     23227 2.35625E+01 7.25181E+01 2.72727E+00
 -1     23232 2.39488E+01 7.37069E+01 3.18182E+00
 -1     23233 2.95665E+01 7.13799E+01 3.63636E+00
 -1     23234 2.35625E+01 7.25181E+01 3.63636E+00
 -1     23239 2.39488E+01 7.37069E+01 4.09091E+00
 -1     23240 2.95665E+01 7.13799E+01 4.54545E+00
 -1     23241 2.35625E+01 7.25181E+01 4.54545E+00
 -1     23246 2.39488E+01 7.37069E+01 5.00000E+00
 -1     23247 2.95665E+01 7.13799E+01 5.45455E+00
 -1     23248 2.35625E+01 7.25181E+01 5.45455E+00
 -1     23253 2.39488E+01 7.37069E+01 5.90909E+00
 -1     23254 2.95665E+01 7.13799E+01 6.36364E+00
 -1     23255 2.35625E+01 7.25181E+01 6.36364E+00
 -1     23260 2.39488E+01 7.37069E+01 6.81818E+00
 -1     23261 2.95665E+01 7.13799E+01 7.27273E+00
 -1     23262 2.35625E+01 7.25181E+01 7.27273E+00
 -1     23267 2.39488E+01 7.37069E+01 7.72727E+00
 -1     23268 2.95665E+01 7.13799E+01 8.18182E+00
 -1     23269 2.35625E+01 7.25181E+01 8.18182E+00
 -1     23274 2.39488E+01 7.37069E+01 8.63636E+00
 -1     23275 2.95665E+01 7.13799E+01 9.09091E+00
 -1     23276 2.35625E+01 7.25181E+01 9.09091E+00
 -1     23281 2.39488E+01 7.37069E+01 9.54545E+00
 -1     23285 1.21237E+01 7.65458E+01 4.54545E-01
 -1     23286 1.80362E+01 7.51264E+01 9.09091E-01
 -1     23287 1.19281E+01 7.53112E+01 9.09091E-01
 -1     23292 1.21237E+01 7.65458E+01 1.36364E+00
 -1     23293 1.80362E+01 7.51264E+01 1.81818E+00
 -1     23294 1.19281E+01 7.53112E+01 1.81818E+00
 -1     23299 1.21237E+01 7.65458E+01 2.27273E+00
 -1     23300 1.80362E+01 7.51264E+01 2.72727E+00
 -1     23301 1.19281E+01 7.53112E+01 2.72727E+00
 -1     23306 1.21237E+01 7.65458E+01 3.18182E+00
 -1     23307 1.80362E+01 7.51264E+01 3.63636E+00
 -1     23308 1.19281E+01 7.53112E+01 3.63636E+00
 -1     23313 1.21237E+01 7.65458E+01 4.09091E+00
 -1     23314 1.80362E+01 7.51264E+01 4.54545E+00
 -1     23315 1.19281E+01 7.53112E+01 4.54545E+00
 -1     23320 1.21237E+01 7.65458E+01 5.00000E+00
 -1     23321 1.80362E+01 7.51264E+01 5.45455E+00
 -1     23322 1.19281E+01 7.53112E+01 5.45455E+00
 -1     23327 1.21237E+01 7.65458E+01 5.90909E+00
 -1     23328 1.80362E+01 7.51264E+01 6.36364E+00
 -1     23329 1.19281E+01 7.53112E+01 6.36364E+00
 -1     23334 1.21237E+01 7.65458E+01 6.81818E+00
 -1     23335 1.80362E+01 7.51264E+01 7.27273E+00
 -1     23336 1.19281E+01 7.53112E+01 7.27273E+00
 -1     23341 1.21237E+01 7.65458E+01 7.72727E+00
 -1     23342 1.80362E+01 7.51264E+01 8.18182E+00
 -1     23343 1.19281E+01 7.53112E+01 8.18182E+00
 -1     23348 1.21237E+01 7.65458E+01 8.63636E+00
 -1     23349 1.80362E+01 7.51264E+01 9.09091E+00
 -1     23350 1.19281E+01 7.53112E+01 9.09091E+00
 -1     23355 1.21237E+01 7.65458E+01 9.54545E+00
 -1     23359 6.06184E+00 7.70229E+01 9.09091E-01
 -1     23363 6.06184E+00 7.70229E+01 1.81818E+00
 -1     23367 6.06184E+00 7.70229E+01 2.72727E+00
 -1     23371 6.06184E+00 7.70229E+01 3.63636E+00
 -1     23375 6.06184E+00 7.70229E+01 4.54545E+00
 -1     23379 6.06184E+00 7.70229E+01 5.45455E+00
 -1     23383 6.06184E+00 7.70229E+01 6.36364E+00
 -1     23387 6.06184E+00 7.70229E+01 7.27273E+00
 -1     23391 6.06184E+00 7.70229E+01 8.18182E+00
 -1     23395 6.06184E+00 7.70229E+01 9.09091E+00
 -1     23401 7.90151E+01 1.25148E+01 4.54545E-01
 -1     23402 7.95075E+01 6.25738E+00 9.09091E-01
 -1     23403 7.77805E+01 1.23192E+01 9.09091E-01
 -1     23408 7.90151E+01 1.25148E+01 1.36364E+00
 -1     23409 7.95075E+01 6.25738E+00 1.81818E+00
 -1     23410 7.77805E+01 1.23192E+01 1.81818E+00
 -1     23415 7.90151E+01 1.25148E+01 2.27273E+00
 -1     23416 7.95075E+01 6.25738E+00 2.72727E+00
 -1     23417 7.77805E+01 1.23192E+01 2.72727E+00
 -1     23422 7.90151E+01 1.25148E+01 3.18182E+00
 -1     23423 7.95075E+01 6.25738E+00 3.63636E+00
 -1     23424 7.77805E+01 1.23192E+01 3.63636E+00
 -1     23429 7.90151E+01 1.25148E+01 4.09091E+00
 -1     23430 7.95075E+01 6.25738E+00 4.54545E+00
 -1     23431 7.77805E+01 1.23192E+01 4.54545E+00
 -1     23436 7.90151E+01 1.25148E+01 5.00000E+00
 -1     23437 7.95075E+01 6.25738E+00 5.45455E+00
 -1     23438 7.77805E+01 1.23192E+01 5.45455E+00
 -1     23443 7.90151E+01 1.25148E+01 5.90909E+00
 -1     23444 7.95075E+01 6.25738E+00 6.36364E+00
 -1     23445 7.77805E+01 1.23192E+01 6.36364E+00
 -1     23450 7.90151E+01 1.25148E+01 6.81818E+00
 -1     23451 7.95075E+01 6.25738E+00 7.27273E+00
 -1     23452 7.77805E+01 1.23192E+01 7.27273E+00
 -1     23457 7.90151E+01 1.25148E+01 7.72727E+00
 -1     23458 7.95075E+01 6.25738E+00 8.18182E+00
 -1     23459 7.77805E+01 1.23192E+01 8.18182E+00
 -1     23464 7.90151E+01 1.25148E+01 8.63636E+00
 -1     23465 7.95075E+01 6.25738E+00 9.09091E+00
 -1     23466 7.77805E+01 1.23192E+01 9.09091E+00
 -1     23471 7.90151E+01 1.25148E+01 9.54545E+00
 -1     23475 7.60845E+01 2.47214E+01 4.54545E-01
 -1     23476 7.75498E+01 1.86181E+01 9.09091E-01
 -1     23477 7.48957E+01 2.43351E+01 9.09091E-01
 -1     23482 7.60845E+01 2.47214E+01 1.36364E+00
 -1     23483 7.75498E+01 1.86181E+01 1.81818E+00
 -1     23484 7.48957E+01 2.43351E+01 1.81818E+00
 -1     23489 7.60845E+01 2.47214E+01 2.27273E+00
 -1     23490 7.75498E+01 1.86181E+01 2.72727E+00
 -1     23491 7.48957E+01 2.43351E+01 2.72727E+00
 -1     23496 7.60845E+01 2.47214E+01 3.18182E+00
 -1     23497 7.75498E+01 1.86181E+01 3.63636E+00
 -1     23498 7.48957E+01 2.43351E+01 3.63636E+00
 -1     23503 7.60845E+01 2.47214E+01 4.09091E+00
 -1     23504 7.75498E+01 1.86181E+01 4.54545E+00
 -1     23505 7.48957E+01 2.43351E+01 4.54545E+00
 -1     23510 7.60845E+01 2.47214E+01 5.00000E+00
 -1     23511 7.75498E+01 1.86181E+01 5.45455E+00
 -1     23512 7.48957E+01 2.43351E+01 5.45455E+00
 -1     23517 7.60845E+01 2.47214E+01 5.90909E+00
 -1     23518 7.75498E+01 1.86181E+01 6.36364E+00
 -1     23519 7.48957E+01 2.43351E+01 6.36364E+00
 -1     23524 7.60845E+01 2.47214E+01 6.81818E+00
 -1     23525 7.75498E+01 1.86181E+01 7.27273E+00
 -1     23526 7.48957E+01 2.43351E+01 7.27273E+00
 -1     23531 7.60845E+01 2.47214E+01 7.72727E+00
 -1     23532 7.75498E+01 1.86181E+01 8.18182E+00
 -1     23533 7.48957E+01 2.43351E+01 8.18182E+00
 -1     23538 7.60845E+01 2.47214E+01 8.63636E+00
 -1     23539 7.75498E+01 1.86181E+01 9.09091E+00
 -1     23540 7.48957E+01 2.43351E+01 9.09091E+00
 -1     23545 7.60845E+01 2.47214E+01 9.54545E+00
 -1     23549 7.12805E+01 3.63192E+01 4.54545E-01
 -1     23550 7.36825E+01 3.05203E+01 9.09091E-01
 -1     23551 7.01668E+01 3.57518E+01 9.09091E-01
 -1     23556 7.12805E+01 3.63192E+01 1.36364E+00
 -1     23557 7.36825E+01 3.05203E+01 1.81818E+00
 -1     23558 7.01668E+01 3.57518E+01 1.81818E+00
 -1     23563 7.12805E+01 3.63192E+01 2.27273E+00
 -1     23564 7.36825E+01 3.05203E+01 2.72727E+00
 -1     23565 7.01668E+01 3.57518E+01 2.72727E+00
 -1     23570 7.12805E+01 3.63192E+01 3.18182E+00
 -1     23571 7.36825E+01 3.05203E+01 3.63636E+00
 -1     23572 7.01668E+01 3.57518E+01 3.63636E+00
 -1     23577 7.12805E+01 3.63192E+01 4.09091E+00
 -1     23578 7.36825E+01 3.05203E+01 4.54545E+00
 -1     23579 7.01668E+01 3.57518E+01 4.54545E+00
 -1     23584 7.12805E+01 3.63192E+01 5.00000E+00
 -1     23585 7.36825E+01 3.05203E+01 5.45455E+00
 -1     23586 7.01668E+01 3.57518E+01 5.45455E+00
 -1     23591 7.12805E+01 3.63192E+01 5.90909E+00
 -1     23592 7.36825E+01 3.05203E+01 6.36364E+00
 -1     23593 7.01668E+01 3.57518E+01 6.36364E+00
 -1     23598 7.12805E+01 3.63192E+01 6.81818E+00
 -1     23599 7.36825E+01 3.05203E+01 7.27273E+00
 -1     23600 7.01668E+01 3.57518E+01 7.27273E+00
 -1     23605 7.12805E+01 3.63192E+01 7.72727E+00
 -1     23606 7.36825E+01 3.05203E+01 8.18182E+00
 -1     23607 7.01668E+01 3.57518E+01 8.18182E+00
 -1     23612 7.12805E+01 3.63192E+01 8.63636E+00
 -1     23613 7.36825E+01 3.05203E+01 9.09091E+00
 -1     23614 7.01668E+01 3.57518E+01 9.09091E+00
 -1     23619 7.12805E+01 3.63192E+01 9.54545E+00
 -1     23623 6.47214E+01 4.70228E+01 4.54545E-01
 -1     23624 6.80009E+01 4.16710E+01 9.09091E-01
 -1     23625 6.37101E+01 4.62881E+01 9.09091E-01
 -1     23630 6.47214E+01 4.70228E+01 1.36364E+00
 -1     23631 6.80009E+01 4.16710E+01 1.81818E+00
 -1     23632 6.37101E+01 4.62881E+01 1.81818E+00
 -1     23637 6.47214E+01 4.70228E+01 2.27273E+00
 -1     23638 6.80009E+01 4.16710E+01 2.72727E+00
 -1     23639 6.37101E+01 4.62881E+01 2.72727E+00
 -1     23644 6.47214E+01 4.70228E+01 3.18182E+00
 -1     23645 6.80009E+01 4.16710E+01 3.63636E+00
 -1     23646 6.37101E+01 4.62881E+01 3.63636E+00
 -1     23651 6.47214E+01 4.70228E+01 4.09091E+00
 -1     23652 6.80009E+01 4.16710E+01 4.54545E+00
 -1     23653 6.37101E+01 4.62881E+01 4.54545E+00
 -1     23658 6.47214E+01 4.70228E+01 5.00000E+00
 -1     23659 6.80009E+01 4.16710E+01 5.45455E+00
 -1     23660 6.37101E+01 4.62881E+01 5.45455E+00
 -1     23665 6.47214E+01 4.70228E+01 5.90909E+00
 -1     23666 6.80009E+01 4.16710E+01 6.36364E+00
 -1     23667 6.37101E+01 4.62881E+01 6.36364E+00
 -1     23672 6.47214E+01 4.70228E+01 6.81818E+00
 -1     23673 6.80009E+01 4.16710E+01 7.27273E+00
 -1     23674 6.37101E+01 4.62881E+01 7.27273E+00
 -1     23679 6.47214E+01 4.70228E+01 7.72727E+00
 -1     23680 6.80009E+01 4.16710E+01 8.18182E+00
 -1     23681 6.37101E+01 4.62881E+01 8.18182E+00
 -1     23686 6.47214E+01 4.70228E+01 8.63636E+00
 -1     23687 6.80009E+01 4.16710E+01 9.09091E+00
 -1     23688 6.37101E+01 4.62881E+01 9.09091E+00
 -1     23693 6.47214E+01 4.70228E+01 9.54545E+00
 -1     23697 5.65685E+01 5.65685E+01 4.54545E-01
 -1     23698 6.06450E+01 5.17957E+01 9.09091E-01
 -1     23699 5.56847E+01 5.56847E+01 9.09091E-01
 -1     23704 5.65685E+01 5.65685E+01 1.36364E+00
 -1     23705 6.06450E+01 5.17957E+01 1.81818E+00
 -1     23706 5.56847E+01 5.56847E+01 1.81818E+00
 -1     23711 5.65685E+01 5.65685E+01 2.27273E+00
 -1     23712 6.06450E+01 5.17957E+01 2.72727E+00
 -1     23713 5.56847E+01 5.56847E+01 2.72727E+00
 -1     23718 5.65685E+01 5.65685E+01 3.18182E+00
 -1     23719 6.06450E+01 5.17957E+01 3.63636E+00
 -1     23720 5.56847E+01 5.56847E+01 3.63636E+00
 -1     23725 5.65685E+01 5.65685E+01 4.09091E+00
 -1     23726 6.06450E+01 5.17957E+01 4.54545E+00
 -1     23727 5.56847E+01 5.56847E+01 4.54545E+00
 -1     23732 5.65685E+01 5.65685E+01 5.00000E+00
 -1     23733 6.06450E+01 5.17957E+01 5.45455E+00
 -1     23734 5.56847E+01 5.56847E+01 5.45455E+00
 -1     23739 5.65685E+01 5.65685E+01 5.90909E+00
 -1     23740 6.06450E+01 5.17957E+01 6.36364E+00
 -1     23741 5.56847E+01 5.56847E+01 6.36364E+00
 -1     23746 5.65685E+01 5.65685E+01 6.81818E+00
 -1     23747 6.06450E+01 5.17957E+01 7.27273E+00
 -1     23748 5.56847E+01 5.56847E+01 7.27273E+00
 -1     23753 5.65685E+01 5.65685E+01 7.72727E+00
 -1     23754 6.06450E+01 5.17957E+01 8.18182E+00
 -1     23755 5.56847E+01 5.56847E+01 8.18182E+00
 -1     23760 5.65685E+01 5.65685E+01 8.63636E+00
 -1     23761 6.06450E+01 5.17957E+01 9.09091E+00
 -1     23762 5.56847E+01 5.56847E+01 9.09091E+00
 -1     23767 5.65685E+01 5.65685E+01 9.54545E+00
 -1     23771 4.70228E+01 6.47214E+01 4.54545E-01
 -1     23772 5.17957E+01 6.06450E+01 9.09091E-01
 -1     23773 4.62881E+01 6.37101E+01 9.09091E-01
 -1     23778 4.70228E+01 6.47214E+01 1.36364E+00
 -1     23779 5.17957E+01 6.06450E+01 1.81818E+00
 -1     23780 4.62881E+01 6.37101E+01 1.81818E+00
 -1     23785 4.70228E+01 6.47214E+01 2.27273E+00
 -1     23786 5.17957E+01 6.06450E+01 2.72727E+00
 -1     23787 4.62881E+01 6.37101E+01 2.72727E+00
 -1     23792 4.70228E+01 6.47214E+01 3.18182E+00
 -1     23793 5.17957E+01 6.06450E+01 3.63636E+00
 -1     23794 4.62881E+01 6.37101E+01 3.63636E+00
 -1     23799 4.70228E+01 6.47214E+01 4.09091E+00
 -1     23800 5.17957E+01 6.06450E+01 4.54545E+00
 -1     23801 4.62881E+01 6.37101E+01 4.54545E+00
 -1     23806 4.70228E+01 6.47214E+01 5.00000E+00
 -1     23807 5.17957E+01 6.06450E+01 5.45455E+00
 -1     23808 4.62881E+01 6.37101E+01 5.45455E+00
 -1     23813 4.70228E+01 6.47214E+01 5.90909E+00
 -1     23814 5.17957E+01 6.06450E+01 6.36364E+00
 -1     23815 4.62881E+01 6.37101E+01 6.36364E+00
 -1     23820 4.70228E+01 6.47214E+01 6.81818E+00
 -1     23821 5.17957E+01 6.06450E+01 7.27273E+00
 -1     23822 4.62881E+01 6.37101E+01 7.27273E+00
 -1     23827 4.70228E+01 6.47214E+01 7.72727E+00
 -1     23828 5.17957E+01 6.06450E+01 8.18182E+00
 -1     23829 4.62881E+01 6.37101E+01 8.18182E+00
 -1     23834 4.70228E+01 6.47214E+01 8.63636E+00
 -1     23835 5.17957E+01 6.06450E+01 9.09091E+00
 -1     23836 4.62881E+01 6.37101E+01 9.09091E+00
 -1     23841 4.70228E+01 6.47214E+01 9.54545E+00
 -1     23845 3.63192E+01 7.12805E+01 4.54545E-01
 -1     23846 4.16710E+01 6.80009E+01 9.09091E-01
 -1     23847 3.57518E+01 7.01668E+01 9.09091E-01
 -1     23852 3.63192E+01 7.12805E+01 1.36364E+00
 -1     23853 4.16710E+01 6.80009E+01 1.81818E+00
 -1     23854 3.57518E+01 7.01668E+01 1.81818E+00
 -1     23859 3.63192E+01 7.12805E+01 2.27273E+00
 -1     23860 4.16710E+01 6.80009E+01 2.72727E+00
 -1     23861 3.57518E+01 7.01668E+01 2.72727E+00
 -1     23866 3.63192E+01 7.12805E+01 3.18182E+00
 -1     23867 4.16710E+01 6.80009E+01 3.63636E+00
 -1     23868 3.57518E+01 7.01668E+01 3.63636E+00
 -1     23873 3.63192E+01 7.12805E+01 4.09091E+00
 -1     23874 4.16710E+01 6.80009E+01 4.54545E+00
 -1     23875 3.57518E+01 7.01668E+01 4.54545E+00
 -1     23880 3.63192E+01 7.12805E+01 5.00000E+00
 -1     23881 4.16710E+01 6.80009E+01 5.45455E+00
 -1     23882 3.57518E+01 7.01668E+01 5.45455E+00
 -1     23887 3.63192E+01 7.12805E+01 5.90909E+00
 -1     23888 4.16710E+01 6.80009E+01 6.36364E+00
 -1     23889 3.57518E+01 7.01668E+01 6.36364E+00
 -1     23894 3.63192E+01 7.12805E+01 6.81818E+00
 -1     23895 4.16710E+01 6.80009E+01 7.27273E+00
 -1     23896 3.57518E+01 7.01668E+01 7.27273E+00
 -1     23901 3.63192E+01 7.12805E+01 7.72727E+00
 -1     23902 4.16710E+01 6.80009E+01 8.18182E+00
 -1     23903 3.57518E+01 7.01668E+01 8.18182E+00
 -1     23908 3.63192E+01 7.12805E+01 8.63636E+00
 -1     23909 4.16710E+01 6.80009E+01 9.09091E+00
 -1     23910 3.57518E+01 7.01668E+01 9.09091E+00
 -1     23915 3.63192E+01 7.12805E+01 9.54545E+00
 -1     23919 2.47214E+01 7.60845E+01 4.54545E-01
 -1     23920 3.05203E+01 7.36825E+01 9.09091E-01
 -1     23921 2.43351E+01 7.48957E+01 9.09091E-01
 -1     23926 2.47214E+01 7.60845E+01 1.36364E+00
 -1     23927 3.05203E+01 7.36825E+01 1.81818E+00
 -1     23928 2.43351E+01 7.48957E+01 1.81818E+00
 -1     23933 2.47214E+01 7.60845E+01 2.27273E+00
 -1     23934 3.05203E+01 7.36825E+01 2.72727E+00
 -1     23935 2.43351E+01 7.48957E+01 2.72727E+00
 -1     23940 2.47214E+01 7.60845E+01 3.18182E+00
 -1     23941 3.05203E+01 7.36825E+01 3.63636E+00
 -1     23942 2.43351E+01 7.48957E+01 3.63636E+00
 -1     23947 2.47214E+01 7.60845E+01 4.09091E+00
 -1     23948 3.05203E+01 7.36825E+01 4.54545E+00
 -1     23949 2.43351E+01 7.48957E+01 4.54545E+00
 -1     23954 2.47214E+01 7.60845E+01 5.00000E+00
 -1     23955 3.05203E+01 7.36825E+01 5.45455E+00
 -1     23956 2.43351E+01 7.48957E+01 5.45455E+00
 -1     23961 2.47214E+01 7.60845E+01 5.90909E+00
 -1     23962 3.05203E+01 7.36825E+01 6.36364E+00
 -1     23963 2.43351E+01 7.48957E+01 6.36364E+00
 -1     23968 2.47214E+01 7.60845E+01 6.81818E+00
 -1     23969 3.05203E+01 7.36825E+01 7.27273E+00
 -1     23970 2.43351E+01 7.48957E+01 7.27273E+00
 -1     23975 2.47214E+01 7.60845E+01 7.72727E+00
 -1     23976 3.05203E+01 7.36825E+01 8.18182E+00
 -1     23977 2.43351E+01 7.48957E+01 8.18182E+00
 -1     23982 2.47214E+01 7.60845E+01 8.63636E+00
 -1     23983 3.05203E+01 7.36825E+01 9.09091E+00
 -1     23984 2.43351E+01 7.48957E+01 9.09091E+00
 -1     23989 2.47214E+01 7.60845E+01 9.54545E+00
 -1     23993 1.25148E+01 7.90151E+01 4.54545E-01
 -1     23994 1.86181E+01 7.75498E+01 9.09091E-01
 -1     23995 1.23192E+01 7.77805E+01 9.09091E-01
 -1     24000 1.25148E+01 7.90151E+01 1.36364E+00
 -1     24001 1.86181E+01 7.75498E+01 1.81818E+00
 -1     24002 1.23192E+01 7.77805E+01 1.81818E+00
 -1     24007 1.25148E+01 7.90151E+01 2.27273E+00
 -1     24008 1.86181E+01 7.75498E+01 2.72727E+00
 -1     24009 1.23192E+01 7.77805E+01 2.72727E+00
 -1     24014 1.25148E+01 7.90151E+01 3.18182E+00
 -1     24015 1.86181E+01 7.75498E+01 3.63636E+00
 -1     24016 1.23192E+01 7.77805E+01 3.63636E+00
 -1     24021 1.25148E+01 7.90151E+01 4.09091E+00
 -1     24022 1.86181E+01 7.75498E+01 4.54545E+00
 -1     24023 1.23192E+01 7.77805E+01 4.54545E+00
 -1     24028 1.25148E+01 7.90151E+01 5.00000E+00
 -1     24029 1.86181E+01 7.75498E+01 5.45455E+00
 -1     24030 1.23192E+01 7.77805E+01 5.45455E+00
 -1     24035 1.25148E+01 7.90151E+01 5.90909E+00
 -1     24036 1.86181E+01 7.75498E+01 6.36364E+00
 -1     24037 1.23192E+01 7.77805E+01 6.36364E+00
 -1     24042 1.25148E+01 7.90151E+01 6.81818E+00
 -1     24043 1.86181E+01 7.75498E+01 7.27273E+00
 -1     24044 1.23192E+01 7.77805E+01 7.27273E+00
 -1     24049 1.25148E+01 7.90151E+01 7.72727E+00
 -1     24050 1.86181E+01 7.75498E+01 8.18182E+00
 -1     24051 1.23192E+01 7.77805E+01 8.18182E+00
 -1     24056 1.25148E+01 7.90151E+01 8.63636E+00
 -1     24057 1.86181E+01 7.75498E+01 9.09091E+00
 -1     24058 1.23192E+01 7.77805E+01 9.09091E+00
 -1     24063 1.25148E+01 7.90151E+01 9.54545E+00
 -1     24067 6.25738E+00 7.95075E+01 9.09091E-01
 -1     24071 6.25738E+00 7.95075E+01 1.81818E+00
 -1     24075 6.25738E+00 7.95075E+01 2.72727E+00
 -1     24079 6.25738E+00 7.95075E+01 3.63636E+00
 -1     24083 6.25738E+00 7.95075E+01 4.54545E+00
 -1     24087 6.25738E+00 7.95075E+01 5.45455E+00
 -1     24091 6.25738E+00 7.95075E+01 6.36364E+00
 -1     24095 6.25738E+00 7.95075E+01 7.27273E+00
 -1     24099 6.25738E+00 7.95075E+01 8.18182E+00
 -1     24103 6.25738E+00 7.95075E+01 9.09091E+00
 -1     24109 8.14843E+01 1.29058E+01 4.54545E-01
 -1     24110 8.19921E+01 6.45292E+00 9.09091E-01
 -1     24111 8.02497E+01 1.27103E+01 9.09091E-01
 -1     24116 8.14843E+01 1.29058E+01 1.36364E+00
 -1     24117 8.19921E+01 6.45292E+00 1.81818E+00
 -1     24118 8.02497E+01 1.27103E+01 1.81818E+00
 -1     24123 8.14843E+01 1.29058E+01 2.27273E+00
 -1     24124 8.19921E+01 6.45292E+00 2.72727E+00
 -1     24125 8.02497E+01 1.27103E+01 2.72727E+00
 -1     24130 8.14843E+01 1.29058E+01 3.18182E+00
 -1     24131 8.19921E+01 6.45292E+00 3.63636E+00
 -1     24132 8.02497E+01 1.27103E+01 3.63636E+00
 -1     24137 8.14843E+01 1.29058E+01 4.09091E+00
 -1     24138 8.19921E+01 6.45292E+00 4.54545E+00
 -1     24139 8.02497E+01 1.27103E+01 4.54545E+00
 -1     24144 8.14843E+01 1.29058E+01 5.00000E+00
 -1     24145 8.19921E+01 6.45292E+00 5.45455E+00
 -1     24146 8.02497E+01 1.27103E+01 5.45455E+00
 -1     24151 8.14843E+01 1.29058E+01 5.90909E+00
 -1     24152 8.19921E+01 6.45292E+00 6.36364E+00
 -1     24153 8.02497E+01 1.27103E+01 6.36364E+00
 -1     24158 8.14843E+01 1.29058E+01 6.81818E+00
 -1     24159 8.19921E+01 6.45292E+00 7.27273E+00
 -1     24160 8.02497E+01 1.27103E+01 7.27273E+00
 -1     24165 8.14843E+01 1.29058E+01 7.72727E+00
 -1     24166 8.19921E+01 6.45292E+00 8.18182E+00
 -1     24167 8.02497E+01 1.27103E+01 8.18182E+00
 -1     24172 8.14843E+01 1.29058E+01 8.63636E+00
 -1     24173 8.19921E+01 6.45292E+00 9.09091E+00
 -1     24174 8.02497E+01 1.27103E+01 9.09091E+00
 -1     24179 8.14843E+01 1.29058E+01 9.54545E+00
 -1     24183 7.84622E+01 2.54939E+01 4.54545E-01
 -1     24184 7.99732E+01 1.91999E+01 9.09091E-01
 -1     24185 7.72733E+01 2.51076E+01 9.09091E-01
 -1     24190 7.84622E+01 2.54939E+01 1.36364E+00
 -1     24191 7.99732E+01 1.91999E+01 1.81818E+00
 -1     24192 7.72733E+01 2.51076E+01 1.81818E+00
 -1     24197 7.84622E+01 2.54939E+01 2.27273E+00
 -1     24198 7.99732E+01 1.91999E+01 2.72727E+00
 -1     24199 7.72733E+01 2.51076E+01 2.72727E+00
 -1     24204 7.84622E+01 2.54939E+01 3.18182E+00
 -1     24205 7.99732E+01 1.91999E+01 3.63636E+00
 -1     24206 7.72733E+01 2.51076E+01 3.63636E+00
 -1     24211 7.84622E+01 2.54939E+01 4.09091E+00
 -1     24212 7.99732E+01 1.91999E+01 4.54545E+00
 -1     24213 7.72733E+01 2.51076E+01 4.54545E+00
 -1     24218 7.84622E+01 2.54939E+01 5.00000E+00
 -1     24219 7.99732E+01 1.91999E+01 5.45455E+00
 -1     24220 7.72733E+01 2.51076E+01 5.45455E+00
 -1     24225 7.84622E+01 2.54939E+01 5.90909E+00
 -1     24226 7.99732E+01 1.91999E+01 6.36364E+00
 -1     24227 7.72733E+01 2.51076E+01 6.36364E+00
 -1     24232 7.84622E+01 2.54939E+01 6.81818E+00
 -1     24233 7.99732E+01 1.91999E+01 7.27273E+00
 -1     24234 7.72733E+01 2.51076E+01 7.27273E+00
 -1     24239 7.84622E+01 2.54939E+01 7.72727E+00
 -1     24240 7.99732E+01 1.91999E+01 8.18182E+00
 -1     24241 7.72733E+01 2.51076E+01 8.18182E+00
 -1     24246 7.84622E+01 2.54939E+01 8.63636E+00
 -1     24247 7.99732E+01 1.91999E+01 9.09091E+00
 -1     24248 7.72733E+01 2.51076E+01 9.09091E+00
 -1     24253 7.84622E+01 2.54939E+01 9.54545E+00
 -1     24257 7.35080E+01 3.74542E+01 4.54545E-01
 -1     24258 7.59851E+01 3.14741E+01 9.09091E-01
 -1     24259 7.23943E+01 3.68867E+01 9.09091E-01
 -1     24264 7.35080E+01 3.74542E+01 1.36364E+00
 -1     24265 7.59851E+01 3.14741E+01 1.81818E+00
 -1     24266 7.23943E+01 3.68867E+01 1.81818E+00
 -1     24271 7.35080E+01 3.74542E+01 2.27273E+00
 -1     24272 7.59851E+01 3.14741E+01 2.72727E+00
 -1     24273 7.23943E+01 3.68867E+01 2.72727E+00
 -1     24278 7.35080E+01 3.74542E+01 3.18182E+00
 -1     24279 7.59851E+01 3.14741E+01 3.63636E+00
 -1     24280 7.23943E+01 3.68867E+01 3.63636E+00
 -1     24285 7.35080E+01 3.74542E+01 4.09091E+00
 -1     24286 7.59851E+01 3.14741E+01 4.54545E+00
 -1     24287 7.23943E+01 3.68867E+01 4.54545E+00
 -1     24292 7.35080E+01 3.74542E+01 5.00000E+00
 -1     24293 7.59851E+01 3.14741E+01 5.45455E+00
 -1     24294 7.23943E+01 3.68867E+01 5.45455E+00
 -1     24299 7.35080E+01 3.74542E+01 5.90909E+00
 -1     24300 7.59851E+01 3.14741E+01 6.36364E+00
 -1     24301 7.23943E+01 3.68867E+01 6.36364E+00
 -1     24306 7.35080E+01 3.74542E+01 6.81818E+00
 -1     24307 7.59851E+01 3.14741E+01 7.27273E+00
 -1     24308 7.23943E+01 3.68867E+01 7.27273E+00
 -1     24313 7.35080E+01 3.74542E+01 7.72727E+00
 -1     24314 7.59851E+01 3.14741E+01 8.18182E+00
 -1     24315 7.23943E+01 3.68867E+01 8.18182E+00
 -1     24320 7.35080E+01 3.74542E+01 8.63636E+00
 -1     24321 7.59851E+01 3.14741E+01 9.09091E+00
 -1     24322 7.23943E+01 3.68867E+01 9.09091E+00
 -1     24327 7.35080E+01 3.74542E+01 9.54545E+00
 -1     24331 6.67439E+01 4.84923E+01 4.54545E-01
 -1     24332 7.01260E+01 4.29733E+01 9.09091E-01
 -1     24333 6.57326E+01 4.77576E+01 9.09091E-01
 -1     24338 6.67439E+01 4.84923E+01 1.36364E+00
 -1     24339 7.01260E+01 4.29733E+01 1.81818E+00
 -1     24340 6.57326E+01 4.77576E+01 1.81818E+00
 -1     24345 6.67439E+01 4.84923E+01 2.27273E+00
 -1     24346 7.01260E+01 4.29733E+01 2.72727E+00
 -1     24347 6.57326E+01 4.77576E+01 2.72727E+00
 -1     24352 6.67439E+01 4.84923E+01 3.18182E+00
 -1     24353 7.01260E+01 4.29733E+01 3.63636E+00
 -1     24354 6.57326E+01 4.77576E+01 3.63636E+00
 -1     24359 6.67439E+01 4.84923E+01 4.09091E+00
 -1     24360 7.01260E+01 4.29733E+01 4.54545E+00
 -1     24361 6.57326E+01 4.77576E+01 4.54545E+00
 -1     24366 6.67439E+01 4.84923E+01 5.00000E+00
 -1     24367 7.01260E+01 4.29733E+01 5.45455E+00
 -1     24368 6.57326E+01 4.77576E+01 5.45455E+00
 -1     24373 6.67439E+01 4.84923E+01 5.90909E+00
 -1     24374 7.01260E+01 4.29733E+01 6.36364E+00
 -1     24375 6.57326E+01 4.77576E+01 6.36364E+00
 -1     24380 6.67439E+01 4.84923E+01 6.81818E+00
 -1     24381 7.01260E+01 4.29733E+01 7.27273E+00
 -1     24382 6.57326E+01 4.77576E+01 7.27273E+00
 -1     24387 6.67439E+01 4.84923E+01 7.72727E+00
 -1     24388 7.01260E+01 4.29733E+01 8.18182E+00
 -1     24389 6.57326E+01 4.77576E+01 8.18182E+00
 -1     24394 6.67439E+01 4.84923E+01 8.63636E+00
 -1     24395 7.01260E+01 4.29733E+01 9.09091E+00
 -1     24396 6.57326E+01 4.77576E+01 9.09091E+00
 -1     24401 6.67439E+01 4.84923E+01 9.54545E+00
 -1     24405 5.83363E+01 5.83363E+01 4.54545E-01
 -1     24406 6.25401E+01 5.34143E+01 9.09091E-01
 -1     24407 5.74524E+01 5.74524E+01 9.09091E-01
 -1     24412 5.83363E+01 5.83363E+01 1.36364E+00
 -1     24413 6.25401E+01 5.34143E+01 1.81818E+00
 -1     24414 5.74524E+01 5.74524E+01 1.81818E+00
 -1     24419 5.83363E+01 5.83363E+01 2.27273E+00
 -1     24420 6.25401E+01 5.34143E+01 2.72727E+00
 -1     24421 5.74524E+01 5.74524E+01 2.72727E+00
 -1     24426 5.83363E+01 5.83363E+01 3.18182E+00
 -1     24427 6.25401E+01 5.34143E+01 3.63636E+00
 -1     24428 5.74524E+01 5.74524E+01 3.63636E+00
 -1     24433 5.83363E+01 5.83363E+01 4.09091E+00
 -1     24434 6.25401E+01 5.34143E+01 4.54545E+00
 -1     24435 5.74524E+01 5.74524E+01 4.54545E+00
 -1     24440 5.83363E+01 5.83363E+01 5.00000E+00
 -1     24441 6.25401E+01 5.34143E+01 5.45455E+00
 -1     24442 5.74524E+01 5.74524E+01 5.45455E+00
 -1     24447 5.83363E+01 5.83363E+01 5.90909E+00
 -1     24448 6.25401E+01 5.34143E+01 6.36364E+00
 -1     24449 5.74524E+01 5.74524E+01 6.36364E+00
 -1     24454 5.83363E+01 5.83363E+01 6.81818E+00
 -1     24455 6.25401E+01 5.34143E+01 7.27273E+00
 -1     24456 5.74524E+01 5.74524E+01 7.27273E+00
 -1     24461 5.83363E+01 5.83363E+01 7.72727E+00
 -1     24462 6.25401E+01 5.34143E+01 8.18182E+00
 -1     24463 5.74524E+01 5.74524E+01 8.18182E+00
 -1     24468 5.83363E+01 5.83363E+01 8.63636E+00
 -1     24469 6.25401E+01 5.34143E+01 9.09091E+00
 -1     24470 5.74524E+01 5.74524E+01 9.09091E+00
 -1     24475 5.83363E+01 5.83363E+01 9.54545E+00
 -1     24479 4.84923E+01 6.67439E+01 4.54545E-01
 -1     24480 5.34143E+01 6.25401E+01 9.09091E-01
 -1     24481 4.77576E+01 6.57326E+01 9.09091E-01
 -1     24486 4.84923E+01 6.67439E+01 1.36364E+00
 -1     24487 5.34143E+01 6.25401E+01 1.81818E+00
 -1     24488 4.77576E+01 6.57326E+01 1.81818E+00
 -1     24493 4.84923E+01 6.67439E+01 2.27273E+00
 -1     24494 5.34143E+01 6.25401E+01 2.72727E+00
 -1     24495 4.77576E+01 6.57326E+01 2.72727E+00
 -1     24500 4.84923E+01 6.67439E+01 3.18182E+00
 -1     24501 5.34143E+01 6.25401E+01 3.63636E+00
 -1     24502 4.77576E+01 6.57326E+01 3.63636E+00
 -1     24507 4.84923E+01 6.67439E+01 4.09091E+00
 -1     24508 5.34143E+01 6.25401E+01 4.54545E+00
 -1     24509 4.77576E+01 6.57326E+01 4.54545E+00
 -1     24514 4.84923E+01 6.67439E+01 5.00000E+00
 -1     24515 5.34143E+01 6.25401E+01 5.45455E+00
 -1     24516 4.77576E+01 6.57326E+01 5.45455E+00
 -1     24521 4.84923E+01 6.67439E+01 5.90909E+00
 -1     24522 5.34143E+01 6.25401E+01 6.36364E+00
 -1     24523 4.77576E+01 6.57326E+01 6.36364E+00
 -1     24528 4.84923E+01 6.67439E+01 6.81818E+00
 -1     24529 5.34143E+01 6.25401E+01 7.27273E+00
 -1     24530 4.77576E+01 6.57326E+01 7.27273E+00
 -1     24535 4.84923E+01 6.67439E+01 7.72727E+00
 -1     24536 5.34143E+01 6.25401E+01 8.18182E+00
 -1     24537 4.77576E+01 6.57326E+01 8.18182E+00
 -1     24542 4.84923E+01 6.67439E+01 8.63636E+00
 -1     24543 5.34143E+01 6.25401E+01 9.09091E+00
 -1     24544 4.77576E+01 6.57326E+01 9.09091E+00
 -1     24549 4.84923E+01 6.67439E+01 9.54545E+00
 -1     24553 3.74542E+01 7.35080E+01 4.54545E-01
 -1     24554 4.29733E+01 7.01260E+01 9.09091E-01
 -1     24555 3.68867E+01 7.23943E+01 9.09091E-01
 -1     24560 3.74542E+01 7.35080E+01 1.36364E+00
 -1     24561 4.29733E+01 7.01260E+01 1.81818E+00
 -1     24562 3.68867E+01 7.23943E+01 1.81818E+00
 -1     24567 3.74542E+01 7.35080E+01 2.27273E+00
 -1     24568 4.29733E+01 7.01260E+01 2.72727E+00
 -1     24569 3.68867E+01 7.23943E+01 2.72727E+00
 -1     24574 3.74542E+01 7.35080E+01 3.18182E+00
 -1     24575 4.29733E+01 7.01260E+01 3.63636E+00
 -1     24576 3.68867E+01 7.23943E+01 3.63636E+00
 -1     24581 3.74542E+01 7.35080E+01 4.09091E+00
 -1     24582 4.29733E+01 7.01260E+01 4.54545E+00
 -1     24583 3.68867E+01 7.23943E+01 4.54545E+00
 -1     24588 3.74542E+01 7.35080E+01 5.00000E+00
 -1     24589 4.29733E+01 7.01260E+01 5.45455E+00
 -1     24590 3.68867E+01 7.23943E+01 5.45455E+00
 -1     24595 3.74542E+01 7.35080E+01 5.90909E+00
 -1     24596 4.29733E+01 7.01260E+01 6.36364E+00
 -1     24597 3.68867E+01 7.23943E+01 6.36364E+00
 -1     24602 3.74542E+01 7.35080E+01 6.81818E+00
 -1     24603 4.29733E+01 7.01260E+01 7.27273E+00
 -1     24604 3.68867E+01 7.23943E+01 7.27273E+00
 -1     24609 3.74542E+01 7.35080E+01 7.72727E+00
 -1     24610 4.29733E+01 7.01260E+01 8.18182E+00
 -1     24611 3.68867E+01 7.23943E+01 8.18182E+00
 -1     24616 3.74542E+01 7.35080E+01 8.63636E+00
 -1     24617 4.29733E+01 7.01260E+01 9.09091E+00
 -1     24618 3.68867E+01 7.23943E+01 9.09091E+00
 -1     24623 3.74542E+01 7.35080E+01 9.54545E+00
 -1     24627 2.54939E+01 7.84622E+01 4.54545E-01
 -1     24628 3.14741E+01 7.59851E+01 9.09091E-01
 -1     24629 2.51076E+01 7.72733E+01 9.09091E-01
 -1     24634 2.54939E+01 7.84622E+01 1.36364E+00
 -1     24635 3.14741E+01 7.59851E+01 1.81818E+00
 -1     24636 2.51076E+01 7.72733E+01 1.81818E+00
 -1     24641 2.54939E+01 7.84622E+01 2.27273E+00
 -1     24642 3.14741E+01 7.59851E+01 2.72727E+00
 -1     24643 2.51076E+01 7.72733E+01 2.72727E+00
 -1     24648 2.54939E+01 7.84622E+01 3.18182E+00
 -1     24649 3.14741E+01 7.59851E+01 3.63636E+00
 -1     24650 2.51076E+01 7.72733E+01 3.63636E+00
 -1     24655 2.54939E+01 7.84622E+01 4.09091E+00
 -1     24656 3.14741E+01 7.59851E+01 4.54545E+00
 -1     24657 2.51076E+01 7.72733E+01 4.54545E+00
 -1     24662 2.54939E+01 7.84622E+01 5.00000E+00
 -1     24663 3.14741E+01 7.59851E+01 5.45455E+00
 -1     24664 2.51076E+01 7.72733E+01 5.45455E+00
 -1     24669 2.54939E+01 7.84622E+01 5.90909E+00
 -1     24670 3.14741E+01 7.59851E+01 6.36364E+00
 -1     24671 2.51076E+01 7.72733E+01 6.36364E+00
 -1     24676 2.54939E+01 7.84622E+01 6.81818E+00
 -1     24677 3.14741E+01 7.59851E+01 7.27273E+00
 -1     24678 2.51076E+01 7.72733E+01 7.27273E+00
 -1     24683 2.54939E+01 7.84622E+01 7.72727E+00
 -1     24684 3.14741E+01 7.59851E+01 8.18182E+00
 -1     24685 2.51076E+01 7.72733E+01 8.18182E+00
 -1     24690 2.54939E+01 7.84622E+01 8.63636E+00
 -1     24691 3.14741E+01 7.59851E+01 9.09091E+00
 -1     24692 2.51076E+01 7.72733E+01 9.09091E+00
 -1     24697 2.54939E+01 7.84622E+01 9.54545E+00
 -1     24701 1.29058E+01 8.14843E+01 4.54545E-01
 -1     24702 1.91999E+01 7.99732E+01 9.09091E-01
 -1     24703 1.27103E+01 8.02497E+01 9.09091E-01
 -1     24708 1.29058E+01 8.14843E+01 1.36364E+00
 -1     24709 1.91999E+01 7.99732E+01 1.81818E+00
 -1     24710 1.27103E+01 8.02497E+01 1.81818E+00
 -1     24715 1.29058E+01 8.14843E+01 2.27273E+00
 -1     24716 1.91999E+01 7.99732E+01 2.72727E+00
 -1     24717 1.27103E+01 8.02497E+01 2.72727E+00
 -1     24722 1.29058E+01 8.14843E+01 3.18182E+00
 -1     24723 1.91999E+01 7.99732E+01 3.63636E+00
 -1     24724 1.27103E+01 8.02497E+01 3.63636E+00
 -1     24729 1.29058E+01 8.14843E+01 4.09091E+00
 -1     24730 1.91999E+01 7.99732E+01 4.54545E+00
 -1     24731 1.27103E+01 8.02497E+01 4.54545E+00
 -1     24736 1.29058E+01 8.14843E+01 5.00000E+00
 -1     24737 1.91999E+01 7.99732E+01 5.45455E+00
 -1     24738 1.27103E+01 8.02497E+01 5.45455E+00
 -1     24743 1.29058E+01 8.14843E+01 5.90909E+00
 -1     24744 1.91999E+01 7.99732E+01 6.36364E+00
 -1     24745 1.27103E+01 8.02497E+01 6.36364E+00
 -1     24750 1.29058E+01 8.14843E+01 6.81818E+00
 -1     24751 1.91999E+01 7.99732E+01 7.27273E+00
 -1     24752 1.27103E+01 8.02497E+01 7.27273E+00
 -1     24757 1.29058E+01 8.14843E+01 7.72727E+00
 -1     24758 1.91999E+01 7.99732E+01 8.18182E+00
 -1     24759 1.27103E+01 8.02497E+01 8.18182E+00
 -1     24764 1.29058E+01 8.14843E+01 8.63636E+00
 -1     24765 1.91999E+01 7.99732E+01 9.09091E+00
 -1     24766 1.27103E+01 8.02497E+01 9.09091E+00
 -1     24771 1.29058E+01 8.14843E+01 9.54545E+00
 -1     24775 6.45292E+00 8.19921E+01 9.09091E-01
 -1     24779 6.45292E+00 8.19921E+01 1.81818E+00
 -1     24783 6.45292E+00 8.19921E+01 2.72727E+00
 -1     24787 6.45292E+00 8.19921E+01 3.63636E+00
 -1     24791 6.45292E+00 8.19921E+01 4.54545E+00
 -1     24795 6.45292E+00 8.19921E+01 5.45455E+00
 -1     24799 6.45292E+00 8.19921E+01 6.36364E+00
 -1     24803 6.45292E+00 8.19921E+01 7.27273E+00
 -1     24807 6.45292E+00 8.19921E+01 8.18182E+00
 -1     24811 6.45292E+00 8.19921E+01 9.09091E+00
 -1     24817 8.39535E+01 1.32969E+01 4.54545E-01
 -1     24818 8.44768E+01 6.64846E+00 9.09091E-01
 -1     24819 8.27189E+01 1.31014E+01 9.09091E-01
 -1     24824 8.39535E+01 1.32969E+01 1.36364E+00
 -1     24825 8.44768E+01 6.64846E+00 1.81818E+00
 -1     24826 8.27189E+01 1.31014E+01 1.81818E+00
 -1     24831 8.39535E+01 1.32969E+01 2.27273E+00
 -1     24832 8.44768E+01 6.64846E+00 2.72727E+00
 -1     24833 8.27189E+01 1.31014E+01 2.72727E+00
 -1     24838 8.39535E+01 1.32969E+01 3.18182E+00
 -1     24839 8.44768E+01 6.64846E+00 3.63636E+00
 -1     24840 8.27189E+01 1.31014E+01 3.63636E+00
 -1     24845 8.39535E+01 1.32969E+01 4.09091E+00
 -1     24846 8.44768E+01 6.64846E+00 4.54545E+00
 -1     24847 8.27189E+01 1.31014E+01 4.54545E+00
 -1     24852 8.39535E+01 1.32969E+01 5.00000E+00
 -1     24853 8.44768E+01 6.64846E+00 5.45455E+00
 -1     24854 8.27189E+01 1.31014E+01 5.45455E+00
 -1     24859 8.39535E+01 1.32969E+01 5.90909E+00
 -1     24860 8.44768E+01 6.64846E+00 6.36364E+00
 -1     24861 8.27189E+01 1.31014E+01 6.36364E+00
 -1     24866 8.39535E+01 1.32969E+01 6.81818E+00
 -1     24867 8.44768E+01 6.64846E+00 7.27273E+00
 -1     24868 8.27189E+01 1.31014E+01 7.27273E+00
 -1     24873 8.39535E+01 1.32969E+01 7.72727E+00
 -1     24874 8.44768E+01 6.64846E+00 8.18182E+00
 -1     24875 8.27189E+01 1.31014E+01 8.18182E+00
 -1     24880 8.39535E+01 1.32969E+01 8.63636E+00
 -1     24881 8.44768E+01 6.64846E+00 9.09091E+00
 -1     24882 8.27189E+01 1.31014E+01 9.09091E+00
 -1     24887 8.39535E+01 1.32969E+01 9.54545E+00
 -1     24891 8.08398E+01 2.62664E+01 4.54545E-01
 -1     24892 8.23967E+01 1.97817E+01 9.09091E-01
 -1     24893 7.96510E+01 2.58802E+01 9.09091E-01
 -1     24898 8.08398E+01 2.62664E+01 1.36364E+00
 -1     24899 8.23967E+01 1.97817E+01 1.81818E+00
 -1     24900 7.96510E+01 2.58802E+01 1.81818E+00
 -1     24905 8.08398E+01 2.62664E+01 2.27273E+00
 -1     24906 8.23967E+01 1.97817E+01 2.72727E+00
 -1     24907 7.96510E+01 2.58802E+01 2.72727E+00
 -1     24912 8.08398E+01 2.62664E+01 3.18182E+00
 -1     24913 8.23967E+01 1.97817E+01 3.63636E+00
 -1     24914 7.96510E+01 2.58802E+01 3.63636E+00
 -1     24919 8.08398E+01 2.62664E+01 4.09091E+00
 -1     24920 8.23967E+01 1.97817E+01 4.54545E+00
 -1     24921 7.96510E+01 2.58802E+01 4.54545E+00
 -1     24926 8.08398E+01 2.62664E+01 5.00000E+00
 -1     24927 8.23967E+01 1.97817E+01 5.45455E+00
 -1     24928 7.96510E+01 2.58802E+01 5.45455E+00
 -1     24933 8.08398E+01 2.62664E+01 5.90909E+00
 -1     24934 8.23967E+01 1.97817E+01 6.36364E+00
 -1     24935 7.96510E+01 2.58802E+01 6.36364E+00
 -1     24940 8.08398E+01 2.62664E+01 6.81818E+00
 -1     24941 8.23967E+01 1.97817E+01 7.27273E+00
 -1     24942 7.96510E+01 2.58802E+01 7.27273E+00
 -1     24947 8.08398E+01 2.62664E+01 7.72727E+00
 -1     24948 8.23967E+01 1.97817E+01 8.18182E+00
 -1     24949 7.96510E+01 2.58802E+01 8.18182E+00
 -1     24954 8.08398E+01 2.62664E+01 8.63636E+00
 -1     24955 8.23967E+01 1.97817E+01 9.09091E+00
 -1     24956 7.96510E+01 2.58802E+01 9.09091E+00
 -1     24961 8.08398E+01 2.62664E+01 9.54545E+00
 -1     24965 7.57356E+01 3.85892E+01 4.54545E-01
 -1     24966 7.82877E+01 3.24278E+01 9.09091E-01
 -1     24967 7.46218E+01 3.80217E+01 9.09091E-01
 -1     24972 7.57356E+01 3.85892E+01 1.36364E+00
 -1     24973 7.82877E+01 3.24278E+01 1.81818E+00
 -1     24974 7.46218E+01 3.80217E+01 1.81818E+00
 -1     24979 7.57356E+01 3.85892E+01 2.27273E+00
 -1     24980 7.82877E+01 3.24278E+01 2.72727E+00
 -1     24981 7.46218E+01 3.80217E+01 2.72727E+00
 -1     24986 7.57356E+01 3.85892E+01 3.18182E+00
 -1     24987 7.82877E+01 3.24278E+01 3.63636E+00
 -1     24988 7.46218E+01 3.80217E+01 3.63636E+00
 -1     24993 7.57356E+01 3.85892E+01 4.09091E+00
 -1     24994 7.82877E+01 3.24278E+01 4.54545E+00
 -1     24995 7.46218E+01 3.80217E+01 4.54545E+00
 -1     25000 7.57356E+01 3.85892E+01 5.00000E+00
 -1     25001 7.82877E+01 3.24278E+01 5.45455E+00
 -1     25002 7.46218E+01 3.80217E+01 5.45455E+00
 -1     25007 7.57356E+01 3.85892E+01 5.90909E+00
 -1     25008 7.82877E+01 3.24278E+01 6.36364E+00
 -1     25009 7.46218E+01 3.80217E+01 6.36364E+00
 -1     25014 7.57356E+01 3.85892E+01 6.81818E+00
 -1     25015 7.82877E+01 3.24278E+01 7.27273E+00
 -1     25016 7.46218E+01 3.80217E+01 7.27273E+00
 -1     25021 7.57356E+01 3.85892E+01 7.72727E+00
 -1     25022 7.82877E+01 3.24278E+01 8.18182E+00
 -1     25023 7.46218E+01 3.80217E+01 8.18182E+00
 -1     25028 7.57356E+01 3.85892E+01 8.63636E+00
 -1     25029 7.82877E+01 3.24278E+01 9.09091E+00
 -1     25030 7.46218E+01 3.80217E+01 9.09091E+00
 -1     25035 7.57356E+01 3.85892E+01 9.54545E+00
 -1     25039 6.87664E+01 4.99617E+01 4.54545E-01
 -1     25040 7.22510E+01 4.42755E+01 9.09091E-01
 -1     25041 6.77552E+01 4.92270E+01 9.09091E-01
 -1     25046 6.87664E+01 4.99617E+01 1.36364E+00
 -1     25047 7.22510E+01 4.42755E+01 1.81818E+00
 -1     25048 6.77552E+01 4.92270E+01 1.81818E+00
 -1     25053 6.87664E+01 4.99617E+01 2.27273E+00
 -1     25054 7.22510E+01 4.42755E+01 2.72727E+00
 -1     25055 6.77552E+01 4.92270E+01 2.72727E+00
 -1     25060 6.87664E+01 4.99617E+01 3.18182E+00
 -1     25061 7.22510E+01 4.42755E+01 3.63636E+00
 -1     25062 6.77552E+01 4.92270E+01 3.63636E+00
 -1     25067 6.87664E+01 4.99617E+01 4.09091E+00
 -1     25068 7.22510E+01 4.42755E+01 4.54545E+00
 -1     25069 6.77552E+01 4.92270E+01 4.54545E+00
 -1     25074 6.87664E+01 4.99617E+01 5.00000E+00
 -1     25075 7.22510E+01 4.42755E+01 5.45455E+00
 -1     25076 6.77552E+01 4.92270E+01 5.45455E+00
 -1     25081 6.87664E+01 4.99617E+01 5.90909E+00
 -1     25082 7.22510E+01 4.42755E+01 6.36364E+00
 -1     25083 6.77552E+01 4.92270E+01 6.36364E+00
 -1     25088 6.87664E+01 4.99617E+01 6.81818E+00
 -1     25089 7.22510E+01 4.42755E+01 7.27273E+00
 -1     25090 6.77552E+01 4.92270E+01 7.27273E+00
 -1     25095 6.87664E+01 4.99617E+01 7.72727E+00
 -1     25096 7.22510E+01 4.42755E+01 8.18182E+00
 -1     25097 6.77552E+01 4.92270E+01 8.18182E+00
 -1     25102 6.87664E+01 4.99617E+01 8.63636E+00
 -1     25103 7.22510E+01 4.42755E+01 9.09091E+00
 -1     25104 6.77552E+01 4.92270E+01 9.09091E+00
 -1     25109 6.87664E+01 4.99617E+01 9.54545E+00
 -1     25113 6.01041E+01 6.01041E+01 4.54545E-01
 -1     25114 6.44353E+01 5.50329E+01 9.09091E-01
 -1     25115 5.92202E+01 5.92202E+01 9.09091E-01
 -1     25120 6.01041E+01 6.01041E+01 1.36364E+00
 -1     25121 6.44353E+01 5.50329E+01 1.81818E+00
 -1     25122 5.92202E+01 5.92202E+01 1.81818E+00
 -1     25127 6.01041E+01 6.01041E+01 2.27273E+00
 -1     25128 6.44353E+01 5.50329E+01 2.72727E+00
 -1     25129 5.92202E+01 5.92202E+01 2.72727E+00
 -1     25134 6.01041E+01 6.01041E+01 3.18182E+00
 -1     25135 6.44353E+01 5.50329E+01 3.63636E+00
 -1     25136 5.92202E+01 5.92202E+01 3.63636E+00
 -1     25141 6.01041E+01 6.01041E+01 4.09091E+00
 -1     25142 6.44353E+01 5.50329E+01 4.54545E+00
 -1     25143 5.92202E+01 5.92202E+01 4.54545E+00
 -1     25148 6.01041E+01 6.01041E+01 5.00000E+00
 -1     25149 6.44353E+01 5.50329E+01 5.45455E+00
 -1     25150 5.92202E+01 5.92202E+01 5.45455E+00
 -1     25155 6.01041E+01 6.01041E+01 5.90909E+00
 -1     25156 6.44353E+01 5.50329E+01 6.36364E+00
 -1     25157 5.92202E+01 5.92202E+01 6.36364E+00
 -1     25162 6.01041E+01 6.01041E+01 6.81818E+00
 -1     25163 6.44353E+01 5.50329E+01 7.27273E+00
 -1     25164 5.92202E+01 5.92202E+01 7.27273E+00
 -1     25169 6.01041E+01 6.01041E+01 7.72727E+00
 -1     25170 6.44353E+01 5.50329E+01 8.18182E+00
 -1     25171 5.92202E+01 5.92202E+01 8.18182E+00
 -1     25176 6.01041E+01 6.01041E+01 8.63636E+00
 -1     25177 6.44353E+01 5.50329E+01 9.09091E+00
 -1     25178 5.92202E+01 5.92202E+01 9.09091E+00
 -1     25183 6.01041E+01 6.01041E+01 9.54545E+00
 -1     25187 4.99617E+01 6.87664E+01 4.54545E-01
 -1     25188 5.50329E+01 6.44353E+01 9.09091E-01
 -1     25189 4.92270E+01 6.77552E+01 9.09091E-01
 -1     25194 4.99617E+01 6.87664E+01 1.36364E+00
 -1     25195 5.50329E+01 6.44353E+01 1.81818E+00
 -1     25196 4.92270E+01 6.77552E+01 1.81818E+00
 -1     25201 4.99617E+01 6.87664E+01 2.27273E+00
 -1     25202 5.50329E+01 6.44353E+01 2.72727E+00
 -1     25203 4.92270E+01 6.77552E+01 2.72727E+00
 -1     25208 4.99617E+01 6.87664E+01 3.18182E+00
 -1     25209 5.50329E+01 6.44353E+01 3.63636E+00
 -1     25210 4.92270E+01 6.77552E+01 3.63636E+00
 -1     25215 4.99617E+01 6.87664E+01 4.09091E+00
 -1     25216 5.50329E+01 6.44353E+01 4.54545E+00
 -1     25217 4.92270E+01 6.77552E+01 4.54545E+00
 -1     25222 4.99617E+01 6.87664E+01 5.00000E+00
 -1     25223 5.50329E+01 6.44353E+01 5.45455E+00
 -1     25224 4.92270E+01 6.77552E+01 5.45455E+00
 -1     25229 4.99617E+01 6.87664E+01 5.90909E+00
 -1     25230 5.50329E+01 6.44353E+01 6.36364E+00
 -1     25231 4.92270E+01 6.77552E+01 6.36364E+00
 -1     25236 4.99617E+01 6.87664E+01 6.81818E+00
 -1     25237 5.50329E+01 6.44353E+01 7.27273E+00
 -1     25238 4.92270E+01 6.77552E+01 7.27273E+00
 -1     25243 4.99617E+01 6.87664E+01 7.72727E+00
 -1     25244 5.50329E+01 6.44353E+01 8.18182E+00
 -1     25245 4.92270E+01 6.77552E+01 8.18182E+00
 -1     25250 4.99617E+01 6.87664E+01 8.63636E+00
 -1     25251 5.50329E+01 6.44353E+01 9.09091E+00
 -1     25252 4.92270E+01 6.77552E+01 9.09091E+00
 -1     25257 4.99617E+01 6.87664E+01 9.54545E+00
 -1     25261 3.85892E+01 7.57356E+01 4.54545E-01
 -1     25262 4.42755E+01 7.22510E+01 9.09091E-01
 -1     25263 3.80217E+01 7.46218E+01 9.09091E-01
 -1     25268 3.85892E+01 7.57356E+01 1.36364E+00
 -1     25269 4.42755E+01 7.22510E+01 1.81818E+00
 -1     25270 3.80217E+01 7.46218E+01 1.81818E+00
 -1     25275 3.85892E+01 7.57356E+01 2.27273E+00
 -1     25276 4.42755E+01 7.22510E+01 2.72727E+00
 -1     25277 3.80217E+01 7.46218E+01 2.72727E+00
 -1     25282 3.85892E+01 7.57356E+01 3.18182E+00
 -1     25283 4.42755E+01 7.22510E+01 3.63636E+00
 -1     25284 3.80217E+01 7.46218E+01 3.63636E+00
 -1     25289 3.85892E+01 7.57356E+01 4.09091E+00
 -1     25290 4.42755E+01 7.22510E+01 4.54545E+00
 -1     25291 3.80217E+01 7.46218E+01 4.54545E+00
 -1     25296 3.85892E+01 7.57356E+01 5.00000E+00
 -1     25297 4.42755E+01 7.22510E+01 5.45455E+00
 -1     25298 3.80217E+01 7.46218E+01 5.45455E+00
 -1     25303 3.85892E+01 7.57356E+01 5.90909E+00
 -1     25304 4.42755E+01 7.22510E+01 6.36364E+00
 -1     25305 3.80217E+01 7.46218E+01 6.36364E+00
 -1     25310 3.85892E+01 7.57356E+01 6.81818E+00
 -1     25311 4.42755E+01 7.22510E+01 7.27273E+00
 -1     25312 3.80217E+01 7.46218E+01 7.27273E+00
 -1     25317 3.85892E+01 7.57356E+01 7.72727E+00
 -1     25318 4.42755E+01 7.22510E+01 8.18182E+00
 -1     25319 3.80217E+01 7.46218E+01 8.18182E+00
 -1     25324 3.85892E+01 7.57356E+01 8.63636E+00
 -1     25325 4.42755E+01 7.22510E+01 9.09091E+00
 -1     25326 3.80217E+01 7.46218E+01 9.09091E+00
 -1     25331 3.85892E+01 7.57356E+01 9.54545E+00
 -1     25335 2.62664E+01 8.08398E+01 4.54545E-01
 -1     25336 3.24278E+01 7.82877E+01 9.09091E-01
 -1     25337 2.58802E+01 7.96510E+01 9.09091E-01
 -1     25342 2.62664E+01 8.08398E+01 1.36364E+00
 -1     25343 3.24278E+01 7.82877E+01 1.81818E+00
 -1     25344 2.58802E+01 7.96510E+01 1.81818E+00
 -1     25349 2.62664E+01 8.08398E+01 2.27273E+00
 -1     25350 3.24278E+01 7.82877E+01 2.72727E+00
 -1     25351 2.58802E+01 7.96510E+01 2.72727E+00
 -1     25356 2.62664E+01 8.08398E+01 3.18182E+00
 -1     25357 3.24278E+01 7.82877E+01 3.63636E+00
 -1     25358 2.58802E+01 7.96510E+01 3.63636E+00
 -1     25363 2.62664E+01 8.08398E+01 4.09091E+00
 -1     25364 3.24278E+01 7.82877E+01 4.54545E+00
 -1     25365 2.58802E+01 7.96510E+01 4.54545E+00
 -1     25370 2.62664E+01 8.08398E+01 5.00000E+00
 -1     25371 3.24278E+01 7.82877E+01 5.45455E+00
 -1     25372 2.58802E+01 7.96510E+01 5.45455E+00
 -1     25377 2.62664E+01 8.08398E+01 5.90909E+00
 -1     25378 3.24278E+01 7.82877E+01 6.36364E+00
 -1     25379 2.58802E+01 7.96510E+01 6.36364E+00
 -1     25384 2.62664E+01 8.08398E+01 6.81818E+00
 -1     25385 3.24278E+01 7.82877E+01 7.27273E+00
 -1     25386 2.58802E+01 7.96510E+01 7.27273E+00
 -1     25391 2.62664E+01 8.08398E+01 7.72727E+00
 -1     25392 3.24278E+01 7.82877E+01 8.18182E+00
 -1     25393 2.58802E+01 7.96510E+01 8.18182E+00
 -1     25398 2.62664E+01 8.08398E+01 8.63636E+00
 -1     25399 3.24278E+01 7.82877E+01 9.09091E+00
 -1     25400 2.58802E+01 7.96510E+01 9.09091E+00
 -1     25405 2.62664E+01 8.08398E+01 9.54545E+00
 -1     25409 1.32969E+01 8.39535E+01 4.54545E-01
 -1     25410 1.97817E+01 8.23967E+01 9.09091E-01
 -1     25411 1.31014E+01 8.27189E+01 9.09091E-01
 -1     25416 1.32969E+01 8.39535E+01 1.36364E+00
 -1     25417 1.97817E+01 8.23967E+01 1.81818E+00
 -1     25418 1.31014E+01 8.27189E+01 1.81818E+00
 -1     25423 1.32969E+01 8.39535E+01 2.27273E+00
 -1     25424 1.97817E+01 8.23967E+01 2.72727E+00
 -1     25425 1.31014E+01 8.27189E+01 2.72727E+00
 -1     25430 1.32969E+01 8.39535E+01 3.18182E+00
 -1     25431 1.97817E+01 8.23967E+01 3.63636E+00
 -1     25432 1.31014E+01 8.27189E+01 3.63636E+00
 -1     25437 1.32969E+01 8.39535E+01 4.09091E+00
 -1     25438 1.97817E+01 8.23967E+01 4.54545E+00
 -1     25439 1.31014E+01 8.27189E+01 4.54545E+00
 -1     25444 1.32969E+01 8.39535E+01 5.00000E+00
 -1     25445 1.97817E+01 8.23967E+01 5.45455E+00
 -1     25446 1.31014E+01 8.27189E+01 5.45455E+00
 -1     25451 1.32969E+01 8.39535E+01 5.90909E+00
 -1     25452 1.97817E+01 8.23967E+01 6.36364E+00
 -1     25453 1.31014E+01 8.27189E+01 6.36364E+00
 -1     25458 1.32969E+01 8.39535E+01 6.81818E+00
 -1     25459 1.97817E+01 8.23967E+01 7.27273E+00
 -1     25460 1.31014E+01 8.27189E+01 7.27273E+00
 -1     25465 1.32969E+01 8.39535E+01 7.72727E+00
 -1     25466 1.97817E+01 8.23967E+01 8.18182E+00
 -1     25467 1.31014E+01 8.27189E+01 8.18182E+00
 -1     25472 1.32969E+01 8.39535E+01 8.63636E+00
 -1     25473 1.97817E+01 8.23967E+01 9.09091E+00
 -1     25474 1.31014E+01 8.27189E+01 9.09091E+00
 -1     25479 1.32969E+01 8.39535E+01 9.54545E+00
 -1     25483 6.64846E+00 8.44768E+01 9.09091E-01
 -1     25487 6.64846E+00 8.44768E+01 1.81818E+00
 -1     25491 6.64846E+00 8.44768E+01 2.72727E+00
 -1     25495 6.64846E+00 8.44768E+01 3.63636E+00
 -1     25499 6.64846E+00 8.44768E+01 4.54545E+00
 -1     25503 6.64846E+00 8.44768E+01 5.45455E+00
 -1     25507 6.64846E+00 8.44768E+01 6.36364E+00
 -1     25511 6.64846E+00 8.44768E+01 7.27273E+00
 -1     25515 6.64846E+00 8.44768E+01 8.18182E+00
 -1     25519 6.64846E+00 8.44768E+01 9.09091E+00
 -1     25525 8.64227E+01 1.36880E+01 4.54545E-01
 -1     25526 8.69614E+01 6.84401E+00 9.09091E-01
 -1     25527 8.51881E+01 1.34925E+01 9.09091E-01
 -1     25532 8.64227E+01 1.36880E+01 1.36364E+00
 -1     25533 8.69614E+01 6.84401E+00 1.81818E+00
 -1     25534 8.51881E+01 1.34925E+01 1.81818E+00
 -1     25539 8.64227E+01 1.36880E+01 2.27273E+00
 -1     25540 8.69614E+01 6.84401E+00 2.72727E+00
 -1     25541 8.51881E+01 1.34925E+01 2.72727E+00
 -1     25546 8.64227E+01 1.36880E+01 3.18182E+00
 -1     25547 8.69614E+01 6.84401E+00 3.63636E+00
 -1     25548 8.51881E+01 1.34925E+01 3.63636E+00
 -1     25553 8.64227E+01 1.36880E+01 4.09091E+00
 -1     25554 8.69614E+01 6.84401E+00 4.54545E+00
 -1     25555 8.51881E+01 1.34925E+01 4.54545E+00
 -1     25560 8.64227E+01 1.36880E+01 5.00000E+00
 -1     25561 8.69614E+01 6.84401E+00 5.45455E+00
 -1     25562 8.51881E+01 1.34925E+01 5.45455E+00
 -1     25567 8.64227E+01 1.36880E+01 5.90909E+00
 -1     25568 8.69614E+01 6.84401E+00 6.36364E+00
 -1     25569 8.51881E+01 1.34925E+01 6.36364E+00
 -1     25574 8.64227E+01 1.36880E+01 6.81818E+00
 -1     25575 8.69614E+01 6.84401E+00 7.27273E+00
 -1     25576 8.51881E+01 1.34925E+01 7.27273E+00
 -1     25581 8.64227E+01 1.36880E+01 7.72727E+00
 -1     25582 8.69614E+01 6.84401E+00 8.18182E+00
 -1     25583 8.51881E+01 1.34925E+01 8.18182E+00
 -1     25588 8.64227E+01 1.36880E+01 8.63636E+00
 -1     25589 8.69614E+01 6.84401E+00 9.09091E+00
 -1     25590 8.51881E+01 1.34925E+01 9.09091E+00
 -1     25595 8.64227E+01 1.36880E+01 9.54545E+00
 -1     25599 8.32174E+01 2.70390E+01 4.54545E-01
 -1     25600 8.48201E+01 2.03635E+01 9.09091E-01
 -1     25601 8.20286E+01 2.66527E+01 9.09091E-01
 -1     25606 8.32174E+01 2.70390E+01 1.36364E+00
 -1     25607 8.48201E+01 2.03635E+01 1.81818E+00
 -1     25608 8.20286E+01 2.66527E+01 1.81818E+00
 -1     25613 8.32174E+01 2.70390E+01 2.27273E+00
 -1     25614 8.48201E+01 2.03635E+01 2.72727E+00
 -1     25615 8.20286E+01 2.66527E+01 2.72727E+00
 -1     25620 8.32174E+01 2.70390E+01 3.18182E+00
 -1     25621 8.48201E+01 2.03635E+01 3.63636E+00
 -1     25622 8.20286E+01 2.66527E+01 3.63636E+00
 -1     25627 8.32174E+01 2.70390E+01 4.09091E+00
 -1     25628 8.48201E+01 2.03635E+01 4.54545E+00
 -1     25629 8.20286E+01 2.66527E+01 4.54545E+00
 -1     25634 8.32174E+01 2.70390E+01 5.00000E+00
 -1     25635 8.48201E+01 2.03635E+01 5.45455E+00
 -1     25636 8.20286E+01 2.66527E+01 5.45455E+00
 -1     25641 8.32174E+01 2.70390E+01 5.90909E+00
 -1     25642 8.48201E+01 2.03635E+01 6.36364E+00
 -1     25643 8.20286E+01 2.66527E+01 6.36364E+00
 -1     25648 8.32174E+01 2.70390E+01 6.81818E+00
 -1     25649 8.48201E+01 2.03635E+01 7.27273E+00
 -1     25650 8.20286E+01 2.66527E+01 7.27273E+00
 -1     25655 8.32174E+01 2.70390E+01 7.72727E+00
 -1     25656 8.48201E+01 2.03635E+01 8.18182E+00
 -1     25657 8.20286E+01 2.66527E+01 8.18182E+00
 -1     25662 8.32174E+01 2.70390E+01 8.63636E+00
 -1     25663 8.48201E+01 2.03635E+01 9.09091E+00
 -1     25664 8.20286E+01 2.66527E+01 9.09091E+00
 -1     25669 8.32174E+01 2.70390E+01 9.54545E+00
 -1     25673 7.79631E+01 3.97242E+01 4.54545E-01
 -1     25674 8.05903E+01 3.33816E+01 9.09091E-01
 -1     25675 7.68493E+01 3.91567E+01 9.09091E-01
 -1     25680 7.79631E+01 3.97242E+01 1.36364E+00
 -1     25681 8.05903E+01 3.33816E+01 1.81818E+00
 -1     25682 7.68493E+01 3.91567E+01 1.81818E+00
 -1     25687 7.79631E+01 3.97242E+01 2.27273E+00
 -1     25688 8.05903E+01 3.33816E+01 2.72727E+00
 -1     25689 7.68493E+01 3.91567E+01 2.72727E+00
 -1     25694 7.79631E+01 3.97242E+01 3.18182E+00
 -1     25695 8.05903E+01 3.33816E+01 3.63636E+00
 -1     25696 7.68493E+01 3.91567E+01 3.63636E+00
 -1     25701 7.79631E+01 3.97242E+01 4.09091E+00
 -1     25702 8.05903E+01 3.33816E+01 4.54545E+00
 -1     25703 7.68493E+01 3.91567E+01 4.54545E+00
 -1     25708 7.79631E+01 3.97242E+01 5.00000E+00
 -1     25709 8.05903E+01 3.33816E+01 5.45455E+00
 -1     25710 7.68493E+01 3.91567E+01 5.45455E+00
 -1     25715 7.79631E+01 3.97242E+01 5.90909E+00
 -1     25716 8.05903E+01 3.33816E+01 6.36364E+00
 -1     25717 7.68493E+01 3.91567E+01 6.36364E+00
 -1     25722 7.79631E+01 3.97242E+01 6.81818E+00
 -1     25723 8.05903E+01 3.33816E+01 7.27273E+00
 -1     25724 7.68493E+01 3.91567E+01 7.27273E+00
 -1     25729 7.79631E+01 3.97242E+01 7.72727E+00
 -1     25730 8.05903E+01 3.33816E+01 8.18182E+00
 -1     25731 7.68493E+01 3.91567E+01 8.18182E+00
 -1     25736 7.79631E+01 3.97242E+01 8.63636E+00
 -1     25737 8.05903E+01 3.33816E+01 9.09091E+00
 -1     25738 7.68493E+01 3.91567E+01 9.09091E+00
 -1     25743 7.79631E+01 3.97242E+01 9.54545E+00
 -1     25747 7.07890E+01 5.14312E+01 4.54545E-01
 -1     25748 7.43760E+01 4.55777E+01 9.09091E-01
 -1     25749 6.97777E+01 5.06965E+01 9.09091E-01
 -1     25754 7.07890E+01 5.14312E+01 1.36364E+00
 -1     25755 7.43760E+01 4.55777E+01 1.81818E+00
 -1     25756 6.97777E+01 5.06965E+01 1.81818E+00
 -1     25761 7.07890E+01 5.14312E+01 2.27273E+00
 -1     25762 7.43760E+01 4.55777E+01 2.72727E+00
 -1     25763 6.97777E+01 5.06965E+01 2.72727E+00
 -1     25768 7.07890E+01 5.14312E+01 3.18182E+00
 -1     25769 7.43760E+01 4.55777E+01 3.63636E+00
 -1     25770 6.97777E+01 5.06965E+01 3.63636E+00
 -1     25775 7.07890E+01 5.14312E+01 4.09091E+00
 -1     25776 7.43760E+01 4.55777E+01 4.54545E+00
 -1     25777 6.97777E+01 5.06965E+01 4.54545E+00
 -1     25782 7.07890E+01 5.14312E+01 5.00000E+00
 -1     25783 7.43760E+01 4.55777E+01 5.45455E+00
 -1     25784 6.97777E+01 5.06965E+01 5.45455E+00
 -1     25789 7.07890E+01 5.14312E+01 5.90909E+00
 -1     25790 7.43760E+01 4.55777E+01 6.36364E+00
 -1     25791 6.97777E+01 5.06965E+01 6.36364E+00
 -1     25796 7.07890E+01 5.14312E+01 6.81818E+00
 -1     25797 7.43760E+01 4.55777E+01 7.27273E+00
 -1     25798 6.97777E+01 5.06965E+01 7.27273E+00
 -1     25803 7.07890E+01 5.14312E+01 7.72727E+00
 -1     25804 7.43760E+01 4.55777E+01 8.18182E+00
 -1     25805 6.97777E+01 5.06965E+01 8.18182E+00
 -1     25810 7.07890E+01 5.14312E+01 8.63636E+00
 -1     25811 7.43760E+01 4.55777E+01 9.09091E+00
 -1     25812 6.97777E+01 5.06965E+01 9.09091E+00
 -1     25817 7.07890E+01 5.14312E+01 9.54545E+00
 -1     25821 6.18718E+01 6.18718E+01 4.54545E-01
 -1     25822 6.63304E+01 5.66515E+01 9.09091E-01
 -1     25823 6.09880E+01 6.09880E+01 9.09091E-01
 -1     25828 6.18718E+01 6.18718E+01 1.36364E+00
 -1     25829 6.63304E+01 5.66515E+01 1.81818E+00
 -1     25830 6.09880E+01 6.09880E+01 1.81818E+00
 -1     25835 6.18718E+01 6.18718E+01 2.27273E+00
 -1     25836 6.63304E+01 5.66515E+01 2.72727E+00
 -1     25837 6.09880E+01 6.09880E+01 2.72727E+00
 -1     25842 6.18718E+01 6.18718E+01 3.18182E+00
 -1     25843 6.63304E+01 5.66515E+01 3.63636E+00
 -1     25844 6.09880E+01 6.09880E+01 3.63636E+00
 -1     25849 6.18718E+01 6.18718E+01 4.09091E+00
 -1     25850 6.63304E+01 5.66515E+01 4.54545E+00
 -1     25851 6.09880E+01 6.09880E+01 4.54545E+00
 -1     25856 6.18718E+01 6.18718E+01 5.00000E+00
 -1     25857 6.63304E+01 5.66515E+01 5.45455E+00
 -1     25858 6.09880E+01 6.09880E+01 5.45455E+00
 -1     25863 6.18718E+01 6.18718E+01 5.90909E+00
 -1     25864 6.63304E+01 5.66515E+01 6.36364E+00
 -1     25865 6.09880E+01 6.09880E+01 6.36364E+00
 -1     25870 6.18718E+01 6.18718E+01 6.81818E+00
 -1     25871 6.63304E+01 5.66515E+01 7.27273E+00
 -1     25872 6.09880E+01 6.09880E+01 7.27273E+00
 -1     25877 6.18718E+01 6.18718E+01 7.72727E+00
 -1     25878 6.63304E+01 5.66515E+01 8.18182E+00
 -1     25879 6.09880E+01 6.09880E+01 8.18182E+00
 -1     25884 6.18718E+01 6.18718E+01 8.63636E+00
 -1     25885 6.63304E+01 5.66515E+01 9.09091E+00
 -1     25886 6.09880E+01 6.09880E+01 9.09091E+00
 -1     25891 6.18718E+01 6.18718E+01 9.54545E+00
 -1     25895 5.14312E+01 7.07890E+01 4.54545E-01
 -1     25896 5.66515E+01 6.63304E+01 9.09091E-01
 -1     25897 5.06965E+01 6.97777E+01 9.09091E-01
 -1     25902 5.14312E+01 7.07890E+01 1.36364E+00
 -1     25903 5.66515E+01 6.63304E+01 1.81818E+00
 -1     25904 5.06965E+01 6.97777E+01 1.81818E+00
 -1     25909 5.14312E+01 7.07890E+01 2.27273E+00
 -1     25910 5.66515E+01 6.63304E+01 2.72727E+00
 -1     25911 5.06965E+01 6.97777E+01 2.72727E+00
 -1     25916 5.14312E+01 7.07890E+01 3.18182E+00
 -1     25917 5.66515E+01 6.63304E+01 3.63636E+00
 -1     25918 5.06965E+01 6.97777E+01 3.63636E+00
 -1     25923 5.14312E+01 7.07890E+01 4.09091E+00
 -1     25924 5.66515E+01 6.63304E+01 4.54545E+00
 -1     25925 5.06965E+01 6.97777E+01 4.54545E+00
 -1     25930 5.14312E+01 7.07890E+01 5.00000E+00
 -1     25931 5.66515E+01 6.63304E+01 5.45455E+00
 -1     25932 5.06965E+01 6.97777E+01 5.45455E+00
 -1     25937 5.14312E+01 7.07890E+01 5.90909E+00
 -1     25938 5.66515E+01 6.63304E+01 6.36364E+00
 -1     25939 5.06965E+01 6.97777E+01 6.36364E+00
 -1     25944 5.14312E+01 7.07890E+01 6.81818E+00
 -1     25945 5.66515E+01 6.63304E+01 7.27273E+00
 -1     25946 5.06965E+01 6.97777E+01 7.27273E+00
 -1     25951 5.14312E+01 7.07890E+01 7.72727E+00
 -1     25952 5.66515E+01 6.63304E+01 8.18182E+00
 -1     25953 5.06965E+01 6.97777E+01 8.18182E+00
 -1     25958 5.14312E+01 7.07890E+01 8.63636E+00
 -1     25959 5.66515E+01 6.63304E+01 9.09091E+00
 -1     25960 5.06965E+01 6.97777E+01 9.09091E+00
 -1     25965 5.14312E+01 7.07890E+01 9.54545E+00
 -1     25969 3.97242E+01 7.79631E+01 4.54545E-01
 -1     25970 4.55777E+01 7.43760E+01 9.09091E-01
 -1     25971 3.91567E+01 7.68493E+01 9.09091E-01
 -1     25976 3.97242E+01 7.79631E+01 1.36364E+00
 -1     25977 4.55777E+01 7.43760E+01 1.81818E+00
 -1     25978 3.91567E+01 7.68493E+01 1.81818E+00
 -1     25983 3.97242E+01 7.79631E+01 2.27273E+00
 -1     25984 4.55777E+01 7.43760E+01 2.72727E+00
 -1     25985 3.91567E+01 7.68493E+01 2.72727E+00
 -1     25990 3.97242E+01 7.79631E+01 3.18182E+00
 -1     25991 4.55777E+01 7.43760E+01 3.63636E+00
 -1     25992 3.91567E+01 7.68493E+01 3.63636E+00
 -1     25997 3.97242E+01 7.79631E+01 4.09091E+00
 -1     25998 4.55777E+01 7.43760E+01 4.54545E+00
 -1     25999 3.91567E+01 7.68493E+01 4.54545E+00
 -1     26004 3.97242E+01 7.79631E+01 5.00000E+00
 -1     26005 4.55777E+01 7.43760E+01 5.45455E+00
 -1     26006 3.91567E+01 7.68493E+01 5.45455E+00
 -1     26011 3.97242E+01 7.79631E+01 5.90909E+00
 -1     26012 4.55777E+01 7.43760E+01 6.36364E+00
 -1     26013 3.91567E+01 7.68493E+01 6.36364E+00
 -1     26018 3.97242E+01 7.79631E+01 6.81818E+00
 -1     26019 4.55777E+01 7.43760E+01 7.27273E+00
 -1     26020 3.91567E+01 7.68493E+01 7.27273E+00
 -1     26025 3.97242E+01 7.79631E+01 7.72727E+00
 -1     26026 4.55777E+01 7.43760E+01 8.18182E+00
 -1     26027 3.91567E+01 7.68493E+01 8.18182E+00
 -1     26032 3.97242E+01 7.79631E+01 8.63636E+00
 -1     26033 4.55777E+01 7.43760E+01 9.09091E+00
 -1     26034 3.91567E+01 7.68493E+01 9.09091E+00
 -1     26039 3.97242E+01 7.79631E+01 9.54545E+00
 -1     26043 2.70390E+01 8.32174E+01 4.54545E-01
 -1     26044 3.33816E+01 8.05903E+01 9.09091E-01
 -1     26045 2.66527E+01 8.20286E+01 9.09091E-01
 -1     26050 2.70390E+01 8.32174E+01 1.36364E+00
 -1     26051 3.33816E+01 8.05903E+01 1.81818E+00
 -1     26052 2.66527E+01 8.20286E+01 1.81818E+00
 -1     26057 2.70390E+01 8.32174E+01 2.27273E+00
 -1     26058 3.33816E+01 8.05903E+01 2.72727E+00
 -1     26059 2.66527E+01 8.20286E+01 2.72727E+00
 -1     26064 2.70390E+01 8.32174E+01 3.18182E+00
 -1     26065 3.33816E+01 8.05903E+01 3.63636E+00
 -1     26066 2.66527E+01 8.20286E+01 3.63636E+00
 -1     26071 2.70390E+01 8.32174E+01 4.09091E+00
 -1     26072 3.33816E+01 8.05903E+01 4.54545E+00
 -1     26073 2.66527E+01 8.20286E+01 4.54545E+00
 -1     26078 2.70390E+01 8.32174E+01 5.00000E+00
 -1     26079 3.33816E+01 8.05903E+01 5.45455E+00
 -1     26080 2.66527E+01 8.20286E+01 5.45455E+00
 -1     26085 2.70390E+01 8.32174E+01 5.90909E+00
 -1     26086 3.33816E+01 8.05903E+01 6.36364E+00
 -1     26087 2.66527E+01 8.20286E+01 6.36364E+00
 -1     26092 2.70390E+01 8.32174E+01 6.81818E+00
 -1     26093 3.33816E+01 8.05903E+01 7.27273E+00
 -1     26094 2.66527E+01 8.20286E+01 7.27273E+00
 -1     26099 2.70390E+01 8.32174E+01 7.72727E+00
 -1     26100 3.33816E+01 8.05903E+01 8.18182E+00
 -1     26101 2.66527E+01 8.20286E+01 8.18182E+00
 -1     26106 2.70390E+01 8.32174E+01 8.63636E+00
 -1     26107 3.33816E+01 8.05903E+01 9.09091E+00
 -1     26108 2.66527E+01 8.20286E+01 9.09091E+00
 -1     26113 2.70390E+01 8.32174E+01 9.54545E+00
 -1     26117 1.36880E+01 8.64227E+01 4.54545E-01
 -1     26118 2.03635E+01 8.48201E+01 9.09091E-01
 -1     26119 1.34925E+01 8.51881E+01 9.09091E-01
 -1     26124 1.36880E+01 8.64227E+01 1.36364E+00
 -1     26125 2.03635E+01 8.48201E+01 1.81818E+00
 -1     26126 1.34925E+01 8.51881E+01 1.81818E+00
 -1     26131 1.36880E+01 8.64227E+01 2.27273E+00
 -1     26132 2.03635E+01 8.48201E+01 2.72727E+00
 -1     26133 1.34925E+01 8.51881E+01 2.72727E+00
 -1     26138 1.36880E+01 8.64227E+01 3.18182E+00
 -1     26139 2.03635E+01 8.48201E+01 3.63636E+00
 -1     26140 1.34925E+01 8.51881E+01 3.63636E+00
 -1     26145 1.36880E+01 8.64227E+01 4.09091E+00
 -1     26146 2.03635E+01 8.48201E+01 4.54545E+00
 -1     26147 1.34925E+01 8.51881E+01 4.54545E+00
 -1     26152 1.36880E+01 8.64227E+01 5.00000E+00
 -1     26153 2.03635E+01 8.48201E+01 5.45455E+00
 -1     26154 1.34925E+01 8.51881E+01 5.45455E+00
 -1     26159 1.36880E+01 8.64227E+01 5.90909E+00
 -1     26160 2.03635E+01 8.48201E+01 6.36364E+00
 -1     26161 1.34925E+01 8.51881E+01 6.36364E+00
 -1     26166 1.36880E+01 8.64227E+01 6.81818E+00
 -1     26167 2.03635E+01 8.48201E+01 7.27273E+00
 -1     26168 1.34925E+01 8.51881E+01 7.27273E+00
 -1     26173 1.36880E+01 8.64227E+01 7.72727E+00
 -1     26174 2.03635E+01 8.48201E+01 8.18182E+00
 -1     26175 1.34925E+01 8.51881E+01 8.18182E+00
 -1     26180 1.36880E+01 8.64227E+01 8.63636E+00
 -1     26181 2.03635E+01 8.48201E+01 9.09091E+00
 -1     26182 1.34925E+01 8.51881E+01 9.09091E+00
 -1     26187 1.36880E+01 8.64227E+01 9.54545E+00
 -1     26191 6.84401E+00 8.69614E+01 9.09091E-01
 -1     26195 6.84401E+00 8.69614E+01 1.81818E+00
 -1     26199 6.84401E+00 8.69614E+01 2.72727E+00
 -1     26203 6.84401E+00 8.69614E+01 3.63636E+00
 -1     26207 6.84401E+00 8.69614E+01 4.54545E+00
 -1     26211 6.84401E+00 8.69614E+01 5.45455E+00
 -1     26215 6.84401E+00 8.69614E+01 6.36364E+00
 -1     26219 6.84401E+00 8.69614E+01 7.27273E+00
 -1     26223 6.84401E+00 8.69614E+01 8.18182E+00
 -1     26227 6.84401E+00 8.69614E+01 9.09091E+00
 -1     26233 8.88920E+01 1.40791E+01 4.54545E-01
 -1     26234 8.94460E+01 7.03955E+00 9.09091E-01
 -1     26235 8.76573E+01 1.38836E+01 9.09091E-01
 -1     26240 8.88920E+01 1.40791E+01 1.36364E+00
 -1     26241 8.94460E+01 7.03955E+00 1.81818E+00
 -1     26242 8.76573E+01 1.38836E+01 1.81818E+00
 -1     26247 8.88920E+01 1.40791E+01 2.27273E+00
 -1     26248 8.94460E+01 7.03955E+00 2.72727E+00
 -1     26249 8.76573E+01 1.38836E+01 2.72727E+00
 -1     26254 8.88920E+01 1.40791E+01 3.18182E+00
 -1     26255 8.94460E+01 7.03955E+00 3.63636E+00
 -1     26256 8.76573E+01 1.38836E+01 3.63636E+00
 -1     26261 8.88920E+01 1.40791E+01 4.09091E+00
 -1     26262 8.94460E+01 7.03955E+00 4.54545E+00
 -1     26263 8.76573E+01 1.38836E+01 4.54545E+00
 -1     26268 8.88920E+01 1.40791E+01 5.00000E+00
 -1     26269 8.94460E+01 7.03955E+00 5.45455E+00
 -1     26270 8.76573E+01 1.38836E+01 5.45455E+00
 -1     26275 8.88920E+01 1.40791E+01 5.90909E+00
 -1     26276 8.94460E+01 7.03955E+00 6.36364E+00
 -1     26277 8.76573E+01 1.38836E+01 6.36364E+00
 -1     26282 8.88920E+01 1.40791E+01 6.81818E+00
 -1     26283 8.94460E+01 7.03955E+00 7.27273E+00
 -1     26284 8.76573E+01 1.38836E+01 7.27273E+00
 -1     26289 8.88920E+01 1.40791E+01 7.72727E+00
 -1     26290 8.94460E+01 7.03955E+00 8.18182E+00
 -1     26291 8.76573E+01 1.38836E+01 8.18182E+00
 -1     26296 8.88920E+01 1.40791E+01 8.63636E+00
 -1     26297 8.94460E+01 7.03955E+00 9.09091E+00
 -1     26298 8.76573E+01 1.38836E+01 9.09091E+00
 -1     26303 8.88920E+01 1.40791E+01 9.54545E+00
 -1     26307 8.55951E+01 2.78115E+01 4.54545E-01
 -1     26308 8.72435E+01 2.09453E+01 9.09091E-01
 -1     26309 8.44063E+01 2.74253E+01 9.09091E-01
 -1     26314 8.55951E+01 2.78115E+01 1.36364E+00
 -1     26315 8.72435E+01 2.09453E+01 1.81818E+00
 -1     26316 8.44063E+01 2.74253E+01 1.81818E+00
 -1     26321 8.55951E+01 2.78115E+01 2.27273E+00
 -1     26322 8.72435E+01 2.09453E+01 2.72727E+00
 -1     26323 8.44063E+01 2.74253E+01 2.72727E+00
 -1     26328 8.55951E+01 2.78115E+01 3.18182E+00
 -1     26329 8.72435E+01 2.09453E+01 3.63636E+00
 -1     26330 8.44063E+01 2.74253E+01 3.63636E+00
 -1     26335 8.55951E+01 2.78115E+01 4.09091E+00
 -1     26336 8.72435E+01 2.09453E+01 4.54545E+00
 -1     26337 8.44063E+01 2.74253E+01 4.54545E+00
 -1     26342 8.55951E+01 2.78115E+01 5.00000E+00
 -1     26343 8.72435E+01 2.09453E+01 5.45455E+00
 -1     26344 8.44063E+01 2.74253E+01 5.45455E+00
 -1     26349 8.55951E+01 2.78115E+01 5.90909E+00
 -1     26350 8.72435E+01 2.09453E+01 6.36364E+00
 -1     26351 8.44063E+01 2.74253E+01 6.36364E+00
 -1     26356 8.55951E+01 2.78115E+01 6.81818E+00
 -1     26357 8.72435E+01 2.09453E+01 7.27273E+00
 -1     26358 8.44063E+01 2.74253E+01 7.27273E+00
 -1     26363 8.55951E+01 2.78115E+01 7.72727E+00
 -1     26364 8.72435E+01 2.09453E+01 8.18182E+00
 -1     26365 8.44063E+01 2.74253E+01 8.18182E+00
 -1     26370 8.55951E+01 2.78115E+01 8.63636E+00
 -1     26371 8.72435E+01 2.09453E+01 9.09091E+00
 -1     26372 8.44063E+01 2.74253E+01 9.09091E+00
 -1     26377 8.55951E+01 2.78115E+01 9.54545E+00
 -1     26381 8.01906E+01 4.08591E+01 4.54545E-01
 -1     26382 8.28928E+01 3.43353E+01 9.09091E-01
 -1     26383 7.90768E+01 4.02917E+01 9.09091E-01
 -1     26388 8.01906E+01 4.08591E+01 1.36364E+00
 -1     26389 8.28928E+01 3.43353E+01 1.81818E+00
 -1     26390 7.90768E+01 4.02917E+01 1.81818E+00
 -1     26395 8.01906E+01 4.08591E+01 2.27273E+00
 -1     26396 8.28928E+01 3.43353E+01 2.72727E+00
 -1     26397 7.90768E+01 4.02917E+01 2.72727E+00
 -1     26402 8.01906E+01 4.08591E+01 3.18182E+00
 -1     26403 8.28928E+01 3.43353E+01 3.63636E+00
 -1     26404 7.90768E+01 4.02917E+01 3.63636E+00
 -1     26409 8.01906E+01 4.08591E+01 4.09091E+00
 -1     26410 8.28928E+01 3.43353E+01 4.54545E+00
 -1     26411 7.90768E+01 4.02917E+01 4.54545E+00
 -1     26416 8.01906E+01 4.08591E+01 5.00000E+00
 -1     26417 8.28928E+01 3.43353E+01 5.45455E+00
 -1     26418 7.90768E+01 4.02917E+01 5.45455E+00
 -1     26423 8.01906E+01 4.08591E+01 5.90909E+00
 -1     26424 8.28928E+01 3.43353E+01 6.36364E+00
 -1     26425 7.90768E+01 4.02917E+01 6.36364E+00
 -1     26430 8.01906E+01 4.08591E+01 6.81818E+00
 -1     26431 8.28928E+01 3.43353E+01 7.27273E+00
 -1     26432 7.90768E+01 4.02917E+01 7.27273E+00
 -1     26437 8.01906E+01 4.08591E+01 7.72727E+00
 -1     26438 8.28928E+01 3.43353E+01 8.18182E+00
 -1     26439 7.90768E+01 4.02917E+01 8.18182E+00
 -1     26444 8.01906E+01 4.08591E+01 8.63636E+00
 -1     26445 8.28928E+01 3.43353E+01 9.09091E+00
 -1     26446 7.90768E+01 4.02917E+01 9.09091E+00
 -1     26451 8.01906E+01 4.08591E+01 9.54545E+00
 -1     26455 7.28115E+01 5.29007E+01 4.54545E-01
 -1     26456 7.65011E+01 4.68799E+01 9.09091E-01
 -1     26457 7.18003E+01 5.21659E+01 9.09091E-01
 -1     26462 7.28115E+01 5.29007E+01 1.36364E+00
 -1     26463 7.65011E+01 4.68799E+01 1.81818E+00
 -1     26464 7.18003E+01 5.21659E+01 1.81818E+00
 -1     26469 7.28115E+01 5.29007E+01 2.27273E+00
 -1     26470 7.65011E+01 4.68799E+01 2.72727E+00
 -1     26471 7.18003E+01 5.21659E+01 2.72727E+00
 -1     26476 7.28115E+01 5.29007E+01 3.18182E+00
 -1     26477 7.65011E+01 4.68799E+01 3.63636E+00
 -1     26478 7.18003E+01 5.21659E+01 3.63636E+00
 -1     26483 7.28115E+01 5.29007E+01 4.09091E+00
 -1     26484 7.65011E+01 4.68799E+01 4.54545E+00
 -1     26485 7.18003E+01 5.21659E+01 4.54545E+00
 -1     26490 7.28115E+01 5.29007E+01 5.00000E+00
 -1     26491 7.65011E+01 4.68799E+01 5.45455E+00
 -1     26492 7.18003E+01 5.21659E+01 5.45455E+00
 -1     26497 7.28115E+01 5.29007E+01 5.90909E+00
 -1     26498 7.65011E+01 4.68799E+01 6.36364E+00
 -1     26499 7.18003E+01 5.21659E+01 6.36364E+00
 -1     26504 7.28115E+01 5.29007E+01 6.81818E+00
 -1     26505 7.65011E+01 4.68799E+01 7.27273E+00
 -1     26506 7.18003E+01 5.21659E+01 7.27273E+00
 -1     26511 7.28115E+01 5.29007E+01 7.72727E+00
 -1     26512 7.65011E+01 4.68799E+01 8.18182E+00
 -1     26513 7.18003E+01 5.21659E+01 8.18182E+00
 -1     26518 7.28115E+01 5.29007E+01 8.63636E+00
 -1     26519 7.65011E+01 4.68799E+01 9.09091E+00
 -1     26520 7.18003E+01 5.21659E+01 9.09091E+00
 -1     26525 7.28115E+01 5.29007E+01 9.54545E+00
 -1     26529 6.36396E+01 6.36396E+01 4.54545E-01
 -1     26530 6.82256E+01 5.82701E+01 9.09091E-01
 -1     26531 6.27557E+01 6.27557E+01 9.09091E-01
 -1     26536 6.36396E+01 6.36396E+01 1.36364E+00
 -1     26537 6.82256E+01 5.82701E+01 1.81818E+00
 -1     26538 6.27557E+01 6.27557E+01 1.81818E+00
 -1     26543 6.36396E+01 6.36396E+01 2.27273E+00
 -1     26544 6.82256E+01 5.82701E+01 2.72727E+00
 -1     26545 6.27557E+01 6.27557E+01 2.72727E+00
 -1     26550 6.36396E+01 6.36396E+01 3.18182E+00
 -1     26551 6.82256E+01 5.82701E+01 3.63636E+00
 -1     26552 6.27557E+01 6.27557E+01 3.63636E+00
 -1     26557 6.36396E+01 6.36396E+01 4.09091E+00
 -1     26558 6.82256E+01 5.82701E+01 4.54545E+00
 -1     26559 6.27557E+01 6.27557E+01 4.54545E+00
 -1     26564 6.36396E+01 6.36396E+01 5.00000E+00
 -1     26565 6.82256E+01 5.82701E+01 5.45455E+00
 -1     26566 6.27557E+01 6.27557E+01 5.45455E+00
 -1     26571 6.36396E+01 6.36396E+01 5.90909E+00
 -1     26572 6.82256E+01 5.82701E+01 6.36364E+00
 -1     26573 6.27557E+01 6.27557E+01 6.36364E+00
 -1     26578 6.36396E+01 6.36396E+01 6.81818E+00
 -1     26579 6.82256E+01 5.82701E+01 7.27273E+00
 -1     26580 6.27557E+01 6.27557E+01 7.27273E+00
 -1     26585 6.36396E+01 6.36396E+01 7.72727E+00
 -1     26586 6.82256E+01 5.82701E+01 8.18182E+00
 -1     26587 6.27557E+01 6.27557E+01 8.18182E+00
 -1     26592 6.36396E+01 6.36396E+01 8.63636E+00
 -1     26593 6.82256E+01 5.82701E+01 9.09091E+00
 -1     26594 6.27557E+01 6.27557E+01 9.09091E+00
 -1     26599 6.36396E+01 6.36396E+01 9.54545E+00
 -1     26603 5.29007E+01 7.28115E+01 4.54545E-01
 -1     26604 5.82701E+01 6.82256E+01 9.09091E-01
 -1     26605 5.21659E+01 7.18003E+01 9.09091E-01
 -1     26610 5.29007E+01 7.28115E+01 1.36364E+00
 -1     26611 5.82701E+01 6.82256E+01 1.81818E+00
 -1     26612 5.21659E+01 7.18003E+01 1.81818E+00
 -1     26617 5.29007E+01 7.28115E+01 2.27273E+00
 -1     26618 5.82701E+01 6.82256E+01 2.72727E+00
 -1     26619 5.21659E+01 7.18003E+01 2.72727E+00
 -1     26624 5.29007E+01 7.28115E+01 3.18182E+00
 -1     26625 5.82701E+01 6.82256E+01 3.63636E+00
 -1     26626 5.21659E+01 7.18003E+01 3.63636E+00
 -1     26631 5.29007E+01 7.28115E+01 4.09091E+00
 -1     26632 5.82701E+01 6.82256E+01 4.54545E+00
 -1     26633 5.21659E+01 7.18003E+01 4.54545E+00
 -1     26638 5.29007E+01 7.28115E+01 5.00000E+00
 -1     26639 5.82701E+01 6.82256E+01 5.45455E+00
 -1     26640 5.21659E+01 7.18003E+01 5.45455E+00
 -1     26645 5.29007E+01 7.28115E+01 5.90909E+00
 -1     26646 5.82701E+01 6.82256E+01 6.36364E+00
 -1     26647 5.21659E+01 7.18003E+01 6.36364E+00
 -1     26652 5.29007E+01 7.28115E+01 6.81818E+00
 -1     26653 5.82701E+01 6.82256E+01 7.27273E+00
 -1     26654 5.21659E+01 7.18003E+01 7.27273E+00
 -1     26659 5.29007E+01 7.28115E+01 7.72727E+00
 -1     26660 5.82701E+01 6.82256E+01 8.18182E+00
 -1     26661 5.21659E+01 7.18003E+01 8.18182E+00
 -1     26666 5.29007E+01 7.28115E+01 8.63636E+00
 -1     26667 5.82701E+01 6.82256E+01 9.09091E+00
 -1     26668 5.21659E+01 7.18003E+01 9.09091E+00
 -1     26673 5.29007E+01 7.28115E+01 9.54545E+00
 -1     26677 4.08591E+01 8.01906E+01 4.54545E-01
 -1     26678 4.68799E+01 7.65011E+01 9.09091E-01
 -1     26679 4.02917E+01 7.90768E+01 9.09091E-01
 -1     26684 4.08591E+01 8.01906E+01 1.36364E+00
 -1     26685 4.68799E+01 7.65011E+01 1.81818E+00
 -1     26686 4.02917E+01 7.90768E+01 1.81818E+00
 -1     26691 4.08591E+01 8.01906E+01 2.27273E+00
 -1     26692 4.68799E+01 7.65011E+01 2.72727E+00
 -1     26693 4.02917E+01 7.90768E+01 2.72727E+00
 -1     26698 4.08591E+01 8.01906E+01 3.18182E+00
 -1     26699 4.68799E+01 7.65011E+01 3.63636E+00
 -1     26700 4.02917E+01 7.90768E+01 3.63636E+00
 -1     26705 4.08591E+01 8.01906E+01 4.09091E+00
 -1     26706 4.68799E+01 7.65011E+01 4.54545E+00
 -1     26707 4.02917E+01 7.90768E+01 4.54545E+00
 -1     26712 4.08591E+01 8.01906E+01 5.00000E+00
 -1     26713 4.68799E+01 7.65011E+01 5.45455E+00
 -1     26714 4.02917E+01 7.90768E+01 5.45455E+00
 -1     26719 4.08591E+01 8.01906E+01 5.90909E+00
 -1     26720 4.68799E+01 7.65011E+01 6.36364E+00
 -1     26721 4.02917E+01 7.90768E+01 6.36364E+00
 -1     26726 4.08591E+01 8.01906E+01 6.81818E+00
 -1     26727 4.68799E+01 7.65011E+01 7.27273E+00
 -1     26728 4.02917E+01 7.90768E+01 7.27273E+00
 -1     26733 4.08591E+01 8.01906E+01 7.72727E+00
 -1     26734 4.68799E+01 7.65011E+01 8.18182E+00
 -1     26735 4.02917E+01 7.90768E+01 8.18182E+00
 -1     26740 4.08591E+01 8.01906E+01 8.63636E+00
 -1     26741 4.68799E+01 7.65011E+01 9.09091E+00
 -1     26742 4.02917E+01 7.90768E+01 9.09091E+00
 -1     26747 4.08591E+01 8.01906E+01 9.54545E+00
 -1     26751 2.78115E+01 8.55951E+01 4.54545E-01
 -1     26752 3.43353E+01 8.28928E+01 9.09091E-01
 -1     26753 2.74253E+01 8.44063E+01 9.09091E-01
 -1     26758 2.78115E+01 8.55951E+01 1.36364E+00
 -1     26759 3.43353E+01 8.28928E+01 1.81818E+00
 -1     26760 2.74253E+01 8.44063E+01 1.81818E+00
 -1     26765 2.78115E+01 8.55951E+01 2.27273E+00
 -1     26766 3.43353E+01 8.28928E+01 2.72727E+00
 -1     26767 2.74253E+01 8.44063E+01 2.72727E+00
 -1     26772 2.78115E+01 8.55951E+01 3.18182E+00
 -1     26773 3.43353E+01 8.28928E+01 3.63636E+00
 -1     26774 2.74253E+01 8.44063E+01 3.63636E+00
 -1     26779 2.78115E+01 8.55951E+01 4.09091E+00
 -1     26780 3.43353E+01 8.28928E+01 4.54545E+00
 -1     26781 2.74253E+01 8.44063E+01 4.54545E+00
 -1     26786 2.78115E+01 8.55951E+01 5.00000E+00
 -1     26787 3.43353E+01 8.28928E+01 5.45455E+00
 -1     26788 2.74253E+01 8.44063E+01 5.45455E+00
 -1     26793 2.78115E+01 8.55951E+01 5.90909E+00
 -1     26794 3.43353E+01 8.28928E+01 6.36364E+00
 -1     26795 2.74253E+01 8.44063E+01 6.36364E+00
 -1     26800 2.78115E+01 8.55951E+01 6.81818E+00
 -1     26801 3.43353E+01 8.28928E+01 7.27273E+00
 -1     26802 2.74253E+01 8.44063E+01 7.27273E+00
 -1     26807 2.78115E+01 8.55951E+01 7.72727E+00
 -1     26808 3.43353E+01 8.28928E+01 8.18182E+00
 -1     26809 2.74253E+01 8.44063E+01 8.18182E+00
 -1     26814 2.78115E+01 8.55951E+01 8.63636E+00
 -1     26815 3.43353E+01 8.28928E+01 9.09091E+00
 -1     26816 2.74253E+01 8.44063E+01 9.09091E+00
 -1     26821 2.78115E+01 8.55951E+01 9.54545E+00
 -1     26825 1.40791E+01 8.88920E+01 4.54545E-01
 -1     26826 2.09453E+01 8.72435E+01 9.09091E-01
 -1     26827 1.38836E+01 8.76573E+01 9.09091E-01
 -1     26832 1.40791E+01 8.88920E+01 1.36364E+00
 -1     26833 2.09453E+01 8.72435E+01 1.81818E+00
 -1     26834 1.38836E+01 8.76573E+01 1.81818E+00
 -1     26839 1.40791E+01 8.88920E+01 2.27273E+00
 -1     26840 2.09453E+01 8.72435E+01 2.72727E+00
 -1     26841 1.38836E+01 8.76573E+01 2.72727E+00
 -1     26846 1.40791E+01 8.88920E+01 3.18182E+00
 -1     26847 2.09453E+01 8.72435E+01 3.63636E+00
 -1     26848 1.38836E+01 8.76573E+01 3.63636E+00
 -1     26853 1.40791E+01 8.88920E+01 4.09091E+00
 -1     26854 2.09453E+01 8.72435E+01 4.54545E+00
 -1     26855 1.38836E+01 8.76573E+01 4.54545E+00
 -1     26860 1.40791E+01 8.88920E+01 5.00000E+00
 -1     26861 2.09453E+01 8.72435E+01 5.45455E+00
 -1     26862 1.38836E+01 8.76573E+01 5.45455E+00
 -1     26867 1.40791E+01 8.88920E+01 5.90909E+00
 -1     26868 2.09453E+01 8.72435E+01 6.36364E+00
 -1     26869 1.38836E+01 8.76573E+01 6.36364E+00
 -1     26874 1.40791E+01 8.88920E+01 6.81818E+00
 -1     26875 2.09453E+01 8.72435E+01 7.27273E+00
 -1     26876 1.38836E+01 8.76573E+01 7.27273E+00
 -1     26881 1.40791E+01 8.88920E+01 7.72727E+00
 -1     26882 2.09453E+01 8.72435E+01 8.18182E+00
 -1     26883 1.38836E+01 8.76573E+01 8.18182E+00
 -1     26888 1.40791E+01 8.88920E+01 8.63636E+00
 -1     26889 2.09453E+01 8.72435E+01 9.09091E+00
 -1     26890 1.38836E+01 8.76573E+01 9.09091E+00
 -1     26895 1.40791E+01 8.88920E+01 9.54545E+00
 -1     26899 7.03955E+00 8.94460E+01 9.09091E-01
 -1     26903 7.03955E+00 8.94460E+01 1.81818E+00
 -1     26907 7.03955E+00 8.94460E+01 2.72727E+00
 -1     26911 7.03955E+00 8.94460E+01 3.63636E+00
 -1     26915 7.03955E+00 8.94460E+01 4.54545E+00
 -1     26919 7.03955E+00 8.94460E+01 5.45455E+00
 -1     26923 7.03955E+00 8.94460E+01 6.36364E+00
 -1     26927 7.03955E+00 8.94460E+01 7.27273E+00
 -1     26931 7.03955E+00 8.94460E+01 8.18182E+00
 -1     26935 7.03955E+00 8.94460E+01 9.09091E+00
 -1     26941 9.13612E+01 1.44702E+01 4.54545E-01
 -1     26942 9.19306E+01 7.23509E+00 9.09091E-01
 -1     26943 9.01266E+01 1.42746E+01 9.09091E-01
 -1     26948 9.13612E+01 1.44702E+01 1.36364E+00
 -1     26949 9.19306E+01 7.23509E+00 1.81818E+00
 -1     26950 9.01266E+01 1.42746E+01 1.81818E+00
 -1     26955 9.13612E+01 1.44702E+01 2.27273E+00
 -1     26956 9.19306E+01 7.23509E+00 2.72727E+00
 -1     26957 9.01266E+01 1.42746E+01 2.72727E+00
 -1     26962 9.13612E+01 1.44702E+01 3.18182E+00
 -1     26963 9.19306E+01 7.23509E+00 3.63636E+00
 -1     26964 9.01266E+01 1.42746E+01 3.63636E+00
 -1     26969 9.13612E+01 1.44702E+01 4.09091E+00
 -1     26970 9.19306E+01 7.23509E+00 4.54545E+00
 -1     26971 9.01266E+01 1.42746E+01 4.54545E+00
 -1     26976 9.13612E+01 1.44702E+01 5.00000E+00
 -1     26977 9.19306E+01 7.23509E+00 5.45455E+00
 -1     26978 9.01266E+01 1.42746E+01 5.45455E+00
 -1     26983 9.13612E+01 1.44702E+01 5.90909E+00
 -1     26984 9.19306E+01 7.23509E+00 6.36364E+00
 -1     26985 9.01266E+01 1.42746E+01 6.36364E+00
 -1     26990 9.13612E+01 1.44702E+01 6.81818E+00
 -1     26991 9.19306E+01 7.23509E+00 7.27273E+00
 -1     26992 9.01266E+01 1.42746E+01 7.27273E+00
 -1     26997 9.13612E+01 1.44702E+01 7.72727E+00
 -1     26998 9.19306E+01 7.23509E+00 8.18182E+00
 -1     26999 9.01266E+01 1.42746E+01 8.18182E+00
 -1     27004 9.13612E+01 1.44702E+01 8.63636E+00
 -1     27005 9.19306E+01 7.23509E+00 9.09091E+00
 -1     27006 9.01266E+01 1.42746E+01 9.09091E+00
 -1     27011 9.13612E+01 1.44702E+01 9.54545E+00
 -1     27015 8.79727E+01 2.85841E+01 4.54545E-01
 -1     27016 8.96669E+01 2.15271E+01 9.09091E-01
 -1     27017 8.67839E+01 2.81978E+01 9.09091E-01
 -1     27022 8.79727E+01 2.85841E+01 1.36364E+00
 -1     27023 8.96669E+01 2.15271E+01 1.81818E+00
 -1     27024 8.67839E+01 2.81978E+01 1.81818E+00
 -1     27029 8.79727E+01 2.85841E+01 2.27273E+00
 -1     27030 8.96669E+01 2.15271E+01 2.72727E+00
 -1     27031 8.67839E+01 2.81978E+01 2.72727E+00
 -1     27036 8.79727E+01 2.85841E+01 3.18182E+00
 -1     27037 8.96669E+01 2.15271E+01 3.63636E+00
 -1     27038 8.67839E+01 2.81978E+01 3.63636E+00
 -1     27043 8.79727E+01 2.85841E+01 4.09091E+00
 -1     27044 8.96669E+01 2.15271E+01 4.54545E+00
 -1     27045 8.67839E+01 2.81978E+01 4.54545E+00
 -1     27050 8.79727E+01 2.85841E+01 5.00000E+00
 -1     27051 8.96669E+01 2.15271E+01 5.45455E+00
 -1     27052 8.67839E+01 2.81978E+01 5.45455E+00
 -1     27057 8.79727E+01 2.85841E+01 5.90909E+00
 -1     27058 8.96669E+01 2.15271E+01 6.36364E+00
 -1     27059 8.67839E+01 2.81978E+01 6.36364E+00
 -1     27064 8.79727E+01 2.85841E+01 6.81818E+00
 -1     27065 8.96669E+01 2.15271E+01 7.27273E+00
 -1     27066 8.67839E+01 2.81978E+01 7.27273E+00
 -1     27071 8.79727E+01 2.85841E+01 7.72727E+00
 -1     27072 8.96669E+01 2.15271E+01 8.18182E+00
 -1     27073 8.67839E+01 2.81978E+01 8.18182E+00
 -1     27078 8.79727E+01 2.85841E+01 8.63636E+00
 -1     27079 8.96669E+01 2.15271E+01 9.09091E+00
 -1     27080 8.67839E+01 2.81978E+01 9.09091E+00
 -1     27085 8.79727E+01 2.85841E+01 9.54545E+00
 -1     27089 8.24181E+01 4.19941E+01 4.54545E-01
 -1     27090 8.51954E+01 3.52891E+01 9.09091E-01
 -1     27091 8.13043E+01 4.14266E+01 9.09091E-01
 -1     27096 8.24181E+01 4.19941E+01 1.36364E+00
 -1     27097 8.51954E+01 3.52891E+01 1.81818E+00
 -1     27098 8.13043E+01 4.14266E+01 1.81818E+00
 -1     27103 8.24181E+01 4.19941E+01 2.27273E+00
 -1     27104 8.51954E+01 3.52891E+01 2.72727E+00
 -1     27105 8.13043E+01 4.14266E+01 2.72727E+00
 -1     27110 8.24181E+01 4.19941E+01 3.18182E+00
 -1     27111 8.51954E+01 3.52891E+01 3.63636E+00
 -1     27112 8.13043E+01 4.14266E+01 3.63636E+00
 -1     27117 8.24181E+01 4.19941E+01 4.09091E+00
 -1     27118 8.51954E+01 3.52891E+01 4.54545E+00
 -1     27119 8.13043E+01 4.14266E+01 4.54545E+00
 -1     27124 8.24181E+01 4.19941E+01 5.00000E+00
 -1     27125 8.51954E+01 3.52891E+01 5.45455E+00
 -1     27126 8.13043E+01 4.14266E+01 5.45455E+00
 -1     27131 8.24181E+01 4.19941E+01 5.90909E+00
 -1     27132 8.51954E+01 3.52891E+01 6.36364E+00
 -1     27133 8.13043E+01 4.14266E+01 6.36364E+00
 -1     27138 8.24181E+01 4.19941E+01 6.81818E+00
 -1     27139 8.51954E+01 3.52891E+01 7.27273E+00
 -1     27140 8.13043E+01 4.14266E+01 7.27273E+00
 -1     27145 8.24181E+01 4.19941E+01 7.72727E+00
 -1     27146 8.51954E+01 3.52891E+01 8.18182E+00
 -1     27147 8.13043E+01 4.14266E+01 8.18182E+00
 -1     27152 8.24181E+01 4.19941E+01 8.63636E+00
 -1     27153 8.51954E+01 3.52891E+01 9.09091E+00
 -1     27154 8.13043E+01 4.14266E+01 9.09091E+00
 -1     27159 8.24181E+01 4.19941E+01 9.54545E+00
 -1     27163 7.48341E+01 5.43701E+01 4.54545E-01
 -1     27164 7.86261E+01 4.81821E+01 9.09091E-01
 -1     27165 7.38228E+01 5.36354E+01 9.09091E-01
 -1     27170 7.48341E+01 5.43701E+01 1.36364E+00
 -1     27171 7.86261E+01 4.81821E+01 1.81818E+00
 -1     27172 7.38228E+01 5.36354E+01 1.81818E+00
 -1     27177 7.48341E+01 5.43701E+01 2.27273E+00
 -1     27178 7.86261E+01 4.81821E+01 2.72727E+00
 -1     27179 7.38228E+01 5.36354E+01 2.72727E+00
 -1     27184 7.48341E+01 5.43701E+01 3.18182E+00
 -1     27185 7.86261E+01 4.81821E+01 3.63636E+00
 -1     27186 7.38228E+01 5.36354E+01 3.63636E+00
 -1     27191 7.48341E+01 5.43701E+01 4.09091E+00
 -1     27192 7.86261E+01 4.81821E+01 4.54545E+00
 -1     27193 7.38228E+01 5.36354E+01 4.54545E+00
 -1     27198 7.48341E+01 5.43701E+01 5.00000E+00
 -1     27199 7.86261E+01 4.81821E+01 5.45455E+00
 -1     27200 7.38228E+01 5.36354E+01 5.45455E+00
 -1     27205 7.48341E+01 5.43701E+01 5.90909E+00
 -1     27206 7.86261E+01 4.81821E+01 6.36364E+00
 -1     27207 7.38228E+01 5.36354E+01 6.36364E+00
 -1     27212 7.48341E+01 5.43701E+01 6.81818E+00
 -1     27213 7.86261E+01 4.81821E+01 7.27273E+00
 -1     27214 7.38228E+01 5.36354E+01 7.27273E+00
 -1     27219 7.48341E+01 5.43701E+01 7.72727E+00
 -1     27220 7.86261E+01 4.81821E+01 8.18182E+00
 -1     27221 7.38228E+01 5.36354E+01 8.18182E+00
 -1     27226 7.48341E+01 5.43701E+01 8.63636E+00
 -1     27227 7.86261E+01 4.81821E+01 9.09091E+00
 -1     27228 7.38228E+01 5.36354E+01 9.09091E+00
 -1     27233 7.48341E+01 5.43701E+01 9.54545E+00
 -1     27237 6.54074E+01 6.54074E+01 4.54545E-01
 -1     27238 7.01207E+01 5.98888E+01 9.09091E-01
 -1     27239 6.45235E+01 6.45235E+01 9.09091E-01
 -1     27244 6.54074E+01 6.54074E+01 1.36364E+00
 -1     27245 7.01207E+01 5.98888E+01 1.81818E+00
 -1     27246 6.45235E+01 6.45235E+01 1.81818E+00
 -1     27251 6.54074E+01 6.54074E+01 2.27273E+00
 -1     27252 7.01207E+01 5.98888E+01 2.72727E+00
 -1     27253 6.45235E+01 6.45235E+01 2.72727E+00
 -1     27258 6.54074E+01 6.54074E+01 3.18182E+00
 -1     27259 7.01207E+01 5.98888E+01 3.63636E+00
 -1     27260 6.45235E+01 6.45235E+01 3.63636E+00
 -1     27265 6.54074E+01 6.54074E+01 4.09091E+00
 -1     27266 7.01207E+01 5.98888E+01 4.54545E+00
 -1     27267 6.45235E+01 6.45235E+01 4.54545E+00
 -1     27272 6.54074E+01 6.54074E+01 5.00000E+00
 -1     27273 7.01207E+01 5.98888E+01 5.45455E+00
 -1     27274 6.45235E+01 6.45235E+01 5.45455E+00
 -1     27279 6.54074E+01 6.54074E+01 5.90909E+00
 -1     27280 7.01207E+01 5.98888E+01 6.36364E+00
 -1     27281 6.45235E+01 6.45235E+01 6.36364E+00
 -1     27286 6.54074E+01 6.54074E+01 6.81818E+00
 -1     27287 7.01207E+01 5.98888E+01 7.27273E+00
 -1     27288 6.45235E+01 6.45235E+01 7.27273E+00
 -1     27293 6.54074E+01 6.54074E+01 7.72727E+00
 -1     27294 7.01207E+01 5.98888E+01 8.18182E+00
 -1     27295 6.45235E+01 6.45235E+01 8.18182E+00
 -1     27300 6.54074E+01 6.54074E+01 8.63636E+00
 -1     27301 7.01207E+01 5.98888E+01 9.09091E+00
 -1     27302 6.45235E+01 6.45235E+01 9.09091E+00
 -1     27307 6.54074E+01 6.54074E+01 9.54545E+00
 -1     27311 5.43701E+01 7.48341E+01 4.54545E-01
 -1     27312 5.98888E+01 7.01207E+01 9.09091E-01
 -1     27313 5.36354E+01 7.38228E+01 9.09091E-01
 -1     27318 5.43701E+01 7.48341E+01 1.36364E+00
 -1     27319 5.98888E+01 7.01207E+01 1.81818E+00
 -1     27320 5.36354E+01 7.38228E+01 1.81818E+00
 -1     27325 5.43701E+01 7.48341E+01 2.27273E+00
 -1     27326 5.98888E+01 7.01207E+01 2.72727E+00
 -1     27327 5.36354E+01 7.38228E+01 2.72727E+00
 -1     27332 5.43701E+01 7.48341E+01 3.18182E+00
 -1     27333 5.98888E+01 7.01207E+01 3.63636E+00
 -1     27334 5.36354E+01 7.38228E+01 3.63636E+00
 -1     27339 5.43701E+01 7.48341E+01 4.09091E+00
 -1     27340 5.98888E+01 7.01207E+01 4.54545E+00
 -1     27341 5.36354E+01 7.38228E+01 4.54545E+00
 -1     27346 5.43701E+01 7.48341E+01 5.00000E+00
 -1     27347 5.98888E+01 7.01207E+01 5.45455E+00
 -1     27348 5.36354E+01 7.38228E+01 5.45455E+00
 -1     27353 5.43701E+01 7.48341E+01 5.90909E+00
 -1     27354 5.98888E+01 7.01207E+01 6.36364E+00
 -1     27355 5.36354E+01 7.38228E+01 6.36364E+00
 -1     27360 5.43701E+01 7.48341E+01 6.81818E+00
 -1     27361 5.98888E+01 7.01207E+01 7.27273E+00
 -1     27362 5.36354E+01 7.38228E+01 7.27273E+00
 -1     27367 5.43701E+01 7.48341E+01 7.72727E+00
 -1     27368 5.98888E+01 7.01207E+01 8.18182E+00
 -1     27369 5.36354E+01 7.38228E+01 8.18182E+00
 -1     27374 5.43701E+01 7.48341E+01 8.63636E+00
 -1     27375 5.98888E+01 7.01207E+01 9.09091E+00
 -1     27376 5.36354E+01 7.38228E+01 9.09091E+00
 -1     27381 5.43701E+01 7.48341E+01 9.54545E+00
 -1     27385 4.19941E+01 8.24181E+01 4.54545E-01
 -1     27386 4.81821E+01 7.86261E+01 9.09091E-01
 -1     27387 4.14266E+01 8.13043E+01 9.09091E-01
 -1     27392 4.19941E+01 8.24181E+01 1.36364E+00
 -1     27393 4.81821E+01 7.86261E+01 1.81818E+00
 -1     27394 4.14266E+01 8.13043E+01 1.81818E+00
 -1     27399 4.19941E+01 8.24181E+01 2.27273E+00
 -1     27400 4.81821E+01 7.86261E+01 2.72727E+00
 -1     27401 4.14266E+01 8.13043E+01 2.72727E+00
 -1     27406 4.19941E+01 8.24181E+01 3.18182E+00
 -1     27407 4.81821E+01 7.86261E+01 3.63636E+00
 -1     27408 4.14266E+01 8.13043E+01 3.63636E+00
 -1     27413 4.19941E+01 8.24181E+01 4.09091E+00
 -1     27414 4.81821E+01 7.86261E+01 4.54545E+00
 -1     27415 4.14266E+01 8.13043E+01 4.54545E+00
 -1     27420 4.19941E+01 8.24181E+01 5.00000E+00
 -1     27421 4.81821E+01 7.86261E+01 5.45455E+00
 -1     27422 4.14266E+01 8.13043E+01 5.45455E+00
 -1     27427 4.19941E+01 8.24181E+01 5.90909E+00
 -1     27428 4.81821E+01 7.86261E+01 6.36364E+00
 -1     27429 4.14266E+01 8.13043E+01 6.36364E+00
 -1     27434 4.19941E+01 8.24181E+01 6.81818E+00
 -1     27435 4.81821E+01 7.86261E+01 7.27273E+00
 -1     27436 4.14266E+01 8.13043E+01 7.27273E+00
 -1     27441 4.19941E+01 8.24181E+01 7.72727E+00
 -1     27442 4.81821E+01 7.86261E+01 8.18182E+00
 -1     27443 4.14266E+01 8.13043E+01 8.18182E+00
 -1     27448 4.19941E+01 8.24181E+01 8.63636E+00
 -1     27449 4.81821E+01 7.86261E+01 9.09091E+00
 -1     27450 4.14266E+01 8.13043E+01 9.09091E+00
 -1     27455 4.19941E+01 8.24181E+01 9.54545E+00
 -1     27459 2.85841E+01 8.79727E+01 4.54545E-01
 -1     27460 3.52891E+01 8.51954E+01 9.09091E-01
 -1     27461 2.81978E+01 8.67839E+01 9.09091E-01
 -1     27466 2.85841E+01 8.79727E+01 1.36364E+00
 -1     27467 3.52891E+01 8.51954E+01 1.81818E+00
 -1     27468 2.81978E+01 8.67839E+01 1.81818E+00
 -1     27473 2.85841E+01 8.79727E+01 2.27273E+00
 -1     27474 3.52891E+01 8.51954E+01 2.72727E+00
 -1     27475 2.81978E+01 8.67839E+01 2.72727E+00
 -1     27480 2.85841E+01 8.79727E+01 3.18182E+00
 -1     27481 3.52891E+01 8.51954E+01 3.63636E+00
 -1     27482 2.81978E+01 8.67839E+01 3.63636E+00
 -1     27487 2.85841E+01 8.79727E+01 4.09091E+00
 -1     27488 3.52891E+01 8.51954E+01 4.54545E+00
 -1     27489 2.81978E+01 8.67839E+01 4.54545E+00
 -1     27494 2.85841E+01 8.79727E+01 5.00000E+00
 -1     27495 3.52891E+01 8.51954E+01 5.45455E+00
 -1     27496 2.81978E+01 8.67839E+01 5.45455E+00
 -1     27501 2.85841E+01 8.79727E+01 5.90909E+00
 -1     27502 3.52891E+01 8.51954E+01 6.36364E+00
 -1     27503 2.81978E+01 8.67839E+01 6.36364E+00
 -1     27508 2.85841E+01 8.79727E+01 6.81818E+00
 -1     27509 3.52891E+01 8.51954E+01 7.27273E+00
 -1     27510 2.81978E+01 8.67839E+01 7.27273E+00
 -1     27515 2.85841E+01 8.79727E+01 7.72727E+00
 -1     27516 3.52891E+01 8.51954E+01 8.18182E+00
 -1     27517 2.81978E+01 8.67839E+01 8.18182E+00
 -1     27522 2.85841E+01 8.79727E+01 8.63636E+00
 -1     27523 3.52891E+01 8.51954E+01 9.09091E+00
 -1     27524 2.81978E+01 8.67839E+01 9.09091E+00
 -1     27529 2.85841E+01 8.79727E+01 9.54545E+00
 -1     27533 1.44702E+01 9.13612E+01 4.54545E-01
 -1     27534 2.15271E+01 8.96669E+01 9.09091E-01
 -1     27535 1.42746E+01 9.01266E+01 9.09091E-01
 -1     27540 1.44702E+01 9.13612E+01 1.36364E+00
 -1     27541 2.15271E+01 8.96669E+01 1.81818E+00
 -1     27542 1.42746E+01 9.01266E+01 1.81818E+00
 -1     27547 1.44702E+01 9.13612E+01 2.27273E+00
 -1     27548 2.15271E+01 8.96669E+01 2.72727E+00
 -1     27549 1.42746E+01 9.01266E+01 2.72727E+00
 -1     27554 1.44702E+01 9.13612E+01 3.18182E+00
 -1     27555 2.15271E+01 8.96669E+01 3.63636E+00
 -1     27556 1.42746E+01 9.01266E+01 3.63636E+00
 -1     27561 1.44702E+01 9.13612E+01 4.09091E+00
 -1     27562 2.15271E+01 8.96669E+01 4.54545E+00
 -1     27563 1.42746E+01 9.01266E+01 4.54545E+00
 -1     27568 1.44702E+01 9.13612E+01 5.00000E+00
 -1     27569 2.15271E+01 8.96669E+01 5.45455E+00
 -1     27570 1.42746E+01 9.01266E+01 5.45455E+00
 -1     27575 1.44702E+01 9.13612E+01 5.90909E+00
 -1     27576 2.15271E+01 8.96669E+01 6.36364E+00
 -1     27577 1.42746E+01 9.01266E+01 6.36364E+00
 -1     27582 1.44702E+01 9.13612E+01 6.81818E+00
 -1     27583 2.15271E+01 8.96669E+01 7.27273E+00
 -1     27584 1.42746E+01 9.01266E+01 7.27273E+00
 -1     27589 1.44702E+01 9.13612E+01 7.72727E+00
 -1     27590 2.15271E+01 8.96669E+01 8.18182E+00
 -1     27591 1.42746E+01 9.01266E+01 8.18182E+00
 -1     27596 1.44702E+01 9.13612E+01 8.63636E+00
 -1     27597 2.15271E+01 8.96669E+01 9.09091E+00
 -1     27598 1.42746E+01 9.01266E+01 9.09091E+00
 -1     27603 1.44702E+01 9.13612E+01 9.54545E+00
 -1     27607 7.23509E+00 9.19306E+01 9.09091E-01
 -1     27611 7.23509E+00 9.19306E+01 1.81818E+00
 -1     27615 7.23509E+00 9.19306E+01 2.72727E+00
 -1     27619 7.23509E+00 9.19306E+01 3.63636E+00
 -1     27623 7.23509E+00 9.19306E+01 4.54545E+00
 -1     27627 7.23509E+00 9.19306E+01 5.45455E+00
 -1     27631 7.23509E+00 9.19306E+01 6.36364E+00
 -1     27635 7.23509E+00 9.19306E+01 7.27273E+00
 -1     27639 7.23509E+00 9.19306E+01 8.18182E+00
 -1     27643 7.23509E+00 9.19306E+01 9.09091E+00
 -1     27649 9.38304E+01 1.48613E+01 4.54545E-01
 -1     27650 9.44152E+01 7.43064E+00 9.09091E-01
 -1     27651 9.25958E+01 1.46657E+01 9.09091E-01
 -1     27656 9.38304E+01 1.48613E+01 1.36364E+00
 -1     27657 9.44152E+01 7.43064E+00 1.81818E+00
 -1     27658 9.25958E+01 1.46657E+01 1.81818E+00
 -1     27663 9.38304E+01 1.48613E+01 2.27273E+00
 -1     27664 9.44152E+01 7.43064E+00 2.72727E+00
 -1     27665 9.25958E+01 1.46657E+01 2.72727E+00
 -1     27670 9.38304E+01 1.48613E+01 3.18182E+00
 -1     27671 9.44152E+01 7.43064E+00 3.63636E+00
 -1     27672 9.25958E+01 1.46657E+01 3.63636E+00
 -1     27677 9.38304E+01 1.48613E+01 4.09091E+00
 -1     27678 9.44152E+01 7.43064E+00 4.54545E+00
 -1     27679 9.25958E+01 1.46657E+01 4.54545E+00
 -1     27684 9.38304E+01 1.48613E+01 5.00000E+00
 -1     27685 9.44152E+01 7.43064E+00 5.45455E+00
 -1     27686 9.25958E+01 1.46657E+01 5.45455E+00
 -1     27691 9.38304E+01 1.48613E+01 5.90909E+00
 -1     27692 9.44152E+01 7.43064E+00 6.36364E+00
 -1     27693 9.25958E+01 1.46657E+01 6.36364E+00
 -1     27698 9.38304E+01 1.48613E+01 6.81818E+00
 -1     27699 9.44152E+01 7.43064E+00 7.27273E+00
 -1     27700 9.25958E+01 1.46657E+01 7.27273E+00
 -1     27705 9.38304E+01 1.48613E+01 7.72727E+00
 -1     27706 9.44152E+01 7.43064E+00 8.18182E+00
 -1     27707 9.25958E+01 1.46657E+01 8.18182E+00
 -1     27712 9.38304E+01 1.48613E+01 8.63636E+00
 -1     27713 9.44152E+01 7.43064E+00 9.09091E+00
 -1     27714 9.25958E+01 1.46657E+01 9.09091E+00
 -1     27719 9.38304E+01 1.48613E+01 9.54545E+00
 -1     27723 9.03504E+01 2.93566E+01 4.54545E-01
 -1     27724 9.20904E+01 2.21089E+01 9.09091E-01
 -1     27725 8.91615E+01 2.89703E+01 9.09091E-01
 -1     27730 9.03504E+01 2.93566E+01 1.36364E+00
 -1     27731 9.20904E+01 2.21089E+01 1.81818E+00
 -1     27732 8.91615E+01 2.89703E+01 1.81818E+00
 -1     27737 9.03504E+01 2.93566E+01 2.27273E+00
 -1     27738 9.20904E+01 2.21089E+01 2.72727E+00
 -1     27739 8.91615E+01 2.89703E+01 2.72727E+00
 -1     27744 9.03504E+01 2.93566E+01 3.18182E+00
 -1     27745 9.20904E+01 2.21089E+01 3.63636E+00
 -1     27746 8.91615E+01 2.89703E+01 3.63636E+00
 -1     27751 9.03504E+01 2.93566E+01 4.09091E+00
 -1     27752 9.20904E+01 2.21089E+01 4.54545E+00
 -1     27753 8.91615E+01 2.89703E+01 4.54545E+00
 -1     27758 9.03504E+01 2.93566E+01 5.00000E+00
 -1     27759 9.20904E+01 2.21089E+01 5.45455E+00
 -1     27760 8.91615E+01 2.89703E+01 5.45455E+00
 -1     27765 9.03504E+01 2.93566E+01 5.90909E+00
 -1     27766 9.20904E+01 2.21089E+01 6.36364E+00
 -1     27767 8.91615E+01 2.89703E+01 6.36364E+00
 -1     27772 9.03504E+01 2.93566E+01 6.81818E+00
 -1     27773 9.20904E+01 2.21089E+01 7.27273E+00
 -1     27774 8.91615E+01 2.89703E+01 7.27273E+00
 -1     27779 9.03504E+01 2.93566E+01 7.72727E+00
 -1     27780 9.20904E+01 2.21089E+01 8.18182E+00
 -1     27781 8.91615E+01 2.89703E+01 8.18182E+00
 -1     27786 9.03504E+01 2.93566E+01 8.63636E+00
 -1     27787 9.20904E+01 2.21089E+01 9.09091E+00
 -1     27788 8.91615E+01 2.89703E+01 9.09091E+00
 -1     27793 9.03504E+01 2.93566E+01 9.54545E+00
 -1     27797 8.46456E+01 4.31291E+01 4.54545E-01
 -1     27798 8.74980E+01 3.62429E+01 9.09091E-01
 -1     27799 8.35319E+01 4.25616E+01 9.09091E-01
 -1     27804 8.46456E+01 4.31291E+01 1.36364E+00
 -1     27805 8.74980E+01 3.62429E+01 1.81818E+00
 -1     27806 8.35319E+01 4.25616E+01 1.81818E+00
 -1     27811 8.46456E+01 4.31291E+01 2.27273E+00
 -1     27812 8.74980E+01 3.62429E+01 2.72727E+00
 -1     27813 8.35319E+01 4.25616E+01 2.72727E+00
 -1     27818 8.46456E+01 4.31291E+01 3.18182E+00
 -1     27819 8.74980E+01 3.62429E+01 3.63636E+00
 -1     27820 8.35319E+01 4.25616E+01 3.63636E+00
 -1     27825 8.46456E+01 4.31291E+01 4.09091E+00
 -1     27826 8.74980E+01 3.62429E+01 4.54545E+00
 -1     27827 8.35319E+01 4.25616E+01 4.54545E+00
 -1     27832 8.46456E+01 4.31291E+01 5.00000E+00
 -1     27833 8.74980E+01 3.62429E+01 5.45455E+00
 -1     27834 8.35319E+01 4.25616E+01 5.45455E+00
 -1     27839 8.46456E+01 4.31291E+01 5.90909E+00
 -1     27840 8.74980E+01 3.62429E+01 6.36364E+00
 -1     27841 8.35319E+01 4.25616E+01 6.36364E+00
 -1     27846 8.46456E+01 4.31291E+01 6.81818E+00
 -1     27847 8.74980E+01 3.62429E+01 7.27273E+00
 -1     27848 8.35319E+01 4.25616E+01 7.27273E+00
 -1     27853 8.46456E+01 4.31291E+01 7.72727E+00
 -1     27854 8.74980E+01 3.62429E+01 8.18182E+00
 -1     27855 8.35319E+01 4.25616E+01 8.18182E+00
 -1     27860 8.46456E+01 4.31291E+01 8.63636E+00
 -1     27861 8.74980E+01 3.62429E+01 9.09091E+00
 -1     27862 8.35319E+01 4.25616E+01 9.09091E+00
 -1     27867 8.46456E+01 4.31291E+01 9.54545E+00
 -1     27871 7.68566E+01 5.58396E+01 4.54545E-01
 -1     27872 8.07511E+01 4.94843E+01 9.09091E-01
 -1     27873 7.58453E+01 5.51049E+01 9.09091E-01
 -1     27878 7.68566E+01 5.58396E+01 1.36364E+00
 -1     27879 8.07511E+01 4.94843E+01 1.81818E+00
 -1     27880 7.58453E+01 5.51049E+01 1.81818E+00
 -1     27885 7.68566E+01 5.58396E+01 2.27273E+00
 -1     27886 8.07511E+01 4.94843E+01 2.72727E+00
 -1     27887 7.58453E+01 5.51049E+01 2.72727E+00
 -1     27892 7.68566E+01 5.58396E+01 3.18182E+00
 -1     27893 8.07511E+01 4.94843E+01 3.63636E+00
 -1     27894 7.58453E+01 5.51049E+01 3.63636E+00
 -1     27899 7.68566E+01 5.58396E+01 4.09091E+00
 -1     27900 8.07511E+01 4.94843E+01 4.54545E+00
 -1     27901 7.58453E+01 5.51049E+01 4.54545E+00
 -1     27906 7.68566E+01 5.58396E+01 5.00000E+00
 -1     27907 8.07511E+01 4.94843E+01 5.45455E+00
 -1     27908 7.58453E+01 5.51049E+01 5.45455E+00
 -1     27913 7.68566E+01 5.58396E+01 5.90909E+00
 -1     27914 8.07511E+01 4.94843E+01 6.36364E+00
 -1     27915 7.58453E+01 5.51049E+01 6.36364E+00
 -1     27920 7.68566E+01 5.58396E+01 6.81818E+00
 -1     27921 8.07511E+01 4.94843E+01 7.27273E+00
 -1     27922 7.58453E+01 5.51049E+01 7.27273E+00
 -1     27927 7.68566E+01 5.58396E+01 7.72727E+00
 -1     27928 8.07511E+01 4.94843E+01 8.18182E+00
 -1     27929 7.58453E+01 5.51049E+01 8.18182E+00
 -1     27934 7.68566E+01 5.58396E+01 8.63636E+00
 -1     27935 8.07511E+01 4.94843E+01 9.09091E+00
 -1     27936 7.58453E+01 5.51049E+01 9.09091E+00
 -1     27941 7.68566E+01 5.58396E+01 9.54545E+00
 -1     27945 6.71751E+01 6.71751E+01 4.54545E-01
 -1     27946 7.20159E+01 6.15074E+01 9.09091E-01
 -1     27947 6.62913E+01 6.62913E+01 9.09091E-01
 -1     27952 6.71751E+01 6.71751E+01 1.36364E+00
 -1     27953 7.20159E+01 6.15074E+01 1.81818E+00
 -1     27954 6.62913E+01 6.62913E+01 1.81818E+00
 -1     27959 6.71751E+01 6.71751E+01 2.27273E+00
 -1     27960 7.20159E+01 6.15074E+01 2.72727E+00
 -1     27961 6.62913E+01 6.62913E+01 2.72727E+00
 -1     27966 6.71751E+01 6.71751E+01 3.18182E+00
 -1     27967 7.20159E+01 6.15074E+01 3.63636E+00
 -1     27968 6.62913E+01 6.62913E+01 3.63636E+00
 -1     27973 6.71751E+01 6.71751E+01 4.09091E+00
 -1     27974 7.20159E+01 6.15074E+01 4.54545E+00
 -1     27975 6.62913E+01 6.62913E+01 4.54545E+00
 -1     27980 6.71751E+01 6.71751E+01 5.00000E+00
 -1     27981 7.20159E+01 6.15074E+01 5.45455E+00
 -1     27982 6.62913E+01 6.62913E+01 5.45455E+00
 -1     27987 6.71751E+01 6.71751E+01 5.90909E+00
 -1     27988 7.20159E+01 6.15074E+01 6.36364E+00
 -1     27989 6.62913E+01 6.62913E+01 6.36364E+00
 -1     27994 6.71751E+01 6.71751E+01 6.81818E+00
 -1     27995 7.20159E+01 6.15074E+01 7.27273E+00
 -1     27996 6.62913E+01 6.62913E+01 7.27273E+00
 -1     28001 6.71751E+01 6.71751E+01 7.72727E+00
 -1     28002 7.20159E+01 6.15074E+01 8.18182E+00
 -1     28003 6.62913E+01 6.62913E+01 8.18182E+00
 -1     28008 6.71751E+01 6.71751E+01 8.63636E+00
 -1     28009 7.20159E+01 6.15074E+01 9.09091E+00
 -1     28010 6.62913E+01 6.62913E+01 9.09091E+00
 -1     28015 6.71751E+01 6.71751E+01 9.54545E+00
 -1     28019 5.58396E+01 7.68566E+01 4.54545E-01
 -1     28020 6.15074E+01 7.20159E+01 9.09091E-01
 -1     28021 5.51049E+01 7.58453E+01 9.09091E-01
 -1     28026 5.58396E+01 7.68566E+01 1.36364E+00
 -1     28027 6.15074E+01 7.20159E+01 1.81818E+00
 -1     28028 5.51049E+01 7.58453E+01 1.81818E+00
 -1     28033 5.58396E+01 7.68566E+01 2.27273E+00
 -1     28034 6.15074E+01 7.20159E+01 2.72727E+00
 -1     28035 5.51049E+01 7.58453E+01 2.72727E+00
 -1     28040 5.58396E+01 7.68566E+01 3.18182E+00
 -1     28041 6.15074E+01 7.20159E+01 3.63636E+00
 -1     28042 5.51049E+01 7.58453E+01 3.63636E+00
 -1     28047 5.58396E+01 7.68566E+01 4.09091E+00
 -1     28048 6.15074E+01 7.20159E+01 4.54545E+00
 -1     28049 5.51049E+01 7.58453E+01 4.54545E+00
 -1     28054 5.58396E+01 7.68566E+01 5.00000E+00
 -1     28055 6.15074E+01 7.20159E+01 5.45455E+00
 -1     28056 5.51049E+01 7.58453E+01 5.45455E+00
 -1     28061 5.58396E+01 7.68566E+01 5.90909E+00
 -1     28062 6.15074E+01 7.20159E+01 6.36364E+00
 -1     28063 5.51049E+01 7.58453E+01 6.36364E+00
 -1     28068 5.58396E+01 7.68566E+01 6.81818E+00
 -1     28069 6.15074E+01 7.20159E+01 7.27273E+00
 -1     28070 5.51049E+01 7.58453E+01 7.27273E+00
 -1     28075 5.58396E+01 7.68566E+01 7.72727E+00
 -1     28076 6.15074E+01 7.20159E+01 8.18182E+00
 -1     28077 5.51049E+01 7.58453E+01 8.18182E+00
 -1     28082 5.58396E+01 7.68566E+01 8.63636E+00
 -1     28083 6.15074E+01 7.20159E+01 9.09091E+00
 -1     28084 5.51049E+01 7.58453E+01 9.09091E+00
 -1     28089 5.58396E+01 7.68566E+01 9.54545E+00
 -1     28093 4.31291E+01 8.46456E+01 4.54545E-01
 -1     28094 4.94843E+01 8.07511E+01 9.09091E-01
 -1     28095 4.25616E+01 8.35319E+01 9.09091E-01
 -1     28100 4.31291E+01 8.46456E+01 1.36364E+00
 -1     28101 4.94843E+01 8.07511E+01 1.81818E+00
 -1     28102 4.25616E+01 8.35319E+01 1.81818E+00
 -1     28107 4.31291E+01 8.46456E+01 2.27273E+00
 -1     28108 4.94843E+01 8.07511E+01 2.72727E+00
 -1     28109 4.25616E+01 8.35319E+01 2.72727E+00
 -1     28114 4.31291E+01 8.46456E+01 3.18182E+00
 -1     28115 4.94843E+01 8.07511E+01 3.63636E+00
 -1     28116 4.25616E+01 8.35319E+01 3.63636E+00
 -1     28121 4.31291E+01 8.46456E+01 4.09091E+00
 -1     28122 4.94843E+01 8.07511E+01 4.54545E+00
 -1     28123 4.25616E+01 8.35319E+01 4.54545E+00
 -1     28128 4.31291E+01 8.46456E+01 5.00000E+00
 -1     28129 4.94843E+01 8.07511E+01 5.45455E+00
 -1     28130 4.25616E+01 8.35319E+01 5.45455E+00
 -1     28135 4.31291E+01 8.46456E+01 5.90909E+00
 -1     28136 4.94843E+01 8.07511E+01 6.36364E+00
 -1     28137 4.25616E+01 8.35319E+01 6.36364E+00
 -1     28142 4.31291E+01 8.46456E+01 6.81818E+00
 -1     28143 4.94843E+01 8.07511E+01 7.27273E+00
 -1     28144 4.25616E+01 8.35319E+01 7.27273E+00
 -1     28149 4.31291E+01 8.46456E+01 7.72727E+00
 -1     28150 4.94843E+01 8.07511E+01 8.18182E+00
 -1     28151 4.25616E+01 8.35319E+01 8.18182E+00
 -1     28156 4.31291E+01 8.46456E+01 8.63636E+00
 -1     28157 4.94843E+01 8.07511E+01 9.09091E+00
 -1     28158 4.25616E+01 8.35319E+01 9.09091E+00
 -1     28163 4.31291E+01 8.46456E+01 9.54545E+00
 -1     28167 2.93566E+01 9.03504E+01 4.54545E-01
 -1     28168 3.62429E+01 8.74980E+01 9.09091E-01
 -1     28169 2.89703E+01 8.91615E+01 9.09091E-01
 -1     28174 2.93566E+01 9.03504E+01 1.36364E+00
 -1     28175 3.62429E+01 8.74980E+01 1.81818E+00
 -1     28176 2.89703E+01 8.91615E+01 1.81818E+00
 -1     28181 2.93566E+01 9.03504E+01 2.27273E+00
 -1     28182 3.62429E+01 8.74980E+01 2.72727E+00
 -1     28183 2.89703E+01 8.91615E+01 2.72727E+00
 -1     28188 2.93566E+01 9.03504E+01 3.18182E+00
 -1     28189 3.62429E+01 8.74980E+01 3.63636E+00
 -1     28190 2.89703E+01 8.91615E+01 3.63636E+00
 -1     28195 2.93566E+01 9.03504E+01 4.09091E+00
 -1     28196 3.62429E+01 8.74980E+01 4.54545E+00
 -1     28197 2.89703E+01 8.91615E+01 4.54545E+00
 -1     28202 2.93566E+01 9.03504E+01 5.00000E+00
 -1     28203 3.62429E+01 8.74980E+01 5.45455E+00
 -1     28204 2.89703E+01 8.91615E+01 5.45455E+00
 -1     28209 2.93566E+01 9.03504E+01 5.90909E+00
 -1     28210 3.62429E+01 8.74980E+01 6.36364E+00
 -1     28211 2.89703E+01 8.91615E+01 6.36364E+00
 -1     28216 2.93566E+01 9.03504E+01 6.81818E+00
 -1     28217 3.62429E+01 8.74980E+01 7.27273E+00
 -1     28218 2.89703E+01 8.91615E+01 7.27273E+00
 -1     28223 2.93566E+01 9.03504E+01 7.72727E+00
 -1     28224 3.62429E+01 8.74980E+01 8.18182E+00
 -1     28225 2.89703E+01 8.91615E+01 8.18182E+00
 -1     28230 2.93566E+01 9.03504E+01 8.63636E+00
 -1     28231 3.62429E+01 8.74980E+01 9.09091E+00
 -1     28232 2.89703E+01 8.91615E+01 9.09091E+00
 -1     28237 2.93566E+01 9.03504E+01 9.54545E+00
 -1     28241 1.48613E+01 9.38304E+01 4.54545E-01
 -1     28242 2.21089E+01 9.20904E+01 9.09091E-01
 -1     28243 1.46657E+01 9.25958E+01 9.09091E-01
 -1     28248 1.48613E+01 9.38304E+01 1.36364E+00
 -1     28249 2.21089E+01 9.20904E+01 1.81818E+00
 -1     28250 1.46657E+01 9.25958E+01 1.81818E+00
 -1     28255 1.48613E+01 9.38304E+01 2.27273E+00
 -1     28256 2.21089E+01 9.20904E+01 2.72727E+00
 -1     28257 1.46657E+01 9.25958E+01 2.72727E+00
 -1     28262 1.48613E+01 9.38304E+01 3.18182E+00
 -1     28263 2.21089E+01 9.20904E+01 3.63636E+00
 -1     28264 1.46657E+01 9.25958E+01 3.63636E+00
 -1     28269 1.48613E+01 9.38304E+01 4.09091E+00
 -1     28270 2.21089E+01 9.20904E+01 4.54545E+00
 -1     28271 1.46657E+01 9.25958E+01 4.54545E+00
 -1     28276 1.48613E+01 9.38304E+01 5.00000E+00
 -1     28277 2.21089E+01 9.20904E+01 5.45455E+00
 -1     28278 1.46657E+01 9.25958E+01 5.45455E+00
 -1     28283 1.48613E+01 9.38304E+01 5.90909E+00
 -1     28284 2.21089E+01 9.20904E+01 6.36364E+00
 -1     28285 1.46657E+01 9.25958E+01 6.36364E+00
 -1     28290 1.48613E+01 9.38304E+01 6.81818E+00
 -1     28291 2.21089E+01 9.20904E+01 7.27273E+00
 -1     28292 1.46657E+01 9.25958E+01 7.27273E+00
 -1     28297 1.48613E+01 9.38304E+01 7.72727E+00
 -1     28298 2.21089E+01 9.20904E+01 8.18182E+00
 -1     28299 1.46657E+01 9.25958E+01 8.18182E+00
 -1     28304 1.48613E+01 9.38304E+01 8.63636E+00
 -1     28305 2.21089E+01 9.20904E+01 9.09091E+00
 -1     28306 1.46657E+01 9.25958E+01 9.09091E+00
 -1     28311 1.48613E+01 9.38304E+01 9.54545E+00
 -1     28315 7.43064E+00 9.44152E+01 9.09091E-01
 -1     28319 7.43064E+00 9.44152E+01 1.81818E+00
 -1     28323 7.43064E+00 9.44152E+01 2.72727E+00
 -1     28327 7.43064E+00 9.44152E+01 3.63636E+00
 -1     28331 7.43064E+00 9.44152E+01 4.54545E+00
 -1     28335 7.43064E+00 9.44152E+01 5.45455E+00
 -1     28339 7.43064E+00 9.44152E+01 6.36364E+00
 -1     28343 7.43064E+00 9.44152E+01 7.27273E+00
 -1     28347 7.43064E+00 9.44152E+01 8.18182E+00
 -1     28351 7.43064E+00 9.44152E+01 9.09091E+00
 -1     28357 9.62996E+01 1.52524E+01 4.54545E-01
 -1     28358 9.68998E+01 7.62618E+00 9.09091E-01
 -1     28359 9.50650E+01 1.50568E+01 9.09091E-01
 -1     28364 9.62996E+01 1.52524E+01 1.36364E+00
 -1     28365 9.68998E+01 7.62618E+00 1.81818E+00
 -1     28366 9.50650E+01 1.50568E+01 1.81818E+00
 -1     28371 9.62996E+01 1.52524E+01 2.27273E+00
 -1     28372 9.68998E+01 7.62618E+00 2.72727E+00
 -1     28373 9.50650E+01 1.50568E+01 2.72727E+00
 -1     28378 9.62996E+01 1.52524E+01 3.18182E+00
 -1     28379 9.68998E+01 7.62618E+00 3.63636E+00
 -1     28380 9.50650E+01 1.50568E+01 3.63636E+00
 -1     28385 9.62996E+01 1.52524E+01 4.09091E+00
 -1     28386 9.68998E+01 7.62618E+00 4.54545E+00
 -1     28387 9.50650E+01 1.50568E+01 4.54545E+00
 -1     28392 9.62996E+01 1.52524E+01 5.00000E+00
 -1     28393 9.68998E+01 7.62618E+00 5.45455E+00
 -1     28394 9.50650E+01 1.50568E+01 5.45455E+00
 -1     28399 9.62996E+01 1.52524E+01 5.90909E+00
 -1     28400 9.68998E+01 7.62618E+00 6.36364E+00
 -1     28401 9.50650E+01 1.50568E+01 6.36364E+00
 -1     28406 9.62996E+01 1.52524E+01 6.81818E+00
 -1     28407 9.68998E+01 7.62618E+00 7.27273E+00
 -1     28408 9.50650E+01 1.50568E+01 7.27273E+00
 -1     28413 9.62996E+01 1.52524E+01 7.72727E+00
 -1     28414 9.68998E+01 7.62618E+00 8.18182E+00
 -1     28415 9.50650E+01 1.50568E+01 8.18182E+00
 -1     28420 9.62996E+01 1.52524E+01 8.63636E+00
 -1     28421 9.68998E+01 7.62618E+00 9.09091E+00
 -1     28422 9.50650E+01 1.50568E+01 9.09091E+00
 -1     28427 9.62996E+01 1.52524E+01 9.54545E+00
 -1     28431 9.27280E+01 3.01292E+01 4.54545E-01
 -1     28432 9.45138E+01 2.26908E+01 9.09091E-01
 -1     28433 9.15392E+01 2.97429E+01 9.09091E-01
 -1     28438 9.27280E+01 3.01292E+01 1.36364E+00
 -1     28439 9.45138E+01 2.26908E+01 1.81818E+00
 -1     28440 9.15392E+01 2.97429E+01 1.81818E+00
 -1     28445 9.27280E+01 3.01292E+01 2.27273E+00
 -1     28446 9.45138E+01 2.26908E+01 2.72727E+00
 -1     28447 9.15392E+01 2.97429E+01 2.72727E+00
 -1     28452 9.27280E+01 3.01292E+01 3.18182E+00
 -1     28453 9.45138E+01 2.26908E+01 3.63636E+00
 -1     28454 9.15392E+01 2.97429E+01 3.63636E+00
 -1     28459 9.27280E+01 3.01292E+01 4.09091E+00
 -1     28460 9.45138E+01 2.26908E+01 4.54545E+00
 -1     28461 9.15392E+01 2.97429E+01 4.54545E+00
 -1     28466 9.27280E+01 3.01292E+01 5.00000E+00
 -1     28467 9.45138E+01 2.26908E+01 5.45455E+00
 -1     28468 9.15392E+01 2.97429E+01 5.45455E+00
 -1     28473 9.27280E+01 3.01292E+01 5.90909E+00
 -1     28474 9.45138E+01 2.26908E+01 6.36364E+00
 -1     28475 9.15392E+01 2.97429E+01 6.36364E+00
 -1     28480 9.27280E+01 3.01292E+01 6.81818E+00
 -1     28481 9.45138E+01 2.26908E+01 7.27273E+00
 -1     28482 9.15392E+01 2.97429E+01 7.27273E+00
 -1     28487 9.27280E+01 3.01292E+01 7.72727E+00
 -1     28488 9.45138E+01 2.26908E+01 8.18182E+00
 -1     28489 9.15392E+01 2.97429E+01 8.18182E+00
 -1     28494 9.27280E+01 3.01292E+01 8.63636E+00
 -1     28495 9.45138E+01 2.26908E+01 9.09091E+00
 -1     28496 9.15392E+01 2.97429E+01 9.09091E+00
 -1     28501 9.27280E+01 3.01292E+01 9.54545E+00
 -1     28505 8.68731E+01 4.42641E+01 4.54545E-01
 -1     28506 8.98006E+01 3.71966E+01 9.09091E-01
 -1     28507 8.57594E+01 4.36966E+01 9.09091E-01
 -1     28512 8.68731E+01 4.42641E+01 1.36364E+00
 -1     28513 8.98006E+01 3.71966E+01 1.81818E+00
 -1     28514 8.57594E+01 4.36966E+01 1.81818E+00
 -1     28519 8.68731E+01 4.42641E+01 2.27273E+00
 -1     28520 8.98006E+01 3.71966E+01 2.72727E+00
 -1     28521 8.57594E+01 4.36966E+01 2.72727E+00
 -1     28526 8.68731E+01 4.42641E+01 3.18182E+00
 -1     28527 8.98006E+01 3.71966E+01 3.63636E+00
 -1     28528 8.57594E+01 4.36966E+01 3.63636E+00
 -1     28533 8.68731E+01 4.42641E+01 4.09091E+00
 -1     28534 8.98006E+01 3.71966E+01 4.54545E+00
 -1     28535 8.57594E+01 4.36966E+01 4.54545E+00
 -1     28540 8.68731E+01 4.42641E+01 5.00000E+00
 -1     28541 8.98006E+01 3.71966E+01 5.45455E+00
 -1     28542 8.57594E+01 4.36966E+01 5.45455E+00
 -1     28547 8.68731E+01 4.42641E+01 5.90909E+00
 -1     28548 8.98006E+01 3.71966E+01 6.36364E+00
 -1     28549 8.57594E+01 4.36966E+01 6.36364E+00
 -1     28554 8.68731E+01 4.42641E+01 6.81818E+00
 -1     28555 8.98006E+01 3.71966E+01 7.27273E+00
 -1     28556 8.57594E+01 4.36966E+01 7.27273E+00
 -1     28561 8.68731E+01 4.42641E+01 7.72727E+00
 -1     28562 8.98006E+01 3.71966E+01 8.18182E+00
 -1     28563 8.57594E+01 4.36966E+01 8.18182E+00
 -1     28568 8.68731E+01 4.42641E+01 8.63636E+00
 -1     28569 8.98006E+01 3.71966E+01 9.09091E+00
 -1     28570 8.57594E+01 4.36966E+01 9.09091E+00
 -1     28575 8.68731E+01 4.42641E+01 9.54545E+00
 -1     28579 7.88792E+01 5.73091E+01 4.54545E-01
 -1     28580 8.28761E+01 5.07866E+01 9.09091E-01
 -1     28581 7.78679E+01 5.65743E+01 9.09091E-01
 -1     28586 7.88792E+01 5.73091E+01 1.36364E+00
 -1     28587 8.28761E+01 5.07866E+01 1.81818E+00
 -1     28588 7.78679E+01 5.65743E+01 1.81818E+00
 -1     28593 7.88792E+01 5.73091E+01 2.27273E+00
 -1     28594 8.28761E+01 5.07866E+01 2.72727E+00
 -1     28595 7.78679E+01 5.65743E+01 2.72727E+00
 -1     28600 7.88792E+01 5.73091E+01 3.18182E+00
 -1     28601 8.28761E+01 5.07866E+01 3.63636E+00
 -1     28602 7.78679E+01 5.65743E+01 3.63636E+00
 -1     28607 7.88792E+01 5.73091E+01 4.09091E+00
 -1     28608 8.28761E+01 5.07866E+01 4.54545E+00
 -1     28609 7.78679E+01 5.65743E+01 4.54545E+00
 -1     28614 7.88792E+01 5.73091E+01 5.00000E+00
 -1     28615 8.28761E+01 5.07866E+01 5.45455E+00
 -1     28616 7.78679E+01 5.65743E+01 5.45455E+00
 -1     28621 7.88792E+01 5.73091E+01 5.90909E+00
 -1     28622 8.28761E+01 5.07866E+01 6.36364E+00
 -1     28623 7.78679E+01 5.65743E+01 6.36364E+00
 -1     28628 7.88792E+01 5.73091E+01 6.81818E+00
 -1     28629 8.28761E+01 5.07866E+01 7.27273E+00
 -1     28630 7.78679E+01 5.65743E+01 7.27273E+00
 -1     28635 7.88792E+01 5.73091E+01 7.72727E+00
 -1     28636 8.28761E+01 5.07866E+01 8.18182E+00
 -1     28637 7.78679E+01 5.65743E+01 8.18182E+00
 -1     28642 7.88792E+01 5.73091E+01 8.63636E+00
 -1     28643 8.28761E+01 5.07866E+01 9.09091E+00
 -1     28644 7.78679E+01 5.65743E+01 9.09091E+00
 -1     28649 7.88792E+01 5.73091E+01 9.54545E+00
 -1     28653 6.89429E+01 6.89429E+01 4.54545E-01
 -1     28654 7.39110E+01 6.31260E+01 9.09091E-01
 -1     28655 6.80590E+01 6.80590E+01 9.09091E-01
 -1     28660 6.89429E+01 6.89429E+01 1.36364E+00
 -1     28661 7.39110E+01 6.31260E+01 1.81818E+00
 -1     28662 6.80590E+01 6.80590E+01 1.81818E+00
 -1     28667 6.89429E+01 6.89429E+01 2.27273E+00
 -1     28668 7.39110E+01 6.31260E+01 2.72727E+00
 -1     28669 6.80590E+01 6.80590E+01 2.72727E+00
 -1     28674 6.89429E+01 6.89429E+01 3.18182E+00
 -1     28675 7.39110E+01 6.31260E+01 3.63636E+00
 -1     28676 6.80590E+01 6.80590E+01 3.63636E+00
 -1     28681 6.89429E+01 6.89429E+01 4.09091E+00
 -1     28682 7.39110E+01 6.31260E+01 4.54545E+00
 -1     28683 6.80590E+01 6.80590E+01 4.54545E+00
 -1     28688 6.89429E+01 6.89429E+01 5.00000E+00
 -1     28689 7.39110E+01 6.31260E+01 5.45455E+00
 -1     28690 6.80590E+01 6.80590E+01 5.45455E+00
 -1     28695 6.89429E+01 6.89429E+01 5.90909E+00
 -1     28696 7.39110E+01 6.31260E+01 6.36364E+00
 -1     28697 6.80590E+01 6.80590E+01 6.36364E+00
 -1     28702 6.89429E+01 6.89429E+01 6.81818E+00
 -1     28703 7.39110E+01 6.31260E+01 7.27273E+00
 -1     28704 6.80590E+01 6.80590E+01 7.27273E+00
 -1     28709 6.89429E+01 6.89429E+01 7.72727E+00
 -1     28710 7.39110E+01 6.31260E+01 8.18182E+00
 -1     28711 6.80590E+01 6.80590E+01 8.18182E+00
 -1     28716 6.89429E+01 6.89429E+01 8.63636E+00
 -1     28717 7.39110E+01 6.31260E+01 9.09091E+00
 -1     28718 6.80590E+01 6.80590E+01 9.09091E+00
 -1     28723 6.89429E+01 6.89429E+01 9.54545E+00
 -1     28727 5.73091E+01 7.88792E+01 4.54545E-01
 -1     28728 6.31260E+01 7.39110E+01 9.09091E-01
 -1     28729 5.65743E+01 7.78679E+01 9.09091E-01
 -1     28734 5.73091E+01 7.88792E+01 1.36364E+00
 -1     28735 6.31260E+01 7.39110E+01 1.81818E+00
 -1     28736 5.65743E+01 7.78679E+01 1.81818E+00
 -1     28741 5.73091E+01 7.88792E+01 2.27273E+00
 -1     28742 6.31260E+01 7.39110E+01 2.72727E+00
 -1     28743 5.65743E+01 7.78679E+01 2.72727E+00
 -1     28748 5.73091E+01 7.88792E+01 3.18182E+00
 -1     28749 6.31260E+01 7.39110E+01 3.63636E+00
 -1     28750 5.65743E+01 7.78679E+01 3.63636E+00
 -1     28755 5.73091E+01 7.88792E+01 4.09091E+00
 -1     28756 6.31260E+01 7.39110E+01 4.54545E+00
 -1     28757 5.65743E+01 7.78679E+01 4.54545E+00
 -1     28762 5.73091E+01 7.88792E+01 5.00000E+00
 -1     28763 6.31260E+01 7.39110E+01 5.45455E+00
 -1     28764 5.65743E+01 7.78679E+01 5.45455E+00
 -1     28769 5.73091E+01 7.88792E+01 5.90909E+00
 -1     28770 6.31260E+01 7.39110E+01 6.36364E+00
 -1     28771 5.65743E+01 7.78679E+01 6.36364E+00
 -1     28776 5.73091E+01 7.88792E+01 6.81818E+00
 -1     28777 6.31260E+01 7.39110E+01 7.27273E+00
 -1     28778 5.65743E+01 7.78679E+01 7.27273E+00
 -1     28783 5.73091E+01 7.88792E+01 7.72727E+00
 -1     28784 6.31260E+01 7.39110E+01 8.18182E+00
 -1     28785 5.65743E+01 7.78679E+01 8.18182E+00
 -1     28790 5.73091E+01 7.88792E+01 8.63636E+00
 -1     28791 6.31260E+01 7.39110E+01 9.09091E+00
 -1     28792 5.65743E+01 7.78679E+01 9.09091E+00
 -1     28797 5.73091E+01 7.88792E+01 9.54545E+00
 -1     28801 4.42641E+01 8.68731E+01 4.54545E-01
 -1     28802 5.07866E+01 8.28761E+01 9.09091E-01
 -1     28803 4.36966E+01 8.57594E+01 9.09091E-01
 -1     28808 4.42641E+01 8.68731E+01 1.36364E+00
 -1     28809 5.07866E+01 8.28761E+01 1.81818E+00
 -1     28810 4.36966E+01 8.57594E+01 1.81818E+00
 -1     28815 4.42641E+01 8.68731E+01 2.27273E+00
 -1     28816 5.07866E+01 8.28761E+01 2.72727E+00
 -1     28817 4.36966E+01 8.57594E+01 2.72727E+00
 -1     28822 4.42641E+01 8.68731E+01 3.18182E+00
 -1     28823 5.07866E+01 8.28761E+01 3.63636E+00
 -1     28824 4.36966E+01 8.57594E+01 3.63636E+00
 -1     28829 4.42641E+01 8.68731E+01 4.09091E+00
 -1     28830 5.07866E+01 8.28761E+01 4.54545E+00
 -1     28831 4.36966E+01 8.57594E+01 4.54545E+00
 -1     28836 4.42641E+01 8.68731E+01 5.00000E+00
 -1     28837 5.07866E+01 8.28761E+01 5.45455E+00
 -1     28838 4.36966E+01 8.57594E+01 5.45455E+00
 -1     28843 4.42641E+01 8.68731E+01 5.90909E+00
 -1     28844 5.07866E+01 8.28761E+01 6.36364E+00
 -1     28845 4.36966E+01 8.57594E+01 6.36364E+00
 -1     28850 4.42641E+01 8.68731E+01 6.81818E+00
 -1     28851 5.07866E+01 8.28761E+01 7.27273E+00
 -1     28852 4.36966E+01 8.57594E+01 7.27273E+00
 -1     28857 4.42641E+01 8.68731E+01 7.72727E+00
 -1     28858 5.07866E+01 8.28761E+01 8.18182E+00
 -1     28859 4.36966E+01 8.57594E+01 8.18182E+00
 -1     28864 4.42641E+01 8.68731E+01 8.63636E+00
 -1     28865 5.07866E+01 8.28761E+01 9.09091E+00
 -1     28866 4.36966E+01 8.57594E+01 9.09091E+00
 -1     28871 4.42641E+01 8.68731E+01 9.54545E+00
 -1     28875 3.01292E+01 9.27280E+01 4.54545E-01
 -1     28876 3.71966E+01 8.98006E+01 9.09091E-01
 -1     28877 2.97429E+01 9.15392E+01 9.09091E-01
 -1     28882 3.01292E+01 9.27280E+01 1.36364E+00
 -1     28883 3.71966E+01 8.98006E+01 1.81818E+00
 -1     28884 2.97429E+01 9.15392E+01 1.81818E+00
 -1     28889 3.01292E+01 9.27280E+01 2.27273E+00
 -1     28890 3.71966E+01 8.98006E+01 2.72727E+00
 -1     28891 2.97429E+01 9.15392E+01 2.72727E+00
 -1     28896 3.01292E+01 9.27280E+01 3.18182E+00
 -1     28897 3.71966E+01 8.98006E+01 3.63636E+00
 -1     28898 2.97429E+01 9.15392E+01 3.63636E+00
 -1     28903 3.01292E+01 9.27280E+01 4.09091E+00
 -1     28904 3.71966E+01 8.98006E+01 4.54545E+00
 -1     28905 2.97429E+01 9.15392E+01 4.54545E+00
 -1     28910 3.01292E+01 9.27280E+01 5.00000E+00
 -1     28911 3.71966E+01 8.98006E+01 5.45455E+00
 -1     28912 2.97429E+01 9.15392E+01 5.45455E+00
 -1     28917 3.01292E+01 9.27280E+01 5.90909E+00
 -1     28918 3.71966E+01 8.98006E+01 6.36364E+00
 -1     28919 2.97429E+01 9.15392E+01 6.36364E+00
 -1     28924 3.01292E+01 9.27280E+01 6.81818E+00
 -1     28925 3.71966E+01 8.98006E+01 7.27273E+00
 -1     28926 2.97429E+01 9.15392E+01 7.27273E+00
 -1     28931 3.01292E+01 9.27280E+01 7.72727E+00
 -1     28932 3.71966E+01 8.98006E+01 8.18182E+00
 -1     28933 2.97429E+01 9.15392E+01 8.18182E+00
 -1     28938 3.01292E+01 9.27280E+01 8.63636E+00
 -1     28939 3.71966E+01 8.98006E+01 9.09091E+00
 -1     28940 2.97429E+01 9.15392E+01 9.09091E+00
 -1     28945 3.01292E+01 9.27280E+01 9.54545E+00
 -1     28949 1.52524E+01 9.62996E+01 4.54545E-01
 -1     28950 2.26908E+01 9.45138E+01 9.09091E-01
 -1     28951 1.50568E+01 9.50650E+01 9.09091E-01
 -1     28956 1.52524E+01 9.62996E+01 1.36364E+00
 -1     28957 2.26908E+01 9.45138E+01 1.81818E+00
 -1     28958 1.50568E+01 9.50650E+01 1.81818E+00
 -1     28963 1.52524E+01 9.62996E+01 2.27273E+00
 -1     28964 2.26908E+01 9.45138E+01 2.72727E+00
 -1     28965 1.50568E+01 9.50650E+01 2.72727E+00
 -1     28970 1.52524E+01 9.62996E+01 3.18182E+00
 -1     28971 2.26908E+01 9.45138E+01 3.63636E+00
 -1     28972 1.50568E+01 9.50650E+01 3.63636E+00
 -1     28977 1.52524E+01 9.62996E+01 4.09091E+00
 -1     28978 2.26908E+01 9.45138E+01 4.54545E+00
 -1     28979 1.50568E+01 9.50650E+01 4.54545E+00
 -1     28984 1.52524E+01 9.62996E+01 5.00000E+00
 -1     28985 2.26908E+01 9.45138E+01 5.45455E+00
 -1     28986 1.50568E+01 9.50650E+01 5.45455E+00
 -1     28991 1.52524E+01 9.62996E+01 5.90909E+00
 -1     28992 2.26908E+01 9.45138E+01 6.36364E+00
 -1     28993 1.50568E+01 9.50650E+01 6.36364E+00
 -1     28998 1.52524E+01 9.62996E+01 6.81818E+00
 -1     28999 2.26908E+01 9.45138E+01 7.27273E+00
 -1     29000 1.50568E+01 9.50650E+01 7.27273E+00
 -1     29005 1.52524E+01 9.62996E+01 7.72727E+00
 -1     29006 2.26908E+01 9.45138E+01 8.18182E+00
 -1     29007 1.50568E+01 9.50650E+01 8.18182E+00
 -1     29012 1.52524E+01 9.62996E+01 8.63636E+00
 -1     29013 2.26908E+01 9.45138E+01 9.09091E+00
 -1     29014 1.50568E+01 9.50650E+01 9.09091E+00
 -1     29019 1.52524E+01 9.62996E+01 9.54545E+00
 -1     29023 7.62618E+00 9.68998E+01 9.09091E-01
 -1     29027 7.62618E+00 9.68998E+01 1.81818E+00
 -1     29031 7.62618E+00 9.68998E+01 2.72727E+00
 -1     29035 7.62618E+00 9.68998E+01 3.63636E+00
 -1     29039 7.62618E+00 9.68998E+01 4.54545E+00
 -1     29043 7.62618E+00 9.68998E+01 5.45455E+00
 -1     29047 7.62618E+00 9.68998E+01 6.36364E+00
 -1     29051 7.62618E+00 9.68998E+01 7.27273E+00
 -1     29055 7.62618E+00 9.68998E+01 8.18182E+00
 -1     29059 7.62618E+00 9.68998E+01 9.09091E+00
 -1     29065 9.75342E+01 1.54479E+01 9.09091E-01
 -1     29069 9.75342E+01 1.54479E+01 1.81818E+00
 -1     29073 9.75342E+01 1.54479E+01 2.72727E+00
 -1     29077 9.75342E+01 1.54479E+01 3.63636E+00
 -1     29081 9.75342E+01 1.54479E+01 4.54545E+00
 -1     29085 9.75342E+01 1.54479E+01 5.45455E+00
 -1     29089 9.75342E+01 1.54479E+01 6.36364E+00
 -1     29093 9.75342E+01 1.54479E+01 7.27273E+00
 -1     29097 9.75342E+01 1.54479E+01 8.18182E+00
 -1     29101 9.75342E+01 1.54479E+01 9.09091E+00
 -1     29107 9.39168E+01 3.05154E+01 9.09091E-01
 -1     29111 9.39168E+01 3.05154E+01 1.81818E+00
 -1     29115 9.39168E+01 3.05154E+01 2.72727E+00
 -1     29119 9.39168E+01 3.05154E+01 3.63636E+00
 -1     29123 9.39168E+01 3.05154E+01 4.54545E+00
 -1     29127 9.39168E+01 3.05154E+01 5.45455E+00
 -1     29131 9.39168E+01 3.05154E+01 6.36364E+00
 -1     29135 9.39168E+01 3.05154E+01 7.27273E+00
 -1     29139 9.39168E+01 3.05154E+01 8.18182E+00
 -1     29143 9.39168E+01 3.05154E+01 9.09091E+00
 -1     29149 8.79869E+01 4.48316E+01 9.09091E-01
 -1     29153 8.79869E+01 4.48316E+01 1.81818E+00
 -1     29157 8.79869E+01 4.48316E+01 2.72727E+00
 -1     29161 8.79869E+01 4.48316E+01 3.63636E+00
 -1     29165 8.79869E+01 4.48316E+01 4.54545E+00
 -1     29169 8.79869E+01 4.48316E+01 5.45455E+00
 -1     29173 8.79869E+01 4.48316E+01 6.36364E+00
 -1     29177 8.79869E+01 4.48316E+01 7.27273E+00
 -1     29181 8.79869E+01 4.48316E+01 8.18182E+00
 -1     29185 8.79869E+01 4.48316E+01 9.09091E+00
 -1     29191 7.98904E+01 5.80438E+01 9.09091E-01
 -1     29195 7.98904E+01 5.80438E+01 1.81818E+00
 -1     29199 7.98904E+01 5.80438E+01 2.72727E+00
 -1     29203 7.98904E+01 5.80438E+01 3.63636E+00
 -1     29207 7.98904E+01 5.80438E+01 4.54545E+00
 -1     29211 7.98904E+01 5.80438E+01 5.45455E+00
 -1     29215 7.98904E+01 5.80438E+01 6.36364E+00
 -1     29219 7.98904E+01 5.80438E+01 7.27273E+00
 -1     29223 7.98904E+01 5.80438E+01 8.18182E+00
 -1     29227 7.98904E+01 5.80438E+01 9.09091E+00
 -1     29233 6.98268E+01 6.98268E+01 9.09091E-01
 -1     29237 6.98268E+01 6.98268E+01 1.81818E+00
 -1     29241 6.98268E+01 6.98268E+01 2.72727E+00
 -1     29245 6.98268E+01 6.98268E+01 3.63636E+00
 -1     29249 6.98268E+01 6.98268E+01 4.54545E+00
 -1     29253 6.98268E+01 6.98268E+01 5.45455E+00
 -1     29257 6.98268E+01 6.98268E+01 6.36364E+00
 -1     29261 6.98268E+01 6.98268E+01 7.27273E+00
 -1     29265 6.98268E+01 6.98268E+01 8.18182E+00
 -1     29269 6.98268E+01 6.98268E+01 9.09091E+00
 -1     29275 5.80438E+01 7.98904E+01 9.09091E-01
 -1     29279 5.80438E+01 7.98904E+01 1.81818E+00
 -1     29283 5.80438E+01 7.98904E+01 2.72727E+00
 -1     29287 5.80438E+01 7.98904E+01 3.63636E+00
 -1     29291 5.80438E+01 7.98904E+01 4.54545E+00
 -1     29295 5.80438E+01 7.98904E+01 5.45455E+00
 -1     29299 5.80438E+01 7.98904E+01 6.36364E+00
 -1     29303 5.80438E+01 7.98904E+01 7.27273E+00
 -1     29307 5.80438E+01 7.98904E+01 8.18182E+00
 -1     29311 5.80438E+01 7.98904E+01 9.09091E+00
 -1     29317 4.48316E+01 8.79869E+01 9.09091E-01
 -1     29321 4.48316E+01 8.79869E+01 1.81818E+00
 -1     29325 4.48316E+01 8.79869E+01 2.72727E+00
 -1     29329 4.48316E+01 8.79869E+01 3.63636E+00
 -1     29333 4.48316E+01 8.79869E+01 4.54545E+00
 -1     29337 4.48316E+01 8.79869E+01 5.45455E+00
 -1     29341 4.48316E+01 8.79869E+01 6.36364E+00
 -1     29345 4.48316E+01 8.79869E+01 7.27273E+00
 -1     29349 4.48316E+01 8.79869E+01 8.18182E+00
 -1     29353 4.48316E+01 8.79869E+01 9.09091E+00
 -1     29359 3.05154E+01 9.39168E+01 9.09091E-01
 -1     29363 3.05154E+01 9.39168E+01 1.81818E+00
 -1     29367 3.05154E+01 9.39168E+01 2.72727E+00
 -1     29371 3.05154E+01 9.39168E+01 3.63636E+00
 -1     29375 3.05154E+01 9.39168E+01 4.54545E+00
 -1     29379 3.05154E+01 9.39168E+01 5.45455E+00
 -1     29383 3.05154E+01 9.39168E+01 6.36364E+00
 -1     29387 3.05154E+01 9.39168E+01 7.27273E+00
 -1     29391 3.05154E+01 9.39168E+01 8.18182E+00
 -1     29395 3.05154E+01 9.39168E+01 9.09091E+00
 -1     29401 1.54479E+01 9.75342E+01 9.09091E-01
 -1     29405 1.54479E+01 9.75342E+01 1.81818E+00
 -1     29409 1.54479E+01 9.75342E+01 2.72727E+00
 -1     29413 1.54479E+01 9.75342E+01 3.63636E+00
 -1     29417 1.54479E+01 9.75342E+01 4.54545E+00
 -1     29421 1.54479E+01 9.75342E+01 5.45455E+00
 -1     29425 1.54479E+01 9.75342E+01 6.36364E+00
 -1     29429 1.54479E+01 9.75342E+01 7.27273E+00
 -1     29433 1.54479E+01 9.75342E+01 8.18182E+00
 -1     29437 1.54479E+01 9.75342E+01 9.09091E+00
 -3
    3C                          3300                                     1
 -1       771    4    0    1
 -2         1         9       405       154       321      1526      5923      4483        38       666
 -2       667       164       331      1816      8533      4749      1817      8534      8535      4781
 -1       772    4    0    1
 -2       321      1526      5923      4483       322      1527      5924      4484      1817      8534
 -2      8535      4781       332      1819      8540      4752      1820      8541      8542      4783
 -1       773    4    0    1
 -2       322      1527      5924      4484       323      1528      5925      4485      1820      8541
 -2      8542      4783       333      1822      8547      4755      1823      8548      8549      4785
 -1       774    4    0    1
 -2       323      1528      5925      4485       324      1529      5926      4486      1823      8548
 -2      8549      4785       334      1825      8554      4758      1826      8555      8556      4787
 -1       775    4    0    1
 -2       324      1529      5926      4486       325      1530      5927      4487      1826      8555
 -2      8556      4787       335      1828      8561      4761      1829      8562      8563      4789
 -1       776    4    0    1
 -2       325      1530      5927      4487       326      1531      5928      4488      1829      8562
 -2      8563      4789       336      1831      8568      4764      1832      8569      8570      4791
 -1       777    4    0    1
 -2       326      1531      5928      4488       327      1532      5929      4489      1832      8569
 -2      8570      4791       337      1834      8575      4767      1835      8576      8577      4793
 -1       778    4    0    1
 -2       327      1532      5929      4489       328      1533      5930      4490      1835      8576
 -2      8577      4793       338      1837      8582      4770      1838      8583      8584      4795
 -1       779    4    0    1
 -2       328      1533      5930      4490       329      1534      5931      4491      1838      8583
 -2      8584      4795       339      1840      8589      4773      1841      8590      8591      4797
 -1       780    4    0    1
 -2       329      1534      5931      4491       330      1535      5932      4492      1841      8590
 -2      8591      4797       340      1843      8596      4776      1844      8597      8598      4799
 -1       781    4    0    1
 -2       330      1535      5932      4492         5       165      4802       310      1844      8597
 -2      8598      4799       341      1846      8603      4779       194      5063      5064       320
 -1       782    4    0    1
 -2       154       405       406       153      4483      5923      5933      4473       667       669
 -2       670       163      4749      8533      8607      4717      8535      8608      8609      4750
 -1       783    4    0    1
 -2      4483      5923      5933      4473      4484      5924      5934      4474      8535      8608
 -2      8609      4750      4752      8540      8614      4720      8542      8615      8616      4753
 -1       784    4    0    1
 -2      4484      5924      5934      4474      4485      5925      5935      4475      8542      8615
 -2      8616      4753      4755      8547      8621      4723      8549      8622      8623      4756
 -1       785    4    0    1
 -2      4485      5925      5935      4475      4486      5926      5936      4476      8549      8622
 -2      8623      4756      4758      8554      8628      4726      8556      8629      8630      4759
 -1       786    4    0    1
 -2      4486      5926      5936      4476      4487      5927      5937      4477      8556      8629
 -2      8630      4759      4761      8561      8635      4729      8563      8636      8637      4762
 -1       787    4    0    1
 -2      4487      5927      5937      4477      4488      5928      5938      4478      8563      8636
 -2      8637      4762      4764      8568      8642      4732      8570      8643      8644      4765
 -1       788    4    0    1
 -2      4488      5928      5938      4478      4489      5929      5939      4479      8570      8643
 -2      8644      4765      4767      8575      8649      4735      8577      8650      8651      4768
 -1       789    4    0    1
 -2      4489      5929      5939      4479      4490      5930      5940      4480      8577      8650
 -2      8651      4768      4770      8582      8656      4738      8584      8657      8658      4771
 -1       790    4    0    1
 -2      4490      5930      5940      4480      4491      5931      5941      4481      8584      8657
 -2      8658      4771      4773      8589      8663      4741      8591      8664      8665      4774
 -1       791    4    0    1
 -2      4491      5931      5941      4481      4492      5932      5942      4482      8591      8664
 -2      8665      4774      4776      8596      8670      4744      8598      8671      8672      4777
 -1       792    4    0    1
 -2      4492      5932      5942      4482       310      4802      4803       309      8598      8671
 -2      8672      4777      4779      8603      8677      4747      5064      5066      5067       319
 -1       793    4    0    1
 -2       153       406       407       152      4473      5933      5943      4463       670       672
 -2       673       162      4717      8607      8681      4685      8609      8682      8683      4718
 -1       794    4    0    1
 -2      4473      5933      5943      4463      4474      5934      5944      4464      8609      8682
 -2      8683      4718      4720      8614      8688      4688      8616      8689      8690      4721
 -1       795    4    0    1
 -2      4474      5934      5944      4464      4475      5935      5945      4465      8616      8689
 -2      8690      4721      4723      8621      8695      4691      8623      8696      8697      4724
 -1       796    4    0    1
 -2      4475      5935      5945      4465      4476      5936      5946      4466      8623      8696
 -2      8697      4724      4726      8628      8702      4694      8630      8703      8704      4727
 -1       797    4    0    1
 -2      4476      5936      5946      4466      4477      5937      5947      4467      8630      8703
 -2      8704      4727      4729      8635      8709      4697      8637      8710      8711      4730
 -1       798    4    0    1
 -2      4477      5937      5947      4467      4478      5938      5948      4468      8637      8710
 -2      8711      4730      4732      8642      8716      4700      8644      8717      8718      4733
 -1       799    4    0    1
 -2      4478      5938      5948      4468      4479      5939      5949      4469      8644      8717
 -2      8718      4733      4735      8649      8723      4703      8651      8724      8725      4736
 -1       800    4    0    1
 -2      4479      5939      5949      4469      4480      5940      5950      4470      8651      8724
 -2      8725      4736      4738      8656      8730      4706      8658      8731      8732      4739
 -1       801    4    0    1
 -2      4480      5940      5950      4470      4481      5941      5951      4471      8658      8731
 -2      8732      4739      4741      8663      8737      4709      8665      8738      8739      4742
 -1       802    4    0    1
 -2      4481      5941      5951      4471      4482      5942      5952      4472      8665      8738
 -2      8739      4742      4744      8670      8744      4712      8672      8745      8746      4745
 -1       803    4    0    1
 -2      4482      5942      5952      4472       309      4803      4804       308      8672      8745
 -2      8746      4745      4747      8677      8751      4715      5067      5069      5070       318
 -1       804    4    0    1
 -2       152       407       408       151      4463      5943      5953      4453       673       675
 -2       676       161      4685      8681      8755      4653      8683      8756      8757      4686
 -1       805    4    0    1
 -2      4463      5943      5953      4453      4464      5944      5954      4454      8683      8756
 -2      8757      4686      4688      8688      8762      4656      8690      8763      8764      4689
 -1       806    4    0    1
 -2      4464      5944      5954      4454      4465      5945      5955      4455      8690      8763
 -2      8764      4689      4691      8695      8769      4659      8697      8770      8771      4692
 -1       807    4    0    1
 -2      4465      5945      5955      4455      4466      5946      5956      4456      8697      8770
 -2      8771      4692      4694      8702      8776      4662      8704      8777      8778      4695
 -1       808    4    0    1
 -2      4466      5946      5956      4456      4467      5947      5957      4457      8704      8777
 -2      8778      4695      4697      8709      8783      4665      8711      8784      8785      4698
 -1       809    4    0    1
 -2      4467      5947      5957      4457      4468      5948      5958      4458      8711      8784
 -2      8785      4698      4700      8716      8790      4668      8718      8791      8792      4701
 -1       810    4    0    1
 -2      4468      5948      5958      4458      4469      5949      5959      4459      8718      8791
 -2      8792      4701      4703      8723      8797      4671      8725      8798      8799      4704
 -1       811    4    0    1
 -2      4469      5949      5959      4459      4470      5950      5960      4460      8725      8798
 -2      8799      4704      4706      8730      8804      4674      8732      8805      8806      4707
 -1       812    4    0    1
 -2      4470      5950      5960      4460      4471      5951      5961      4461      8732      8805
 -2      8806      4707      4709      8737      8811      4677      8739      8812      8813      4710
 -1       813    4    0    1
 -2      4471      5951      5961      4461      4472      5952      5962      4462      8739      8812
 -2      8813      4710      4712      8744      8818      4680      8746      8819      8820      4713
 -1       814    4    0    1
 -2      4472      5952      5962      4462       308      4804      4805       307      8746      8819
 -2      8820      4713      4715      8751      8825      4683      5070      5072      5073       317
 -1       815    4    0    1
 -2       151       408       409       150      4453      5953      5963      4443       676       678
 -2       679       160      4653      8755      8829      4621      8757      8830      8831      4654
 -1       816    4    0    1
 -2      4453      5953      5963      4443      4454      5954      5964      4444      8757      8830
 -2      8831      4654      4656      8762      8836      4624      8764      8837      8838      4657
 -1       817    4    0    1
 -2      4454      5954      5964      4444      4455      5955      5965      4445      8764      8837
 -2      8838      4657      4659      8769      8843      4627      8771      8844      8845      4660
 -1       818    4    0    1
 -2      4455      5955      5965      4445      4456      5956      5966      4446      8771      8844
 -2      8845      4660      4662      8776      8850      4630      8778      8851      8852      4663
 -1       819    4    0    1
 -2      4456      5956      5966      4446      4457      5957      5967      4447      8778      8851
 -2      8852      4663      4665      8783      8857      4633      8785      8858      8859      4666
 -1       820    4    0    1
 -2      4457      5957      5967      4447      4458      5958      5968      4448      8785      8858
 -2      8859      4666      4668      8790      8864      4636      8792      8865      8866      4669
 -1       821    4    0    1
 -2      4458      5958      5968      4448      4459      5959      5969      4449      8792      8865
 -2      8866      4669      4671      8797      8871      4639      8799      8872      8873      4672
 -1       822    4    0    1
 -2      4459      5959      5969      4449      4460      5960      5970      4450      8799      8872
 -2      8873      4672      4674      8804      8878      4642      8806      8879      8880      4675
 -1       823    4    0    1
 -2      4460      5960      5970      4450      4461      5961      5971      4451      8806      8879
 -2      8880      4675      4677      8811      8885      4645      8813      8886      8887      4678
 -1       824    4    0    1
 -2      4461      5961      5971      4451      4462      5962      5972      4452      8813      8886
 -2      8887      4678      4680      8818      8892      4648      8820      8893      8894      4681
 -1       825    4    0    1
 -2      4462      5962      5972      4452       307      4805      4806       306      8820      8893
 -2      8894      4681      4683      8825      8899      4651      5073      5075      5076       316
 -1       826    4    0    1
 -2       150       409       410       149      4443      5963      5973      4433       679       681
 -2       682       159      4621      8829      8903      4589      8831      8904      8905      4622
 -1       827    4    0    1
 -2      4443      5963      5973      4433      4444      5964      5974      4434      8831      8904
 -2      8905      4622      4624      8836      8910      4592      8838      8911      8912      4625
 -1       828    4    0    1
 -2      4444      5964      5974      4434      4445      5965      5975      4435      8838      8911
 -2      8912      4625      4627      8843      8917      4595      8845      8918      8919      4628
 -1       829    4    0    1
 -2      4445      5965      5975      4435      4446      5966      5976      4436      8845      8918
 -2      8919      4628      4630      8850      8924      4598      8852      8925      8926      4631
 -1       830    4    0    1
 -2      4446      5966      5976      4436      4447      5967      5977      4437      8852      8925
 -2      8926      4631      4633      8857      8931      4601      8859      8932      8933      4634
 -1       831    4    0    1
 -2      4447      5967      5977      4437      4448      5968      5978      4438      8859      8932
 -2      8933      4634      4636      8864      8938      4604      8866      8939      8940      4637
 -1       832    4    0    1
 -2      4448      5968      5978      4438      4449      5969      5979      4439      8866      8939
 -2      8940      4637      4639      8871      8945      4607      8873      8946      8947      4640
 -1       833    4    0    1
 -2      4449      5969      5979      4439      4450      5970      5980      4440      8873      8946
 -2      8947      4640      4642      8878      8952      4610      8880      8953      8954      4643
 -1       834    4    0    1
 -2      4450      5970      5980      4440      4451      5971      5981      4441      8880      8953
 -2      8954      4643      4645      8885      8959      4613      8887      8960      8961      4646
 -1       835    4    0    1
 -2      4451      5971      5981      4441      4452      5972      5982      4442      8887      8960
 -2      8961      4646      4648      8892      8966      4616      8894      8967      8968      4649
 -1       836    4    0    1
 -2      4452      5972      5982      4442       306      4806      4807       305      8894      8967
 -2      8968      4649      4651      8899      8973      4619      5076      5078      5079       315
 -1       837    4    0    1
 -2       149       410       411       148      4433      5973      5983      4423       682       684
 -2       685       158      4589      8903      8977      4557      8905      8978      8979      4590
 -1       838    4    0    1
 -2      4433      5973      5983      4423      4434      5974      5984      4424      8905      8978
 -2      8979      4590      4592      8910      8984      4560      8912      8985      8986      4593
 -1       839    4    0    1
 -2      4434      5974      5984      4424      4435      5975      5985      4425      8912      8985
 -2      8986      4593      4595      8917      8991      4563      8919      8992      8993      4596
 -1       840    4    0    1
 -2      4435      5975      5985      4425      4436      5976      5986      4426      8919      8992
 -2      8993      4596      4598      8924      8998      4566      8926      8999      9000      4599
 -1       841    4    0    1
 -2      4436      5976      5986      4426      4437      5977      5987      4427      8926      8999
 -2      9000      4599      4601      8931      9005      4569      8933      9006      9007      4602
 -1       842    4    0    1
 -2      4437      5977      5987      4427      4438      5978      5988      4428      8933      9006
 -2      9007      4602      4604      8938      9012      4572      8940      9013      9014      4605
 -1       843    4    0    1
 -2      4438      5978      5988      4428      4439      5979      5989      4429      8940      9013
 -2      9014      4605      4607      8945      9019      4575      8947      9020      9021      4608
 -1       844    4    0    1
 -2      4439      5979      5989      4429      4440      5980      5990      4430      8947      9020
 -2      9021      4608      4610      8952      9026      4578      8954      9027      9028      4611
 -1       845    4    0    1
 -2      4440      5980      5990      4430      4441      5981      5991      4431      8954      9027
 -2      9028      4611      4613      8959      9033      4581      8961      9034      9035      4614
 -1       846    4    0    1
 -2      4441      5981      5991      4431      4442      5982      5992      4432      8961      9034
 -2      9035      4614      4616      8966      9040      4584      8968      9041      9042      4617
 -1       847    4    0    1
 -2      4442      5982      5992      4432       305      4807      4808       304      8968      9041
 -2      9042      4617      4619      8973      9047      4587      5079      5081      5082       314
 -1       848    4    0    1
 -2       148       411       412       147      4423      5983      5993      4413       685       687
 -2       688       157      4557      8977      9051      4525      8979      9052      9053      4558
 -1       849    4    0    1
 -2      4423      5983      5993      4413      4424      5984      5994      4414      8979      9052
 -2      9053      4558      4560      8984      9058      4528      8986      9059      9060      4561
 -1       850    4    0    1
 -2      4424      5984      5994      4414      4425      5985      5995      4415      8986      9059
 -2      9060      4561      4563      8991      9065      4531      8993      9066      9067      4564
 -1       851    4    0    1
 -2      4425      5985      5995      4415      4426      5986      5996      4416      8993      9066
 -2      9067      4564      4566      8998      9072      4534      9000      9073      9074      4567
 -1       852    4    0    1
 -2      4426      5986      5996      4416      4427      5987      5997      4417      9000      9073
 -2      9074      4567      4569      9005      9079      4537      9007      9080      9081      4570
 -1       853    4    0    1
 -2      4427      5987      5997      4417      4428      5988      5998      4418      9007      9080
 -2      9081      4570      4572      9012      9086      4540      9014      9087      9088      4573
 -1       854    4    0    1
 -2      4428      5988      5998      4418      4429      5989      5999      4419      9014      9087
 -2      9088      4573      4575      9019      9093      4543      9021      9094      9095      4576
 -1       855    4    0    1
 -2      4429      5989      5999      4419      4430      5990      6000      4420      9021      9094
 -2      9095      4576      4578      9026      9100      4546      9028      9101      9102      4579
 -1       856    4    0    1
 -2      4430      5990      6000      4420      4431      5991      6001      4421      9028      9101
 -2      9102      4579      4581      9033      9107      4549      9035      9108      9109      4582
 -1       857    4    0    1
 -2      4431      5991      6001      4421      4432      5992      6002      4422      9035      9108
 -2      9109      4582      4584      9040      9114      4552      9042      9115      9116      4585
 -1       858    4    0    1
 -2      4432      5992      6002      4422       304      4808      4809       303      9042      9115
 -2      9116      4585      4587      9047      9121      4555      5082      5084      5085       313
 -1       859    4    0    1
 -2       147       412       413       146      4413      5993      6003      4403       688       690
 -2       691       156      4525      9051      9125      4493      9053      9126      9127      4526
 -1       860    4    0    1
 -2      4413      5993      6003      4403      4414      5994      6004      4404      9053      9126
 -2      9127      4526      4528      9058      9132      4496      9060      9133      9134      4529
 -1       861    4    0    1
 -2      4414      5994      6004      4404      4415      5995      6005      4405      9060      9133
 -2      9134      4529      4531      9065      9139      4499      9067      9140      9141      4532
 -1       862    4    0    1
 -2      4415      5995      6005      4405      4416      5996      6006      4406      9067      9140
 -2      9141      4532      4534      9072      9146      4502      9074      9147      9148      4535
 -1       863    4    0    1
 -2      4416      5996      6006      4406      4417      5997      6007      4407      9074      9147
 -2      9148      4535      4537      9079      9153      4505      9081      9154      9155      4538
 -1       864    4    0    1
 -2      4417      5997      6007      4407      4418      5998      6008      4408      9081      9154
 -2      9155      4538      4540      9086      9160      4508      9088      9161      9162      4541
 -1       865    4    0    1
 -2      4418      5998      6008      4408      4419      5999      6009      4409      9088      9161
 -2      9162      4541      4543      9093      9167      4511      9095      9168      9169      4544
 -1       866    4    0    1
 -2      4419      5999      6009      4409      4420      6000      6010      4410      9095      9168
 -2      9169      4544      4546      9100      9174      4514      9102      9175      9176      4547
 -1       867    4    0    1
 -2      4420      6000      6010      4410      4421      6001      6011      4411      9102      9175
 -2      9176      4547      4549      9107      9181      4517      9109      9182      9183      4550
 -1       868    4    0    1
 -2      4421      6001      6011      4411      4422      6002      6012      4412      9109      9182
 -2      9183      4550      4552      9114      9188      4520      9116      9189      9190      4553
 -1       869    4    0    1
 -2      4422      6002      6012      4412       303      4809      4810       302      9116      9189
 -2      9190      4553      4555      9121      9195      4523      5085      5087      5088       312
 -1       870    4    0    1
 -2       146       413       115         4      4403      6003      3444       384       691       693
 -2       145       155      4493      9125      4350       394      9127      9199      4382      4494
 -1       871    4    0    1
 -2      4403      6003      3444       384      4404      6004      3445       385      9127      9199
 -2      4382      4494      4496      9132      4353       395      9134      9203      4384      4497
 -1       872    4    0    1
 -2      4404      6004      3445       385      4405      6005      3446       386      9134      9203
 -2      4384      4497      4499      9139      4356       396      9141      9207      4386      4500
 -1       873    4    0    1
 -2      4405      6005      3446       386      4406      6006      3447       387      9141      9207
 -2      4386      4500      4502      9146      4359       397      9148      9211      4388      4503
 -1       874    4    0    1
 -2      4406      6006      3447       387      4407      6007      3448       388      9148      9211
 -2      4388      4503      4505      9153      4362       398      9155      9215      4390      4506
 -1       875    4    0    1
 -2      4407      6007      3448       388      4408      6008      3449       389      9155      9215
 -2      4390      4506      4508      9160      4365       399      9162      9219      4392      4509
 -1       876    4    0    1
 -2      4408      6008      3449       389      4409      6009      3450       390      9162      9219
 -2      4392      4509      4511      9167      4368       400      9169      9223      4394      4512
 -1       877    4    0    1
 -2      4409      6009      3450       390      4410      6010      3451       391      9169      9223
 -2      4394      4512      4514      9174      4371       401      9176      9227      4396      4515
 -1       878    4    0    1
 -2      4410      6010      3451       391      4411      6011      3452       392      9176      9227
 -2      4396      4515      4517      9181      4374       402      9183      9231      4398      4518
 -1       879    4    0    1
 -2      4411      6011      3452       392      4412      6012      3453       393      9183      9231
 -2      4398      4518      4520      9188      4377       403      9190      9235      4400      4521
 -1       880    4    0    1
 -2      4412      6012      3453       393       302      4810       271         8      9190      9235
 -2      4400      4521      4523      9195      4380       404      5088      5090       301       311
 -1       881    4    0    1
 -2         9        10       414       405      1526      1536      6013      5923        39       695
 -2       696       666      1816      1848      9241      8533      1849      9242      9243      8534
 -1       882    4    0    1
 -2      1526      1536      6013      5923      1527      1537      6014      5924      1849      9242
 -2      9243      8534      1819      1851      9248      8540      1852      9249      9250      8541
 -1       883    4    0    1
 -2      1527      1537      6014      5924      1528      1538      6015      5925      1852      9249
 -2      9250      8541      1822      1854      9255      8547      1855      9256      9257      8548
 -1       884    4    0    1
 -2      1528      1538      6015      5925      1529      1539      6016      5926      1855      9256
 -2      9257      8548      1825      1857      9262      8554      1858      9263      9264      8555
 -1       885    4    0    1
 -2      1529      1539      6016      5926      1530      1540      6017      5927      1858      9263
 -2      9264      8555      1828      1860      9269      8561      1861      9270      9271      8562
 -1       886    4    0    1
 -2      1530      1540      6017      5927      1531      1541      6018      5928      1861      9270
 -2      9271      8562      1831      1863      9276      8568      1864      9277      9278      8569
 -1       887    4    0    1
 -2      1531      1541      6018      5928      1532      1542      6019      5929      1864      9277
 -2      9278      8569      1834      1866      9283      8575      1867      9284      9285      8576
 -1       888    4    0    1
 -2      1532      1542      6019      5929      1533      1543      6020      5930      1867      9284
 -2      9285      8576      1837      1869      9290      8582      1870      9291      9292      8583
 -1       889    4    0    1
 -2      1533      1543      6020      5930      1534      1544      6021      5931      1870      9291
 -2      9292      8583      1840      1872      9297      8589      1873      9298      9299      8590
 -1       890    4    0    1
 -2      1534      1544      6021      5931      1535      1545      6022      5932      1873      9298
 -2      9299      8590      1843      1875      9304      8596      1876      9305      9306      8597
 -1       891    4    0    1
 -2      1535      1545      6022      5932       165       166      4811      4802      1876      9305
 -2      9306      8597      1846      1878      9311      8603       195      5092      5093      5063
 -1       892    4    0    1
 -2       405       414       415       406      5923      6013      6023      5933       696       698
 -2       699       669      8533      9241      9315      8607      9243      9316      9317      8608
 -1       893    4    0    1
 -2      5923      6013      6023      5933      5924      6014      6024      5934      9243      9316
 -2      9317      8608      8540      9248      9322      8614      9250      9323      9324      8615
 -1       894    4    0    1
 -2      5924      6014      6024      5934      5925      6015      6025      5935      9250      9323
 -2      9324      8615      8547      9255      9329      8621      9257      9330      9331      8622
 -1       895    4    0    1
 -2      5925      6015      6025      5935      5926      6016      6026      5936      9257      9330
 -2      9331      8622      8554      9262      9336      8628      9264      9337      9338      8629
 -1       896    4    0    1
 -2      5926      6016      6026      5936      5927      6017      6027      5937      9264      9337
 -2      9338      8629      8561      9269      9343      8635      9271      9344      9345      8636
 -1       897    4    0    1
 -2      5927      6017      6027      5937      5928      6018      6028      5938      9271      9344
 -2      9345      8636      8568      9276      9350      8642      9278      9351      9352      8643
 -1       898    4    0    1
 -2      5928      6018      6028      5938      5929      6019      6029      5939      9278      9351
 -2      9352      8643      8575      9283      9357      8649      9285      9358      9359      8650
 -1       899    4    0    1
 -2      5929      6019      6029      5939      5930      6020      6030      5940      9285      9358
 -2      9359      8650      8582      9290      9364      8656      9292      9365      9366      8657
 -1       900    4    0    1
 -2      5930      6020      6030      5940      5931      6021      6031      5941      9292      9365
 -2      9366      8657      8589      9297      9371      8663      9299      9372      9373      8664
 -1       901    4    0    1
 -2      5931      6021      6031      5941      5932      6022      6032      5942      9299      9372
 -2      9373      8664      8596      9304      9378      8670      9306      9379      9380      8671
 -1       902    4    0    1
 -2      5932      6022      6032      5942      4802      4811      4812      4803      9306      9379
 -2      9380      8671      8603      9311      9385      8677      5093      5095      5096      5066
 -1       903    4    0    1
 -2       406       415       416       407      5933      6023      6033      5943       699       701
 -2       702       672      8607      9315      9389      8681      9317      9390      9391      8682
 -1       904    4    0    1
 -2      5933      6023      6033      5943      5934      6024      6034      5944      9317      9390
 -2      9391      8682      8614      9322      9396      8688      9324      9397      9398      8689
 -1       905    4    0    1
 -2      5934      6024      6034      5944      5935      6025      6035      5945      9324      9397
 -2      9398      8689      8621      9329      9403      8695      9331      9404      9405      8696
 -1       906    4    0    1
 -2      5935      6025      6035      5945      5936      6026      6036      5946      9331      9404
 -2      9405      8696      8628      9336      9410      8702      9338      9411      9412      8703
 -1       907    4    0    1
 -2      5936      6026      6036      5946      5937      6027      6037      5947      9338      9411
 -2      9412      8703      8635      9343      9417      8709      9345      9418      9419      8710
 -1       908    4    0    1
 -2      5937      6027      6037      5947      5938      6028      6038      5948      9345      9418
 -2      9419      8710      8642      9350      9424      8716      9352      9425      9426      8717
 -1       909    4    0    1
 -2      5938      6028      6038      5948      5939      6029      6039      5949      9352      9425
 -2      9426      8717      8649      9357      9431      8723      9359      9432      9433      8724
 -1       910    4    0    1
 -2      5939      6029      6039      5949      5940      6030      6040      5950      9359      9432
 -2      9433      8724      8656      9364      9438      8730      9366      9439      9440      8731
 -1       911    4    0    1
 -2      5940      6030      6040      5950      5941      6031      6041      5951      9366      9439
 -2      9440      8731      8663      9371      9445      8737      9373      9446      9447      8738
 -1       912    4    0    1
 -2      5941      6031      6041      5951      5942      6032      6042      5952      9373      9446
 -2      9447      8738      8670      9378      9452      8744      9380      9453      9454      8745
 -1       913    4    0    1
 -2      5942      6032      6042      5952      4803      4812      4813      4804      9380      9453
 -2      9454      8745      8677      9385      9459      8751      5096      5098      5099      5069
 -1       914    4    0    1
 -2       407       416       417       408      5943      6033      6043      5953       702       704
 -2       705       675      8681      9389      9463      8755      9391      9464      9465      8756
 -1       915    4    0    1
 -2      5943      6033      6043      5953      5944      6034      6044      5954      9391      9464
 -2      9465      8756      8688      9396      9470      8762      9398      9471      9472      8763
 -1       916    4    0    1
 -2      5944      6034      6044      5954      5945      6035      6045      5955      9398      9471
 -2      9472      8763      8695      9403      9477      8769      9405      9478      9479      8770
 -1       917    4    0    1
 -2      5945      6035      6045      5955      5946      6036      6046      5956      9405      9478
 -2      9479      8770      8702      9410      9484      8776      9412      9485      9486      8777
 -1       918    4    0    1
 -2      5946      6036      6046      5956      5947      6037      6047      5957      9412      9485
 -2      9486      8777      8709      9417      9491      8783      9419      9492      9493      8784
 -1       919    4    0    1
 -2      5947      6037      6047      5957      5948      6038      6048      5958      9419      9492
 -2      9493      8784      8716      9424      9498      8790      9426      9499      9500      8791
 -1       920    4    0    1
 -2      5948      6038      6048      5958      5949      6039      6049      5959      9426      9499
 -2      9500      8791      8723      9431      9505      8797      9433      9506      9507      8798
 -1       921    4    0    1
 -2      5949      6039      6049      5959      5950      6040      6050      5960      9433      9506
 -2      9507      8798      8730      9438      9512      8804      9440      9513      9514      8805
 -1       922    4    0    1
 -2      5950      6040      6050      5960      5951      6041      6051      5961      9440      9513
 -2      9514      8805      8737      9445      9519      8811      9447      9520      9521      8812
 -1       923    4    0    1
 -2      5951      6041      6051      5961      5952      6042      6052      5962      9447      9520
 -2      9521      8812      8744      9452      9526      8818      9454      9527      9528      8819
 -1       924    4    0    1
 -2      5952      6042      6052      5962      4804      4813      4814      4805      9454      9527
 -2      9528      8819      8751      9459      9533      8825      5099      5101      5102      5072
 -1       925    4    0    1
 -2       408       417       418       409      5953      6043      6053      5963       705       707
 -2       708       678      8755      9463      9537      8829      9465      9538      9539      8830
 -1       926    4    0    1
 -2      5953      6043      6053      5963      5954      6044      6054      5964      9465      9538
 -2      9539      8830      8762      9470      9544      8836      9472      9545      9546      8837
 -1       927    4    0    1
 -2      5954      6044      6054      5964      5955      6045      6055      5965      9472      9545
 -2      9546      8837      8769      9477      9551      8843      9479      9552      9553      8844
 -1       928    4    0    1
 -2      5955      6045      6055      5965      5956      6046      6056      5966      9479      9552
 -2      9553      8844      8776      9484      9558      8850      9486      9559      9560      8851
 -1       929    4    0    1
 -2      5956      6046      6056      5966      5957      6047      6057      5967      9486      9559
 -2      9560      8851      8783      9491      9565      8857      9493      9566      9567      8858
 -1       930    4    0    1
 -2      5957      6047      6057      5967      5958      6048      6058      5968      9493      9566
 -2      9567      8858      8790      9498      9572      8864      9500      9573      9574      8865
 -1       931    4    0    1
 -2      5958      6048      6058      5968      5959      6049      6059      5969      9500      9573
 -2      9574      8865      8797      9505      9579      8871      9507      9580      9581      8872
 -1       932    4    0    1
 -2      5959      6049      6059      5969      5960      6050      6060      5970      9507      9580
 -2      9581      8872      8804      9512      9586      8878      9514      9587      9588      8879
 -1       933    4    0    1
 -2      5960      6050      6060      5970      5961      6051      6061      5971      9514      9587
 -2      9588      8879      8811      9519      9593      8885      9521      9594      9595      8886
 -1       934    4    0    1
 -2      5961      6051      6061      5971      5962      6052      6062      5972      9521      9594
 -2      9595      8886      8818      9526      9600      8892      9528      9601      9602      8893
 -1       935    4    0    1
 -2      5962      6052      6062      5972      4805      4814      4815      4806      9528      9601
 -2      9602      8893      8825      9533      9607      8899      5102      5104      5105      5075
 -1       936    4    0    1
 -2       409       418       419       410      5963      6053      6063      5973       708       710
 -2       711       681      8829      9537      9611      8903      9539      9612      9613      8904
 -1       937    4    0    1
 -2      5963      6053      6063      5973      5964      6054      6064      5974      9539      9612
 -2      9613      8904      8836      9544      9618      8910      9546      9619      9620      8911
 -1       938    4    0    1
 -2      5964      6054      6064      5974      5965      6055      6065      5975      9546      9619
 -2      9620      8911      8843      9551      9625      8917      9553      9626      9627      8918
 -1       939    4    0    1
 -2      5965      6055      6065      5975      5966      6056      6066      5976      9553      9626
 -2      9627      8918      8850      9558      9632      8924      9560      9633      9634      8925
 -1       940    4    0    1
 -2      5966      6056      6066      5976      5967      6057      6067      5977      9560      9633
 -2      9634      8925      8857      9565      9639      8931      9567      9640      9641      8932
 -1       941    4    0    1
 -2      5967      6057      6067      5977      5968      6058      6068      5978      9567      9640
 -2      9641      8932      8864      9572      9646      8938      9574      9647      9648      8939
 -1       942    4    0    1
 -2      5968      6058      6068      5978      5969      6059      6069      5979      9574      9647
 -2      9648      8939      8871      9579      9653      8945      9581      9654      9655      8946
 -1       943    4    0    1
 -2      5969      6059      6069      5979      5970      6060      6070      5980      9581      9654
 -2      9655      8946      8878      9586      9660      8952      9588      9661      9662      8953
 -1       944    4    0    1
 -2      5970      6060      6070      5980      5971      6061      6071      5981      9588      9661
 -2      9662      8953      8885      9593      9667      8959      9595      9668      9669      8960
 -1       945    4    0    1
 -2      5971      6061      6071      5981      5972      6062      6072      5982      9595      9668
 -2      9669      8960      8892      9600      9674      8966      9602      9675      9676      8967
 -1       946    4    0    1
 -2      5972      6062      6072      5982      4806      4815      4816      4807      9602      9675
 -2      9676      8967      8899      9607      9681      8973      5105      5107      5108      5078
 -1       947    4    0    1
 -2       410       419       420       411      5973      6063      6073      5983       711       713
 -2       714       684      8903      9611      9685      8977      9613      9686      9687      8978
 -1       948    4    0    1
 -2      5973      6063      6073      5983      5974      6064      6074      5984      9613      9686
 -2      9687      8978      8910      9618      9692      8984      9620      9693      9694      8985
 -1       949    4    0    1
 -2      5974      6064      6074      5984      5975      6065      6075      5985      9620      9693
 -2      9694      8985      8917      9625      9699      8991      9627      9700      9701      8992
 -1       950    4    0    1
 -2      5975      6065      6075      5985      5976      6066      6076      5986      9627      9700
 -2      9701      8992      8924      9632      9706      8998      9634      9707      9708      8999
 -1       951    4    0    1
 -2      5976      6066      6076      5986      5977      6067      6077      5987      9634      9707
 -2      9708      8999      8931      9639      9713      9005      9641      9714      9715      9006
 -1       952    4    0    1
 -2      5977      6067      6077      5987      5978      6068      6078      5988      9641      9714
 -2      9715      9006      8938      9646      9720      9012      9648      9721      9722      9013
 -1       953    4    0    1
 -2      5978      6068      6078      5988      5979      6069      6079      5989      9648      9721
 -2      9722      9013      8945      9653      9727      9019      9655      9728      9729      9020
 -1       954    4    0    1
 -2      5979      6069      6079      5989      5980      6070      6080      5990      9655      9728
 -2      9729      9020      8952      9660      9734      9026      9662      9735      9736      9027
 -1       955    4    0    1
 -2      5980      6070      6080      5990      5981      6071      6081      5991      9662      9735
 -2      9736      9027      8959      9667      9741      9033      9669      9742      9743      9034
 -1       956    4    0    1
 -2      5981      6071      6081      5991      5982      6072      6082      5992      9669      9742
 -2      9743      9034      8966      9674      9748      9040      9676      9749      9750      9041
 -1       957    4    0    1
 -2      5982      6072      6082      5992      4807      4816      4817      4808      9676      9749
 -2      9750      9041      8973      9681      9755      9047      5108      5110      5111      5081
 -1       958    4    0    1
 -2       411       420       421       412      5983      6073      6083      5993       714       716
 -2       717       687      8977      9685      9759      9051      9687      9760      9761      9052
 -1       959    4    0    1
 -2      5983      6073      6083      5993      5984      6074      6084      5994      9687      9760
 -2      9761      9052      8984      9692      9766      9058      9694      9767      9768      9059
 -1       960    4    0    1
 -2      5984      6074      6084      5994      5985      6075      6085      5995      9694      9767
 -2      9768      9059      8991      9699      9773      9065      9701      9774      9775      9066
 -1       961    4    0    1
 -2      5985      6075      6085      5995      5986      6076      6086      5996      9701      9774
 -2      9775      9066      8998      9706      9780      9072      9708      9781      9782      9073
 -1       962    4    0    1
 -2      5986      6076      6086      5996      5987      6077      6087      5997      9708      9781
 -2      9782      9073      9005      9713      9787      9079      9715      9788      9789      9080
 -1       963    4    0    1
 -2      5987      6077      6087      5997      5988      6078      6088      5998      9715      9788
 -2      9789      9080      9012      9720      9794      9086      9722      9795      9796      9087
 -1       964    4    0    1
 -2      5988      6078      6088      5998      5989      6079      6089      5999      9722      9795
 -2      9796      9087      9019      9727      9801      9093      9729      9802      9803      9094
 -1       965    4    0    1
 -2      5989      6079      6089      5999      5990      6080      6090      6000      9729      9802
 -2      9803      9094      9026      9734      9808      9100      9736      9809      9810      9101
 -1       966    4    0    1
 -2      5990      6080      6090      6000      5991      6081      6091      6001      9736      9809
 -2      9810      9101      9033      9741      9815      9107      9743      9816      9817      9108
 -1       967    4    0    1
 -2      5991      6081      6091      6001      5992      6082      6092      6002      9743      9816
 -2      9817      9108      9040      9748      9822      9114      9750      9823      9824      9115
 -1       968    4    0    1
 -2      5992      6082      6092      6002      4808      4817      4818      4809      9750      9823
 -2      9824      9115      9047      9755      9829      9121      5111      5113      5114      5084
 -1       969    4    0    1
 -2       412       421       422       413      5993      6083      6093      6003       717       719
 -2       720       690      9051      9759      9833      9125      9761      9834      9835      9126
 -1       970    4    0    1
 -2      5993      6083      6093      6003      5994      6084      6094      6004      9761      9834
 -2      9835      9126      9058      9766      9840      9132      9768      9841      9842      9133
 -1       971    4    0    1
 -2      5994      6084      6094      6004      5995      6085      6095      6005      9768      9841
 -2      9842      9133      9065      9773      9847      9139      9775      9848      9849      9140
 -1       972    4    0    1
 -2      5995      6085      6095      6005      5996      6086      6096      6006      9775      9848
 -2      9849      9140      9072      9780      9854      9146      9782      9855      9856      9147
 -1       973    4    0    1
 -2      5996      6086      6096      6006      5997      6087      6097      6007      9782      9855
 -2      9856      9147      9079      9787      9861      9153      9789      9862      9863      9154
 -1       974    4    0    1
 -2      5997      6087      6097      6007      5998      6088      6098      6008      9789      9862
 -2      9863      9154      9086      9794      9868      9160      9796      9869      9870      9161
 -1       975    4    0    1
 -2      5998      6088      6098      6008      5999      6089      6099      6009      9796      9869
 -2      9870      9161      9093      9801      9875      9167      9803      9876      9877      9168
 -1       976    4    0    1
 -2      5999      6089      6099      6009      6000      6090      6100      6010      9803      9876
 -2      9877      9168      9100      9808      9882      9174      9810      9883      9884      9175
 -1       977    4    0    1
 -2      6000      6090      6100      6010      6001      6091      6101      6011      9810      9883
 -2      9884      9175      9107      9815      9889      9181      9817      9890      9891      9182
 -1       978    4    0    1
 -2      6001      6091      6101      6011      6002      6092      6102      6012      9817      9890
 -2      9891      9182      9114      9822      9896      9188      9824      9897      9898      9189
 -1       979    4    0    1
 -2      6002      6092      6102      6012      4809      4818      4819      4810      9824      9897
 -2      9898      9189      9121      9829      9903      9195      5114      5116      5117      5087
 -1       980    4    0    1
 -2       413       422       114       115      6003      6093      3434      3444       720       722
 -2       144       693      9125      9833      4318      4350      9835      9907      4351      9199
 -1       981    4    0    1
 -2      6003      6093      3434      3444      6004      6094      3435      3445      9835      9907
 -2      4351      9199      9132      9840      4321      4353      9842      9911      4354      9203
 -1       982    4    0    1
 -2      6004      6094      3435      3445      6005      6095      3436      3446      9842      9911
 -2      4354      9203      9139      9847      4324      4356      9849      9915      4357      9207
 -1       983    4    0    1
 -2      6005      6095      3436      3446      6006      6096      3437      3447      9849      9915
 -2      4357      9207      9146      9854      4327      4359      9856      9919      4360      9211
 -1       984    4    0    1
 -2      6006      6096      3437      3447      6007      6097      3438      3448      9856      9919
 -2      4360      9211      9153      9861      4330      4362      9863      9923      4363      9215
 -1       985    4    0    1
 -2      6007      6097      3438      3448      6008      6098      3439      3449      9863      9923
 -2      4363      9215      9160      9868      4333      4365      9870      9927      4366      9219
 -1       986    4    0    1
 -2      6008      6098      3439      3449      6009      6099      3440      3450      9870      9927
 -2      4366      9219      9167      9875      4336      4368      9877      9931      4369      9223
 -1       987    4    0    1
 -2      6009      6099      3440      3450      6010      6100      3441      3451      9877      9931
 -2      4369      9223      9174      9882      4339      4371      9884      9935      4372      9227
 -1       988    4    0    1
 -2      6010      6100      3441      3451      6011      6101      3442      3452      9884      9935
 -2      4372      9227      9181      9889      4342      4374      9891      9939      4375      9231
 -1       989    4    0    1
 -2      6011      6101      3442      3452      6012      6102      3443      3453      9891      9939
 -2      4375      9231      9188      9896      4345      4377      9898      9943      4378      9235
 -1       990    4    0    1
 -2      6012      6102      3443      3453      4810      4819       270       271      9898      9943
 -2      4378      9235      9195      9903      4348      4380      5117      5119       300      5090
 -1       991    4    0    1
 -2        10        11       423       414      1536      1546      6103      6013        40       724
 -2       725       695      1848      1880      9949      9241      1881      9950      9951      9242
 -1       992    4    0    1
 -2      1536      1546      6103      6013      1537      1547      6104      6014      1881      9950
 -2      9951      9242      1851      1883      9956      9248      1884      9957      9958      9249
 -1       993    4    0    1
 -2      1537      1547      6104      6014      1538      1548      6105      6015      1884      9957
 -2      9958      9249      1854      1886      9963      9255      1887      9964      9965      9256
 -1       994    4    0    1
 -2      1538      1548      6105      6015      1539      1549      6106      6016      1887      9964
 -2      9965      9256      1857      1889      9970      9262      1890      9971      9972      9263
 -1       995    4    0    1
 -2      1539      1549      6106      6016      1540      1550      6107      6017      1890      9971
 -2      9972      9263      1860      1892      9977      9269      1893      9978      9979      9270
 -1       996    4    0    1
 -2      1540      1550      6107      6017      1541      1551      6108      6018      1893      9978
 -2      9979      9270      1863      1895      9984      9276      1896      9985      9986      9277
 -1       997    4    0    1
 -2      1541      1551      6108      6018      1542      1552      6109      6019      1896      9985
 -2      9986      9277      1866      1898      9991      9283      1899      9992      9993      9284
 -1       998    4    0    1
 -2      1542      1552      6109      6019      1543      1553      6110      6020      1899      9992
 -2      9993      9284      1869      1901      9998      9290      1902      9999     10000      9291
 -1       999    4    0    1
 -2      1543      1553      6110      6020      1544      1554      6111      6021      1902      9999
 -2     10000      9291      1872      1904     10005      9297      1905     10006     10007      9298
 -1      1000    4    0    1
 -2      1544      1554      6111      6021      1545      1555      6112      6022      1905     10006
 -2     10007      9298      1875      1907     10012      9304      1908     10013     10014      9305
 -1      1001    4    0    1
 -2      1545      1555      6112      6022       166       167      4820      4811      1908     10013
 -2     10014      9305      1878      1910     10019      9311       196      5121      5122      5092
 -1      1002    4    0    1
 -2       414       423       424       415      6013      6103      6113      6023       725       727
 -2       728       698      9241      9949     10023      9315      9951     10024     10025      9316
 -1      1003    4    0    1
 -2      6013      6103      6113      6023      6014      6104      6114      6024      9951     10024
 -2     10025      9316      9248      9956     10030      9322      9958     10031     10032      9323
 -1      1004    4    0    1
 -2      6014      6104      6114      6024      6015      6105      6115      6025      9958     10031
 -2     10032      9323      9255      9963     10037      9329      9965     10038     10039      9330
 -1      1005    4    0    1
 -2      6015      6105      6115      6025      6016      6106      6116      6026      9965     10038
 -2     10039      9330      9262      9970     10044      9336      9972     10045     10046      9337
 -1      1006    4    0    1
 -2      6016      6106      6116      6026      6017      6107      6117      6027      9972     10045
 -2     10046      9337      9269      9977     10051      9343      9979     10052     10053      9344
 -1      1007    4    0    1
 -2      6017      6107      6117      6027      6018      6108      6118      6028      9979     10052
 -2     10053      9344      9276      9984     10058      9350      9986     10059     10060      9351
 -1      1008    4    0    1
 -2      6018      6108      6118      6028      6019      6109      6119      6029      9986     10059
 -2     10060      9351      9283      9991     10065      9357      9993     10066     10067      9358
 -1      1009    4    0    1
 -2      6019      6109      6119      6029      6020      6110      6120      6030      9993     10066
 -2     10067      9358      9290      9998     10072      9364     10000     10073     10074      9365
 -1      1010    4    0    1
 -2      6020      6110      6120      6030      6021      6111      6121      6031     10000     10073
 -2     10074      9365      9297     10005     10079      9371     10007     10080     10081      9372
 -1      1011    4    0    1
 -2      6021      6111      6121      6031      6022      6112      6122      6032     10007     10080
 -2     10081      9372      9304     10012     10086      9378     10014     10087     10088      9379
 -1      1012    4    0    1
 -2      6022      6112      6122      6032      4811      4820      4821      4812     10014     10087
 -2     10088      9379      9311     10019     10093      9385      5122      5124      5125      5095
 -1      1013    4    0    1
 -2       415       424       425       416      6023      6113      6123      6033       728       730
 -2       731       701      9315     10023     10097      9389     10025     10098     10099      9390
 -1      1014    4    0    1
 -2      6023      6113      6123      6033      6024      6114      6124      6034     10025     10098
 -2     10099      9390      9322     10030     10104      9396     10032     10105     10106      9397
 -1      1015    4    0    1
 -2      6024      6114      6124      6034      6025      6115      6125      6035     10032     10105
 -2     10106      9397      9329     10037     10111      9403     10039     10112     10113      9404
 -1      1016    4    0    1
 -2      6025      6115      6125      6035      6026      6116      6126      6036     10039     10112
 -2     10113      9404      9336     10044     10118      9410     10046     10119     10120      9411
 -1      1017    4    0    1
 -2      6026      6116      6126      6036      6027      6117      6127      6037     10046     10119
 -2     10120      9411      9343     10051     10125      9417     10053     10126     10127      9418
 -1      1018    4    0    1
 -2      6027      6117      6127      6037      6028      6118      6128      6038     10053     10126
 -2     10127      9418      9350     10058     10132      9424     10060     10133     10134      9425
 -1      1019    4    0    1
 -2      6028      6118      6128      6038      6029      6119      6129      6039     10060     10133
 -2     10134      9425      9357     10065     10139      9431     10067     10140     10141      9432
 -1      1020    4    0    1
 -2      6029      6119      6129      6039      6030      6120      6130      6040     10067     10140
 -2     10141      9432      9364     10072     10146      9438     10074     10147     10148      9439
 -1      1021    4    0    1
 -2      6030      6120      6130      6040      6031      6121      6131      6041     10074     10147
 -2     10148      9439      9371     10079     10153      9445     10081     10154     10155      9446
 -1      1022    4    0    1
 -2      6031      6121      6131      6041      6032      6122      6132      6042     10081     10154
 -2     10155      9446      9378     10086     10160      9452     10088     10161     10162      9453
 -1      1023    4    0    1
 -2      6032      6122      6132      6042      4812      4821      4822      4813     10088     10161
 -2     10162      9453      9385     10093     10167      9459      5125      5127      5128      5098
 -1      1024    4    0    1
 -2       416       425       426       417      6033      6123      6133      6043       731       733
 -2       734       704      9389     10097     10171      9463     10099     10172     10173      9464
 -1      1025    4    0    1
 -2      6033      6123      6133      6043      6034      6124      6134      6044     10099     10172
 -2     10173      9464      9396     10104     10178      9470     10106     10179     10180      9471
 -1      1026    4    0    1
 -2      6034      6124      6134      6044      6035      6125      6135      6045     10106     10179
 -2     10180      9471      9403     10111     10185      9477     10113     10186     10187      9478
 -1      1027    4    0    1
 -2      6035      6125      6135      6045      6036      6126      6136      6046     10113     10186
 -2     10187      9478      9410     10118     10192      9484     10120     10193     10194      9485
 -1      1028    4    0    1
 -2      6036      6126      6136      6046      6037      6127      6137      6047     10120     10193
 -2     10194      9485      9417     10125     10199      9491     10127     10200     10201      9492
 -1      1029    4    0    1
 -2      6037      6127      6137      6047      6038      6128      6138      6048     10127     10200
 -2     10201      9492      9424     10132     10206      9498     10134     10207     10208      9499
 -1      1030    4    0    1
 -2      6038      6128      6138      6048      6039      6129      6139      6049     10134     10207
 -2     10208      9499      9431     10139     10213      9505     10141     10214     10215      9506
 -1      1031    4    0    1
 -2      6039      6129      6139      6049      6040      6130      6140      6050     10141     10214
 -2     10215      9506      9438     10146     10220      9512     10148     10221     10222      9513
 -1      1032    4    0    1
 -2      6040      6130      6140      6050      6041      6131      6141      6051     10148     10221
 -2     10222      9513      9445     10153     10227      9519     10155     10228     10229      9520
 -1      1033    4    0    1
 -2      6041      6131      6141      6051      6042      6132      6142      6052     10155     10228
 -2     10229      9520      9452     10160     10234      9526     10162     10235     10236      9527
 -1      1034    4    0    1
 -2      6042      6132      6142      6052      4813      4822      4823      4814     10162     10235
 -2     10236      9527      9459     10167     10241      9533      5128      5130      5131      5101
 -1      1035    4    0    1
 -2       417       426       427       418      6043      6133      6143      6053       734       736
 -2       737       707      9463     10171     10245      9537     10173     10246     10247      9538
 -1      1036    4    0    1
 -2      6043      6133      6143      6053      6044      6134      6144      6054     10173     10246
 -2     10247      9538      9470     10178     10252      9544     10180     10253     10254      9545
 -1      1037    4    0    1
 -2      6044      6134      6144      6054      6045      6135      6145      6055     10180     10253
 -2     10254      9545      9477     10185     10259      9551     10187     10260     10261      9552
 -1      1038    4    0    1
 -2      6045      6135      6145      6055      6046      6136      6146      6056     10187     10260
 -2     10261      9552      9484     10192     10266      9558     10194     10267     10268      9559
 -1      1039    4    0    1
 -2      6046      6136      6146      6056      6047      6137      6147      6057     10194     10267
 -2     10268      9559      9491     10199     10273      9565     10201     10274     10275      9566
 -1      1040    4    0    1
 -2      6047      6137      6147      6057      6048      6138      6148      6058     10201     10274
 -2     10275      9566      9498     10206     10280      9572     10208     10281     10282      9573
 -1      1041    4    0    1
 -2      6048      6138      6148      6058      6049      6139      6149      6059     10208     10281
 -2     10282      9573      9505     10213     10287      9579     10215     10288     10289      9580
 -1      1042    4    0    1
 -2      6049      6139      6149      6059      6050      6140      6150      6060     10215     10288
 -2     10289      9580      9512     10220     10294      9586     10222     10295     10296      9587
 -1      1043    4    0    1
 -2      6050      6140      6150      6060      6051      6141      6151      6061     10222     10295
 -2     10296      9587      9519     10227     10301      9593     10229     10302     10303      9594
 -1      1044    4    0    1
 -2      6051      6141      6151      6061      6052      6142      6152      6062     10229     10302
 -2     10303      9594      9526     10234     10308      9600     10236     10309     10310      9601
 -1      1045    4    0    1
 -2      6052      6142      6152      6062      4814      4823      4824      4815     10236     10309
 -2     10310      9601      9533     10241     10315      9607      5131      5133      5134      5104
 -1      1046    4    0    1
 -2       418       427       428       419      6053      6143      6153      6063       737       739
 -2       740       710      9537     10245     10319      9611     10247     10320     10321      9612
 -1      1047    4    0    1
 -2      6053      6143      6153      6063      6054      6144      6154      6064     10247     10320
 -2     10321      9612      9544     10252     10326      9618     10254     10327     10328      9619
 -1      1048    4    0    1
 -2      6054      6144      6154      6064      6055      6145      6155      6065     10254     10327
 -2     10328      9619      9551     10259     10333      9625     10261     10334     10335      9626
 -1      1049    4    0    1
 -2      6055      6145      6155      6065      6056      6146      6156      6066     10261     10334
 -2     10335      9626      9558     10266     10340      9632     10268     10341     10342      9633
 -1      1050    4    0    1
 -2      6056      6146      6156      6066      6057      6147      6157      6067     10268     10341
 -2     10342      9633      9565     10273     10347      9639     10275     10348     10349      9640
 -1      1051    4    0    1
 -2      6057      6147      6157      6067      6058      6148      6158      6068     10275     10348
 -2     10349      9640      9572     10280     10354      9646     10282     10355     10356      9647
 -1      1052    4    0    1
 -2      6058      6148      6158      6068      6059      6149      6159      6069     10282     10355
 -2     10356      9647      9579     10287     10361      9653     10289     10362     10363      9654
 -1      1053    4    0    1
 -2      6059      6149      6159      6069      6060      6150      6160      6070     10289     10362
 -2     10363      9654      9586     10294     10368      9660     10296     10369     10370      9661
 -1      1054    4    0    1
 -2      6060      6150      6160      6070      6061      6151      6161      6071     10296     10369
 -2     10370      9661      9593     10301     10375      9667     10303     10376     10377      9668
 -1      1055    4    0    1
 -2      6061      6151      6161      6071      6062      6152      6162      6072     10303     10376
 -2     10377      9668      9600     10308     10382      9674     10310     10383     10384      9675
 -1      1056    4    0    1
 -2      6062      6152      6162      6072      4815      4824      4825      4816     10310     10383
 -2     10384      9675      9607     10315     10389      9681      5134      5136      5137      5107
 -1      1057    4    0    1
 -2       419       428       429       420      6063      6153      6163      6073       740       742
 -2       743       713      9611     10319     10393      9685     10321     10394     10395      9686
 -1      1058    4    0    1
 -2      6063      6153      6163      6073      6064      6154      6164      6074     10321     10394
 -2     10395      9686      9618     10326     10400      9692     10328     10401     10402      9693
 -1      1059    4    0    1
 -2      6064      6154      6164      6074      6065      6155      6165      6075     10328     10401
 -2     10402      9693      9625     10333     10407      9699     10335     10408     10409      9700
 -1      1060    4    0    1
 -2      6065      6155      6165      6075      6066      6156      6166      6076     10335     10408
 -2     10409      9700      9632     10340     10414      9706     10342     10415     10416      9707
 -1      1061    4    0    1
 -2      6066      6156      6166      6076      6067      6157      6167      6077     10342     10415
 -2     10416      9707      9639     10347     10421      9713     10349     10422     10423      9714
 -1      1062    4    0    1
 -2      6067      6157      6167      6077      6068      6158      6168      6078     10349     10422
 -2     10423      9714      9646     10354     10428      9720     10356     10429     10430      9721
 -1      1063    4    0    1
 -2      6068      6158      6168      6078      6069      6159      6169      6079     10356     10429
 -2     10430      9721      9653     10361     10435      9727     10363     10436     10437      9728
 -1      1064    4    0    1
 -2      6069      6159      6169      6079      6070      6160      6170      6080     10363     10436
 -2     10437      9728      9660     10368     10442      9734     10370     10443     10444      9735
 -1      1065    4    0    1
 -2      6070      6160      6170      6080      6071      6161      6171      6081     10370     10443
 -2     10444      9735      9667     10375     10449      9741     10377     10450     10451      9742
 -1      1066    4    0    1
 -2      6071      6161      6171      6081      6072      6162      6172      6082     10377     10450
 -2     10451      9742      9674     10382     10456      9748     10384     10457     10458      9749
 -1      1067    4    0    1
 -2      6072      6162      6172      6082      4816      4825      4826      4817     10384     10457
 -2     10458      9749      9681     10389     10463      9755      5137      5139      5140      5110
 -1      1068    4    0    1
 -2       420       429       430       421      6073      6163      6173      6083       743       745
 -2       746       716      9685     10393     10467      9759     10395     10468     10469      9760
 -1      1069    4    0    1
 -2      6073      6163      6173      6083      6074      6164      6174      6084     10395     10468
 -2     10469      9760      9692     10400     10474      9766     10402     10475     10476      9767
 -1      1070    4    0    1
 -2      6074      6164      6174      6084      6075      6165      6175      6085     10402     10475
 -2     10476      9767      9699     10407     10481      9773     10409     10482     10483      9774
 -1      1071    4    0    1
 -2      6075      6165      6175      6085      6076      6166      6176      6086     10409     10482
 -2     10483      9774      9706     10414     10488      9780     10416     10489     10490      9781
 -1      1072    4    0    1
 -2      6076      6166      6176      6086      6077      6167      6177      6087     10416     10489
 -2     10490      9781      9713     10421     10495      9787     10423     10496     10497      9788
 -1      1073    4    0    1
 -2      6077      6167      6177      6087      6078      6168      6178      6088     10423     10496
 -2     10497      9788      9720     10428     10502      9794     10430     10503     10504      9795
 -1      1074    4    0    1
 -2      6078      6168      6178      6088      6079      6169      6179      6089     10430     10503
 -2     10504      9795      9727     10435     10509      9801     10437     10510     10511      9802
 -1      1075    4    0    1
 -2      6079      6169      6179      6089      6080      6170      6180      6090     10437     10510
 -2     10511      9802      9734     10442     10516      9808     10444     10517     10518      9809
 -1      1076    4    0    1
 -2      6080      6170      6180      6090      6081      6171      6181      6091     10444     10517
 -2     10518      9809      9741     10449     10523      9815     10451     10524     10525      9816
 -1      1077    4    0    1
 -2      6081      6171      6181      6091      6082      6172      6182      6092     10451     10524
 -2     10525      9816      9748     10456     10530      9822     10458     10531     10532      9823
 -1      1078    4    0    1
 -2      6082      6172      6182      6092      4817      4826      4827      4818     10458     10531
 -2     10532      9823      9755     10463     10537      9829      5140      5142      5143      5113
 -1      1079    4    0    1
 -2       421       430       431       422      6083      6173      6183      6093       746       748
 -2       749       719      9759     10467     10541      9833     10469     10542     10543      9834
 -1      1080    4    0    1
 -2      6083      6173      6183      6093      6084      6174      6184      6094     10469     10542
 -2     10543      9834      9766     10474     10548      9840     10476     10549     10550      9841
 -1      1081    4    0    1
 -2      6084      6174      6184      6094      6085      6175      6185      6095     10476     10549
 -2     10550      9841      9773     10481     10555      9847     10483     10556     10557      9848
 -1      1082    4    0    1
 -2      6085      6175      6185      6095      6086      6176      6186      6096     10483     10556
 -2     10557      9848      9780     10488     10562      9854     10490     10563     10564      9855
 -1      1083    4    0    1
 -2      6086      6176      6186      6096      6087      6177      6187      6097     10490     10563
 -2     10564      9855      9787     10495     10569      9861     10497     10570     10571      9862
 -1      1084    4    0    1
 -2      6087      6177      6187      6097      6088      6178      6188      6098     10497     10570
 -2     10571      9862      9794     10502     10576      9868     10504     10577     10578      9869
 -1      1085    4    0    1
 -2      6088      6178      6188      6098      6089      6179      6189      6099     10504     10577
 -2     10578      9869      9801     10509     10583      9875     10511     10584     10585      9876
 -1      1086    4    0    1
 -2      6089      6179      6189      6099      6090      6180      6190      6100     10511     10584
 -2     10585      9876      9808     10516     10590      9882     10518     10591     10592      9883
 -1      1087    4    0    1
 -2      6090      6180      6190      6100      6091      6181      6191      6101     10518     10591
 -2     10592      9883      9815     10523     10597      9889     10525     10598     10599      9890
 -1      1088    4    0    1
 -2      6091      6181      6191      6101      6092      6182      6192      6102     10525     10598
 -2     10599      9890      9822     10530     10604      9896     10532     10605     10606      9897
 -1      1089    4    0    1
 -2      6092      6182      6192      6102      4818      4827      4828      4819     10532     10605
 -2     10606      9897      9829     10537     10611      9903      5143      5145      5146      5116
 -1      1090    4    0    1
 -2       422       431       113       114      6093      6183      3424      3434       749       751
 -2       143       722      9833     10541      4286      4318     10543     10615      4319      9907
 -1      1091    4    0    1
 -2      6093      6183      3424      3434      6094      6184      3425      3435     10543     10615
 -2      4319      9907      9840     10548      4289      4321     10550     10619      4322      9911
 -1      1092    4    0    1
 -2      6094      6184      3425      3435      6095      6185      3426      3436     10550     10619
 -2      4322      9911      9847     10555      4292      4324     10557     10623      4325      9915
 -1      1093    4    0    1
 -2      6095      6185      3426      3436      6096      6186      3427      3437     10557     10623
 -2      4325      9915      9854     10562      4295      4327     10564     10627      4328      9919
 -1      1094    4    0    1
 -2      6096      6186      3427      3437      6097      6187      3428      3438     10564     10627
 -2      4328      9919      9861     10569      4298      4330     10571     10631      4331      9923
 -1      1095    4    0    1
 -2      6097      6187      3428      3438      6098      6188      3429      3439     10571     10631
 -2      4331      9923      9868     10576      4301      4333     10578     10635      4334      9927
 -1      1096    4    0    1
 -2      6098      6188      3429      3439      6099      6189      3430      3440     10578     10635
 -2      4334      9927      9875     10583      4304      4336     10585     10639      4337      9931
 -1      1097    4    0    1
 -2      6099      6189      3430      3440      6100      6190      3431      3441     10585     10639
 -2      4337      9931      9882     10590      4307      4339     10592     10643      4340      9935
 -1      1098    4    0    1
 -2      6100      6190      3431      3441      6101      6191      3432      3442     10592     10643
 -2      4340      9935      9889     10597      4310      4342     10599     10647      4343      9939
 -1      1099    4    0    1
 -2      6101      6191      3432      3442      6102      6192      3433      3443     10599     10647
 -2      4343      9939      9896     10604      4313      4345     10606     10651      4346      9943
 -1      1100    4    0    1
 -2      6102      6192      3433      3443      4819      4828       269       270     10606     10651
 -2      4346      9943      9903     10611      4316      4348      5146      5148       299      5119
 -1      1101    4    0    1
 -2        11        12       432       423      1546      1556      6193      6103        41       753
 -2       754       724      1880      1912     10657      9949      1913     10658     10659      9950
 -1      1102    4    0    1
 -2      1546      1556      6193      6103      1547      1557      6194      6104      1913     10658
 -2     10659      9950      1883      1915     10664      9956      1916     10665     10666      9957
 -1      1103    4    0    1
 -2      1547      1557      6194      6104      1548      1558      6195      6105      1916     10665
 -2     10666      9957      1886      1918     10671      9963      1919     10672     10673      9964
 -1      1104    4    0    1
 -2      1548      1558      6195      6105      1549      1559      6196      6106      1919     10672
 -2     10673      9964      1889      1921     10678      9970      1922     10679     10680      9971
 -1      1105    4    0    1
 -2      1549      1559      6196      6106      1550      1560      6197      6107      1922     10679
 -2     10680      9971      1892      1924     10685      9977      1925     10686     10687      9978
 -1      1106    4    0    1
 -2      1550      1560      6197      6107      1551      1561      6198      6108      1925     10686
 -2     10687      9978      1895      1927     10692      9984      1928     10693     10694      9985
 -1      1107    4    0    1
 -2      1551      1561      6198      6108      1552      1562      6199      6109      1928     10693
 -2     10694      9985      1898      1930     10699      9991      1931     10700     10701      9992
 -1      1108    4    0    1
 -2      1552      1562      6199      6109      1553      1563      6200      6110      1931     10700
 -2     10701      9992      1901      1933     10706      9998      1934     10707     10708      9999
 -1      1109    4    0    1
 -2      1553      1563      6200      6110      1554      1564      6201      6111      1934     10707
 -2     10708      9999      1904      1936     10713     10005      1937     10714     10715     10006
 -1      1110    4    0    1
 -2      1554      1564      6201      6111      1555      1565      6202      6112      1937     10714
 -2     10715     10006      1907      1939     10720     10012      1940     10721     10722     10013
 -1      1111    4    0    1
 -2      1555      1565      6202      6112       167       168      4829      4820      1940     10721
 -2     10722     10013      1910      1942     10727     10019       197      5150      5151      5121
 -1      1112    4    0    1
 -2       423       432       433       424      6103      6193      6203      6113       754       756
 -2       757       727      9949     10657     10731     10023     10659     10732     10733     10024
 -1      1113    4    0    1
 -2      6103      6193      6203      6113      6104      6194      6204      6114     10659     10732
 -2     10733     10024      9956     10664     10738     10030     10666     10739     10740     10031
 -1      1114    4    0    1
 -2      6104      6194      6204      6114      6105      6195      6205      6115     10666     10739
 -2     10740     10031      9963     10671     10745     10037     10673     10746     10747     10038
 -1      1115    4    0    1
 -2      6105      6195      6205      6115      6106      6196      6206      6116     10673     10746
 -2     10747     10038      9970     10678     10752     10044     10680     10753     10754     10045
 -1      1116    4    0    1
 -2      6106      6196      6206      6116      6107      6197      6207      6117     10680     10753
 -2     10754     10045      9977     10685     10759     10051     10687     10760     10761     10052
 -1      1117    4    0    1
 -2      6107      6197      6207      6117      6108      6198      6208      6118     10687     10760
 -2     10761     10052      9984     10692     10766     10058     10694     10767     10768     10059
 -1      1118    4    0    1
 -2      6108      6198      6208      6118      6109      6199      6209      6119     10694     10767
 -2     10768     10059      9991     10699     10773     10065     10701     10774     10775     10066
 -1      1119    4    0    1
 -2      6109      6199      6209      6119      6110      6200      6210      6120     10701     10774
 -2     10775     10066      9998     10706     10780     10072     10708     10781     10782     10073
 -1      1120    4    0    1
 -2      6110      6200      6210      6120      6111      6201      6211      6121     10708     10781
 -2     10782     10073     10005     10713     10787     10079     10715     10788     10789     10080
 -1      1121    4    0    1
 -2      6111      6201      6211      6121      6112      6202      6212      6122     10715     10788
 -2     10789     10080     10012     10720     10794     10086     10722     10795     10796     10087
 -1      1122    4    0    1
 -2      6112      6202      6212      6122      4820      4829      4830      4821     10722     10795
 -2     10796     10087     10019     10727     10801     10093      5151      5153      5154      5124
 -1      1123    4    0    1
 -2       424       433       434       425      6113      6203      6213      6123       757       759
 -2       760       730     10023     10731     10805     10097     10733     10806     10807     10098
 -1      1124    4    0    1
 -2      6113      6203      6213      6123      6114      6204      6214      6124     10733     10806
 -2     10807     10098     10030     10738     10812     10104     10740     10813     10814     10105
 -1      1125    4    0    1
 -2      6114      6204      6214      6124      6115      6205      6215      6125     10740     10813
 -2     10814     10105     10037     10745     10819     10111     10747     10820     10821     10112
 -1      1126    4    0    1
 -2      6115      6205      6215      6125      6116      6206      6216      6126     10747     10820
 -2     10821     10112     10044     10752     10826     10118     10754     10827     10828     10119
 -1      1127    4    0    1
 -2      6116      6206      6216      6126      6117      6207      6217      6127     10754     10827
 -2     10828     10119     10051     10759     10833     10125     10761     10834     10835     10126
 -1      1128    4    0    1
 -2      6117      6207      6217      6127      6118      6208      6218      6128     10761     10834
 -2     10835     10126     10058     10766     10840     10132     10768     10841     10842     10133
 -1      1129    4    0    1
 -2      6118      6208      6218      6128      6119      6209      6219      6129     10768     10841
 -2     10842     10133     10065     10773     10847     10139     10775     10848     10849     10140
 -1      1130    4    0    1
 -2      6119      6209      6219      6129      6120      6210      6220      6130     10775     10848
 -2     10849     10140     10072     10780     10854     10146     10782     10855     10856     10147
 -1      1131    4    0    1
 -2      6120      6210      6220      6130      6121      6211      6221      6131     10782     10855
 -2     10856     10147     10079     10787     10861     10153     10789     10862     10863     10154
 -1      1132    4    0    1
 -2      6121      6211      6221      6131      6122      6212      6222      6132     10789     10862
 -2     10863     10154     10086     10794     10868     10160     10796     10869     10870     10161
 -1      1133    4    0    1
 -2      6122      6212      6222      6132      4821      4830      4831      4822     10796     10869
 -2     10870     10161     10093     10801     10875     10167      5154      5156      5157      5127
 -1      1134    4    0    1
 -2       425       434       435       426      6123      6213      6223      6133       760       762
 -2       763       733     10097     10805     10879     10171     10807     10880     10881     10172
 -1      1135    4    0    1
 -2      6123      6213      6223      6133      6124      6214      6224      6134     10807     10880
 -2     10881     10172     10104     10812     10886     10178     10814     10887     10888     10179
 -1      1136    4    0    1
 -2      6124      6214      6224      6134      6125      6215      6225      6135     10814     10887
 -2     10888     10179     10111     10819     10893     10185     10821     10894     10895     10186
 -1      1137    4    0    1
 -2      6125      6215      6225      6135      6126      6216      6226      6136     10821     10894
 -2     10895     10186     10118     10826     10900     10192     10828     10901     10902     10193
 -1      1138    4    0    1
 -2      6126      6216      6226      6136      6127      6217      6227      6137     10828     10901
 -2     10902     10193     10125     10833     10907     10199     10835     10908     10909     10200
 -1      1139    4    0    1
 -2      6127      6217      6227      6137      6128      6218      6228      6138     10835     10908
 -2     10909     10200     10132     10840     10914     10206     10842     10915     10916     10207
 -1      1140    4    0    1
 -2      6128      6218      6228      6138      6129      6219      6229      6139     10842     10915
 -2     10916     10207     10139     10847     10921     10213     10849     10922     10923     10214
 -1      1141    4    0    1
 -2      6129      6219      6229      6139      6130      6220      6230      6140     10849     10922
 -2     10923     10214     10146     10854     10928     10220     10856     10929     10930     10221
 -1      1142    4    0    1
 -2      6130      6220      6230      6140      6131      6221      6231      6141     10856     10929
 -2     10930     10221     10153     10861     10935     10227     10863     10936     10937     10228
 -1      1143    4    0    1
 -2      6131      6221      6231      6141      6132      6222      6232      6142     10863     10936
 -2     10937     10228     10160     10868     10942     10234     10870     10943     10944     10235
 -1      1144    4    0    1
 -2      6132      6222      6232      6142      4822      4831      4832      4823     10870     10943
 -2     10944     10235     10167     10875     10949     10241      5157      5159      5160      5130
 -1      1145    4    0    1
 -2       426       435       436       427      6133      6223      6233      6143       763       765
 -2       766       736     10171     10879     10953     10245     10881     10954     10955     10246
 -1      1146    4    0    1
 -2      6133      6223      6233      6143      6134      6224      6234      6144     10881     10954
 -2     10955     10246     10178     10886     10960     10252     10888     10961     10962     10253
 -1      1147    4    0    1
 -2      6134      6224      6234      6144      6135      6225      6235      6145     10888     10961
 -2     10962     10253     10185     10893     10967     10259     10895     10968     10969     10260
 -1      1148    4    0    1
 -2      6135      6225      6235      6145      6136      6226      6236      6146     10895     10968
 -2     10969     10260     10192     10900     10974     10266     10902     10975     10976     10267
 -1      1149    4    0    1
 -2      6136      6226      6236      6146      6137      6227      6237      6147     10902     10975
 -2     10976     10267     10199     10907     10981     10273     10909     10982     10983     10274
 -1      1150    4    0    1
 -2      6137      6227      6237      6147      6138      6228      6238      6148     10909     10982
 -2     10983     10274     10206     10914     10988     10280     10916     10989     10990     10281
 -1      1151    4    0    1
 -2      6138      6228      6238      6148      6139      6229      6239      6149     10916     10989
 -2     10990     10281     10213     10921     10995     10287     10923     10996     10997     10288
 -1      1152    4    0    1
 -2      6139      6229      6239      6149      6140      6230      6240      6150     10923     10996
 -2     10997     10288     10220     10928     11002     10294     10930     11003     11004     10295
 -1      1153    4    0    1
 -2      6140      6230      6240      6150      6141      6231      6241      6151     10930     11003
 -2     11004     10295     10227     10935     11009     10301     10937     11010     11011     10302
 -1      1154    4    0    1
 -2      6141      6231      6241      6151      6142      6232      6242      6152     10937     11010
 -2     11011     10302     10234     10942     11016     10308     10944     11017     11018     10309
 -1      1155    4    0    1
 -2      6142      6232      6242      6152      4823      4832      4833      4824     10944     11017
 -2     11018     10309     10241     10949     11023     10315      5160      5162      5163      5133
 -1      1156    4    0    1
 -2       427       436       437       428      6143      6233      6243      6153       766       768
 -2       769       739     10245     10953     11027     10319     10955     11028     11029     10320
 -1      1157    4    0    1
 -2      6143      6233      6243      6153      6144      6234      6244      6154     10955     11028
 -2     11029     10320     10252     10960     11034     10326     10962     11035     11036     10327
 -1      1158    4    0    1
 -2      6144      6234      6244      6154      6145      6235      6245      6155     10962     11035
 -2     11036     10327     10259     10967     11041     10333     10969     11042     11043     10334
 -1      1159    4    0    1
 -2      6145      6235      6245      6155      6146      6236      6246      6156     10969     11042
 -2     11043     10334     10266     10974     11048     10340     10976     11049     11050     10341
 -1      1160    4    0    1
 -2      6146      6236      6246      6156      6147      6237      6247      6157     10976     11049
 -2     11050     10341     10273     10981     11055     10347     10983     11056     11057     10348
 -1      1161    4    0    1
 -2      6147      6237      6247      6157      6148      6238      6248      6158     10983     11056
 -2     11057     10348     10280     10988     11062     10354     10990     11063     11064     10355
 -1      1162    4    0    1
 -2      6148      6238      6248      6158      6149      6239      6249      6159     10990     11063
 -2     11064     10355     10287     10995     11069     10361     10997     11070     11071     10362
 -1      1163    4    0    1
 -2      6149      6239      6249      6159      6150      6240      6250      6160     10997     11070
 -2     11071     10362     10294     11002     11076     10368     11004     11077     11078     10369
 -1      1164    4    0    1
 -2      6150      6240      6250      6160      6151      6241      6251      6161     11004     11077
 -2     11078     10369     10301     11009     11083     10375     11011     11084     11085     10376
 -1      1165    4    0    1
 -2      6151      6241      6251      6161      6152      6242      6252      6162     11011     11084
 -2     11085     10376     10308     11016     11090     10382     11018     11091     11092     10383
 -1      1166    4    0    1
 -2      6152      6242      6252      6162      4824      4833      4834      4825     11018     11091
 -2     11092     10383     10315     11023     11097     10389      5163      5165      5166      5136
 -1      1167    4    0    1
 -2       428       437       438       429      6153      6243      6253      6163       769       771
 -2       772       742     10319     11027     11101     10393     11029     11102     11103     10394
 -1      1168    4    0    1
 -2      6153      6243      6253      6163      6154      6244      6254      6164     11029     11102
 -2     11103     10394     10326     11034     11108     10400     11036     11109     11110     10401
 -1      1169    4    0    1
 -2      6154      6244      6254      6164      6155      6245      6255      6165     11036     11109
 -2     11110     10401     10333     11041     11115     10407     11043     11116     11117     10408
 -1      1170    4    0    1
 -2      6155      6245      6255      6165      6156      6246      6256      6166     11043     11116
 -2     11117     10408     10340     11048     11122     10414     11050     11123     11124     10415
 -1      1171    4    0    1
 -2      6156      6246      6256      6166      6157      6247      6257      6167     11050     11123
 -2     11124     10415     10347     11055     11129     10421     11057     11130     11131     10422
 -1      1172    4    0    1
 -2      6157      6247      6257      6167      6158      6248      6258      6168     11057     11130
 -2     11131     10422     10354     11062     11136     10428     11064     11137     11138     10429
 -1      1173    4    0    1
 -2      6158      6248      6258      6168      6159      6249      6259      6169     11064     11137
 -2     11138     10429     10361     11069     11143     10435     11071     11144     11145     10436
 -1      1174    4    0    1
 -2      6159      6249      6259      6169      6160      6250      6260      6170     11071     11144
 -2     11145     10436     10368     11076     11150     10442     11078     11151     11152     10443
 -1      1175    4    0    1
 -2      6160      6250      6260      6170      6161      6251      6261      6171     11078     11151
 -2     11152     10443     10375     11083     11157     10449     11085     11158     11159     10450
 -1      1176    4    0    1
 -2      6161      6251      6261      6171      6162      6252      6262      6172     11085     11158
 -2     11159     10450     10382     11090     11164     10456     11092     11165     11166     10457
 -1      1177    4    0    1
 -2      6162      6252      6262      6172      4825      4834      4835      4826     11092     11165
 -2     11166     10457     10389     11097     11171     10463      5166      5168      5169      5139
 -1      1178    4    0    1
 -2       429       438       439       430      6163      6253      6263      6173       772       774
 -2       775       745     10393     11101     11175     10467     11103     11176     11177     10468
 -1      1179    4    0    1
 -2      6163      6253      6263      6173      6164      6254      6264      6174     11103     11176
 -2     11177     10468     10400     11108     11182     10474     11110     11183     11184     10475
 -1      1180    4    0    1
 -2      6164      6254      6264      6174      6165      6255      6265      6175     11110     11183
 -2     11184     10475     10407     11115     11189     10481     11117     11190     11191     10482
 -1      1181    4    0    1
 -2      6165      6255      6265      6175      6166      6256      6266      6176     11117     11190
 -2     11191     10482     10414     11122     11196     10488     11124     11197     11198     10489
 -1      1182    4    0    1
 -2      6166      6256      6266      6176      6167      6257      6267      6177     11124     11197
 -2     11198     10489     10421     11129     11203     10495     11131     11204     11205     10496
 -1      1183    4    0    1
 -2      6167      6257      6267      6177      6168      6258      6268      6178     11131     11204
 -2     11205     10496     10428     11136     11210     10502     11138     11211     11212     10503
 -1      1184    4    0    1
 -2      6168      6258      6268      6178      6169      6259      6269      6179     11138     11211
 -2     11212     10503     10435     11143     11217     10509     11145     11218     11219     10510
 -1      1185    4    0    1
 -2      6169      6259      6269      6179      6170      6260      6270      6180     11145     11218
 -2     11219     10510     10442     11150     11224     10516     11152     11225     11226     10517
 -1      1186    4    0    1
 -2      6170      6260      6270      6180      6171      6261      6271      6181     11152     11225
 -2     11226     10517     10449     11157     11231     10523     11159     11232     11233     10524
 -1      1187    4    0    1
 -2      6171      6261      6271      6181      6172      6262      6272      6182     11159     11232
 -2     11233     10524     10456     11164     11238     10530     11166     11239     11240     10531
 -1      1188    4    0    1
 -2      6172      6262      6272      6182      4826      4835      4836      4827     11166     11239
 -2     11240     10531     10463     11171     11245     10537      5169      5171      5172      5142
 -1      1189    4    0    1
 -2       430       439       440       431      6173      6263      6273      6183       775       777
 -2       778       748     10467     11175     11249     10541     11177     11250     11251     10542
 -1      1190    4    0    1
 -2      6173      6263      6273      6183      6174      6264      6274      6184     11177     11250
 -2     11251     10542     10474     11182     11256     10548     11184     11257     11258     10549
 -1      1191    4    0    1
 -2      6174      6264      6274      6184      6175      6265      6275      6185     11184     11257
 -2     11258     10549     10481     11189     11263     10555     11191     11264     11265     10556
 -1      1192    4    0    1
 -2      6175      6265      6275      6185      6176      6266      6276      6186     11191     11264
 -2     11265     10556     10488     11196     11270     10562     11198     11271     11272     10563
 -1      1193    4    0    1
 -2      6176      6266      6276      6186      6177      6267      6277      6187     11198     11271
 -2     11272     10563     10495     11203     11277     10569     11205     11278     11279     10570
 -1      1194    4    0    1
 -2      6177      6267      6277      6187      6178      6268      6278      6188     11205     11278
 -2     11279     10570     10502     11210     11284     10576     11212     11285     11286     10577
 -1      1195    4    0    1
 -2      6178      6268      6278      6188      6179      6269      6279      6189     11212     11285
 -2     11286     10577     10509     11217     11291     10583     11219     11292     11293     10584
 -1      1196    4    0    1
 -2      6179      6269      6279      6189      6180      6270      6280      6190     11219     11292
 -2     11293     10584     10516     11224     11298     10590     11226     11299     11300     10591
 -1      1197    4    0    1
 -2      6180      6270      6280      6190      6181      6271      6281      6191     11226     11299
 -2     11300     10591     10523     11231     11305     10597     11233     11306     11307     10598
 -1      1198    4    0    1
 -2      6181      6271      6281      6191      6182      6272      6282      6192     11233     11306
 -2     11307     10598     10530     11238     11312     10604     11240     11313     11314     10605
 -1      1199    4    0    1
 -2      6182      6272      6282      6192      4827      4836      4837      4828     11240     11313
 -2     11314     10605     10537     11245     11319     10611      5172      5174      5175      5145
 -1      1200    4    0    1
 -2       431       440       112       113      6183      6273      3414      3424       778       780
 -2       142       751     10541     11249      4254      4286     11251     11323      4287     10615
 -1      1201    4    0    1
 -2      6183      6273      3414      3424      6184      6274      3415      3425     11251     11323
 -2      4287     10615     10548     11256      4257      4289     11258     11327      4290     10619
 -1      1202    4    0    1
 -2      6184      6274      3415      3425      6185      6275      3416      3426     11258     11327
 -2      4290     10619     10555     11263      4260      4292     11265     11331      4293     10623
 -1      1203    4    0    1
 -2      6185      6275      3416      3426      6186      6276      3417      3427     11265     11331
 -2      4293     10623     10562     11270      4263      4295     11272     11335      4296     10627
 -1      1204    4    0    1
 -2      6186      6276      3417      3427      6187      6277      3418      3428     11272     11335
 -2      4296     10627     10569     11277      4266      4298     11279     11339      4299     10631
 -1      1205    4    0    1
 -2      6187      6277      3418      3428      6188      6278      3419      3429     11279     11339
 -2      4299     10631     10576     11284      4269      4301     11286     11343      4302     10635
 -1      1206    4    0    1
 -2      6188      6278      3419      3429      6189      6279      3420      3430     11286     11343
 -2      4302     10635     10583     11291      4272      4304     11293     11347      4305     10639
 -1      1207    4    0    1
 -2      6189      6279      3420      3430      6190      6280      3421      3431     11293     11347
 -2      4305     10639     10590     11298      4275      4307     11300     11351      4308     10643
 -1      1208    4    0    1
 -2      6190      6280      3421      3431      6191      6281      3422      3432     11300     11351
 -2      4308     10643     10597     11305      4278      4310     11307     11355      4311     10647
 -1      1209    4    0    1
 -2      6191      6281      3422      3432      6192      6282      3423      3433     11307     11355
 -2      4311     10647     10604     11312      4281      4313     11314     11359      4314     10651
 -1      1210    4    0    1
 -2      6192      6282      3423      3433      4828      4837       268       269     11314     11359
 -2      4314     10651     10611     11319      4284      4316      5175      5177       298      5148
 -1      1211    4    0    1
 -2        12        13       441       432      1556      1566      6283      6193        42       782
 -2       783       753      1912      1944     11365     10657      1945     11366     11367     10658
 -1      1212    4    0    1
 -2      1556      1566      6283      6193      1557      1567      6284      6194      1945     11366
 -2     11367     10658      1915      1947     11372     10664      1948     11373     11374     10665
 -1      1213    4    0    1
 -2      1557      1567      6284      6194      1558      1568      6285      6195      1948     11373
 -2     11374     10665      1918      1950     11379     10671      1951     11380     11381     10672
 -1      1214    4    0    1
 -2      1558      1568      6285      6195      1559      1569      6286      6196      1951     11380
 -2     11381     10672      1921      1953     11386     10678      1954     11387     11388     10679
 -1      1215    4    0    1
 -2      1559      1569      6286      6196      1560      1570      6287      6197      1954     11387
 -2     11388     10679      1924      1956     11393     10685      1957     11394     11395     10686
 -1      1216    4    0    1
 -2      1560      1570      6287      6197      1561      1571      6288      6198      1957     11394
 -2     11395     10686      1927      1959     11400     10692      1960     11401     11402     10693
 -1      1217    4    0    1
 -2      1561      1571      6288      6198      1562      1572      6289      6199      1960     11401
 -2     11402     10693      1930      1962     11407     10699      1963     11408     11409     10700
 -1      1218    4    0    1
 -2      1562      1572      6289      6199      1563      1573      6290      6200      1963     11408
 -2     11409     10700      1933      1965     11414     10706      1966     11415     11416     10707
 -1      1219    4    0    1
 -2      1563      1573      6290      6200      1564      1574      6291      6201      1966     11415
 -2     11416     10707      1936      1968     11421     10713      1969     11422     11423     10714
 -1      1220    4    0    1
 -2      1564      1574      6291      6201      1565      1575      6292      6202      1969     11422
 -2     11423     10714      1939      1971     11428     10720      1972     11429     11430     10721
 -1      1221    4    0    1
 -2      1565      1575      6292      6202       168       169      4838      4829      1972     11429
 -2     11430     10721      1942      1974     11435     10727       198      5179      5180      5150
 -1      1222    4    0    1
 -2       432       441       442       433      6193      6283      6293      6203       783       785
 -2       786       756     10657     11365     11439     10731     11367     11440     11441     10732
 -1      1223    4    0    1
 -2      6193      6283      6293      6203      6194      6284      6294      6204     11367     11440
 -2     11441     10732     10664     11372     11446     10738     11374     11447     11448     10739
 -1      1224    4    0    1
 -2      6194      6284      6294      6204      6195      6285      6295      6205     11374     11447
 -2     11448     10739     10671     11379     11453     10745     11381     11454     11455     10746
 -1      1225    4    0    1
 -2      6195      6285      6295      6205      6196      6286      6296      6206     11381     11454
 -2     11455     10746     10678     11386     11460     10752     11388     11461     11462     10753
 -1      1226    4    0    1
 -2      6196      6286      6296      6206      6197      6287      6297      6207     11388     11461
 -2     11462     10753     10685     11393     11467     10759     11395     11468     11469     10760
 -1      1227    4    0    1
 -2      6197      6287      6297      6207      6198      6288      6298      6208     11395     11468
 -2     11469     10760     10692     11400     11474     10766     11402     11475     11476     10767
 -1      1228    4    0    1
 -2      6198      6288      6298      6208      6199      6289      6299      6209     11402     11475
 -2     11476     10767     10699     11407     11481     10773     11409     11482     11483     10774
 -1      1229    4    0    1
 -2      6199      6289      6299      6209      6200      6290      6300      6210     11409     11482
 -2     11483     10774     10706     11414     11488     10780     11416     11489     11490     10781
 -1      1230    4    0    1
 -2      6200      6290      6300      6210      6201      6291      6301      6211     11416     11489
 -2     11490     10781     10713     11421     11495     10787     11423     11496     11497     10788
 -1      1231    4    0    1
 -2      6201      6291      6301      6211      6202      6292      6302      6212     11423     11496
 -2     11497     10788     10720     11428     11502     10794     11430     11503     11504     10795
 -1      1232    4    0    1
 -2      6202      6292      6302      6212      4829      4838      4839      4830     11430     11503
 -2     11504     10795     10727     11435     11509     10801      5180      5182      5183      5153
 -1      1233    4    0    1
 -2       433       442       443       434      6203      6293      6303      6213       786       788
 -2       789       759     10731     11439     11513     10805     11441     11514     11515     10806
 -1      1234    4    0    1
 -2      6203      6293      6303      6213      6204      6294      6304      6214     11441     11514
 -2     11515     10806     10738     11446     11520     10812     11448     11521     11522     10813
 -1      1235    4    0    1
 -2      6204      6294      6304      6214      6205      6295      6305      6215     11448     11521
 -2     11522     10813     10745     11453     11527     10819     11455     11528     11529     10820
 -1      1236    4    0    1
 -2      6205      6295      6305      6215      6206      6296      6306      6216     11455     11528
 -2     11529     10820     10752     11460     11534     10826     11462     11535     11536     10827
 -1      1237    4    0    1
 -2      6206      6296      6306      6216      6207      6297      6307      6217     11462     11535
 -2     11536     10827     10759     11467     11541     10833     11469     11542     11543     10834
 -1      1238    4    0    1
 -2      6207      6297      6307      6217      6208      6298      6308      6218     11469     11542
 -2     11543     10834     10766     11474     11548     10840     11476     11549     11550     10841
 -1      1239    4    0    1
 -2      6208      6298      6308      6218      6209      6299      6309      6219     11476     11549
 -2     11550     10841     10773     11481     11555     10847     11483     11556     11557     10848
 -1      1240    4    0    1
 -2      6209      6299      6309      6219      6210      6300      6310      6220     11483     11556
 -2     11557     10848     10780     11488     11562     10854     11490     11563     11564     10855
 -1      1241    4    0    1
 -2      6210      6300      6310      6220      6211      6301      6311      6221     11490     11563
 -2     11564     10855     10787     11495     11569     10861     11497     11570     11571     10862
 -1      1242    4    0    1
 -2      6211      6301      6311      6221      6212      6302      6312      6222     11497     11570
 -2     11571     10862     10794     11502     11576     10868     11504     11577     11578     10869
 -1      1243    4    0    1
 -2      6212      6302      6312      6222      4830      4839      4840      4831     11504     11577
 -2     11578     10869     10801     11509     11583     10875      5183      5185      5186      5156
 -1      1244    4    0    1
 -2       434       443       444       435      6213      6303      6313      6223       789       791
 -2       792       762     10805     11513     11587     10879     11515     11588     11589     10880
 -1      1245    4    0    1
 -2      6213      6303      6313      6223      6214      6304      6314      6224     11515     11588
 -2     11589     10880     10812     11520     11594     10886     11522     11595     11596     10887
 -1      1246    4    0    1
 -2      6214      6304      6314      6224      6215      6305      6315      6225     11522     11595
 -2     11596     10887     10819     11527     11601     10893     11529     11602     11603     10894
 -1      1247    4    0    1
 -2      6215      6305      6315      6225      6216      6306      6316      6226     11529     11602
 -2     11603     10894     10826     11534     11608     10900     11536     11609     11610     10901
 -1      1248    4    0    1
 -2      6216      6306      6316      6226      6217      6307      6317      6227     11536     11609
 -2     11610     10901     10833     11541     11615     10907     11543     11616     11617     10908
 -1      1249    4    0    1
 -2      6217      6307      6317      6227      6218      6308      6318      6228     11543     11616
 -2     11617     10908     10840     11548     11622     10914     11550     11623     11624     10915
 -1      1250    4    0    1
 -2      6218      6308      6318      6228      6219      6309      6319      6229     11550     11623
 -2     11624     10915     10847     11555     11629     10921     11557     11630     11631     10922
 -1      1251    4    0    1
 -2      6219      6309      6319      6229      6220      6310      6320      6230     11557     11630
 -2     11631     10922     10854     11562     11636     10928     11564     11637     11638     10929
 -1      1252    4    0    1
 -2      6220      6310      6320      6230      6221      6311      6321      6231     11564     11637
 -2     11638     10929     10861     11569     11643     10935     11571     11644     11645     10936
 -1      1253    4    0    1
 -2      6221      6311      6321      6231      6222      6312      6322      6232     11571     11644
 -2     11645     10936     10868     11576     11650     10942     11578     11651     11652     10943
 -1      1254    4    0    1
 -2      6222      6312      6322      6232      4831      4840      4841      4832     11578     11651
 -2     11652     10943     10875     11583     11657     10949      5186      5188      5189      5159
 -1      1255    4    0    1
 -2       435       444       445       436      6223      6313      6323      6233       792       794
 -2       795       765     10879     11587     11661     10953     11589     11662     11663     10954
 -1      1256    4    0    1
 -2      6223      6313      6323      6233      6224      6314      6324      6234     11589     11662
 -2     11663     10954     10886     11594     11668     10960     11596     11669     11670     10961
 -1      1257    4    0    1
 -2      6224      6314      6324      6234      6225      6315      6325      6235     11596     11669
 -2     11670     10961     10893     11601     11675     10967     11603     11676     11677     10968
 -1      1258    4    0    1
 -2      6225      6315      6325      6235      6226      6316      6326      6236     11603     11676
 -2     11677     10968     10900     11608     11682     10974     11610     11683     11684     10975
 -1      1259    4    0    1
 -2      6226      6316      6326      6236      6227      6317      6327      6237     11610     11683
 -2     11684     10975     10907     11615     11689     10981     11617     11690     11691     10982
 -1      1260    4    0    1
 -2      6227      6317      6327      6237      6228      6318      6328      6238     11617     11690
 -2     11691     10982     10914     11622     11696     10988     11624     11697     11698     10989
 -1      1261    4    0    1
 -2      6228      6318      6328      6238      6229      6319      6329      6239     11624     11697
 -2     11698     10989     10921     11629     11703     10995     11631     11704     11705     10996
 -1      1262    4    0    1
 -2      6229      6319      6329      6239      6230      6320      6330      6240     11631     11704
 -2     11705     10996     10928     11636     11710     11002     11638     11711     11712     11003
 -1      1263    4    0    1
 -2      6230      6320      6330      6240      6231      6321      6331      6241     11638     11711
 -2     11712     11003     10935     11643     11717     11009     11645     11718     11719     11010
 -1      1264    4    0    1
 -2      6231      6321      6331      6241      6232      6322      6332      6242     11645     11718
 -2     11719     11010     10942     11650     11724     11016     11652     11725     11726     11017
 -1      1265    4    0    1
 -2      6232      6322      6332      6242      4832      4841      4842      4833     11652     11725
 -2     11726     11017     10949     11657     11731     11023      5189      5191      5192      5162
 -1      1266    4    0    1
 -2       436       445       446       437      6233      6323      6333      6243       795       797
 -2       798       768     10953     11661     11735     11027     11663     11736     11737     11028
 -1      1267    4    0    1
 -2      6233      6323      6333      6243      6234      6324      6334      6244     11663     11736
 -2     11737     11028     10960     11668     11742     11034     11670     11743     11744     11035
 -1      1268    4    0    1
 -2      6234      6324      6334      6244      6235      6325      6335      6245     11670     11743
 -2     11744     11035     10967     11675     11749     11041     11677     11750     11751     11042
 -1      1269    4    0    1
 -2      6235      6325      6335      6245      6236      6326      6336      6246     11677     11750
 -2     11751     11042     10974     11682     11756     11048     11684     11757     11758     11049
 -1      1270    4    0    1
 -2      6236      6326      6336      6246      6237      6327      6337      6247     11684     11757
 -2     11758     11049     10981     11689     11763     11055     11691     11764     11765     11056
 -1      1271    4    0    1
 -2      6237      6327      6337      6247      6238      6328      6338      6248     11691     11764
 -2     11765     11056     10988     11696     11770     11062     11698     11771     11772     11063
 -1      1272    4    0    1
 -2      6238      6328      6338      6248      6239      6329      6339      6249     11698     11771
 -2     11772     11063     10995     11703     11777     11069     11705     11778     11779     11070
 -1      1273    4    0    1
 -2      6239      6329      6339      6249      6240      6330      6340      6250     11705     11778
 -2     11779     11070     11002     11710     11784     11076     11712     11785     11786     11077
 -1      1274    4    0    1
 -2      6240      6330      6340      6250      6241      6331      6341      6251     11712     11785
 -2     11786     11077     11009     11717     11791     11083     11719     11792     11793     11084
 -1      1275    4    0    1
 -2      6241      6331      6341      6251      6242      6332      6342      6252     11719     11792
 -2     11793     11084     11016     11724     11798     11090     11726     11799     11800     11091
 -1      1276    4    0    1
 -2      6242      6332      6342      6252      4833      4842      4843      4834     11726     11799
 -2     11800     11091     11023     11731     11805     11097      5192      5194      5195      5165
 -1      1277    4    0    1
 -2       437       446       447       438      6243      6333      6343      6253       798       800
 -2       801       771     11027     11735     11809     11101     11737     11810     11811     11102
 -1      1278    4    0    1
 -2      6243      6333      6343      6253      6244      6334      6344      6254     11737     11810
 -2     11811     11102     11034     11742     11816     11108     11744     11817     11818     11109
 -1      1279    4    0    1
 -2      6244      6334      6344      6254      6245      6335      6345      6255     11744     11817
 -2     11818     11109     11041     11749     11823     11115     11751     11824     11825     11116
 -1      1280    4    0    1
 -2      6245      6335      6345      6255      6246      6336      6346      6256     11751     11824
 -2     11825     11116     11048     11756     11830     11122     11758     11831     11832     11123
 -1      1281    4    0    1
 -2      6246      6336      6346      6256      6247      6337      6347      6257     11758     11831
 -2     11832     11123     11055     11763     11837     11129     11765     11838     11839     11130
 -1      1282    4    0    1
 -2      6247      6337      6347      6257      6248      6338      6348      6258     11765     11838
 -2     11839     11130     11062     11770     11844     11136     11772     11845     11846     11137
 -1      1283    4    0    1
 -2      6248      6338      6348      6258      6249      6339      6349      6259     11772     11845
 -2     11846     11137     11069     11777     11851     11143     11779     11852     11853     11144
 -1      1284    4    0    1
 -2      6249      6339      6349      6259      6250      6340      6350      6260     11779     11852
 -2     11853     11144     11076     11784     11858     11150     11786     11859     11860     11151
 -1      1285    4    0    1
 -2      6250      6340      6350      6260      6251      6341      6351      6261     11786     11859
 -2     11860     11151     11083     11791     11865     11157     11793     11866     11867     11158
 -1      1286    4    0    1
 -2      6251      6341      6351      6261      6252      6342      6352      6262     11793     11866
 -2     11867     11158     11090     11798     11872     11164     11800     11873     11874     11165
 -1      1287    4    0    1
 -2      6252      6342      6352      6262      4834      4843      4844      4835     11800     11873
 -2     11874     11165     11097     11805     11879     11171      5195      5197      5198      5168
 -1      1288    4    0    1
 -2       438       447       448       439      6253      6343      6353      6263       801       803
 -2       804       774     11101     11809     11883     11175     11811     11884     11885     11176
 -1      1289    4    0    1
 -2      6253      6343      6353      6263      6254      6344      6354      6264     11811     11884
 -2     11885     11176     11108     11816     11890     11182     11818     11891     11892     11183
 -1      1290    4    0    1
 -2      6254      6344      6354      6264      6255      6345      6355      6265     11818     11891
 -2     11892     11183     11115     11823     11897     11189     11825     11898     11899     11190
 -1      1291    4    0    1
 -2      6255      6345      6355      6265      6256      6346      6356      6266     11825     11898
 -2     11899     11190     11122     11830     11904     11196     11832     11905     11906     11197
 -1      1292    4    0    1
 -2      6256      6346      6356      6266      6257      6347      6357      6267     11832     11905
 -2     11906     11197     11129     11837     11911     11203     11839     11912     11913     11204
 -1      1293    4    0    1
 -2      6257      6347      6357      6267      6258      6348      6358      6268     11839     11912
 -2     11913     11204     11136     11844     11918     11210     11846     11919     11920     11211
 -1      1294    4    0    1
 -2      6258      6348      6358      6268      6259      6349      6359      6269     11846     11919
 -2     11920     11211     11143     11851     11925     11217     11853     11926     11927     11218
 -1      1295    4    0    1
 -2      6259      6349      6359      6269      6260      6350      6360      6270     11853     11926
 -2     11927     11218     11150     11858     11932     11224     11860     11933     11934     11225
 -1      1296    4    0    1
 -2      6260      6350      6360      6270      6261      6351      6361      6271     11860     11933
 -2     11934     11225     11157     11865     11939     11231     11867     11940     11941     11232
 -1      1297    4    0    1
 -2      6261      6351      6361      6271      6262      6352      6362      6272     11867     11940
 -2     11941     11232     11164     11872     11946     11238     11874     11947     11948     11239
 -1      1298    4    0    1
 -2      6262      6352      6362      6272      4835      4844      4845      4836     11874     11947
 -2     11948     11239     11171     11879     11953     11245      5198      5200      5201      5171
 -1      1299    4    0    1
 -2       439       448       449       440      6263      6353      6363      6273       804       806
 -2       807       777     11175     11883     11957     11249     11885     11958     11959     11250
 -1      1300    4    0    1
 -2      6263      6353      6363      6273      6264      6354      6364      6274     11885     11958
 -2     11959     11250     11182     11890     11964     11256     11892     11965     11966     11257
 -1      1301    4    0    1
 -2      6264      6354      6364      6274      6265      6355      6365      6275     11892     11965
 -2     11966     11257     11189     11897     11971     11263     11899     11972     11973     11264
 -1      1302    4    0    1
 -2      6265      6355      6365      6275      6266      6356      6366      6276     11899     11972
 -2     11973     11264     11196     11904     11978     11270     11906     11979     11980     11271
 -1      1303    4    0    1
 -2      6266      6356      6366      6276      6267      6357      6367      6277     11906     11979
 -2     11980     11271     11203     11911     11985     11277     11913     11986     11987     11278
 -1      1304    4    0    1
 -2      6267      6357      6367      6277      6268      6358      6368      6278     11913     11986
 -2     11987     11278     11210     11918     11992     11284     11920     11993     11994     11285
 -1      1305    4    0    1
 -2      6268      6358      6368      6278      6269      6359      6369      6279     11920     11993
 -2     11994     11285     11217     11925     11999     11291     11927     12000     12001     11292
 -1      1306    4    0    1
 -2      6269      6359      6369      6279      6270      6360      6370      6280     11927     12000
 -2     12001     11292     11224     11932     12006     11298     11934     12007     12008     11299
 -1      1307    4    0    1
 -2      6270      6360      6370      6280      6271      6361      6371      6281     11934     12007
 -2     12008     11299     11231     11939     12013     11305     11941     12014     12015     11306
 -1      1308    4    0    1
 -2      6271      6361      6371      6281      6272      6362      6372      6282     11941     12014
 -2     12015     11306     11238     11946     12020     11312     11948     12021     12022     11313
 -1      1309    4    0    1
 -2      6272      6362      6372      6282      4836      4845      4846      4837     11948     12021
 -2     12022     11313     11245     11953     12027     11319      5201      5203      5204      5174
 -1      1310    4    0    1
 -2       440       449       111       112      6273      6363      3404      3414       807       809
 -2       141       780     11249     11957      4222      4254     11959     12031      4255     11323
 -1      1311    4    0    1
 -2      6273      6363      3404      3414      6274      6364      3405      3415     11959     12031
 -2      4255     11323     11256     11964      4225      4257     11966     12035      4258     11327
 -1      1312    4    0    1
 -2      6274      6364      3405      3415      6275      6365      3406      3416     11966     12035
 -2      4258     11327     11263     11971      4228      4260     11973     12039      4261     11331
 -1      1313    4    0    1
 -2      6275      6365      3406      3416      6276      6366      3407      3417     11973     12039
 -2      4261     11331     11270     11978      4231      4263     11980     12043      4264     11335
 -1      1314    4    0    1
 -2      6276      6366      3407      3417      6277      6367      3408      3418     11980     12043
 -2      4264     11335     11277     11985      4234      4266     11987     12047      4267     11339
 -1      1315    4    0    1
 -2      6277      6367      3408      3418      6278      6368      3409      3419     11987     12047
 -2      4267     11339     11284     11992      4237      4269     11994     12051      4270     11343
 -1      1316    4    0    1
 -2      6278      6368      3409      3419      6279      6369      3410      3420     11994     12051
 -2      4270     11343     11291     11999      4240      4272     12001     12055      4273     11347
 -1      1317    4    0    1
 -2      6279      6369      3410      3420      6280      6370      3411      3421     12001     12055
 -2      4273     11347     11298     12006      4243      4275     12008     12059      4276     11351
 -1      1318    4    0    1
 -2      6280      6370      3411      3421      6281      6371      3412      3422     12008     12059
 -2      4276     11351     11305     12013      4246      4278     12015     12063      4279     11355
 -1      1319    4    0    1
 -2      6281      6371      3412      3422      6282      6372      3413      3423     12015     12063
 -2      4279     11355     11312     12020      4249      4281     12022     12067      4282     11359
 -1      1320    4    0    1
 -2      6282      6372      3413      3423      4837      4846       267       268     12022     12067
 -2      4282     11359     11319     12027      4252      4284      5204      5206       297      5177
 -1      1321    4    0    1
 -2        13        14       450       441      1566      1576      6373      6283        43       811
 -2       812       782      1944      1976     12073     11365      1977     12074     12075     11366
 -1      1322    4    0    1
 -2      1566      1576      6373      6283      1567      1577      6374      6284      1977     12074
 -2     12075     11366      1947      1979     12080     11372      1980     12081     12082     11373
 -1      1323    4    0    1
 -2      1567      1577      6374      6284      1568      1578      6375      6285      1980     12081
 -2     12082     11373      1950      1982     12087     11379      1983     12088     12089     11380
 -1      1324    4    0    1
 -2      1568      1578      6375      6285      1569      1579      6376      6286      1983     12088
 -2     12089     11380      1953      1985     12094     11386      1986     12095     12096     11387
 -1      1325    4    0    1
 -2      1569      1579      6376      6286      1570      1580      6377      6287      1986     12095
 -2     12096     11387      1956      1988     12101     11393      1989     12102     12103     11394
 -1      1326    4    0    1
 -2      1570      1580      6377      6287      1571      1581      6378      6288      1989     12102
 -2     12103     11394      1959      1991     12108     11400      1992     12109     12110     11401
 -1      1327    4    0    1
 -2      1571      1581      6378      6288      1572      1582      6379      6289      1992     12109
 -2     12110     11401      1962      1994     12115     11407      1995     12116     12117     11408
 -1      1328    4    0    1
 -2      1572      1582      6379      6289      1573      1583      6380      6290      1995     12116
 -2     12117     11408      1965      1997     12122     11414      1998     12123     12124     11415
 -1      1329    4    0    1
 -2      1573      1583      6380      6290      1574      1584      6381      6291      1998     12123
 -2     12124     11415      1968      2000     12129     11421      2001     12130     12131     11422
 -1      1330    4    0    1
 -2      1574      1584      6381      6291      1575      1585      6382      6292      2001     12130
 -2     12131     11422      1971      2003     12136     11428      2004     12137     12138     11429
 -1      1331    4    0    1
 -2      1575      1585      6382      6292       169       170      4847      4838      2004     12137
 -2     12138     11429      1974      2006     12143     11435       199      5208      5209      5179
 -1      1332    4    0    1
 -2       441       450       451       442      6283      6373      6383      6293       812       814
 -2       815       785     11365     12073     12147     11439     12075     12148     12149     11440
 -1      1333    4    0    1
 -2      6283      6373      6383      6293      6284      6374      6384      6294     12075     12148
 -2     12149     11440     11372     12080     12154     11446     12082     12155     12156     11447
 -1      1334    4    0    1
 -2      6284      6374      6384      6294      6285      6375      6385      6295     12082     12155
 -2     12156     11447     11379     12087     12161     11453     12089     12162     12163     11454
 -1      1335    4    0    1
 -2      6285      6375      6385      6295      6286      6376      6386      6296     12089     12162
 -2     12163     11454     11386     12094     12168     11460     12096     12169     12170     11461
 -1      1336    4    0    1
 -2      6286      6376      6386      6296      6287      6377      6387      6297     12096     12169
 -2     12170     11461     11393     12101     12175     11467     12103     12176     12177     11468
 -1      1337    4    0    1
 -2      6287      6377      6387      6297      6288      6378      6388      6298     12103     12176
 -2     12177     11468     11400     12108     12182     11474     12110     12183     12184     11475
 -1      1338    4    0    1
 -2      6288      6378      6388      6298      6289      6379      6389      6299     12110     12183
 -2     12184     11475     11407     12115     12189     11481     12117     12190     12191     11482
 -1      1339    4    0    1
 -2      6289      6379      6389      6299      6290      6380      6390      6300     12117     12190
 -2     12191     11482     11414     12122     12196     11488     12124     12197     12198     11489
 -1      1340    4    0    1
 -2      6290      6380      6390      6300      6291      6381      6391      6301     12124     12197
 -2     12198     11489     11421     12129     12203     11495     12131     12204     12205     11496
 -1      1341    4    0    1
 -2      6291      6381      6391      6301      6292      6382      6392      6302     12131     12204
 -2     12205     11496     11428     12136     12210     11502     12138     12211     12212     11503
 -1      1342    4    0    1
 -2      6292      6382      6392      6302      4838      4847      4848      4839     12138     12211
 -2     12212     11503     11435     12143     12217     11509      5209      5211      5212      5182
 -1      1343    4    0    1
 -2       442       451       452       443      6293      6383      6393      6303       815       817
 -2       818       788     11439     12147     12221     11513     12149     12222     12223     11514
 -1      1344    4    0    1
 -2      6293      6383      6393      6303      6294      6384      6394      6304     12149     12222
 -2     12223     11514     11446     12154     12228     11520     12156     12229     12230     11521
 -1      1345    4    0    1
 -2      6294      6384      6394      6304      6295      6385      6395      6305     12156     12229
 -2     12230     11521     11453     12161     12235     11527     12163     12236     12237     11528
 -1      1346    4    0    1
 -2      6295      6385      6395      6305      6296      6386      6396      6306     12163     12236
 -2     12237     11528     11460     12168     12242     11534     12170     12243     12244     11535
 -1      1347    4    0    1
 -2      6296      6386      6396      6306      6297      6387      6397      6307     12170     12243
 -2     12244     11535     11467     12175     12249     11541     12177     12250     12251     11542
 -1      1348    4    0    1
 -2      6297      6387      6397      6307      6298      6388      6398      6308     12177     12250
 -2     12251     11542     11474     12182     12256     11548     12184     12257     12258     11549
 -1      1349    4    0    1
 -2      6298      6388      6398      6308      6299      6389      6399      6309     12184     12257
 -2     12258     11549     11481     12189     12263     11555     12191     12264     12265     11556
 -1      1350    4    0    1
 -2      6299      6389      6399      6309      6300      6390      6400      6310     12191     12264
 -2     12265     11556     11488     12196     12270     11562     12198     12271     12272     11563
 -1      1351    4    0    1
 -2      6300      6390      6400      6310      6301      6391      6401      6311     12198     12271
 -2     12272     11563     11495     12203     12277     11569     12205     12278     12279     11570
 -1      1352    4    0    1
 -2      6301      6391      6401      6311      6302      6392      6402      6312     12205     12278
 -2     12279     11570     11502     12210     12284     11576     12212     12285     12286     11577
 -1      1353    4    0    1
 -2      6302      6392      6402      6312      4839      4848      4849      4840     12212     12285
 -2     12286     11577     11509     12217     12291     11583      5212      5214      5215      5185
 -1      1354    4    0    1
 -2       443       452       453       444      6303      6393      6403      6313       818       820
 -2       821       791     11513     12221     12295     11587     12223     12296     12297     11588
 -1      1355    4    0    1
 -2      6303      6393      6403      6313      6304      6394      6404      6314     12223     12296
 -2     12297     11588     11520     12228     12302     11594     12230     12303     12304     11595
 -1      1356    4    0    1
 -2      6304      6394      6404      6314      6305      6395      6405      6315     12230     12303
 -2     12304     11595     11527     12235     12309     11601     12237     12310     12311     11602
 -1      1357    4    0    1
 -2      6305      6395      6405      6315      6306      6396      6406      6316     12237     12310
 -2     12311     11602     11534     12242     12316     11608     12244     12317     12318     11609
 -1      1358    4    0    1
 -2      6306      6396      6406      6316      6307      6397      6407      6317     12244     12317
 -2     12318     11609     11541     12249     12323     11615     12251     12324     12325     11616
 -1      1359    4    0    1
 -2      6307      6397      6407      6317      6308      6398      6408      6318     12251     12324
 -2     12325     11616     11548     12256     12330     11622     12258     12331     12332     11623
 -1      1360    4    0    1
 -2      6308      6398      6408      6318      6309      6399      6409      6319     12258     12331
 -2     12332     11623     11555     12263     12337     11629     12265     12338     12339     11630
 -1      1361    4    0    1
 -2      6309      6399      6409      6319      6310      6400      6410      6320     12265     12338
 -2     12339     11630     11562     12270     12344     11636     12272     12345     12346     11637
 -1      1362    4    0    1
 -2      6310      6400      6410      6320      6311      6401      6411      6321     12272     12345
 -2     12346     11637     11569     12277     12351     11643     12279     12352     12353     11644
 -1      1363    4    0    1
 -2      6311      6401      6411      6321      6312      6402      6412      6322     12279     12352
 -2     12353     11644     11576     12284     12358     11650     12286     12359     12360     11651
 -1      1364    4    0    1
 -2      6312      6402      6412      6322      4840      4849      4850      4841     12286     12359
 -2     12360     11651     11583     12291     12365     11657      5215      5217      5218      5188
 -1      1365    4    0    1
 -2       444       453       454       445      6313      6403      6413      6323       821       823
 -2       824       794     11587     12295     12369     11661     12297     12370     12371     11662
 -1      1366    4    0    1
 -2      6313      6403      6413      6323      6314      6404      6414      6324     12297     12370
 -2     12371     11662     11594     12302     12376     11668     12304     12377     12378     11669
 -1      1367    4    0    1
 -2      6314      6404      6414      6324      6315      6405      6415      6325     12304     12377
 -2     12378     11669     11601     12309     12383     11675     12311     12384     12385     11676
 -1      1368    4    0    1
 -2      6315      6405      6415      6325      6316      6406      6416      6326     12311     12384
 -2     12385     11676     11608     12316     12390     11682     12318     12391     12392     11683
 -1      1369    4    0    1
 -2      6316      6406      6416      6326      6317      6407      6417      6327     12318     12391
 -2     12392     11683     11615     12323     12397     11689     12325     12398     12399     11690
 -1      1370    4    0    1
 -2      6317      6407      6417      6327      6318      6408      6418      6328     12325     12398
 -2     12399     11690     11622     12330     12404     11696     12332     12405     12406     11697
 -1      1371    4    0    1
 -2      6318      6408      6418      6328      6319      6409      6419      6329     12332     12405
 -2     12406     11697     11629     12337     12411     11703     12339     12412     12413     11704
 -1      1372    4    0    1
 -2      6319      6409      6419      6329      6320      6410      6420      6330     12339     12412
 -2     12413     11704     11636     12344     12418     11710     12346     12419     12420     11711
 -1      1373    4    0    1
 -2      6320      6410      6420      6330      6321      6411      6421      6331     12346     12419
 -2     12420     11711     11643     12351     12425     11717     12353     12426     12427     11718
 -1      1374    4    0    1
 -2      6321      6411      6421      6331      6322      6412      6422      6332     12353     12426
 -2     12427     11718     11650     12358     12432     11724     12360     12433     12434     11725
 -1      1375    4    0    1
 -2      6322      6412      6422      6332      4841      4850      4851      4842     12360     12433
 -2     12434     11725     11657     12365     12439     11731      5218      5220      5221      5191
 -1      1376    4    0    1
 -2       445       454       455       446      6323      6413      6423      6333       824       826
 -2       827       797     11661     12369     12443     11735     12371     12444     12445     11736
 -1      1377    4    0    1
 -2      6323      6413      6423      6333      6324      6414      6424      6334     12371     12444
 -2     12445     11736     11668     12376     12450     11742     12378     12451     12452     11743
 -1      1378    4    0    1
 -2      6324      6414      6424      6334      6325      6415      6425      6335     12378     12451
 -2     12452     11743     11675     12383     12457     11749     12385     12458     12459     11750
 -1      1379    4    0    1
 -2      6325      6415      6425      6335      6326      6416      6426      6336     12385     12458
 -2     12459     11750     11682     12390     12464     11756     12392     12465     12466     11757
 -1      1380    4    0    1
 -2      6326      6416      6426      6336      6327      6417      6427      6337     12392     12465
 -2     12466     11757     11689     12397     12471     11763     12399     12472     12473     11764
 -1      1381    4    0    1
 -2      6327      6417      6427      6337      6328      6418      6428      6338     12399     12472
 -2     12473     11764     11696     12404     12478     11770     12406     12479     12480     11771
 -1      1382    4    0    1
 -2      6328      6418      6428      6338      6329      6419      6429      6339     12406     12479
 -2     12480     11771     11703     12411     12485     11777     12413     12486     12487     11778
 -1      1383    4    0    1
 -2      6329      6419      6429      6339      6330      6420      6430      6340     12413     12486
 -2     12487     11778     11710     12418     12492     11784     12420     12493     12494     11785
 -1      1384    4    0    1
 -2      6330      6420      6430      6340      6331      6421      6431      6341     12420     12493
 -2     12494     11785     11717     12425     12499     11791     12427     12500     12501     11792
 -1      1385    4    0    1
 -2      6331      6421      6431      6341      6332      6422      6432      6342     12427     12500
 -2     12501     11792     11724     12432     12506     11798     12434     12507     12508     11799
 -1      1386    4    0    1
 -2      6332      6422      6432      6342      4842      4851      4852      4843     12434     12507
 -2     12508     11799     11731     12439     12513     11805      5221      5223      5224      5194
 -1      1387    4    0    1
 -2       446       455       456       447      6333      6423      6433      6343       827       829
 -2       830       800     11735     12443     12517     11809     12445     12518     12519     11810
 -1      1388    4    0    1
 -2      6333      6423      6433      6343      6334      6424      6434      6344     12445     12518
 -2     12519     11810     11742     12450     12524     11816     12452     12525     12526     11817
 -1      1389    4    0    1
 -2      6334      6424      6434      6344      6335      6425      6435      6345     12452     12525
 -2     12526     11817     11749     12457     12531     11823     12459     12532     12533     11824
 -1      1390    4    0    1
 -2      6335      6425      6435      6345      6336      6426      6436      6346     12459     12532
 -2     12533     11824     11756     12464     12538     11830     12466     12539     12540     11831
 -1      1391    4    0    1
 -2      6336      6426      6436      6346      6337      6427      6437      6347     12466     12539
 -2     12540     11831     11763     12471     12545     11837     12473     12546     12547     11838
 -1      1392    4    0    1
 -2      6337      6427      6437      6347      6338      6428      6438      6348     12473     12546
 -2     12547     11838     11770     12478     12552     11844     12480     12553     12554     11845
 -1      1393    4    0    1
 -2      6338      6428      6438      6348      6339      6429      6439      6349     12480     12553
 -2     12554     11845     11777     12485     12559     11851     12487     12560     12561     11852
 -1      1394    4    0    1
 -2      6339      6429      6439      6349      6340      6430      6440      6350     12487     12560
 -2     12561     11852     11784     12492     12566     11858     12494     12567     12568     11859
 -1      1395    4    0    1
 -2      6340      6430      6440      6350      6341      6431      6441      6351     12494     12567
 -2     12568     11859     11791     12499     12573     11865     12501     12574     12575     11866
 -1      1396    4    0    1
 -2      6341      6431      6441      6351      6342      6432      6442      6352     12501     12574
 -2     12575     11866     11798     12506     12580     11872     12508     12581     12582     11873
 -1      1397    4    0    1
 -2      6342      6432      6442      6352      4843      4852      4853      4844     12508     12581
 -2     12582     11873     11805     12513     12587     11879      5224      5226      5227      5197
 -1      1398    4    0    1
 -2       447       456       457       448      6343      6433      6443      6353       830       832
 -2       833       803     11809     12517     12591     11883     12519     12592     12593     11884
 -1      1399    4    0    1
 -2      6343      6433      6443      6353      6344      6434      6444      6354     12519     12592
 -2     12593     11884     11816     12524     12598     11890     12526     12599     12600     11891
 -1      1400    4    0    1
 -2      6344      6434      6444      6354      6345      6435      6445      6355     12526     12599
 -2     12600     11891     11823     12531     12605     11897     12533     12606     12607     11898
 -1      1401    4    0    1
 -2      6345      6435      6445      6355      6346      6436      6446      6356     12533     12606
 -2     12607     11898     11830     12538     12612     11904     12540     12613     12614     11905
 -1      1402    4    0    1
 -2      6346      6436      6446      6356      6347      6437      6447      6357     12540     12613
 -2     12614     11905     11837     12545     12619     11911     12547     12620     12621     11912
 -1      1403    4    0    1
 -2      6347      6437      6447      6357      6348      6438      6448      6358     12547     12620
 -2     12621     11912     11844     12552     12626     11918     12554     12627     12628     11919
 -1      1404    4    0    1
 -2      6348      6438      6448      6358      6349      6439      6449      6359     12554     12627
 -2     12628     11919     11851     12559     12633     11925     12561     12634     12635     11926
 -1      1405    4    0    1
 -2      6349      6439      6449      6359      6350      6440      6450      6360     12561     12634
 -2     12635     11926     11858     12566     12640     11932     12568     12641     12642     11933
 -1      1406    4    0    1
 -2      6350      6440      6450      6360      6351      6441      6451      6361     12568     12641
 -2     12642     11933     11865     12573     12647     11939     12575     12648     12649     11940
 -1      1407    4    0    1
 -2      6351      6441      6451      6361      6352      6442      6452      6362     12575     12648
 -2     12649     11940     11872     12580     12654     11946     12582     12655     12656     11947
 -1      1408    4    0    1
 -2      6352      6442      6452      6362      4844      4853      4854      4845     12582     12655
 -2     12656     11947     11879     12587     12661     11953      5227      5229      5230      5200
 -1      1409    4    0    1
 -2       448       457       458       449      6353      6443      6453      6363       833       835
 -2       836       806     11883     12591     12665     11957     12593     12666     12667     11958
 -1      1410    4    0    1
 -2      6353      6443      6453      6363      6354      6444      6454      6364     12593     12666
 -2     12667     11958     11890     12598     12672     11964     12600     12673     12674     11965
 -1      1411    4    0    1
 -2      6354      6444      6454      6364      6355      6445      6455      6365     12600     12673
 -2     12674     11965     11897     12605     12679     11971     12607     12680     12681     11972
 -1      1412    4    0    1
 -2      6355      6445      6455      6365      6356      6446      6456      6366     12607     12680
 -2     12681     11972     11904     12612     12686     11978     12614     12687     12688     11979
 -1      1413    4    0    1
 -2      6356      6446      6456      6366      6357      6447      6457      6367     12614     12687
 -2     12688     11979     11911     12619     12693     11985     12621     12694     12695     11986
 -1      1414    4    0    1
 -2      6357      6447      6457      6367      6358      6448      6458      6368     12621     12694
 -2     12695     11986     11918     12626     12700     11992     12628     12701     12702     11993
 -1      1415    4    0    1
 -2      6358      6448      6458      6368      6359      6449      6459      6369     12628     12701
 -2     12702     11993     11925     12633     12707     11999     12635     12708     12709     12000
 -1      1416    4    0    1
 -2      6359      6449      6459      6369      6360      6450      6460      6370     12635     12708
 -2     12709     12000     11932     12640     12714     12006     12642     12715     12716     12007
 -1      1417    4    0    1
 -2      6360      6450      6460      6370      6361      6451      6461      6371     12642     12715
 -2     12716     12007     11939     12647     12721     12013     12649     12722     12723     12014
 -1      1418    4    0    1
 -2      6361      6451      6461      6371      6362      6452      6462      6372     12649     12722
 -2     12723     12014     11946     12654     12728     12020     12656     12729     12730     12021
 -1      1419    4    0    1
 -2      6362      6452      6462      6372      4845      4854      4855      4846     12656     12729
 -2     12730     12021     11953     12661     12735     12027      5230      5232      5233      5203
 -1      1420    4    0    1
 -2       449       458       110       111      6363      6453      3394      3404       836       838
 -2       140       809     11957     12665      4190      4222     12667     12739      4223     12031
 -1      1421    4    0    1
 -2      6363      6453      3394      3404      6364      6454      3395      3405     12667     12739
 -2      4223     12031     11964     12672      4193      4225     12674     12743      4226     12035
 -1      1422    4    0    1
 -2      6364      6454      3395      3405      6365      6455      3396      3406     12674     12743
 -2      4226     12035     11971     12679      4196      4228     12681     12747      4229     12039
 -1      1423    4    0    1
 -2      6365      6455      3396      3406      6366      6456      3397      3407     12681     12747
 -2      4229     12039     11978     12686      4199      4231     12688     12751      4232     12043
 -1      1424    4    0    1
 -2      6366      6456      3397      3407      6367      6457      3398      3408     12688     12751
 -2      4232     12043     11985     12693      4202      4234     12695     12755      4235     12047
 -1      1425    4    0    1
 -2      6367      6457      3398      3408      6368      6458      3399      3409     12695     12755
 -2      4235     12047     11992     12700      4205      4237     12702     12759      4238     12051
 -1      1426    4    0    1
 -2      6368      6458      3399      3409      6369      6459      3400      3410     12702     12759
 -2      4238     12051     11999     12707      4208      4240     12709     12763      4241     12055
 -1      1427    4    0    1
 -2      6369      6459      3400      3410      6370      6460      3401      3411     12709     12763
 -2      4241     12055     12006     12714      4211      4243     12716     12767      4244     12059
 -1      1428    4    0    1
 -2      6370      6460      3401      3411      6371      6461      3402      3412     12716     12767
 -2      4244     12059     12013     12721      4214      4246     12723     12771      4247     12063
 -1      1429    4    0    1
 -2      6371      6461      3402      3412      6372      6462      3403      3413     12723     12771
 -2      4247     12063     12020     12728      4217      4249     12730     12775      4250     12067
 -1      1430    4    0    1
 -2      6372      6462      3403      3413      4846      4855       266       267     12730     12775
 -2      4250     12067     12027     12735      4220      4252      5233      5235       296      5206
 -1      1431    4    0    1
 -2        14        15       459       450      1576      1586      6463      6373        44       840
 -2       841       811      1976      2008     12781     12073      2009     12782     12783     12074
 -1      1432    4    0    1
 -2      1576      1586      6463      6373      1577      1587      6464      6374      2009     12782
 -2     12783     12074      1979      2011     12788     12080      2012     12789     12790     12081
 -1      1433    4    0    1
 -2      1577      1587      6464      6374      1578      1588      6465      6375      2012     12789
 -2     12790     12081      1982      2014     12795     12087      2015     12796     12797     12088
 -1      1434    4    0    1
 -2      1578      1588      6465      6375      1579      1589      6466      6376      2015     12796
 -2     12797     12088      1985      2017     12802     12094      2018     12803     12804     12095
 -1      1435    4    0    1
 -2      1579      1589      6466      6376      1580      1590      6467      6377      2018     12803
 -2     12804     12095      1988      2020     12809     12101      2021     12810     12811     12102
 -1      1436    4    0    1
 -2      1580      1590      6467      6377      1581      1591      6468      6378      2021     12810
 -2     12811     12102      1991      2023     12816     12108      2024     12817     12818     12109
 -1      1437    4    0    1
 -2      1581      1591      6468      6378      1582      1592      6469      6379      2024     12817
 -2     12818     12109      1994      2026     12823     12115      2027     12824     12825     12116
 -1      1438    4    0    1
 -2      1582      1592      6469      6379      1583      1593      6470      6380      2027     12824
 -2     12825     12116      1997      2029     12830     12122      2030     12831     12832     12123
 -1      1439    4    0    1
 -2      1583      1593      6470      6380      1584      1594      6471      6381      2030     12831
 -2     12832     12123      2000      2032     12837     12129      2033     12838     12839     12130
 -1      1440    4    0    1
 -2      1584      1594      6471      6381      1585      1595      6472      6382      2033     12838
 -2     12839     12130      2003      2035     12844     12136      2036     12845     12846     12137
 -1      1441    4    0    1
 -2      1585      1595      6472      6382       170       171      4856      4847      2036     12845
 -2     12846     12137      2006      2038     12851     12143       200      5237      5238      5208
 -1      1442    4    0    1
 -2       450       459       460       451      6373      6463      6473      6383       841       843
 -2       844       814     12073     12781     12855     12147     12783     12856     12857     12148
 -1      1443    4    0    1
 -2      6373      6463      6473      6383      6374      6464      6474      6384     12783     12856
 -2     12857     12148     12080     12788     12862     12154     12790     12863     12864     12155
 -1      1444    4    0    1
 -2      6374      6464      6474      6384      6375      6465      6475      6385     12790     12863
 -2     12864     12155     12087     12795     12869     12161     12797     12870     12871     12162
 -1      1445    4    0    1
 -2      6375      6465      6475      6385      6376      6466      6476      6386     12797     12870
 -2     12871     12162     12094     12802     12876     12168     12804     12877     12878     12169
 -1      1446    4    0    1
 -2      6376      6466      6476      6386      6377      6467      6477      6387     12804     12877
 -2     12878     12169     12101     12809     12883     12175     12811     12884     12885     12176
 -1      1447    4    0    1
 -2      6377      6467      6477      6387      6378      6468      6478      6388     12811     12884
 -2     12885     12176     12108     12816     12890     12182     12818     12891     12892     12183
 -1      1448    4    0    1
 -2      6378      6468      6478      6388      6379      6469      6479      6389     12818     12891
 -2     12892     12183     12115     12823     12897     12189     12825     12898     12899     12190
 -1      1449    4    0    1
 -2      6379      6469      6479      6389      6380      6470      6480      6390     12825     12898
 -2     12899     12190     12122     12830     12904     12196     12832     12905     12906     12197
 -1      1450    4    0    1
 -2      6380      6470      6480      6390      6381      6471      6481      6391     12832     12905
 -2     12906     12197     12129     12837     12911     12203     12839     12912     12913     12204
 -1      1451    4    0    1
 -2      6381      6471      6481      6391      6382      6472      6482      6392     12839     12912
 -2     12913     12204     12136     12844     12918     12210     12846     12919     12920     12211
 -1      1452    4    0    1
 -2      6382      6472      6482      6392      4847      4856      4857      4848     12846     12919
 -2     12920     12211     12143     12851     12925     12217      5238      5240      5241      5211
 -1      1453    4    0    1
 -2       451       460       461       452      6383      6473      6483      6393       844       846
 -2       847       817     12147     12855     12929     12221     12857     12930     12931     12222
 -1      1454    4    0    1
 -2      6383      6473      6483      6393      6384      6474      6484      6394     12857     12930
 -2     12931     12222     12154     12862     12936     12228     12864     12937     12938     12229
 -1      1455    4    0    1
 -2      6384      6474      6484      6394      6385      6475      6485      6395     12864     12937
 -2     12938     12229     12161     12869     12943     12235     12871     12944     12945     12236
 -1      1456    4    0    1
 -2      6385      6475      6485      6395      6386      6476      6486      6396     12871     12944
 -2     12945     12236     12168     12876     12950     12242     12878     12951     12952     12243
 -1      1457    4    0    1
 -2      6386      6476      6486      6396      6387      6477      6487      6397     12878     12951
 -2     12952     12243     12175     12883     12957     12249     12885     12958     12959     12250
 -1      1458    4    0    1
 -2      6387      6477      6487      6397      6388      6478      6488      6398     12885     12958
 -2     12959     12250     12182     12890     12964     12256     12892     12965     12966     12257
 -1      1459    4    0    1
 -2      6388      6478      6488      6398      6389      6479      6489      6399     12892     12965
 -2     12966     12257     12189     12897     12971     12263     12899     12972     12973     12264
 -1      1460    4    0    1
 -2      6389      6479      6489      6399      6390      6480      6490      6400     12899     12972
 -2     12973     12264     12196     12904     12978     12270     12906     12979     12980     12271
 -1      1461    4    0    1
 -2      6390      6480      6490      6400      6391      6481      6491      6401     12906     12979
 -2     12980     12271     12203     12911     12985     12277     12913     12986     12987     12278
 -1      1462    4    0    1
 -2      6391      6481      6491      6401      6392      6482      6492      6402     12913     12986
 -2     12987     12278     12210     12918     12992     12284     12920     12993     12994     12285
 -1      1463    4    0    1
 -2      6392      6482      6492      6402      4848      4857      4858      4849     12920     12993
 -2     12994     12285     12217     12925     12999     12291      5241      5243      5244      5214
 -1      1464    4    0    1
 -2       452       461       462       453      6393      6483      6493      6403       847       849
 -2       850       820     12221     12929     13003     12295     12931     13004     13005     12296
 -1      1465    4    0    1
 -2      6393      6483      6493      6403      6394      6484      6494      6404     12931     13004
 -2     13005     12296     12228     12936     13010     12302     12938     13011     13012     12303
 -1      1466    4    0    1
 -2      6394      6484      6494      6404      6395      6485      6495      6405     12938     13011
 -2     13012     12303     12235     12943     13017     12309     12945     13018     13019     12310
 -1      1467    4    0    1
 -2      6395      6485      6495      6405      6396      6486      6496      6406     12945     13018
 -2     13019     12310     12242     12950     13024     12316     12952     13025     13026     12317
 -1      1468    4    0    1
 -2      6396      6486      6496      6406      6397      6487      6497      6407     12952     13025
 -2     13026     12317     12249     12957     13031     12323     12959     13032     13033     12324
 -1      1469    4    0    1
 -2      6397      6487      6497      6407      6398      6488      6498      6408     12959     13032
 -2     13033     12324     12256     12964     13038     12330     12966     13039     13040     12331
 -1      1470    4    0    1
 -2      6398      6488      6498      6408      6399      6489      6499      6409     12966     13039
 -2     13040     12331     12263     12971     13045     12337     12973     13046     13047     12338
 -1      1471    4    0    1
 -2      6399      6489      6499      6409      6400      6490      6500      6410     12973     13046
 -2     13047     12338     12270     12978     13052     12344     12980     13053     13054     12345
 -1      1472    4    0    1
 -2      6400      6490      6500      6410      6401      6491      6501      6411     12980     13053
 -2     13054     12345     12277     12985     13059     12351     12987     13060     13061     12352
 -1      1473    4    0    1
 -2      6401      6491      6501      6411      6402      6492      6502      6412     12987     13060
 -2     13061     12352     12284     12992     13066     12358     12994     13067     13068     12359
 -1      1474    4    0    1
 -2      6402      6492      6502      6412      4849      4858      4859      4850     12994     13067
 -2     13068     12359     12291     12999     13073     12365      5244      5246      5247      5217
 -1      1475    4    0    1
 -2       453       462       463       454      6403      6493      6503      6413       850       852
 -2       853       823     12295     13003     13077     12369     13005     13078     13079     12370
 -1      1476    4    0    1
 -2      6403      6493      6503      6413      6404      6494      6504      6414     13005     13078
 -2     13079     12370     12302     13010     13084     12376     13012     13085     13086     12377
 -1      1477    4    0    1
 -2      6404      6494      6504      6414      6405      6495      6505      6415     13012     13085
 -2     13086     12377     12309     13017     13091     12383     13019     13092     13093     12384
 -1      1478    4    0    1
 -2      6405      6495      6505      6415      6406      6496      6506      6416     13019     13092
 -2     13093     12384     12316     13024     13098     12390     13026     13099     13100     12391
 -1      1479    4    0    1
 -2      6406      6496      6506      6416      6407      6497      6507      6417     13026     13099
 -2     13100     12391     12323     13031     13105     12397     13033     13106     13107     12398
 -1      1480    4    0    1
 -2      6407      6497      6507      6417      6408      6498      6508      6418     13033     13106
 -2     13107     12398     12330     13038     13112     12404     13040     13113     13114     12405
 -1      1481    4    0    1
 -2      6408      6498      6508      6418      6409      6499      6509      6419     13040     13113
 -2     13114     12405     12337     13045     13119     12411     13047     13120     13121     12412
 -1      1482    4    0    1
 -2      6409      6499      6509      6419      6410      6500      6510      6420     13047     13120
 -2     13121     12412     12344     13052     13126     12418     13054     13127     13128     12419
 -1      1483    4    0    1
 -2      6410      6500      6510      6420      6411      6501      6511      6421     13054     13127
 -2     13128     12419     12351     13059     13133     12425     13061     13134     13135     12426
 -1      1484    4    0    1
 -2      6411      6501      6511      6421      6412      6502      6512      6422     13061     13134
 -2     13135     12426     12358     13066     13140     12432     13068     13141     13142     12433
 -1      1485    4    0    1
 -2      6412      6502      6512      6422      4850      4859      4860      4851     13068     13141
 -2     13142     12433     12365     13073     13147     12439      5247      5249      5250      5220
 -1      1486    4    0    1
 -2       454       463       464       455      6413      6503      6513      6423       853       855
 -2       856       826     12369     13077     13151     12443     13079     13152     13153     12444
 -1      1487    4    0    1
 -2      6413      6503      6513      6423      6414      6504      6514      6424     13079     13152
 -2     13153     12444     12376     13084     13158     12450     13086     13159     13160     12451
 -1      1488    4    0    1
 -2      6414      6504      6514      6424      6415      6505      6515      6425     13086     13159
 -2     13160     12451     12383     13091     13165     12457     13093     13166     13167     12458
 -1      1489    4    0    1
 -2      6415      6505      6515      6425      6416      6506      6516      6426     13093     13166
 -2     13167     12458     12390     13098     13172     12464     13100     13173     13174     12465
 -1      1490    4    0    1
 -2      6416      6506      6516      6426      6417      6507      6517      6427     13100     13173
 -2     13174     12465     12397     13105     13179     12471     13107     13180     13181     12472
 -1      1491    4    0    1
 -2      6417      6507      6517      6427      6418      6508      6518      6428     13107     13180
 -2     13181     12472     12404     13112     13186     12478     13114     13187     13188     12479
 -1      1492    4    0    1
 -2      6418      6508      6518      6428      6419      6509      6519      6429     13114     13187
 -2     13188     12479     12411     13119     13193     12485     13121     13194     13195     12486
 -1      1493    4    0    1
 -2      6419      6509      6519      6429      6420      6510      6520      6430     13121     13194
 -2     13195     12486     12418     13126     13200     12492     13128     13201     13202     12493
 -1      1494    4    0    1
 -2      6420      6510      6520      6430      6421      6511      6521      6431     13128     13201
 -2     13202     12493     12425     13133     13207     12499     13135     13208     13209     12500
 -1      1495    4    0    1
 -2      6421      6511      6521      6431      6422      6512      6522      6432     13135     13208
 -2     13209     12500     12432     13140     13214     12506     13142     13215     13216     12507
 -1      1496    4    0    1
 -2      6422      6512      6522      6432      4851      4860      4861      4852     13142     13215
 -2     13216     12507     12439     13147     13221     12513      5250      5252      5253      5223
 -1      1497    4    0    1
 -2       455       464       465       456      6423      6513      6523      6433       856       858
 -2       859       829     12443     13151     13225     12517     13153     13226     13227     12518
 -1      1498    4    0    1
 -2      6423      6513      6523      6433      6424      6514      6524      6434     13153     13226
 -2     13227     12518     12450     13158     13232     12524     13160     13233     13234     12525
 -1      1499    4    0    1
 -2      6424      6514      6524      6434      6425      6515      6525      6435     13160     13233
 -2     13234     12525     12457     13165     13239     12531     13167     13240     13241     12532
 -1      1500    4    0    1
 -2      6425      6515      6525      6435      6426      6516      6526      6436     13167     13240
 -2     13241     12532     12464     13172     13246     12538     13174     13247     13248     12539
 -1      1501    4    0    1
 -2      6426      6516      6526      6436      6427      6517      6527      6437     13174     13247
 -2     13248     12539     12471     13179     13253     12545     13181     13254     13255     12546
 -1      1502    4    0    1
 -2      6427      6517      6527      6437      6428      6518      6528      6438     13181     13254
 -2     13255     12546     12478     13186     13260     12552     13188     13261     13262     12553
 -1      1503    4    0    1
 -2      6428      6518      6528      6438      6429      6519      6529      6439     13188     13261
 -2     13262     12553     12485     13193     13267     12559     13195     13268     13269     12560
 -1      1504    4    0    1
 -2      6429      6519      6529      6439      6430      6520      6530      6440     13195     13268
 -2     13269     12560     12492     13200     13274     12566     13202     13275     13276     12567
 -1      1505    4    0    1
 -2      6430      6520      6530      6440      6431      6521      6531      6441     13202     13275
 -2     13276     12567     12499     13207     13281     12573     13209     13282     13283     12574
 -1      1506    4    0    1
 -2      6431      6521      6531      6441      6432      6522      6532      6442     13209     13282
 -2     13283     12574     12506     13214     13288     12580     13216     13289     13290     12581
 -1      1507    4    0    1
 -2      6432      6522      6532      6442      4852      4861      4862      4853     13216     13289
 -2     13290     12581     12513     13221     13295     12587      5253      5255      5256      5226
 -1      1508    4    0    1
 -2       456       465       466       457      6433      6523      6533      6443       859       861
 -2       862       832     12517     13225     13299     12591     13227     13300     13301     12592
 -1      1509    4    0    1
 -2      6433      6523      6533      6443      6434      6524      6534      6444     13227     13300
 -2     13301     12592     12524     13232     13306     12598     13234     13307     13308     12599
 -1      1510    4    0    1
 -2      6434      6524      6534      6444      6435      6525      6535      6445     13234     13307
 -2     13308     12599     12531     13239     13313     12605     13241     13314     13315     12606
 -1      1511    4    0    1
 -2      6435      6525      6535      6445      6436      6526      6536      6446     13241     13314
 -2     13315     12606     12538     13246     13320     12612     13248     13321     13322     12613
 -1      1512    4    0    1
 -2      6436      6526      6536      6446      6437      6527      6537      6447     13248     13321
 -2     13322     12613     12545     13253     13327     12619     13255     13328     13329     12620
 -1      1513    4    0    1
 -2      6437      6527      6537      6447      6438      6528      6538      6448     13255     13328
 -2     13329     12620     12552     13260     13334     12626     13262     13335     13336     12627
 -1      1514    4    0    1
 -2      6438      6528      6538      6448      6439      6529      6539      6449     13262     13335
 -2     13336     12627     12559     13267     13341     12633     13269     13342     13343     12634
 -1      1515    4    0    1
 -2      6439      6529      6539      6449      6440      6530      6540      6450     13269     13342
 -2     13343     12634     12566     13274     13348     12640     13276     13349     13350     12641
 -1      1516    4    0    1
 -2      6440      6530      6540      6450      6441      6531      6541      6451     13276     13349
 -2     13350     12641     12573     13281     13355     12647     13283     13356     13357     12648
 -1      1517    4    0    1
 -2      6441      6531      6541      6451      6442      6532      6542      6452     13283     13356
 -2     13357     12648     12580     13288     13362     12654     13290     13363     13364     12655
 -1      1518    4    0    1
 -2      6442      6532      6542      6452      4853      4862      4863      4854     13290     13363
 -2     13364     12655     12587     13295     13369     12661      5256      5258      5259      5229
 -1      1519    4    0    1
 -2       457       466       467       458      6443      6533      6543      6453       862       864
 -2       865       835     12591     13299     13373     12665     13301     13374     13375     12666
 -1      1520    4    0    1
 -2      6443      6533      6543      6453      6444      6534      6544      6454     13301     13374
 -2     13375     12666     12598     13306     13380     12672     13308     13381     13382     12673
 -1      1521    4    0    1
 -2      6444      6534      6544      6454      6445      6535      6545      6455     13308     13381
 -2     13382     12673     12605     13313     13387     12679     13315     13388     13389     12680
 -1      1522    4    0    1
 -2      6445      6535      6545      6455      6446      6536      6546      6456     13315     13388
 -2     13389     12680     12612     13320     13394     12686     13322     13395     13396     12687
 -1      1523    4    0    1
 -2      6446      6536      6546      6456      6447      6537      6547      6457     13322     13395
 -2     13396     12687     12619     13327     13401     12693     13329     13402     13403     12694
 -1      1524    4    0    1
 -2      6447      6537      6547      6457      6448      6538      6548      6458     13329     13402
 -2     13403     12694     12626     13334     13408     12700     13336     13409     13410     12701
 -1      1525    4    0    1
 -2      6448      6538      6548      6458      6449      6539      6549      6459     13336     13409
 -2     13410     12701     12633     13341     13415     12707     13343     13416     13417     12708
 -1      1526    4    0    1
 -2      6449      6539      6549      6459      6450      6540      6550      6460     13343     13416
 -2     13417     12708     12640     13348     13422     12714     13350     13423     13424     12715
 -1      1527    4    0    1
 -2      6450      6540      6550      6460      6451      6541      6551      6461     13350     13423
 -2     13424     12715     12647     13355     13429     12721     13357     13430     13431     12722
 -1      1528    4    0    1
 -2      6451      6541      6551      6461      6452      6542      6552      6462     13357     13430
 -2     13431     12722     12654     13362     13436     12728     13364     13437     13438     12729
 -1      1529    4    0    1
 -2      6452      6542      6552      6462      4854      4863      4864      4855     13364     13437
 -2     13438     12729     12661     13369     13443     12735      5259      5261      5262      5232
 -1      1530    4    0    1
 -2       458       467       109       110      6453      6543      3384      3394       865       867
 -2       139       838     12665     13373      4158      4190     13375     13447      4191     12739
 -1      1531    4    0    1
 -2      6453      6543      3384      3394      6454      6544      3385      3395     13375     13447
 -2      4191     12739     12672     13380      4161      4193     13382     13451      4194     12743
 -1      1532    4    0    1
 -2      6454      6544      3385      3395      6455      6545      3386      3396     13382     13451
 -2      4194     12743     12679     13387      4164      4196     13389     13455      4197     12747
 -1      1533    4    0    1
 -2      6455      6545      3386      3396      6456      6546      3387      3397     13389     13455
 -2      4197     12747     12686     13394      4167      4199     13396     13459      4200     12751
 -1      1534    4    0    1
 -2      6456      6546      3387      3397      6457      6547      3388      3398     13396     13459
 -2      4200     12751     12693     13401      4170      4202     13403     13463      4203     12755
 -1      1535    4    0    1
 -2      6457      6547      3388      3398      6458      6548      3389      3399     13403     13463
 -2      4203     12755     12700     13408      4173      4205     13410     13467      4206     12759
 -1      1536    4    0    1
 -2      6458      6548      3389      3399      6459      6549      3390      3400     13410     13467
 -2      4206     12759     12707     13415      4176      4208     13417     13471      4209     12763
 -1      1537    4    0    1
 -2      6459      6549      3390      3400      6460      6550      3391      3401     13417     13471
 -2      4209     12763     12714     13422      4179      4211     13424     13475      4212     12767
 -1      1538    4    0    1
 -2      6460      6550      3391      3401      6461      6551      3392      3402     13424     13475
 -2      4212     12767     12721     13429      4182      4214     13431     13479      4215     12771
 -1      1539    4    0    1
 -2      6461      6551      3392      3402      6462      6552      3393      3403     13431     13479
 -2      4215     12771     12728     13436      4185      4217     13438     13483      4218     12775
 -1      1540    4    0    1
 -2      6462      6552      3393      3403      4855      4864       265       266     13438     13483
 -2      4218     12775     12735     13443      4188      4220      5262      5264       295      5235
 -1      1541    4    0    1
 -2        15        16       468       459      1586      1596      6553      6463        45       869
 -2       870       840      2008      2040     13489     12781      2041     13490     13491     12782
 -1      1542    4    0    1
 -2      1586      1596      6553      6463      1587      1597      6554      6464      2041     13490
 -2     13491     12782      2011      2043     13496     12788      2044     13497     13498     12789
 -1      1543    4    0    1
 -2      1587      1597      6554      6464      1588      1598      6555      6465      2044     13497
 -2     13498     12789      2014      2046     13503     12795      2047     13504     13505     12796
 -1      1544    4    0    1
 -2      1588      1598      6555      6465      1589      1599      6556      6466      2047     13504
 -2     13505     12796      2017      2049     13510     12802      2050     13511     13512     12803
 -1      1545    4    0    1
 -2      1589      1599      6556      6466      1590      1600      6557      6467      2050     13511
 -2     13512     12803      2020      2052     13517     12809      2053     13518     13519     12810
 -1      1546    4    0    1
 -2      1590      1600      6557      6467      1591      1601      6558      6468      2053     13518
 -2     13519     12810      2023      2055     13524     12816      2056     13525     13526     12817
 -1      1547    4    0    1
 -2      1591      1601      6558      6468      1592      1602      6559      6469      2056     13525
 -2     13526     12817      2026      2058     13531     12823      2059     13532     13533     12824
 -1      1548    4    0    1
 -2      1592      1602      6559      6469      1593      1603      6560      6470      2059     13532
 -2     13533     12824      2029      2061     13538     12830      2062     13539     13540     12831
 -1      1549    4    0    1
 -2      1593      1603      6560      6470      1594      1604      6561      6471      2062     13539
 -2     13540     12831      2032      2064     13545     12837      2065     13546     13547     12838
 -1      1550    4    0    1
 -2      1594      1604      6561      6471      1595      1605      6562      6472      2065     13546
 -2     13547     12838      2035      2067     13552     12844      2068     13553     13554     12845
 -1      1551    4    0    1
 -2      1595      1605      6562      6472       171       172      4865      4856      2068     13553
 -2     13554     12845      2038      2070     13559     12851       201      5266      5267      5237
 -1      1552    4    0    1
 -2       459       468       469       460      6463      6553      6563      6473       870       872
 -2       873       843     12781     13489     13563     12855     13491     13564     13565     12856
 -1      1553    4    0    1
 -2      6463      6553      6563      6473      6464      6554      6564      6474     13491     13564
 -2     13565     12856     12788     13496     13570     12862     13498     13571     13572     12863
 -1      1554    4    0    1
 -2      6464      6554      6564      6474      6465      6555      6565      6475     13498     13571
 -2     13572     12863     12795     13503     13577     12869     13505     13578     13579     12870
 -1      1555    4    0    1
 -2      6465      6555      6565      6475      6466      6556      6566      6476     13505     13578
 -2     13579     12870     12802     13510     13584     12876     13512     13585     13586     12877
 -1      1556    4    0    1
 -2      6466      6556      6566      6476      6467      6557      6567      6477     13512     13585
 -2     13586     12877     12809     13517     13591     12883     13519     13592     13593     12884
 -1      1557    4    0    1
 -2      6467      6557      6567      6477      6468      6558      6568      6478     13519     13592
 -2     13593     12884     12816     13524     13598     12890     13526     13599     13600     12891
 -1      1558    4    0    1
 -2      6468      6558      6568      6478      6469      6559      6569      6479     13526     13599
 -2     13600     12891     12823     13531     13605     12897     13533     13606     13607     12898
 -1      1559    4    0    1
 -2      6469      6559      6569      6479      6470      6560      6570      6480     13533     13606
 -2     13607     12898     12830     13538     13612     12904     13540     13613     13614     12905
 -1      1560    4    0    1
 -2      6470      6560      6570      6480      6471      6561      6571      6481     13540     13613
 -2     13614     12905     12837     13545     13619     12911     13547     13620     13621     12912
 -1      1561    4    0    1
 -2      6471      6561      6571      6481      6472      6562      6572      6482     13547     13620
 -2     13621     12912     12844     13552     13626     12918     13554     13627     13628     12919
 -1      1562    4    0    1
 -2      6472      6562      6572      6482      4856      4865      4866      4857     13554     13627
 -2     13628     12919     12851     13559     13633     12925      5267      5269      5270      5240
 -1      1563    4    0    1
 -2       460       469       470       461      6473      6563      6573      6483       873       875
 -2       876       846     12855     13563     13637     12929     13565     13638     13639     12930
 -1      1564    4    0    1
 -2      6473      6563      6573      6483      6474      6564      6574      6484     13565     13638
 -2     13639     12930     12862     13570     13644     12936     13572     13645     13646     12937
 -1      1565    4    0    1
 -2      6474      6564      6574      6484      6475      6565      6575      6485     13572     13645
 -2     13646     12937     12869     13577     13651     12943     13579     13652     13653     12944
 -1      1566    4    0    1
 -2      6475      6565      6575      6485      6476      6566      6576      6486     13579     13652
 -2     13653     12944     12876     13584     13658     12950     13586     13659     13660     12951
 -1      1567    4    0    1
 -2      6476      6566      6576      6486      6477      6567      6577      6487     13586     13659
 -2     13660     12951     12883     13591     13665     12957     13593     13666     13667     12958
 -1      1568    4    0    1
 -2      6477      6567      6577      6487      6478      6568      6578      6488     13593     13666
 -2     13667     12958     12890     13598     13672     12964     13600     13673     13674     12965
 -1      1569    4    0    1
 -2      6478      6568      6578      6488      6479      6569      6579      6489     13600     13673
 -2     13674     12965     12897     13605     13679     12971     13607     13680     13681     12972
 -1      1570    4    0    1
 -2      6479      6569      6579      6489      6480      6570      6580      6490     13607     13680
 -2     13681     12972     12904     13612     13686     12978     13614     13687     13688     12979
 -1      1571    4    0    1
 -2      6480      6570      6580      6490      6481      6571      6581      6491     13614     13687
 -2     13688     12979     12911     13619     13693     12985     13621     13694     13695     12986
 -1      1572    4    0    1
 -2      6481      6571      6581      6491      6482      6572      6582      6492     13621     13694
 -2     13695     12986     12918     13626     13700     12992     13628     13701     13702     12993
 -1      1573    4    0    1
 -2      6482      6572      6582      6492      4857      4866      4867      4858     13628     13701
 -2     13702     12993     12925     13633     13707     12999      5270      5272      5273      5243
 -1      1574    4    0    1
 -2       461       470       471       462      6483      6573      6583      6493       876       878
 -2       879       849     12929     13637     13711     13003     13639     13712     13713     13004
 -1      1575    4    0    1
 -2      6483      6573      6583      6493      6484      6574      6584      6494     13639     13712
 -2     13713     13004     12936     13644     13718     13010     13646     13719     13720     13011
 -1      1576    4    0    1
 -2      6484      6574      6584      6494      6485      6575      6585      6495     13646     13719
 -2     13720     13011     12943     13651     13725     13017     13653     13726     13727     13018
 -1      1577    4    0    1
 -2      6485      6575      6585      6495      6486      6576      6586      6496     13653     13726
 -2     13727     13018     12950     13658     13732     13024     13660     13733     13734     13025
 -1      1578    4    0    1
 -2      6486      6576      6586      6496      6487      6577      6587      6497     13660     13733
 -2     13734     13025     12957     13665     13739     13031     13667     13740     13741     13032
 -1      1579    4    0    1
 -2      6487      6577      6587      6497      6488      6578      6588      6498     13667     13740
 -2     13741     13032     12964     13672     13746     13038     13674     13747     13748     13039
 -1      1580    4    0    1
 -2      6488      6578      6588      6498      6489      6579      6589      6499     13674     13747
 -2     13748     13039     12971     13679     13753     13045     13681     13754     13755     13046
 -1      1581    4    0    1
 -2      6489      6579      6589      6499      6490      6580      6590      6500     13681     13754
 -2     13755     13046     12978     13686     13760     13052     13688     13761     13762     13053
 -1      1582    4    0    1
 -2      6490      6580      6590      6500      6491      6581      6591      6501     13688     13761
 -2     13762     13053     12985     13693     13767     13059     13695     13768     13769     13060
 -1      1583    4    0    1
 -2      6491      6581      6591      6501      6492      6582      6592      6502     13695     13768
 -2     13769     13060     12992     13700     13774     13066     13702     13775     13776     13067
 -1      1584    4    0    1
 -2      6492      6582      6592      6502      4858      4867      4868      4859     13702     13775
 -2     13776     13067     12999     13707     13781     13073      5273      5275      5276      5246
 -1      1585    4    0    1
 -2       462       471       472       463      6493      6583      6593      6503       879       881
 -2       882       852     13003     13711     13785     13077     13713     13786     13787     13078
 -1      1586    4    0    1
 -2      6493      6583      6593      6503      6494      6584      6594      6504     13713     13786
 -2     13787     13078     13010     13718     13792     13084     13720     13793     13794     13085
 -1      1587    4    0    1
 -2      6494      6584      6594      6504      6495      6585      6595      6505     13720     13793
 -2     13794     13085     13017     13725     13799     13091     13727     13800     13801     13092
 -1      1588    4    0    1
 -2      6495      6585      6595      6505      6496      6586      6596      6506     13727     13800
 -2     13801     13092     13024     13732     13806     13098     13734     13807     13808     13099
 -1      1589    4    0    1
 -2      6496      6586      6596      6506      6497      6587      6597      6507     13734     13807
 -2     13808     13099     13031     13739     13813     13105     13741     13814     13815     13106
 -1      1590    4    0    1
 -2      6497      6587      6597      6507      6498      6588      6598      6508     13741     13814
 -2     13815     13106     13038     13746     13820     13112     13748     13821     13822     13113
 -1      1591    4    0    1
 -2      6498      6588      6598      6508      6499      6589      6599      6509     13748     13821
 -2     13822     13113     13045     13753     13827     13119     13755     13828     13829     13120
 -1      1592    4    0    1
 -2      6499      6589      6599      6509      6500      6590      6600      6510     13755     13828
 -2     13829     13120     13052     13760     13834     13126     13762     13835     13836     13127
 -1      1593    4    0    1
 -2      6500      6590      6600      6510      6501      6591      6601      6511     13762     13835
 -2     13836     13127     13059     13767     13841     13133     13769     13842     13843     13134
 -1      1594    4    0    1
 -2      6501      6591      6601      6511      6502      6592      6602      6512     13769     13842
 -2     13843     13134     13066     13774     13848     13140     13776     13849     13850     13141
 -1      1595    4    0    1
 -2      6502      6592      6602      6512      4859      4868      4869      4860     13776     13849
 -2     13850     13141     13073     13781     13855     13147      5276      5278      5279      5249
 -1      1596    4    0    1
 -2       463       472       473       464      6503      6593      6603      6513       882       884
 -2       885       855     13077     13785     13859     13151     13787     13860     13861     13152
 -1      1597    4    0    1
 -2      6503      6593      6603      6513      6504      6594      6604      6514     13787     13860
 -2     13861     13152     13084     13792     13866     13158     13794     13867     13868     13159
 -1      1598    4    0    1
 -2      6504      6594      6604      6514      6505      6595      6605      6515     13794     13867
 -2     13868     13159     13091     13799     13873     13165     13801     13874     13875     13166
 -1      1599    4    0    1
 -2      6505      6595      6605      6515      6506      6596      6606      6516     13801     13874
 -2     13875     13166     13098     13806     13880     13172     13808     13881     13882     13173
 -1      1600    4    0    1
 -2      6506      6596      6606      6516      6507      6597      6607      6517     13808     13881
 -2     13882     13173     13105     13813     13887     13179     13815     13888     13889     13180
 -1      1601    4    0    1
 -2      6507      6597      6607      6517      6508      6598      6608      6518     13815     13888
 -2     13889     13180     13112     13820     13894     13186     13822     13895     13896     13187
 -1      1602    4    0    1
 -2      6508      6598      6608      6518      6509      6599      6609      6519     13822     13895
 -2     13896     13187     13119     13827     13901     13193     13829     13902     13903     13194
 -1      1603    4    0    1
 -2      6509      6599      6609      6519      6510      6600      6610      6520     13829     13902
 -2     13903     13194     13126     13834     13908     13200     13836     13909     13910     13201
 -1      1604    4    0    1
 -2      6510      6600      6610      6520      6511      6601      6611      6521     13836     13909
 -2     13910     13201     13133     13841     13915     13207     13843     13916     13917     13208
 -1      1605    4    0    1
 -2      6511      6601      6611      6521      6512      6602      6612      6522     13843     13916
 -2     13917     13208     13140     13848     13922     13214     13850     13923     13924     13215
 -1      1606    4    0    1
 -2      6512      6602      6612      6522      4860      4869      4870      4861     13850     13923
 -2     13924     13215     13147     13855     13929     13221      5279      5281      5282      5252
 -1      1607    4    0    1
 -2       464       473       474       465      6513      6603      6613      6523       885       887
 -2       888       858     13151     13859     13933     13225     13861     13934     13935     13226
 -1      1608    4    0    1
 -2      6513      6603      6613      6523      6514      6604      6614      6524     13861     13934
 -2     13935     13226     13158     13866     13940     13232     13868     13941     13942     13233
 -1      1609    4    0    1
 -2      6514      6604      6614      6524      6515      6605      6615      6525     13868     13941
 -2     13942     13233     13165     13873     13947     13239     13875     13948     13949     13240
 -1      1610    4    0    1
 -2      6515      6605      6615      6525      6516      6606      6616      6526     13875     13948
 -2     13949     13240     13172     13880     13954     13246     13882     13955     13956     13247
 -1      1611    4    0    1
 -2      6516      6606      6616      6526      6517      6607      6617      6527     13882     13955
 -2     13956     13247     13179     13887     13961     13253     13889     13962     13963     13254
 -1      1612    4    0    1
 -2      6517      6607      6617      6527      6518      6608      6618      6528     13889     13962
 -2     13963     13254     13186     13894     13968     13260     13896     13969     13970     13261
 -1      1613    4    0    1
 -2      6518      6608      6618      6528      6519      6609      6619      6529     13896     13969
 -2     13970     13261     13193     13901     13975     13267     13903     13976     13977     13268
 -1      1614    4    0    1
 -2      6519      6609      6619      6529      6520      6610      6620      6530     13903     13976
 -2     13977     13268     13200     13908     13982     13274     13910     13983     13984     13275
 -1      1615    4    0    1
 -2      6520      6610      6620      6530      6521      6611      6621      6531     13910     13983
 -2     13984     13275     13207     13915     13989     13281     13917     13990     13991     13282
 -1      1616    4    0    1
 -2      6521      6611      6621      6531      6522      6612      6622      6532     13917     13990
 -2     13991     13282     13214     13922     13996     13288     13924     13997     13998     13289
 -1      1617    4    0    1
 -2      6522      6612      6622      6532      4861      4870      4871      4862     13924     13997
 -2     13998     13289     13221     13929     14003     13295      5282      5284      5285      5255
 -1      1618    4    0    1
 -2       465       474       475       466      6523      6613      6623      6533       888       890
 -2       891       861     13225     13933     14007     13299     13935     14008     14009     13300
 -1      1619    4    0    1
 -2      6523      6613      6623      6533      6524      6614      6624      6534     13935     14008
 -2     14009     13300     13232     13940     14014     13306     13942     14015     14016     13307
 -1      1620    4    0    1
 -2      6524      6614      6624      6534      6525      6615      6625      6535     13942     14015
 -2     14016     13307     13239     13947     14021     13313     13949     14022     14023     13314
 -1      1621    4    0    1
 -2      6525      6615      6625      6535      6526      6616      6626      6536     13949     14022
 -2     14023     13314     13246     13954     14028     13320     13956     14029     14030     13321
 -1      1622    4    0    1
 -2      6526      6616      6626      6536      6527      6617      6627      6537     13956     14029
 -2     14030     13321     13253     13961     14035     13327     13963     14036     14037     13328
 -1      1623    4    0    1
 -2      6527      6617      6627      6537      6528      6618      6628      6538     13963     14036
 -2     14037     13328     13260     13968     14042     13334     13970     14043     14044     13335
 -1      1624    4    0    1
 -2      6528      6618      6628      6538      6529      6619      6629      6539     13970     14043
 -2     14044     13335     13267     13975     14049     13341     13977     14050     14051     13342
 -1      1625    4    0    1
 -2      6529      6619      6629      6539      6530      6620      6630      6540     13977     14050
 -2     14051     13342     13274     13982     14056     13348     13984     14057     14058     13349
 -1      1626    4    0    1
 -2      6530      6620      6630      6540      6531      6621      6631      6541     13984     14057
 -2     14058     13349     13281     13989     14063     13355     13991     14064     14065     13356
 -1      1627    4    0    1
 -2      6531      6621      6631      6541      6532      6622      6632      6542     13991     14064
 -2     14065     13356     13288     13996     14070     13362     13998     14071     14072     13363
 -1      1628    4    0    1
 -2      6532      6622      6632      6542      4862      4871      4872      4863     13998     14071
 -2     14072     13363     13295     14003     14077     13369      5285      5287      5288      5258
 -1      1629    4    0    1
 -2       466       475       476       467      6533      6623      6633      6543       891       893
 -2       894       864     13299     14007     14081     13373     14009     14082     14083     13374
 -1      1630    4    0    1
 -2      6533      6623      6633      6543      6534      6624      6634      6544     14009     14082
 -2     14083     13374     13306     14014     14088     13380     14016     14089     14090     13381
 -1      1631    4    0    1
 -2      6534      6624      6634      6544      6535      6625      6635      6545     14016     14089
 -2     14090     13381     13313     14021     14095     13387     14023     14096     14097     13388
 -1      1632    4    0    1
 -2      6535      6625      6635      6545      6536      6626      6636      6546     14023     14096
 -2     14097     13388     13320     14028     14102     13394     14030     14103     14104     13395
 -1      1633    4    0    1
 -2      6536      6626      6636      6546      6537      6627      6637      6547     14030     14103
 -2     14104     13395     13327     14035     14109     13401     14037     14110     14111     13402
 -1      1634    4    0    1
 -2      6537      6627      6637      6547      6538      6628      6638      6548     14037     14110
 -2     14111     13402     13334     14042     14116     13408     14044     14117     14118     13409
 -1      1635    4    0    1
 -2      6538      6628      6638      6548      6539      6629      6639      6549     14044     14117
 -2     14118     13409     13341     14049     14123     13415     14051     14124     14125     13416
 -1      1636    4    0    1
 -2      6539      6629      6639      6549      6540      6630      6640      6550     14051     14124
 -2     14125     13416     13348     14056     14130     13422     14058     14131     14132     13423
 -1      1637    4    0    1
 -2      6540      6630      6640      6550      6541      6631      6641      6551     14058     14131
 -2     14132     13423     13355     14063     14137     13429     14065     14138     14139     13430
 -1      1638    4    0    1
 -2      6541      6631      6641      6551      6542      6632      6642      6552     14065     14138
 -2     14139     13430     13362     14070     14144     13436     14072     14145     14146     13437
 -1      1639    4    0    1
 -2      6542      6632      6642      6552      4863      4872      4873      4864     14072     14145
 -2     14146     13437     13369     14077     14151     13443      5288      5290      5291      5261
 -1      1640    4    0    1
 -2       467       476       108       109      6543      6633      3374      3384       894       896
 -2       138       867     13373     14081      4126      4158     14083     14155      4159     13447
 -1      1641    4    0    1
 -2      6543      6633      3374      3384      6544      6634      3375      3385     14083     14155
 -2      4159     13447     13380     14088      4129      4161     14090     14159      4162     13451
 -1      1642    4    0    1
 -2      6544      6634      3375      3385      6545      6635      3376      3386     14090     14159
 -2      4162     13451     13387     14095      4132      4164     14097     14163      4165     13455
 -1      1643    4    0    1
 -2      6545      6635      3376      3386      6546      6636      3377      3387     14097     14163
 -2      4165     13455     13394     14102      4135      4167     14104     14167      4168     13459
 -1      1644    4    0    1
 -2      6546      6636      3377      3387      6547      6637      3378      3388     14104     14167
 -2      4168     13459     13401     14109      4138      4170     14111     14171      4171     13463
 -1      1645    4    0    1
 -2      6547      6637      3378      3388      6548      6638      3379      3389     14111     14171
 -2      4171     13463     13408     14116      4141      4173     14118     14175      4174     13467
 -1      1646    4    0    1
 -2      6548      6638      3379      3389      6549      6639      3380      3390     14118     14175
 -2      4174     13467     13415     14123      4144      4176     14125     14179      4177     13471
 -1      1647    4    0    1
 -2      6549      6639      3380      3390      6550      6640      3381      3391     14125     14179
 -2      4177     13471     13422     14130      4147      4179     14132     14183      4180     13475
 -1      1648    4    0    1
 -2      6550      6640      3381      3391      6551      6641      3382      3392     14132     14183
 -2      4180     13475     13429     14137      4150      4182     14139     14187      4183     13479
 -1      1649    4    0    1
 -2      6551      6641      3382      3392      6552      6642      3383      3393     14139     14187
 -2      4183     13479     13436     14144      4153      4185     14146     14191      4186     13483
 -1      1650    4    0    1
 -2      6552      6642      3383      3393      4864      4873       264       265     14146     14191
 -2      4186     13483     13443     14151      4156      4188      5291      5293       294      5264
 -1      1651    4    0    1
 -2        16        17       477       468      1596      1606      6643      6553        46       898
 -2       899       869      2040      2072     14197     13489      2073     14198     14199     13490
 -1      1652    4    0    1
 -2      1596      1606      6643      6553      1597      1607      6644      6554      2073     14198
 -2     14199     13490      2043      2075     14204     13496      2076     14205     14206     13497
 -1      1653    4    0    1
 -2      1597      1607      6644      6554      1598      1608      6645      6555      2076     14205
 -2     14206     13497      2046      2078     14211     13503      2079     14212     14213     13504
 -1      1654    4    0    1
 -2      1598      1608      6645      6555      1599      1609      6646      6556      2079     14212
 -2     14213     13504      2049      2081     14218     13510      2082     14219     14220     13511
 -1      1655    4    0    1
 -2      1599      1609      6646      6556      1600      1610      6647      6557      2082     14219
 -2     14220     13511      2052      2084     14225     13517      2085     14226     14227     13518
 -1      1656    4    0    1
 -2      1600      1610      6647      6557      1601      1611      6648      6558      2085     14226
 -2     14227     13518      2055      2087     14232     13524      2088     14233     14234     13525
 -1      1657    4    0    1
 -2      1601      1611      6648      6558      1602      1612      6649      6559      2088     14233
 -2     14234     13525      2058      2090     14239     13531      2091     14240     14241     13532
 -1      1658    4    0    1
 -2      1602      1612      6649      6559      1603      1613      6650      6560      2091     14240
 -2     14241     13532      2061      2093     14246     13538      2094     14247     14248     13539
 -1      1659    4    0    1
 -2      1603      1613      6650      6560      1604      1614      6651      6561      2094     14247
 -2     14248     13539      2064      2096     14253     13545      2097     14254     14255     13546
 -1      1660    4    0    1
 -2      1604      1614      6651      6561      1605      1615      6652      6562      2097     14254
 -2     14255     13546      2067      2099     14260     13552      2100     14261     14262     13553
 -1      1661    4    0    1
 -2      1605      1615      6652      6562       172       173      4874      4865      2100     14261
 -2     14262     13553      2070      2102     14267     13559       202      5295      5296      5266
 -1      1662    4    0    1
 -2       468       477       478       469      6553      6643      6653      6563       899       901
 -2       902       872     13489     14197     14271     13563     14199     14272     14273     13564
 -1      1663    4    0    1
 -2      6553      6643      6653      6563      6554      6644      6654      6564     14199     14272
 -2     14273     13564     13496     14204     14278     13570     14206     14279     14280     13571
 -1      1664    4    0    1
 -2      6554      6644      6654      6564      6555      6645      6655      6565     14206     14279
 -2     14280     13571     13503     14211     14285     13577     14213     14286     14287     13578
 -1      1665    4    0    1
 -2      6555      6645      6655      6565      6556      6646      6656      6566     14213     14286
 -2     14287     13578     13510     14218     14292     13584     14220     14293     14294     13585
 -1      1666    4    0    1
 -2      6556      6646      6656      6566      6557      6647      6657      6567     14220     14293
 -2     14294     13585     13517     14225     14299     13591     14227     14300     14301     13592
 -1      1667    4    0    1
 -2      6557      6647      6657      6567      6558      6648      6658      6568     14227     14300
 -2     14301     13592     13524     14232     14306     13598     14234     14307     14308     13599
 -1      1668    4    0    1
 -2      6558      6648      6658      6568      6559      6649      6659      6569     14234     14307
 -2     14308     13599     13531     14239     14313     13605     14241     14314     14315     13606
 -1      1669    4    0    1
 -2      6559      6649      6659      6569      6560      6650      6660      6570     14241     14314
 -2     14315     13606     13538     14246     14320     13612     14248     14321     14322     13613
 -1      1670    4    0    1
 -2      6560      6650      6660      6570      6561      6651      6661      6571     14248     14321
 -2     14322     13613     13545     14253     14327     13619     14255     14328     14329     13620
 -1      1671    4    0    1
 -2      6561      6651      6661      6571      6562      6652      6662      6572     14255     14328
 -2     14329     13620     13552     14260     14334     13626     14262     14335     14336     13627
 -1      1672    4    0    1
 -2      6562      6652      6662      6572      4865      4874      4875      4866     14262     14335
 -2     14336     13627     13559     14267     14341     13633      5296      5298      5299      5269
 -1      1673    4    0    1
 -2       469       478       479       470      6563      6653      6663      6573       902       904
 -2       905       875     13563     14271     14345     13637     14273     14346     14347     13638
 -1      1674    4    0    1
 -2      6563      6653      6663      6573      6564      6654      6664      6574     14273     14346
 -2     14347     13638     13570     14278     14352     13644     14280     14353     14354     13645
 -1      1675    4    0    1
 -2      6564      6654      6664      6574      6565      6655      6665      6575     14280     14353
 -2     14354     13645     13577     14285     14359     13651     14287     14360     14361     13652
 -1      1676    4    0    1
 -2      6565      6655      6665      6575      6566      6656      6666      6576     14287     14360
 -2     14361     13652     13584     14292     14366     13658     14294     14367     14368     13659
 -1      1677    4    0    1
 -2      6566      6656      6666      6576      6567      6657      6667      6577     14294     14367
 -2     14368     13659     13591     14299     14373     13665     14301     14374     14375     13666
 -1      1678    4    0    1
 -2      6567      6657      6667      6577      6568      6658      6668      6578     14301     14374
 -2     14375     13666     13598     14306     14380     13672     14308     14381     14382     13673
 -1      1679    4    0    1
 -2      6568      6658      6668      6578      6569      6659      6669      6579     14308     14381
 -2     14382     13673     13605     14313     14387     13679     14315     14388     14389     13680
 -1      1680    4    0    1
 -2      6569      6659      6669      6579      6570      6660      6670      6580     14315     14388
 -2     14389     13680     13612     14320     14394     13686     14322     14395     14396     13687
 -1      1681    4    0    1
 -2      6570      6660      6670      6580      6571      6661      6671      6581     14322     14395
 -2     14396     13687     13619     14327     14401     13693     14329     14402     14403     13694
 -1      1682    4    0    1
 -2      6571      6661      6671      6581      6572      6662      6672      6582     14329     14402
 -2     14403     13694     13626     14334     14408     13700     14336     14409     14410     13701
 -1      1683    4    0    1
 -2      6572      6662      6672      6582      4866      4875      4876      4867     14336     14409
 -2     14410     13701     13633     14341     14415     13707      5299      5301      5302      5272
 -1      1684    4    0    1
 -2       470       479       480       471      6573      6663      6673      6583       905       907
 -2       908       878     13637     14345     14419     13711     14347     14420     14421     13712
 -1      1685    4    0    1
 -2      6573      6663      6673      6583      6574      6664      6674      6584     14347     14420
 -2     14421     13712     13644     14352     14426     13718     14354     14427     14428     13719
 -1      1686    4    0    1
 -2      6574      6664      6674      6584      6575      6665      6675      6585     14354     14427
 -2     14428     13719     13651     14359     14433     13725     14361     14434     14435     13726
 -1      1687    4    0    1
 -2      6575      6665      6675      6585      6576      6666      6676      6586     14361     14434
 -2     14435     13726     13658     14366     14440     13732     14368     14441     14442     13733
 -1      1688    4    0    1
 -2      6576      6666      6676      6586      6577      6667      6677      6587     14368     14441
 -2     14442     13733     13665     14373     14447     13739     14375     14448     14449     13740
 -1      1689    4    0    1
 -2      6577      6667      6677      6587      6578      6668      6678      6588     14375     14448
 -2     14449     13740     13672     14380     14454     13746     14382     14455     14456     13747
 -1      1690    4    0    1
 -2      6578      6668      6678      6588      6579      6669      6679      6589     14382     14455
 -2     14456     13747     13679     14387     14461     13753     14389     14462     14463     13754
 -1      1691    4    0    1
 -2      6579      6669      6679      6589      6580      6670      6680      6590     14389     14462
 -2     14463     13754     13686     14394     14468     13760     14396     14469     14470     13761
 -1      1692    4    0    1
 -2      6580      6670      6680      6590      6581      6671      6681      6591     14396     14469
 -2     14470     13761     13693     14401     14475     13767     14403     14476     14477     13768
 -1      1693    4    0    1
 -2      6581      6671      6681      6591      6582      6672      6682      6592     14403     14476
 -2     14477     13768     13700     14408     14482     13774     14410     14483     14484     13775
 -1      1694    4    0    1
 -2      6582      6672      6682      6592      4867      4876      4877      4868     14410     14483
 -2     14484     13775     13707     14415     14489     13781      5302      5304      5305      5275
 -1      1695    4    0    1
 -2       471       480       481       472      6583      6673      6683      6593       908       910
 -2       911       881     13711     14419     14493     13785     14421     14494     14495     13786
 -1      1696    4    0    1
 -2      6583      6673      6683      6593      6584      6674      6684      6594     14421     14494
 -2     14495     13786     13718     14426     14500     13792     14428     14501     14502     13793
 -1      1697    4    0    1
 -2      6584      6674      6684      6594      6585      6675      6685      6595     14428     14501
 -2     14502     13793     13725     14433     14507     13799     14435     14508     14509     13800
 -1      1698    4    0    1
 -2      6585      6675      6685      6595      6586      6676      6686      6596     14435     14508
 -2     14509     13800     13732     14440     14514     13806     14442     14515     14516     13807
 -1      1699    4    0    1
 -2      6586      6676      6686      6596      6587      6677      6687      6597     14442     14515
 -2     14516     13807     13739     14447     14521     13813     14449     14522     14523     13814
 -1      1700    4    0    1
 -2      6587      6677      6687      6597      6588      6678      6688      6598     14449     14522
 -2     14523     13814     13746     14454     14528     13820     14456     14529     14530     13821
 -1      1701    4    0    1
 -2      6588      6678      6688      6598      6589      6679      6689      6599     14456     14529
 -2     14530     13821     13753     14461     14535     13827     14463     14536     14537     13828
 -1      1702    4    0    1
 -2      6589      6679      6689      6599      6590      6680      6690      6600     14463     14536
 -2     14537     13828     13760     14468     14542     13834     14470     14543     14544     13835
 -1      1703    4    0    1
 -2      6590      6680      6690      6600      6591      6681      6691      6601     14470     14543
 -2     14544     13835     13767     14475     14549     13841     14477     14550     14551     13842
 -1      1704    4    0    1
 -2      6591      6681      6691      6601      6592      6682      6692      6602     14477     14550
 -2     14551     13842     13774     14482     14556     13848     14484     14557     14558     13849
 -1      1705    4    0    1
 -2      6592      6682      6692      6602      4868      4877      4878      4869     14484     14557
 -2     14558     13849     13781     14489     14563     13855      5305      5307      5308      5278
 -1      1706    4    0    1
 -2       472       481       482       473      6593      6683      6693      6603       911       913
 -2       914       884     13785     14493     14567     13859     14495     14568     14569     13860
 -1      1707    4    0    1
 -2      6593      6683      6693      6603      6594      6684      6694      6604     14495     14568
 -2     14569     13860     13792     14500     14574     13866     14502     14575     14576     13867
 -1      1708    4    0    1
 -2      6594      6684      6694      6604      6595      6685      6695      6605     14502     14575
 -2     14576     13867     13799     14507     14581     13873     14509     14582     14583     13874
 -1      1709    4    0    1
 -2      6595      6685      6695      6605      6596      6686      6696      6606     14509     14582
 -2     14583     13874     13806     14514     14588     13880     14516     14589     14590     13881
 -1      1710    4    0    1
 -2      6596      6686      6696      6606      6597      6687      6697      6607     14516     14589
 -2     14590     13881     13813     14521     14595     13887     14523     14596     14597     13888
 -1      1711    4    0    1
 -2      6597      6687      6697      6607      6598      6688      6698      6608     14523     14596
 -2     14597     13888     13820     14528     14602     13894     14530     14603     14604     13895
 -1      1712    4    0    1
 -2      6598      6688      6698      6608      6599      6689      6699      6609     14530     14603
 -2     14604     13895     13827     14535     14609     13901     14537     14610     14611     13902
 -1      1713    4    0    1
 -2      6599      6689      6699      6609      6600      6690      6700      6610     14537     14610
 -2     14611     13902     13834     14542     14616     13908     14544     14617     14618     13909
 -1      1714    4    0    1
 -2      6600      6690      6700      6610      6601      6691      6701      6611     14544     14617
 -2     14618     13909     13841     14549     14623     13915     14551     14624     14625     13916
 -1      1715    4    0    1
 -2      6601      6691      6701      6611      6602      6692      6702      6612     14551     14624
 -2     14625     13916     13848     14556     14630     13922     14558     14631     14632     13923
 -1      1716    4    0    1
 -2      6602      6692      6702      6612      4869      4878      4879      4870     14558     14631
 -2     14632     13923     13855     14563     14637     13929      5308      5310      5311      5281
 -1      1717    4    0    1
 -2       473       482       483       474      6603      6693      6703      6613       914       916
 -2       917       887     13859     14567     14641     13933     14569     14642     14643     13934
 -1      1718    4    0    1
 -2      6603      6693      6703      6613      6604      6694      6704      6614     14569     14642
 -2     14643     13934     13866     14574     14648     13940     14576     14649     14650     13941
 -1      1719    4    0    1
 -2      6604      6694      6704      6614      6605      6695      6705      6615     14576     14649
 -2     14650     13941     13873     14581     14655     13947     14583     14656     14657     13948
 -1      1720    4    0    1
 -2      6605      6695      6705      6615      6606      6696      6706      6616     14583     14656
 -2     14657     13948     13880     14588     14662     13954     14590     14663     14664     13955
 -1      1721    4    0    1
 -2      6606      6696      6706      6616      6607      6697      6707      6617     14590     14663
 -2     14664     13955     13887     14595     14669     13961     14597     14670     14671     13962
 -1      1722    4    0    1
 -2      6607      6697      6707      6617      6608      6698      6708      6618     14597     14670
 -2     14671     13962     13894     14602     14676     13968     14604     14677     14678     13969
 -1      1723    4    0    1
 -2      6608      6698      6708      6618      6609      6699      6709      6619     14604     14677
 -2     14678     13969     13901     14609     14683     13975     14611     14684     14685     13976
 -1      1724    4    0    1
 -2      6609      6699      6709      6619      6610      6700      6710      6620     14611     14684
 -2     14685     13976     13908     14616     14690     13982     14618     14691     14692     13983
 -1      1725    4    0    1
 -2      6610      6700      6710      6620      6611      6701      6711      6621     14618     14691
 -2     14692     13983     13915     14623     14697     13989     14625     14698     14699     13990
 -1      1726    4    0    1
 -2      6611      6701      6711      6621      6612      6702      6712      6622     14625     14698
 -2     14699     13990     13922     14630     14704     13996     14632     14705     14706     13997
 -1      1727    4    0    1
 -2      6612      6702      6712      6622      4870      4879      4880      4871     14632     14705
 -2     14706     13997     13929     14637     14711     14003      5311      5313      5314      5284
 -1      1728    4    0    1
 -2       474       483       484       475      6613      6703      6713      6623       917       919
 -2       920       890     13933     14641     14715     14007     14643     14716     14717     14008
 -1      1729    4    0    1
 -2      6613      6703      6713      6623      6614      6704      6714      6624     14643     14716
 -2     14717     14008     13940     14648     14722     14014     14650     14723     14724     14015
 -1      1730    4    0    1
 -2      6614      6704      6714      6624      6615      6705      6715      6625     14650     14723
 -2     14724     14015     13947     14655     14729     14021     14657     14730     14731     14022
 -1      1731    4    0    1
 -2      6615      6705      6715      6625      6616      6706      6716      6626     14657     14730
 -2     14731     14022     13954     14662     14736     14028     14664     14737     14738     14029
 -1      1732    4    0    1
 -2      6616      6706      6716      6626      6617      6707      6717      6627     14664     14737
 -2     14738     14029     13961     14669     14743     14035     14671     14744     14745     14036
 -1      1733    4    0    1
 -2      6617      6707      6717      6627      6618      6708      6718      6628     14671     14744
 -2     14745     14036     13968     14676     14750     14042     14678     14751     14752     14043
 -1      1734    4    0    1
 -2      6618      6708      6718      6628      6619      6709      6719      6629     14678     14751
 -2     14752     14043     13975     14683     14757     14049     14685     14758     14759     14050
 -1      1735    4    0    1
 -2      6619      6709      6719      6629      6620      6710      6720      6630     14685     14758
 -2     14759     14050     13982     14690     14764     14056     14692     14765     14766     14057
 -1      1736    4    0    1
 -2      6620      6710      6720      6630      6621      6711      6721      6631     14692     14765
 -2     14766     14057     13989     14697     14771     14063     14699     14772     14773     14064
 -1      1737    4    0    1
 -2      6621      6711      6721      6631      6622      6712      6722      6632     14699     14772
 -2     14773     14064     13996     14704     14778     14070     14706     14779     14780     14071
 -1      1738    4    0    1
 -2      6622      6712      6722      6632      4871      4880      4881      4872     14706     14779
 -2     14780     14071     14003     14711     14785     14077      5314      5316      5317      5287
 -1      1739    4    0    1
 -2       475       484       485       476      6623      6713      6723      6633       920       922
 -2       923       893     14007     14715     14789     14081     14717     14790     14791     14082
 -1      1740    4    0    1
 -2      6623      6713      6723      6633      6624      6714      6724      6634     14717     14790
 -2     14791     14082     14014     14722     14796     14088     14724     14797     14798     14089
 -1      1741    4    0    1
 -2      6624      6714      6724      6634      6625      6715      6725      6635     14724     14797
 -2     14798     14089     14021     14729     14803     14095     14731     14804     14805     14096
 -1      1742    4    0    1
 -2      6625      6715      6725      6635      6626      6716      6726      6636     14731     14804
 -2     14805     14096     14028     14736     14810     14102     14738     14811     14812     14103
 -1      1743    4    0    1
 -2      6626      6716      6726      6636      6627      6717      6727      6637     14738     14811
 -2     14812     14103     14035     14743     14817     14109     14745     14818     14819     14110
 -1      1744    4    0    1
 -2      6627      6717      6727      6637      6628      6718      6728      6638     14745     14818
 -2     14819     14110     14042     14750     14824     14116     14752     14825     14826     14117
 -1      1745    4    0    1
 -2      6628      6718      6728      6638      6629      6719      6729      6639     14752     14825
 -2     14826     14117     14049     14757     14831     14123     14759     14832     14833     14124
 -1      1746    4    0    1
 -2      6629      6719      6729      6639      6630      6720      6730      6640     14759     14832
 -2     14833     14124     14056     14764     14838     14130     14766     14839     14840     14131
 -1      1747    4    0    1
 -2      6630      6720      6730      6640      6631      6721      6731      6641     14766     14839
 -2     14840     14131     14063     14771     14845     14137     14773     14846     14847     14138
 -1      1748    4    0    1
 -2      6631      6721      6731      6641      6632      6722      6732      6642     14773     14846
 -2     14847     14138     14070     14778     14852     14144     14780     14853     14854     14145
 -1      1749    4    0    1
 -2      6632      6722      6732      6642      4872      4881      4882      4873     14780     14853
 -2     14854     14145     14077     14785     14859     14151      5317      5319      5320      5290
 -1      1750    4    0    1
 -2       476       485       107       108      6633      6723      3364      3374       923       925
 -2       137       896     14081     14789      4094      4126     14791     14863      4127     14155
 -1      1751    4    0    1
 -2      6633      6723      3364      3374      6634      6724      3365      3375     14791     14863
 -2      4127     14155     14088     14796      4097      4129     14798     14867      4130     14159
 -1      1752    4    0    1
 -2      6634      6724      3365      3375      6635      6725      3366      3376     14798     14867
 -2      4130     14159     14095     14803      4100      4132     14805     14871      4133     14163
 -1      1753    4    0    1
 -2      6635      6725      3366      3376      6636      6726      3367      3377     14805     14871
 -2      4133     14163     14102     14810      4103      4135     14812     14875      4136     14167
 -1      1754    4    0    1
 -2      6636      6726      3367      3377      6637      6727      3368      3378     14812     14875
 -2      4136     14167     14109     14817      4106      4138     14819     14879      4139     14171
 -1      1755    4    0    1
 -2      6637      6727      3368      3378      6638      6728      3369      3379     14819     14879
 -2      4139     14171     14116     14824      4109      4141     14826     14883      4142     14175
 -1      1756    4    0    1
 -2      6638      6728      3369      3379      6639      6729      3370      3380     14826     14883
 -2      4142     14175     14123     14831      4112      4144     14833     14887      4145     14179
 -1      1757    4    0    1
 -2      6639      6729      3370      3380      6640      6730      3371      3381     14833     14887
 -2      4145     14179     14130     14838      4115      4147     14840     14891      4148     14183
 -1      1758    4    0    1
 -2      6640      6730      3371      3381      6641      6731      3372      3382     14840     14891
 -2      4148     14183     14137     14845      4118      4150     14847     14895      4151     14187
 -1      1759    4    0    1
 -2      6641      6731      3372      3382      6642      6732      3373      3383     14847     14895
 -2      4151     14187     14144     14852      4121      4153     14854     14899      4154     14191
 -1      1760    4    0    1
 -2      6642      6732      3373      3383      4873      4882       263       264     14854     14899
 -2      4154     14191     14151     14859      4124      4156      5320      5322       293      5293
 -1      1761    4    0    1
 -2        17        18       486       477      1606      1616      6733      6643        47       927
 -2       928       898      2072      2104     14905     14197      2105     14906     14907     14198
 -1      1762    4    0    1
 -2      1606      1616      6733      6643      1607      1617      6734      6644      2105     14906
 -2     14907     14198      2075      2107     14912     14204      2108     14913     14914     14205
 -1      1763    4    0    1
 -2      1607      1617      6734      6644      1608      1618      6735      6645      2108     14913
 -2     14914     14205      2078      2110     14919     14211      2111     14920     14921     14212
 -1      1764    4    0    1
 -2      1608      1618      6735      6645      1609      1619      6736      6646      2111     14920
 -2     14921     14212      2081      2113     14926     14218      2114     14927     14928     14219
 -1      1765    4    0    1
 -2      1609      1619      6736      6646      1610      1620      6737      6647      2114     14927
 -2     14928     14219      2084      2116     14933     14225      2117     14934     14935     14226
 -1      1766    4    0    1
 -2      1610      1620      6737      6647      1611      1621      6738      6648      2117     14934
 -2     14935     14226      2087      2119     14940     14232      2120     14941     14942     14233
 -1      1767    4    0    1
 -2      1611      1621      6738      6648      1612      1622      6739      6649      2120     14941
 -2     14942     14233      2090      2122     14947     14239      2123     14948     14949     14240
 -1      1768    4    0    1
 -2      1612      1622      6739      6649      1613      1623      6740      6650      2123     14948
 -2     14949     14240      2093      2125     14954     14246      2126     14955     14956     14247
 -1      1769    4    0    1
 -2      1613      1623      6740      6650      1614      1624      6741      6651      2126     14955
 -2     14956     14247      2096      2128     14961     14253      2129     14962     14963     14254
 -1      1770    4    0    1
 -2      1614      1624      6741      6651      1615      1625      6742      6652      2129     14962
 -2     14963     14254      2099      2131     14968     14260      2132     14969     14970     14261
 -1      1771    4    0    1
 -2      1615      1625      6742      6652       173       174      4883      4874      2132     14969
 -2     14970     14261      2102      2134     14975     14267       203      5324      5325      5295
 -1      1772    4    0    1
 -2       477       486       487       478      6643      6733      6743      6653       928       930
 -2       931       901     14197     14905     14979     14271     14907     14980     14981     14272
 -1      1773    4    0    1
 -2      6643      6733      6743      6653      6644      6734      6744      6654     14907     14980
 -2     14981     14272     14204     14912     14986     14278     14914     14987     14988     14279
 -1      1774    4    0    1
 -2      6644      6734      6744      6654      6645      6735      6745      6655     14914     14987
 -2     14988     14279     14211     14919     14993     14285     14921     14994     14995     14286
 -1      1775    4    0    1
 -2      6645      6735      6745      6655      6646      6736      6746      6656     14921     14994
 -2     14995     14286     14218     14926     15000     14292     14928     15001     15002     14293
 -1      1776    4    0    1
 -2      6646      6736      6746      6656      6647      6737      6747      6657     14928     15001
 -2     15002     14293     14225     14933     15007     14299     14935     15008     15009     14300
 -1      1777    4    0    1
 -2      6647      6737      6747      6657      6648      6738      6748      6658     14935     15008
 -2     15009     14300     14232     14940     15014     14306     14942     15015     15016     14307
 -1      1778    4    0    1
 -2      6648      6738      6748      6658      6649      6739      6749      6659     14942     15015
 -2     15016     14307     14239     14947     15021     14313     14949     15022     15023     14314
 -1      1779    4    0    1
 -2      6649      6739      6749      6659      6650      6740      6750      6660     14949     15022
 -2     15023     14314     14246     14954     15028     14320     14956     15029     15030     14321
 -1      1780    4    0    1
 -2      6650      6740      6750      6660      6651      6741      6751      6661     14956     15029
 -2     15030     14321     14253     14961     15035     14327     14963     15036     15037     14328
 -1      1781    4    0    1
 -2      6651      6741      6751      6661      6652      6742      6752      6662     14963     15036
 -2     15037     14328     14260     14968     15042     14334     14970     15043     15044     14335
 -1      1782    4    0    1
 -2      6652      6742      6752      6662      4874      4883      4884      4875     14970     15043
 -2     15044     14335     14267     14975     15049     14341      5325      5327      5328      5298
 -1      1783    4    0    1
 -2       478       487       488       479      6653      6743      6753      6663       931       933
 -2       934       904     14271     14979     15053     14345     14981     15054     15055     14346
 -1      1784    4    0    1
 -2      6653      6743      6753      6663      6654      6744      6754      6664     14981     15054
 -2     15055     14346     14278     14986     15060     14352     14988     15061     15062     14353
 -1      1785    4    0    1
 -2      6654      6744      6754      6664      6655      6745      6755      6665     14988     15061
 -2     15062     14353     14285     14993     15067     14359     14995     15068     15069     14360
 -1      1786    4    0    1
 -2      6655      6745      6755      6665      6656      6746      6756      6666     14995     15068
 -2     15069     14360     14292     15000     15074     14366     15002     15075     15076     14367
 -1      1787    4    0    1
 -2      6656      6746      6756      6666      6657      6747      6757      6667     15002     15075
 -2     15076     14367     14299     15007     15081     14373     15009     15082     15083     14374
 -1      1788    4    0    1
 -2      6657      6747      6757      6667      6658      6748      6758      6668     15009     15082
 -2     15083     14374     14306     15014     15088     14380     15016     15089     15090     14381
 -1      1789    4    0    1
 -2      6658      6748      6758      6668      6659      6749      6759      6669     15016     15089
 -2     15090     14381     14313     15021     15095     14387     15023     15096     15097     14388
 -1      1790    4    0    1
 -2      6659      6749      6759      6669      6660      6750      6760      6670     15023     15096
 -2     15097     14388     14320     15028     15102     14394     15030     15103     15104     14395
 -1      1791    4    0    1
 -2      6660      6750      6760      6670      6661      6751      6761      6671     15030     15103
 -2     15104     14395     14327     15035     15109     14401     15037     15110     15111     14402
 -1      1792    4    0    1
 -2      6661      6751      6761      6671      6662      6752      6762      6672     15037     15110
 -2     15111     14402     14334     15042     15116     14408     15044     15117     15118     14409
 -1      1793    4    0    1
 -2      6662      6752      6762      6672      4875      4884      4885      4876     15044     15117
 -2     15118     14409     14341     15049     15123     14415      5328      5330      5331      5301
 -1      1794    4    0    1
 -2       479       488       489       480      6663      6753      6763      6673       934       936
 -2       937       907     14345     15053     15127     14419     15055     15128     15129     14420
 -1      1795    4    0    1
 -2      6663      6753      6763      6673      6664      6754      6764      6674     15055     15128
 -2     15129     14420     14352     15060     15134     14426     15062     15135     15136     14427
 -1      1796    4    0    1
 -2      6664      6754      6764      6674      6665      6755      6765      6675     15062     15135
 -2     15136     14427     14359     15067     15141     14433     15069     15142     15143     14434
 -1      1797    4    0    1
 -2      6665      6755      6765      6675      6666      6756      6766      6676     15069     15142
 -2     15143     14434     14366     15074     15148     14440     15076     15149     15150     14441
 -1      1798    4    0    1
 -2      6666      6756      6766      6676      6667      6757      6767      6677     15076     15149
 -2     15150     14441     14373     15081     15155     14447     15083     15156     15157     14448
 -1      1799    4    0    1
 -2      6667      6757      6767      6677      6668      6758      6768      6678     15083     15156
 -2     15157     14448     14380     15088     15162     14454     15090     15163     15164     14455
 -1      1800    4    0    1
 -2      6668      6758      6768      6678      6669      6759      6769      6679     15090     15163
 -2     15164     14455     14387     15095     15169     14461     15097     15170     15171     14462
 -1      1801    4    0    1
 -2      6669      6759      6769      6679      6670      6760      6770      6680     15097     15170
 -2     15171     14462     14394     15102     15176     14468     15104     15177     15178     14469
 -1      1802    4    0    1
 -2      6670      6760      6770      6680      6671      6761      6771      6681     15104     15177
 -2     15178     14469     14401     15109     15183     14475     15111     15184     15185     14476
 -1      1803    4    0    1
 -2      6671      6761      6771      6681      6672      6762      6772      6682     15111     15184
 -2     15185     14476     14408     15116     15190     14482     15118     15191     15192     14483
 -1      1804    4    0    1
 -2      6672      6762      6772      6682      4876      4885      4886      4877     15118     15191
 -2     15192     14483     14415     15123     15197     14489      5331      5333      5334      5304
 -1      1805    4    0    1
 -2       480       489       490       481      6673      6763      6773      6683       937       939
 -2       940       910     14419     15127     15201     14493     15129     15202     15203     14494
 -1      1806    4    0    1
 -2      6673      6763      6773      6683      6674      6764      6774      6684     15129     15202
 -2     15203     14494     14426     15134     15208     14500     15136     15209     15210     14501
 -1      1807    4    0    1
 -2      6674      6764      6774      6684      6675      6765      6775      6685     15136     15209
 -2     15210     14501     14433     15141     15215     14507     15143     15216     15217     14508
 -1      1808    4    0    1
 -2      6675      6765      6775      6685      6676      6766      6776      6686     15143     15216
 -2     15217     14508     14440     15148     15222     14514     15150     15223     15224     14515
 -1      1809    4    0    1
 -2      6676      6766      6776      6686      6677      6767      6777      6687     15150     15223
 -2     15224     14515     14447     15155     15229     14521     15157     15230     15231     14522
 -1      1810    4    0    1
 -2      6677      6767      6777      6687      6678      6768      6778      6688     15157     15230
 -2     15231     14522     14454     15162     15236     14528     15164     15237     15238     14529
 -1      1811    4    0    1
 -2      6678      6768      6778      6688      6679      6769      6779      6689     15164     15237
 -2     15238     14529     14461     15169     15243     14535     15171     15244     15245     14536
 -1      1812    4    0    1
 -2      6679      6769      6779      6689      6680      6770      6780      6690     15171     15244
 -2     15245     14536     14468     15176     15250     14542     15178     15251     15252     14543
 -1      1813    4    0    1
 -2      6680      6770      6780      6690      6681      6771      6781      6691     15178     15251
 -2     15252     14543     14475     15183     15257     14549     15185     15258     15259     14550
 -1      1814    4    0    1
 -2      6681      6771      6781      6691      6682      6772      6782      6692     15185     15258
 -2     15259     14550     14482     15190     15264     14556     15192     15265     15266     14557
 -1      1815    4    0    1
 -2      6682      6772      6782      6692      4877      4886      4887      4878     15192     15265
 -2     15266     14557     14489     15197     15271     14563      5334      5336      5337      5307
 -1      1816    4    0    1
 -2       481       490       491       482      6683      6773      6783      6693       940       942
 -2       943       913     14493     15201     15275     14567     15203     15276     15277     14568
 -1      1817    4    0    1
 -2      6683      6773      6783      6693      6684      6774      6784      6694     15203     15276
 -2     15277     14568     14500     15208     15282     14574     15210     15283     15284     14575
 -1      1818    4    0    1
 -2      6684      6774      6784      6694      6685      6775      6785      6695     15210     15283
 -2     15284     14575     14507     15215     15289     14581     15217     15290     15291     14582
 -1      1819    4    0    1
 -2      6685      6775      6785      6695      6686      6776      6786      6696     15217     15290
 -2     15291     14582     14514     15222     15296     14588     15224     15297     15298     14589
 -1      1820    4    0    1
 -2      6686      6776      6786      6696      6687      6777      6787      6697     15224     15297
 -2     15298     14589     14521     15229     15303     14595     15231     15304     15305     14596
 -1      1821    4    0    1
 -2      6687      6777      6787      6697      6688      6778      6788      6698     15231     15304
 -2     15305     14596     14528     15236     15310     14602     15238     15311     15312     14603
 -1      1822    4    0    1
 -2      6688      6778      6788      6698      6689      6779      6789      6699     15238     15311
 -2     15312     14603     14535     15243     15317     14609     15245     15318     15319     14610
 -1      1823    4    0    1
 -2      6689      6779      6789      6699      6690      6780      6790      6700     15245     15318
 -2     15319     14610     14542     15250     15324     14616     15252     15325     15326     14617
 -1      1824    4    0    1
 -2      6690      6780      6790      6700      6691      6781      6791      6701     15252     15325
 -2     15326     14617     14549     15257     15331     14623     15259     15332     15333     14624
 -1      1825    4    0    1
 -2      6691      6781      6791      6701      6692      6782      6792      6702     15259     15332
 -2     15333     14624     14556     15264     15338     14630     15266     15339     15340     14631
 -1      1826    4    0    1
 -2      6692      6782      6792      6702      4878      4887      4888      4879     15266     15339
 -2     15340     14631     14563     15271     15345     14637      5337      5339      5340      5310
 -1      1827    4    0    1
 -2       482       491       492       483      6693      6783      6793      6703       943       945
 -2       946       916     14567     15275     15349     14641     15277     15350     15351     14642
 -1      1828    4    0    1
 -2      6693      6783      6793      6703      6694      6784      6794      6704     15277     15350
 -2     15351     14642     14574     15282     15356     14648     15284     15357     15358     14649
 -1      1829    4    0    1
 -2      6694      6784      6794      6704      6695      6785      6795      6705     15284     15357
 -2     15358     14649     14581     15289     15363     14655     15291     15364     15365     14656
 -1      1830    4    0    1
 -2      6695      6785      6795      6705      6696      6786      6796      6706     15291     15364
 -2     15365     14656     14588     15296     15370     14662     15298     15371     15372     14663
 -1      1831    4    0    1
 -2      6696      6786      6796      6706      6697      6787      6797      6707     15298     15371
 -2     15372     14663     14595     15303     15377     14669     15305     15378     15379     14670
 -1      1832    4    0    1
 -2      6697      6787      6797      6707      6698      6788      6798      6708     15305     15378
 -2     15379     14670     14602     15310     15384     14676     15312     15385     15386     14677
 -1      1833    4    0    1
 -2      6698      6788      6798      6708      6699      6789      6799      6709     15312     15385
 -2     15386     14677     14609     15317     15391     14683     15319     15392     15393     14684
 -1      1834    4    0    1
 -2      6699      6789      6799      6709      6700      6790      6800      6710     15319     15392
 -2     15393     14684     14616     15324     15398     14690     15326     15399     15400     14691
 -1      1835    4    0    1
 -2      6700      6790      6800      6710      6701      6791      6801      6711     15326     15399
 -2     15400     14691     14623     15331     15405     14697     15333     15406     15407     14698
 -1      1836    4    0    1
 -2      6701      6791      6801      6711      6702      6792      6802      6712     15333     15406
 -2     15407     14698     14630     15338     15412     14704     15340     15413     15414     14705
 -1      1837    4    0    1
 -2      6702      6792      6802      6712      4879      4888      4889      4880     15340     15413
 -2     15414     14705     14637     15345     15419     14711      5340      5342      5343      5313
 -1      1838    4    0    1
 -2       483       492       493       484      6703      6793      6803      6713       946       948
 -2       949       919     14641     15349     15423     14715     15351     15424     15425     14716
 -1      1839    4    0    1
 -2      6703      6793      6803      6713      6704      6794      6804      6714     15351     15424
 -2     15425     14716     14648     15356     15430     14722     15358     15431     15432     14723
 -1      1840    4    0    1
 -2      6704      6794      6804      6714      6705      6795      6805      6715     15358     15431
 -2     15432     14723     14655     15363     15437     14729     15365     15438     15439     14730
 -1      1841    4    0    1
 -2      6705      6795      6805      6715      6706      6796      6806      6716     15365     15438
 -2     15439     14730     14662     15370     15444     14736     15372     15445     15446     14737
 -1      1842    4    0    1
 -2      6706      6796      6806      6716      6707      6797      6807      6717     15372     15445
 -2     15446     14737     14669     15377     15451     14743     15379     15452     15453     14744
 -1      1843    4    0    1
 -2      6707      6797      6807      6717      6708      6798      6808      6718     15379     15452
 -2     15453     14744     14676     15384     15458     14750     15386     15459     15460     14751
 -1      1844    4    0    1
 -2      6708      6798      6808      6718      6709      6799      6809      6719     15386     15459
 -2     15460     14751     14683     15391     15465     14757     15393     15466     15467     14758
 -1      1845    4    0    1
 -2      6709      6799      6809      6719      6710      6800      6810      6720     15393     15466
 -2     15467     14758     14690     15398     15472     14764     15400     15473     15474     14765
 -1      1846    4    0    1
 -2      6710      6800      6810      6720      6711      6801      6811      6721     15400     15473
 -2     15474     14765     14697     15405     15479     14771     15407     15480     15481     14772
 -1      1847    4    0    1
 -2      6711      6801      6811      6721      6712      6802      6812      6722     15407     15480
 -2     15481     14772     14704     15412     15486     14778     15414     15487     15488     14779
 -1      1848    4    0    1
 -2      6712      6802      6812      6722      4880      4889      4890      4881     15414     15487
 -2     15488     14779     14711     15419     15493     14785      5343      5345      5346      5316
 -1      1849    4    0    1
 -2       484       493       494       485      6713      6803      6813      6723       949       951
 -2       952       922     14715     15423     15497     14789     15425     15498     15499     14790
 -1      1850    4    0    1
 -2      6713      6803      6813      6723      6714      6804      6814      6724     15425     15498
 -2     15499     14790     14722     15430     15504     14796     15432     15505     15506     14797
 -1      1851    4    0    1
 -2      6714      6804      6814      6724      6715      6805      6815      6725     15432     15505
 -2     15506     14797     14729     15437     15511     14803     15439     15512     15513     14804
 -1      1852    4    0    1
 -2      6715      6805      6815      6725      6716      6806      6816      6726     15439     15512
 -2     15513     14804     14736     15444     15518     14810     15446     15519     15520     14811
 -1      1853    4    0    1
 -2      6716      6806      6816      6726      6717      6807      6817      6727     15446     15519
 -2     15520     14811     14743     15451     15525     14817     15453     15526     15527     14818
 -1      1854    4    0    1
 -2      6717      6807      6817      6727      6718      6808      6818      6728     15453     15526
 -2     15527     14818     14750     15458     15532     14824     15460     15533     15534     14825
 -1      1855    4    0    1
 -2      6718      6808      6818      6728      6719      6809      6819      6729     15460     15533
 -2     15534     14825     14757     15465     15539     14831     15467     15540     15541     14832
 -1      1856    4    0    1
 -2      6719      6809      6819      6729      6720      6810      6820      6730     15467     15540
 -2     15541     14832     14764     15472     15546     14838     15474     15547     15548     14839
 -1      1857    4    0    1
 -2      6720      6810      6820      6730      6721      6811      6821      6731     15474     15547
 -2     15548     14839     14771     15479     15553     14845     15481     15554     15555     14846
 -1      1858    4    0    1
 -2      6721      6811      6821      6731      6722      6812      6822      6732     15481     15554
 -2     15555     14846     14778     15486     15560     14852     15488     15561     15562     14853
 -1      1859    4    0    1
 -2      6722      6812      6822      6732      4881      4890      4891      4882     15488     15561
 -2     15562     14853     14785     15493     15567     14859      5346      5348      5349      5319
 -1      1860    4    0    1
 -2       485       494       106       107      6723      6813      3354      3364       952       954
 -2       136       925     14789     15497      4062      4094     15499     15571      4095     14863
 -1      1861    4    0    1
 -2      6723      6813      3354      3364      6724      6814      3355      3365     15499     15571
 -2      4095     14863     14796     15504      4065      4097     15506     15575      4098     14867
 -1      1862    4    0    1
 -2      6724      6814      3355      3365      6725      6815      3356      3366     15506     15575
 -2      4098     14867     14803     15511      4068      4100     15513     15579      4101     14871
 -1      1863    4    0    1
 -2      6725      6815      3356      3366      6726      6816      3357      3367     15513     15579
 -2      4101     14871     14810     15518      4071      4103     15520     15583      4104     14875
 -1      1864    4    0    1
 -2      6726      6816      3357      3367      6727      6817      3358      3368     15520     15583
 -2      4104     14875     14817     15525      4074      4106     15527     15587      4107     14879
 -1      1865    4    0    1
 -2      6727      6817      3358      3368      6728      6818      3359      3369     15527     15587
 -2      4107     14879     14824     15532      4077      4109     15534     15591      4110     14883
 -1      1866    4    0    1
 -2      6728      6818      3359      3369      6729      6819      3360      3370     15534     15591
 -2      4110     14883     14831     15539      4080      4112     15541     15595      4113     14887
 -1      1867    4    0    1
 -2      6729      6819      3360      3370      6730      6820      3361      3371     15541     15595
 -2      4113     14887     14838     15546      4083      4115     15548     15599      4116     14891
 -1      1868    4    0    1
 -2      6730      6820      3361      3371      6731      6821      3362      3372     15548     15599
 -2      4116     14891     14845     15553      4086      4118     15555     15603      4119     14895
 -1      1869    4    0    1
 -2      6731      6821      3362      3372      6732      6822      3363      3373     15555     15603
 -2      4119     14895     14852     15560      4089      4121     15562     15607      4122     14899
 -1      1870    4    0    1
 -2      6732      6822      3363      3373      4882      4891       262       263     15562     15607
 -2      4122     14899     14859     15567      4092      4124      5349      5351       292      5322
 -1      1871    4    0    1
 -2        18        19       495       486      1616      1626      6823      6733        48       956
 -2       957       927      2104      2136     15613     14905      2137     15614     15615     14906
 -1      1872    4    0    1
 -2      1616      1626      6823      6733      1617      1627      6824      6734      2137     15614
 -2     15615     14906      2107      2139     15620     14912      2140     15621     15622     14913
 -1      1873    4    0    1
 -2      1617      1627      6824      6734      1618      1628      6825      6735      2140     15621
 -2     15622     14913      2110      2142     15627     14919      2143     15628     15629     14920
 -1      1874    4    0    1
 -2      1618      1628      6825      6735      1619      1629      6826      6736      2143     15628
 -2     15629     14920      2113      2145     15634     14926      2146     15635     15636     14927
 -1      1875    4    0    1
 -2      1619      1629      6826      6736      1620      1630      6827      6737      2146     15635
 -2     15636     14927      2116      2148     15641     14933      2149     15642     15643     14934
 -1      1876    4    0    1
 -2      1620      1630      6827      6737      1621      1631      6828      6738      2149     15642
 -2     15643     14934      2119      2151     15648     14940      2152     15649     15650     14941
 -1      1877    4    0    1
 -2      1621      1631      6828      6738      1622      1632      6829      6739      2152     15649
 -2     15650     14941      2122      2154     15655     14947      2155     15656     15657     14948
 -1      1878    4    0    1
 -2      1622      1632      6829      6739      1623      1633      6830      6740      2155     15656
 -2     15657     14948      2125      2157     15662     14954      2158     15663     15664     14955
 -1      1879    4    0    1
 -2      1623      1633      6830      6740      1624      1634      6831      6741      2158     15663
 -2     15664     14955      2128      2160     15669     14961      2161     15670     15671     14962
 -1      1880    4    0    1
 -2      1624      1634      6831      6741      1625      1635      6832      6742      2161     15670
 -2     15671     14962      2131      2163     15676     14968      2164     15677     15678     14969
 -1      1881    4    0    1
 -2      1625      1635      6832      6742       174       175      4892      4883      2164     15677
 -2     15678     14969      2134      2166     15683     14975       204      5353      5354      5324
 -1      1882    4    0    1
 -2       486       495       496       487      6733      6823      6833      6743       957       959
 -2       960       930     14905     15613     15687     14979     15615     15688     15689     14980
 -1      1883    4    0    1
 -2      6733      6823      6833      6743      6734      6824      6834      6744     15615     15688
 -2     15689     14980     14912     15620     15694     14986     15622     15695     15696     14987
 -1      1884    4    0    1
 -2      6734      6824      6834      6744      6735      6825      6835      6745     15622     15695
 -2     15696     14987     14919     15627     15701     14993     15629     15702     15703     14994
 -1      1885    4    0    1
 -2      6735      6825      6835      6745      6736      6826      6836      6746     15629     15702
 -2     15703     14994     14926     15634     15708     15000     15636     15709     15710     15001
 -1      1886    4    0    1
 -2      6736      6826      6836      6746      6737      6827      6837      6747     15636     15709
 -2     15710     15001     14933     15641     15715     15007     15643     15716     15717     15008
 -1      1887    4    0    1
 -2      6737      6827      6837      6747      6738      6828      6838      6748     15643     15716
 -2     15717     15008     14940     15648     15722     15014     15650     15723     15724     15015
 -1      1888    4    0    1
 -2      6738      6828      6838      6748      6739      6829      6839      6749     15650     15723
 -2     15724     15015     14947     15655     15729     15021     15657     15730     15731     15022
 -1      1889    4    0    1
 -2      6739      6829      6839      6749      6740      6830      6840      6750     15657     15730
 -2     15731     15022     14954     15662     15736     15028     15664     15737     15738     15029
 -1      1890    4    0    1
 -2      6740      6830      6840      6750      6741      6831      6841      6751     15664     15737
 -2     15738     15029     14961     15669     15743     15035     15671     15744     15745     15036
 -1      1891    4    0    1
 -2      6741      6831      6841      6751      6742      6832      6842      6752     15671     15744
 -2     15745     15036     14968     15676     15750     15042     15678     15751     15752     15043
 -1      1892    4    0    1
 -2      6742      6832      6842      6752      4883      4892      4893      4884     15678     15751
 -2     15752     15043     14975     15683     15757     15049      5354      5356      5357      5327
 -1      1893    4    0    1
 -2       487       496       497       488      6743      6833      6843      6753       960       962
 -2       963       933     14979     15687     15761     15053     15689     15762     15763     15054
 -1      1894    4    0    1
 -2      6743      6833      6843      6753      6744      6834      6844      6754     15689     15762
 -2     15763     15054     14986     15694     15768     15060     15696     15769     15770     15061
 -1      1895    4    0    1
 -2      6744      6834      6844      6754      6745      6835      6845      6755     15696     15769
 -2     15770     15061     14993     15701     15775     15067     15703     15776     15777     15068
 -1      1896    4    0    1
 -2      6745      6835      6845      6755      6746      6836      6846      6756     15703     15776
 -2     15777     15068     15000     15708     15782     15074     15710     15783     15784     15075
 -1      1897    4    0    1
 -2      6746      6836      6846      6756      6747      6837      6847      6757     15710     15783
 -2     15784     15075     15007     15715     15789     15081     15717     15790     15791     15082
 -1      1898    4    0    1
 -2      6747      6837      6847      6757      6748      6838      6848      6758     15717     15790
 -2     15791     15082     15014     15722     15796     15088     15724     15797     15798     15089
 -1      1899    4    0    1
 -2      6748      6838      6848      6758      6749      6839      6849      6759     15724     15797
 -2     15798     15089     15021     15729     15803     15095     15731     15804     15805     15096
 -1      1900    4    0    1
 -2      6749      6839      6849      6759      6750      6840      6850      6760     15731     15804
 -2     15805     15096     15028     15736     15810     15102     15738     15811     15812     15103
 -1      1901    4    0    1
 -2      6750      6840      6850      6760      6751      6841      6851      6761     15738     15811
 -2     15812     15103     15035     15743     15817     15109     15745     15818     15819     15110
 -1      1902    4    0    1
 -2      6751      6841      6851      6761      6752      6842      6852      6762     15745     15818
 -2     15819     15110     15042     15750     15824     15116     15752     15825     15826     15117
 -1      1903    4    0    1
 -2      6752      6842      6852      6762      4884      4893      4894      4885     15752     15825
 -2     15826     15117     15049     15757     15831     15123      5357      5359      5360      5330
 -1      1904    4    0    1
 -2       488       497       498       489      6753      6843      6853      6763       963       965
 -2       966       936     15053     15761     15835     15127     15763     15836     15837     15128
 -1      1905    4    0    1
 -2      6753      6843      6853      6763      6754      6844      6854      6764     15763     15836
 -2     15837     15128     15060     15768     15842     15134     15770     15843     15844     15135
 -1      1906    4    0    1
 -2      6754      6844      6854      6764      6755      6845      6855      6765     15770     15843
 -2     15844     15135     15067     15775     15849     15141     15777     15850     15851     15142
 -1      1907    4    0    1
 -2      6755      6845      6855      6765      6756      6846      6856      6766     15777     15850
 -2     15851     15142     15074     15782     15856     15148     15784     15857     15858     15149
 -1      1908    4    0    1
 -2      6756      6846      6856      6766      6757      6847      6857      6767     15784     15857
 -2     15858     15149     15081     15789     15863     15155     15791     15864     15865     15156
 -1      1909    4    0    1
 -2      6757      6847      6857      6767      6758      6848      6858      6768     15791     15864
 -2     15865     15156     15088     15796     15870     15162     15798     15871     15872     15163
 -1      1910    4    0    1
 -2      6758      6848      6858      6768      6759      6849      6859      6769     15798     15871
 -2     15872     15163     15095     15803     15877     15169     15805     15878     15879     15170
 -1      1911    4    0    1
 -2      6759      6849      6859      6769      6760      6850      6860      6770     15805     15878
 -2     15879     15170     15102     15810     15884     15176     15812     15885     15886     15177
 -1      1912    4    0    1
 -2      6760      6850      6860      6770      6761      6851      6861      6771     15812     15885
 -2     15886     15177     15109     15817     15891     15183     15819     15892     15893     15184
 -1      1913    4    0    1
 -2      6761      6851      6861      6771      6762      6852      6862      6772     15819     15892
 -2     15893     15184     15116     15824     15898     15190     15826     15899     15900     15191
 -1      1914    4    0    1
 -2      6762      6852      6862      6772      4885      4894      4895      4886     15826     15899
 -2     15900     15191     15123     15831     15905     15197      5360      5362      5363      5333
 -1      1915    4    0    1
 -2       489       498       499       490      6763      6853      6863      6773       966       968
 -2       969       939     15127     15835     15909     15201     15837     15910     15911     15202
 -1      1916    4    0    1
 -2      6763      6853      6863      6773      6764      6854      6864      6774     15837     15910
 -2     15911     15202     15134     15842     15916     15208     15844     15917     15918     15209
 -1      1917    4    0    1
 -2      6764      6854      6864      6774      6765      6855      6865      6775     15844     15917
 -2     15918     15209     15141     15849     15923     15215     15851     15924     15925     15216
 -1      1918    4    0    1
 -2      6765      6855      6865      6775      6766      6856      6866      6776     15851     15924
 -2     15925     15216     15148     15856     15930     15222     15858     15931     15932     15223
 -1      1919    4    0    1
 -2      6766      6856      6866      6776      6767      6857      6867      6777     15858     15931
 -2     15932     15223     15155     15863     15937     15229     15865     15938     15939     15230
 -1      1920    4    0    1
 -2      6767      6857      6867      6777      6768      6858      6868      6778     15865     15938
 -2     15939     15230     15162     15870     15944     15236     15872     15945     15946     15237
 -1      1921    4    0    1
 -2      6768      6858      6868      6778      6769      6859      6869      6779     15872     15945
 -2     15946     15237     15169     15877     15951     15243     15879     15952     15953     15244
 -1      1922    4    0    1
 -2      6769      6859      6869      6779      6770      6860      6870      6780     15879     15952
 -2     15953     15244     15176     15884     15958     15250     15886     15959     15960     15251
 -1      1923    4    0    1
 -2      6770      6860      6870      6780      6771      6861      6871      6781     15886     15959
 -2     15960     15251     15183     15891     15965     15257     15893     15966     15967     15258
 -1      1924    4    0    1
 -2      6771      6861      6871      6781      6772      6862      6872      6782     15893     15966
 -2     15967     15258     15190     15898     15972     15264     15900     15973     15974     15265
 -1      1925    4    0    1
 -2      6772      6862      6872      6782      4886      4895      4896      4887     15900     15973
 -2     15974     15265     15197     15905     15979     15271      5363      5365      5366      5336
 -1      1926    4    0    1
 -2       490       499       500       491      6773      6863      6873      6783       969       971
 -2       972       942     15201     15909     15983     15275     15911     15984     15985     15276
 -1      1927    4    0    1
 -2      6773      6863      6873      6783      6774      6864      6874      6784     15911     15984
 -2     15985     15276     15208     15916     15990     15282     15918     15991     15992     15283
 -1      1928    4    0    1
 -2      6774      6864      6874      6784      6775      6865      6875      6785     15918     15991
 -2     15992     15283     15215     15923     15997     15289     15925     15998     15999     15290
 -1      1929    4    0    1
 -2      6775      6865      6875      6785      6776      6866      6876      6786     15925     15998
 -2     15999     15290     15222     15930     16004     15296     15932     16005     16006     15297
 -1      1930    4    0    1
 -2      6776      6866      6876      6786      6777      6867      6877      6787     15932     16005
 -2     16006     15297     15229     15937     16011     15303     15939     16012     16013     15304
 -1      1931    4    0    1
 -2      6777      6867      6877      6787      6778      6868      6878      6788     15939     16012
 -2     16013     15304     15236     15944     16018     15310     15946     16019     16020     15311
 -1      1932    4    0    1
 -2      6778      6868      6878      6788      6779      6869      6879      6789     15946     16019
 -2     16020     15311     15243     15951     16025     15317     15953     16026     16027     15318
 -1      1933    4    0    1
 -2      6779      6869      6879      6789      6780      6870      6880      6790     15953     16026
 -2     16027     15318     15250     15958     16032     15324     15960     16033     16034     15325
 -1      1934    4    0    1
 -2      6780      6870      6880      6790      6781      6871      6881      6791     15960     16033
 -2     16034     15325     15257     15965     16039     15331     15967     16040     16041     15332
 -1      1935    4    0    1
 -2      6781      6871      6881      6791      6782      6872      6882      6792     15967     16040
 -2     16041     15332     15264     15972     16046     15338     15974     16047     16048     15339
 -1      1936    4    0    1
 -2      6782      6872      6882      6792      4887      4896      4897      4888     15974     16047
 -2     16048     15339     15271     15979     16053     15345      5366      5368      5369      5339
 -1      1937    4    0    1
 -2       491       500       501       492      6783      6873      6883      6793       972       974
 -2       975       945     15275     15983     16057     15349     15985     16058     16059     15350
 -1      1938    4    0    1
 -2      6783      6873      6883      6793      6784      6874      6884      6794     15985     16058
 -2     16059     15350     15282     15990     16064     15356     15992     16065     16066     15357
 -1      1939    4    0    1
 -2      6784      6874      6884      6794      6785      6875      6885      6795     15992     16065
 -2     16066     15357     15289     15997     16071     15363     15999     16072     16073     15364
 -1      1940    4    0    1
 -2      6785      6875      6885      6795      6786      6876      6886      6796     15999     16072
 -2     16073     15364     15296     16004     16078     15370     16006     16079     16080     15371
 -1      1941    4    0    1
 -2      6786      6876      6886      6796      6787      6877      6887      6797     16006     16079
 -2     16080     15371     15303     16011     16085     15377     16013     16086     16087     15378
 -1      1942    4    0    1
 -2      6787      6877      6887      6797      6788      6878      6888      6798     16013     16086
 -2     16087     15378     15310     16018     16092     15384     16020     16093     16094     15385
 -1      1943    4    0    1
 -2      6788      6878      6888      6798      6789      6879      6889      6799     16020     16093
 -2     16094     15385     15317     16025     16099     15391     16027     16100     16101     15392
 -1      1944    4    0    1
 -2      6789      6879      6889      6799      6790      6880      6890      6800     16027     16100
 -2     16101     15392     15324     16032     16106     15398     16034     16107     16108     15399
 -1      1945    4    0    1
 -2      6790      6880      6890      6800      6791      6881      6891      6801     16034     16107
 -2     16108     15399     15331     16039     16113     15405     16041     16114     16115     15406
 -1      1946    4    0    1
 -2      6791      6881      6891      6801      6792      6882      6892      6802     16041     16114
 -2     16115     15406     15338     16046     16120     15412     16048     16121     16122     15413
 -1      1947    4    0    1
 -2      6792      6882      6892      6802      4888      4897      4898      4889     16048     16121
 -2     16122     15413     15345     16053     16127     15419      5369      5371      5372      5342
 -1      1948    4    0    1
 -2       492       501       502       493      6793      6883      6893      6803       975       977
 -2       978       948     15349     16057     16131     15423     16059     16132     16133     15424
 -1      1949    4    0    1
 -2      6793      6883      6893      6803      6794      6884      6894      6804     16059     16132
 -2     16133     15424     15356     16064     16138     15430     16066     16139     16140     15431
 -1      1950    4    0    1
 -2      6794      6884      6894      6804      6795      6885      6895      6805     16066     16139
 -2     16140     15431     15363     16071     16145     15437     16073     16146     16147     15438
 -1      1951    4    0    1
 -2      6795      6885      6895      6805      6796      6886      6896      6806     16073     16146
 -2     16147     15438     15370     16078     16152     15444     16080     16153     16154     15445
 -1      1952    4    0    1
 -2      6796      6886      6896      6806      6797      6887      6897      6807     16080     16153
 -2     16154     15445     15377     16085     16159     15451     16087     16160     16161     15452
 -1      1953    4    0    1
 -2      6797      6887      6897      6807      6798      6888      6898      6808     16087     16160
 -2     16161     15452     15384     16092     16166     15458     16094     16167     16168     15459
 -1      1954    4    0    1
 -2      6798      6888      6898      6808      6799      6889      6899      6809     16094     16167
 -2     16168     15459     15391     16099     16173     15465     16101     16174     16175     15466
 -1      1955    4    0    1
 -2      6799      6889      6899      6809      6800      6890      6900      6810     16101     16174
 -2     16175     15466     15398     16106     16180     15472     16108     16181     16182     15473
 -1      1956    4    0    1
 -2      6800      6890      6900      6810      6801      6891      6901      6811     16108     16181
 -2     16182     15473     15405     16113     16187     15479     16115     16188     16189     15480
 -1      1957    4    0    1
 -2      6801      6891      6901      6811      6802      6892      6902      6812     16115     16188
 -2     16189     15480     15412     16120     16194     15486     16122     16195     16196     15487
 -1      1958    4    0    1
 -2      6802      6892      6902      6812      4889      4898      4899      4890     16122     16195
 -2     16196     15487     15419     16127     16201     15493      5372      5374      5375      5345
 -1      1959    4    0    1
 -2       493       502       503       494      6803      6893      6903      6813       978       980
 -2       981       951     15423     16131     16205     15497     16133     16206     16207     15498
 -1      1960    4    0    1
 -2      6803      6893      6903      6813      6804      6894      6904      6814     16133     16206
 -2     16207     15498     15430     16138     16212     15504     16140     16213     16214     15505
 -1      1961    4    0    1
 -2      6804      6894      6904      6814      6805      6895      6905      6815     16140     16213
 -2     16214     15505     15437     16145     16219     15511     16147     16220     16221     15512
 -1      1962    4    0    1
 -2      6805      6895      6905      6815      6806      6896      6906      6816     16147     16220
 -2     16221     15512     15444     16152     16226     15518     16154     16227     16228     15519
 -1      1963    4    0    1
 -2      6806      6896      6906      6816      6807      6897      6907      6817     16154     16227
 -2     16228     15519     15451     16159     16233     15525     16161     16234     16235     15526
 -1      1964    4    0    1
 -2      6807      6897      6907      6817      6808      6898      6908      6818     16161     16234
 -2     16235     15526     15458     16166     16240     15532     16168     16241     16242     15533
 -1      1965    4    0    1
 -2      6808      6898      6908      6818      6809      6899      6909      6819     16168     16241
 -2     16242     15533     15465     16173     16247     15539     16175     16248     16249     15540
 -1      1966    4    0    1
 -2      6809      6899      6909      6819      6810      6900      6910      6820     16175     16248
 -2     16249     15540     15472     16180     16254     15546     16182     16255     16256     15547
 -1      1967    4    0    1
 -2      6810      6900      6910      6820      6811      6901      6911      6821     16182     16255
 -2     16256     15547     15479     16187     16261     15553     16189     16262     16263     15554
 -1      1968    4    0    1
 -2      6811      6901      6911      6821      6812      6902      6912      6822     16189     16262
 -2     16263     15554     15486     16194     16268     15560     16196     16269     16270     15561
 -1      1969    4    0    1
 -2      6812      6902      6912      6822      4890      4899      4900      4891     16196     16269
 -2     16270     15561     15493     16201     16275     15567      5375      5377      5378      5348
 -1      1970    4    0    1
 -2       494       503       105       106      6813      6903      3344      3354       981       983
 -2       135       954     15497     16205      4030      4062     16207     16279      4063     15571
 -1      1971    4    0    1
 -2      6813      6903      3344      3354      6814      6904      3345      3355     16207     16279
 -2      4063     15571     15504     16212      4033      4065     16214     16283      4066     15575
 -1      1972    4    0    1
 -2      6814      6904      3345      3355      6815      6905      3346      3356     16214     16283
 -2      4066     15575     15511     16219      4036      4068     16221     16287      4069     15579
 -1      1973    4    0    1
 -2      6815      6905      3346      3356      6816      6906      3347      3357     16221     16287
 -2      4069     15579     15518     16226      4039      4071     16228     16291      4072     15583
 -1      1974    4    0    1
 -2      6816      6906      3347      3357      6817      6907      3348      3358     16228     16291
 -2      4072     15583     15525     16233      4042      4074     16235     16295      4075     15587
 -1      1975    4    0    1
 -2      6817      6907      3348      3358      6818      6908      3349      3359     16235     16295
 -2      4075     15587     15532     16240      4045      4077     16242     16299      4078     15591
 -1      1976    4    0    1
 -2      6818      6908      3349      3359      6819      6909      3350      3360     16242     16299
 -2      4078     15591     15539     16247      4048      4080     16249     16303      4081     15595
 -1      1977    4    0    1
 -2      6819      6909      3350      3360      6820      6910      3351      3361     16249     16303
 -2      4081     15595     15546     16254      4051      4083     16256     16307      4084     15599
 -1      1978    4    0    1
 -2      6820      6910      3351      3361      6821      6911      3352      3362     16256     16307
 -2      4084     15599     15553     16261      4054      4086     16263     16311      4087     15603
 -1      1979    4    0    1
 -2      6821      6911      3352      3362      6822      6912      3353      3363     16263     16311
 -2      4087     15603     15560     16268      4057      4089     16270     16315      4090     15607
 -1      1980    4    0    1
 -2      6822      6912      3353      3363      4891      4900       261       262     16270     16315
 -2      4090     15607     15567     16275      4060      4092      5378      5380       291      5351
 -1      1981    4    0    1
 -2        19        20       504       495      1626      1636      6913      6823        49       985
 -2       986       956      2136      2168     16321     15613      2169     16322     16323     15614
 -1      1982    4    0    1
 -2      1626      1636      6913      6823      1627      1637      6914      6824      2169     16322
 -2     16323     15614      2139      2171     16328     15620      2172     16329     16330     15621
 -1      1983    4    0    1
 -2      1627      1637      6914      6824      1628      1638      6915      6825      2172     16329
 -2     16330     15621      2142      2174     16335     15627      2175     16336     16337     15628
 -1      1984    4    0    1
 -2      1628      1638      6915      6825      1629      1639      6916      6826      2175     16336
 -2     16337     15628      2145      2177     16342     15634      2178     16343     16344     15635
 -1      1985    4    0    1
 -2      1629      1639      6916      6826      1630      1640      6917      6827      2178     16343
 -2     16344     15635      2148      2180     16349     15641      2181     16350     16351     15642
 -1      1986    4    0    1
 -2      1630      1640      6917      6827      1631      1641      6918      6828      2181     16350
 -2     16351     15642      2151      2183     16356     15648      2184     16357     16358     15649
 -1      1987    4    0    1
 -2      1631      1641      6918      6828      1632      1642      6919      6829      2184     16357
 -2     16358     15649      2154      2186     16363     15655      2187     16364     16365     15656
 -1      1988    4    0    1
 -2      1632      1642      6919      6829      1633      1643      6920      6830      2187     16364
 -2     16365     15656      2157      2189     16370     15662      2190     16371     16372     15663
 -1      1989    4    0    1
 -2      1633      1643      6920      6830      1634      1644      6921      6831      2190     16371
 -2     16372     15663      2160      2192     16377     15669      2193     16378     16379     15670
 -1      1990    4    0    1
 -2      1634      1644      6921      6831      1635      1645      6922      6832      2193     16378
 -2     16379     15670      2163      2195     16384     15676      2196     16385     16386     15677
 -1      1991    4    0    1
 -2      1635      1645      6922      6832       175       176      4901      4892      2196     16385
 -2     16386     15677      2166      2198     16391     15683       205      5382      5383      5353
 -1      1992    4    0    1
 -2       495       504       505       496      6823      6913      6923      6833       986       988
 -2       989       959     15613     16321     16395     15687     16323     16396     16397     15688
 -1      1993    4    0    1
 -2      6823      6913      6923      6833      6824      6914      6924      6834     16323     16396
 -2     16397     15688     15620     16328     16402     15694     16330     16403     16404     15695
 -1      1994    4    0    1
 -2      6824      6914      6924      6834      6825      6915      6925      6835     16330     16403
 -2     16404     15695     15627     16335     16409     15701     16337     16410     16411     15702
 -1      1995    4    0    1
 -2      6825      6915      6925      6835      6826      6916      6926      6836     16337     16410
 -2     16411     15702     15634     16342     16416     15708     16344     16417     16418     15709
 -1      1996    4    0    1
 -2      6826      6916      6926      6836      6827      6917      6927      6837     16344     16417
 -2     16418     15709     15641     16349     16423     15715     16351     16424     16425     15716
 -1      1997    4    0    1
 -2      6827      6917      6927      6837      6828      6918      6928      6838     16351     16424
 -2     16425     15716     15648     16356     16430     15722     16358     16431     16432     15723
 -1      1998    4    0    1
 -2      6828      6918      6928      6838      6829      6919      6929      6839     16358     16431
 -2     16432     15723     15655     16363     16437     15729     16365     16438     16439     15730
 -1      1999    4    0    1
 -2      6829      6919      6929      6839      6830      6920      6930      6840     16365     16438
 -2     16439     15730     15662     16370     16444     15736     16372     16445     16446     15737
 -1      2000    4    0    1
 -2      6830      6920      6930      6840      6831      6921      6931      6841     16372     16445
 -2     16446     15737     15669     16377     16451     15743     16379     16452     16453     15744
 -1      2001    4    0    1
 -2      6831      6921      6931      6841      6832      6922      6932      6842     16379     16452
 -2     16453     15744     15676     16384     16458     15750     16386     16459     16460     15751
 -1      2002    4    0    1
 -2      6832      6922      6932      6842      4892      4901      4902      4893     16386     16459
 -2     16460     15751     15683     16391     16465     15757      5383      5385      5386      5356
 -1      2003    4    0    1
 -2       496       505       506       497      6833      6923      6933      6843       989       991
 -2       992       962     15687     16395     16469     15761     16397     16470     16471     15762
 -1      2004    4    0    1
 -2      6833      6923      6933      6843      6834      6924      6934      6844     16397     16470
 -2     16471     15762     15694     16402     16476     15768     16404     16477     16478     15769
 -1      2005    4    0    1
 -2      6834      6924      6934      6844      6835      6925      6935      6845     16404     16477
 -2     16478     15769     15701     16409     16483     15775     16411     16484     16485     15776
 -1      2006    4    0    1
 -2      6835      6925      6935      6845      6836      6926      6936      6846     16411     16484
 -2     16485     15776     15708     16416     16490     15782     16418     16491     16492     15783
 -1      2007    4    0    1
 -2      6836      6926      6936      6846      6837      6927      6937      6847     16418     16491
 -2     16492     15783     15715     16423     16497     15789     16425     16498     16499     15790
 -1      2008    4    0    1
 -2      6837      6927      6937      6847      6838      6928      6938      6848     16425     16498
 -2     16499     15790     15722     16430     16504     15796     16432     16505     16506     15797
 -1      2009    4    0    1
 -2      6838      6928      6938      6848      6839      6929      6939      6849     16432     16505
 -2     16506     15797     15729     16437     16511     15803     16439     16512     16513     15804
 -1      2010    4    0    1
 -2      6839      6929      6939      6849      6840      6930      6940      6850     16439     16512
 -2     16513     15804     15736     16444     16518     15810     16446     16519     16520     15811
 -1      2011    4    0    1
 -2      6840      6930      6940      6850      6841      6931      6941      6851     16446     16519
 -2     16520     15811     15743     16451     16525     15817     16453     16526     16527     15818
 -1      2012    4    0    1
 -2      6841      6931      6941      6851      6842      6932      6942      6852     16453     16526
 -2     16527     15818     15750     16458     16532     15824     16460     16533     16534     15825
 -1      2013    4    0    1
 -2      6842      6932      6942      6852      4893      4902      4903      4894     16460     16533
 -2     16534     15825     15757     16465     16539     15831      5386      5388      5389      5359
 -1      2014    4    0    1
 -2       497       506       507       498      6843      6933      6943      6853       992       994
 -2       995       965     15761     16469     16543     15835     16471     16544     16545     15836
 -1      2015    4    0    1
 -2      6843      6933      6943      6853      6844      6934      6944      6854     16471     16544
 -2     16545     15836     15768     16476     16550     15842     16478     16551     16552     15843
 -1      2016    4    0    1
 -2      6844      6934      6944      6854      6845      6935      6945      6855     16478     16551
 -2     16552     15843     15775     16483     16557     15849     16485     16558     16559     15850
 -1      2017    4    0    1
 -2      6845      6935      6945      6855      6846      6936      6946      6856     16485     16558
 -2     16559     15850     15782     16490     16564     15856     16492     16565     16566     15857
 -1      2018    4    0    1
 -2      6846      6936      6946      6856      6847      6937      6947      6857     16492     16565
 -2     16566     15857     15789     16497     16571     15863     16499     16572     16573     15864
 -1      2019    4    0    1
 -2      6847      6937      6947      6857      6848      6938      6948      6858     16499     16572
 -2     16573     15864     15796     16504     16578     15870     16506     16579     16580     15871
 -1      2020    4    0    1
 -2      6848      6938      6948      6858      6849      6939      6949      6859     16506     16579
 -2     16580     15871     15803     16511     16585     15877     16513     16586     16587     15878
 -1      2021    4    0    1
 -2      6849      6939      6949      6859      6850      6940      6950      6860     16513     16586
 -2     16587     15878     15810     16518     16592     15884     16520     16593     16594     15885
 -1      2022    4    0    1
 -2      6850      6940      6950      6860      6851      6941      6951      6861     16520     16593
 -2     16594     15885     15817     16525     16599     15891     16527     16600     16601     15892
 -1      2023    4    0    1
 -2      6851      6941      6951      6861      6852      6942      6952      6862     16527     16600
 -2     16601     15892     15824     16532     16606     15898     16534     16607     16608     15899
 -1      2024    4    0    1
 -2      6852      6942      6952      6862      4894      4903      4904      4895     16534     16607
 -2     16608     15899     15831     16539     16613     15905      5389      5391      5392      5362
 -1      2025    4    0    1
 -2       498       507       508       499      6853      6943      6953      6863       995       997
 -2       998       968     15835     16543     16617     15909     16545     16618     16619     15910
 -1      2026    4    0    1
 -2      6853      6943      6953      6863      6854      6944      6954      6864     16545     16618
 -2     16619     15910     15842     16550     16624     15916     16552     16625     16626     15917
 -1      2027    4    0    1
 -2      6854      6944      6954      6864      6855      6945      6955      6865     16552     16625
 -2     16626     15917     15849     16557     16631     15923     16559     16632     16633     15924
 -1      2028    4    0    1
 -2      6855      6945      6955      6865      6856      6946      6956      6866     16559     16632
 -2     16633     15924     15856     16564     16638     15930     16566     16639     16640     15931
 -1      2029    4    0    1
 -2      6856      6946      6956      6866      6857      6947      6957      6867     16566     16639
 -2     16640     15931     15863     16571     16645     15937     16573     16646     16647     15938
 -1      2030    4    0    1
 -2      6857      6947      6957      6867      6858      6948      6958      6868     16573     16646
 -2     16647     15938     15870     16578     16652     15944     16580     16653     16654     15945
 -1      2031    4    0    1
 -2      6858      6948      6958      6868      6859      6949      6959      6869     16580     16653
 -2     16654     15945     15877     16585     16659     15951     16587     16660     16661     15952
 -1      2032    4    0    1
 -2      6859      6949      6959      6869      6860      6950      6960      6870     16587     16660
 -2     16661     15952     15884     16592     16666     15958     16594     16667     16668     15959
 -1      2033    4    0    1
 -2      6860      6950      6960      6870      6861      6951      6961      6871     16594     16667
 -2     16668     15959     15891     16599     16673     15965     16601     16674     16675     15966
 -1      2034    4    0    1
 -2      6861      6951      6961      6871      6862      6952      6962      6872     16601     16674
 -2     16675     15966     15898     16606     16680     15972     16608     16681     16682     15973
 -1      2035    4    0    1
 -2      6862      6952      6962      6872      4895      4904      4905      4896     16608     16681
 -2     16682     15973     15905     16613     16687     15979      5392      5394      5395      5365
 -1      2036    4    0    1
 -2       499       508       509       500      6863      6953      6963      6873       998      1000
 -2      1001       971     15909     16617     16691     15983     16619     16692     16693     15984
 -1      2037    4    0    1
 -2      6863      6953      6963      6873      6864      6954      6964      6874     16619     16692
 -2     16693     15984     15916     16624     16698     15990     16626     16699     16700     15991
 -1      2038    4    0    1
 -2      6864      6954      6964      6874      6865      6955      6965      6875     16626     16699
 -2     16700     15991     15923     16631     16705     15997     16633     16706     16707     15998
 -1      2039    4    0    1
 -2      6865      6955      6965      6875      6866      6956      6966      6876     16633     16706
 -2     16707     15998     15930     16638     16712     16004     16640     16713     16714     16005
 -1      2040    4    0    1
 -2      6866      6956      6966      6876      6867      6957      6967      6877     16640     16713
 -2     16714     16005     15937     16645     16719     16011     16647     16720     16721     16012
 -1      2041    4    0    1
 -2      6867      6957      6967      6877      6868      6958      6968      6878     16647     16720
 -2     16721     16012     15944     16652     16726     16018     16654     16727     16728     16019
 -1      2042    4    0    1
 -2      6868      6958      6968      6878      6869      6959      6969      6879     16654     16727
 -2     16728     16019     15951     16659     16733     16025     16661     16734     16735     16026
 -1      2043    4    0    1
 -2      6869      6959      6969      6879      6870      6960      6970      6880     16661     16734
 -2     16735     16026     15958     16666     16740     16032     16668     16741     16742     16033
 -1      2044    4    0    1
 -2      6870      6960      6970      6880      6871      6961      6971      6881     16668     16741
 -2     16742     16033     15965     16673     16747     16039     16675     16748     16749     16040
 -1      2045    4    0    1
 -2      6871      6961      6971      6881      6872      6962      6972      6882     16675     16748
 -2     16749     16040     15972     16680     16754     16046     16682     16755     16756     16047
 -1      2046    4    0    1
 -2      6872      6962      6972      6882      4896      4905      4906      4897     16682     16755
 -2     16756     16047     15979     16687     16761     16053      5395      5397      5398      5368
 -1      2047    4    0    1
 -2       500       509       510       501      6873      6963      6973      6883      1001      1003
 -2      1004       974     15983     16691     16765     16057     16693     16766     16767     16058
 -1      2048    4    0    1
 -2      6873      6963      6973      6883      6874      6964      6974      6884     16693     16766
 -2     16767     16058     15990     16698     16772     16064     16700     16773     16774     16065
 -1      2049    4    0    1
 -2      6874      6964      6974      6884      6875      6965      6975      6885     16700     16773
 -2     16774     16065     15997     16705     16779     16071     16707     16780     16781     16072
 -1      2050    4    0    1
 -2      6875      6965      6975      6885      6876      6966      6976      6886     16707     16780
 -2     16781     16072     16004     16712     16786     16078     16714     16787     16788     16079
 -1      2051    4    0    1
 -2      6876      6966      6976      6886      6877      6967      6977      6887     16714     16787
 -2     16788     16079     16011     16719     16793     16085     16721     16794     16795     16086
 -1      2052    4    0    1
 -2      6877      6967      6977      6887      6878      6968      6978      6888     16721     16794
 -2     16795     16086     16018     16726     16800     16092     16728     16801     16802     16093
 -1      2053    4    0    1
 -2      6878      6968      6978      6888      6879      6969      6979      6889     16728     16801
 -2     16802     16093     16025     16733     16807     16099     16735     16808     16809     16100
 -1      2054    4    0    1
 -2      6879      6969      6979      6889      6880      6970      6980      6890     16735     16808
 -2     16809     16100     16032     16740     16814     16106     16742     16815     16816     16107
 -1      2055    4    0    1
 -2      6880      6970      6980      6890      6881      6971      6981      6891     16742     16815
 -2     16816     16107     16039     16747     16821     16113     16749     16822     16823     16114
 -1      2056    4    0    1
 -2      6881      6971      6981      6891      6882      6972      6982      6892     16749     16822
 -2     16823     16114     16046     16754     16828     16120     16756     16829     16830     16121
 -1      2057    4    0    1
 -2      6882      6972      6982      6892      4897      4906      4907      4898     16756     16829
 -2     16830     16121     16053     16761     16835     16127      5398      5400      5401      5371
 -1      2058    4    0    1
 -2       501       510       511       502      6883      6973      6983      6893      1004      1006
 -2      1007       977     16057     16765     16839     16131     16767     16840     16841     16132
 -1      2059    4    0    1
 -2      6883      6973      6983      6893      6884      6974      6984      6894     16767     16840
 -2     16841     16132     16064     16772     16846     16138     16774     16847     16848     16139
 -1      2060    4    0    1
 -2      6884      6974      6984      6894      6885      6975      6985      6895     16774     16847
 -2     16848     16139     16071     16779     16853     16145     16781     16854     16855     16146
 -1      2061    4    0    1
 -2      6885      6975      6985      6895      6886      6976      6986      6896     16781     16854
 -2     16855     16146     16078     16786     16860     16152     16788     16861     16862     16153
 -1      2062    4    0    1
 -2      6886      6976      6986      6896      6887      6977      6987      6897     16788     16861
 -2     16862     16153     16085     16793     16867     16159     16795     16868     16869     16160
 -1      2063    4    0    1
 -2      6887      6977      6987      6897      6888      6978      6988      6898     16795     16868
 -2     16869     16160     16092     16800     16874     16166     16802     16875     16876     16167
 -1      2064    4    0    1
 -2      6888      6978      6988      6898      6889      6979      6989      6899     16802     16875
 -2     16876     16167     16099     16807     16881     16173     16809     16882     16883     16174
 -1      2065    4    0    1
 -2      6889      6979      6989      6899      6890      6980      6990      6900     16809     16882
 -2     16883     16174     16106     16814     16888     16180     16816     16889     16890     16181
 -1      2066    4    0    1
 -2      6890      6980      6990      6900      6891      6981      6991      6901     16816     16889
 -2     16890     16181     16113     16821     16895     16187     16823     16896     16897     16188
 -1      2067    4    0    1
 -2      6891      6981      6991      6901      6892      6982      6992      6902     16823     16896
 -2     16897     16188     16120     16828     16902     16194     16830     16903     16904     16195
 -1      2068    4    0    1
 -2      6892      6982      6992      6902      4898      4907      4908      4899     16830     16903
 -2     16904     16195     16127     16835     16909     16201      5401      5403      5404      5374
 -1      2069    4    0    1
 -2       502       511       512       503      6893      6983      6993      6903      1007      1009
 -2      1010       980     16131     16839     16913     16205     16841     16914     16915     16206
 -1      2070    4    0    1
 -2      6893      6983      6993      6903      6894      6984      6994      6904     16841     16914
 -2     16915     16206     16138     16846     16920     16212     16848     16921     16922     16213
 -1      2071    4    0    1
 -2      6894      6984      6994      6904      6895      6985      6995      6905     16848     16921
 -2     16922     16213     16145     16853     16927     16219     16855     16928     16929     16220
 -1      2072    4    0    1
 -2      6895      6985      6995      6905      6896      6986      6996      6906     16855     16928
 -2     16929     16220     16152     16860     16934     16226     16862     16935     16936     16227
 -1      2073    4    0    1
 -2      6896      6986      6996      6906      6897      6987      6997      6907     16862     16935
 -2     16936     16227     16159     16867     16941     16233     16869     16942     16943     16234
 -1      2074    4    0    1
 -2      6897      6987      6997      6907      6898      6988      6998      6908     16869     16942
 -2     16943     16234     16166     16874     16948     16240     16876     16949     16950     16241
 -1      2075    4    0    1
 -2      6898      6988      6998      6908      6899      6989      6999      6909     16876     16949
 -2     16950     16241     16173     16881     16955     16247     16883     16956     16957     16248
 -1      2076    4    0    1
 -2      6899      6989      6999      6909      6900      6990      7000      6910     16883     16956
 -2     16957     16248     16180     16888     16962     16254     16890     16963     16964     16255
 -1      2077    4    0    1
 -2      6900      6990      7000      6910      6901      6991      7001      6911     16890     16963
 -2     16964     16255     16187     16895     16969     16261     16897     16970     16971     16262
 -1      2078    4    0    1
 -2      6901      6991      7001      6911      6902      6992      7002      6912     16897     16970
 -2     16971     16262     16194     16902     16976     16268     16904     16977     16978     16269
 -1      2079    4    0    1
 -2      6902      6992      7002      6912      4899      4908      4909      4900     16904     16977
 -2     16978     16269     16201     16909     16983     16275      5404      5406      5407      5377
 -1      2080    4    0    1
 -2       503       512       104       105      6903      6993      3334      3344      1010      1012
 -2       134       983     16205     16913      3998      4030     16915     16987      4031     16279
 -1      2081    4    0    1
 -2      6903      6993      3334      3344      6904      6994      3335      3345     16915     16987
 -2      4031     16279     16212     16920      4001      4033     16922     16991      4034     16283
 -1      2082    4    0    1
 -2      6904      6994      3335      3345      6905      6995      3336      3346     16922     16991
 -2      4034     16283     16219     16927      4004      4036     16929     16995      4037     16287
 -1      2083    4    0    1
 -2      6905      6995      3336      3346      6906      6996      3337      3347     16929     16995
 -2      4037     16287     16226     16934      4007      4039     16936     16999      4040     16291
 -1      2084    4    0    1
 -2      6906      6996      3337      3347      6907      6997      3338      3348     16936     16999
 -2      4040     16291     16233     16941      4010      4042     16943     17003      4043     16295
 -1      2085    4    0    1
 -2      6907      6997      3338      3348      6908      6998      3339      3349     16943     17003
 -2      4043     16295     16240     16948      4013      4045     16950     17007      4046     16299
 -1      2086    4    0    1
 -2      6908      6998      3339      3349      6909      6999      3340      3350     16950     17007
 -2      4046     16299     16247     16955      4016      4048     16957     17011      4049     16303
 -1      2087    4    0    1
 -2      6909      6999      3340      3350      6910      7000      3341      3351     16957     17011
 -2      4049     16303     16254     16962      4019      4051     16964     17015      4052     16307
 -1      2088    4    0    1
 -2      6910      7000      3341      3351      6911      7001      3342      3352     16964     17015
 -2      4052     16307     16261     16969      4022      4054     16971     17019      4055     16311
 -1      2089    4    0    1
 -2      6911      7001      3342      3352      6912      7002      3343      3353     16971     17019
 -2      4055     16311     16268     16976      4025      4057     16978     17023      4058     16315
 -1      2090    4    0    1
 -2      6912      7002      3343      3353      4900      4909       260       261     16978     17023
 -2      4058     16315     16275     16983      4028      4060      5407      5409       290      5380
 -1      2091    4    0    1
 -2        20        21       513       504      1636      1646      7003      6913        50      1014
 -2      1015       985      2168      2200     17029     16321      2201     17030     17031     16322
 -1      2092    4    0    1
 -2      1636      1646      7003      6913      1637      1647      7004      6914      2201     17030
 -2     17031     16322      2171      2203     17036     16328      2204     17037     17038     16329
 -1      2093    4    0    1
 -2      1637      1647      7004      6914      1638      1648      7005      6915      2204     17037
 -2     17038     16329      2174      2206     17043     16335      2207     17044     17045     16336
 -1      2094    4    0    1
 -2      1638      1648      7005      6915      1639      1649      7006      6916      2207     17044
 -2     17045     16336      2177      2209     17050     16342      2210     17051     17052     16343
 -1      2095    4    0    1
 -2      1639      1649      7006      6916      1640      1650      7007      6917      2210     17051
 -2     17052     16343      2180      2212     17057     16349      2213     17058     17059     16350
 -1      2096    4    0    1
 -2      1640      1650      7007      6917      1641      1651      7008      6918      2213     17058
 -2     17059     16350      2183      2215     17064     16356      2216     17065     17066     16357
 -1      2097    4    0    1
 -2      1641      1651      7008      6918      1642      1652      7009      6919      2216     17065
 -2     17066     16357      2186      2218     17071     16363      2219     17072     17073     16364
 -1      2098    4    0    1
 -2      1642      1652      7009      6919      1643      1653      7010      6920      2219     17072
 -2     17073     16364      2189      2221     17078     16370      2222     17079     17080     16371
 -1      2099    4    0    1
 -2      1643      1653      7010      6920      1644      1654      7011      6921      2222     17079
 -2     17080     16371      2192      2224     17085     16377      2225     17086     17087     16378
 -1      2100    4    0    1
 -2      1644      1654      7011      6921      1645      1655      7012      6922      2225     17086
 -2     17087     16378      2195      2227     17092     16384      2228     17093     17094     16385
 -1      2101    4    0    1
 -2      1645      1655      7012      6922       176       177      4910      4901      2228     17093
 -2     17094     16385      2198      2230     17099     16391       206      5411      5412      5382
 -1      2102    4    0    1
 -2       504       513       514       505      6913      7003      7013      6923      1015      1017
 -2      1018       988     16321     17029     17103     16395     17031     17104     17105     16396
 -1      2103    4    0    1
 -2      6913      7003      7013      6923      6914      7004      7014      6924     17031     17104
 -2     17105     16396     16328     17036     17110     16402     17038     17111     17112     16403
 -1      2104    4    0    1
 -2      6914      7004      7014      6924      6915      7005      7015      6925     17038     17111
 -2     17112     16403     16335     17043     17117     16409     17045     17118     17119     16410
 -1      2105    4    0    1
 -2      6915      7005      7015      6925      6916      7006      7016      6926     17045     17118
 -2     17119     16410     16342     17050     17124     16416     17052     17125     17126     16417
 -1      2106    4    0    1
 -2      6916      7006      7016      6926      6917      7007      7017      6927     17052     17125
 -2     17126     16417     16349     17057     17131     16423     17059     17132     17133     16424
 -1      2107    4    0    1
 -2      6917      7007      7017      6927      6918      7008      7018      6928     17059     17132
 -2     17133     16424     16356     17064     17138     16430     17066     17139     17140     16431
 -1      2108    4    0    1
 -2      6918      7008      7018      6928      6919      7009      7019      6929     17066     17139
 -2     17140     16431     16363     17071     17145     16437     17073     17146     17147     16438
 -1      2109    4    0    1
 -2      6919      7009      7019      6929      6920      7010      7020      6930     17073     17146
 -2     17147     16438     16370     17078     17152     16444     17080     17153     17154     16445
 -1      2110    4    0    1
 -2      6920      7010      7020      6930      6921      7011      7021      6931     17080     17153
 -2     17154     16445     16377     17085     17159     16451     17087     17160     17161     16452
 -1      2111    4    0    1
 -2      6921      7011      7021      6931      6922      7012      7022      6932     17087     17160
 -2     17161     16452     16384     17092     17166     16458     17094     17167     17168     16459
 -1      2112    4    0    1
 -2      6922      7012      7022      6932      4901      4910      4911      4902     17094     17167
 -2     17168     16459     16391     17099     17173     16465      5412      5414      5415      5385
 -1      2113    4    0    1
 -2       505       514       515       506      6923      7013      7023      6933      1018      1020
 -2      1021       991     16395     17103     17177     16469     17105     17178     17179     16470
 -1      2114    4    0    1
 -2      6923      7013      7023      6933      6924      7014      7024      6934     17105     17178
 -2     17179     16470     16402     17110     17184     16476     17112     17185     17186     16477
 -1      2115    4    0    1
 -2      6924      7014      7024      6934      6925      7015      7025      6935     17112     17185
 -2     17186     16477     16409     17117     17191     16483     17119     17192     17193     16484
 -1      2116    4    0    1
 -2      6925      7015      7025      6935      6926      7016      7026      6936     17119     17192
 -2     17193     16484     16416     17124     17198     16490     17126     17199     17200     16491
 -1      2117    4    0    1
 -2      6926      7016      7026      6936      6927      7017      7027      6937     17126     17199
 -2     17200     16491     16423     17131     17205     16497     17133     17206     17207     16498
 -1      2118    4    0    1
 -2      6927      7017      7027      6937      6928      7018      7028      6938     17133     17206
 -2     17207     16498     16430     17138     17212     16504     17140     17213     17214     16505
 -1      2119    4    0    1
 -2      6928      7018      7028      6938      6929      7019      7029      6939     17140     17213
 -2     17214     16505     16437     17145     17219     16511     17147     17220     17221     16512
 -1      2120    4    0    1
 -2      6929      7019      7029      6939      6930      7020      7030      6940     17147     17220
 -2     17221     16512     16444     17152     17226     16518     17154     17227     17228     16519
 -1      2121    4    0    1
 -2      6930      7020      7030      6940      6931      7021      7031      6941     17154     17227
 -2     17228     16519     16451     17159     17233     16525     17161     17234     17235     16526
 -1      2122    4    0    1
 -2      6931      7021      7031      6941      6932      7022      7032      6942     17161     17234
 -2     17235     16526     16458     17166     17240     16532     17168     17241     17242     16533
 -1      2123    4    0    1
 -2      6932      7022      7032      6942      4902      4911      4912      4903     17168     17241
 -2     17242     16533     16465     17173     17247     16539      5415      5417      5418      5388
 -1      2124    4    0    1
 -2       506       515       516       507      6933      7023      7033      6943      1021      1023
 -2      1024       994     16469     17177     17251     16543     17179     17252     17253     16544
 -1      2125    4    0    1
 -2      6933      7023      7033      6943      6934      7024      7034      6944     17179     17252
 -2     17253     16544     16476     17184     17258     16550     17186     17259     17260     16551
 -1      2126    4    0    1
 -2      6934      7024      7034      6944      6935      7025      7035      6945     17186     17259
 -2     17260     16551     16483     17191     17265     16557     17193     17266     17267     16558
 -1      2127    4    0    1
 -2      6935      7025      7035      6945      6936      7026      7036      6946     17193     17266
 -2     17267     16558     16490     17198     17272     16564     17200     17273     17274     16565
 -1      2128    4    0    1
 -2      6936      7026      7036      6946      6937      7027      7037      6947     17200     17273
 -2     17274     16565     16497     17205     17279     16571     17207     17280     17281     16572
 -1      2129    4    0    1
 -2      6937      7027      7037      6947      6938      7028      7038      6948     17207     17280
 -2     17281     16572     16504     17212     17286     16578     17214     17287     17288     16579
 -1      2130    4    0    1
 -2      6938      7028      7038      6948      6939      7029      7039      6949     17214     17287
 -2     17288     16579     16511     17219     17293     16585     17221     17294     17295     16586
 -1      2131    4    0    1
 -2      6939      7029      7039      6949      6940      7030      7040      6950     17221     17294
 -2     17295     16586     16518     17226     17300     16592     17228     17301     17302     16593
 -1      2132    4    0    1
 -2      6940      7030      7040      6950      6941      7031      7041      6951     17228     17301
 -2     17302     16593     16525     17233     17307     16599     17235     17308     17309     16600
 -1      2133    4    0    1
 -2      6941      7031      7041      6951      6942      7032      7042      6952     17235     17308
 -2     17309     16600     16532     17240     17314     16606     17242     17315     17316     16607
 -1      2134    4    0    1
 -2      6942      7032      7042      6952      4903      4912      4913      4904     17242     17315
 -2     17316     16607     16539     17247     17321     16613      5418      5420      5421      5391
 -1      2135    4    0    1
 -2       507       516       517       508      6943      7033      7043      6953      1024      1026
 -2      1027       997     16543     17251     17325     16617     17253     17326     17327     16618
 -1      2136    4    0    1
 -2      6943      7033      7043      6953      6944      7034      7044      6954     17253     17326
 -2     17327     16618     16550     17258     17332     16624     17260     17333     17334     16625
 -1      2137    4    0    1
 -2      6944      7034      7044      6954      6945      7035      7045      6955     17260     17333
 -2     17334     16625     16557     17265     17339     16631     17267     17340     17341     16632
 -1      2138    4    0    1
 -2      6945      7035      7045      6955      6946      7036      7046      6956     17267     17340
 -2     17341     16632     16564     17272     17346     16638     17274     17347     17348     16639
 -1      2139    4    0    1
 -2      6946      7036      7046      6956      6947      7037      7047      6957     17274     17347
 -2     17348     16639     16571     17279     17353     16645     17281     17354     17355     16646
 -1      2140    4    0    1
 -2      6947      7037      7047      6957      6948      7038      7048      6958     17281     17354
 -2     17355     16646     16578     17286     17360     16652     17288     17361     17362     16653
 -1      2141    4    0    1
 -2      6948      7038      7048      6958      6949      7039      7049      6959     17288     17361
 -2     17362     16653     16585     17293     17367     16659     17295     17368     17369     16660
 -1      2142    4    0    1
 -2      6949      7039      7049      6959      6950      7040      7050      6960     17295     17368
 -2     17369     16660     16592     17300     17374     16666     17302     17375     17376     16667
 -1      2143    4    0    1
 -2      6950      7040      7050      6960      6951      7041      7051      6961     17302     17375
 -2     17376     16667     16599     17307     17381     16673     17309     17382     17383     16674
 -1      2144    4    0    1
 -2      6951      7041      7051      6961      6952      7042      7052      6962     17309     17382
 -2     17383     16674     16606     17314     17388     16680     17316     17389     17390     16681
 -1      2145    4    0    1
 -2      6952      7042      7052      6962      4904      4913      4914      4905     17316     17389
 -2     17390     16681     16613     17321     17395     16687      5421      5423      5424      5394
 -1      2146    4    0    1
 -2       508       517       518       509      6953      7043      7053      6963      1027      1029
 -2      1030      1000     16617     17325     17399     16691     17327     17400     17401     16692
 -1      2147    4    0    1
 -2      6953      7043      7053      6963      6954      7044      7054      6964     17327     17400
 -2     17401     16692     16624     17332     17406     16698     17334     17407     17408     16699
 -1      2148    4    0    1
 -2      6954      7044      7054      6964      6955      7045      7055      6965     17334     17407
 -2     17408     16699     16631     17339     17413     16705     17341     17414     17415     16706
 -1      2149    4    0    1
 -2      6955      7045      7055      6965      6956      7046      7056      6966     17341     17414
 -2     17415     16706     16638     17346     17420     16712     17348     17421     17422     16713
 -1      2150    4    0    1
 -2      6956      7046      7056      6966      6957      7047      7057      6967     17348     17421
 -2     17422     16713     16645     17353     17427     16719     17355     17428     17429     16720
 -1      2151    4    0    1
 -2      6957      7047      7057      6967      6958      7048      7058      6968     17355     17428
 -2     17429     16720     16652     17360     17434     16726     17362     17435     17436     16727
 -1      2152    4    0    1
 -2      6958      7048      7058      6968      6959      7049      7059      6969     17362     17435
 -2     17436     16727     16659     17367     17441     16733     17369     17442     17443     16734
 -1      2153    4    0    1
 -2      6959      7049      7059      6969      6960      7050      7060      6970     17369     17442
 -2     17443     16734     16666     17374     17448     16740     17376     17449     17450     16741
 -1      2154    4    0    1
 -2      6960      7050      7060      6970      6961      7051      7061      6971     17376     17449
 -2     17450     16741     16673     17381     17455     16747     17383     17456     17457     16748
 -1      2155    4    0    1
 -2      6961      7051      7061      6971      6962      7052      7062      6972     17383     17456
 -2     17457     16748     16680     17388     17462     16754     17390     17463     17464     16755
 -1      2156    4    0    1
 -2      6962      7052      7062      6972      4905      4914      4915      4906     17390     17463
 -2     17464     16755     16687     17395     17469     16761      5424      5426      5427      5397
 -1      2157    4    0    1
 -2       509       518       519       510      6963      7053      7063      6973      1030      1032
 -2      1033      1003     16691     17399     17473     16765     17401     17474     17475     16766
 -1      2158    4    0    1
 -2      6963      7053      7063      6973      6964      7054      7064      6974     17401     17474
 -2     17475     16766     16698     17406     17480     16772     17408     17481     17482     16773
 -1      2159    4    0    1
 -2      6964      7054      7064      6974      6965      7055      7065      6975     17408     17481
 -2     17482     16773     16705     17413     17487     16779     17415     17488     17489     16780
 -1      2160    4    0    1
 -2      6965      7055      7065      6975      6966      7056      7066      6976     17415     17488
 -2     17489     16780     16712     17420     17494     16786     17422     17495     17496     16787
 -1      2161    4    0    1
 -2      6966      7056      7066      6976      6967      7057      7067      6977     17422     17495
 -2     17496     16787     16719     17427     17501     16793     17429     17502     17503     16794
 -1      2162    4    0    1
 -2      6967      7057      7067      6977      6968      7058      7068      6978     17429     17502
 -2     17503     16794     16726     17434     17508     16800     17436     17509     17510     16801
 -1      2163    4    0    1
 -2      6968      7058      7068      6978      6969      7059      7069      6979     17436     17509
 -2     17510     16801     16733     17441     17515     16807     17443     17516     17517     16808
 -1      2164    4    0    1
 -2      6969      7059      7069      6979      6970      7060      7070      6980     17443     17516
 -2     17517     16808     16740     17448     17522     16814     17450     17523     17524     16815
 -1      2165    4    0    1
 -2      6970      7060      7070      6980      6971      7061      7071      6981     17450     17523
 -2     17524     16815     16747     17455     17529     16821     17457     17530     17531     16822
 -1      2166    4    0    1
 -2      6971      7061      7071      6981      6972      7062      7072      6982     17457     17530
 -2     17531     16822     16754     17462     17536     16828     17464     17537     17538     16829
 -1      2167    4    0    1
 -2      6972      7062      7072      6982      4906      4915      4916      4907     17464     17537
 -2     17538     16829     16761     17469     17543     16835      5427      5429      5430      5400
 -1      2168    4    0    1
 -2       510       519       520       511      6973      7063      7073      6983      1033      1035
 -2      1036      1006     16765     17473     17547     16839     17475     17548     17549     16840
 -1      2169    4    0    1
 -2      6973      7063      7073      6983      6974      7064      7074      6984     17475     17548
 -2     17549     16840     16772     17480     17554     16846     17482     17555     17556     16847
 -1      2170    4    0    1
 -2      6974      7064      7074      6984      6975      7065      7075      6985     17482     17555
 -2     17556     16847     16779     17487     17561     16853     17489     17562     17563     16854
 -1      2171    4    0    1
 -2      6975      7065      7075      6985      6976      7066      7076      6986     17489     17562
 -2     17563     16854     16786     17494     17568     16860     17496     17569     17570     16861
 -1      2172    4    0    1
 -2      6976      7066      7076      6986      6977      7067      7077      6987     17496     17569
 -2     17570     16861     16793     17501     17575     16867     17503     17576     17577     16868
 -1      2173    4    0    1
 -2      6977      7067      7077      6987      6978      7068      7078      6988     17503     17576
 -2     17577     16868     16800     17508     17582     16874     17510     17583     17584     16875
 -1      2174    4    0    1
 -2      6978      7068      7078      6988      6979      7069      7079      6989     17510     17583
 -2     17584     16875     16807     17515     17589     16881     17517     17590     17591     16882
 -1      2175    4    0    1
 -2      6979      7069      7079      6989      6980      7070      7080      6990     17517     17590
 -2     17591     16882     16814     17522     17596     16888     17524     17597     17598     16889
 -1      2176    4    0    1
 -2      6980      7070      7080      6990      6981      7071      7081      6991     17524     17597
 -2     17598     16889     16821     17529     17603     16895     17531     17604     17605     16896
 -1      2177    4    0    1
 -2      6981      7071      7081      6991      6982      7072      7082      6992     17531     17604
 -2     17605     16896     16828     17536     17610     16902     17538     17611     17612     16903
 -1      2178    4    0    1
 -2      6982      7072      7082      6992      4907      4916      4917      4908     17538     17611
 -2     17612     16903     16835     17543     17617     16909      5430      5432      5433      5403
 -1      2179    4    0    1
 -2       511       520       521       512      6983      7073      7083      6993      1036      1038
 -2      1039      1009     16839     17547     17621     16913     17549     17622     17623     16914
 -1      2180    4    0    1
 -2      6983      7073      7083      6993      6984      7074      7084      6994     17549     17622
 -2     17623     16914     16846     17554     17628     16920     17556     17629     17630     16921
 -1      2181    4    0    1
 -2      6984      7074      7084      6994      6985      7075      7085      6995     17556     17629
 -2     17630     16921     16853     17561     17635     16927     17563     17636     17637     16928
 -1      2182    4    0    1
 -2      6985      7075      7085      6995      6986      7076      7086      6996     17563     17636
 -2     17637     16928     16860     17568     17642     16934     17570     17643     17644     16935
 -1      2183    4    0    1
 -2      6986      7076      7086      6996      6987      7077      7087      6997     17570     17643
 -2     17644     16935     16867     17575     17649     16941     17577     17650     17651     16942
 -1      2184    4    0    1
 -2      6987      7077      7087      6997      6988      7078      7088      6998     17577     17650
 -2     17651     16942     16874     17582     17656     16948     17584     17657     17658     16949
 -1      2185    4    0    1
 -2      6988      7078      7088      6998      6989      7079      7089      6999     17584     17657
 -2     17658     16949     16881     17589     17663     16955     17591     17664     17665     16956
 -1      2186    4    0    1
 -2      6989      7079      7089      6999      6990      7080      7090      7000     17591     17664
 -2     17665     16956     16888     17596     17670     16962     17598     17671     17672     16963
 -1      2187    4    0    1
 -2      6990      7080      7090      7000      6991      7081      7091      7001     17598     17671
 -2     17672     16963     16895     17603     17677     16969     17605     17678     17679     16970
 -1      2188    4    0    1
 -2      6991      7081      7091      7001      6992      7082      7092      7002     17605     17678
 -2     17679     16970     16902     17610     17684     16976     17612     17685     17686     16977
 -1      2189    4    0    1
 -2      6992      7082      7092      7002      4908      4917      4918      4909     17612     17685
 -2     17686     16977     16909     17617     17691     16983      5433      5435      5436      5406
 -1      2190    4    0    1
 -2       512       521       103       104      6993      7083      3324      3334      1039      1041
 -2       133      1012     16913     17621      3966      3998     17623     17695      3999     16987
 -1      2191    4    0    1
 -2      6993      7083      3324      3334      6994      7084      3325      3335     17623     17695
 -2      3999     16987     16920     17628      3969      4001     17630     17699      4002     16991
 -1      2192    4    0    1
 -2      6994      7084      3325      3335      6995      7085      3326      3336     17630     17699
 -2      4002     16991     16927     17635      3972      4004     17637     17703      4005     16995
 -1      2193    4    0    1
 -2      6995      7085      3326      3336      6996      7086      3327      3337     17637     17703
 -2      4005     16995     16934     17642      3975      4007     17644     17707      4008     16999
 -1      2194    4    0    1
 -2      6996      7086      3327      3337      6997      7087      3328      3338     17644     17707
 -2      4008     16999     16941     17649      3978      4010     17651     17711      4011     17003
 -1      2195    4    0    1
 -2      6997      7087      3328      3338      6998      7088      3329      3339     17651     17711
 -2      4011     17003     16948     17656      3981      4013     17658     17715      4014     17007
 -1      2196    4    0    1
 -2      6998      7088      3329      3339      6999      7089      3330      3340     17658     17715
 -2      4014     17007     16955     17663      3984      4016     17665     17719      4017     17011
 -1      2197    4    0    1
 -2      6999      7089      3330      3340      7000      7090      3331      3341     17665     17719
 -2      4017     17011     16962     17670      3987      4019     17672     17723      4020     17015
 -1      2198    4    0    1
 -2      7000      7090      3331      3341      7001      7091      3332      3342     17672     17723
 -2      4020     17015     16969     17677      3990      4022     17679     17727      4023     17019
 -1      2199    4    0    1
 -2      7001      7091      3332      3342      7002      7092      3333      3343     17679     17727
 -2      4023     17019     16976     17684      3993      4025     17686     17731      4026     17023
 -1      2200    4    0    1
 -2      7002      7092      3333      3343      4909      4918       259       260     17686     17731
 -2      4026     17023     16983     17691      3996      4028      5436      5438       289      5409
 -1      2201    4    0    1
 -2        21        22       522       513      1646      1656      7093      7003        51      1043
 -2      1044      1014      2200      2232     17737     17029      2233     17738     17739     17030
 -1      2202    4    0    1
 -2      1646      1656      7093      7003      1647      1657      7094      7004      2233     17738
 -2     17739     17030      2203      2235     17744     17036      2236     17745     17746     17037
 -1      2203    4    0    1
 -2      1647      1657      7094      7004      1648      1658      7095      7005      2236     17745
 -2     17746     17037      2206      2238     17751     17043      2239     17752     17753     17044
 -1      2204    4    0    1
 -2      1648      1658      7095      7005      1649      1659      7096      7006      2239     17752
 -2     17753     17044      2209      2241     17758     17050      2242     17759     17760     17051
 -1      2205    4    0    1
 -2      1649      1659      7096      7006      1650      1660      7097      7007      2242     17759
 -2     17760     17051      2212      2244     17765     17057      2245     17766     17767     17058
 -1      2206    4    0    1
 -2      1650      1660      7097      7007      1651      1661      7098      7008      2245     17766
 -2     17767     17058      2215      2247     17772     17064      2248     17773     17774     17065
 -1      2207    4    0    1
 -2      1651      1661      7098      7008      1652      1662      7099      7009      2248     17773
 -2     17774     17065      2218      2250     17779     17071      2251     17780     17781     17072
 -1      2208    4    0    1
 -2      1652      1662      7099      7009      1653      1663      7100      7010      2251     17780
 -2     17781     17072      2221      2253     17786     17078      2254     17787     17788     17079
 -1      2209    4    0    1
 -2      1653      1663      7100      7010      1654      1664      7101      7011      2254     17787
 -2     17788     17079      2224      2256     17793     17085      2257     17794     17795     17086
 -1      2210    4    0    1
 -2      1654      1664      7101      7011      1655      1665      7102      7012      2257     17794
 -2     17795     17086      2227      2259     17800     17092      2260     17801     17802     17093
 -1      2211    4    0    1
 -2      1655      1665      7102      7012       177       178      4919      4910      2260     17801
 -2     17802     17093      2230      2262     17807     17099       207      5440      5441      5411
 -1      2212    4    0    1
 -2       513       522       523       514      7003      7093      7103      7013      1044      1046
 -2      1047      1017     17029     17737     17811     17103     17739     17812     17813     17104
 -1      2213    4    0    1
 -2      7003      7093      7103      7013      7004      7094      7104      7014     17739     17812
 -2     17813     17104     17036     17744     17818     17110     17746     17819     17820     17111
 -1      2214    4    0    1
 -2      7004      7094      7104      7014      7005      7095      7105      7015     17746     17819
 -2     17820     17111     17043     17751     17825     17117     17753     17826     17827     17118
 -1      2215    4    0    1
 -2      7005      7095      7105      7015      7006      7096      7106      7016     17753     17826
 -2     17827     17118     17050     17758     17832     17124     17760     17833     17834     17125
 -1      2216    4    0    1
 -2      7006      7096      7106      7016      7007      7097      7107      7017     17760     17833
 -2     17834     17125     17057     17765     17839     17131     17767     17840     17841     17132
 -1      2217    4    0    1
 -2      7007      7097      7107      7017      7008      7098      7108      7018     17767     17840
 -2     17841     17132     17064     17772     17846     17138     17774     17847     17848     17139
 -1      2218    4    0    1
 -2      7008      7098      7108      7018      7009      7099      7109      7019     17774     17847
 -2     17848     17139     17071     17779     17853     17145     17781     17854     17855     17146
 -1      2219    4    0    1
 -2      7009      7099      7109      7019      7010      7100      7110      7020     17781     17854
 -2     17855     17146     17078     17786     17860     17152     17788     17861     17862     17153
 -1      2220    4    0    1
 -2      7010      7100      7110      7020      7011      7101      7111      7021     17788     17861
 -2     17862     17153     17085     17793     17867     17159     17795     17868     17869     17160
 -1      2221    4    0    1
 -2      7011      7101      7111      7021      7012      7102      7112      7022     17795     17868
 -2     17869     17160     17092     17800     17874     17166     17802     17875     17876     17167
 -1      2222    4    0    1
 -2      7012      7102      7112      7022      4910      4919      4920      4911     17802     17875
 -2     17876     17167     17099     17807     17881     17173      5441      5443      5444      5414
 -1      2223    4    0    1
 -2       514       523       524       515      7013      7103      7113      7023      1047      1049
 -2      1050      1020     17103     17811     17885     17177     17813     17886     17887     17178
 -1      2224    4    0    1
 -2      7013      7103      7113      7023      7014      7104      7114      7024     17813     17886
 -2     17887     17178     17110     17818     17892     17184     17820     17893     17894     17185
 -1      2225    4    0    1
 -2      7014      7104      7114      7024      7015      7105      7115      7025     17820     17893
 -2     17894     17185     17117     17825     17899     17191     17827     17900     17901     17192
 -1      2226    4    0    1
 -2      7015      7105      7115      7025      7016      7106      7116      7026     17827     17900
 -2     17901     17192     17124     17832     17906     17198     17834     17907     17908     17199
 -1      2227    4    0    1
 -2      7016      7106      7116      7026      7017      7107      7117      7027     17834     17907
 -2     17908     17199     17131     17839     17913     17205     17841     17914     17915     17206
 -1      2228    4    0    1
 -2      7017      7107      7117      7027      7018      7108      7118      7028     17841     17914
 -2     17915     17206     17138     17846     17920     17212     17848     17921     17922     17213
 -1      2229    4    0    1
 -2      7018      7108      7118      7028      7019      7109      7119      7029     17848     17921
 -2     17922     17213     17145     17853     17927     17219     17855     17928     17929     17220
 -1      2230    4    0    1
 -2      7019      7109      7119      7029      7020      7110      7120      7030     17855     17928
 -2     17929     17220     17152     17860     17934     17226     17862     17935     17936     17227
 -1      2231    4    0    1
 -2      7020      7110      7120      7030      7021      7111      7121      7031     17862     17935
 -2     17936     17227     17159     17867     17941     17233     17869     17942     17943     17234
 -1      2232    4    0    1
 -2      7021      7111      7121      7031      7022      7112      7122      7032     17869     17942
 -2     17943     17234     17166     17874     17948     17240     17876     17949     17950     17241
 -1      2233    4    0    1
 -2      7022      7112      7122      7032      4911      4920      4921      4912     17876     17949
 -2     17950     17241     17173     17881     17955     17247      5444      5446      5447      5417
 -1      2234    4    0    1
 -2       515       524       525       516      7023      7113      7123      7033      1050      1052
 -2      1053      1023     17177     17885     17959     17251     17887     17960     17961     17252
 -1      2235    4    0    1
 -2      7023      7113      7123      7033      7024      7114      7124      7034     17887     17960
 -2     17961     17252     17184     17892     17966     17258     17894     17967     17968     17259
 -1      2236    4    0    1
 -2      7024      7114      7124      7034      7025      7115      7125      7035     17894     17967
 -2     17968     17259     17191     17899     17973     17265     17901     17974     17975     17266
 -1      2237    4    0    1
 -2      7025      7115      7125      7035      7026      7116      7126      7036     17901     17974
 -2     17975     17266     17198     17906     17980     17272     17908     17981     17982     17273
 -1      2238    4    0    1
 -2      7026      7116      7126      7036      7027      7117      7127      7037     17908     17981
 -2     17982     17273     17205     17913     17987     17279     17915     17988     17989     17280
 -1      2239    4    0    1
 -2      7027      7117      7127      7037      7028      7118      7128      7038     17915     17988
 -2     17989     17280     17212     17920     17994     17286     17922     17995     17996     17287
 -1      2240    4    0    1
 -2      7028      7118      7128      7038      7029      7119      7129      7039     17922     17995
 -2     17996     17287     17219     17927     18001     17293     17929     18002     18003     17294
 -1      2241    4    0    1
 -2      7029      7119      7129      7039      7030      7120      7130      7040     17929     18002
 -2     18003     17294     17226     17934     18008     17300     17936     18009     18010     17301
 -1      2242    4    0    1
 -2      7030      7120      7130      7040      7031      7121      7131      7041     17936     18009
 -2     18010     17301     17233     17941     18015     17307     17943     18016     18017     17308
 -1      2243    4    0    1
 -2      7031      7121      7131      7041      7032      7122      7132      7042     17943     18016
 -2     18017     17308     17240     17948     18022     17314     17950     18023     18024     17315
 -1      2244    4    0    1
 -2      7032      7122      7132      7042      4912      4921      4922      4913     17950     18023
 -2     18024     17315     17247     17955     18029     17321      5447      5449      5450      5420
 -1      2245    4    0    1
 -2       516       525       526       517      7033      7123      7133      7043      1053      1055
 -2      1056      1026     17251     17959     18033     17325     17961     18034     18035     17326
 -1      2246    4    0    1
 -2      7033      7123      7133      7043      7034      7124      7134      7044     17961     18034
 -2     18035     17326     17258     17966     18040     17332     17968     18041     18042     17333
 -1      2247    4    0    1
 -2      7034      7124      7134      7044      7035      7125      7135      7045     17968     18041
 -2     18042     17333     17265     17973     18047     17339     17975     18048     18049     17340
 -1      2248    4    0    1
 -2      7035      7125      7135      7045      7036      7126      7136      7046     17975     18048
 -2     18049     17340     17272     17980     18054     17346     17982     18055     18056     17347
 -1      2249    4    0    1
 -2      7036      7126      7136      7046      7037      7127      7137      7047     17982     18055
 -2     18056     17347     17279     17987     18061     17353     17989     18062     18063     17354
 -1      2250    4    0    1
 -2      7037      7127      7137      7047      7038      7128      7138      7048     17989     18062
 -2     18063     17354     17286     17994     18068     17360     17996     18069     18070     17361
 -1      2251    4    0    1
 -2      7038      7128      7138      7048      7039      7129      7139      7049     17996     18069
 -2     18070     17361     17293     18001     18075     17367     18003     18076     18077     17368
 -1      2252    4    0    1
 -2      7039      7129      7139      7049      7040      7130      7140      7050     18003     18076
 -2     18077     17368     17300     18008     18082     17374     18010     18083     18084     17375
 -1      2253    4    0    1
 -2      7040      7130      7140      7050      7041      7131      7141      7051     18010     18083
 -2     18084     17375     17307     18015     18089     17381     18017     18090     18091     17382
 -1      2254    4    0    1
 -2      7041      7131      7141      7051      7042      7132      7142      7052     18017     18090
 -2     18091     17382     17314     18022     18096     17388     18024     18097     18098     17389
 -1      2255    4    0    1
 -2      7042      7132      7142      7052      4913      4922      4923      4914     18024     18097
 -2     18098     17389     17321     18029     18103     17395      5450      5452      5453      5423
 -1      2256    4    0    1
 -2       517       526       527       518      7043      7133      7143      7053      1056      1058
 -2      1059      1029     17325     18033     18107     17399     18035     18108     18109     17400
 -1      2257    4    0    1
 -2      7043      7133      7143      7053      7044      7134      7144      7054     18035     18108
 -2     18109     17400     17332     18040     18114     17406     18042     18115     18116     17407
 -1      2258    4    0    1
 -2      7044      7134      7144      7054      7045      7135      7145      7055     18042     18115
 -2     18116     17407     17339     18047     18121     17413     18049     18122     18123     17414
 -1      2259    4    0    1
 -2      7045      7135      7145      7055      7046      7136      7146      7056     18049     18122
 -2     18123     17414     17346     18054     18128     17420     18056     18129     18130     17421
 -1      2260    4    0    1
 -2      7046      7136      7146      7056      7047      7137      7147      7057     18056     18129
 -2     18130     17421     17353     18061     18135     17427     18063     18136     18137     17428
 -1      2261    4    0    1
 -2      7047      7137      7147      7057      7048      7138      7148      7058     18063     18136
 -2     18137     17428     17360     18068     18142     17434     18070     18143     18144     17435
 -1      2262    4    0    1
 -2      7048      7138      7148      7058      7049      7139      7149      7059     18070     18143
 -2     18144     17435     17367     18075     18149     17441     18077     18150     18151     17442
 -1      2263    4    0    1
 -2      7049      7139      7149      7059      7050      7140      7150      7060     18077     18150
 -2     18151     17442     17374     18082     18156     17448     18084     18157     18158     17449
 -1      2264    4    0    1
 -2      7050      7140      7150      7060      7051      7141      7151      7061     18084     18157
 -2     18158     17449     17381     18089     18163     17455     18091     18164     18165     17456
 -1      2265    4    0    1
 -2      7051      7141      7151      7061      7052      7142      7152      7062     18091     18164
 -2     18165     17456     17388     18096     18170     17462     18098     18171     18172     17463
 -1      2266    4    0    1
 -2      7052      7142      7152      7062      4914      4923      4924      4915     18098     18171
 -2     18172     17463     17395     18103     18177     17469      5453      5455      5456      5426
 -1      2267    4    0    1
 -2       518       527       528       519      7053      7143      7153      7063      1059      1061
 -2      1062      1032     17399     18107     18181     17473     18109     18182     18183     17474
 -1      2268    4    0    1
 -2      7053      7143      7153      7063      7054      7144      7154      7064     18109     18182
 -2     18183     17474     17406     18114     18188     17480     18116     18189     18190     17481
 -1      2269    4    0    1
 -2      7054      7144      7154      7064      7055      7145      7155      7065     18116     18189
 -2     18190     17481     17413     18121     18195     17487     18123     18196     18197     17488
 -1      2270    4    0    1
 -2      7055      7145      7155      7065      7056      7146      7156      7066     18123     18196
 -2     18197     17488     17420     18128     18202     17494     18130     18203     18204     17495
 -1      2271    4    0    1
 -2      7056      7146      7156      7066      7057      7147      7157      7067     18130     18203
 -2     18204     17495     17427     18135     18209     17501     18137     18210     18211     17502
 -1      2272    4    0    1
 -2      7057      7147      7157      7067      7058      7148      7158      7068     18137     18210
 -2     18211     17502     17434     18142     18216     17508     18144     18217     18218     17509
 -1      2273    4    0    1
 -2      7058      7148      7158      7068      7059      7149      7159      7069     18144     18217
 -2     18218     17509     17441     18149     18223     17515     18151     18224     18225     17516
 -1      2274    4    0    1
 -2      7059      7149      7159      7069      7060      7150      7160      7070     18151     18224
 -2     18225     17516     17448     18156     18230     17522     18158     18231     18232     17523
 -1      2275    4    0    1
 -2      7060      7150      7160      7070      7061      7151      7161      7071     18158     18231
 -2     18232     17523     17455     18163     18237     17529     18165     18238     18239     17530
 -1      2276    4    0    1
 -2      7061      7151      7161      7071      7062      7152      7162      7072     18165     18238
 -2     18239     17530     17462     18170     18244     17536     18172     18245     18246     17537
 -1      2277    4    0    1
 -2      7062      7152      7162      7072      4915      4924      4925      4916     18172     18245
 -2     18246     17537     17469     18177     18251     17543      5456      5458      5459      5429
 -1      2278    4    0    1
 -2       519       528       529       520      7063      7153      7163      7073      1062      1064
 -2      1065      1035     17473     18181     18255     17547     18183     18256     18257     17548
 -1      2279    4    0    1
 -2      7063      7153      7163      7073      7064      7154      7164      7074     18183     18256
 -2     18257     17548     17480     18188     18262     17554     18190     18263     18264     17555
 -1      2280    4    0    1
 -2      7064      7154      7164      7074      7065      7155      7165      7075     18190     18263
 -2     18264     17555     17487     18195     18269     17561     18197     18270     18271     17562
 -1      2281    4    0    1
 -2      7065      7155      7165      7075      7066      7156      7166      7076     18197     18270
 -2     18271     17562     17494     18202     18276     17568     18204     18277     18278     17569
 -1      2282    4    0    1
 -2      7066      7156      7166      7076      7067      7157      7167      7077     18204     18277
 -2     18278     17569     17501     18209     18283     17575     18211     18284     18285     17576
 -1      2283    4    0    1
 -2      7067      7157      7167      7077      7068      7158      7168      7078     18211     18284
 -2     18285     17576     17508     18216     18290     17582     18218     18291     18292     17583
 -1      2284    4    0    1
 -2      7068      7158      7168      7078      7069      7159      7169      7079     18218     18291
 -2     18292     17583     17515     18223     18297     17589     18225     18298     18299     17590
 -1      2285    4    0    1
 -2      7069      7159      7169      7079      7070      7160      7170      7080     18225     18298
 -2     18299     17590     17522     18230     18304     17596     18232     18305     18306     17597
 -1      2286    4    0    1
 -2      7070      7160      7170      7080      7071      7161      7171      7081     18232     18305
 -2     18306     17597     17529     18237     18311     17603     18239     18312     18313     17604
 -1      2287    4    0    1
 -2      7071      7161      7171      7081      7072      7162      7172      7082     18239     18312
 -2     18313     17604     17536     18244     18318     17610     18246     18319     18320     17611
 -1      2288    4    0    1
 -2      7072      7162      7172      7082      4916      4925      4926      4917     18246     18319
 -2     18320     17611     17543     18251     18325     17617      5459      5461      5462      5432
 -1      2289    4    0    1
 -2       520       529       530       521      7073      7163      7173      7083      1065      1067
 -2      1068      1038     17547     18255     18329     17621     18257     18330     18331     17622
 -1      2290    4    0    1
 -2      7073      7163      7173      7083      7074      7164      7174      7084     18257     18330
 -2     18331     17622     17554     18262     18336     17628     18264     18337     18338     17629
 -1      2291    4    0    1
 -2      7074      7164      7174      7084      7075      7165      7175      7085     18264     18337
 -2     18338     17629     17561     18269     18343     17635     18271     18344     18345     17636
 -1      2292    4    0    1
 -2      7075      7165      7175      7085      7076      7166      7176      7086     18271     18344
 -2     18345     17636     17568     18276     18350     17642     18278     18351     18352     17643
 -1      2293    4    0    1
 -2      7076      7166      7176      7086      7077      7167      7177      7087     18278     18351
 -2     18352     17643     17575     18283     18357     17649     18285     18358     18359     17650
 -1      2294    4    0    1
 -2      7077      7167      7177      7087      7078      7168      7178      7088     18285     18358
 -2     18359     17650     17582     18290     18364     17656     18292     18365     18366     17657
 -1      2295    4    0    1
 -2      7078      7168      7178      7088      7079      7169      7179      7089     18292     18365
 -2     18366     17657     17589     18297     18371     17663     18299     18372     18373     17664
 -1      2296    4    0    1
 -2      7079      7169      7179      7089      7080      7170      7180      7090     18299     18372
 -2     18373     17664     17596     18304     18378     17670     18306     18379     18380     17671
 -1      2297    4    0    1
 -2      7080      7170      7180      7090      7081      7171      7181      7091     18306     18379
 -2     18380     17671     17603     18311     18385     17677     18313     18386     18387     17678
 -1      2298    4    0    1
 -2      7081      7171      7181      7091      7082      7172      7182      7092     18313     18386
 -2     18387     17678     17610     18318     18392     17684     18320     18393     18394     17685
 -1      2299    4    0    1
 -2      7082      7172      7182      7092      4917      4926      4927      4918     18320     18393
 -2     18394     17685     17617     18325     18399     17691      5462      5464      5465      5435
 -1      2300    4    0    1
 -2       521       530       102       103      7083      7173      3314      3324      1068      1070
 -2       132      1041     17621     18329      3934      3966     18331     18403      3967     17695
 -1      2301    4    0    1
 -2      7083      7173      3314      3324      7084      7174      3315      3325     18331     18403
 -2      3967     17695     17628     18336      3937      3969     18338     18407      3970     17699
 -1      2302    4    0    1
 -2      7084      7174      3315      3325      7085      7175      3316      3326     18338     18407
 -2      3970     17699     17635     18343      3940      3972     18345     18411      3973     17703
 -1      2303    4    0    1
 -2      7085      7175      3316      3326      7086      7176      3317      3327     18345     18411
 -2      3973     17703     17642     18350      3943      3975     18352     18415      3976     17707
 -1      2304    4    0    1
 -2      7086      7176      3317      3327      7087      7177      3318      3328     18352     18415
 -2      3976     17707     17649     18357      3946      3978     18359     18419      3979     17711
 -1      2305    4    0    1
 -2      7087      7177      3318      3328      7088      7178      3319      3329     18359     18419
 -2      3979     17711     17656     18364      3949      3981     18366     18423      3982     17715
 -1      2306    4    0    1
 -2      7088      7178      3319      3329      7089      7179      3320      3330     18366     18423
 -2      3982     17715     17663     18371      3952      3984     18373     18427      3985     17719
 -1      2307    4    0    1
 -2      7089      7179      3320      3330      7090      7180      3321      3331     18373     18427
 -2      3985     17719     17670     18378      3955      3987     18380     18431      3988     17723
 -1      2308    4    0    1
 -2      7090      7180      3321      3331      7091      7181      3322      3332     18380     18431
 -2      3988     17723     17677     18385      3958      3990     18387     18435      3991     17727
 -1      2309    4    0    1
 -2      7091      7181      3322      3332      7092      7182      3323      3333     18387     18435
 -2      3991     17727     17684     18392      3961      3993     18394     18439      3994     17731
 -1      2310    4    0    1
 -2      7092      7182      3323      3333      4918      4927       258       259     18394     18439
 -2      3994     17731     17691     18399      3964      3996      5465      5467       288      5438
 -1      2311    4    0    1
 -2        22        23       531       522      1656      1666      7183      7093        52      1072
 -2      1073      1043      2232      2264     18445     17737      2265     18446     18447     17738
 -1      2312    4    0    1
 -2      1656      1666      7183      7093      1657      1667      7184      7094      2265     18446
 -2     18447     17738      2235      2267     18452     17744      2268     18453     18454     17745
 -1      2313    4    0    1
 -2      1657      1667      7184      7094      1658      1668      7185      7095      2268     18453
 -2     18454     17745      2238      2270     18459     17751      2271     18460     18461     17752
 -1      2314    4    0    1
 -2      1658      1668      7185      7095      1659      1669      7186      7096      2271     18460
 -2     18461     17752      2241      2273     18466     17758      2274     18467     18468     17759
 -1      2315    4    0    1
 -2      1659      1669      7186      7096      1660      1670      7187      7097      2274     18467
 -2     18468     17759      2244      2276     18473     17765      2277     18474     18475     17766
 -1      2316    4    0    1
 -2      1660      1670      7187      7097      1661      1671      7188      7098      2277     18474
 -2     18475     17766      2247      2279     18480     17772      2280     18481     18482     17773
 -1      2317    4    0    1
 -2      1661      1671      7188      7098      1662      1672      7189      7099      2280     18481
 -2     18482     17773      2250      2282     18487     17779      2283     18488     18489     17780
 -1      2318    4    0    1
 -2      1662      1672      7189      7099      1663      1673      7190      7100      2283     18488
 -2     18489     17780      2253      2285     18494     17786      2286     18495     18496     17787
 -1      2319    4    0    1
 -2      1663      1673      7190      7100      1664      1674      7191      7101      2286     18495
 -2     18496     17787      2256      2288     18501     17793      2289     18502     18503     17794
 -1      2320    4    0    1
 -2      1664      1674      7191      7101      1665      1675      7192      7102      2289     18502
 -2     18503     17794      2259      2291     18508     17800      2292     18509     18510     17801
 -1      2321    4    0    1
 -2      1665      1675      7192      7102       178       179      4928      4919      2292     18509
 -2     18510     17801      2262      2294     18515     17807       208      5469      5470      5440
 -1      2322    4    0    1
 -2       522       531       532       523      7093      7183      7193      7103      1073      1075
 -2      1076      1046     17737     18445     18519     17811     18447     18520     18521     17812
 -1      2323    4    0    1
 -2      7093      7183      7193      7103      7094      7184      7194      7104     18447     18520
 -2     18521     17812     17744     18452     18526     17818     18454     18527     18528     17819
 -1      2324    4    0    1
 -2      7094      7184      7194      7104      7095      7185      7195      7105     18454     18527
 -2     18528     17819     17751     18459     18533     17825     18461     18534     18535     17826
 -1      2325    4    0    1
 -2      7095      7185      7195      7105      7096      7186      7196      7106     18461     18534
 -2     18535     17826     17758     18466     18540     17832     18468     18541     18542     17833
 -1      2326    4    0    1
 -2      7096      7186      7196      7106      7097      7187      7197      7107     18468     18541
 -2     18542     17833     17765     18473     18547     17839     18475     18548     18549     17840
 -1      2327    4    0    1
 -2      7097      7187      7197      7107      7098      7188      7198      7108     18475     18548
 -2     18549     17840     17772     18480     18554     17846     18482     18555     18556     17847
 -1      2328    4    0    1
 -2      7098      7188      7198      7108      7099      7189      7199      7109     18482     18555
 -2     18556     17847     17779     18487     18561     17853     18489     18562     18563     17854
 -1      2329    4    0    1
 -2      7099      7189      7199      7109      7100      7190      7200      7110     18489     18562
 -2     18563     17854     17786     18494     18568     17860     18496     18569     18570     17861
 -1      2330    4    0    1
 -2      7100      7190      7200      7110      7101      7191      7201      7111     18496     18569
 -2     18570     17861     17793     18501     18575     17867     18503     18576     18577     17868
 -1      2331    4    0    1
 -2      7101      7191      7201      7111      7102      7192      7202      7112     18503     18576
 -2     18577     17868     17800     18508     18582     17874     18510     18583     18584     17875
 -1      2332    4    0    1
 -2      7102      7192      7202      7112      4919      4928      4929      4920     18510     18583
 -2     18584     17875     17807     18515     18589     17881      5470      5472      5473      5443
 -1      2333    4    0    1
 -2       523       532       533       524      7103      7193      7203      7113      1076      1078
 -2      1079      1049     17811     18519     18593     17885     18521     18594     18595     17886
 -1      2334    4    0    1
 -2      7103      7193      7203      7113      7104      7194      7204      7114     18521     18594
 -2     18595     17886     17818     18526     18600     17892     18528     18601     18602     17893
 -1      2335    4    0    1
 -2      7104      7194      7204      7114      7105      7195      7205      7115     18528     18601
 -2     18602     17893     17825     18533     18607     17899     18535     18608     18609     17900
 -1      2336    4    0    1
 -2      7105      7195      7205      7115      7106      7196      7206      7116     18535     18608
 -2     18609     17900     17832     18540     18614     17906     18542     18615     18616     17907
 -1      2337    4    0    1
 -2      7106      7196      7206      7116      7107      7197      7207      7117     18542     18615
 -2     18616     17907     17839     18547     18621     17913     18549     18622     18623     17914
 -1      2338    4    0    1
 -2      7107      7197      7207      7117      7108      7198      7208      7118     18549     18622
 -2     18623     17914     17846     18554     18628     17920     18556     18629     18630     17921
 -1      2339    4    0    1
 -2      7108      7198      7208      7118      7109      7199      7209      7119     18556     18629
 -2     18630     17921     17853     18561     18635     17927     18563     18636     18637     17928
 -1      2340    4    0    1
 -2      7109      7199      7209      7119      7110      7200      7210      7120     18563     18636
 -2     18637     17928     17860     18568     18642     17934     18570     18643     18644     17935
 -1      2341    4    0    1
 -2      7110      7200      7210      7120      7111      7201      7211      7121     18570     18643
 -2     18644     17935     17867     18575     18649     17941     18577     18650     18651     17942
 -1      2342    4    0    1
 -2      7111      7201      7211      7121      7112      7202      7212      7122     18577     18650
 -2     18651     17942     17874     18582     18656     17948     18584     18657     18658     17949
 -1      2343    4    0    1
 -2      7112      7202      7212      7122      4920      4929      4930      4921     18584     18657
 -2     18658     17949     17881     18589     18663     17955      5473      5475      5476      5446
 -1      2344    4    0    1
 -2       524       533       534       525      7113      7203      7213      7123      1079      1081
 -2      1082      1052     17885     18593     18667     17959     18595     18668     18669     17960
 -1      2345    4    0    1
 -2      7113      7203      7213      7123      7114      7204      7214      7124     18595     18668
 -2     18669     17960     17892     18600     18674     17966     18602     18675     18676     17967
 -1      2346    4    0    1
 -2      7114      7204      7214      7124      7115      7205      7215      7125     18602     18675
 -2     18676     17967     17899     18607     18681     17973     18609     18682     18683     17974
 -1      2347    4    0    1
 -2      7115      7205      7215      7125      7116      7206      7216      7126     18609     18682
 -2     18683     17974     17906     18614     18688     17980     18616     18689     18690     17981
 -1      2348    4    0    1
 -2      7116      7206      7216      7126      7117      7207      7217      7127     18616     18689
 -2     18690     17981     17913     18621     18695     17987     18623     18696     18697     17988
 -1      2349    4    0    1
 -2      7117      7207      7217      7127      7118      7208      7218      7128     18623     18696
 -2     18697     17988     17920     18628     18702     17994     18630     18703     18704     17995
 -1      2350    4    0    1
 -2      7118      7208      7218      7128      7119      7209      7219      7129     18630     18703
 -2     18704     17995     17927     18635     18709     18001     18637     18710     18711     18002
 -1      2351    4    0    1
 -2      7119      7209      7219      7129      7120      7210      7220      7130     18637     18710
 -2     18711     18002     17934     18642     18716     18008     18644     18717     18718     18009
 -1      2352    4    0    1
 -2      7120      7210      7220      7130      7121      7211      7221      7131     18644     18717
 -2     18718     18009     17941     18649     18723     18015     18651     18724     18725     18016
 -1      2353    4    0    1
 -2      7121      7211      7221      7131      7122      7212      7222      7132     18651     18724
 -2     18725     18016     17948     18656     18730     18022     18658     18731     18732     18023
 -1      2354    4    0    1
 -2      7122      7212      7222      7132      4921      4930      4931      4922     18658     18731
 -2     18732     18023     17955     18663     18737     18029      5476      5478      5479      5449
 -1      2355    4    0    1
 -2       525       534       535       526      7123      7213      7223      7133      1082      1084
 -2      1085      1055     17959     18667     18741     18033     18669     18742     18743     18034
 -1      2356    4    0    1
 -2      7123      7213      7223      7133      7124      7214      7224      7134     18669     18742
 -2     18743     18034     17966     18674     18748     18040     18676     18749     18750     18041
 -1      2357    4    0    1
 -2      7124      7214      7224      7134      7125      7215      7225      7135     18676     18749
 -2     18750     18041     17973     18681     18755     18047     18683     18756     18757     18048
 -1      2358    4    0    1
 -2      7125      7215      7225      7135      7126      7216      7226      7136     18683     18756
 -2     18757     18048     17980     18688     18762     18054     18690     18763     18764     18055
 -1      2359    4    0    1
 -2      7126      7216      7226      7136      7127      7217      7227      7137     18690     18763
 -2     18764     18055     17987     18695     18769     18061     18697     18770     18771     18062
 -1      2360    4    0    1
 -2      7127      7217      7227      7137      7128      7218      7228      7138     18697     18770
 -2     18771     18062     17994     18702     18776     18068     18704     18777     18778     18069
 -1      2361    4    0    1
 -2      7128      7218      7228      7138      7129      7219      7229      7139     18704     18777
 -2     18778     18069     18001     18709     18783     18075     18711     18784     18785     18076
 -1      2362    4    0    1
 -2      7129      7219      7229      7139      7130      7220      7230      7140     18711     18784
 -2     18785     18076     18008     18716     18790     18082     18718     18791     18792     18083
 -1      2363    4    0    1
 -2      7130      7220      7230      7140      7131      7221      7231      7141     18718     18791
 -2     18792     18083     18015     18723     18797     18089     18725     18798     18799     18090
 -1      2364    4    0    1
 -2      7131      7221      7231      7141      7132      7222      7232      7142     18725     18798
 -2     18799     18090     18022     18730     18804     18096     18732     18805     18806     18097
 -1      2365    4    0    1
 -2      7132      7222      7232      7142      4922      4931      4932      4923     18732     18805
 -2     18806     18097     18029     18737     18811     18103      5479      5481      5482      5452
 -1      2366    4    0    1
 -2       526       535       536       527      7133      7223      7233      7143      1085      1087
 -2      1088      1058     18033     18741     18815     18107     18743     18816     18817     18108
 -1      2367    4    0    1
 -2      7133      7223      7233      7143      7134      7224      7234      7144     18743     18816
 -2     18817     18108     18040     18748     18822     18114     18750     18823     18824     18115
 -1      2368    4    0    1
 -2      7134      7224      7234      7144      7135      7225      7235      7145     18750     18823
 -2     18824     18115     18047     18755     18829     18121     18757     18830     18831     18122
 -1      2369    4    0    1
 -2      7135      7225      7235      7145      7136      7226      7236      7146     18757     18830
 -2     18831     18122     18054     18762     18836     18128     18764     18837     18838     18129
 -1      2370    4    0    1
 -2      7136      7226      7236      7146      7137      7227      7237      7147     18764     18837
 -2     18838     18129     18061     18769     18843     18135     18771     18844     18845     18136
 -1      2371    4    0    1
 -2      7137      7227      7237      7147      7138      7228      7238      7148     18771     18844
 -2     18845     18136     18068     18776     18850     18142     18778     18851     18852     18143
 -1      2372    4    0    1
 -2      7138      7228      7238      7148      7139      7229      7239      7149     18778     18851
 -2     18852     18143     18075     18783     18857     18149     18785     18858     18859     18150
 -1      2373    4    0    1
 -2      7139      7229      7239      7149      7140      7230      7240      7150     18785     18858
 -2     18859     18150     18082     18790     18864     18156     18792     18865     18866     18157
 -1      2374    4    0    1
 -2      7140      7230      7240      7150      7141      7231      7241      7151     18792     18865
 -2     18866     18157     18089     18797     18871     18163     18799     18872     18873     18164
 -1      2375    4    0    1
 -2      7141      7231      7241      7151      7142      7232      7242      7152     18799     18872
 -2     18873     18164     18096     18804     18878     18170     18806     18879     18880     18171
 -1      2376    4    0    1
 -2      7142      7232      7242      7152      4923      4932      4933      4924     18806     18879
 -2     18880     18171     18103     18811     18885     18177      5482      5484      5485      5455
 -1      2377    4    0    1
 -2       527       536       537       528      7143      7233      7243      7153      1088      1090
 -2      1091      1061     18107     18815     18889     18181     18817     18890     18891     18182
 -1      2378    4    0    1
 -2      7143      7233      7243      7153      7144      7234      7244      7154     18817     18890
 -2     18891     18182     18114     18822     18896     18188     18824     18897     18898     18189
 -1      2379    4    0    1
 -2      7144      7234      7244      7154      7145      7235      7245      7155     18824     18897
 -2     18898     18189     18121     18829     18903     18195     18831     18904     18905     18196
 -1      2380    4    0    1
 -2      7145      7235      7245      7155      7146      7236      7246      7156     18831     18904
 -2     18905     18196     18128     18836     18910     18202     18838     18911     18912     18203
 -1      2381    4    0    1
 -2      7146      7236      7246      7156      7147      7237      7247      7157     18838     18911
 -2     18912     18203     18135     18843     18917     18209     18845     18918     18919     18210
 -1      2382    4    0    1
 -2      7147      7237      7247      7157      7148      7238      7248      7158     18845     18918
 -2     18919     18210     18142     18850     18924     18216     18852     18925     18926     18217
 -1      2383    4    0    1
 -2      7148      7238      7248      7158      7149      7239      7249      7159     18852     18925
 -2     18926     18217     18149     18857     18931     18223     18859     18932     18933     18224
 -1      2384    4    0    1
 -2      7149      7239      7249      7159      7150      7240      7250      7160     18859     18932
 -2     18933     18224     18156     18864     18938     18230     18866     18939     18940     18231
 -1      2385    4    0    1
 -2      7150      7240      7250      7160      7151      7241      7251      7161     18866     18939
 -2     18940     18231     18163     18871     18945     18237     18873     18946     18947     18238
 -1      2386    4    0    1
 -2      7151      7241      7251      7161      7152      7242      7252      7162     18873     18946
 -2     18947     18238     18170     18878     18952     18244     18880     18953     18954     18245
 -1      2387    4    0    1
 -2      7152      7242      7252      7162      4924      4933      4934      4925     18880     18953
 -2     18954     18245     18177     18885     18959     18251      5485      5487      5488      5458
 -1      2388    4    0    1
 -2       528       537       538       529      7153      7243      7253      7163      1091      1093
 -2      1094      1064     18181     18889     18963     18255     18891     18964     18965     18256
 -1      2389    4    0    1
 -2      7153      7243      7253      7163      7154      7244      7254      7164     18891     18964
 -2     18965     18256     18188     18896     18970     18262     18898     18971     18972     18263
 -1      2390    4    0    1
 -2      7154      7244      7254      7164      7155      7245      7255      7165     18898     18971
 -2     18972     18263     18195     18903     18977     18269     18905     18978     18979     18270
 -1      2391    4    0    1
 -2      7155      7245      7255      7165      7156      7246      7256      7166     18905     18978
 -2     18979     18270     18202     18910     18984     18276     18912     18985     18986     18277
 -1      2392    4    0    1
 -2      7156      7246      7256      7166      7157      7247      7257      7167     18912     18985
 -2     18986     18277     18209     18917     18991     18283     18919     18992     18993     18284
 -1      2393    4    0    1
 -2      7157      7247      7257      7167      7158      7248      7258      7168     18919     18992
 -2     18993     18284     18216     18924     18998     18290     18926     18999     19000     18291
 -1      2394    4    0    1
 -2      7158      7248      7258      7168      7159      7249      7259      7169     18926     18999
 -2     19000     18291     18223     18931     19005     18297     18933     19006     19007     18298
 -1      2395    4    0    1
 -2      7159      7249      7259      7169      7160      7250      7260      7170     18933     19006
 -2     19007     18298     18230     18938     19012     18304     18940     19013     19014     18305
 -1      2396    4    0    1
 -2      7160      7250      7260      7170      7161      7251      7261      7171     18940     19013
 -2     19014     18305     18237     18945     19019     18311     18947     19020     19021     18312
 -1      2397    4    0    1
 -2      7161      7251      7261      7171      7162      7252      7262      7172     18947     19020
 -2     19021     18312     18244     18952     19026     18318     18954     19027     19028     18319
 -1      2398    4    0    1
 -2      7162      7252      7262      7172      4925      4934      4935      4926     18954     19027
 -2     19028     18319     18251     18959     19033     18325      5488      5490      5491      5461
 -1      2399    4    0    1
 -2       529       538       539       530      7163      7253      7263      7173      1094      1096
 -2      1097      1067     18255     18963     19037     18329     18965     19038     19039     18330
 -1      2400    4    0    1
 -2      7163      7253      7263      7173      7164      7254      7264      7174     18965     19038
 -2     19039     18330     18262     18970     19044     18336     18972     19045     19046     18337
 -1      2401    4    0    1
 -2      7164      7254      7264      7174      7165      7255      7265      7175     18972     19045
 -2     19046     18337     18269     18977     19051     18343     18979     19052     19053     18344
 -1      2402    4    0    1
 -2      7165      7255      7265      7175      7166      7256      7266      7176     18979     19052
 -2     19053     18344     18276     18984     19058     18350     18986     19059     19060     18351
 -1      2403    4    0    1
 -2      7166      7256      7266      7176      7167      7257      7267      7177     18986     19059
 -2     19060     18351     18283     18991     19065     18357     18993     19066     19067     18358
 -1      2404    4    0    1
 -2      7167      7257      7267      7177      7168      7258      7268      7178     18993     19066
 -2     19067     18358     18290     18998     19072     18364     19000     19073     19074     18365
 -1      2405    4    0    1
 -2      7168      7258      7268      7178      7169      7259      7269      7179     19000     19073
 -2     19074     18365     18297     19005     19079     18371     19007     19080     19081     18372
 -1      2406    4    0    1
 -2      7169      7259      7269      7179      7170      7260      7270      7180     19007     19080
 -2     19081     18372     18304     19012     19086     18378     19014     19087     19088     18379
 -1      2407    4    0    1
 -2      7170      7260      7270      7180      7171      7261      7271      7181     19014     19087
 -2     19088     18379     18311     19019     19093     18385     19021     19094     19095     18386
 -1      2408    4    0    1
 -2      7171      7261      7271      7181      7172      7262      7272      7182     19021     19094
 -2     19095     18386     18318     19026     19100     18392     19028     19101     19102     18393
 -1      2409    4    0    1
 -2      7172      7262      7272      7182      4926      4935      4936      4927     19028     19101
 -2     19102     18393     18325     19033     19107     18399      5491      5493      5494      5464
 -1      2410    4    0    1
 -2       530       539       101       102      7173      7263      3304      3314      1097      1099
 -2       131      1070     18329     19037      3902      3934     19039     19111      3935     18403
 -1      2411    4    0    1
 -2      7173      7263      3304      3314      7174      7264      3305      3315     19039     19111
 -2      3935     18403     18336     19044      3905      3937     19046     19115      3938     18407
 -1      2412    4    0    1
 -2      7174      7264      3305      3315      7175      7265      3306      3316     19046     19115
 -2      3938     18407     18343     19051      3908      3940     19053     19119      3941     18411
 -1      2413    4    0    1
 -2      7175      7265      3306      3316      7176      7266      3307      3317     19053     19119
 -2      3941     18411     18350     19058      3911      3943     19060     19123      3944     18415
 -1      2414    4    0    1
 -2      7176      7266      3307      3317      7177      7267      3308      3318     19060     19123
 -2      3944     18415     18357     19065      3914      3946     19067     19127      3947     18419
 -1      2415    4    0    1
 -2      7177      7267      3308      3318      7178      7268      3309      3319     19067     19127
 -2      3947     18419     18364     19072      3917      3949     19074     19131      3950     18423
 -1      2416    4    0    1
 -2      7178      7268      3309      3319      7179      7269      3310      3320     19074     19131
 -2      3950     18423     18371     19079      3920      3952     19081     19135      3953     18427
 -1      2417    4    0    1
 -2      7179      7269      3310      3320      7180      7270      3311      3321     19081     19135
 -2      3953     18427     18378     19086      3923      3955     19088     19139      3956     18431
 -1      2418    4    0    1
 -2      7180      7270      3311      3321      7181      7271      3312      3322     19088     19139
 -2      3956     18431     18385     19093      3926      3958     19095     19143      3959     18435
 -1      2419    4    0    1
 -2      7181      7271      3312      3322      7182      7272      3313      3323     19095     19143
 -2      3959     18435     18392     19100      3929      3961     19102     19147      3962     18439
 -1      2420    4    0    1
 -2      7182      7272      3313      3323      4927      4936       257       258     19102     19147
 -2      3962     18439     18399     19107      3932      3964      5494      5496       287      5467
 -1      2421    4    0    1
 -2        23        24       540       531      1666      1676      7273      7183        53      1101
 -2      1102      1072      2264      2296     19153     18445      2297     19154     19155     18446
 -1      2422    4    0    1
 -2      1666      1676      7273      7183      1667      1677      7274      7184      2297     19154
 -2     19155     18446      2267      2299     19160     18452      2300     19161     19162     18453
 -1      2423    4    0    1
 -2      1667      1677      7274      7184      1668      1678      7275      7185      2300     19161
 -2     19162     18453      2270      2302     19167     18459      2303     19168     19169     18460
 -1      2424    4    0    1
 -2      1668      1678      7275      7185      1669      1679      7276      7186      2303     19168
 -2     19169     18460      2273      2305     19174     18466      2306     19175     19176     18467
 -1      2425    4    0    1
 -2      1669      1679      7276      7186      1670      1680      7277      7187      2306     19175
 -2     19176     18467      2276      2308     19181     18473      2309     19182     19183     18474
 -1      2426    4    0    1
 -2      1670      1680      7277      7187      1671      1681      7278      7188      2309     19182
 -2     19183     18474      2279      2311     19188     18480      2312     19189     19190     18481
 -1      2427    4    0    1
 -2      1671      1681      7278      7188      1672      1682      7279      7189      2312     19189
 -2     19190     18481      2282      2314     19195     18487      2315     19196     19197     18488
 -1      2428    4    0    1
 -2      1672      1682      7279      7189      1673      1683      7280      7190      2315     19196
 -2     19197     18488      2285      2317     19202     18494      2318     19203     19204     18495
 -1      2429    4    0    1
 -2      1673      1683      7280      7190      1674      1684      7281      7191      2318     19203
 -2     19204     18495      2288      2320     19209     18501      2321     19210     19211     18502
 -1      2430    4    0    1
 -2      1674      1684      7281      7191      1675      1685      7282      7192      2321     19210
 -2     19211     18502      2291      2323     19216     18508      2324     19217     19218     18509
 -1      2431    4    0    1
 -2      1675      1685      7282      7192       179       180      4937      4928      2324     19217
 -2     19218     18509      2294      2326     19223     18515       209      5498      5499      5469
 -1      2432    4    0    1
 -2       531       540       541       532      7183      7273      7283      7193      1102      1104
 -2      1105      1075     18445     19153     19227     18519     19155     19228     19229     18520
 -1      2433    4    0    1
 -2      7183      7273      7283      7193      7184      7274      7284      7194     19155     19228
 -2     19229     18520     18452     19160     19234     18526     19162     19235     19236     18527
 -1      2434    4    0    1
 -2      7184      7274      7284      7194      7185      7275      7285      7195     19162     19235
 -2     19236     18527     18459     19167     19241     18533     19169     19242     19243     18534
 -1      2435    4    0    1
 -2      7185      7275      7285      7195      7186      7276      7286      7196     19169     19242
 -2     19243     18534     18466     19174     19248     18540     19176     19249     19250     18541
 -1      2436    4    0    1
 -2      7186      7276      7286      7196      7187      7277      7287      7197     19176     19249
 -2     19250     18541     18473     19181     19255     18547     19183     19256     19257     18548
 -1      2437    4    0    1
 -2      7187      7277      7287      7197      7188      7278      7288      7198     19183     19256
 -2     19257     18548     18480     19188     19262     18554     19190     19263     19264     18555
 -1      2438    4    0    1
 -2      7188      7278      7288      7198      7189      7279      7289      7199     19190     19263
 -2     19264     18555     18487     19195     19269     18561     19197     19270     19271     18562
 -1      2439    4    0    1
 -2      7189      7279      7289      7199      7190      7280      7290      7200     19197     19270
 -2     19271     18562     18494     19202     19276     18568     19204     19277     19278     18569
 -1      2440    4    0    1
 -2      7190      7280      7290      7200      7191      7281      7291      7201     19204     19277
 -2     19278     18569     18501     19209     19283     18575     19211     19284     19285     18576
 -1      2441    4    0    1
 -2      7191      7281      7291      7201      7192      7282      7292      7202     19211     19284
 -2     19285     18576     18508     19216     19290     18582     19218     19291     19292     18583
 -1      2442    4    0    1
 -2      7192      7282      7292      7202      4928      4937      4938      4929     19218     19291
 -2     19292     18583     18515     19223     19297     18589      5499      5501      5502      5472
 -1      2443    4    0    1
 -2       532       541       542       533      7193      7283      7293      7203      1105      1107
 -2      1108      1078     18519     19227     19301     18593     19229     19302     19303     18594
 -1      2444    4    0    1
 -2      7193      7283      7293      7203      7194      7284      7294      7204     19229     19302
 -2     19303     18594     18526     19234     19308     18600     19236     19309     19310     18601
 -1      2445    4    0    1
 -2      7194      7284      7294      7204      7195      7285      7295      7205     19236     19309
 -2     19310     18601     18533     19241     19315     18607     19243     19316     19317     18608
 -1      2446    4    0    1
 -2      7195      7285      7295      7205      7196      7286      7296      7206     19243     19316
 -2     19317     18608     18540     19248     19322     18614     19250     19323     19324     18615
 -1      2447    4    0    1
 -2      7196      7286      7296      7206      7197      7287      7297      7207     19250     19323
 -2     19324     18615     18547     19255     19329     18621     19257     19330     19331     18622
 -1      2448    4    0    1
 -2      7197      7287      7297      7207      7198      7288      7298      7208     19257     19330
 -2     19331     18622     18554     19262     19336     18628     19264     19337     19338     18629
 -1      2449    4    0    1
 -2      7198      7288      7298      7208      7199      7289      7299      7209     19264     19337
 -2     19338     18629     18561     19269     19343     18635     19271     19344     19345     18636
 -1      2450    4    0    1
 -2      7199      7289      7299      7209      7200      7290      7300      7210     19271     19344
 -2     19345     18636     18568     19276     19350     18642     19278     19351     19352     18643
 -1      2451    4    0    1
 -2      7200      7290      7300      7210      7201      7291      7301      7211     19278     19351
 -2     19352     18643     18575     19283     19357     18649     19285     19358     19359     18650
 -1      2452    4    0    1
 -2      7201      7291      7301      7211      7202      7292      7302      7212     19285     19358
 -2     19359     18650     18582     19290     19364     18656     19292     19365     19366     18657
 -1      2453    4    0    1
 -2      7202      7292      7302      7212      4929      4938      4939      4930     19292     19365
 -2     19366     18657     18589     19297     19371     18663      5502      5504      5505      5475
 -1      2454    4    0    1
 -2       533       542       543       534      7203      7293      7303      7213      1108      1110
 -2      1111      1081     18593     19301     19375     18667     19303     19376     19377     18668
 -1      2455    4    0    1
 -2      7203      7293      7303      7213      7204      7294      7304      7214     19303     19376
 -2     19377     18668     18600     19308     19382     18674     19310     19383     19384     18675
 -1      2456    4    0    1
 -2      7204      7294      7304      7214      7205      7295      7305      7215     19310     19383
 -2     19384     18675     18607     19315     19389     18681     19317     19390     19391     18682
 -1      2457    4    0    1
 -2      7205      7295      7305      7215      7206      7296      7306      7216     19317     19390
 -2     19391     18682     18614     19322     19396     18688     19324     19397     19398     18689
 -1      2458    4    0    1
 -2      7206      7296      7306      7216      7207      7297      7307      7217     19324     19397
 -2     19398     18689     18621     19329     19403     18695     19331     19404     19405     18696
 -1      2459    4    0    1
 -2      7207      7297      7307      7217      7208      7298      7308      7218     19331     19404
 -2     19405     18696     18628     19336     19410     18702     19338     19411     19412     18703
 -1      2460    4    0    1
 -2      7208      7298      7308      7218      7209      7299      7309      7219     19338     19411
 -2     19412     18703     18635     19343     19417     18709     19345     19418     19419     18710
 -1      2461    4    0    1
 -2      7209      7299      7309      7219      7210      7300      7310      7220     19345     19418
 -2     19419     18710     18642     19350     19424     18716     19352     19425     19426     18717
 -1      2462    4    0    1
 -2      7210      7300      7310      7220      7211      7301      7311      7221     19352     19425
 -2     19426     18717     18649     19357     19431     18723     19359     19432     19433     18724
 -1      2463    4    0    1
 -2      7211      7301      7311      7221      7212      7302      7312      7222     19359     19432
 -2     19433     18724     18656     19364     19438     18730     19366     19439     19440     18731
 -1      2464    4    0    1
 -2      7212      7302      7312      7222      4930      4939      4940      4931     19366     19439
 -2     19440     18731     18663     19371     19445     18737      5505      5507      5508      5478
 -1      2465    4    0    1
 -2       534       543       544       535      7213      7303      7313      7223      1111      1113
 -2      1114      1084     18667     19375     19449     18741     19377     19450     19451     18742
 -1      2466    4    0    1
 -2      7213      7303      7313      7223      7214      7304      7314      7224     19377     19450
 -2     19451     18742     18674     19382     19456     18748     19384     19457     19458     18749
 -1      2467    4    0    1
 -2      7214      7304      7314      7224      7215      7305      7315      7225     19384     19457
 -2     19458     18749     18681     19389     19463     18755     19391     19464     19465     18756
 -1      2468    4    0    1
 -2      7215      7305      7315      7225      7216      7306      7316      7226     19391     19464
 -2     19465     18756     18688     19396     19470     18762     19398     19471     19472     18763
 -1      2469    4    0    1
 -2      7216      7306      7316      7226      7217      7307      7317      7227     19398     19471
 -2     19472     18763     18695     19403     19477     18769     19405     19478     19479     18770
 -1      2470    4    0    1
 -2      7217      7307      7317      7227      7218      7308      7318      7228     19405     19478
 -2     19479     18770     18702     19410     19484     18776     19412     19485     19486     18777
 -1      2471    4    0    1
 -2      7218      7308      7318      7228      7219      7309      7319      7229     19412     19485
 -2     19486     18777     18709     19417     19491     18783     19419     19492     19493     18784
 -1      2472    4    0    1
 -2      7219      7309      7319      7229      7220      7310      7320      7230     19419     19492
 -2     19493     18784     18716     19424     19498     18790     19426     19499     19500     18791
 -1      2473    4    0    1
 -2      7220      7310      7320      7230      7221      7311      7321      7231     19426     19499
 -2     19500     18791     18723     19431     19505     18797     19433     19506     19507     18798
 -1      2474    4    0    1
 -2      7221      7311      7321      7231      7222      7312      7322      7232     19433     19506
 -2     19507     18798     18730     19438     19512     18804     19440     19513     19514     18805
 -1      2475    4    0    1
 -2      7222      7312      7322      7232      4931      4940      4941      4932     19440     19513
 -2     19514     18805     18737     19445     19519     18811      5508      5510      5511      5481
 -1      2476    4    0    1
 -2       535       544       545       536      7223      7313      7323      7233      1114      1116
 -2      1117      1087     18741     19449     19523     18815     19451     19524     19525     18816
 -1      2477    4    0    1
 -2      7223      7313      7323      7233      7224      7314      7324      7234     19451     19524
 -2     19525     18816     18748     19456     19530     18822     19458     19531     19532     18823
 -1      2478    4    0    1
 -2      7224      7314      7324      7234      7225      7315      7325      7235     19458     19531
 -2     19532     18823     18755     19463     19537     18829     19465     19538     19539     18830
 -1      2479    4    0    1
 -2      7225      7315      7325      7235      7226      7316      7326      7236     19465     19538
 -2     19539     18830     18762     19470     19544     18836     19472     19545     19546     18837
 -1      2480    4    0    1
 -2      7226      7316      7326      7236      7227      7317      7327      7237     19472     19545
 -2     19546     18837     18769     19477     19551     18843     19479     19552     19553     18844
 -1      2481    4    0    1
 -2      7227      7317      7327      7237      7228      7318      7328      7238     19479     19552
 -2     19553     18844     18776     19484     19558     18850     19486     19559     19560     18851
 -1      2482    4    0    1
 -2      7228      7318      7328      7238      7229      7319      7329      7239     19486     19559
 -2     19560     18851     18783     19491     19565     18857     19493     19566     19567     18858
 -1      2483    4    0    1
 -2      7229      7319      7329      7239      7230      7320      7330      7240     19493     19566
 -2     19567     18858     18790     19498     19572     18864     19500     19573     19574     18865
 -1      2484    4    0    1
 -2      7230      7320      7330      7240      7231      7321      7331      7241     19500     19573
 -2     19574     18865     18797     19505     19579     18871     19507     19580     19581     18872
 -1      2485    4    0    1
 -2      7231      7321      7331      7241      7232      7322      7332      7242     19507     19580
 -2     19581     18872     18804     19512     19586     18878     19514     19587     19588     18879
 -1      2486    4    0    1
 -2      7232      7322      7332      7242      4932      4941      4942      4933     19514     19587
 -2     19588     18879     18811     19519     19593     18885      5511      5513      5514      5484
 -1      2487    4    0    1
 -2       536       545       546       537      7233      7323      7333      7243      1117      1119
 -2      1120      1090     18815     19523     19597     18889     19525     19598     19599     18890
 -1      2488    4    0    1
 -2      7233      7323      7333      7243      7234      7324      7334      7244     19525     19598
 -2     19599     18890     18822     19530     19604     18896     19532     19605     19606     18897
 -1      2489    4    0    1
 -2      7234      7324      7334      7244      7235      7325      7335      7245     19532     19605
 -2     19606     18897     18829     19537     19611     18903     19539     19612     19613     18904
 -1      2490    4    0    1
 -2      7235      7325      7335      7245      7236      7326      7336      7246     19539     19612
 -2     19613     18904     18836     19544     19618     18910     19546     19619     19620     18911
 -1      2491    4    0    1
 -2      7236      7326      7336      7246      7237      7327      7337      7247     19546     19619
 -2     19620     18911     18843     19551     19625     18917     19553     19626     19627     18918
 -1      2492    4    0    1
 -2      7237      7327      7337      7247      7238      7328      7338      7248     19553     19626
 -2     19627     18918     18850     19558     19632     18924     19560     19633     19634     18925
 -1      2493    4    0    1
 -2      7238      7328      7338      7248      7239      7329      7339      7249     19560     19633
 -2     19634     18925     18857     19565     19639     18931     19567     19640     19641     18932
 -1      2494    4    0    1
 -2      7239      7329      7339      7249      7240      7330      7340      7250     19567     19640
 -2     19641     18932     18864     19572     19646     18938     19574     19647     19648     18939
 -1      2495    4    0    1
 -2      7240      7330      7340      7250      7241      7331      7341      7251     19574     19647
 -2     19648     18939     18871     19579     19653     18945     19581     19654     19655     18946
 -1      2496    4    0    1
 -2      7241      7331      7341      7251      7242      7332      7342      7252     19581     19654
 -2     19655     18946     18878     19586     19660     18952     19588     19661     19662     18953
 -1      2497    4    0    1
 -2      7242      7332      7342      7252      4933      4942      4943      4934     19588     19661
 -2     19662     18953     18885     19593     19667     18959      5514      5516      5517      5487
 -1      2498    4    0    1
 -2       537       546       547       538      7243      7333      7343      7253      1120      1122
 -2      1123      1093     18889     19597     19671     18963     19599     19672     19673     18964
 -1      2499    4    0    1
 -2      7243      7333      7343      7253      7244      7334      7344      7254     19599     19672
 -2     19673     18964     18896     19604     19678     18970     19606     19679     19680     18971
 -1      2500    4    0    1
 -2      7244      7334      7344      7254      7245      7335      7345      7255     19606     19679
 -2     19680     18971     18903     19611     19685     18977     19613     19686     19687     18978
 -1      2501    4    0    1
 -2      7245      7335      7345      7255      7246      7336      7346      7256     19613     19686
 -2     19687     18978     18910     19618     19692     18984     19620     19693     19694     18985
 -1      2502    4    0    1
 -2      7246      7336      7346      7256      7247      7337      7347      7257     19620     19693
 -2     19694     18985     18917     19625     19699     18991     19627     19700     19701     18992
 -1      2503    4    0    1
 -2      7247      7337      7347      7257      7248      7338      7348      7258     19627     19700
 -2     19701     18992     18924     19632     19706     18998     19634     19707     19708     18999
 -1      2504    4    0    1
 -2      7248      7338      7348      7258      7249      7339      7349      7259     19634     19707
 -2     19708     18999     18931     19639     19713     19005     19641     19714     19715     19006
 -1      2505    4    0    1
 -2      7249      7339      7349      7259      7250      7340      7350      7260     19641     19714
 -2     19715     19006     18938     19646     19720     19012     19648     19721     19722     19013
 -1      2506    4    0    1
 -2      7250      7340      7350      7260      7251      7341      7351      7261     19648     19721
 -2     19722     19013     18945     19653     19727     19019     19655     19728     19729     19020
 -1      2507    4    0    1
 -2      7251      7341      7351      7261      7252      7342      7352      7262     19655     19728
 -2     19729     19020     18952     19660     19734     19026     19662     19735     19736     19027
 -1      2508    4    0    1
 -2      7252      7342      7352      7262      4934      4943      4944      4935     19662     19735
 -2     19736     19027     18959     19667     19741     19033      5517      5519      5520      5490
 -1      2509    4    0    1
 -2       538       547       548       539      7253      7343      7353      7263      1123      1125
 -2      1126      1096     18963     19671     19745     19037     19673     19746     19747     19038
 -1      2510    4    0    1
 -2      7253      7343      7353      7263      7254      7344      7354      7264     19673     19746
 -2     19747     19038     18970     19678     19752     19044     19680     19753     19754     19045
 -1      2511    4    0    1
 -2      7254      7344      7354      7264      7255      7345      7355      7265     19680     19753
 -2     19754     19045     18977     19685     19759     19051     19687     19760     19761     19052
 -1      2512    4    0    1
 -2      7255      7345      7355      7265      7256      7346      7356      7266     19687     19760
 -2     19761     19052     18984     19692     19766     19058     19694     19767     19768     19059
 -1      2513    4    0    1
 -2      7256      7346      7356      7266      7257      7347      7357      7267     19694     19767
 -2     19768     19059     18991     19699     19773     19065     19701     19774     19775     19066
 -1      2514    4    0    1
 -2      7257      7347      7357      7267      7258      7348      7358      7268     19701     19774
 -2     19775     19066     18998     19706     19780     19072     19708     19781     19782     19073
 -1      2515    4    0    1
 -2      7258      7348      7358      7268      7259      7349      7359      7269     19708     19781
 -2     19782     19073     19005     19713     19787     19079     19715     19788     19789     19080
 -1      2516    4    0    1
 -2      7259      7349      7359      7269      7260      7350      7360      7270     19715     19788
 -2     19789     19080     19012     19720     19794     19086     19722     19795     19796     19087
 -1      2517    4    0    1
 -2      7260      7350      7360      7270      7261      7351      7361      7271     19722     19795
 -2     19796     19087     19019     19727     19801     19093     19729     19802     19803     19094
 -1      2518    4    0    1
 -2      7261      7351      7361      7271      7262      7352      7362      7272     19729     19802
 -2     19803     19094     19026     19734     19808     19100     19736     19809     19810     19101
 -1      2519    4    0    1
 -2      7262      7352      7362      7272      4935      4944      4945      4936     19736     19809
 -2     19810     19101     19033     19741     19815     19107      5520      5522      5523      5493
 -1      2520    4    0    1
 -2       539       548       100       101      7263      7353      3294      3304      1126      1128
 -2       130      1099     19037     19745      3870      3902     19747     19819      3903     19111
 -1      2521    4    0    1
 -2      7263      7353      3294      3304      7264      7354      3295      3305     19747     19819
 -2      3903     19111     19044     19752      3873      3905     19754     19823      3906     19115
 -1      2522    4    0    1
 -2      7264      7354      3295      3305      7265      7355      3296      3306     19754     19823
 -2      3906     19115     19051     19759      3876      3908     19761     19827      3909     19119
 -1      2523    4    0    1
 -2      7265      7355      3296      3306      7266      7356      3297      3307     19761     19827
 -2      3909     19119     19058     19766      3879      3911     19768     19831      3912     19123
 -1      2524    4    0    1
 -2      7266      7356      3297      3307      7267      7357      3298      3308     19768     19831
 -2      3912     19123     19065     19773      3882      3914     19775     19835      3915     19127
 -1      2525    4    0    1
 -2      7267      7357      3298      3308      7268      7358      3299      3309     19775     19835
 -2      3915     19127     19072     19780      3885      3917     19782     19839      3918     19131
 -1      2526    4    0    1
 -2      7268      7358      3299      3309      7269      7359      3300      3310     19782     19839
 -2      3918     19131     19079     19787      3888      3920     19789     19843      3921     19135
 -1      2527    4    0    1
 -2      7269      7359      3300      3310      7270      7360      3301      3311     19789     19843
 -2      3921     19135     19086     19794      3891      3923     19796     19847      3924     19139
 -1      2528    4    0    1
 -2      7270      7360      3301      3311      7271      7361      3302      3312     19796     19847
 -2      3924     19139     19093     19801      3894      3926     19803     19851      3927     19143
 -1      2529    4    0    1
 -2      7271      7361      3302      3312      7272      7362      3303      3313     19803     19851
 -2      3927     19143     19100     19808      3897      3929     19810     19855      3930     19147
 -1      2530    4    0    1
 -2      7272      7362      3303      3313      4936      4945       256       257     19810     19855
 -2      3930     19147     19107     19815      3900      3932      5523      5525       286      5496
 -1      2531    4    0    1
 -2        24        25       549       540      1676      1686      7363      7273        54      1130
 -2      1131      1101      2296      2328     19861     19153      2329     19862     19863     19154
 -1      2532    4    0    1
 -2      1676      1686      7363      7273      1677      1687      7364      7274      2329     19862
 -2     19863     19154      2299      2331     19868     19160      2332     19869     19870     19161
 -1      2533    4    0    1
 -2      1677      1687      7364      7274      1678      1688      7365      7275      2332     19869
 -2     19870     19161      2302      2334     19875     19167      2335     19876     19877     19168
 -1      2534    4    0    1
 -2      1678      1688      7365      7275      1679      1689      7366      7276      2335     19876
 -2     19877     19168      2305      2337     19882     19174      2338     19883     19884     19175
 -1      2535    4    0    1
 -2      1679      1689      7366      7276      1680      1690      7367      7277      2338     19883
 -2     19884     19175      2308      2340     19889     19181      2341     19890     19891     19182
 -1      2536    4    0    1
 -2      1680      1690      7367      7277      1681      1691      7368      7278      2341     19890
 -2     19891     19182      2311      2343     19896     19188      2344     19897     19898     19189
 -1      2537    4    0    1
 -2      1681      1691      7368      7278      1682      1692      7369      7279      2344     19897
 -2     19898     19189      2314      2346     19903     19195      2347     19904     19905     19196
 -1      2538    4    0    1
 -2      1682      1692      7369      7279      1683      1693      7370      7280      2347     19904
 -2     19905     19196      2317      2349     19910     19202      2350     19911     19912     19203
 -1      2539    4    0    1
 -2      1683      1693      7370      7280      1684      1694      7371      7281      2350     19911
 -2     19912     19203      2320      2352     19917     19209      2353     19918     19919     19210
 -1      2540    4    0    1
 -2      1684      1694      7371      7281      1685      1695      7372      7282      2353     19918
 -2     19919     19210      2323      2355     19924     19216      2356     19925     19926     19217
 -1      2541    4    0    1
 -2      1685      1695      7372      7282       180       181      4946      4937      2356     19925
 -2     19926     19217      2326      2358     19931     19223       210      5527      5528      5498
 -1      2542    4    0    1
 -2       540       549       550       541      7273      7363      7373      7283      1131      1133
 -2      1134      1104     19153     19861     19935     19227     19863     19936     19937     19228
 -1      2543    4    0    1
 -2      7273      7363      7373      7283      7274      7364      7374      7284     19863     19936
 -2     19937     19228     19160     19868     19942     19234     19870     19943     19944     19235
 -1      2544    4    0    1
 -2      7274      7364      7374      7284      7275      7365      7375      7285     19870     19943
 -2     19944     19235     19167     19875     19949     19241     19877     19950     19951     19242
 -1      2545    4    0    1
 -2      7275      7365      7375      7285      7276      7366      7376      7286     19877     19950
 -2     19951     19242     19174     19882     19956     19248     19884     19957     19958     19249
 -1      2546    4    0    1
 -2      7276      7366      7376      7286      7277      7367      7377      7287     19884     19957
 -2     19958     19249     19181     19889     19963     19255     19891     19964     19965     19256
 -1      2547    4    0    1
 -2      7277      7367      7377      7287      7278      7368      7378      7288     19891     19964
 -2     19965     19256     19188     19896     19970     19262     19898     19971     19972     19263
 -1      2548    4    0    1
 -2      7278      7368      7378      7288      7279      7369      7379      7289     19898     19971
 -2     19972     19263     19195     19903     19977     19269     19905     19978     19979     19270
 -1      2549    4    0    1
 -2      7279      7369      7379      7289      7280      7370      7380      7290     19905     19978
 -2     19979     19270     19202     19910     19984     19276     19912     19985     19986     19277
 -1      2550    4    0    1
 -2      7280      7370      7380      7290      7281      7371      7381      7291     19912     19985
 -2     19986     19277     19209     19917     19991     19283     19919     19992     19993     19284
 -1      2551    4    0    1
 -2      7281      7371      7381      7291      7282      7372      7382      7292     19919     19992
 -2     19993     19284     19216     19924     19998     19290     19926     19999     20000     19291
 -1      2552    4    0    1
 -2      7282      7372      7382      7292      4937      4946      4947      4938     19926     19999
 -2     20000     19291     19223     19931     20005     19297      5528      5530      5531      5501
 -1      2553    4    0    1
 -2       541       550       551       542      7283      7373      7383      7293      1134      1136
 -2      1137      1107     19227     19935     20009     19301     19937     20010     20011     19302
 -1      2554    4    0    1
 -2      7283      7373      7383      7293      7284      7374      7384      7294     19937     20010
 -2     20011     19302     19234     19942     20016     19308     19944     20017     20018     19309
 -1      2555    4    0    1
 -2      7284      7374      7384      7294      7285      7375      7385      7295     19944     20017
 -2     20018     19309     19241     19949     20023     19315     19951     20024     20025     19316
 -1      2556    4    0    1
 -2      7285      7375      7385      7295      7286      7376      7386      7296     19951     20024
 -2     20025     19316     19248     19956     20030     19322     19958     20031     20032     19323
 -1      2557    4    0    1
 -2      7286      7376      7386      7296      7287      7377      7387      7297     19958     20031
 -2     20032     19323     19255     19963     20037     19329     19965     20038     20039     19330
 -1      2558    4    0    1
 -2      7287      7377      7387      7297      7288      7378      7388      7298     19965     20038
 -2     20039     19330     19262     19970     20044     19336     19972     20045     20046     19337
 -1      2559    4    0    1
 -2      7288      7378      7388      7298      7289      7379      7389      7299     19972     20045
 -2     20046     19337     19269     19977     20051     19343     19979     20052     20053     19344
 -1      2560    4    0    1
 -2      7289      7379      7389      7299      7290      7380      7390      7300     19979     20052
 -2     20053     19344     19276     19984     20058     19350     19986     20059     20060     19351
 -1      2561    4    0    1
 -2      7290      7380      7390      7300      7291      7381      7391      7301     19986     20059
 -2     20060     19351     19283     19991     20065     19357     19993     20066     20067     19358
 -1      2562    4    0    1
 -2      7291      7381      7391      7301      7292      7382      7392      7302     19993     20066
 -2     20067     19358     19290     19998     20072     19364     20000     20073     20074     19365
 -1      2563    4    0    1
 -2      7292      7382      7392      7302      4938      4947      4948      4939     20000     20073
 -2     20074     19365     19297     20005     20079     19371      5531      5533      5534      5504
 -1      2564    4    0    1
 -2       542       551       552       543      7293      7383      7393      7303      1137      1139
 -2      1140      1110     19301     20009     20083     19375     20011     20084     20085     19376
 -1      2565    4    0    1
 -2      7293      7383      7393      7303      7294      7384      7394      7304     20011     20084
 -2     20085     19376     19308     20016     20090     19382     20018     20091     20092     19383
 -1      2566    4    0    1
 -2      7294      7384      7394      7304      7295      7385      7395      7305     20018     20091
 -2     20092     19383     19315     20023     20097     19389     20025     20098     20099     19390
 -1      2567    4    0    1
 -2      7295      7385      7395      7305      7296      7386      7396      7306     20025     20098
 -2     20099     19390     19322     20030     20104     19396     20032     20105     20106     19397
 -1      2568    4    0    1
 -2      7296      7386      7396      7306      7297      7387      7397      7307     20032     20105
 -2     20106     19397     19329     20037     20111     19403     20039     20112     20113     19404
 -1      2569    4    0    1
 -2      7297      7387      7397      7307      7298      7388      7398      7308     20039     20112
 -2     20113     19404     19336     20044     20118     19410     20046     20119     20120     19411
 -1      2570    4    0    1
 -2      7298      7388      7398      7308      7299      7389      7399      7309     20046     20119
 -2     20120     19411     19343     20051     20125     19417     20053     20126     20127     19418
 -1      2571    4    0    1
 -2      7299      7389      7399      7309      7300      7390      7400      7310     20053     20126
 -2     20127     19418     19350     20058     20132     19424     20060     20133     20134     19425
 -1      2572    4    0    1
 -2      7300      7390      7400      7310      7301      7391      7401      7311     20060     20133
 -2     20134     19425     19357     20065     20139     19431     20067     20140     20141     19432
 -1      2573    4    0    1
 -2      7301      7391      7401      7311      7302      7392      7402      7312     20067     20140
 -2     20141     19432     19364     20072     20146     19438     20074     20147     20148     19439
 -1      2574    4    0    1
 -2      7302      7392      7402      7312      4939      4948      4949      4940     20074     20147
 -2     20148     19439     19371     20079     20153     19445      5534      5536      5537      5507
 -1      2575    4    0    1
 -2       543       552       553       544      7303      7393      7403      7313      1140      1142
 -2      1143      1113     19375     20083     20157     19449     20085     20158     20159     19450
 -1      2576    4    0    1
 -2      7303      7393      7403      7313      7304      7394      7404      7314     20085     20158
 -2     20159     19450     19382     20090     20164     19456     20092     20165     20166     19457
 -1      2577    4    0    1
 -2      7304      7394      7404      7314      7305      7395      7405      7315     20092     20165
 -2     20166     19457     19389     20097     20171     19463     20099     20172     20173     19464
 -1      2578    4    0    1
 -2      7305      7395      7405      7315      7306      7396      7406      7316     20099     20172
 -2     20173     19464     19396     20104     20178     19470     20106     20179     20180     19471
 -1      2579    4    0    1
 -2      7306      7396      7406      7316      7307      7397      7407      7317     20106     20179
 -2     20180     19471     19403     20111     20185     19477     20113     20186     20187     19478
 -1      2580    4    0    1
 -2      7307      7397      7407      7317      7308      7398      7408      7318     20113     20186
 -2     20187     19478     19410     20118     20192     19484     20120     20193     20194     19485
 -1      2581    4    0    1
 -2      7308      7398      7408      7318      7309      7399      7409      7319     20120     20193
 -2     20194     19485     19417     20125     20199     19491     20127     20200     20201     19492
 -1      2582    4    0    1
 -2      7309      7399      7409      7319      7310      7400      7410      7320     20127     20200
 -2     20201     19492     19424     20132     20206     19498     20134     20207     20208     19499
 -1      2583    4    0    1
 -2      7310      7400      7410      7320      7311      7401      7411      7321     20134     20207
 -2     20208     19499     19431     20139     20213     19505     20141     20214     20215     19506
 -1      2584    4    0    1
 -2      7311      7401      7411      7321      7312      7402      7412      7322     20141     20214
 -2     20215     19506     19438     20146     20220     19512     20148     20221     20222     19513
 -1      2585    4    0    1
 -2      7312      7402      7412      7322      4940      4949      4950      4941     20148     20221
 -2     20222     19513     19445     20153     20227     19519      5537      5539      5540      5510
 -1      2586    4    0    1
 -2       544       553       554       545      7313      7403      7413      7323      1143      1145
 -2      1146      1116     19449     20157     20231     19523     20159     20232     20233     19524
 -1      2587    4    0    1
 -2      7313      7403      7413      7323      7314      7404      7414      7324     20159     20232
 -2     20233     19524     19456     20164     20238     19530     20166     20239     20240     19531
 -1      2588    4    0    1
 -2      7314      7404      7414      7324      7315      7405      7415      7325     20166     20239
 -2     20240     19531     19463     20171     20245     19537     20173     20246     20247     19538
 -1      2589    4    0    1
 -2      7315      7405      7415      7325      7316      7406      7416      7326     20173     20246
 -2     20247     19538     19470     20178     20252     19544     20180     20253     20254     19545
 -1      2590    4    0    1
 -2      7316      7406      7416      7326      7317      7407      7417      7327     20180     20253
 -2     20254     19545     19477     20185     20259     19551     20187     20260     20261     19552
 -1      2591    4    0    1
 -2      7317      7407      7417      7327      7318      7408      7418      7328     20187     20260
 -2     20261     19552     19484     20192     20266     19558     20194     20267     20268     19559
 -1      2592    4    0    1
 -2      7318      7408      7418      7328      7319      7409      7419      7329     20194     20267
 -2     20268     19559     19491     20199     20273     19565     20201     20274     20275     19566
 -1      2593    4    0    1
 -2      7319      7409      7419      7329      7320      7410      7420      7330     20201     20274
 -2     20275     19566     19498     20206     20280     19572     20208     20281     20282     19573
 -1      2594    4    0    1
 -2      7320      7410      7420      7330      7321      7411      7421      7331     20208     20281
 -2     20282     19573     19505     20213     20287     19579     20215     20288     20289     19580
 -1      2595    4    0    1
 -2      7321      7411      7421      7331      7322      7412      7422      7332     20215     20288
 -2     20289     19580     19512     20220     20294     19586     20222     20295     20296     19587
 -1      2596    4    0    1
 -2      7322      7412      7422      7332      4941      4950      4951      4942     20222     20295
 -2     20296     19587     19519     20227     20301     19593      5540      5542      5543      5513
 -1      2597    4    0    1
 -2       545       554       555       546      7323      7413      7423      7333      1146      1148
 -2      1149      1119     19523     20231     20305     19597     20233     20306     20307     19598
 -1      2598    4    0    1
 -2      7323      7413      7423      7333      7324      7414      7424      7334     20233     20306
 -2     20307     19598     19530     20238     20312     19604     20240     20313     20314     19605
 -1      2599    4    0    1
 -2      7324      7414      7424      7334      7325      7415      7425      7335     20240     20313
 -2     20314     19605     19537     20245     20319     19611     20247     20320     20321     19612
 -1      2600    4    0    1
 -2      7325      7415      7425      7335      7326      7416      7426      7336     20247     20320
 -2     20321     19612     19544     20252     20326     19618     20254     20327     20328     19619
 -1      2601    4    0    1
 -2      7326      7416      7426      7336      7327      7417      7427      7337     20254     20327
 -2     20328     19619     19551     20259     20333     19625     20261     20334     20335     19626
 -1      2602    4    0    1
 -2      7327      7417      7427      7337      7328      7418      7428      7338     20261     20334
 -2     20335     19626     19558     20266     20340     19632     20268     20341     20342     19633
 -1      2603    4    0    1
 -2      7328      7418      7428      7338      7329      7419      7429      7339     20268     20341
 -2     20342     19633     19565     20273     20347     19639     20275     20348     20349     19640
 -1      2604    4    0    1
 -2      7329      7419      7429      7339      7330      7420      7430      7340     20275     20348
 -2     20349     19640     19572     20280     20354     19646     20282     20355     20356     19647
 -1      2605    4    0    1
 -2      7330      7420      7430      7340      7331      7421      7431      7341     20282     20355
 -2     20356     19647     19579     20287     20361     19653     20289     20362     20363     19654
 -1      2606    4    0    1
 -2      7331      7421      7431      7341      7332      7422      7432      7342     20289     20362
 -2     20363     19654     19586     20294     20368     19660     20296     20369     20370     19661
 -1      2607    4    0    1
 -2      7332      7422      7432      7342      4942      4951      4952      4943     20296     20369
 -2     20370     19661     19593     20301     20375     19667      5543      5545      5546      5516
 -1      2608    4    0    1
 -2       546       555       556       547      7333      7423      7433      7343      1149      1151
 -2      1152      1122     19597     20305     20379     19671     20307     20380     20381     19672
 -1      2609    4    0    1
 -2      7333      7423      7433      7343      7334      7424      7434      7344     20307     20380
 -2     20381     19672     19604     20312     20386     19678     20314     20387     20388     19679
 -1      2610    4    0    1
 -2      7334      7424      7434      7344      7335      7425      7435      7345     20314     20387
 -2     20388     19679     19611     20319     20393     19685     20321     20394     20395     19686
 -1      2611    4    0    1
 -2      7335      7425      7435      7345      7336      7426      7436      7346     20321     20394
 -2     20395     19686     19618     20326     20400     19692     20328     20401     20402     19693
 -1      2612    4    0    1
 -2      7336      7426      7436      7346      7337      7427      7437      7347     20328     20401
 -2     20402     19693     19625     20333     20407     19699     20335     20408     20409     19700
 -1      2613    4    0    1
 -2      7337      7427      7437      7347      7338      7428      7438      7348     20335     20408
 -2     20409     19700     19632     20340     20414     19706     20342     20415     20416     19707
 -1      2614    4    0    1
 -2      7338      7428      7438      7348      7339      7429      7439      7349     20342     20415
 -2     20416     19707     19639     20347     20421     19713     20349     20422     20423     19714
 -1      2615    4    0    1
 -2      7339      7429      7439      7349      7340      7430      7440      7350     20349     20422
 -2     20423     19714     19646     20354     20428     19720     20356     20429     20430     19721
 -1      2616    4    0    1
 -2      7340      7430      7440      7350      7341      7431      7441      7351     20356     20429
 -2     20430     19721     19653     20361     20435     19727     20363     20436     20437     19728
 -1      2617    4    0    1
 -2      7341      7431      7441      7351      7342      7432      7442      7352     20363     20436
 -2     20437     19728     19660     20368     20442     19734     20370     20443     20444     19735
 -1      2618    4    0    1
 -2      7342      7432      7442      7352      4943      4952      4953      4944     20370     20443
 -2     20444     19735     19667     20375     20449     19741      5546      5548      5549      5519
 -1      2619    4    0    1
 -2       547       556       557       548      7343      7433      7443      7353      1152      1154
 -2      1155      1125     19671     20379     20453     19745     20381     20454     20455     19746
 -1      2620    4    0    1
 -2      7343      7433      7443      7353      7344      7434      7444      7354     20381     20454
 -2     20455     19746     19678     20386     20460     19752     20388     20461     20462     19753
 -1      2621    4    0    1
 -2      7344      7434      7444      7354      7345      7435      7445      7355     20388     20461
 -2     20462     19753     19685     20393     20467     19759     20395     20468     20469     19760
 -1      2622    4    0    1
 -2      7345      7435      7445      7355      7346      7436      7446      7356     20395     20468
 -2     20469     19760     19692     20400     20474     19766     20402     20475     20476     19767
 -1      2623    4    0    1
 -2      7346      7436      7446      7356      7347      7437      7447      7357     20402     20475
 -2     20476     19767     19699     20407     20481     19773     20409     20482     20483     19774
 -1      2624    4    0    1
 -2      7347      7437      7447      7357      7348      7438      7448      7358     20409     20482
 -2     20483     19774     19706     20414     20488     19780     20416     20489     20490     19781
 -1      2625    4    0    1
 -2      7348      7438      7448      7358      7349      7439      7449      7359     20416     20489
 -2     20490     19781     19713     20421     20495     19787     20423     20496     20497     19788
 -1      2626    4    0    1
 -2      7349      7439      7449      7359      7350      7440      7450      7360     20423     20496
 -2     20497     19788     19720     20428     20502     19794     20430     20503     20504     19795
 -1      2627    4    0    1
 -2      7350      7440      7450      7360      7351      7441      7451      7361     20430     20503
 -2     20504     19795     19727     20435     20509     19801     20437     20510     20511     19802
 -1      2628    4    0    1
 -2      7351      7441      7451      7361      7352      7442      7452      7362     20437     20510
 -2     20511     19802     19734     20442     20516     19808     20444     20517     20518     19809
 -1      2629    4    0    1
 -2      7352      7442      7452      7362      4944      4953      4954      4945     20444     20517
 -2     20518     19809     19741     20449     20523     19815      5549      5551      5552      5522
 -1      2630    4    0    1
 -2       548       557        99       100      7353      7443      3284      3294      1155      1157
 -2       129      1128     19745     20453      3838      3870     20455     20527      3871     19819
 -1      2631    4    0    1
 -2      7353      7443      3284      3294      7354      7444      3285      3295     20455     20527
 -2      3871     19819     19752     20460      3841      3873     20462     20531      3874     19823
 -1      2632    4    0    1
 -2      7354      7444      3285      3295      7355      7445      3286      3296     20462     20531
 -2      3874     19823     19759     20467      3844      3876     20469     20535      3877     19827
 -1      2633    4    0    1
 -2      7355      7445      3286      3296      7356      7446      3287      3297     20469     20535
 -2      3877     19827     19766     20474      3847      3879     20476     20539      3880     19831
 -1      2634    4    0    1
 -2      7356      7446      3287      3297      7357      7447      3288      3298     20476     20539
 -2      3880     19831     19773     20481      3850      3882     20483     20543      3883     19835
 -1      2635    4    0    1
 -2      7357      7447      3288      3298      7358      7448      3289      3299     20483     20543
 -2      3883     19835     19780     20488      3853      3885     20490     20547      3886     19839
 -1      2636    4    0    1
 -2      7358      7448      3289      3299      7359      7449      3290      3300     20490     20547
 -2      3886     19839     19787     20495      3856      3888     20497     20551      3889     19843
 -1      2637    4    0    1
 -2      7359      7449      3290      3300      7360      7450      3291      3301     20497     20551
 -2      3889     19843     19794     20502      3859      3891     20504     20555      3892     19847
 -1      2638    4    0    1
 -2      7360      7450      3291      3301      7361      7451      3292      3302     20504     20555
 -2      3892     19847     19801     20509      3862      3894     20511     20559      3895     19851
 -1      2639    4    0    1
 -2      7361      7451      3292      3302      7362      7452      3293      3303     20511     20559
 -2      3895     19851     19808     20516      3865      3897     20518     20563      3898     19855
 -1      2640    4    0    1
 -2      7362      7452      3293      3303      4945      4954       255       256     20518     20563
 -2      3898     19855     19815     20523      3868      3900      5552      5554       285      5525
 -1      2641    4    0    1
 -2        25        26       558       549      1686      1696      7453      7363        55      1159
 -2      1160      1130      2328      2360     20569     19861      2361     20570     20571     19862
 -1      2642    4    0    1
 -2      1686      1696      7453      7363      1687      1697      7454      7364      2361     20570
 -2     20571     19862      2331      2363     20576     19868      2364     20577     20578     19869
 -1      2643    4    0    1
 -2      1687      1697      7454      7364      1688      1698      7455      7365      2364     20577
 -2     20578     19869      2334      2366     20583     19875      2367     20584     20585     19876
 -1      2644    4    0    1
 -2      1688      1698      7455      7365      1689      1699      7456      7366      2367     20584
 -2     20585     19876      2337      2369     20590     19882      2370     20591     20592     19883
 -1      2645    4    0    1
 -2      1689      1699      7456      7366      1690      1700      7457      7367      2370     20591
 -2     20592     19883      2340      2372     20597     19889      2373     20598     20599     19890
 -1      2646    4    0    1
 -2      1690      1700      7457      7367      1691      1701      7458      7368      2373     20598
 -2     20599     19890      2343      2375     20604     19896      2376     20605     20606     19897
 -1      2647    4    0    1
 -2      1691      1701      7458      7368      1692      1702      7459      7369      2376     20605
 -2     20606     19897      2346      2378     20611     19903      2379     20612     20613     19904
 -1      2648    4    0    1
 -2      1692      1702      7459      7369      1693      1703      7460      7370      2379     20612
 -2     20613     19904      2349      2381     20618     19910      2382     20619     20620     19911
 -1      2649    4    0    1
 -2      1693      1703      7460      7370      1694      1704      7461      7371      2382     20619
 -2     20620     19911      2352      2384     20625     19917      2385     20626     20627     19918
 -1      2650    4    0    1
 -2      1694      1704      7461      7371      1695      1705      7462      7372      2385     20626
 -2     20627     19918      2355      2387     20632     19924      2388     20633     20634     19925
 -1      2651    4    0    1
 -2      1695      1705      7462      7372       181       182      4955      4946      2388     20633
 -2     20634     19925      2358      2390     20639     19931       211      5556      5557      5527
 -1      2652    4    0    1
 -2       549       558       559       550      7363      7453      7463      7373      1160      1162
 -2      1163      1133     19861     20569     20643     19935     20571     20644     20645     19936
 -1      2653    4    0    1
 -2      7363      7453      7463      7373      7364      7454      7464      7374     20571     20644
 -2     20645     19936     19868     20576     20650     19942     20578     20651     20652     19943
 -1      2654    4    0    1
 -2      7364      7454      7464      7374      7365      7455      7465      7375     20578     20651
 -2     20652     19943     19875     20583     20657     19949     20585     20658     20659     19950
 -1      2655    4    0    1
 -2      7365      7455      7465      7375      7366      7456      7466      7376     20585     20658
 -2     20659     19950     19882     20590     20664     19956     20592     20665     20666     19957
 -1      2656    4    0    1
 -2      7366      7456      7466      7376      7367      7457      7467      7377     20592     20665
 -2     20666     19957     19889     20597     20671     19963     20599     20672     20673     19964
 -1      2657    4    0    1
 -2      7367      7457      7467      7377      7368      7458      7468      7378     20599     20672
 -2     20673     19964     19896     20604     20678     19970     20606     20679     20680     19971
 -1      2658    4    0    1
 -2      7368      7458      7468      7378      7369      7459      7469      7379     20606     20679
 -2     20680     19971     19903     20611     20685     19977     20613     20686     20687     19978
 -1      2659    4    0    1
 -2      7369      7459      7469      7379      7370      7460      7470      7380     20613     20686
 -2     20687     19978     19910     20618     20692     19984     20620     20693     20694     19985
 -1      2660    4    0    1
 -2      7370      7460      7470      7380      7371      7461      7471      7381     20620     20693
 -2     20694     19985     19917     20625     20699     19991     20627     20700     20701     19992
 -1      2661    4    0    1
 -2      7371      7461      7471      7381      7372      7462      7472      7382     20627     20700
 -2     20701     19992     19924     20632     20706     19998     20634     20707     20708     19999
 -1      2662    4    0    1
 -2      7372      7462      7472      7382      4946      4955      4956      4947     20634     20707
 -2     20708     19999     19931     20639     20713     20005      5557      5559      5560      5530
 -1      2663    4    0    1
 -2       550       559       560       551      7373      7463      7473      7383      1163      1165
 -2      1166      1136     19935     20643     20717     20009     20645     20718     20719     20010
 -1      2664    4    0    1
 -2      7373      7463      7473      7383      7374      7464      7474      7384     20645     20718
 -2     20719     20010     19942     20650     20724     20016     20652     20725     20726     20017
 -1      2665    4    0    1
 -2      7374      7464      7474      7384      7375      7465      7475      7385     20652     20725
 -2     20726     20017     19949     20657     20731     20023     20659     20732     20733     20024
 -1      2666    4    0    1
 -2      7375      7465      7475      7385      7376      7466      7476      7386     20659     20732
 -2     20733     20024     19956     20664     20738     20030     20666     20739     20740     20031
 -1      2667    4    0    1
 -2      7376      7466      7476      7386      7377      7467      7477      7387     20666     20739
 -2     20740     20031     19963     20671     20745     20037     20673     20746     20747     20038
 -1      2668    4    0    1
 -2      7377      7467      7477      7387      7378      7468      7478      7388     20673     20746
 -2     20747     20038     19970     20678     20752     20044     20680     20753     20754     20045
 -1      2669    4    0    1
 -2      7378      7468      7478      7388      7379      7469      7479      7389     20680     20753
 -2     20754     20045     19977     20685     20759     20051     20687     20760     20761     20052
 -1      2670    4    0    1
 -2      7379      7469      7479      7389      7380      7470      7480      7390     20687     20760
 -2     20761     20052     19984     20692     20766     20058     20694     20767     20768     20059
 -1      2671    4    0    1
 -2      7380      7470      7480      7390      7381      7471      7481      7391     20694     20767
 -2     20768     20059     19991     20699     20773     20065     20701     20774     20775     20066
 -1      2672    4    0    1
 -2      7381      7471      7481      7391      7382      7472      7482      7392     20701     20774
 -2     20775     20066     19998     20706     20780     20072     20708     20781     20782     20073
 -1      2673    4    0    1
 -2      7382      7472      7482      7392      4947      4956      4957      4948     20708     20781
 -2     20782     20073     20005     20713     20787     20079      5560      5562      5563      5533
 -1      2674    4    0    1
 -2       551       560       561       552      7383      7473      7483      7393      1166      1168
 -2      1169      1139     20009     20717     20791     20083     20719     20792     20793     20084
 -1      2675    4    0    1
 -2      7383      7473      7483      7393      7384      7474      7484      7394     20719     20792
 -2     20793     20084     20016     20724     20798     20090     20726     20799     20800     20091
 -1      2676    4    0    1
 -2      7384      7474      7484      7394      7385      7475      7485      7395     20726     20799
 -2     20800     20091     20023     20731     20805     20097     20733     20806     20807     20098
 -1      2677    4    0    1
 -2      7385      7475      7485      7395      7386      7476      7486      7396     20733     20806
 -2     20807     20098     20030     20738     20812     20104     20740     20813     20814     20105
 -1      2678    4    0    1
 -2      7386      7476      7486      7396      7387      7477      7487      7397     20740     20813
 -2     20814     20105     20037     20745     20819     20111     20747     20820     20821     20112
 -1      2679    4    0    1
 -2      7387      7477      7487      7397      7388      7478      7488      7398     20747     20820
 -2     20821     20112     20044     20752     20826     20118     20754     20827     20828     20119
 -1      2680    4    0    1
 -2      7388      7478      7488      7398      7389      7479      7489      7399     20754     20827
 -2     20828     20119     20051     20759     20833     20125     20761     20834     20835     20126
 -1      2681    4    0    1
 -2      7389      7479      7489      7399      7390      7480      7490      7400     20761     20834
 -2     20835     20126     20058     20766     20840     20132     20768     20841     20842     20133
 -1      2682    4    0    1
 -2      7390      7480      7490      7400      7391      7481      7491      7401     20768     20841
 -2     20842     20133     20065     20773     20847     20139     20775     20848     20849     20140
 -1      2683    4    0    1
 -2      7391      7481      7491      7401      7392      7482      7492      7402     20775     20848
 -2     20849     20140     20072     20780     20854     20146     20782     20855     20856     20147
 -1      2684    4    0    1
 -2      7392      7482      7492      7402      4948      4957      4958      4949     20782     20855
 -2     20856     20147     20079     20787     20861     20153      5563      5565      5566      5536
 -1      2685    4    0    1
 -2       552       561       562       553      7393      7483      7493      7403      1169      1171
 -2      1172      1142     20083     20791     20865     20157     20793     20866     20867     20158
 -1      2686    4    0    1
 -2      7393      7483      7493      7403      7394      7484      7494      7404     20793     20866
 -2     20867     20158     20090     20798     20872     20164     20800     20873     20874     20165
 -1      2687    4    0    1
 -2      7394      7484      7494      7404      7395      7485      7495      7405     20800     20873
 -2     20874     20165     20097     20805     20879     20171     20807     20880     20881     20172
 -1      2688    4    0    1
 -2      7395      7485      7495      7405      7396      7486      7496      7406     20807     20880
 -2     20881     20172     20104     20812     20886     20178     20814     20887     20888     20179
 -1      2689    4    0    1
 -2      7396      7486      7496      7406      7397      7487      7497      7407     20814     20887
 -2     20888     20179     20111     20819     20893     20185     20821     20894     20895     20186
 -1      2690    4    0    1
 -2      7397      7487      7497      7407      7398      7488      7498      7408     20821     20894
 -2     20895     20186     20118     20826     20900     20192     20828     20901     20902     20193
 -1      2691    4    0    1
 -2      7398      7488      7498      7408      7399      7489      7499      7409     20828     20901
 -2     20902     20193     20125     20833     20907     20199     20835     20908     20909     20200
 -1      2692    4    0    1
 -2      7399      7489      7499      7409      7400      7490      7500      7410     20835     20908
 -2     20909     20200     20132     20840     20914     20206     20842     20915     20916     20207
 -1      2693    4    0    1
 -2      7400      7490      7500      7410      7401      7491      7501      7411     20842     20915
 -2     20916     20207     20139     20847     20921     20213     20849     20922     20923     20214
 -1      2694    4    0    1
 -2      7401      7491      7501      7411      7402      7492      7502      7412     20849     20922
 -2     20923     20214     20146     20854     20928     20220     20856     20929     20930     20221
 -1      2695    4    0    1
 -2      7402      7492      7502      7412      4949      4958      4959      4950     20856     20929
 -2     20930     20221     20153     20861     20935     20227      5566      5568      5569      5539
 -1      2696    4    0    1
 -2       553       562       563       554      7403      7493      7503      7413      1172      1174
 -2      1175      1145     20157     20865     20939     20231     20867     20940     20941     20232
 -1      2697    4    0    1
 -2      7403      7493      7503      7413      7404      7494      7504      7414     20867     20940
 -2     20941     20232     20164     20872     20946     20238     20874     20947     20948     20239
 -1      2698    4    0    1
 -2      7404      7494      7504      7414      7405      7495      7505      7415     20874     20947
 -2     20948     20239     20171     20879     20953     20245     20881     20954     20955     20246
 -1      2699    4    0    1
 -2      7405      7495      7505      7415      7406      7496      7506      7416     20881     20954
 -2     20955     20246     20178     20886     20960     20252     20888     20961     20962     20253
 -1      2700    4    0    1
 -2      7406      7496      7506      7416      7407      7497      7507      7417     20888     20961
 -2     20962     20253     20185     20893     20967     20259     20895     20968     20969     20260
 -1      2701    4    0    1
 -2      7407      7497      7507      7417      7408      7498      7508      7418     20895     20968
 -2     20969     20260     20192     20900     20974     20266     20902     20975     20976     20267
 -1      2702    4    0    1
 -2      7408      7498      7508      7418      7409      7499      7509      7419     20902     20975
 -2     20976     20267     20199     20907     20981     20273     20909     20982     20983     20274
 -1      2703    4    0    1
 -2      7409      7499      7509      7419      7410      7500      7510      7420     20909     20982
 -2     20983     20274     20206     20914     20988     20280     20916     20989     20990     20281
 -1      2704    4    0    1
 -2      7410      7500      7510      7420      7411      7501      7511      7421     20916     20989
 -2     20990     20281     20213     20921     20995     20287     20923     20996     20997     20288
 -1      2705    4    0    1
 -2      7411      7501      7511      7421      7412      7502      7512      7422     20923     20996
 -2     20997     20288     20220     20928     21002     20294     20930     21003     21004     20295
 -1      2706    4    0    1
 -2      7412      7502      7512      7422      4950      4959      4960      4951     20930     21003
 -2     21004     20295     20227     20935     21009     20301      5569      5571      5572      5542
 -1      2707    4    0    1
 -2       554       563       564       555      7413      7503      7513      7423      1175      1177
 -2      1178      1148     20231     20939     21013     20305     20941     21014     21015     20306
 -1      2708    4    0    1
 -2      7413      7503      7513      7423      7414      7504      7514      7424     20941     21014
 -2     21015     20306     20238     20946     21020     20312     20948     21021     21022     20313
 -1      2709    4    0    1
 -2      7414      7504      7514      7424      7415      7505      7515      7425     20948     21021
 -2     21022     20313     20245     20953     21027     20319     20955     21028     21029     20320
 -1      2710    4    0    1
 -2      7415      7505      7515      7425      7416      7506      7516      7426     20955     21028
 -2     21029     20320     20252     20960     21034     20326     20962     21035     21036     20327
 -1      2711    4    0    1
 -2      7416      7506      7516      7426      7417      7507      7517      7427     20962     21035
 -2     21036     20327     20259     20967     21041     20333     20969     21042     21043     20334
 -1      2712    4    0    1
 -2      7417      7507      7517      7427      7418      7508      7518      7428     20969     21042
 -2     21043     20334     20266     20974     21048     20340     20976     21049     21050     20341
 -1      2713    4    0    1
 -2      7418      7508      7518      7428      7419      7509      7519      7429     20976     21049
 -2     21050     20341     20273     20981     21055     20347     20983     21056     21057     20348
 -1      2714    4    0    1
 -2      7419      7509      7519      7429      7420      7510      7520      7430     20983     21056
 -2     21057     20348     20280     20988     21062     20354     20990     21063     21064     20355
 -1      2715    4    0    1
 -2      7420      7510      7520      7430      7421      7511      7521      7431     20990     21063
 -2     21064     20355     20287     20995     21069     20361     20997     21070     21071     20362
 -1      2716    4    0    1
 -2      7421      7511      7521      7431      7422      7512      7522      7432     20997     21070
 -2     21071     20362     20294     21002     21076     20368     21004     21077     21078     20369
 -1      2717    4    0    1
 -2      7422      7512      7522      7432      4951      4960      4961      4952     21004     21077
 -2     21078     20369     20301     21009     21083     20375      5572      5574      5575      5545
 -1      2718    4    0    1
 -2       555       564       565       556      7423      7513      7523      7433      1178      1180
 -2      1181      1151     20305     21013     21087     20379     21015     21088     21089     20380
 -1      2719    4    0    1
 -2      7423      7513      7523      7433      7424      7514      7524      7434     21015     21088
 -2     21089     20380     20312     21020     21094     20386     21022     21095     21096     20387
 -1      2720    4    0    1
 -2      7424      7514      7524      7434      7425      7515      7525      7435     21022     21095
 -2     21096     20387     20319     21027     21101     20393     21029     21102     21103     20394
 -1      2721    4    0    1
 -2      7425      7515      7525      7435      7426      7516      7526      7436     21029     21102
 -2     21103     20394     20326     21034     21108     20400     21036     21109     21110     20401
 -1      2722    4    0    1
 -2      7426      7516      7526      7436      7427      7517      7527      7437     21036     21109
 -2     21110     20401     20333     21041     21115     20407     21043     21116     21117     20408
 -1      2723    4    0    1
 -2      7427      7517      7527      7437      7428      7518      7528      7438     21043     21116
 -2     21117     20408     20340     21048     21122     20414     21050     21123     21124     20415
 -1      2724    4    0    1
 -2      7428      7518      7528      7438      7429      7519      7529      7439     21050     21123
 -2     21124     20415     20347     21055     21129     20421     21057     21130     21131     20422
 -1      2725    4    0    1
 -2      7429      7519      7529      7439      7430      7520      7530      7440     21057     21130
 -2     21131     20422     20354     21062     21136     20428     21064     21137     21138     20429
 -1      2726    4    0    1
 -2      7430      7520      7530      7440      7431      7521      7531      7441     21064     21137
 -2     21138     20429     20361     21069     21143     20435     21071     21144     21145     20436
 -1      2727    4    0    1
 -2      7431      7521      7531      7441      7432      7522      7532      7442     21071     21144
 -2     21145     20436     20368     21076     21150     20442     21078     21151     21152     20443
 -1      2728    4    0    1
 -2      7432      7522      7532      7442      4952      4961      4962      4953     21078     21151
 -2     21152     20443     20375     21083     21157     20449      5575      5577      5578      5548
 -1      2729    4    0    1
 -2       556       565       566       557      7433      7523      7533      7443      1181      1183
 -2      1184      1154     20379     21087     21161     20453     21089     21162     21163     20454
 -1      2730    4    0    1
 -2      7433      7523      7533      7443      7434      7524      7534      7444     21089     21162
 -2     21163     20454     20386     21094     21168     20460     21096     21169     21170     20461
 -1      2731    4    0    1
 -2      7434      7524      7534      7444      7435      7525      7535      7445     21096     21169
 -2     21170     20461     20393     21101     21175     20467     21103     21176     21177     20468
 -1      2732    4    0    1
 -2      7435      7525      7535      7445      7436      7526      7536      7446     21103     21176
 -2     21177     20468     20400     21108     21182     20474     21110     21183     21184     20475
 -1      2733    4    0    1
 -2      7436      7526      7536      7446      7437      7527      7537      7447     21110     21183
 -2     21184     20475     20407     21115     21189     20481     21117     21190     21191     20482
 -1      2734    4    0    1
 -2      7437      7527      7537      7447      7438      7528      7538      7448     21117     21190
 -2     21191     20482     20414     21122     21196     20488     21124     21197     21198     20489
 -1      2735    4    0    1
 -2      7438      7528      7538      7448      7439      7529      7539      7449     21124     21197
 -2     21198     20489     20421     21129     21203     20495     21131     21204     21205     20496
 -1      2736    4    0    1
 -2      7439      7529      7539      7449      7440      7530      7540      7450     21131     21204
 -2     21205     20496     20428     21136     21210     20502     21138     21211     21212     20503
 -1      2737    4    0    1
 -2      7440      7530      7540      7450      7441      7531      7541      7451     21138     21211
 -2     21212     20503     20435     21143     21217     20509     21145     21218     21219     20510
 -1      2738    4    0    1
 -2      7441      7531      7541      7451      7442      7532      7542      7452     21145     21218
 -2     21219     20510     20442     21150     21224     20516     21152     21225     21226     20517
 -1      2739    4    0    1
 -2      7442      7532      7542      7452      4953      4962      4963      4954     21152     21225
 -2     21226     20517     20449     21157     21231     20523      5578      5580      5581      5551
 -1      2740    4    0    1
 -2       557       566        98        99      7443      7533      3274      3284      1184      1186
 -2       128      1157     20453     21161      3806      3838     21163     21235      3839     20527
 -1      2741    4    0    1
 -2      7443      7533      3274      3284      7444      7534      3275      3285     21163     21235
 -2      3839     20527     20460     21168      3809      3841     21170     21239      3842     20531
 -1      2742    4    0    1
 -2      7444      7534      3275      3285      7445      7535      3276      3286     21170     21239
 -2      3842     20531     20467     21175      3812      3844     21177     21243      3845     20535
 -1      2743    4    0    1
 -2      7445      7535      3276      3286      7446      7536      3277      3287     21177     21243
 -2      3845     20535     20474     21182      3815      3847     21184     21247      3848     20539
 -1      2744    4    0    1
 -2      7446      7536      3277      3287      7447      7537      3278      3288     21184     21247
 -2      3848     20539     20481     21189      3818      3850     21191     21251      3851     20543
 -1      2745    4    0    1
 -2      7447      7537      3278      3288      7448      7538      3279      3289     21191     21251
 -2      3851     20543     20488     21196      3821      3853     21198     21255      3854     20547
 -1      2746    4    0    1
 -2      7448      7538      3279      3289      7449      7539      3280      3290     21198     21255
 -2      3854     20547     20495     21203      3824      3856     21205     21259      3857     20551
 -1      2747    4    0    1
 -2      7449      7539      3280      3290      7450      7540      3281      3291     21205     21259
 -2      3857     20551     20502     21210      3827      3859     21212     21263      3860     20555
 -1      2748    4    0    1
 -2      7450      7540      3281      3291      7451      7541      3282      3292     21212     21263
 -2      3860     20555     20509     21217      3830      3862     21219     21267      3863     20559
 -1      2749    4    0    1
 -2      7451      7541      3282      3292      7452      7542      3283      3293     21219     21267
 -2      3863     20559     20516     21224      3833      3865     21226     21271      3866     20563
 -1      2750    4    0    1
 -2      7452      7542      3283      3293      4954      4963       254       255     21226     21271
 -2      3866     20563     20523     21231      3836      3868      5581      5583       284      5554
 -1      2751    4    0    1
 -2        26        27       567       558      1696      1706      7543      7453        56      1188
 -2      1189      1159      2360      2392     21277     20569      2393     21278     21279     20570
 -1      2752    4    0    1
 -2      1696      1706      7543      7453      1697      1707      7544      7454      2393     21278
 -2     21279     20570      2363      2395     21284     20576      2396     21285     21286     20577
 -1      2753    4    0    1
 -2      1697      1707      7544      7454      1698      1708      7545      7455      2396     21285
 -2     21286     20577      2366      2398     21291     20583      2399     21292     21293     20584
 -1      2754    4    0    1
 -2      1698      1708      7545      7455      1699      1709      7546      7456      2399     21292
 -2     21293     20584      2369      2401     21298     20590      2402     21299     21300     20591
 -1      2755    4    0    1
 -2      1699      1709      7546      7456      1700      1710      7547      7457      2402     21299
 -2     21300     20591      2372      2404     21305     20597      2405     21306     21307     20598
 -1      2756    4    0    1
 -2      1700      1710      7547      7457      1701      1711      7548      7458      2405     21306
 -2     21307     20598      2375      2407     21312     20604      2408     21313     21314     20605
 -1      2757    4    0    1
 -2      1701      1711      7548      7458      1702      1712      7549      7459      2408     21313
 -2     21314     20605      2378      2410     21319     20611      2411     21320     21321     20612
 -1      2758    4    0    1
 -2      1702      1712      7549      7459      1703      1713      7550      7460      2411     21320
 -2     21321     20612      2381      2413     21326     20618      2414     21327     21328     20619
 -1      2759    4    0    1
 -2      1703      1713      7550      7460      1704      1714      7551      7461      2414     21327
 -2     21328     20619      2384      2416     21333     20625      2417     21334     21335     20626
 -1      2760    4    0    1
 -2      1704      1714      7551      7461      1705      1715      7552      7462      2417     21334
 -2     21335     20626      2387      2419     21340     20632      2420     21341     21342     20633
 -1      2761    4    0    1
 -2      1705      1715      7552      7462       182       183      4964      4955      2420     21341
 -2     21342     20633      2390      2422     21347     20639       212      5585      5586      5556
 -1      2762    4    0    1
 -2       558       567       568       559      7453      7543      7553      7463      1189      1191
 -2      1192      1162     20569     21277     21351     20643     21279     21352     21353     20644
 -1      2763    4    0    1
 -2      7453      7543      7553      7463      7454      7544      7554      7464     21279     21352
 -2     21353     20644     20576     21284     21358     20650     21286     21359     21360     20651
 -1      2764    4    0    1
 -2      7454      7544      7554      7464      7455      7545      7555      7465     21286     21359
 -2     21360     20651     20583     21291     21365     20657     21293     21366     21367     20658
 -1      2765    4    0    1
 -2      7455      7545      7555      7465      7456      7546      7556      7466     21293     21366
 -2     21367     20658     20590     21298     21372     20664     21300     21373     21374     20665
 -1      2766    4    0    1
 -2      7456      7546      7556      7466      7457      7547      7557      7467     21300     21373
 -2     21374     20665     20597     21305     21379     20671     21307     21380     21381     20672
 -1      2767    4    0    1
 -2      7457      7547      7557      7467      7458      7548      7558      7468     21307     21380
 -2     21381     20672     20604     21312     21386     20678     21314     21387     21388     20679
 -1      2768    4    0    1
 -2      7458      7548      7558      7468      7459      7549      7559      7469     21314     21387
 -2     21388     20679     20611     21319     21393     20685     21321     21394     21395     20686
 -1      2769    4    0    1
 -2      7459      7549      7559      7469      7460      7550      7560      7470     21321     21394
 -2     21395     20686     20618     21326     21400     20692     21328     21401     21402     20693
 -1      2770    4    0    1
 -2      7460      7550      7560      7470      7461      7551      7561      7471     21328     21401
 -2     21402     20693     20625     21333     21407     20699     21335     21408     21409     20700
 -1      2771    4    0    1
 -2      7461      7551      7561      7471      7462      7552      7562      7472     21335     21408
 -2     21409     20700     20632     21340     21414     20706     21342     21415     21416     20707
 -1      2772    4    0    1
 -2      7462      7552      7562      7472      4955      4964      4965      4956     21342     21415
 -2     21416     20707     20639     21347     21421     20713      5586      5588      5589      5559
 -1      2773    4    0    1
 -2       559       568       569       560      7463      7553      7563      7473      1192      1194
 -2      1195      1165     20643     21351     21425     20717     21353     21426     21427     20718
 -1      2774    4    0    1
 -2      7463      7553      7563      7473      7464      7554      7564      7474     21353     21426
 -2     21427     20718     20650     21358     21432     20724     21360     21433     21434     20725
 -1      2775    4    0    1
 -2      7464      7554      7564      7474      7465      7555      7565      7475     21360     21433
 -2     21434     20725     20657     21365     21439     20731     21367     21440     21441     20732
 -1      2776    4    0    1
 -2      7465      7555      7565      7475      7466      7556      7566      7476     21367     21440
 -2     21441     20732     20664     21372     21446     20738     21374     21447     21448     20739
 -1      2777    4    0    1
 -2      7466      7556      7566      7476      7467      7557      7567      7477     21374     21447
 -2     21448     20739     20671     21379     21453     20745     21381     21454     21455     20746
 -1      2778    4    0    1
 -2      7467      7557      7567      7477      7468      7558      7568      7478     21381     21454
 -2     21455     20746     20678     21386     21460     20752     21388     21461     21462     20753
 -1      2779    4    0    1
 -2      7468      7558      7568      7478      7469      7559      7569      7479     21388     21461
 -2     21462     20753     20685     21393     21467     20759     21395     21468     21469     20760
 -1      2780    4    0    1
 -2      7469      7559      7569      7479      7470      7560      7570      7480     21395     21468
 -2     21469     20760     20692     21400     21474     20766     21402     21475     21476     20767
 -1      2781    4    0    1
 -2      7470      7560      7570      7480      7471      7561      7571      7481     21402     21475
 -2     21476     20767     20699     21407     21481     20773     21409     21482     21483     20774
 -1      2782    4    0    1
 -2      7471      7561      7571      7481      7472      7562      7572      7482     21409     21482
 -2     21483     20774     20706     21414     21488     20780     21416     21489     21490     20781
 -1      2783    4    0    1
 -2      7472      7562      7572      7482      4956      4965      4966      4957     21416     21489
 -2     21490     20781     20713     21421     21495     20787      5589      5591      5592      5562
 -1      2784    4    0    1
 -2       560       569       570       561      7473      7563      7573      7483      1195      1197
 -2      1198      1168     20717     21425     21499     20791     21427     21500     21501     20792
 -1      2785    4    0    1
 -2      7473      7563      7573      7483      7474      7564      7574      7484     21427     21500
 -2     21501     20792     20724     21432     21506     20798     21434     21507     21508     20799
 -1      2786    4    0    1
 -2      7474      7564      7574      7484      7475      7565      7575      7485     21434     21507
 -2     21508     20799     20731     21439     21513     20805     21441     21514     21515     20806
 -1      2787    4    0    1
 -2      7475      7565      7575      7485      7476      7566      7576      7486     21441     21514
 -2     21515     20806     20738     21446     21520     20812     21448     21521     21522     20813
 -1      2788    4    0    1
 -2      7476      7566      7576      7486      7477      7567      7577      7487     21448     21521
 -2     21522     20813     20745     21453     21527     20819     21455     21528     21529     20820
 -1      2789    4    0    1
 -2      7477      7567      7577      7487      7478      7568      7578      7488     21455     21528
 -2     21529     20820     20752     21460     21534     20826     21462     21535     21536     20827
 -1      2790    4    0    1
 -2      7478      7568      7578      7488      7479      7569      7579      7489     21462     21535
 -2     21536     20827     20759     21467     21541     20833     21469     21542     21543     20834
 -1      2791    4    0    1
 -2      7479      7569      7579      7489      7480      7570      7580      7490     21469     21542
 -2     21543     20834     20766     21474     21548     20840     21476     21549     21550     20841
 -1      2792    4    0    1
 -2      7480      7570      7580      7490      7481      7571      7581      7491     21476     21549
 -2     21550     20841     20773     21481     21555     20847     21483     21556     21557     20848
 -1      2793    4    0    1
 -2      7481      7571      7581      7491      7482      7572      7582      7492     21483     21556
 -2     21557     20848     20780     21488     21562     20854     21490     21563     21564     20855
 -1      2794    4    0    1
 -2      7482      7572      7582      7492      4957      4966      4967      4958     21490     21563
 -2     21564     20855     20787     21495     21569     20861      5592      5594      5595      5565
 -1      2795    4    0    1
 -2       561       570       571       562      7483      7573      7583      7493      1198      1200
 -2      1201      1171     20791     21499     21573     20865     21501     21574     21575     20866
 -1      2796    4    0    1
 -2      7483      7573      7583      7493      7484      7574      7584      7494     21501     21574
 -2     21575     20866     20798     21506     21580     20872     21508     21581     21582     20873
 -1      2797    4    0    1
 -2      7484      7574      7584      7494      7485      7575      7585      7495     21508     21581
 -2     21582     20873     20805     21513     21587     20879     21515     21588     21589     20880
 -1      2798    4    0    1
 -2      7485      7575      7585      7495      7486      7576      7586      7496     21515     21588
 -2     21589     20880     20812     21520     21594     20886     21522     21595     21596     20887
 -1      2799    4    0    1
 -2      7486      7576      7586      7496      7487      7577      7587      7497     21522     21595
 -2     21596     20887     20819     21527     21601     20893     21529     21602     21603     20894
 -1      2800    4    0    1
 -2      7487      7577      7587      7497      7488      7578      7588      7498     21529     21602
 -2     21603     20894     20826     21534     21608     20900     21536     21609     21610     20901
 -1      2801    4    0    1
 -2      7488      7578      7588      7498      7489      7579      7589      7499     21536     21609
 -2     21610     20901     20833     21541     21615     20907     21543     21616     21617     20908
 -1      2802    4    0    1
 -2      7489      7579      7589      7499      7490      7580      7590      7500     21543     21616
 -2     21617     20908     20840     21548     21622     20914     21550     21623     21624     20915
 -1      2803    4    0    1
 -2      7490      7580      7590      7500      7491      7581      7591      7501     21550     21623
 -2     21624     20915     20847     21555     21629     20921     21557     21630     21631     20922
 -1      2804    4    0    1
 -2      7491      7581      7591      7501      7492      7582      7592      7502     21557     21630
 -2     21631     20922     20854     21562     21636     20928     21564     21637     21638     20929
 -1      2805    4    0    1
 -2      7492      7582      7592      7502      4958      4967      4968      4959     21564     21637
 -2     21638     20929     20861     21569     21643     20935      5595      5597      5598      5568
 -1      2806    4    0    1
 -2       562       571       572       563      7493      7583      7593      7503      1201      1203
 -2      1204      1174     20865     21573     21647     20939     21575     21648     21649     20940
 -1      2807    4    0    1
 -2      7493      7583      7593      7503      7494      7584      7594      7504     21575     21648
 -2     21649     20940     20872     21580     21654     20946     21582     21655     21656     20947
 -1      2808    4    0    1
 -2      7494      7584      7594      7504      7495      7585      7595      7505     21582     21655
 -2     21656     20947     20879     21587     21661     20953     21589     21662     21663     20954
 -1      2809    4    0    1
 -2      7495      7585      7595      7505      7496      7586      7596      7506     21589     21662
 -2     21663     20954     20886     21594     21668     20960     21596     21669     21670     20961
 -1      2810    4    0    1
 -2      7496      7586      7596      7506      7497      7587      7597      7507     21596     21669
 -2     21670     20961     20893     21601     21675     20967     21603     21676     21677     20968
 -1      2811    4    0    1
 -2      7497      7587      7597      7507      7498      7588      7598      7508     21603     21676
 -2     21677     20968     20900     21608     21682     20974     21610     21683     21684     20975
 -1      2812    4    0    1
 -2      7498      7588      7598      7508      7499      7589      7599      7509     21610     21683
 -2     21684     20975     20907     21615     21689     20981     21617     21690     21691     20982
 -1      2813    4    0    1
 -2      7499      7589      7599      7509      7500      7590      7600      7510     21617     21690
 -2     21691     20982     20914     21622     21696     20988     21624     21697     21698     20989
 -1      2814    4    0    1
 -2      7500      7590      7600      7510      7501      7591      7601      7511     21624     21697
 -2     21698     20989     20921     21629     21703     20995     21631     21704     21705     20996
 -1      2815    4    0    1
 -2      7501      7591      7601      7511      7502      7592      7602      7512     21631     21704
 -2     21705     20996     20928     21636     21710     21002     21638     21711     21712     21003
 -1      2816    4    0    1
 -2      7502      7592      7602      7512      4959      4968      4969      4960     21638     21711
 -2     21712     21003     20935     21643     21717     21009      5598      5600      5601      5571
 -1      2817    4    0    1
 -2       563       572       573       564      7503      7593      7603      7513      1204      1206
 -2      1207      1177     20939     21647     21721     21013     21649     21722     21723     21014
 -1      2818    4    0    1
 -2      7503      7593      7603      7513      7504      7594      7604      7514     21649     21722
 -2     21723     21014     20946     21654     21728     21020     21656     21729     21730     21021
 -1      2819    4    0    1
 -2      7504      7594      7604      7514      7505      7595      7605      7515     21656     21729
 -2     21730     21021     20953     21661     21735     21027     21663     21736     21737     21028
 -1      2820    4    0    1
 -2      7505      7595      7605      7515      7506      7596      7606      7516     21663     21736
 -2     21737     21028     20960     21668     21742     21034     21670     21743     21744     21035
 -1      2821    4    0    1
 -2      7506      7596      7606      7516      7507      7597      7607      7517     21670     21743
 -2     21744     21035     20967     21675     21749     21041     21677     21750     21751     21042
 -1      2822    4    0    1
 -2      7507      7597      7607      7517      7508      7598      7608      7518     21677     21750
 -2     21751     21042     20974     21682     21756     21048     21684     21757     21758     21049
 -1      2823    4    0    1
 -2      7508      7598      7608      7518      7509      7599      7609      7519     21684     21757
 -2     21758     21049     20981     21689     21763     21055     21691     21764     21765     21056
 -1      2824    4    0    1
 -2      7509      7599      7609      7519      7510      7600      7610      7520     21691     21764
 -2     21765     21056     20988     21696     21770     21062     21698     21771     21772     21063
 -1      2825    4    0    1
 -2      7510      7600      7610      7520      7511      7601      7611      7521     21698     21771
 -2     21772     21063     20995     21703     21777     21069     21705     21778     21779     21070
 -1      2826    4    0    1
 -2      7511      7601      7611      7521      7512      7602      7612      7522     21705     21778
 -2     21779     21070     21002     21710     21784     21076     21712     21785     21786     21077
 -1      2827    4    0    1
 -2      7512      7602      7612      7522      4960      4969      4970      4961     21712     21785
 -2     21786     21077     21009     21717     21791     21083      5601      5603      5604      5574
 -1      2828    4    0    1
 -2       564       573       574       565      7513      7603      7613      7523      1207      1209
 -2      1210      1180     21013     21721     21795     21087     21723     21796     21797     21088
 -1      2829    4    0    1
 -2      7513      7603      7613      7523      7514      7604      7614      7524     21723     21796
 -2     21797     21088     21020     21728     21802     21094     21730     21803     21804     21095
 -1      2830    4    0    1
 -2      7514      7604      7614      7524      7515      7605      7615      7525     21730     21803
 -2     21804     21095     21027     21735     21809     21101     21737     21810     21811     21102
 -1      2831    4    0    1
 -2      7515      7605      7615      7525      7516      7606      7616      7526     21737     21810
 -2     21811     21102     21034     21742     21816     21108     21744     21817     21818     21109
 -1      2832    4    0    1
 -2      7516      7606      7616      7526      7517      7607      7617      7527     21744     21817
 -2     21818     21109     21041     21749     21823     21115     21751     21824     21825     21116
 -1      2833    4    0    1
 -2      7517      7607      7617      7527      7518      7608      7618      7528     21751     21824
 -2     21825     21116     21048     21756     21830     21122     21758     21831     21832     21123
 -1      2834    4    0    1
 -2      7518      7608      7618      7528      7519      7609      7619      7529     21758     21831
 -2     21832     21123     21055     21763     21837     21129     21765     21838     21839     21130
 -1      2835    4    0    1
 -2      7519      7609      7619      7529      7520      7610      7620      7530     21765     21838
 -2     21839     21130     21062     21770     21844     21136     21772     21845     21846     21137
 -1      2836    4    0    1
 -2      7520      7610      7620      7530      7521      7611      7621      7531     21772     21845
 -2     21846     21137     21069     21777     21851     21143     21779     21852     21853     21144
 -1      2837    4    0    1
 -2      7521      7611      7621      7531      7522      7612      7622      7532     21779     21852
 -2     21853     21144     21076     21784     21858     21150     21786     21859     21860     21151
 -1      2838    4    0    1
 -2      7522      7612      7622      7532      4961      4970      4971      4962     21786     21859
 -2     21860     21151     21083     21791     21865     21157      5604      5606      5607      5577
 -1      2839    4    0    1
 -2       565       574       575       566      7523      7613      7623      7533      1210      1212
 -2      1213      1183     21087     21795     21869     21161     21797     21870     21871     21162
 -1      2840    4    0    1
 -2      7523      7613      7623      7533      7524      7614      7624      7534     21797     21870
 -2     21871     21162     21094     21802     21876     21168     21804     21877     21878     21169
 -1      2841    4    0    1
 -2      7524      7614      7624      7534      7525      7615      7625      7535     21804     21877
 -2     21878     21169     21101     21809     21883     21175     21811     21884     21885     21176
 -1      2842    4    0    1
 -2      7525      7615      7625      7535      7526      7616      7626      7536     21811     21884
 -2     21885     21176     21108     21816     21890     21182     21818     21891     21892     21183
 -1      2843    4    0    1
 -2      7526      7616      7626      7536      7527      7617      7627      7537     21818     21891
 -2     21892     21183     21115     21823     21897     21189     21825     21898     21899     21190
 -1      2844    4    0    1
 -2      7527      7617      7627      7537      7528      7618      7628      7538     21825     21898
 -2     21899     21190     21122     21830     21904     21196     21832     21905     21906     21197
 -1      2845    4    0    1
 -2      7528      7618      7628      7538      7529      7619      7629      7539     21832     21905
 -2     21906     21197     21129     21837     21911     21203     21839     21912     21913     21204
 -1      2846    4    0    1
 -2      7529      7619      7629      7539      7530      7620      7630      7540     21839     21912
 -2     21913     21204     21136     21844     21918     21210     21846     21919     21920     21211
 -1      2847    4    0    1
 -2      7530      7620      7630      7540      7531      7621      7631      7541     21846     21919
 -2     21920     21211     21143     21851     21925     21217     21853     21926     21927     21218
 -1      2848    4    0    1
 -2      7531      7621      7631      7541      7532      7622      7632      7542     21853     21926
 -2     21927     21218     21150     21858     21932     21224     21860     21933     21934     21225
 -1      2849    4    0    1
 -2      7532      7622      7632      7542      4962      4971      4972      4963     21860     21933
 -2     21934     21225     21157     21865     21939     21231      5607      5609      5610      5580
 -1      2850    4    0    1
 -2       566       575        97        98      7533      7623      3264      3274      1213      1215
 -2       127      1186     21161     21869      3774      3806     21871     21943      3807     21235
 -1      2851    4    0    1
 -2      7533      7623      3264      3274      7534      7624      3265      3275     21871     21943
 -2      3807     21235     21168     21876      3777      3809     21878     21947      3810     21239
 -1      2852    4    0    1
 -2      7534      7624      3265      3275      7535      7625      3266      3276     21878     21947
 -2      3810     21239     21175     21883      3780      3812     21885     21951      3813     21243
 -1      2853    4    0    1
 -2      7535      7625      3266      3276      7536      7626      3267      3277     21885     21951
 -2      3813     21243     21182     21890      3783      3815     21892     21955      3816     21247
 -1      2854    4    0    1
 -2      7536      7626      3267      3277      7537      7627      3268      3278     21892     21955
 -2      3816     21247     21189     21897      3786      3818     21899     21959      3819     21251
 -1      2855    4    0    1
 -2      7537      7627      3268      3278      7538      7628      3269      3279     21899     21959
 -2      3819     21251     21196     21904      3789      3821     21906     21963      3822     21255
 -1      2856    4    0    1
 -2      7538      7628      3269      3279      7539      7629      3270      3280     21906     21963
 -2      3822     21255     21203     21911      3792      3824     21913     21967      3825     21259
 -1      2857    4    0    1
 -2      7539      7629      3270      3280      7540      7630      3271      3281     21913     21967
 -2      3825     21259     21210     21918      3795      3827     21920     21971      3828     21263
 -1      2858    4    0    1
 -2      7540      7630      3271      3281      7541      7631      3272      3282     21920     21971
 -2      3828     21263     21217     21925      3798      3830     21927     21975      3831     21267
 -1      2859    4    0    1
 -2      7541      7631      3272      3282      7542      7632      3273      3283     21927     21975
 -2      3831     21267     21224     21932      3801      3833     21934     21979      3834     21271
 -1      2860    4    0    1
 -2      7542      7632      3273      3283      4963      4972       253       254     21934     21979
 -2      3834     21271     21231     21939      3804      3836      5610      5612       283      5583
 -1      2861    4    0    1
 -2        27        28       576       567      1706      1716      7633      7543        57      1217
 -2      1218      1188      2392      2424     21985     21277      2425     21986     21987     21278
 -1      2862    4    0    1
 -2      1706      1716      7633      7543      1707      1717      7634      7544      2425     21986
 -2     21987     21278      2395      2427     21992     21284      2428     21993     21994     21285
 -1      2863    4    0    1
 -2      1707      1717      7634      7544      1708      1718      7635      7545      2428     21993
 -2     21994     21285      2398      2430     21999     21291      2431     22000     22001     21292
 -1      2864    4    0    1
 -2      1708      1718      7635      7545      1709      1719      7636      7546      2431     22000
 -2     22001     21292      2401      2433     22006     21298      2434     22007     22008     21299
 -1      2865    4    0    1
 -2      1709      1719      7636      7546      1710      1720      7637      7547      2434     22007
 -2     22008     21299      2404      2436     22013     21305      2437     22014     22015     21306
 -1      2866    4    0    1
 -2      1710      1720      7637      7547      1711      1721      7638      7548      2437     22014
 -2     22015     21306      2407      2439     22020     21312      2440     22021     22022     21313
 -1      2867    4    0    1
 -2      1711      1721      7638      7548      1712      1722      7639      7549      2440     22021
 -2     22022     21313      2410      2442     22027     21319      2443     22028     22029     21320
 -1      2868    4    0    1
 -2      1712      1722      7639      7549      1713      1723      7640      7550      2443     22028
 -2     22029     21320      2413      2445     22034     21326      2446     22035     22036     21327
 -1      2869    4    0    1
 -2      1713      1723      7640      7550      1714      1724      7641      7551      2446     22035
 -2     22036     21327      2416      2448     22041     21333      2449     22042     22043     21334
 -1      2870    4    0    1
 -2      1714      1724      7641      7551      1715      1725      7642      7552      2449     22042
 -2     22043     21334      2419      2451     22048     21340      2452     22049     22050     21341
 -1      2871    4    0    1
 -2      1715      1725      7642      7552       183       184      4973      4964      2452     22049
 -2     22050     21341      2422      2454     22055     21347       213      5614      5615      5585
 -1      2872    4    0    1
 -2       567       576       577       568      7543      7633      7643      7553      1218      1220
 -2      1221      1191     21277     21985     22059     21351     21987     22060     22061     21352
 -1      2873    4    0    1
 -2      7543      7633      7643      7553      7544      7634      7644      7554     21987     22060
 -2     22061     21352     21284     21992     22066     21358     21994     22067     22068     21359
 -1      2874    4    0    1
 -2      7544      7634      7644      7554      7545      7635      7645      7555     21994     22067
 -2     22068     21359     21291     21999     22073     21365     22001     22074     22075     21366
 -1      2875    4    0    1
 -2      7545      7635      7645      7555      7546      7636      7646      7556     22001     22074
 -2     22075     21366     21298     22006     22080     21372     22008     22081     22082     21373
 -1      2876    4    0    1
 -2      7546      7636      7646      7556      7547      7637      7647      7557     22008     22081
 -2     22082     21373     21305     22013     22087     21379     22015     22088     22089     21380
 -1      2877    4    0    1
 -2      7547      7637      7647      7557      7548      7638      7648      7558     22015     22088
 -2     22089     21380     21312     22020     22094     21386     22022     22095     22096     21387
 -1      2878    4    0    1
 -2      7548      7638      7648      7558      7549      7639      7649      7559     22022     22095
 -2     22096     21387     21319     22027     22101     21393     22029     22102     22103     21394
 -1      2879    4    0    1
 -2      7549      7639      7649      7559      7550      7640      7650      7560     22029     22102
 -2     22103     21394     21326     22034     22108     21400     22036     22109     22110     21401
 -1      2880    4    0    1
 -2      7550      7640      7650      7560      7551      7641      7651      7561     22036     22109
 -2     22110     21401     21333     22041     22115     21407     22043     22116     22117     21408
 -1      2881    4    0    1
 -2      7551      7641      7651      7561      7552      7642      7652      7562     22043     22116
 -2     22117     21408     21340     22048     22122     21414     22050     22123     22124     21415
 -1      2882    4    0    1
 -2      7552      7642      7652      7562      4964      4973      4974      4965     22050     22123
 -2     22124     21415     21347     22055     22129     21421      5615      5617      5618      5588
 -1      2883    4    0    1
 -2       568       577       578       569      7553      7643      7653      7563      1221      1223
 -2      1224      1194     21351     22059     22133     21425     22061     22134     22135     21426
 -1      2884    4    0    1
 -2      7553      7643      7653      7563      7554      7644      7654      7564     22061     22134
 -2     22135     21426     21358     22066     22140     21432     22068     22141     22142     21433
 -1      2885    4    0    1
 -2      7554      7644      7654      7564      7555      7645      7655      7565     22068     22141
 -2     22142     21433     21365     22073     22147     21439     22075     22148     22149     21440
 -1      2886    4    0    1
 -2      7555      7645      7655      7565      7556      7646      7656      7566     22075     22148
 -2     22149     21440     21372     22080     22154     21446     22082     22155     22156     21447
 -1      2887    4    0    1
 -2      7556      7646      7656      7566      7557      7647      7657      7567     22082     22155
 -2     22156     21447     21379     22087     22161     21453     22089     22162     22163     21454
 -1      2888    4    0    1
 -2      7557      7647      7657      7567      7558      7648      7658      7568     22089     22162
 -2     22163     21454     21386     22094     22168     21460     22096     22169     22170     21461
 -1      2889    4    0    1
 -2      7558      7648      7658      7568      7559      7649      7659      7569     22096     22169
 -2     22170     21461     21393     22101     22175     21467     22103     22176     22177     21468
 -1      2890    4    0    1
 -2      7559      7649      7659      7569      7560      7650      7660      7570     22103     22176
 -2     22177     21468     21400     22108     22182     21474     22110     22183     22184     21475
 -1      2891    4    0    1
 -2      7560      7650      7660      7570      7561      7651      7661      7571     22110     22183
 -2     22184     21475     21407     22115     22189     21481     22117     22190     22191     21482
 -1      2892    4    0    1
 -2      7561      7651      7661      7571      7562      7652      7662      7572     22117     22190
 -2     22191     21482     21414     22122     22196     21488     22124     22197     22198     21489
 -1      2893    4    0    1
 -2      7562      7652      7662      7572      4965      4974      4975      4966     22124     22197
 -2     22198     21489     21421     22129     22203     21495      5618      5620      5621      5591
 -1      2894    4    0    1
 -2       569       578       579       570      7563      7653      7663      7573      1224      1226
 -2      1227      1197     21425     22133     22207     21499     22135     22208     22209     21500
 -1      2895    4    0    1
 -2      7563      7653      7663      7573      7564      7654      7664      7574     22135     22208
 -2     22209     21500     21432     22140     22214     21506     22142     22215     22216     21507
 -1      2896    4    0    1
 -2      7564      7654      7664      7574      7565      7655      7665      7575     22142     22215
 -2     22216     21507     21439     22147     22221     21513     22149     22222     22223     21514
 -1      2897    4    0    1
 -2      7565      7655      7665      7575      7566      7656      7666      7576     22149     22222
 -2     22223     21514     21446     22154     22228     21520     22156     22229     22230     21521
 -1      2898    4    0    1
 -2      7566      7656      7666      7576      7567      7657      7667      7577     22156     22229
 -2     22230     21521     21453     22161     22235     21527     22163     22236     22237     21528
 -1      2899    4    0    1
 -2      7567      7657      7667      7577      7568      7658      7668      7578     22163     22236
 -2     22237     21528     21460     22168     22242     21534     22170     22243     22244     21535
 -1      2900    4    0    1
 -2      7568      7658      7668      7578      7569      7659      7669      7579     22170     22243
 -2     22244     21535     21467     22175     22249     21541     22177     22250     22251     21542
 -1      2901    4    0    1
 -2      7569      7659      7669      7579      7570      7660      7670      7580     22177     22250
 -2     22251     21542     21474     22182     22256     21548     22184     22257     22258     21549
 -1      2902    4    0    1
 -2      7570      7660      7670      7580      7571      7661      7671      7581     22184     22257
 -2     22258     21549     21481     22189     22263     21555     22191     22264     22265     21556
 -1      2903    4    0    1
 -2      7571      7661      7671      7581      7572      7662      7672      7582     22191     22264
 -2     22265     21556     21488     22196     22270     21562     22198     22271     22272     21563
 -1      2904    4    0    1
 -2      7572      7662      7672      7582      4966      4975      4976      4967     22198     22271
 -2     22272     21563     21495     22203     22277     21569      5621      5623      5624      5594
 -1      2905    4    0    1
 -2       570       579       580       571      7573      7663      7673      7583      1227      1229
 -2      1230      1200     21499     22207     22281     21573     22209     22282     22283     21574
 -1      2906    4    0    1
 -2      7573      7663      7673      7583      7574      7664      7674      7584     22209     22282
 -2     22283     21574     21506     22214     22288     21580     22216     22289     22290     21581
 -1      2907    4    0    1
 -2      7574      7664      7674      7584      7575      7665      7675      7585     22216     22289
 -2     22290     21581     21513     22221     22295     21587     22223     22296     22297     21588
 -1      2908    4    0    1
 -2      7575      7665      7675      7585      7576      7666      7676      7586     22223     22296
 -2     22297     21588     21520     22228     22302     21594     22230     22303     22304     21595
 -1      2909    4    0    1
 -2      7576      7666      7676      7586      7577      7667      7677      7587     22230     22303
 -2     22304     21595     21527     22235     22309     21601     22237     22310     22311     21602
 -1      2910    4    0    1
 -2      7577      7667      7677      7587      7578      7668      7678      7588     22237     22310
 -2     22311     21602     21534     22242     22316     21608     22244     22317     22318     21609
 -1      2911    4    0    1
 -2      7578      7668      7678      7588      7579      7669      7679      7589     22244     22317
 -2     22318     21609     21541     22249     22323     21615     22251     22324     22325     21616
 -1      2912    4    0    1
 -2      7579      7669      7679      7589      7580      7670      7680      7590     22251     22324
 -2     22325     21616     21548     22256     22330     21622     22258     22331     22332     21623
 -1      2913    4    0    1
 -2      7580      7670      7680      7590      7581      7671      7681      7591     22258     22331
 -2     22332     21623     21555     22263     22337     21629     22265     22338     22339     21630
 -1      2914    4    0    1
 -2      7581      7671      7681      7591      7582      7672      7682      7592     22265     22338
 -2     22339     21630     21562     22270     22344     21636     22272     22345     22346     21637
 -1      2915    4    0    1
 -2      7582      7672      7682      7592      4967      4976      4977      4968     22272     22345
 -2     22346     21637     21569     22277     22351     21643      5624      5626      5627      5597
 -1      2916    4    0    1
 -2       571       580       581       572      7583      7673      7683      7593      1230      1232
 -2      1233      1203     21573     22281     22355     21647     22283     22356     22357     21648
 -1      2917    4    0    1
 -2      7583      7673      7683      7593      7584      7674      7684      7594     22283     22356
 -2     22357     21648     21580     22288     22362     21654     22290     22363     22364     21655
 -1      2918    4    0    1
 -2      7584      7674      7684      7594      7585      7675      7685      7595     22290     22363
 -2     22364     21655     21587     22295     22369     21661     22297     22370     22371     21662
 -1      2919    4    0    1
 -2      7585      7675      7685      7595      7586      7676      7686      7596     22297     22370
 -2     22371     21662     21594     22302     22376     21668     22304     22377     22378     21669
 -1      2920    4    0    1
 -2      7586      7676      7686      7596      7587      7677      7687      7597     22304     22377
 -2     22378     21669     21601     22309     22383     21675     22311     22384     22385     21676
 -1      2921    4    0    1
 -2      7587      7677      7687      7597      7588      7678      7688      7598     22311     22384
 -2     22385     21676     21608     22316     22390     21682     22318     22391     22392     21683
 -1      2922    4    0    1
 -2      7588      7678      7688      7598      7589      7679      7689      7599     22318     22391
 -2     22392     21683     21615     22323     22397     21689     22325     22398     22399     21690
 -1      2923    4    0    1
 -2      7589      7679      7689      7599      7590      7680      7690      7600     22325     22398
 -2     22399     21690     21622     22330     22404     21696     22332     22405     22406     21697
 -1      2924    4    0    1
 -2      7590      7680      7690      7600      7591      7681      7691      7601     22332     22405
 -2     22406     21697     21629     22337     22411     21703     22339     22412     22413     21704
 -1      2925    4    0    1
 -2      7591      7681      7691      7601      7592      7682      7692      7602     22339     22412
 -2     22413     21704     21636     22344     22418     21710     22346     22419     22420     21711
 -1      2926    4    0    1
 -2      7592      7682      7692      7602      4968      4977      4978      4969     22346     22419
 -2     22420     21711     21643     22351     22425     21717      5627      5629      5630      5600
 -1      2927    4    0    1
 -2       572       581       582       573      7593      7683      7693      7603      1233      1235
 -2      1236      1206     21647     22355     22429     21721     22357     22430     22431     21722
 -1      2928    4    0    1
 -2      7593      7683      7693      7603      7594      7684      7694      7604     22357     22430
 -2     22431     21722     21654     22362     22436     21728     22364     22437     22438     21729
 -1      2929    4    0    1
 -2      7594      7684      7694      7604      7595      7685      7695      7605     22364     22437
 -2     22438     21729     21661     22369     22443     21735     22371     22444     22445     21736
 -1      2930    4    0    1
 -2      7595      7685      7695      7605      7596      7686      7696      7606     22371     22444
 -2     22445     21736     21668     22376     22450     21742     22378     22451     22452     21743
 -1      2931    4    0    1
 -2      7596      7686      7696      7606      7597      7687      7697      7607     22378     22451
 -2     22452     21743     21675     22383     22457     21749     22385     22458     22459     21750
 -1      2932    4    0    1
 -2      7597      7687      7697      7607      7598      7688      7698      7608     22385     22458
 -2     22459     21750     21682     22390     22464     21756     22392     22465     22466     21757
 -1      2933    4    0    1
 -2      7598      7688      7698      7608      7599      7689      7699      7609     22392     22465
 -2     22466     21757     21689     22397     22471     21763     22399     22472     22473     21764
 -1      2934    4    0    1
 -2      7599      7689      7699      7609      7600      7690      7700      7610     22399     22472
 -2     22473     21764     21696     22404     22478     21770     22406     22479     22480     21771
 -1      2935    4    0    1
 -2      7600      7690      7700      7610      7601      7691      7701      7611     22406     22479
 -2     22480     21771     21703     22411     22485     21777     22413     22486     22487     21778
 -1      2936    4    0    1
 -2      7601      7691      7701      7611      7602      7692      7702      7612     22413     22486
 -2     22487     21778     21710     22418     22492     21784     22420     22493     22494     21785
 -1      2937    4    0    1
 -2      7602      7692      7702      7612      4969      4978      4979      4970     22420     22493
 -2     22494     21785     21717     22425     22499     21791      5630      5632      5633      5603
 -1      2938    4    0    1
 -2       573       582       583       574      7603      7693      7703      7613      1236      1238
 -2      1239      1209     21721     22429     22503     21795     22431     22504     22505     21796
 -1      2939    4    0    1
 -2      7603      7693      7703      7613      7604      7694      7704      7614     22431     22504
 -2     22505     21796     21728     22436     22510     21802     22438     22511     22512     21803
 -1      2940    4    0    1
 -2      7604      7694      7704      7614      7605      7695      7705      7615     22438     22511
 -2     22512     21803     21735     22443     22517     21809     22445     22518     22519     21810
 -1      2941    4    0    1
 -2      7605      7695      7705      7615      7606      7696      7706      7616     22445     22518
 -2     22519     21810     21742     22450     22524     21816     22452     22525     22526     21817
 -1      2942    4    0    1
 -2      7606      7696      7706      7616      7607      7697      7707      7617     22452     22525
 -2     22526     21817     21749     22457     22531     21823     22459     22532     22533     21824
 -1      2943    4    0    1
 -2      7607      7697      7707      7617      7608      7698      7708      7618     22459     22532
 -2     22533     21824     21756     22464     22538     21830     22466     22539     22540     21831
 -1      2944    4    0    1
 -2      7608      7698      7708      7618      7609      7699      7709      7619     22466     22539
 -2     22540     21831     21763     22471     22545     21837     22473     22546     22547     21838
 -1      2945    4    0    1
 -2      7609      7699      7709      7619      7610      7700      7710      7620     22473     22546
 -2     22547     21838     21770     22478     22552     21844     22480     22553     22554     21845
 -1      2946    4    0    1
 -2      7610      7700      7710      7620      7611      7701      7711      7621     22480     22553
 -2     22554     21845     21777     22485     22559     21851     22487     22560     22561     21852
 -1      2947    4    0    1
 -2      7611      7701      7711      7621      7612      7702      7712      7622     22487     22560
 -2     22561     21852     21784     22492     22566     21858     22494     22567     22568     21859
 -1      2948    4    0    1
 -2      7612      7702      7712      7622      4970      4979      4980      4971     22494     22567
 -2     22568     21859     21791     22499     22573     21865      5633      5635      5636      5606
 -1      2949    4    0    1
 -2       574       583       584       575      7613      7703      7713      7623      1239      1241
 -2      1242      1212     21795     22503     22577     21869     22505     22578     22579     21870
 -1      2950    4    0    1
 -2      7613      7703      7713      7623      7614      7704      7714      7624     22505     22578
 -2     22579     21870     21802     22510     22584     21876     22512     22585     22586     21877
 -1      2951    4    0    1
 -2      7614      7704      7714      7624      7615      7705      7715      7625     22512     22585
 -2     22586     21877     21809     22517     22591     21883     22519     22592     22593     21884
 -1      2952    4    0    1
 -2      7615      7705      7715      7625      7616      7706      7716      7626     22519     22592
 -2     22593     21884     21816     22524     22598     21890     22526     22599     22600     21891
 -1      2953    4    0    1
 -2      7616      7706      7716      7626      7617      7707      7717      7627     22526     22599
 -2     22600     21891     21823     22531     22605     21897     22533     22606     22607     21898
 -1      2954    4    0    1
 -2      7617      7707      7717      7627      7618      7708      7718      7628     22533     22606
 -2     22607     21898     21830     22538     22612     21904     22540     22613     22614     21905
 -1      2955    4    0    1
 -2      7618      7708      7718      7628      7619      7709      7719      7629     22540     22613
 -2     22614     21905     21837     22545     22619     21911     22547     22620     22621     21912
 -1      2956    4    0    1
 -2      7619      7709      7719      7629      7620      7710      7720      7630     22547     22620
 -2     22621     21912     21844     22552     22626     21918     22554     22627     22628     21919
 -1      2957    4    0    1
 -2      7620      7710      7720      7630      7621      7711      7721      7631     22554     22627
 -2     22628     21919     21851     22559     22633     21925     22561     22634     22635     21926
 -1      2958    4    0    1
 -2      7621      7711      7721      7631      7622      7712      7722      7632     22561     22634
 -2     22635     21926     21858     22566     22640     21932     22568     22641     22642     21933
 -1      2959    4    0    1
 -2      7622      7712      7722      7632      4971      4980      4981      4972     22568     22641
 -2     22642     21933     21865     22573     22647     21939      5636      5638      5639      5609
 -1      2960    4    0    1
 -2       575       584        96        97      7623      7713      3254      3264      1242      1244
 -2       126      1215     21869     22577      3742      3774     22579     22651      3775     21943
 -1      2961    4    0    1
 -2      7623      7713      3254      3264      7624      7714      3255      3265     22579     22651
 -2      3775     21943     21876     22584      3745      3777     22586     22655      3778     21947
 -1      2962    4    0    1
 -2      7624      7714      3255      3265      7625      7715      3256      3266     22586     22655
 -2      3778     21947     21883     22591      3748      3780     22593     22659      3781     21951
 -1      2963    4    0    1
 -2      7625      7715      3256      3266      7626      7716      3257      3267     22593     22659
 -2      3781     21951     21890     22598      3751      3783     22600     22663      3784     21955
 -1      2964    4    0    1
 -2      7626      7716      3257      3267      7627      7717      3258      3268     22600     22663
 -2      3784     21955     21897     22605      3754      3786     22607     22667      3787     21959
 -1      2965    4    0    1
 -2      7627      7717      3258      3268      7628      7718      3259      3269     22607     22667
 -2      3787     21959     21904     22612      3757      3789     22614     22671      3790     21963
 -1      2966    4    0    1
 -2      7628      7718      3259      3269      7629      7719      3260      3270     22614     22671
 -2      3790     21963     21911     22619      3760      3792     22621     22675      3793     21967
 -1      2967    4    0    1
 -2      7629      7719      3260      3270      7630      7720      3261      3271     22621     22675
 -2      3793     21967     21918     22626      3763      3795     22628     22679      3796     21971
 -1      2968    4    0    1
 -2      7630      7720      3261      3271      7631      7721      3262      3272     22628     22679
 -2      3796     21971     21925     22633      3766      3798     22635     22683      3799     21975
 -1      2969    4    0    1
 -2      7631      7721      3262      3272      7632      7722      3263      3273     22635     22683
 -2      3799     21975     21932     22640      3769      3801     22642     22687      3802     21979
 -1      2970    4    0    1
 -2      7632      7722      3263      3273      4972      4981       252       253     22642     22687
 -2      3802     21979     21939     22647      3772      3804      5639      5641       282      5612
 -1      2971    4    0    1
 -2        28        29       585       576      1716      1726      7723      7633        58      1246
 -2      1247      1217      2424      2456     22693     21985      2457     22694     22695     21986
 -1      2972    4    0    1
 -2      1716      1726      7723      7633      1717      1727      7724      7634      2457     22694
 -2     22695     21986      2427      2459     22700     21992      2460     22701     22702     21993
 -1      2973    4    0    1
 -2      1717      1727      7724      7634      1718      1728      7725      7635      2460     22701
 -2     22702     21993      2430      2462     22707     21999      2463     22708     22709     22000
 -1      2974    4    0    1
 -2      1718      1728      7725      7635      1719      1729      7726      7636      2463     22708
 -2     22709     22000      2433      2465     22714     22006      2466     22715     22716     22007
 -1      2975    4    0    1
 -2      1719      1729      7726      7636      1720      1730      7727      7637      2466     22715
 -2     22716     22007      2436      2468     22721     22013      2469     22722     22723     22014
 -1      2976    4    0    1
 -2      1720      1730      7727      7637      1721      1731      7728      7638      2469     22722
 -2     22723     22014      2439      2471     22728     22020      2472     22729     22730     22021
 -1      2977    4    0    1
 -2      1721      1731      7728      7638      1722      1732      7729      7639      2472     22729
 -2     22730     22021      2442      2474     22735     22027      2475     22736     22737     22028
 -1      2978    4    0    1
 -2      1722      1732      7729      7639      1723      1733      7730      7640      2475     22736
 -2     22737     22028      2445      2477     22742     22034      2478     22743     22744     22035
 -1      2979    4    0    1
 -2      1723      1733      7730      7640      1724      1734      7731      7641      2478     22743
 -2     22744     22035      2448      2480     22749     22041      2481     22750     22751     22042
 -1      2980    4    0    1
 -2      1724      1734      7731      7641      1725      1735      7732      7642      2481     22750
 -2     22751     22042      2451      2483     22756     22048      2484     22757     22758     22049
 -1      2981    4    0    1
 -2      1725      1735      7732      7642       184       185      4982      4973      2484     22757
 -2     22758     22049      2454      2486     22763     22055       214      5643      5644      5614
 -1      2982    4    0    1
 -2       576       585       586       577      7633      7723      7733      7643      1247      1249
 -2      1250      1220     21985     22693     22767     22059     22695     22768     22769     22060
 -1      2983    4    0    1
 -2      7633      7723      7733      7643      7634      7724      7734      7644     22695     22768
 -2     22769     22060     21992     22700     22774     22066     22702     22775     22776     22067
 -1      2984    4    0    1
 -2      7634      7724      7734      7644      7635      7725      7735      7645     22702     22775
 -2     22776     22067     21999     22707     22781     22073     22709     22782     22783     22074
 -1      2985    4    0    1
 -2      7635      7725      7735      7645      7636      7726      7736      7646     22709     22782
 -2     22783     22074     22006     22714     22788     22080     22716     22789     22790     22081
 -1      2986    4    0    1
 -2      7636      7726      7736      7646      7637      7727      7737      7647     22716     22789
 -2     22790     22081     22013     22721     22795     22087     22723     22796     22797     22088
 -1      2987    4    0    1
 -2      7637      7727      7737      7647      7638      7728      7738      7648     22723     22796
 -2     22797     22088     22020     22728     22802     22094     22730     22803     22804     22095
 -1      2988    4    0    1
 -2      7638      7728      7738      7648      7639      7729      7739      7649     22730     22803
 -2     22804     22095     22027     22735     22809     22101     22737     22810     22811     22102
 -1      2989    4    0    1
 -2      7639      7729      7739      7649      7640      7730      7740      7650     22737     22810
 -2     22811     22102     22034     22742     22816     22108     22744     22817     22818     22109
 -1      2990    4    0    1
 -2      7640      7730      7740      7650      7641      7731      7741      7651     22744     22817
 -2     22818     22109     22041     22749     22823     22115     22751     22824     22825     22116
 -1      2991    4    0    1
 -2      7641      7731      7741      7651      7642      7732      7742      7652     22751     22824
 -2     22825     22116     22048     22756     22830     22122     22758     22831     22832     22123
 -1      2992    4    0    1
 -2      7642      7732      7742      7652      4973      4982      4983      4974     22758     22831
 -2     22832     22123     22055     22763     22837     22129      5644      5646      5647      5617
 -1      2993    4    0    1
 -2       577       586       587       578      7643      7733      7743      7653      1250      1252
 -2      1253      1223     22059     22767     22841     22133     22769     22842     22843     22134
 -1      2994    4    0    1
 -2      7643      7733      7743      7653      7644      7734      7744      7654     22769     22842
 -2     22843     22134     22066     22774     22848     22140     22776     22849     22850     22141
 -1      2995    4    0    1
 -2      7644      7734      7744      7654      7645      7735      7745      7655     22776     22849
 -2     22850     22141     22073     22781     22855     22147     22783     22856     22857     22148
 -1      2996    4    0    1
 -2      7645      7735      7745      7655      7646      7736      7746      7656     22783     22856
 -2     22857     22148     22080     22788     22862     22154     22790     22863     22864     22155
 -1      2997    4    0    1
 -2      7646      7736      7746      7656      7647      7737      7747      7657     22790     22863
 -2     22864     22155     22087     22795     22869     22161     22797     22870     22871     22162
 -1      2998    4    0    1
 -2      7647      7737      7747      7657      7648      7738      7748      7658     22797     22870
 -2     22871     22162     22094     22802     22876     22168     22804     22877     22878     22169
 -1      2999    4    0    1
 -2      7648      7738      7748      7658      7649      7739      7749      7659     22804     22877
 -2     22878     22169     22101     22809     22883     22175     22811     22884     22885     22176
 -1      3000    4    0    1
 -2      7649      7739      7749      7659      7650      7740      7750      7660     22811     22884
 -2     22885     22176     22108     22816     22890     22182     22818     22891     22892     22183
 -1      3001    4    0    1
 -2      7650      7740      7750      7660      7651      7741      7751      7661     22818     22891
 -2     22892     22183     22115     22823     22897     22189     22825     22898     22899     22190
 -1      3002    4    0    1
 -2      7651      7741      7751      7661      7652      7742      7752      7662     22825     22898
 -2     22899     22190     22122     22830     22904     22196     22832     22905     22906     22197
 -1      3003    4    0    1
 -2      7652      7742      7752      7662      4974      4983      4984      4975     22832     22905
 -2     22906     22197     22129     22837     22911     22203      5647      5649      5650      5620
 -1      3004    4    0    1
 -2       578       587       588       579      7653      7743      7753      7663      1253      1255
 -2      1256      1226     22133     22841     22915     22207     22843     22916     22917     22208
 -1      3005    4    0    1
 -2      7653      7743      7753      7663      7654      7744      7754      7664     22843     22916
 -2     22917     22208     22140     22848     22922     22214     22850     22923     22924     22215
 -1      3006    4    0    1
 -2      7654      7744      7754      7664      7655      7745      7755      7665     22850     22923
 -2     22924     22215     22147     22855     22929     22221     22857     22930     22931     22222
 -1      3007    4    0    1
 -2      7655      7745      7755      7665      7656      7746      7756      7666     22857     22930
 -2     22931     22222     22154     22862     22936     22228     22864     22937     22938     22229
 -1      3008    4    0    1
 -2      7656      7746      7756      7666      7657      7747      7757      7667     22864     22937
 -2     22938     22229     22161     22869     22943     22235     22871     22944     22945     22236
 -1      3009    4    0    1
 -2      7657      7747      7757      7667      7658      7748      7758      7668     22871     22944
 -2     22945     22236     22168     22876     22950     22242     22878     22951     22952     22243
 -1      3010    4    0    1
 -2      7658      7748      7758      7668      7659      7749      7759      7669     22878     22951
 -2     22952     22243     22175     22883     22957     22249     22885     22958     22959     22250
 -1      3011    4    0    1
 -2      7659      7749      7759      7669      7660      7750      7760      7670     22885     22958
 -2     22959     22250     22182     22890     22964     22256     22892     22965     22966     22257
 -1      3012    4    0    1
 -2      7660      7750      7760      7670      7661      7751      7761      7671     22892     22965
 -2     22966     22257     22189     22897     22971     22263     22899     22972     22973     22264
 -1      3013    4    0    1
 -2      7661      7751      7761      7671      7662      7752      7762      7672     22899     22972
 -2     22973     22264     22196     22904     22978     22270     22906     22979     22980     22271
 -1      3014    4    0    1
 -2      7662      7752      7762      7672      4975      4984      4985      4976     22906     22979
 -2     22980     22271     22203     22911     22985     22277      5650      5652      5653      5623
 -1      3015    4    0    1
 -2       579       588       589       580      7663      7753      7763      7673      1256      1258
 -2      1259      1229     22207     22915     22989     22281     22917     22990     22991     22282
 -1      3016    4    0    1
 -2      7663      7753      7763      7673      7664      7754      7764      7674     22917     22990
 -2     22991     22282     22214     22922     22996     22288     22924     22997     22998     22289
 -1      3017    4    0    1
 -2      7664      7754      7764      7674      7665      7755      7765      7675     22924     22997
 -2     22998     22289     22221     22929     23003     22295     22931     23004     23005     22296
 -1      3018    4    0    1
 -2      7665      7755      7765      7675      7666      7756      7766      7676     22931     23004
 -2     23005     22296     22228     22936     23010     22302     22938     23011     23012     22303
 -1      3019    4    0    1
 -2      7666      7756      7766      7676      7667      7757      7767      7677     22938     23011
 -2     23012     22303     22235     22943     23017     22309     22945     23018     23019     22310
 -1      3020    4    0    1
 -2      7667      7757      7767      7677      7668      7758      7768      7678     22945     23018
 -2     23019     22310     22242     22950     23024     22316     22952     23025     23026     22317
 -1      3021    4    0    1
 -2      7668      7758      7768      7678      7669      7759      7769      7679     22952     23025
 -2     23026     22317     22249     22957     23031     22323     22959     23032     23033     22324
 -1      3022    4    0    1
 -2      7669      7759      7769      7679      7670      7760      7770      7680     22959     23032
 -2     23033     22324     22256     22964     23038     22330     22966     23039     23040     22331
 -1      3023    4    0    1
 -2      7670      7760      7770      7680      7671      7761      7771      7681     22966     23039
 -2     23040     22331     22263     22971     23045     22337     22973     23046     23047     22338
 -1      3024    4    0    1
 -2      7671      7761      7771      7681      7672      7762      7772      7682     22973     23046
 -2     23047     22338     22270     22978     23052     22344     22980     23053     23054     22345
 -1      3025    4    0    1
 -2      7672      7762      7772      7682      4976      4985      4986      4977     22980     23053
 -2     23054     22345     22277     22985     23059     22351      5653      5655      5656      5626
 -1      3026    4    0    1
 -2       580       589       590       581      7673      7763      7773      7683      1259      1261
 -2      1262      1232     22281     22989     23063     22355     22991     23064     23065     22356
 -1      3027    4    0    1
 -2      7673      7763      7773      7683      7674      7764      7774      7684     22991     23064
 -2     23065     22356     22288     22996     23070     22362     22998     23071     23072     22363
 -1      3028    4    0    1
 -2      7674      7764      7774      7684      7675      7765      7775      7685     22998     23071
 -2     23072     22363     22295     23003     23077     22369     23005     23078     23079     22370
 -1      3029    4    0    1
 -2      7675      7765      7775      7685      7676      7766      7776      7686     23005     23078
 -2     23079     22370     22302     23010     23084     22376     23012     23085     23086     22377
 -1      3030    4    0    1
 -2      7676      7766      7776      7686      7677      7767      7777      7687     23012     23085
 -2     23086     22377     22309     23017     23091     22383     23019     23092     23093     22384
 -1      3031    4    0    1
 -2      7677      7767      7777      7687      7678      7768      7778      7688     23019     23092
 -2     23093     22384     22316     23024     23098     22390     23026     23099     23100     22391
 -1      3032    4    0    1
 -2      7678      7768      7778      7688      7679      7769      7779      7689     23026     23099
 -2     23100     22391     22323     23031     23105     22397     23033     23106     23107     22398
 -1      3033    4    0    1
 -2      7679      7769      7779      7689      7680      7770      7780      7690     23033     23106
 -2     23107     22398     22330     23038     23112     22404     23040     23113     23114     22405
 -1      3034    4    0    1
 -2      7680      7770      7780      7690      7681      7771      7781      7691     23040     23113
 -2     23114     22405     22337     23045     23119     22411     23047     23120     23121     22412
 -1      3035    4    0    1
 -2      7681      7771      7781      7691      7682      7772      7782      7692     23047     23120
 -2     23121     22412     22344     23052     23126     22418     23054     23127     23128     22419
 -1      3036    4    0    1
 -2      7682      7772      7782      7692      4977      4986      4987      4978     23054     23127
 -2     23128     22419     22351     23059     23133     22425      5656      5658      5659      5629
 -1      3037    4    0    1
 -2       581       590       591       582      7683      7773      7783      7693      1262      1264
 -2      1265      1235     22355     23063     23137     22429     23065     23138     23139     22430
 -1      3038    4    0    1
 -2      7683      7773      7783      7693      7684      7774      7784      7694     23065     23138
 -2     23139     22430     22362     23070     23144     22436     23072     23145     23146     22437
 -1      3039    4    0    1
 -2      7684      7774      7784      7694      7685      7775      7785      7695     23072     23145
 -2     23146     22437     22369     23077     23151     22443     23079     23152     23153     22444
 -1      3040    4    0    1
 -2      7685      7775      7785      7695      7686      7776      7786      7696     23079     23152
 -2     23153     22444     22376     23084     23158     22450     23086     23159     23160     22451
 -1      3041    4    0    1
 -2      7686      7776      7786      7696      7687      7777      7787      7697     23086     23159
 -2     23160     22451     22383     23091     23165     22457     23093     23166     23167     22458
 -1      3042    4    0    1
 -2      7687      7777      7787      7697      7688      7778      7788      7698     23093     23166
 -2     23167     22458     22390     23098     23172     22464     23100     23173     23174     22465
 -1      3043    4    0    1
 -2      7688      7778      7788      7698      7689      7779      7789      7699     23100     23173
 -2     23174     22465     22397     23105     23179     22471     23107     23180     23181     22472
 -1      3044    4    0    1
 -2      7689      7779      7789      7699      7690      7780      7790      7700     23107     23180
 -2     23181     22472     22404     23112     23186     22478     23114     23187     23188     22479
 -1      3045    4    0    1
 -2      7690      7780      7790      7700      7691      7781      7791      7701     23114     23187
 -2     23188     22479     22411     23119     23193     22485     23121     23194     23195     22486
 -1      3046    4    0    1
 -2      7691      7781      7791      7701      7692      7782      7792      7702     23121     23194
 -2     23195     22486     22418     23126     23200     22492     23128     23201     23202     22493
 -1      3047    4    0    1
 -2      7692      7782      7792      7702      4978      4987      4988      4979     23128     23201
 -2     23202     22493     22425     23133     23207     22499      5659      5661      5662      5632
 -1      3048    4    0    1
 -2       582       591       592       583      7693      7783      7793      7703      1265      1267
 -2      1268      1238     22429     23137     23211     22503     23139     23212     23213     22504
 -1      3049    4    0    1
 -2      7693      7783      7793      7703      7694      7784      7794      7704     23139     23212
 -2     23213     22504     22436     23144     23218     22510     23146     23219     23220     22511
 -1      3050    4    0    1
 -2      7694      7784      7794      7704      7695      7785      7795      7705     23146     23219
 -2     23220     22511     22443     23151     23225     22517     23153     23226     23227     22518
 -1      3051    4    0    1
 -2      7695      7785      7795      7705      7696      7786      7796      7706     23153     23226
 -2     23227     22518     22450     23158     23232     22524     23160     23233     23234     22525
 -1      3052    4    0    1
 -2      7696      7786      7796      7706      7697      7787      7797      7707     23160     23233
 -2     23234     22525     22457     23165     23239     22531     23167     23240     23241     22532
 -1      3053    4    0    1
 -2      7697      7787      7797      7707      7698      7788      7798      7708     23167     23240
 -2     23241     22532     22464     23172     23246     22538     23174     23247     23248     22539
 -1      3054    4    0    1
 -2      7698      7788      7798      7708      7699      7789      7799      7709     23174     23247
 -2     23248     22539     22471     23179     23253     22545     23181     23254     23255     22546
 -1      3055    4    0    1
 -2      7699      7789      7799      7709      7700      7790      7800      7710     23181     23254
 -2     23255     22546     22478     23186     23260     22552     23188     23261     23262     22553
 -1      3056    4    0    1
 -2      7700      7790      7800      7710      7701      7791      7801      7711     23188     23261
 -2     23262     22553     22485     23193     23267     22559     23195     23268     23269     22560
 -1      3057    4    0    1
 -2      7701      7791      7801      7711      7702      7792      7802      7712     23195     23268
 -2     23269     22560     22492     23200     23274     22566     23202     23275     23276     22567
 -1      3058    4    0    1
 -2      7702      7792      7802      7712      4979      4988      4989      4980     23202     23275
 -2     23276     22567     22499     23207     23281     22573      5662      5664      5665      5635
 -1      3059    4    0    1
 -2       583       592       593       584      7703      7793      7803      7713      1268      1270
 -2      1271      1241     22503     23211     23285     22577     23213     23286     23287     22578
 -1      3060    4    0    1
 -2      7703      7793      7803      7713      7704      7794      7804      7714     23213     23286
 -2     23287     22578     22510     23218     23292     22584     23220     23293     23294     22585
 -1      3061    4    0    1
 -2      7704      7794      7804      7714      7705      7795      7805      7715     23220     23293
 -2     23294     22585     22517     23225     23299     22591     23227     23300     23301     22592
 -1      3062    4    0    1
 -2      7705      7795      7805      7715      7706      7796      7806      7716     23227     23300
 -2     23301     22592     22524     23232     23306     22598     23234     23307     23308     22599
 -1      3063    4    0    1
 -2      7706      7796      7806      7716      7707      7797      7807      7717     23234     23307
 -2     23308     22599     22531     23239     23313     22605     23241     23314     23315     22606
 -1      3064    4    0    1
 -2      7707      7797      7807      7717      7708      7798      7808      7718     23241     23314
 -2     23315     22606     22538     23246     23320     22612     23248     23321     23322     22613
 -1      3065    4    0    1
 -2      7708      7798      7808      7718      7709      7799      7809      7719     23248     23321
 -2     23322     22613     22545     23253     23327     22619     23255     23328     23329     22620
 -1      3066    4    0    1
 -2      7709      7799      7809      7719      7710      7800      7810      7720     23255     23328
 -2     23329     22620     22552     23260     23334     22626     23262     23335     23336     22627
 -1      3067    4    0    1
 -2      7710      7800      7810      7720      7711      7801      7811      7721     23262     23335
 -2     23336     22627     22559     23267     23341     22633     23269     23342     23343     22634
 -1      3068    4    0    1
 -2      7711      7801      7811      7721      7712      7802      7812      7722     23269     23342
 -2     23343     22634     22566     23274     23348     22640     23276     23349     23350     22641
 -1      3069    4    0    1
 -2      7712      7802      7812      7722      4980      4989      4990      4981     23276     23349
 -2     23350     22641     22573     23281     23355     22647      5665      5667      5668      5638
 -1      3070    4    0    1
 -2       584       593        95        96      7713      7803      3244      3254      1271      1273
 -2       125      1244     22577     23285      3710      3742     23287     23359      3743     22651
 -1      3071    4    0    1
 -2      7713      7803      3244      3254      7714      7804      3245      3255     23287     23359
 -2      3743     22651     22584     23292      3713      3745     23294     23363      3746     22655
 -1      3072    4    0    1
 -2      7714      7804      3245      3255      7715      7805      3246      3256     23294     23363
 -2      3746     22655     22591     23299      3716      3748     23301     23367      3749     22659
 -1      3073    4    0    1
 -2      7715      7805      3246      3256      7716      7806      3247      3257     23301     23367
 -2      3749     22659     22598     23306      3719      3751     23308     23371      3752     22663
 -1      3074    4    0    1
 -2      7716      7806      3247      3257      7717      7807      3248      3258     23308     23371
 -2      3752     22663     22605     23313      3722      3754     23315     23375      3755     22667
 -1      3075    4    0    1
 -2      7717      7807      3248      3258      7718      7808      3249      3259     23315     23375
 -2      3755     22667     22612     23320      3725      3757     23322     23379      3758     22671
 -1      3076    4    0    1
 -2      7718      7808      3249      3259      7719      7809      3250      3260     23322     23379
 -2      3758     22671     22619     23327      3728      3760     23329     23383      3761     22675
 -1      3077    4    0    1
 -2      7719      7809      3250      3260      7720      7810      3251      3261     23329     23383
 -2      3761     22675     22626     23334      3731      3763     23336     23387      3764     22679
 -1      3078    4    0    1
 -2      7720      7810      3251      3261      7721      7811      3252      3262     23336     23387
 -2      3764     22679     22633     23341      3734      3766     23343     23391      3767     22683
 -1      3079    4    0    1
 -2      7721      7811      3252      3262      7722      7812      3253      3263     23343     23391
 -2      3767     22683     22640     23348      3737      3769     23350     23395      3770     22687
 -1      3080    4    0    1
 -2      7722      7812      3253      3263      4981      4990       251       252     23350     23395
 -2      3770     22687     22647     23355      3740      3772      5668      5670       281      5641
 -1      3081    4    0    1
 -2        29        30       594       585      1726      1736      7813      7723        59      1275
 -2      1276      1246      2456      2488     23401     22693      2489     23402     23403     22694
 -1      3082    4    0    1
 -2      1726      1736      7813      7723      1727      1737      7814      7724      2489     23402
 -2     23403     22694      2459      2491     23408     22700      2492     23409     23410     22701
 -1      3083    4    0    1
 -2      1727      1737      7814      7724      1728      1738      7815      7725      2492     23409
 -2     23410     22701      2462      2494     23415     22707      2495     23416     23417     22708
 -1      3084    4    0    1
 -2      1728      1738      7815      7725      1729      1739      7816      7726      2495     23416
 -2     23417     22708      2465      2497     23422     22714      2498     23423     23424     22715
 -1      3085    4    0    1
 -2      1729      1739      7816      7726      1730      1740      7817      7727      2498     23423
 -2     23424     22715      2468      2500     23429     22721      2501     23430     23431     22722
 -1      3086    4    0    1
 -2      1730      1740      7817      7727      1731      1741      7818      7728      2501     23430
 -2     23431     22722      2471      2503     23436     22728      2504     23437     23438     22729
 -1      3087    4    0    1
 -2      1731      1741      7818      7728      1732      1742      7819      7729      2504     23437
 -2     23438     22729      2474      2506     23443     22735      2507     23444     23445     22736
 -1      3088    4    0    1
 -2      1732      1742      7819      7729      1733      1743      7820      7730      2507     23444
 -2     23445     22736      2477      2509     23450     22742      2510     23451     23452     22743
 -1      3089    4    0    1
 -2      1733      1743      7820      7730      1734      1744      7821      7731      2510     23451
 -2     23452     22743      2480      2512     23457     22749      2513     23458     23459     22750
 -1      3090    4    0    1
 -2      1734      1744      7821      7731      1735      1745      7822      7732      2513     23458
 -2     23459     22750      2483      2515     23464     22756      2516     23465     23466     22757
 -1      3091    4    0    1
 -2      1735      1745      7822      7732       185       186      4991      4982      2516     23465
 -2     23466     22757      2486      2518     23471     22763       215      5672      5673      5643
 -1      3092    4    0    1
 -2       585       594       595       586      7723      7813      7823      7733      1276      1278
 -2      1279      1249     22693     23401     23475     22767     23403     23476     23477     22768
 -1      3093    4    0    1
 -2      7723      7813      7823      7733      7724      7814      7824      7734     23403     23476
 -2     23477     22768     22700     23408     23482     22774     23410     23483     23484     22775
 -1      3094    4    0    1
 -2      7724      7814      7824      7734      7725      7815      7825      7735     23410     23483
 -2     23484     22775     22707     23415     23489     22781     23417     23490     23491     22782
 -1      3095    4    0    1
 -2      7725      7815      7825      7735      7726      7816      7826      7736     23417     23490
 -2     23491     22782     22714     23422     23496     22788     23424     23497     23498     22789
 -1      3096    4    0    1
 -2      7726      7816      7826      7736      7727      7817      7827      7737     23424     23497
 -2     23498     22789     22721     23429     23503     22795     23431     23504     23505     22796
 -1      3097    4    0    1
 -2      7727      7817      7827      7737      7728      7818      7828      7738     23431     23504
 -2     23505     22796     22728     23436     23510     22802     23438     23511     23512     22803
 -1      3098    4    0    1
 -2      7728      7818      7828      7738      7729      7819      7829      7739     23438     23511
 -2     23512     22803     22735     23443     23517     22809     23445     23518     23519     22810
 -1      3099    4    0    1
 -2      7729      7819      7829      7739      7730      7820      7830      7740     23445     23518
 -2     23519     22810     22742     23450     23524     22816     23452     23525     23526     22817
 -1      3100    4    0    1
 -2      7730      7820      7830      7740      7731      7821      7831      7741     23452     23525
 -2     23526     22817     22749     23457     23531     22823     23459     23532     23533     22824
 -1      3101    4    0    1
 -2      7731      7821      7831      7741      7732      7822      7832      7742     23459     23532
 -2     23533     22824     22756     23464     23538     22830     23466     23539     23540     22831
 -1      3102    4    0    1
 -2      7732      7822      7832      7742      4982      4991      4992      4983     23466     23539
 -2     23540     22831     22763     23471     23545     22837      5673      5675      5676      5646
 -1      3103    4    0    1
 -2       586       595       596       587      7733      7823      7833      7743      1279      1281
 -2      1282      1252     22767     23475     23549     22841     23477     23550     23551     22842
 -1      3104    4    0    1
 -2      7733      7823      7833      7743      7734      7824      7834      7744     23477     23550
 -2     23551     22842     22774     23482     23556     22848     23484     23557     23558     22849
 -1      3105    4    0    1
 -2      7734      7824      7834      7744      7735      7825      7835      7745     23484     23557
 -2     23558     22849     22781     23489     23563     22855     23491     23564     23565     22856
 -1      3106    4    0    1
 -2      7735      7825      7835      7745      7736      7826      7836      7746     23491     23564
 -2     23565     22856     22788     23496     23570     22862     23498     23571     23572     22863
 -1      3107    4    0    1
 -2      7736      7826      7836      7746      7737      7827      7837      7747     23498     23571
 -2     23572     22863     22795     23503     23577     22869     23505     23578     23579     22870
 -1      3108    4    0    1
 -2      7737      7827      7837      7747      7738      7828      7838      7748     23505     23578
 -2     23579     22870     22802     23510     23584     22876     23512     23585     23586     22877
 -1      3109    4    0    1
 -2      7738      7828      7838      7748      7739      7829      7839      7749     23512     23585
 -2     23586     22877     22809     23517     23591     22883     23519     23592     23593     22884
 -1      3110    4    0    1
 -2      7739      7829      7839      7749      7740      7830      7840      7750     23519     23592
 -2     23593     22884     22816     23524     23598     22890     23526     23599     23600     22891
 -1      3111    4    0    1
 -2      7740      7830      7840      7750      7741      7831      7841      7751     23526     23599
 -2     23600     22891     22823     23531     23605     22897     23533     23606     23607     22898
 -1      3112    4    0    1
 -2      7741      7831      7841      7751      7742      7832      7842      7752     23533     23606
 -2     23607     22898     22830     23538     23612     22904     23540     23613     23614     22905
 -1      3113    4    0    1
 -2      7742      7832      7842      7752      4983      4992      4993      4984     23540     23613
 -2     23614     22905     22837     23545     23619     22911      5676      5678      5679      5649
 -1      3114    4    0    1
 -2       587       596       597       588      7743      7833      7843      7753      1282      1284
 -2      1285      1255     22841     23549     23623     22915     23551     23624     23625     22916
 -1      3115    4    0    1
 -2      7743      7833      7843      7753      7744      7834      7844      7754     23551     23624
 -2     23625     22916     22848     23556     23630     22922     23558     23631     23632     22923
 -1      3116    4    0    1
 -2      7744      7834      7844      7754      7745      7835      7845      7755     23558     23631
 -2     23632     22923     22855     23563     23637     22929     23565     23638     23639     22930
 -1      3117    4    0    1
 -2      7745      7835      7845      7755      7746      7836      7846      7756     23565     23638
 -2     23639     22930     22862     23570     23644     22936     23572     23645     23646     22937
 -1      3118    4    0    1
 -2      7746      7836      7846      7756      7747      7837      7847      7757     23572     23645
 -2     23646     22937     22869     23577     23651     22943     23579     23652     23653     22944
 -1      3119    4    0    1
 -2      7747      7837      7847      7757      7748      7838      7848      7758     23579     23652
 -2     23653     22944     22876     23584     23658     22950     23586     23659     23660     22951
 -1      3120    4    0    1
 -2      7748      7838      7848      7758      7749      7839      7849      7759     23586     23659
 -2     23660     22951     22883     23591     23665     22957     23593     23666     23667     22958
 -1      3121    4    0    1
 -2      7749      7839      7849      7759      7750      7840      7850      7760     23593     23666
 -2     23667     22958     22890     23598     23672     22964     23600     23673     23674     22965
 -1      3122    4    0    1
 -2      7750      7840      7850      7760      7751      7841      7851      7761     23600     23673
 -2     23674     22965     22897     23605     23679     22971     23607     23680     23681     22972
 -1      3123    4    0    1
 -2      7751      7841      7851      7761      7752      7842      7852      7762     23607     23680
 -2     23681     22972     22904     23612     23686     22978     23614     23687     23688     22979
 -1      3124    4    0    1
 -2      7752      7842      7852      7762      4984      4993      4994      4985     23614     23687
 -2     23688     22979     22911     23619     23693     22985      5679      5681      5682      5652
 -1      3125    4    0    1
 -2       588       597       598       589      7753      7843      7853      7763      1285      1287
 -2      1288      1258     22915     23623     23697     22989     23625     23698     23699     22990
 -1      3126    4    0    1
 -2      7753      7843      7853      7763      7754      7844      7854      7764     23625     23698
 -2     23699     22990     22922     23630     23704     22996     23632     23705     23706     22997
 -1      3127    4    0    1
 -2      7754      7844      7854      7764      7755      7845      7855      7765     23632     23705
 -2     23706     22997     22929     23637     23711     23003     23639     23712     23713     23004
 -1      3128    4    0    1
 -2      7755      7845      7855      7765      7756      7846      7856      7766     23639     23712
 -2     23713     23004     22936     23644     23718     23010     23646     23719     23720     23011
 -1      3129    4    0    1
 -2      7756      7846      7856      7766      7757      7847      7857      7767     23646     23719
 -2     23720     23011     22943     23651     23725     23017     23653     23726     23727     23018
 -1      3130    4    0    1
 -2      7757      7847      7857      7767      7758      7848      7858      7768     23653     23726
 -2     23727     23018     22950     23658     23732     23024     23660     23733     23734     23025
 -1      3131    4    0    1
 -2      7758      7848      7858      7768      7759      7849      7859      7769     23660     23733
 -2     23734     23025     22957     23665     23739     23031     23667     23740     23741     23032
 -1      3132    4    0    1
 -2      7759      7849      7859      7769      7760      7850      7860      7770     23667     23740
 -2     23741     23032     22964     23672     23746     23038     23674     23747     23748     23039
 -1      3133    4    0    1
 -2      7760      7850      7860      7770      7761      7851      7861      7771     23674     23747
 -2     23748     23039     22971     23679     23753     23045     23681     23754     23755     23046
 -1      3134    4    0    1
 -2      7761      7851      7861      7771      7762      7852      7862      7772     23681     23754
 -2     23755     23046     22978     23686     23760     23052     23688     23761     23762     23053
 -1      3135    4    0    1
 -2      7762      7852      7862      7772      4985      4994      4995      4986     23688     23761
 -2     23762     23053     22985     23693     23767     23059      5682      5684      5685      5655
 -1      3136    4    0    1
 -2       589       598       599       590      7763      7853      7863      7773      1288      1290
 -2      1291      1261     22989     23697     23771     23063     23699     23772     23773     23064
 -1      3137    4    0    1
 -2      7763      7853      7863      7773      7764      7854      7864      7774     23699     23772
 -2     23773     23064     22996     23704     23778     23070     23706     23779     23780     23071
 -1      3138    4    0    1
 -2      7764      7854      7864      7774      7765      7855      7865      7775     23706     23779
 -2     23780     23071     23003     23711     23785     23077     23713     23786     23787     23078
 -1      3139    4    0    1
 -2      7765      7855      7865      7775      7766      7856      7866      7776     23713     23786
 -2     23787     23078     23010     23718     23792     23084     23720     23793     23794     23085
 -1      3140    4    0    1
 -2      7766      7856      7866      7776      7767      7857      7867      7777     23720     23793
 -2     23794     23085     23017     23725     23799     23091     23727     23800     23801     23092
 -1      3141    4    0    1
 -2      7767      7857      7867      7777      7768      7858      7868      7778     23727     23800
 -2     23801     23092     23024     23732     23806     23098     23734     23807     23808     23099
 -1      3142    4    0    1
 -2      7768      7858      7868      7778      7769      7859      7869      7779     23734     23807
 -2     23808     23099     23031     23739     23813     23105     23741     23814     23815     23106
 -1      3143    4    0    1
 -2      7769      7859      7869      7779      7770      7860      7870      7780     23741     23814
 -2     23815     23106     23038     23746     23820     23112     23748     23821     23822     23113
 -1      3144    4    0    1
 -2      7770      7860      7870      7780      7771      7861      7871      7781     23748     23821
 -2     23822     23113     23045     23753     23827     23119     23755     23828     23829     23120
 -1      3145    4    0    1
 -2      7771      7861      7871      7781      7772      7862      7872      7782     23755     23828
 -2     23829     23120     23052     23760     23834     23126     23762     23835     23836     23127
 -1      3146    4    0    1
 -2      7772      7862      7872      7782      4986      4995      4996      4987     23762     23835
 -2     23836     23127     23059     23767     23841     23133      5685      5687      5688      5658
 -1      3147    4    0    1
 -2       590       599       600       591      7773      7863      7873      7783      1291      1293
 -2      1294      1264     23063     23771     23845     23137     23773     23846     23847     23138
 -1      3148    4    0    1
 -2      7773      7863      7873      7783      7774      7864      7874      7784     23773     23846
 -2     23847     23138     23070     23778     23852     23144     23780     23853     23854     23145
 -1      3149    4    0    1
 -2      7774      7864      7874      7784      7775      7865      7875      7785     23780     23853
 -2     23854     23145     23077     23785     23859     23151     23787     23860     23861     23152
 -1      3150    4    0    1
 -2      7775      7865      7875      7785      7776      7866      7876      7786     23787     23860
 -2     23861     23152     23084     23792     23866     23158     23794     23867     23868     23159
 -1      3151    4    0    1
 -2      7776      7866      7876      7786      7777      7867      7877      7787     23794     23867
 -2     23868     23159     23091     23799     23873     23165     23801     23874     23875     23166
 -1      3152    4    0    1
 -2      7777      7867      7877      7787      7778      7868      7878      7788     23801     23874
 -2     23875     23166     23098     23806     23880     23172     23808     23881     23882     23173
 -1      3153    4    0    1
 -2      7778      7868      7878      7788      7779      7869      7879      7789     23808     23881
 -2     23882     23173     23105     23813     23887     23179     23815     23888     23889     23180
 -1      3154    4    0    1
 -2      7779      7869      7879      7789      7780      7870      7880      7790     23815     23888
 -2     23889     23180     23112     23820     23894     23186     23822     23895     23896     23187
 -1      3155    4    0    1
 -2      7780      7870      7880      7790      7781      7871      7881      7791     23822     23895
 -2     23896     23187     23119     23827     23901     23193     23829     23902     23903     23194
 -1      3156    4    0    1
 -2      7781      7871      7881      7791      7782      7872      7882      7792     23829     23902
 -2     23903     23194     23126     23834     23908     23200     23836     23909     23910     23201
 -1      3157    4    0    1
 -2      7782      7872      7882      7792      4987      4996      4997      4988     23836     23909
 -2     23910     23201     23133     23841     23915     23207      5688      5690      5691      5661
 -1      3158    4    0    1
 -2       591       600       601       592      7783      7873      7883      7793      1294      1296
 -2      1297      1267     23137     23845     23919     23211     23847     23920     23921     23212
 -1      3159    4    0    1
 -2      7783      7873      7883      7793      7784      7874      7884      7794     23847     23920
 -2     23921     23212     23144     23852     23926     23218     23854     23927     23928     23219
 -1      3160    4    0    1
 -2      7784      7874      7884      7794      7785      7875      7885      7795     23854     23927
 -2     23928     23219     23151     23859     23933     23225     23861     23934     23935     23226
 -1      3161    4    0    1
 -2      7785      7875      7885      7795      7786      7876      7886      7796     23861     23934
 -2     23935     23226     23158     23866     23940     23232     23868     23941     23942     23233
 -1      3162    4    0    1
 -2      7786      7876      7886      7796      7787      7877      7887      7797     23868     23941
 -2     23942     23233     23165     23873     23947     23239     23875     23948     23949     23240
 -1      3163    4    0    1
 -2      7787      7877      7887      7797      7788      7878      7888      7798     23875     23948
 -2     23949     23240     23172     23880     23954     23246     23882     23955     23956     23247
 -1      3164    4    0    1
 -2      7788      7878      7888      7798      7789      7879      7889      7799     23882     23955
 -2     23956     23247     23179     23887     23961     23253     23889     23962     23963     23254
 -1      3165    4    0    1
 -2      7789      7879      7889      7799      7790      7880      7890      7800     23889     23962
 -2     23963     23254     23186     23894     23968     23260     23896     23969     23970     23261
 -1      3166    4    0    1
 -2      7790      7880      7890      7800      7791      7881      7891      7801     23896     23969
 -2     23970     23261     23193     23901     23975     23267     23903     23976     23977     23268
 -1      3167    4    0    1
 -2      7791      7881      7891      7801      7792      7882      7892      7802     23903     23976
 -2     23977     23268     23200     23908     23982     23274     23910     23983     23984     23275
 -1      3168    4    0    1
 -2      7792      7882      7892      7802      4988      4997      4998      4989     23910     23983
 -2     23984     23275     23207     23915     23989     23281      5691      5693      5694      5664
 -1      3169    4    0    1
 -2       592       601       602       593      7793      7883      7893      7803      1297      1299
 -2      1300      1270     23211     23919     23993     23285     23921     23994     23995     23286
 -1      3170    4    0    1
 -2      7793      7883      7893      7803      7794      7884      7894      7804     23921     23994
 -2     23995     23286     23218     23926     24000     23292     23928     24001     24002     23293
 -1      3171    4    0    1
 -2      7794      7884      7894      7804      7795      7885      7895      7805     23928     24001
 -2     24002     23293     23225     23933     24007     23299     23935     24008     24009     23300
 -1      3172    4    0    1
 -2      7795      7885      7895      7805      7796      7886      7896      7806     23935     24008
 -2     24009     23300     23232     23940     24014     23306     23942     24015     24016     23307
 -1      3173    4    0    1
 -2      7796      7886      7896      7806      7797      7887      7897      7807     23942     24015
 -2     24016     23307     23239     23947     24021     23313     23949     24022     24023     23314
 -1      3174    4    0    1
 -2      7797      7887      7897      7807      7798      7888      7898      7808     23949     24022
 -2     24023     23314     23246     23954     24028     23320     23956     24029     24030     23321
 -1      3175    4    0    1
 -2      7798      7888      7898      7808      7799      7889      7899      7809     23956     24029
 -2     24030     23321     23253     23961     24035     23327     23963     24036     24037     23328
 -1      3176    4    0    1
 -2      7799      7889      7899      7809      7800      7890      7900      7810     23963     24036
 -2     24037     23328     23260     23968     24042     23334     23970     24043     24044     23335
 -1      3177    4    0    1
 -2      7800      7890      7900      7810      7801      7891      7901      7811     23970     24043
 -2     24044     23335     23267     23975     24049     23341     23977     24050     24051     23342
 -1      3178    4    0    1
 -2      7801      7891      7901      7811      7802      7892      7902      7812     23977     24050
 -2     24051     23342     23274     23982     24056     23348     23984     24057     24058     23349
 -1      3179    4    0    1
 -2      7802      7892      7902      7812      4989      4998      4999      4990     23984     24057
 -2     24058     23349     23281     23989     24063     23355      5694      5696      5697      5667
 -1      3180    4    0    1
 -2       593       602        94        95      7803      7893      3234      3244      1300      1302
 -2       124      1273     23285     23993      3678      3710     23995     24067      3711     23359
 -1      3181    4    0    1
 -2      7803      7893      3234      3244      7804      7894      3235      3245     23995     24067
 -2      3711     23359     23292     24000      3681      3713     24002     24071      3714     23363
 -1      3182    4    0    1
 -2      7804      7894      3235      3245      7805      7895      3236      3246     24002     24071
 -2      3714     23363     23299     24007      3684      3716     24009     24075      3717     23367
 -1      3183    4    0    1
 -2      7805      7895      3236      3246      7806      7896      3237      3247     24009     24075
 -2      3717     23367     23306     24014      3687      3719     24016     24079      3720     23371
 -1      3184    4    0    1
 -2      7806      7896      3237      3247      7807      7897      3238      3248     24016     24079
 -2      3720     23371     23313     24021      3690      3722     24023     24083      3723     23375
 -1      3185    4    0    1
 -2      7807      7897      3238      3248      7808      7898      3239      3249     24023     24083
 -2      3723     23375     23320     24028      3693      3725     24030     24087      3726     23379
 -1      3186    4    0    1
 -2      7808      7898      3239      3249      7809      7899      3240      3250     24030     24087
 -2      3726     23379     23327     24035      3696      3728     24037     24091      3729     23383
 -1      3187    4    0    1
 -2      7809      7899      3240      3250      7810      7900      3241      3251     24037     24091
 -2      3729     23383     23334     24042      3699      3731     24044     24095      3732     23387
 -1      3188    4    0    1
 -2      7810      7900      3241      3251      7811      7901      3242      3252     24044     24095
 -2      3732     23387     23341     24049      3702      3734     24051     24099      3735     23391
 -1      3189    4    0    1
 -2      7811      7901      3242      3252      7812      7902      3243      3253     24051     24099
 -2      3735     23391     23348     24056      3705      3737     24058     24103      3738     23395
 -1      3190    4    0    1
 -2      7812      7902      3243      3253      4990      4999       250       251     24058     24103
 -2      3738     23395     23355     24063      3708      3740      5697      5699       280      5670
 -1      3191    4    0    1
 -2        30        31       603       594      1736      1746      7903      7813        60      1304
 -2      1305      1275      2488      2520     24109     23401      2521     24110     24111     23402
 -1      3192    4    0    1
 -2      1736      1746      7903      7813      1737      1747      7904      7814      2521     24110
 -2     24111     23402      2491      2523     24116     23408      2524     24117     24118     23409
 -1      3193    4    0    1
 -2      1737      1747      7904      7814      1738      1748      7905      7815      2524     24117
 -2     24118     23409      2494      2526     24123     23415      2527     24124     24125     23416
 -1      3194    4    0    1
 -2      1738      1748      7905      7815      1739      1749      7906      7816      2527     24124
 -2     24125     23416      2497      2529     24130     23422      2530     24131     24132     23423
 -1      3195    4    0    1
 -2      1739      1749      7906      7816      1740      1750      7907      7817      2530     24131
 -2     24132     23423      2500      2532     24137     23429      2533     24138     24139     23430
 -1      3196    4    0    1
 -2      1740      1750      7907      7817      1741      1751      7908      7818      2533     24138
 -2     24139     23430      2503      2535     24144     23436      2536     24145     24146     23437
 -1      3197    4    0    1
 -2      1741      1751      7908      7818      1742      1752      7909      7819      2536     24145
 -2     24146     23437      2506      2538     24151     23443      2539     24152     24153     23444
 -1      3198    4    0    1
 -2      1742      1752      7909      7819      1743      1753      7910      7820      2539     24152
 -2     24153     23444      2509      2541     24158     23450      2542     24159     24160     23451
 -1      3199    4    0    1
 -2      1743      1753      7910      7820      1744      1754      7911      7821      2542     24159
 -2     24160     23451      2512      2544     24165     23457      2545     24166     24167     23458
 -1      3200    4    0    1
 -2      1744      1754      7911      7821      1745      1755      7912      7822      2545     24166
 -2     24167     23458      2515      2547     24172     23464      2548     24173     24174     23465
 -1      3201    4    0    1
 -2      1745      1755      7912      7822       186       187      5000      4991      2548     24173
 -2     24174     23465      2518      2550     24179     23471       216      5701      5702      5672
 -1      3202    4    0    1
 -2       594       603       604       595      7813      7903      7913      7823      1305      1307
 -2      1308      1278     23401     24109     24183     23475     24111     24184     24185     23476
 -1      3203    4    0    1
 -2      7813      7903      7913      7823      7814      7904      7914      7824     24111     24184
 -2     24185     23476     23408     24116     24190     23482     24118     24191     24192     23483
 -1      3204    4    0    1
 -2      7814      7904      7914      7824      7815      7905      7915      7825     24118     24191
 -2     24192     23483     23415     24123     24197     23489     24125     24198     24199     23490
 -1      3205    4    0    1
 -2      7815      7905      7915      7825      7816      7906      7916      7826     24125     24198
 -2     24199     23490     23422     24130     24204     23496     24132     24205     24206     23497
 -1      3206    4    0    1
 -2      7816      7906      7916      7826      7817      7907      7917      7827     24132     24205
 -2     24206     23497     23429     24137     24211     23503     24139     24212     24213     23504
 -1      3207    4    0    1
 -2      7817      7907      7917      7827      7818      7908      7918      7828     24139     24212
 -2     24213     23504     23436     24144     24218     23510     24146     24219     24220     23511
 -1      3208    4    0    1
 -2      7818      7908      7918      7828      7819      7909      7919      7829     24146     24219
 -2     24220     23511     23443     24151     24225     23517     24153     24226     24227     23518
 -1      3209    4    0    1
 -2      7819      7909      7919      7829      7820      7910      7920      7830     24153     24226
 -2     24227     23518     23450     24158     24232     23524     24160     24233     24234     23525
 -1      3210    4    0    1
 -2      7820      7910      7920      7830      7821      7911      7921      7831     24160     24233
 -2     24234     23525     23457     24165     24239     23531     24167     24240     24241     23532
 -1      3211    4    0    1
 -2      7821      7911      7921      7831      7822      7912      7922      7832     24167     24240
 -2     24241     23532     23464     24172     24246     23538     24174     24247     24248     23539
 -1      3212    4    0    1
 -2      7822      7912      7922      7832      4991      5000      5001      4992     24174     24247
 -2     24248     23539     23471     24179     24253     23545      5702      5704      5705      5675
 -1      3213    4    0    1
 -2       595       604       605       596      7823      7913      7923      7833      1308      1310
 -2      1311      1281     23475     24183     24257     23549     24185     24258     24259     23550
 -1      3214    4    0    1
 -2      7823      7913      7923      7833      7824      7914      7924      7834     24185     24258
 -2     24259     23550     23482     24190     24264     23556     24192     24265     24266     23557
 -1      3215    4    0    1
 -2      7824      7914      7924      7834      7825      7915      7925      7835     24192     24265
 -2     24266     23557     23489     24197     24271     23563     24199     24272     24273     23564
 -1      3216    4    0    1
 -2      7825      7915      7925      7835      7826      7916      7926      7836     24199     24272
 -2     24273     23564     23496     24204     24278     23570     24206     24279     24280     23571
 -1      3217    4    0    1
 -2      7826      7916      7926      7836      7827      7917      7927      7837     24206     24279
 -2     24280     23571     23503     24211     24285     23577     24213     24286     24287     23578
 -1      3218    4    0    1
 -2      7827      7917      7927      7837      7828      7918      7928      7838     24213     24286
 -2     24287     23578     23510     24218     24292     23584     24220     24293     24294     23585
 -1      3219    4    0    1
 -2      7828      7918      7928      7838      7829      7919      7929      7839     24220     24293
 -2     24294     23585     23517     24225     24299     23591     24227     24300     24301     23592
 -1      3220    4    0    1
 -2      7829      7919      7929      7839      7830      7920      7930      7840     24227     24300
 -2     24301     23592     23524     24232     24306     23598     24234     24307     24308     23599
 -1      3221    4    0    1
 -2      7830      7920      7930      7840      7831      7921      7931      7841     24234     24307
 -2     24308     23599     23531     24239     24313     23605     24241     24314     24315     23606
 -1      3222    4    0    1
 -2      7831      7921      7931      7841      7832      7922      7932      7842     24241     24314
 -2     24315     23606     23538     24246     24320     23612     24248     24321     24322     23613
 -1      3223    4    0    1
 -2      7832      7922      7932      7842      4992      5001      5002      4993     24248     24321
 -2     24322     23613     23545     24253     24327     23619      5705      5707      5708      5678
 -1      3224    4    0    1
 -2       596       605       606       597      7833      7923      7933      7843      1311      1313
 -2      1314      1284     23549     24257     24331     23623     24259     24332     24333     23624
 -1      3225    4    0    1
 -2      7833      7923      7933      7843      7834      7924      7934      7844     24259     24332
 -2     24333     23624     23556     24264     24338     23630     24266     24339     24340     23631
 -1      3226    4    0    1
 -2      7834      7924      7934      7844      7835      7925      7935      7845     24266     24339
 -2     24340     23631     23563     24271     24345     23637     24273     24346     24347     23638
 -1      3227    4    0    1
 -2      7835      7925      7935      7845      7836      7926      7936      7846     24273     24346
 -2     24347     23638     23570     24278     24352     23644     24280     24353     24354     23645
 -1      3228    4    0    1
 -2      7836      7926      7936      7846      7837      7927      7937      7847     24280     24353
 -2     24354     23645     23577     24285     24359     23651     24287     24360     24361     23652
 -1      3229    4    0    1
 -2      7837      7927      7937      7847      7838      7928      7938      7848     24287     24360
 -2     24361     23652     23584     24292     24366     23658     24294     24367     24368     23659
 -1      3230    4    0    1
 -2      7838      7928      7938      7848      7839      7929      7939      7849     24294     24367
 -2     24368     23659     23591     24299     24373     23665     24301     24374     24375     23666
 -1      3231    4    0    1
 -2      7839      7929      7939      7849      7840      7930      7940      7850     24301     24374
 -2     24375     23666     23598     24306     24380     23672     24308     24381     24382     23673
 -1      3232    4    0    1
 -2      7840      7930      7940      7850      7841      7931      7941      7851     24308     24381
 -2     24382     23673     23605     24313     24387     23679     24315     24388     24389     23680
 -1      3233    4    0    1
 -2      7841      7931      7941      7851      7842      7932      7942      7852     24315     24388
 -2     24389     23680     23612     24320     24394     23686     24322     24395     24396     23687
 -1      3234    4    0    1
 -2      7842      7932      7942      7852      4993      5002      5003      4994     24322     24395
 -2     24396     23687     23619     24327     24401     23693      5708      5710      5711      5681
 -1      3235    4    0    1
 -2       597       606       607       598      7843      7933      7943      7853      1314      1316
 -2      1317      1287     23623     24331     24405     23697     24333     24406     24407     23698
 -1      3236    4    0    1
 -2      7843      7933      7943      7853      7844      7934      7944      7854     24333     24406
 -2     24407     23698     23630     24338     24412     23704     24340     24413     24414     23705
 -1      3237    4    0    1
 -2      7844      7934      7944      7854      7845      7935      7945      7855     24340     24413
 -2     24414     23705     23637     24345     24419     23711     24347     24420     24421     23712
 -1      3238    4    0    1
 -2      7845      7935      7945      7855      7846      7936      7946      7856     24347     24420
 -2     24421     23712     23644     24352     24426     23718     24354     24427     24428     23719
 -1      3239    4    0    1
 -2      7846      7936      7946      7856      7847      7937      7947      7857     24354     24427
 -2     24428     23719     23651     24359     24433     23725     24361     24434     24435     23726
 -1      3240    4    0    1
 -2      7847      7937      7947      7857      7848      7938      7948      7858     24361     24434
 -2     24435     23726     23658     24366     24440     23732     24368     24441     24442     23733
 -1      3241    4    0    1
 -2      7848      7938      7948      7858      7849      7939      7949      7859     24368     24441
 -2     24442     23733     23665     24373     24447     23739     24375     24448     24449     23740
 -1      3242    4    0    1
 -2      7849      7939      7949      7859      7850      7940      7950      7860     24375     24448
 -2     24449     23740     23672     24380     24454     23746     24382     24455     24456     23747
 -1      3243    4    0    1
 -2      7850      7940      7950      7860      7851      7941      7951      7861     24382     24455
 -2     24456     23747     23679     24387     24461     23753     24389     24462     24463     23754
 -1      3244    4    0    1
 -2      7851      7941      7951      7861      7852      7942      7952      7862     24389     24462
 -2     24463     23754     23686     24394     24468     23760     24396     24469     24470     23761
 -1      3245    4    0    1
 -2      7852      7942      7952      7862      4994      5003      5004      4995     24396     24469
 -2     24470     23761     23693     24401     24475     23767      5711      5713      5714      5684
 -1      3246    4    0    1
 -2       598       607       608       599      7853      7943      7953      7863      1317      1319
 -2      1320      1290     23697     24405     24479     23771     24407     24480     24481     23772
 -1      3247    4    0    1
 -2      7853      7943      7953      7863      7854      7944      7954      7864     24407     24480
 -2     24481     23772     23704     24412     24486     23778     24414     24487     24488     23779
 -1      3248    4    0    1
 -2      7854      7944      7954      7864      7855      7945      7955      7865     24414     24487
 -2     24488     23779     23711     24419     24493     23785     24421     24494     24495     23786
 -1      3249    4    0    1
 -2      7855      7945      7955      7865      7856      7946      7956      7866     24421     24494
 -2     24495     23786     23718     24426     24500     23792     24428     24501     24502     23793
 -1      3250    4    0    1
 -2      7856      7946      7956      7866      7857      7947      7957      7867     24428     24501
 -2     24502     23793     23725     24433     24507     23799     24435     24508     24509     23800
 -1      3251    4    0    1
 -2      7857      7947      7957      7867      7858      7948      7958      7868     24435     24508
 -2     24509     23800     23732     24440     24514     23806     24442     24515     24516     23807
 -1      3252    4    0    1
 -2      7858      7948      7958      7868      7859      7949      7959      7869     24442     24515
 -2     24516     23807     23739     24447     24521     23813     24449     24522     24523     23814
 -1      3253    4    0    1
 -2      7859      7949      7959      7869      7860      7950      7960      7870     24449     24522
 -2     24523     23814     23746     24454     24528     23820     24456     24529     24530     23821
 -1      3254    4    0    1
 -2      7860      7950      7960      7870      7861      7951      7961      7871     24456     24529
 -2     24530     23821     23753     24461     24535     23827     24463     24536     24537     23828
 -1      3255    4    0    1
 -2      7861      7951      7961      7871      7862      7952      7962      7872     24463     24536
 -2     24537     23828     23760     24468     24542     23834     24470     24543     24544     23835
 -1      3256    4    0    1
 -2      7862      7952      7962      7872      4995      5004      5005      4996     24470     24543
 -2     24544     23835     23767     24475     24549     23841      5714      5716      5717      5687
 -1      3257    4    0    1
 -2       599       608       609       600      7863      7953      7963      7873      1320      1322
 -2      1323      1293     23771     24479     24553     23845     24481     24554     24555     23846
 -1      3258    4    0    1
 -2      7863      7953      7963      7873      7864      7954      7964      7874     24481     24554
 -2     24555     23846     23778     24486     24560     23852     24488     24561     24562     23853
 -1      3259    4    0    1
 -2      7864      7954      7964      7874      7865      7955      7965      7875     24488     24561
 -2     24562     23853     23785     24493     24567     23859     24495     24568     24569     23860
 -1      3260    4    0    1
 -2      7865      7955      7965      7875      7866      7956      7966      7876     24495     24568
 -2     24569     23860     23792     24500     24574     23866     24502     24575     24576     23867
 -1      3261    4    0    1
 -2      7866      7956      7966      7876      7867      7957      7967      7877     24502     24575
 -2     24576     23867     23799     24507     24581     23873     24509     24582     24583     23874
 -1      3262    4    0    1
 -2      7867      7957      7967      7877      7868      7958      7968      7878     24509     24582
 -2     24583     23874     23806     24514     24588     23880     24516     24589     24590     23881
 -1      3263    4    0    1
 -2      7868      7958      7968      7878      7869      7959      7969      7879     24516     24589
 -2     24590     23881     23813     24521     24595     23887     24523     24596     24597     23888
 -1      3264    4    0    1
 -2      7869      7959      7969      7879      7870      7960      7970      7880     24523     24596
 -2     24597     23888     23820     24528     24602     23894     24530     24603     24604     23895
 -1      3265    4    0    1
 -2      7870      7960      7970      7880      7871      7961      7971      7881     24530     24603
 -2     24604     23895     23827     24535     24609     23901     24537     24610     24611     23902
 -1      3266    4    0    1
 -2      7871      7961      7971      7881      7872      7962      7972      7882     24537     24610
 -2     24611     23902     23834     24542     24616     23908     24544     24617     24618     23909
 -1      3267    4    0    1
 -2      7872      7962      7972      7882      4996      5005      5006      4997     24544     24617
 -2     24618     23909     23841     24549     24623     23915      5717      5719      5720      5690
 -1      3268    4    0    1
 -2       600       609       610       601      7873      7963      7973      7883      1323      1325
 -2      1326      1296     23845     24553     24627     23919     24555     24628     24629     23920
 -1      3269    4    0    1
 -2      7873      7963      7973      7883      7874      7964      7974      7884     24555     24628
 -2     24629     23920     23852     24560     24634     23926     24562     24635     24636     23927
 -1      3270    4    0    1
 -2      7874      7964      7974      7884      7875      7965      7975      7885     24562     24635
 -2     24636     23927     23859     24567     24641     23933     24569     24642     24643     23934
 -1      3271    4    0    1
 -2      7875      7965      7975      7885      7876      7966      7976      7886     24569     24642
 -2     24643     23934     23866     24574     24648     23940     24576     24649     24650     23941
 -1      3272    4    0    1
 -2      7876      7966      7976      7886      7877      7967      7977      7887     24576     24649
 -2     24650     23941     23873     24581     24655     23947     24583     24656     24657     23948
 -1      3273    4    0    1
 -2      7877      7967      7977      7887      7878      7968      7978      7888     24583     24656
 -2     24657     23948     23880     24588     24662     23954     24590     24663     24664     23955
 -1      3274    4    0    1
 -2      7878      7968      7978      7888      7879      7969      7979      7889     24590     24663
 -2     24664     23955     23887     24595     24669     23961     24597     24670     24671     23962
 -1      3275    4    0    1
 -2      7879      7969      7979      7889      7880      7970      7980      7890     24597     24670
 -2     24671     23962     23894     24602     24676     23968     24604     24677     24678     23969
 -1      3276    4    0    1
 -2      7880      7970      7980      7890      7881      7971      7981      7891     24604     24677
 -2     24678     23969     23901     24609     24683     23975     24611     24684     24685     23976
 -1      3277    4    0    1
 -2      7881      7971      7981      7891      7882      7972      7982      7892     24611     24684
 -2     24685     23976     23908     24616     24690     23982     24618     24691     24692     23983
 -1      3278    4    0    1
 -2      7882      7972      7982      7892      4997      5006      5007      4998     24618     24691
 -2     24692     23983     23915     24623     24697     23989      5720      5722      5723      5693
 -1      3279    4    0    1
 -2       601       610       611       602      7883      7973      7983      7893      1326      1328
 -2      1329      1299     23919     24627     24701     23993     24629     24702     24703     23994
 -1      3280    4    0    1
 -2      7883      7973      7983      7893      7884      7974      7984      7894     24629     24702
 -2     24703     23994     23926     24634     24708     24000     24636     24709     24710     24001
 -1      3281    4    0    1
 -2      7884      7974      7984      7894      7885      7975      7985      7895     24636     24709
 -2     24710     24001     23933     24641     24715     24007     24643     24716     24717     24008
 -1      3282    4    0    1
 -2      7885      7975      7985      7895      7886      7976      7986      7896     24643     24716
 -2     24717     24008     23940     24648     24722     24014     24650     24723     24724     24015
 -1      3283    4    0    1
 -2      7886      7976      7986      7896      7887      7977      7987      7897     24650     24723
 -2     24724     24015     23947     24655     24729     24021     24657     24730     24731     24022
 -1      3284    4    0    1
 -2      7887      7977      7987      7897      7888      7978      7988      7898     24657     24730
 -2     24731     24022     23954     24662     24736     24028     24664     24737     24738     24029
 -1      3285    4    0    1
 -2      7888      7978      7988      7898      7889      7979      7989      7899     24664     24737
 -2     24738     24029     23961     24669     24743     24035     24671     24744     24745     24036
 -1      3286    4    0    1
 -2      7889      7979      7989      7899      7890      7980      7990      7900     24671     24744
 -2     24745     24036     23968     24676     24750     24042     24678     24751     24752     24043
 -1      3287    4    0    1
 -2      7890      7980      7990      7900      7891      7981      7991      7901     24678     24751
 -2     24752     24043     23975     24683     24757     24049     24685     24758     24759     24050
 -1      3288    4    0    1
 -2      7891      7981      7991      7901      7892      7982      7992      7902     24685     24758
 -2     24759     24050     23982     24690     24764     24056     24692     24765     24766     24057
 -1      3289    4    0    1
 -2      7892      7982      7992      7902      4998      5007      5008      4999     24692     24765
 -2     24766     24057     23989     24697     24771     24063      5723      5725      5726      5696
 -1      3290    4    0    1
 -2       602       611        93        94      7893      7983      3224      3234      1329      1331
 -2       123      1302     23993     24701      3646      3678     24703     24775      3679     24067
 -1      3291    4    0    1
 -2      7893      7983      3224      3234      7894      7984      3225      3235     24703     24775
 -2      3679     24067     24000     24708      3649      3681     24710     24779      3682     24071
 -1      3292    4    0    1
 -2      7894      7984      3225      3235      7895      7985      3226      3236     24710     24779
 -2      3682     24071     24007     24715      3652      3684     24717     24783      3685     24075
 -1      3293    4    0    1
 -2      7895      7985      3226      3236      7896      7986      3227      3237     24717     24783
 -2      3685     24075     24014     24722      3655      3687     24724     24787      3688     24079
 -1      3294    4    0    1
 -2      7896      7986      3227      3237      7897      7987      3228      3238     24724     24787
 -2      3688     24079     24021     24729      3658      3690     24731     24791      3691     24083
 -1      3295    4    0    1
 -2      7897      7987      3228      3238      7898      7988      3229      3239     24731     24791
 -2      3691     24083     24028     24736      3661      3693     24738     24795      3694     24087
 -1      3296    4    0    1
 -2      7898      7988      3229      3239      7899      7989      3230      3240     24738     24795
 -2      3694     24087     24035     24743      3664      3696     24745     24799      3697     24091
 -1      3297    4    0    1
 -2      7899      7989      3230      3240      7900      7990      3231      3241     24745     24799
 -2      3697     24091     24042     24750      3667      3699     24752     24803      3700     24095
 -1      3298    4    0    1
 -2      7900      7990      3231      3241      7901      7991      3232      3242     24752     24803
 -2      3700     24095     24049     24757      3670      3702     24759     24807      3703     24099
 -1      3299    4    0    1
 -2      7901      7991      3232      3242      7902      7992      3233      3243     24759     24807
 -2      3703     24099     24056     24764      3673      3705     24766     24811      3706     24103
 -1      3300    4    0    1
 -2      7902      7992      3233      3243      4999      5008       249       250     24766     24811
 -2      3706     24103     24063     24771      3676      3708      5726      5728       279      5699
 -1      3301    4    0    1
 -2        31        32       612       603      1746      1756      7993      7903        61      1333
 -2      1334      1304      2520      2552     24817     24109      2553     24818     24819     24110
 -1      3302    4    0    1
 -2      1746      1756      7993      7903      1747      1757      7994      7904      2553     24818
 -2     24819     24110      2523      2555     24824     24116      2556     24825     24826     24117
 -1      3303    4    0    1
 -2      1747      1757      7994      7904      1748      1758      7995      7905      2556     24825
 -2     24826     24117      2526      2558     24831     24123      2559     24832     24833     24124
 -1      3304    4    0    1
 -2      1748      1758      7995      7905      1749      1759      7996      7906      2559     24832
 -2     24833     24124      2529      2561     24838     24130      2562     24839     24840     24131
 -1      3305    4    0    1
 -2      1749      1759      7996      7906      1750      1760      7997      7907      2562     24839
 -2     24840     24131      2532      2564     24845     24137      2565     24846     24847     24138
 -1      3306    4    0    1
 -2      1750      1760      7997      7907      1751      1761      7998      7908      2565     24846
 -2     24847     24138      2535      2567     24852     24144      2568     24853     24854     24145
 -1      3307    4    0    1
 -2      1751      1761      7998      7908      1752      1762      7999      7909      2568     24853
 -2     24854     24145      2538      2570     24859     24151      2571     24860     24861     24152
 -1      3308    4    0    1
 -2      1752      1762      7999      7909      1753      1763      8000      7910      2571     24860
 -2     24861     24152      2541      2573     24866     24158      2574     24867     24868     24159
 -1      3309    4    0    1
 -2      1753      1763      8000      7910      1754      1764      8001      7911      2574     24867
 -2     24868     24159      2544      2576     24873     24165      2577     24874     24875     24166
 -1      3310    4    0    1
 -2      1754      1764      8001      7911      1755      1765      8002      7912      2577     24874
 -2     24875     24166      2547      2579     24880     24172      2580     24881     24882     24173
 -1      3311    4    0    1
 -2      1755      1765      8002      7912       187       188      5009      5000      2580     24881
 -2     24882     24173      2550      2582     24887     24179       217      5730      5731      5701
 -1      3312    4    0    1
 -2       603       612       613       604      7903      7993      8003      7913      1334      1336
 -2      1337      1307     24109     24817     24891     24183     24819     24892     24893     24184
 -1      3313    4    0    1
 -2      7903      7993      8003      7913      7904      7994      8004      7914     24819     24892
 -2     24893     24184     24116     24824     24898     24190     24826     24899     24900     24191
 -1      3314    4    0    1
 -2      7904      7994      8004      7914      7905      7995      8005      7915     24826     24899
 -2     24900     24191     24123     24831     24905     24197     24833     24906     24907     24198
 -1      3315    4    0    1
 -2      7905      7995      8005      7915      7906      7996      8006      7916     24833     24906
 -2     24907     24198     24130     24838     24912     24204     24840     24913     24914     24205
 -1      3316    4    0    1
 -2      7906      7996      8006      7916      7907      7997      8007      7917     24840     24913
 -2     24914     24205     24137     24845     24919     24211     24847     24920     24921     24212
 -1      3317    4    0    1
 -2      7907      7997      8007      7917      7908      7998      8008      7918     24847     24920
 -2     24921     24212     24144     24852     24926     24218     24854     24927     24928     24219
 -1      3318    4    0    1
 -2      7908      7998      8008      7918      7909      7999      8009      7919     24854     24927
 -2     24928     24219     24151     24859     24933     24225     24861     24934     24935     24226
 -1      3319    4    0    1
 -2      7909      7999      8009      7919      7910      8000      8010      7920     24861     24934
 -2     24935     24226     24158     24866     24940     24232     24868     24941     24942     24233
 -1      3320    4    0    1
 -2      7910      8000      8010      7920      7911      8001      8011      7921     24868     24941
 -2     24942     24233     24165     24873     24947     24239     24875     24948     24949     24240
 -1      3321    4    0    1
 -2      7911      8001      8011      7921      7912      8002      8012      7922     24875     24948
 -2     24949     24240     24172     24880     24954     24246     24882     24955     24956     24247
 -1      3322    4    0    1
 -2      7912      8002      8012      7922      5000      5009      5010      5001     24882     24955
 -2     24956     24247     24179     24887     24961     24253      5731      5733      5734      5704
 -1      3323    4    0    1
 -2       604       613       614       605      7913      8003      8013      7923      1337      1339
 -2      1340      1310     24183     24891     24965     24257     24893     24966     24967     24258
 -1      3324    4    0    1
 -2      7913      8003      8013      7923      7914      8004      8014      7924     24893     24966
 -2     24967     24258     24190     24898     24972     24264     24900     24973     24974     24265
 -1      3325    4    0    1
 -2      7914      8004      8014      7924      7915      8005      8015      7925     24900     24973
 -2     24974     24265     24197     24905     24979     24271     24907     24980     24981     24272
 -1      3326    4    0    1
 -2      7915      8005      8015      7925      7916      8006      8016      7926     24907     24980
 -2     24981     24272     24204     24912     24986     24278     24914     24987     24988     24279
 -1      3327    4    0    1
 -2      7916      8006      8016      7926      7917      8007      8017      7927     24914     24987
 -2     24988     24279     24211     24919     24993     24285     24921     24994     24995     24286
 -1      3328    4    0    1
 -2      7917      8007      8017      7927      7918      8008      8018      7928     24921     24994
 -2     24995     24286     24218     24926     25000     24292     24928     25001     25002     24293
 -1      3329    4    0    1
 -2      7918      8008      8018      7928      7919      8009      8019      7929     24928     25001
 -2     25002     24293     24225     24933     25007     24299     24935     25008     25009     24300
 -1      3330    4    0    1
 -2      7919      8009      8019      7929      7920      8010      8020      7930     24935     25008
 -2     25009     24300     24232     24940     25014     24306     24942     25015     25016     24307
 -1      3331    4    0    1
 -2      7920      8010      8020      7930      7921      8011      8021      7931     24942     25015
 -2     25016     24307     24239     24947     25021     24313     24949     25022     25023     24314
 -1      3332    4    0    1
 -2      7921      8011      8021      7931      7922      8012      8022      7932     24949     25022
 -2     25023     24314     24246     24954     25028     24320     24956     25029     25030     24321
 -1      3333    4    0    1
 -2      7922      8012      8022      7932      5001      5010      5011      5002     24956     25029
 -2     25030     24321     24253     24961     25035     24327      5734      5736      5737      5707
 -1      3334    4    0    1
 -2       605       614       615       606      7923      8013      8023      7933      1340      1342
 -2      1343      1313     24257     24965     25039     24331     24967     25040     25041     24332
 -1      3335    4    0    1
 -2      7923      8013      8023      7933      7924      8014      8024      7934     24967     25040
 -2     25041     24332     24264     24972     25046     24338     24974     25047     25048     24339
 -1      3336    4    0    1
 -2      7924      8014      8024      7934      7925      8015      8025      7935     24974     25047
 -2     25048     24339     24271     24979     25053     24345     24981     25054     25055     24346
 -1      3337    4    0    1
 -2      7925      8015      8025      7935      7926      8016      8026      7936     24981     25054
 -2     25055     24346     24278     24986     25060     24352     24988     25061     25062     24353
 -1      3338    4    0    1
 -2      7926      8016      8026      7936      7927      8017      8027      7937     24988     25061
 -2     25062     24353     24285     24993     25067     24359     24995     25068     25069     24360
 -1      3339    4    0    1
 -2      7927      8017      8027      7937      7928      8018      8028      7938     24995     25068
 -2     25069     24360     24292     25000     25074     24366     25002     25075     25076     24367
 -1      3340    4    0    1
 -2      7928      8018      8028      7938      7929      8019      8029      7939     25002     25075
 -2     25076     24367     24299     25007     25081     24373     25009     25082     25083     24374
 -1      3341    4    0    1
 -2      7929      8019      8029      7939      7930      8020      8030      7940     25009     25082
 -2     25083     24374     24306     25014     25088     24380     25016     25089     25090     24381
 -1      3342    4    0    1
 -2      7930      8020      8030      7940      7931      8021      8031      7941     25016     25089
 -2     25090     24381     24313     25021     25095     24387     25023     25096     25097     24388
 -1      3343    4    0    1
 -2      7931      8021      8031      7941      7932      8022      8032      7942     25023     25096
 -2     25097     24388     24320     25028     25102     24394     25030     25103     25104     24395
 -1      3344    4    0    1
 -2      7932      8022      8032      7942      5002      5011      5012      5003     25030     25103
 -2     25104     24395     24327     25035     25109     24401      5737      5739      5740      5710
 -1      3345    4    0    1
 -2       606       615       616       607      7933      8023      8033      7943      1343      1345
 -2      1346      1316     24331     25039     25113     24405     25041     25114     25115     24406
 -1      3346    4    0    1
 -2      7933      8023      8033      7943      7934      8024      8034      7944     25041     25114
 -2     25115     24406     24338     25046     25120     24412     25048     25121     25122     24413
 -1      3347    4    0    1
 -2      7934      8024      8034      7944      7935      8025      8035      7945     25048     25121
 -2     25122     24413     24345     25053     25127     24419     25055     25128     25129     24420
 -1      3348    4    0    1
 -2      7935      8025      8035      7945      7936      8026      8036      7946     25055     25128
 -2     25129     24420     24352     25060     25134     24426     25062     25135     25136     24427
 -1      3349    4    0    1
 -2      7936      8026      8036      7946      7937      8027      8037      7947     25062     25135
 -2     25136     24427     24359     25067     25141     24433     25069     25142     25143     24434
 -1      3350    4    0    1
 -2      7937      8027      8037      7947      7938      8028      8038      7948     25069     25142
 -2     25143     24434     24366     25074     25148     24440     25076     25149     25150     24441
 -1      3351    4    0    1
 -2      7938      8028      8038      7948      7939      8029      8039      7949     25076     25149
 -2     25150     24441     24373     25081     25155     24447     25083     25156     25157     24448
 -1      3352    4    0    1
 -2      7939      8029      8039      7949      7940      8030      8040      7950     25083     25156
 -2     25157     24448     24380     25088     25162     24454     25090     25163     25164     24455
 -1      3353    4    0    1
 -2      7940      8030      8040      7950      7941      8031      8041      7951     25090     25163
 -2     25164     24455     24387     25095     25169     24461     25097     25170     25171     24462
 -1      3354    4    0    1
 -2      7941      8031      8041      7951      7942      8032      8042      7952     25097     25170
 -2     25171     24462     24394     25102     25176     24468     25104     25177     25178     24469
 -1      3355    4    0    1
 -2      7942      8032      8042      7952      5003      5012      5013      5004     25104     25177
 -2     25178     24469     24401     25109     25183     24475      5740      5742      5743      5713
 -1      3356    4    0    1
 -2       607       616       617       608      7943      8033      8043      7953      1346      1348
 -2      1349      1319     24405     25113     25187     24479     25115     25188     25189     24480
 -1      3357    4    0    1
 -2      7943      8033      8043      7953      7944      8034      8044      7954     25115     25188
 -2     25189     24480     24412     25120     25194     24486     25122     25195     25196     24487
 -1      3358    4    0    1
 -2      7944      8034      8044      7954      7945      8035      8045      7955     25122     25195
 -2     25196     24487     24419     25127     25201     24493     25129     25202     25203     24494
 -1      3359    4    0    1
 -2      7945      8035      8045      7955      7946      8036      8046      7956     25129     25202
 -2     25203     24494     24426     25134     25208     24500     25136     25209     25210     24501
 -1      3360    4    0    1
 -2      7946      8036      8046      7956      7947      8037      8047      7957     25136     25209
 -2     25210     24501     24433     25141     25215     24507     25143     25216     25217     24508
 -1      3361    4    0    1
 -2      7947      8037      8047      7957      7948      8038      8048      7958     25143     25216
 -2     25217     24508     24440     25148     25222     24514     25150     25223     25224     24515
 -1      3362    4    0    1
 -2      7948      8038      8048      7958      7949      8039      8049      7959     25150     25223
 -2     25224     24515     24447     25155     25229     24521     25157     25230     25231     24522
 -1      3363    4    0    1
 -2      7949      8039      8049      7959      7950      8040      8050      7960     25157     25230
 -2     25231     24522     24454     25162     25236     24528     25164     25237     25238     24529
 -1      3364    4    0    1
 -2      7950      8040      8050      7960      7951      8041      8051      7961     25164     25237
 -2     25238     24529     24461     25169     25243     24535     25171     25244     25245     24536
 -1      3365    4    0    1
 -2      7951      8041      8051      7961      7952      8042      8052      7962     25171     25244
 -2     25245     24536     24468     25176     25250     24542     25178     25251     25252     24543
 -1      3366    4    0    1
 -2      7952      8042      8052      7962      5004      5013      5014      5005     25178     25251
 -2     25252     24543     24475     25183     25257     24549      5743      5745      5746      5716
 -1      3367    4    0    1
 -2       608       617       618       609      7953      8043      8053      7963      1349      1351
 -2      1352      1322     24479     25187     25261     24553     25189     25262     25263     24554
 -1      3368    4    0    1
 -2      7953      8043      8053      7963      7954      8044      8054      7964     25189     25262
 -2     25263     24554     24486     25194     25268     24560     25196     25269     25270     24561
 -1      3369    4    0    1
 -2      7954      8044      8054      7964      7955      8045      8055      7965     25196     25269
 -2     25270     24561     24493     25201     25275     24567     25203     25276     25277     24568
 -1      3370    4    0    1
 -2      7955      8045      8055      7965      7956      8046      8056      7966     25203     25276
 -2     25277     24568     24500     25208     25282     24574     25210     25283     25284     24575
 -1      3371    4    0    1
 -2      7956      8046      8056      7966      7957      8047      8057      7967     25210     25283
 -2     25284     24575     24507     25215     25289     24581     25217     25290     25291     24582
 -1      3372    4    0    1
 -2      7957      8047      8057      7967      7958      8048      8058      7968     25217     25290
 -2     25291     24582     24514     25222     25296     24588     25224     25297     25298     24589
 -1      3373    4    0    1
 -2      7958      8048      8058      7968      7959      8049      8059      7969     25224     25297
 -2     25298     24589     24521     25229     25303     24595     25231     25304     25305     24596
 -1      3374    4    0    1
 -2      7959      8049      8059      7969      7960      8050      8060      7970     25231     25304
 -2     25305     24596     24528     25236     25310     24602     25238     25311     25312     24603
 -1      3375    4    0    1
 -2      7960      8050      8060      7970      7961      8051      8061      7971     25238     25311
 -2     25312     24603     24535     25243     25317     24609     25245     25318     25319     24610
 -1      3376    4    0    1
 -2      7961      8051      8061      7971      7962      8052      8062      7972     25245     25318
 -2     25319     24610     24542     25250     25324     24616     25252     25325     25326     24617
 -1      3377    4    0    1
 -2      7962      8052      8062      7972      5005      5014      5015      5006     25252     25325
 -2     25326     24617     24549     25257     25331     24623      5746      5748      5749      5719
 -1      3378    4    0    1
 -2       609       618       619       610      7963      8053      8063      7973      1352      1354
 -2      1355      1325     24553     25261     25335     24627     25263     25336     25337     24628
 -1      3379    4    0    1
 -2      7963      8053      8063      7973      7964      8054      8064      7974     25263     25336
 -2     25337     24628     24560     25268     25342     24634     25270     25343     25344     24635
 -1      3380    4    0    1
 -2      7964      8054      8064      7974      7965      8055      8065      7975     25270     25343
 -2     25344     24635     24567     25275     25349     24641     25277     25350     25351     24642
 -1      3381    4    0    1
 -2      7965      8055      8065      7975      7966      8056      8066      7976     25277     25350
 -2     25351     24642     24574     25282     25356     24648     25284     25357     25358     24649
 -1      3382    4    0    1
 -2      7966      8056      8066      7976      7967      8057      8067      7977     25284     25357
 -2     25358     24649     24581     25289     25363     24655     25291     25364     25365     24656
 -1      3383    4    0    1
 -2      7967      8057      8067      7977      7968      8058      8068      7978     25291     25364
 -2     25365     24656     24588     25296     25370     24662     25298     25371     25372     24663
 -1      3384    4    0    1
 -2      7968      8058      8068      7978      7969      8059      8069      7979     25298     25371
 -2     25372     24663     24595     25303     25377     24669     25305     25378     25379     24670
 -1      3385    4    0    1
 -2      7969      8059      8069      7979      7970      8060      8070      7980     25305     25378
 -2     25379     24670     24602     25310     25384     24676     25312     25385     25386     24677
 -1      3386    4    0    1
 -2      7970      8060      8070      7980      7971      8061      8071      7981     25312     25385
 -2     25386     24677     24609     25317     25391     24683     25319     25392     25393     24684
 -1      3387    4    0    1
 -2      7971      8061      8071      7981      7972      8062      8072      7982     25319     25392
 -2     25393     24684     24616     25324     25398     24690     25326     25399     25400     24691
 -1      3388    4    0    1
 -2      7972      8062      8072      7982      5006      5015      5016      5007     25326     25399
 -2     25400     24691     24623     25331     25405     24697      5749      5751      5752      5722
 -1      3389    4    0    1
 -2       610       619       620       611      7973      8063      8073      7983      1355      1357
 -2      1358      1328     24627     25335     25409     24701     25337     25410     25411     24702
 -1      3390    4    0    1
 -2      7973      8063      8073      7983      7974      8064      8074      7984     25337     25410
 -2     25411     24702     24634     25342     25416     24708     25344     25417     25418     24709
 -1      3391    4    0    1
 -2      7974      8064      8074      7984      7975      8065      8075      7985     25344     25417
 -2     25418     24709     24641     25349     25423     24715     25351     25424     25425     24716
 -1      3392    4    0    1
 -2      7975      8065      8075      7985      7976      8066      8076      7986     25351     25424
 -2     25425     24716     24648     25356     25430     24722     25358     25431     25432     24723
 -1      3393    4    0    1
 -2      7976      8066      8076      7986      7977      8067      8077      7987     25358     25431
 -2     25432     24723     24655     25363     25437     24729     25365     25438     25439     24730
 -1      3394    4    0    1
 -2      7977      8067      8077      7987      7978      8068      8078      7988     25365     25438
 -2     25439     24730     24662     25370     25444     24736     25372     25445     25446     24737
 -1      3395    4    0    1
 -2      7978      8068      8078      7988      7979      8069      8079      7989     25372     25445
 -2     25446     24737     24669     25377     25451     24743     25379     25452     25453     24744
 -1      3396    4    0    1
 -2      7979      8069      8079      7989      7980      8070      8080      7990     25379     25452
 -2     25453     24744     24676     25384     25458     24750     25386     25459     25460     24751
 -1      3397    4    0    1
 -2      7980      8070      8080      7990      7981      8071      8081      7991     25386     25459
 -2     25460     24751     24683     25391     25465     24757     25393     25466     25467     24758
 -1      3398    4    0    1
 -2      7981      8071      8081      7991      7982      8072      8082      7992     25393     25466
 -2     25467     24758     24690     25398     25472     24764     25400     25473     25474     24765
 -1      3399    4    0    1
 -2      7982      8072      8082      7992      5007      5016      5017      5008     25400     25473
 -2     25474     24765     24697     25405     25479     24771      5752      5754      5755      5725
 -1      3400    4    0    1
 -2       611       620        92        93      7983      8073      3214      3224      1358      1360
 -2       122      1331     24701     25409      3614      3646     25411     25483      3647     24775
 -1      3401    4    0    1
 -2      7983      8073      3214      3224      7984      8074      3215      3225     25411     25483
 -2      3647     24775     24708     25416      3617      3649     25418     25487      3650     24779
 -1      3402    4    0    1
 -2      7984      8074      3215      3225      7985      8075      3216      3226     25418     25487
 -2      3650     24779     24715     25423      3620      3652     25425     25491      3653     24783
 -1      3403    4    0    1
 -2      7985      8075      3216      3226      7986      8076      3217      3227     25425     25491
 -2      3653     24783     24722     25430      3623      3655     25432     25495      3656     24787
 -1      3404    4    0    1
 -2      7986      8076      3217      3227      7987      8077      3218      3228     25432     25495
 -2      3656     24787     24729     25437      3626      3658     25439     25499      3659     24791
 -1      3405    4    0    1
 -2      7987      8077      3218      3228      7988      8078      3219      3229     25439     25499
 -2      3659     24791     24736     25444      3629      3661     25446     25503      3662     24795
 -1      3406    4    0    1
 -2      7988      8078      3219      3229      7989      8079      3220      3230     25446     25503
 -2      3662     24795     24743     25451      3632      3664     25453     25507      3665     24799
 -1      3407    4    0    1
 -2      7989      8079      3220      3230      7990      8080      3221      3231     25453     25507
 -2      3665     24799     24750     25458      3635      3667     25460     25511      3668     24803
 -1      3408    4    0    1
 -2      7990      8080      3221      3231      7991      8081      3222      3232     25460     25511
 -2      3668     24803     24757     25465      3638      3670     25467     25515      3671     24807
 -1      3409    4    0    1
 -2      7991      8081      3222      3232      7992      8082      3223      3233     25467     25515
 -2      3671     24807     24764     25472      3641      3673     25474     25519      3674     24811
 -1      3410    4    0    1
 -2      7992      8082      3223      3233      5008      5017       248       249     25474     25519
 -2      3674     24811     24771     25479      3644      3676      5755      5757       278      5728
 -1      3411    4    0    1
 -2        32        33       621       612      1756      1766      8083      7993        62      1362
 -2      1363      1333      2552      2584     25525     24817      2585     25526     25527     24818
 -1      3412    4    0    1
 -2      1756      1766      8083      7993      1757      1767      8084      7994      2585     25526
 -2     25527     24818      2555      2587     25532     24824      2588     25533     25534     24825
 -1      3413    4    0    1
 -2      1757      1767      8084      7994      1758      1768      8085      7995      2588     25533
 -2     25534     24825      2558      2590     25539     24831      2591     25540     25541     24832
 -1      3414    4    0    1
 -2      1758      1768      8085      7995      1759      1769      8086      7996      2591     25540
 -2     25541     24832      2561      2593     25546     24838      2594     25547     25548     24839
 -1      3415    4    0    1
 -2      1759      1769      8086      7996      1760      1770      8087      7997      2594     25547
 -2     25548     24839      2564      2596     25553     24845      2597     25554     25555     24846
 -1      3416    4    0    1
 -2      1760      1770      8087      7997      1761      1771      8088      7998      2597     25554
 -2     25555     24846      2567      2599     25560     24852      2600     25561     25562     24853
 -1      3417    4    0    1
 -2      1761      1771      8088      7998      1762      1772      8089      7999      2600     25561
 -2     25562     24853      2570      2602     25567     24859      2603     25568     25569     24860
 -1      3418    4    0    1
 -2      1762      1772      8089      7999      1763      1773      8090      8000      2603     25568
 -2     25569     24860      2573      2605     25574     24866      2606     25575     25576     24867
 -1      3419    4    0    1
 -2      1763      1773      8090      8000      1764      1774      8091      8001      2606     25575
 -2     25576     24867      2576      2608     25581     24873      2609     25582     25583     24874
 -1      3420    4    0    1
 -2      1764      1774      8091      8001      1765      1775      8092      8002      2609     25582
 -2     25583     24874      2579      2611     25588     24880      2612     25589     25590     24881
 -1      3421    4    0    1
 -2      1765      1775      8092      8002       188       189      5018      5009      2612     25589
 -2     25590     24881      2582      2614     25595     24887       218      5759      5760      5730
 -1      3422    4    0    1
 -2       612       621       622       613      7993      8083      8093      8003      1363      1365
 -2      1366      1336     24817     25525     25599     24891     25527     25600     25601     24892
 -1      3423    4    0    1
 -2      7993      8083      8093      8003      7994      8084      8094      8004     25527     25600
 -2     25601     24892     24824     25532     25606     24898     25534     25607     25608     24899
 -1      3424    4    0    1
 -2      7994      8084      8094      8004      7995      8085      8095      8005     25534     25607
 -2     25608     24899     24831     25539     25613     24905     25541     25614     25615     24906
 -1      3425    4    0    1
 -2      7995      8085      8095      8005      7996      8086      8096      8006     25541     25614
 -2     25615     24906     24838     25546     25620     24912     25548     25621     25622     24913
 -1      3426    4    0    1
 -2      7996      8086      8096      8006      7997      8087      8097      8007     25548     25621
 -2     25622     24913     24845     25553     25627     24919     25555     25628     25629     24920
 -1      3427    4    0    1
 -2      7997      8087      8097      8007      7998      8088      8098      8008     25555     25628
 -2     25629     24920     24852     25560     25634     24926     25562     25635     25636     24927
 -1      3428    4    0    1
 -2      7998      8088      8098      8008      7999      8089      8099      8009     25562     25635
 -2     25636     24927     24859     25567     25641     24933     25569     25642     25643     24934
 -1      3429    4    0    1
 -2      7999      8089      8099      8009      8000      8090      8100      8010     25569     25642
 -2     25643     24934     24866     25574     25648     24940     25576     25649     25650     24941
 -1      3430    4    0    1
 -2      8000      8090      8100      8010      8001      8091      8101      8011     25576     25649
 -2     25650     24941     24873     25581     25655     24947     25583     25656     25657     24948
 -1      3431    4    0    1
 -2      8001      8091      8101      8011      8002      8092      8102      8012     25583     25656
 -2     25657     24948     24880     25588     25662     24954     25590     25663     25664     24955
 -1      3432    4    0    1
 -2      8002      8092      8102      8012      5009      5018      5019      5010     25590     25663
 -2     25664     24955     24887     25595     25669     24961      5760      5762      5763      5733
 -1      3433    4    0    1
 -2       613       622       623       614      8003      8093      8103      8013      1366      1368
 -2      1369      1339     24891     25599     25673     24965     25601     25674     25675     24966
 -1      3434    4    0    1
 -2      8003      8093      8103      8013      8004      8094      8104      8014     25601     25674
 -2     25675     24966     24898     25606     25680     24972     25608     25681     25682     24973
 -1      3435    4    0    1
 -2      8004      8094      8104      8014      8005      8095      8105      8015     25608     25681
 -2     25682     24973     24905     25613     25687     24979     25615     25688     25689     24980
 -1      3436    4    0    1
 -2      8005      8095      8105      8015      8006      8096      8106      8016     25615     25688
 -2     25689     24980     24912     25620     25694     24986     25622     25695     25696     24987
 -1      3437    4    0    1
 -2      8006      8096      8106      8016      8007      8097      8107      8017     25622     25695
 -2     25696     24987     24919     25627     25701     24993     25629     25702     25703     24994
 -1      3438    4    0    1
 -2      8007      8097      8107      8017      8008      8098      8108      8018     25629     25702
 -2     25703     24994     24926     25634     25708     25000     25636     25709     25710     25001
 -1      3439    4    0    1
 -2      8008      8098      8108      8018      8009      8099      8109      8019     25636     25709
 -2     25710     25001     24933     25641     25715     25007     25643     25716     25717     25008
 -1      3440    4    0    1
 -2      8009      8099      8109      8019      8010      8100      8110      8020     25643     25716
 -2     25717     25008     24940     25648     25722     25014     25650     25723     25724     25015
 -1      3441    4    0    1
 -2      8010      8100      8110      8020      8011      8101      8111      8021     25650     25723
 -2     25724     25015     24947     25655     25729     25021     25657     25730     25731     25022
 -1      3442    4    0    1
 -2      8011      8101      8111      8021      8012      8102      8112      8022     25657     25730
 -2     25731     25022     24954     25662     25736     25028     25664     25737     25738     25029
 -1      3443    4    0    1
 -2      8012      8102      8112      8022      5010      5019      5020      5011     25664     25737
 -2     25738     25029     24961     25669     25743     25035      5763      5765      5766      5736
 -1      3444    4    0    1
 -2       614       623       624       615      8013      8103      8113      8023      1369      1371
 -2      1372      1342     24965     25673     25747     25039     25675     25748     25749     25040
 -1      3445    4    0    1
 -2      8013      8103      8113      8023      8014      8104      8114      8024     25675     25748
 -2     25749     25040     24972     25680     25754     25046     25682     25755     25756     25047
 -1      3446    4    0    1
 -2      8014      8104      8114      8024      8015      8105      8115      8025     25682     25755
 -2     25756     25047     24979     25687     25761     25053     25689     25762     25763     25054
 -1      3447    4    0    1
 -2      8015      8105      8115      8025      8016      8106      8116      8026     25689     25762
 -2     25763     25054     24986     25694     25768     25060     25696     25769     25770     25061
 -1      3448    4    0    1
 -2      8016      8106      8116      8026      8017      8107      8117      8027     25696     25769
 -2     25770     25061     24993     25701     25775     25067     25703     25776     25777     25068
 -1      3449    4    0    1
 -2      8017      8107      8117      8027      8018      8108      8118      8028     25703     25776
 -2     25777     25068     25000     25708     25782     25074     25710     25783     25784     25075
 -1      3450    4    0    1
 -2      8018      8108      8118      8028      8019      8109      8119      8029     25710     25783
 -2     25784     25075     25007     25715     25789     25081     25717     25790     25791     25082
 -1      3451    4    0    1
 -2      8019      8109      8119      8029      8020      8110      8120      8030     25717     25790
 -2     25791     25082     25014     25722     25796     25088     25724     25797     25798     25089
 -1      3452    4    0    1
 -2      8020      8110      8120      8030      8021      8111      8121      8031     25724     25797
 -2     25798     25089     25021     25729     25803     25095     25731     25804     25805     25096
 -1      3453    4    0    1
 -2      8021      8111      8121      8031      8022      8112      8122      8032     25731     25804
 -2     25805     25096     25028     25736     25810     25102     25738     25811     25812     25103
 -1      3454    4    0    1
 -2      8022      8112      8122      8032      5011      5020      5021      5012     25738     25811
 -2     25812     25103     25035     25743     25817     25109      5766      5768      5769      5739
 -1      3455    4    0    1
 -2       615       624       625       616      8023      8113      8123      8033      1372      1374
 -2      1375      1345     25039     25747     25821     25113     25749     25822     25823     25114
 -1      3456    4    0    1
 -2      8023      8113      8123      8033      8024      8114      8124      8034     25749     25822
 -2     25823     25114     25046     25754     25828     25120     25756     25829     25830     25121
 -1      3457    4    0    1
 -2      8024      8114      8124      8034      8025      8115      8125      8035     25756     25829
 -2     25830     25121     25053     25761     25835     25127     25763     25836     25837     25128
 -1      3458    4    0    1
 -2      8025      8115      8125      8035      8026      8116      8126      8036     25763     25836
 -2     25837     25128     25060     25768     25842     25134     25770     25843     25844     25135
 -1      3459    4    0    1
 -2      8026      8116      8126      8036      8027      8117      8127      8037     25770     25843
 -2     25844     25135     25067     25775     25849     25141     25777     25850     25851     25142
 -1      3460    4    0    1
 -2      8027      8117      8127      8037      8028      8118      8128      8038     25777     25850
 -2     25851     25142     25074     25782     25856     25148     25784     25857     25858     25149
 -1      3461    4    0    1
 -2      8028      8118      8128      8038      8029      8119      8129      8039     25784     25857
 -2     25858     25149     25081     25789     25863     25155     25791     25864     25865     25156
 -1      3462    4    0    1
 -2      8029      8119      8129      8039      8030      8120      8130      8040     25791     25864
 -2     25865     25156     25088     25796     25870     25162     25798     25871     25872     25163
 -1      3463    4    0    1
 -2      8030      8120      8130      8040      8031      8121      8131      8041     25798     25871
 -2     25872     25163     25095     25803     25877     25169     25805     25878     25879     25170
 -1      3464    4    0    1
 -2      8031      8121      8131      8041      8032      8122      8132      8042     25805     25878
 -2     25879     25170     25102     25810     25884     25176     25812     25885     25886     25177
 -1      3465    4    0    1
 -2      8032      8122      8132      8042      5012      5021      5022      5013     25812     25885
 -2     25886     25177     25109     25817     25891     25183      5769      5771      5772      5742
 -1      3466    4    0    1
 -2       616       625       626       617      8033      8123      8133      8043      1375      1377
 -2      1378      1348     25113     25821     25895     25187     25823     25896     25897     25188
 -1      3467    4    0    1
 -2      8033      8123      8133      8043      8034      8124      8134      8044     25823     25896
 -2     25897     25188     25120     25828     25902     25194     25830     25903     25904     25195
 -1      3468    4    0    1
 -2      8034      8124      8134      8044      8035      8125      8135      8045     25830     25903
 -2     25904     25195     25127     25835     25909     25201     25837     25910     25911     25202
 -1      3469    4    0    1
 -2      8035      8125      8135      8045      8036      8126      8136      8046     25837     25910
 -2     25911     25202     25134     25842     25916     25208     25844     25917     25918     25209
 -1      3470    4    0    1
 -2      8036      8126      8136      8046      8037      8127      8137      8047     25844     25917
 -2     25918     25209     25141     25849     25923     25215     25851     25924     25925     25216
 -1      3471    4    0    1
 -2      8037      8127      8137      8047      8038      8128      8138      8048     25851     25924
 -2     25925     25216     25148     25856     25930     25222     25858     25931     25932     25223
 -1      3472    4    0    1
 -2      8038      8128      8138      8048      8039      8129      8139      8049     25858     25931
 -2     25932     25223     25155     25863     25937     25229     25865     25938     25939     25230
 -1      3473    4    0    1
 -2      8039      8129      8139      8049      8040      8130      8140      8050     25865     25938
 -2     25939     25230     25162     25870     25944     25236     25872     25945     25946     25237
 -1      3474    4    0    1
 -2      8040      8130      8140      8050      8041      8131      8141      8051     25872     25945
 -2     25946     25237     25169     25877     25951     25243     25879     25952     25953     25244
 -1      3475    4    0    1
 -2      8041      8131      8141      8051      8042      8132      8142      8052     25879     25952
 -2     25953     25244     25176     25884     25958     25250     25886     25959     25960     25251
 -1      3476    4    0    1
 -2      8042      8132      8142      8052      5013      5022      5023      5014     25886     25959
 -2     25960     25251     25183     25891     25965     25257      5772      5774      5775      5745
 -1      3477    4    0    1
 -2       617       626       627       618      8043      8133      8143      8053      1378      1380
 -2      1381      1351     25187     25895     25969     25261     25897     25970     25971     25262
 -1      3478    4    0    1
 -2      8043      8133      8143      8053      8044      8134      8144      8054     25897     25970
 -2     25971     25262     25194     25902     25976     25268     25904     25977     25978     25269
 -1      3479    4    0    1
 -2      8044      8134      8144      8054      8045      8135      8145      8055     25904     25977
 -2     25978     25269     25201     25909     25983     25275     25911     25984     25985     25276
 -1      3480    4    0    1
 -2      8045      8135      8145      8055      8046      8136      8146      8056     25911     25984
 -2     25985     25276     25208     25916     25990     25282     25918     25991     25992     25283
 -1      3481    4    0    1
 -2      8046      8136      8146      8056      8047      8137      8147      8057     25918     25991
 -2     25992     25283     25215     25923     25997     25289     25925     25998     25999     25290
 -1      3482    4    0    1
 -2      8047      8137      8147      8057      8048      8138      8148      8058     25925     25998
 -2     25999     25290     25222     25930     26004     25296     25932     26005     26006     25297
 -1      3483    4    0    1
 -2      8048      8138      8148      8058      8049      8139      8149      8059     25932     26005
 -2     26006     25297     25229     25937     26011     25303     25939     26012     26013     25304
 -1      3484    4    0    1
 -2      8049      8139      8149      8059      8050      8140      8150      8060     25939     26012
 -2     26013     25304     25236     25944     26018     25310     25946     26019     26020     25311
 -1      3485    4    0    1
 -2      8050      8140      8150      8060      8051      8141      8151      8061     25946     26019
 -2     26020     25311     25243     25951     26025     25317     25953     26026     26027     25318
 -1      3486    4    0    1
 -2      8051      8141      8151      8061      8052      8142      8152      8062     25953     26026
 -2     26027     25318     25250     25958     26032     25324     25960     26033     26034     25325
 -1      3487    4    0    1
 -2      8052      8142      8152      8062      5014      5023      5024      5015     25960     26033
 -2     26034     25325     25257     25965     26039     25331      5775      5777      5778      5748
 -1      3488    4    0    1
 -2       618       627       628       619      8053      8143      8153      8063      1381      1383
 -2      1384      1354     25261     25969     26043     25335     25971     26044     26045     25336
 -1      3489    4    0    1
 -2      8053      8143      8153      8063      8054      8144      8154      8064     25971     26044
 -2     26045     25336     25268     25976     26050     25342     25978     26051     26052     25343
 -1      3490    4    0    1
 -2      8054      8144      8154      8064      8055      8145      8155      8065     25978     26051
 -2     26052     25343     25275     25983     26057     25349     25985     26058     26059     25350
 -1      3491    4    0    1
 -2      8055      8145      8155      8065      8056      8146      8156      8066     25985     26058
 -2     26059     25350     25282     25990     26064     25356     25992     26065     26066     25357
 -1      3492    4    0    1
 -2      8056      8146      8156      8066      8057      8147      8157      8067     25992     26065
 -2     26066     25357     25289     25997     26071     25363     25999     26072     26073     25364
 -1      3493    4    0    1
 -2      8057      8147      8157      8067      8058      8148      8158      8068     25999     26072
 -2     26073     25364     25296     26004     26078     25370     26006     26079     26080     25371
 -1      3494    4    0    1
 -2      8058      8148      8158      8068      8059      8149      8159      8069     26006     26079
 -2     26080     25371     25303     26011     26085     25377     26013     26086     26087     25378
 -1      3495    4    0    1
 -2      8059      8149      8159      8069      8060      8150      8160      8070     26013     26086
 -2     26087     25378     25310     26018     26092     25384     26020     26093     26094     25385
 -1      3496    4    0    1
 -2      8060      8150      8160      8070      8061      8151      8161      8071     26020     26093
 -2     26094     25385     25317     26025     26099     25391     26027     26100     26101     25392
 -1      3497    4    0    1
 -2      8061      8151      8161      8071      8062      8152      8162      8072     26027     26100
 -2     26101     25392     25324     26032     26106     25398     26034     26107     26108     25399
 -1      3498    4    0    1
 -2      8062      8152      8162      8072      5015      5024      5025      5016     26034     26107
 -2     26108     25399     25331     26039     26113     25405      5778      5780      5781      5751
 -1      3499    4    0    1
 -2       619       628       629       620      8063      8153      8163      8073      1384      1386
 -2      1387      1357     25335     26043     26117     25409     26045     26118     26119     25410
 -1      3500    4    0    1
 -2      8063      8153      8163      8073      8064      8154      8164      8074     26045     26118
 -2     26119     25410     25342     26050     26124     25416     26052     26125     26126     25417
 -1      3501    4    0    1
 -2      8064      8154      8164      8074      8065      8155      8165      8075     26052     26125
 -2     26126     25417     25349     26057     26131     25423     26059     26132     26133     25424
 -1      3502    4    0    1
 -2      8065      8155      8165      8075      8066      8156      8166      8076     26059     26132
 -2     26133     25424     25356     26064     26138     25430     26066     26139     26140     25431
 -1      3503    4    0    1
 -2      8066      8156      8166      8076      8067      8157      8167      8077     26066     26139
 -2     26140     25431     25363     26071     26145     25437     26073     26146     26147     25438
 -1      3504    4    0    1
 -2      8067      8157      8167      8077      8068      8158      8168      8078     26073     26146
 -2     26147     25438     25370     26078     26152     25444     26080     26153     26154     25445
 -1      3505    4    0    1
 -2      8068      8158      8168      8078      8069      8159      8169      8079     26080     26153
 -2     26154     25445     25377     26085     26159     25451     26087     26160     26161     25452
 -1      3506    4    0    1
 -2      8069      8159      8169      8079      8070      8160      8170      8080     26087     26160
 -2     26161     25452     25384     26092     26166     25458     26094     26167     26168     25459
 -1      3507    4    0    1
 -2      8070      8160      8170      8080      8071      8161      8171      8081     26094     26167
 -2     26168     25459     25391     26099     26173     25465     26101     26174     26175     25466
 -1      3508    4    0    1
 -2      8071      8161      8171      8081      8072      8162      8172      8082     26101     26174
 -2     26175     25466     25398     26106     26180     25472     26108     26181     26182     25473
 -1      3509    4    0    1
 -2      8072      8162      8172      8082      5016      5025      5026      5017     26108     26181
 -2     26182     25473     25405     26113     26187     25479      5781      5783      5784      5754
 -1      3510    4    0    1
 -2       620       629        91        92      8073      8163      3204      3214      1387      1389
 -2       121      1360     25409     26117      3582      3614     26119     26191      3615     25483
 -1      3511    4    0    1
 -2      8073      8163      3204      3214      8074      8164      3205      3215     26119     26191
 -2      3615     25483     25416     26124      3585      3617     26126     26195      3618     25487
 -1      3512    4    0    1
 -2      8074      8164      3205      3215      8075      8165      3206      3216     26126     26195
 -2      3618     25487     25423     26131      3588      3620     26133     26199      3621     25491
 -1      3513    4    0    1
 -2      8075      8165      3206      3216      8076      8166      3207      3217     26133     26199
 -2      3621     25491     25430     26138      3591      3623     26140     26203      3624     25495
 -1      3514    4    0    1
 -2      8076      8166      3207      3217      8077      8167      3208      3218     26140     26203
 -2      3624     25495     25437     26145      3594      3626     26147     26207      3627     25499
 -1      3515    4    0    1
 -2      8077      8167      3208      3218      8078      8168      3209      3219     26147     26207
 -2      3627     25499     25444     26152      3597      3629     26154     26211      3630     25503
 -1      3516    4    0    1
 -2      8078      8168      3209      3219      8079      8169      3210      3220     26154     26211
 -2      3630     25503     25451     26159      3600      3632     26161     26215      3633     25507
 -1      3517    4    0    1
 -2      8079      8169      3210      3220      8080      8170      3211      3221     26161     26215
 -2      3633     25507     25458     26166      3603      3635     26168     26219      3636     25511
 -1      3518    4    0    1
 -2      8080      8170      3211      3221      8081      8171      3212      3222     26168     26219
 -2      3636     25511     25465     26173      3606      3638     26175     26223      3639     25515
 -1      3519    4    0    1
 -2      8081      8171      3212      3222      8082      8172      3213      3223     26175     26223
 -2      3639     25515     25472     26180      3609      3641     26182     26227      3642     25519
 -1      3520    4    0    1
 -2      8082      8172      3213      3223      5017      5026       247       248     26182     26227
 -2      3642     25519     25479     26187      3612      3644      5784      5786       277      5757
 -1      3521    4    0    1
 -2        33        34       630       621      1766      1776      8173      8083        63      1391
 -2      1392      1362      2584      2616     26233     25525      2617     26234     26235     25526
 -1      3522    4    0    1
 -2      1766      1776      8173      8083      1767      1777      8174      8084      2617     26234
 -2     26235     25526      2587      2619     26240     25532      2620     26241     26242     25533
 -1      3523    4    0    1
 -2      1767      1777      8174      8084      1768      1778      8175      8085      2620     26241
 -2     26242     25533      2590      2622     26247     25539      2623     26248     26249     25540
 -1      3524    4    0    1
 -2      1768      1778      8175      8085      1769      1779      8176      8086      2623     26248
 -2     26249     25540      2593      2625     26254     25546      2626     26255     26256     25547
 -1      3525    4    0    1
 -2      1769      1779      8176      8086      1770      1780      8177      8087      2626     26255
 -2     26256     25547      2596      2628     26261     25553      2629     26262     26263     25554
 -1      3526    4    0    1
 -2      1770      1780      8177      8087      1771      1781      8178      8088      2629     26262
 -2     26263     25554      2599      2631     26268     25560      2632     26269     26270     25561
 -1      3527    4    0    1
 -2      1771      1781      8178      8088      1772      1782      8179      8089      2632     26269
 -2     26270     25561      2602      2634     26275     25567      2635     26276     26277     25568
 -1      3528    4    0    1
 -2      1772      1782      8179      8089      1773      1783      8180      8090      2635     26276
 -2     26277     25568      2605      2637     26282     25574      2638     26283     26284     25575
 -1      3529    4    0    1
 -2      1773      1783      8180      8090      1774      1784      8181      8091      2638     26283
 -2     26284     25575      2608      2640     26289     25581      2641     26290     26291     25582
 -1      3530    4    0    1
 -2      1774      1784      8181      8091      1775      1785      8182      8092      2641     26290
 -2     26291     25582      2611      2643     26296     25588      2644     26297     26298     25589
 -1      3531    4    0    1
 -2      1775      1785      8182      8092       189       190      5027      5018      2644     26297
 -2     26298     25589      2614      2646     26303     25595       219      5788      5789      5759
 -1      3532    4    0    1
 -2       621       630       631       622      8083      8173      8183      8093      1392      1394
 -2      1395      1365     25525     26233     26307     25599     26235     26308     26309     25600
 -1      3533    4    0    1
 -2      8083      8173      8183      8093      8084      8174      8184      8094     26235     26308
 -2     26309     25600     25532     26240     26314     25606     26242     26315     26316     25607
 -1      3534    4    0    1
 -2      8084      8174      8184      8094      8085      8175      8185      8095     26242     26315
 -2     26316     25607     25539     26247     26321     25613     26249     26322     26323     25614
 -1      3535    4    0    1
 -2      8085      8175      8185      8095      8086      8176      8186      8096     26249     26322
 -2     26323     25614     25546     26254     26328     25620     26256     26329     26330     25621
 -1      3536    4    0    1
 -2      8086      8176      8186      8096      8087      8177      8187      8097     26256     26329
 -2     26330     25621     25553     26261     26335     25627     26263     26336     26337     25628
 -1      3537    4    0    1
 -2      8087      8177      8187      8097      8088      8178      8188      8098     26263     26336
 -2     26337     25628     25560     26268     26342     25634     26270     26343     26344     25635
 -1      3538    4    0    1
 -2      8088      8178      8188      8098      8089      8179      8189      8099     26270     26343
 -2     26344     25635     25567     26275     26349     25641     26277     26350     26351     25642
 -1      3539    4    0    1
 -2      8089      8179      8189      8099      8090      8180      8190      8100     26277     26350
 -2     26351     25642     25574     26282     26356     25648     26284     26357     26358     25649
 -1      3540    4    0    1
 -2      8090      8180      8190      8100      8091      8181      8191      8101     26284     26357
 -2     26358     25649     25581     26289     26363     25655     26291     26364     26365     25656
 -1      3541    4    0    1
 -2      8091      8181      8191      8101      8092      8182      8192      8102     26291     26364
 -2     26365     25656     25588     26296     26370     25662     26298     26371     26372     25663
 -1      3542    4    0    1
 -2      8092      8182      8192      8102      5018      5027      5028      5019     26298     26371
 -2     26372     25663     25595     26303     26377     25669      5789      5791      5792      5762
 -1      3543    4    0    1
 -2       622       631       632       623      8093      8183      8193      8103      1395      1397
 -2      1398      1368     25599     26307     26381     25673     26309     26382     26383     25674
 -1      3544    4    0    1
 -2      8093      8183      8193      8103      8094      8184      8194      8104     26309     26382
 -2     26383     25674     25606     26314     26388     25680     26316     26389     26390     25681
 -1      3545    4    0    1
 -2      8094      8184      8194      8104      8095      8185      8195      8105     26316     26389
 -2     26390     25681     25613     26321     26395     25687     26323     26396     26397     25688
 -1      3546    4    0    1
 -2      8095      8185      8195      8105      8096      8186      8196      8106     26323     26396
 -2     26397     25688     25620     26328     26402     25694     26330     26403     26404     25695
 -1      3547    4    0    1
 -2      8096      8186      8196      8106      8097      8187      8197      8107     26330     26403
 -2     26404     25695     25627     26335     26409     25701     26337     26410     26411     25702
 -1      3548    4    0    1
 -2      8097      8187      8197      8107      8098      8188      8198      8108     26337     26410
 -2     26411     25702     25634     26342     26416     25708     26344     26417     26418     25709
 -1      3549    4    0    1
 -2      8098      8188      8198      8108      8099      8189      8199      8109     26344     26417
 -2     26418     25709     25641     26349     26423     25715     26351     26424     26425     25716
 -1      3550    4    0    1
 -2      8099      8189      8199      8109      8100      8190      8200      8110     26351     26424
 -2     26425     25716     25648     26356     26430     25722     26358     26431     26432     25723
 -1      3551    4    0    1
 -2      8100      8190      8200      8110      8101      8191      8201      8111     26358     26431
 -2     26432     25723     25655     26363     26437     25729     26365     26438     26439     25730
 -1      3552    4    0    1
 -2      8101      8191      8201      8111      8102      8192      8202      8112     26365     26438
 -2     26439     25730     25662     26370     26444     25736     26372     26445     26446     25737
 -1      3553    4    0    1
 -2      8102      8192      8202      8112      5019      5028      5029      5020     26372     26445
 -2     26446     25737     25669     26377     26451     25743      5792      5794      5795      5765
 -1      3554    4    0    1
 -2       623       632       633       624      8103      8193      8203      8113      1398      1400
 -2      1401      1371     25673     26381     26455     25747     26383     26456     26457     25748
 -1      3555    4    0    1
 -2      8103      8193      8203      8113      8104      8194      8204      8114     26383     26456
 -2     26457     25748     25680     26388     26462     25754     26390     26463     26464     25755
 -1      3556    4    0    1
 -2      8104      8194      8204      8114      8105      8195      8205      8115     26390     26463
 -2     26464     25755     25687     26395     26469     25761     26397     26470     26471     25762
 -1      3557    4    0    1
 -2      8105      8195      8205      8115      8106      8196      8206      8116     26397     26470
 -2     26471     25762     25694     26402     26476     25768     26404     26477     26478     25769
 -1      3558    4    0    1
 -2      8106      8196      8206      8116      8107      8197      8207      8117     26404     26477
 -2     26478     25769     25701     26409     26483     25775     26411     26484     26485     25776
 -1      3559    4    0    1
 -2      8107      8197      8207      8117      8108      8198      8208      8118     26411     26484
 -2     26485     25776     25708     26416     26490     25782     26418     26491     26492     25783
 -1      3560    4    0    1
 -2      8108      8198      8208      8118      8109      8199      8209      8119     26418     26491
 -2     26492     25783     25715     26423     26497     25789     26425     26498     26499     25790
 -1      3561    4    0    1
 -2      8109      8199      8209      8119      8110      8200      8210      8120     26425     26498
 -2     26499     25790     25722     26430     26504     25796     26432     26505     26506     25797
 -1      3562    4    0    1
 -2      8110      8200      8210      8120      8111      8201      8211      8121     26432     26505
 -2     26506     25797     25729     26437     26511     25803     26439     26512     26513     25804
 -1      3563    4    0    1
 -2      8111      8201      8211      8121      8112      8202      8212      8122     26439     26512
 -2     26513     25804     25736     26444     26518     25810     26446     26519     26520     25811
 -1      3564    4    0    1
 -2      8112      8202      8212      8122      5020      5029      5030      5021     26446     26519
 -2     26520     25811     25743     26451     26525     25817      5795      5797      5798      5768
 -1      3565    4    0    1
 -2       624       633       634       625      8113      8203      8213      8123      1401      1403
 -2      1404      1374     25747     26455     26529     25821     26457     26530     26531     25822
 -1      3566    4    0    1
 -2      8113      8203      8213      8123      8114      8204      8214      8124     26457     26530
 -2     26531     25822     25754     26462     26536     25828     26464     26537     26538     25829
 -1      3567    4    0    1
 -2      8114      8204      8214      8124      8115      8205      8215      8125     26464     26537
 -2     26538     25829     25761     26469     26543     25835     26471     26544     26545     25836
 -1      3568    4    0    1
 -2      8115      8205      8215      8125      8116      8206      8216      8126     26471     26544
 -2     26545     25836     25768     26476     26550     25842     26478     26551     26552     25843
 -1      3569    4    0    1
 -2      8116      8206      8216      8126      8117      8207      8217      8127     26478     26551
 -2     26552     25843     25775     26483     26557     25849     26485     26558     26559     25850
 -1      3570    4    0    1
 -2      8117      8207      8217      8127      8118      8208      8218      8128     26485     26558
 -2     26559     25850     25782     26490     26564     25856     26492     26565     26566     25857
 -1      3571    4    0    1
 -2      8118      8208      8218      8128      8119      8209      8219      8129     26492     26565
 -2     26566     25857     25789     26497     26571     25863     26499     26572     26573     25864
 -1      3572    4    0    1
 -2      8119      8209      8219      8129      8120      8210      8220      8130     26499     26572
 -2     26573     25864     25796     26504     26578     25870     26506     26579     26580     25871
 -1      3573    4    0    1
 -2      8120      8210      8220      8130      8121      8211      8221      8131     26506     26579
 -2     26580     25871     25803     26511     26585     25877     26513     26586     26587     25878
 -1      3574    4    0    1
 -2      8121      8211      8221      8131      8122      8212      8222      8132     26513     26586
 -2     26587     25878     25810     26518     26592     25884     26520     26593     26594     25885
 -1      3575    4    0    1
 -2      8122      8212      8222      8132      5021      5030      5031      5022     26520     26593
 -2     26594     25885     25817     26525     26599     25891      5798      5800      5801      5771
 -1      3576    4    0    1
 -2       625       634       635       626      8123      8213      8223      8133      1404      1406
 -2      1407      1377     25821     26529     26603     25895     26531     26604     26605     25896
 -1      3577    4    0    1
 -2      8123      8213      8223      8133      8124      8214      8224      8134     26531     26604
 -2     26605     25896     25828     26536     26610     25902     26538     26611     26612     25903
 -1      3578    4    0    1
 -2      8124      8214      8224      8134      8125      8215      8225      8135     26538     26611
 -2     26612     25903     25835     26543     26617     25909     26545     26618     26619     25910
 -1      3579    4    0    1
 -2      8125      8215      8225      8135      8126      8216      8226      8136     26545     26618
 -2     26619     25910     25842     26550     26624     25916     26552     26625     26626     25917
 -1      3580    4    0    1
 -2      8126      8216      8226      8136      8127      8217      8227      8137     26552     26625
 -2     26626     25917     25849     26557     26631     25923     26559     26632     26633     25924
 -1      3581    4    0    1
 -2      8127      8217      8227      8137      8128      8218      8228      8138     26559     26632
 -2     26633     25924     25856     26564     26638     25930     26566     26639     26640     25931
 -1      3582    4    0    1
 -2      8128      8218      8228      8138      8129      8219      8229      8139     26566     26639
 -2     26640     25931     25863     26571     26645     25937     26573     26646     26647     25938
 -1      3583    4    0    1
 -2      8129      8219      8229      8139      8130      8220      8230      8140     26573     26646
 -2     26647     25938     25870     26578     26652     25944     26580     26653     26654     25945
 -1      3584    4    0    1
 -2      8130      8220      8230      8140      8131      8221      8231      8141     26580     26653
 -2     26654     25945     25877     26585     26659     25951     26587     26660     26661     25952
 -1      3585    4    0    1
 -2      8131      8221      8231      8141      8132      8222      8232      8142     26587     26660
 -2     26661     25952     25884     26592     26666     25958     26594     26667     26668     25959
 -1      3586    4    0    1
 -2      8132      8222      8232      8142      5022      5031      5032      5023     26594     26667
 -2     26668     25959     25891     26599     26673     25965      5801      5803      5804      5774
 -1      3587    4    0    1
 -2       626       635       636       627      8133      8223      8233      8143      1407      1409
 -2      1410      1380     25895     26603     26677     25969     26605     26678     26679     25970
 -1      3588    4    0    1
 -2      8133      8223      8233      8143      8134      8224      8234      8144     26605     26678
 -2     26679     25970     25902     26610     26684     25976     26612     26685     26686     25977
 -1      3589    4    0    1
 -2      8134      8224      8234      8144      8135      8225      8235      8145     26612     26685
 -2     26686     25977     25909     26617     26691     25983     26619     26692     26693     25984
 -1      3590    4    0    1
 -2      8135      8225      8235      8145      8136      8226      8236      8146     26619     26692
 -2     26693     25984     25916     26624     26698     25990     26626     26699     26700     25991
 -1      3591    4    0    1
 -2      8136      8226      8236      8146      8137      8227      8237      8147     26626     26699
 -2     26700     25991     25923     26631     26705     25997     26633     26706     26707     25998
 -1      3592    4    0    1
 -2      8137      8227      8237      8147      8138      8228      8238      8148     26633     26706
 -2     26707     25998     25930     26638     26712     26004     26640     26713     26714     26005
 -1      3593    4    0    1
 -2      8138      8228      8238      8148      8139      8229      8239      8149     26640     26713
 -2     26714     26005     25937     26645     26719     26011     26647     26720     26721     26012
 -1      3594    4    0    1
 -2      8139      8229      8239      8149      8140      8230      8240      8150     26647     26720
 -2     26721     26012     25944     26652     26726     26018     26654     26727     26728     26019
 -1      3595    4    0    1
 -2      8140      8230      8240      8150      8141      8231      8241      8151     26654     26727
 -2     26728     26019     25951     26659     26733     26025     26661     26734     26735     26026
 -1      3596    4    0    1
 -2      8141      8231      8241      8151      8142      8232      8242      8152     26661     26734
 -2     26735     26026     25958     26666     26740     26032     26668     26741     26742     26033
 -1      3597    4    0    1
 -2      8142      8232      8242      8152      5023      5032      5033      5024     26668     26741
 -2     26742     26033     25965     26673     26747     26039      5804      5806      5807      5777
 -1      3598    4    0    1
 -2       627       636       637       628      8143      8233      8243      8153      1410      1412
 -2      1413      1383     25969     26677     26751     26043     26679     26752     26753     26044
 -1      3599    4    0    1
 -2      8143      8233      8243      8153      8144      8234      8244      8154     26679     26752
 -2     26753     26044     25976     26684     26758     26050     26686     26759     26760     26051
 -1      3600    4    0    1
 -2      8144      8234      8244      8154      8145      8235      8245      8155     26686     26759
 -2     26760     26051     25983     26691     26765     26057     26693     26766     26767     26058
 -1      3601    4    0    1
 -2      8145      8235      8245      8155      8146      8236      8246      8156     26693     26766
 -2     26767     26058     25990     26698     26772     26064     26700     26773     26774     26065
 -1      3602    4    0    1
 -2      8146      8236      8246      8156      8147      8237      8247      8157     26700     26773
 -2     26774     26065     25997     26705     26779     26071     26707     26780     26781     26072
 -1      3603    4    0    1
 -2      8147      8237      8247      8157      8148      8238      8248      8158     26707     26780
 -2     26781     26072     26004     26712     26786     26078     26714     26787     26788     26079
 -1      3604    4    0    1
 -2      8148      8238      8248      8158      8149      8239      8249      8159     26714     26787
 -2     26788     26079     26011     26719     26793     26085     26721     26794     26795     26086
 -1      3605    4    0    1
 -2      8149      8239      8249      8159      8150      8240      8250      8160     26721     26794
 -2     26795     26086     26018     26726     26800     26092     26728     26801     26802     26093
 -1      3606    4    0    1
 -2      8150      8240      8250      8160      8151      8241      8251      8161     26728     26801
 -2     26802     26093     26025     26733     26807     26099     26735     26808     26809     26100
 -1      3607    4    0    1
 -2      8151      8241      8251      8161      8152      8242      8252      8162     26735     26808
 -2     26809     26100     26032     26740     26814     26106     26742     26815     26816     26107
 -1      3608    4    0    1
 -2      8152      8242      8252      8162      5024      5033      5034      5025     26742     26815
 -2     26816     26107     26039     26747     26821     26113      5807      5809      5810      5780
 -1      3609    4    0    1
 -2       628       637       638       629      8153      8243      8253      8163      1413      1415
 -2      1416      1386     26043     26751     26825     26117     26753     26826     26827     26118
 -1      3610    4    0    1
 -2      8153      8243      8253      8163      8154      8244      8254      8164     26753     26826
 -2     26827     26118     26050     26758     26832     26124     26760     26833     26834     26125
 -1      3611    4    0    1
 -2      8154      8244      8254      8164      8155      8245      8255      8165     26760     26833
 -2     26834     26125     26057     26765     26839     26131     26767     26840     26841     26132
 -1      3612    4    0    1
 -2      8155      8245      8255      8165      8156      8246      8256      8166     26767     26840
 -2     26841     26132     26064     26772     26846     26138     26774     26847     26848     26139
 -1      3613    4    0    1
 -2      8156      8246      8256      8166      8157      8247      8257      8167     26774     26847
 -2     26848     26139     26071     26779     26853     26145     26781     26854     26855     26146
 -1      3614    4    0    1
 -2      8157      8247      8257      8167      8158      8248      8258      8168     26781     26854
 -2     26855     26146     26078     26786     26860     26152     26788     26861     26862     26153
 -1      3615    4    0    1
 -2      8158      8248      8258      8168      8159      8249      8259      8169     26788     26861
 -2     26862     26153     26085     26793     26867     26159     26795     26868     26869     26160
 -1      3616    4    0    1
 -2      8159      8249      8259      8169      8160      8250      8260      8170     26795     26868
 -2     26869     26160     26092     26800     26874     26166     26802     26875     26876     26167
 -1      3617    4    0    1
 -2      8160      8250      8260      8170      8161      8251      8261      8171     26802     26875
 -2     26876     26167     26099     26807     26881     26173     26809     26882     26883     26174
 -1      3618    4    0    1
 -2      8161      8251      8261      8171      8162      8252      8262      8172     26809     26882
 -2     26883     26174     26106     26814     26888     26180     26816     26889     26890     26181
 -1      3619    4    0    1
 -2      8162      8252      8262      8172      5025      5034      5035      5026     26816     26889
 -2     26890     26181     26113     26821     26895     26187      5810      5812      5813      5783
 -1      3620    4    0    1
 -2       629       638        90        91      8163      8253      3194      3204      1416      1418
 -2       120      1389     26117     26825      3550      3582     26827     26899      3583     26191
 -1      3621    4    0    1
 -2      8163      8253      3194      3204      8164      8254      3195      3205     26827     26899
 -2      3583     26191     26124     26832      3553      3585     26834     26903      3586     26195
 -1      3622    4    0    1
 -2      8164      8254      3195      3205      8165      8255      3196      3206     26834     26903
 -2      3586     26195     26131     26839      3556      3588     26841     26907      3589     26199
 -1      3623    4    0    1
 -2      8165      8255      3196      3206      8166      8256      3197      3207     26841     26907
 -2      3589     26199     26138     26846      3559      3591     26848     26911      3592     26203
 -1      3624    4    0    1
 -2      8166      8256      3197      3207      8167      8257      3198      3208     26848     26911
 -2      3592     26203     26145     26853      3562      3594     26855     26915      3595     26207
 -1      3625    4    0    1
 -2      8167      8257      3198      3208      8168      8258      3199      3209     26855     26915
 -2      3595     26207     26152     26860      3565      3597     26862     26919      3598     26211
 -1      3626    4    0    1
 -2      8168      8258      3199      3209      8169      8259      3200      3210     26862     26919
 -2      3598     26211     26159     26867      3568      3600     26869     26923      3601     26215
 -1      3627    4    0    1
 -2      8169      8259      3200      3210      8170      8260      3201      3211     26869     26923
 -2      3601     26215     26166     26874      3571      3603     26876     26927      3604     26219
 -1      3628    4    0    1
 -2      8170      8260      3201      3211      8171      8261      3202      3212     26876     26927
 -2      3604     26219     26173     26881      3574      3606     26883     26931      3607     26223
 -1      3629    4    0    1
 -2      8171      8261      3202      3212      8172      8262      3203      3213     26883     26931
 -2      3607     26223     26180     26888      3577      3609     26890     26935      3610     26227
 -1      3630    4    0    1
 -2      8172      8262      3203      3213      5026      5035       246       247     26890     26935
 -2      3610     26227     26187     26895      3580      3612      5813      5815       276      5786
 -1      3631    4    0    1
 -2        34        35       639       630      1776      1786      8263      8173        64      1420
 -2      1421      1391      2616      2648     26941     26233      2649     26942     26943     26234
 -1      3632    4    0    1
 -2      1776      1786      8263      8173      1777      1787      8264      8174      2649     26942
 -2     26943     26234      2619      2651     26948     26240      2652     26949     26950     26241
 -1      3633    4    0    1
 -2      1777      1787      8264      8174      1778      1788      8265      8175      2652     26949
 -2     26950     26241      2622      2654     26955     26247      2655     26956     26957     26248
 -1      3634    4    0    1
 -2      1778      1788      8265      8175      1779      1789      8266      8176      2655     26956
 -2     26957     26248      2625      2657     26962     26254      2658     26963     26964     26255
 -1      3635    4    0    1
 -2      1779      1789      8266      8176      1780      1790      8267      8177      2658     26963
 -2     26964     26255      2628      2660     26969     26261      2661     26970     26971     26262
 -1      3636    4    0    1
 -2      1780      1790      8267      8177      1781      1791      8268      8178      2661     26970
 -2     26971     26262      2631      2663     26976     26268      2664     26977     26978     26269
 -1      3637    4    0    1
 -2      1781      1791      8268      8178      1782      1792      8269      8179      2664     26977
 -2     26978     26269      2634      2666     26983     26275      2667     26984     26985     26276
 -1      3638    4    0    1
 -2      1782      1792      8269      8179      1783      1793      8270      8180      2667     26984
 -2     26985     26276      2637      2669     26990     26282      2670     26991     26992     26283
 -1      3639    4    0    1
 -2      1783      1793      8270      8180      1784      1794      8271      8181      2670     26991
 -2     26992     26283      2640      2672     26997     26289      2673     26998     26999     26290
 -1      3640    4    0    1
 -2      1784      1794      8271      8181      1785      1795      8272      8182      2673     26998
 -2     26999     26290      2643      2675     27004     26296      2676     27005     27006     26297
 -1      3641    4    0    1
 -2      1785      1795      8272      8182       190       191      5036      5027      2676     27005
 -2     27006     26297      2646      2678     27011     26303       220      5817      5818      5788
 -1      3642    4    0    1
 -2       630       639       640       631      8173      8263      8273      8183      1421      1423
 -2      1424      1394     26233     26941     27015     26307     26943     27016     27017     26308
 -1      3643    4    0    1
 -2      8173      8263      8273      8183      8174      8264      8274      8184     26943     27016
 -2     27017     26308     26240     26948     27022     26314     26950     27023     27024     26315
 -1      3644    4    0    1
 -2      8174      8264      8274      8184      8175      8265      8275      8185     26950     27023
 -2     27024     26315     26247     26955     27029     26321     26957     27030     27031     26322
 -1      3645    4    0    1
 -2      8175      8265      8275      8185      8176      8266      8276      8186     26957     27030
 -2     27031     26322     26254     26962     27036     26328     26964     27037     27038     26329
 -1      3646    4    0    1
 -2      8176      8266      8276      8186      8177      8267      8277      8187     26964     27037
 -2     27038     26329     26261     26969     27043     26335     26971     27044     27045     26336
 -1      3647    4    0    1
 -2      8177      8267      8277      8187      8178      8268      8278      8188     26971     27044
 -2     27045     26336     26268     26976     27050     26342     26978     27051     27052     26343
 -1      3648    4    0    1
 -2      8178      8268      8278      8188      8179      8269      8279      8189     26978     27051
 -2     27052     26343     26275     26983     27057     26349     26985     27058     27059     26350
 -1      3649    4    0    1
 -2      8179      8269      8279      8189      8180      8270      8280      8190     26985     27058
 -2     27059     26350     26282     26990     27064     26356     26992     27065     27066     26357
 -1      3650    4    0    1
 -2      8180      8270      8280      8190      8181      8271      8281      8191     26992     27065
 -2     27066     26357     26289     26997     27071     26363     26999     27072     27073     26364
 -1      3651    4    0    1
 -2      8181      8271      8281      8191      8182      8272      8282      8192     26999     27072
 -2     27073     26364     26296     27004     27078     26370     27006     27079     27080     26371
 -1      3652    4    0    1
 -2      8182      8272      8282      8192      5027      5036      5037      5028     27006     27079
 -2     27080     26371     26303     27011     27085     26377      5818      5820      5821      5791
 -1      3653    4    0    1
 -2       631       640       641       632      8183      8273      8283      8193      1424      1426
 -2      1427      1397     26307     27015     27089     26381     27017     27090     27091     26382
 -1      3654    4    0    1
 -2      8183      8273      8283      8193      8184      8274      8284      8194     27017     27090
 -2     27091     26382     26314     27022     27096     26388     27024     27097     27098     26389
 -1      3655    4    0    1
 -2      8184      8274      8284      8194      8185      8275      8285      8195     27024     27097
 -2     27098     26389     26321     27029     27103     26395     27031     27104     27105     26396
 -1      3656    4    0    1
 -2      8185      8275      8285      8195      8186      8276      8286      8196     27031     27104
 -2     27105     26396     26328     27036     27110     26402     27038     27111     27112     26403
 -1      3657    4    0    1
 -2      8186      8276      8286      8196      8187      8277      8287      8197     27038     27111
 -2     27112     26403     26335     27043     27117     26409     27045     27118     27119     26410
 -1      3658    4    0    1
 -2      8187      8277      8287      8197      8188      8278      8288      8198     27045     27118
 -2     27119     26410     26342     27050     27124     26416     27052     27125     27126     26417
 -1      3659    4    0    1
 -2      8188      8278      8288      8198      8189      8279      8289      8199     27052     27125
 -2     27126     26417     26349     27057     27131     26423     27059     27132     27133     26424
 -1      3660    4    0    1
 -2      8189      8279      8289      8199      8190      8280      8290      8200     27059     27132
 -2     27133     26424     26356     27064     27138     26430     27066     27139     27140     26431
 -1      3661    4    0    1
 -2      8190      8280      8290      8200      8191      8281      8291      8201     27066     27139
 -2     27140     26431     26363     27071     27145     26437     27073     27146     27147     26438
 -1      3662    4    0    1
 -2      8191      8281      8291      8201      8192      8282      8292      8202     27073     27146
 -2     27147     26438     26370     27078     27152     26444     27080     27153     27154     26445
 -1      3663    4    0    1
 -2      8192      8282      8292      8202      5028      5037      5038      5029     27080     27153
 -2     27154     26445     26377     27085     27159     26451      5821      5823      5824      5794
 -1      3664    4    0    1
 -2       632       641       642       633      8193      8283      8293      8203      1427      1429
 -2      1430      1400     26381     27089     27163     26455     27091     27164     27165     26456
 -1      3665    4    0    1
 -2      8193      8283      8293      8203      8194      8284      8294      8204     27091     27164
 -2     27165     26456     26388     27096     27170     26462     27098     27171     27172     26463
 -1      3666    4    0    1
 -2      8194      8284      8294      8204      8195      8285      8295      8205     27098     27171
 -2     27172     26463     26395     27103     27177     26469     27105     27178     27179     26470
 -1      3667    4    0    1
 -2      8195      8285      8295      8205      8196      8286      8296      8206     27105     27178
 -2     27179     26470     26402     27110     27184     26476     27112     27185     27186     26477
 -1      3668    4    0    1
 -2      8196      8286      8296      8206      8197      8287      8297      8207     27112     27185
 -2     27186     26477     26409     27117     27191     26483     27119     27192     27193     26484
 -1      3669    4    0    1
 -2      8197      8287      8297      8207      8198      8288      8298      8208     27119     27192
 -2     27193     26484     26416     27124     27198     26490     27126     27199     27200     26491
 -1      3670    4    0    1
 -2      8198      8288      8298      8208      8199      8289      8299      8209     27126     27199
 -2     27200     26491     26423     27131     27205     26497     27133     27206     27207     26498
 -1      3671    4    0    1
 -2      8199      8289      8299      8209      8200      8290      8300      8210     27133     27206
 -2     27207     26498     26430     27138     27212     26504     27140     27213     27214     26505
 -1      3672    4    0    1
 -2      8200      8290      8300      8210      8201      8291      8301      8211     27140     27213
 -2     27214     26505     26437     27145     27219     26511     27147     27220     27221     26512
 -1      3673    4    0    1
 -2      8201      8291      8301      8211      8202      8292      8302      8212     27147     27220
 -2     27221     26512     26444     27152     27226     26518     27154     27227     27228     26519
 -1      3674    4    0    1
 -2      8202      8292      8302      8212      5029      5038      5039      5030     27154     27227
 -2     27228     26519     26451     27159     27233     26525      5824      5826      5827      5797
 -1      3675    4    0    1
 -2       633       642       643       634      8203      8293      8303      8213      1430      1432
 -2      1433      1403     26455     27163     27237     26529     27165     27238     27239     26530
 -1      3676    4    0    1
 -2      8203      8293      8303      8213      8204      8294      8304      8214     27165     27238
 -2     27239     26530     26462     27170     27244     26536     27172     27245     27246     26537
 -1      3677    4    0    1
 -2      8204      8294      8304      8214      8205      8295      8305      8215     27172     27245
 -2     27246     26537     26469     27177     27251     26543     27179     27252     27253     26544
 -1      3678    4    0    1
 -2      8205      8295      8305      8215      8206      8296      8306      8216     27179     27252
 -2     27253     26544     26476     27184     27258     26550     27186     27259     27260     26551
 -1      3679    4    0    1
 -2      8206      8296      8306      8216      8207      8297      8307      8217     27186     27259
 -2     27260     26551     26483     27191     27265     26557     27193     27266     27267     26558
 -1      3680    4    0    1
 -2      8207      8297      8307      8217      8208      8298      8308      8218     27193     27266
 -2     27267     26558     26490     27198     27272     26564     27200     27273     27274     26565
 -1      3681    4    0    1
 -2      8208      8298      8308      8218      8209      8299      8309      8219     27200     27273
 -2     27274     26565     26497     27205     27279     26571     27207     27280     27281     26572
 -1      3682    4    0    1
 -2      8209      8299      8309      8219      8210      8300      8310      8220     27207     27280
 -2     27281     26572     26504     27212     27286     26578     27214     27287     27288     26579
 -1      3683    4    0    1
 -2      8210      8300      8310      8220      8211      8301      8311      8221     27214     27287
 -2     27288     26579     26511     27219     27293     26585     27221     27294     27295     26586
 -1      3684    4    0    1
 -2      8211      8301      8311      8221      8212      8302      8312      8222     27221     27294
 -2     27295     26586     26518     27226     27300     26592     27228     27301     27302     26593
 -1      3685    4    0    1
 -2      8212      8302      8312      8222      5030      5039      5040      5031     27228     27301
 -2     27302     26593     26525     27233     27307     26599      5827      5829      5830      5800
 -1      3686    4    0    1
 -2       634       643       644       635      8213      8303      8313      8223      1433      1435
 -2      1436      1406     26529     27237     27311     26603     27239     27312     27313     26604
 -1      3687    4    0    1
 -2      8213      8303      8313      8223      8214      8304      8314      8224     27239     27312
 -2     27313     26604     26536     27244     27318     26610     27246     27319     27320     26611
 -1      3688    4    0    1
 -2      8214      8304      8314      8224      8215      8305      8315      8225     27246     27319
 -2     27320     26611     26543     27251     27325     26617     27253     27326     27327     26618
 -1      3689    4    0    1
 -2      8215      8305      8315      8225      8216      8306      8316      8226     27253     27326
 -2     27327     26618     26550     27258     27332     26624     27260     27333     27334     26625
 -1      3690    4    0    1
 -2      8216      8306      8316      8226      8217      8307      8317      8227     27260     27333
 -2     27334     26625     26557     27265     27339     26631     27267     27340     27341     26632
 -1      3691    4    0    1
 -2      8217      8307      8317      8227      8218      8308      8318      8228     27267     27340
 -2     27341     26632     26564     27272     27346     26638     27274     27347     27348     26639
 -1      3692    4    0    1
 -2      8218      8308      8318      8228      8219      8309      8319      8229     27274     27347
 -2     27348     26639     26571     27279     27353     26645     27281     27354     27355     26646
 -1      3693    4    0    1
 -2      8219      8309      8319      8229      8220      8310      8320      8230     27281     27354
 -2     27355     26646     26578     27286     27360     26652     27288     27361     27362     26653
 -1      3694    4    0    1
 -2      8220      8310      8320      8230      8221      8311      8321      8231     27288     27361
 -2     27362     26653     26585     27293     27367     26659     27295     27368     27369     26660
 -1      3695    4    0    1
 -2      8221      8311      8321      8231      8222      8312      8322      8232     27295     27368
 -2     27369     26660     26592     27300     27374     26666     27302     27375     27376     26667
 -1      3696    4    0    1
 -2      8222      8312      8322      8232      5031      5040      5041      5032     27302     27375
 -2     27376     26667     26599     27307     27381     26673      5830      5832      5833      5803
 -1      3697    4    0    1
 -2       635       644       645       636      8223      8313      8323      8233      1436      1438
 -2      1439      1409     26603     27311     27385     26677     27313     27386     27387     26678
 -1      3698    4    0    1
 -2      8223      8313      8323      8233      8224      8314      8324      8234     27313     27386
 -2     27387     26678     26610     27318     27392     26684     27320     27393     27394     26685
 -1      3699    4    0    1
 -2      8224      8314      8324      8234      8225      8315      8325      8235     27320     27393
 -2     27394     26685     26617     27325     27399     26691     27327     27400     27401     26692
 -1      3700    4    0    1
 -2      8225      8315      8325      8235      8226      8316      8326      8236     27327     27400
 -2     27401     26692     26624     27332     27406     26698     27334     27407     27408     26699
 -1      3701    4    0    1
 -2      8226      8316      8326      8236      8227      8317      8327      8237     27334     27407
 -2     27408     26699     26631     27339     27413     26705     27341     27414     27415     26706
 -1      3702    4    0    1
 -2      8227      8317      8327      8237      8228      8318      8328      8238     27341     27414
 -2     27415     26706     26638     27346     27420     26712     27348     27421     27422     26713
 -1      3703    4    0    1
 -2      8228      8318      8328      8238      8229      8319      8329      8239     27348     27421
 -2     27422     26713     26645     27353     27427     26719     27355     27428     27429     26720
 -1      3704    4    0    1
 -2      8229      8319      8329      8239      8230      8320      8330      8240     27355     27428
 -2     27429     26720     26652     27360     27434     26726     27362     27435     27436     26727
 -1      3705    4    0    1
 -2      8230      8320      8330      8240      8231      8321      8331      8241     27362     27435
 -2     27436     26727     26659     27367     27441     26733     27369     27442     27443     26734
 -1      3706    4    0    1
 -2      8231      8321      8331      8241      8232      8322      8332      8242     27369     27442
 -2     27443     26734     26666     27374     27448     26740     27376     27449     27450     26741
 -1      3707    4    0    1
 -2      8232      8322      8332      8242      5032      5041      5042      5033     27376     27449
 -2     27450     26741     26673     27381     27455     26747      5833      5835      5836      5806
 -1      3708    4    0    1
 -2       636       645       646       637      8233      8323      8333      8243      1439      1441
 -2      1442      1412     26677     27385     27459     26751     27387     27460     27461     26752
 -1      3709    4    0    1
 -2      8233      8323      8333      8243      8234      8324      8334      8244     27387     27460
 -2     27461     26752     26684     27392     27466     26758     27394     27467     27468     26759
 -1      3710    4    0    1
 -2      8234      8324      8334      8244      8235      8325      8335      8245     27394     27467
 -2     27468     26759     26691     27399     27473     26765     27401     27474     27475     26766
 -1      3711    4    0    1
 -2      8235      8325      8335      8245      8236      8326      8336      8246     27401     27474
 -2     27475     26766     26698     27406     27480     26772     27408     27481     27482     26773
 -1      3712    4    0    1
 -2      8236      8326      8336      8246      8237      8327      8337      8247     27408     27481
 -2     27482     26773     26705     27413     27487     26779     27415     27488     27489     26780
 -1      3713    4    0    1
 -2      8237      8327      8337      8247      8238      8328      8338      8248     27415     27488
 -2     27489     26780     26712     27420     27494     26786     27422     27495     27496     26787
 -1      3714    4    0    1
 -2      8238      8328      8338      8248      8239      8329      8339      8249     27422     27495
 -2     27496     26787     26719     27427     27501     26793     27429     27502     27503     26794
 -1      3715    4    0    1
 -2      8239      8329      8339      8249      8240      8330      8340      8250     27429     27502
 -2     27503     26794     26726     27434     27508     26800     27436     27509     27510     26801
 -1      3716    4    0    1
 -2      8240      8330      8340      8250      8241      8331      8341      8251     27436     27509
 -2     27510     26801     26733     27441     27515     26807     27443     27516     27517     26808
 -1      3717    4    0    1
 -2      8241      8331      8341      8251      8242      8332      8342      8252     27443     27516
 -2     27517     26808     26740     27448     27522     26814     27450     27523     27524     26815
 -1      3718    4    0    1
 -2      8242      8332      8342      8252      5033      5042      5043      5034     27450     27523
 -2     27524     26815     26747     27455     27529     26821      5836      5838      5839      5809
 -1      3719    4    0    1
 -2       637       646       647       638      8243      8333      8343      8253      1442      1444
 -2      1445      1415     26751     27459     27533     26825     27461     27534     27535     26826
 -1      3720    4    0    1
 -2      8243      8333      8343      8253      8244      8334      8344      8254     27461     27534
 -2     27535     26826     26758     27466     27540     26832     27468     27541     27542     26833
 -1      3721    4    0    1
 -2      8244      8334      8344      8254      8245      8335      8345      8255     27468     27541
 -2     27542     26833     26765     27473     27547     26839     27475     27548     27549     26840
 -1      3722    4    0    1
 -2      8245      8335      8345      8255      8246      8336      8346      8256     27475     27548
 -2     27549     26840     26772     27480     27554     26846     27482     27555     27556     26847
 -1      3723    4    0    1
 -2      8246      8336      8346      8256      8247      8337      8347      8257     27482     27555
 -2     27556     26847     26779     27487     27561     26853     27489     27562     27563     26854
 -1      3724    4    0    1
 -2      8247      8337      8347      8257      8248      8338      8348      8258     27489     27562
 -2     27563     26854     26786     27494     27568     26860     27496     27569     27570     26861
 -1      3725    4    0    1
 -2      8248      8338      8348      8258      8249      8339      8349      8259     27496     27569
 -2     27570     26861     26793     27501     27575     26867     27503     27576     27577     26868
 -1      3726    4    0    1
 -2      8249      8339      8349      8259      8250      8340      8350      8260     27503     27576
 -2     27577     26868     26800     27508     27582     26874     27510     27583     27584     26875
 -1      3727    4    0    1
 -2      8250      8340      8350      8260      8251      8341      8351      8261     27510     27583
 -2     27584     26875     26807     27515     27589     26881     27517     27590     27591     26882
 -1      3728    4    0    1
 -2      8251      8341      8351      8261      8252      8342      8352      8262     27517     27590
 -2     27591     26882     26814     27522     27596     26888     27524     27597     27598     26889
 -1      3729    4    0    1
 -2      8252      8342      8352      8262      5034      5043      5044      5035     27524     27597
 -2     27598     26889     26821     27529     27603     26895      5839      5841      5842      5812
 -1      3730    4    0    1
 -2       638       647        89        90      8253      8343      3184      3194      1445      1447
 -2       119      1418     26825     27533      3518      3550     27535     27607      3551     26899
 -1      3731    4    0    1
 -2      8253      8343      3184      3194      8254      8344      3185      3195     27535     27607
 -2      3551     26899     26832     27540      3521      3553     27542     27611      3554     26903
 -1      3732    4    0    1
 -2      8254      8344      3185      3195      8255      8345      3186      3196     27542     27611
 -2      3554     26903     26839     27547      3524      3556     27549     27615      3557     26907
 -1      3733    4    0    1
 -2      8255      8345      3186      3196      8256      8346      3187      3197     27549     27615
 -2      3557     26907     26846     27554      3527      3559     27556     27619      3560     26911
 -1      3734    4    0    1
 -2      8256      8346      3187      3197      8257      8347      3188      3198     27556     27619
 -2      3560     26911     26853     27561      3530      3562     27563     27623      3563     26915
 -1      3735    4    0    1
 -2      8257      8347      3188      3198      8258      8348      3189      3199     27563     27623
 -2      3563     26915     26860     27568      3533      3565     27570     27627      3566     26919
 -1      3736    4    0    1
 -2      8258      8348      3189      3199      8259      8349      3190      3200     27570     27627
 -2      3566     26919     26867     27575      3536      3568     27577     27631      3569     26923
 -1      3737    4    0    1
 -2      8259      8349      3190      3200      8260      8350      3191      3201     27577     27631
 -2      3569     26923     26874     27582      3539      3571     27584     27635      3572     26927
 -1      3738    4    0    1
 -2      8260      8350      3191      3201      8261      8351      3192      3202     27584     27635
 -2      3572     26927     26881     27589      3542      3574     27591     27639      3575     26931
 -1      3739    4    0    1
 -2      8261      8351      3192      3202      8262      8352      3193      3203     27591     27639
 -2      3575     26931     26888     27596      3545      3577     27598     27643      3578     26935
 -1      3740    4    0    1
 -2      8262      8352      3193      3203      5035      5044       245       246     27598     27643
 -2      3578     26935     26895     27603      3548      3580      5842      5844       275      5815
 -1      3741    4    0    1
 -2        35        36       648       639      1786      1796      8353      8263        65      1449
 -2      1450      1420      2648      2680     27649     26941      2681     27650     27651     26942
 -1      3742    4    0    1
 -2      1786      1796      8353      8263      1787      1797      8354      8264      2681     27650
 -2     27651     26942      2651      2683     27656     26948      2684     27657     27658     26949
 -1      3743    4    0    1
 -2      1787      1797      8354      8264      1788      1798      8355      8265      2684     27657
 -2     27658     26949      2654      2686     27663     26955      2687     27664     27665     26956
 -1      3744    4    0    1
 -2      1788      1798      8355      8265      1789      1799      8356      8266      2687     27664
 -2     27665     26956      2657      2689     27670     26962      2690     27671     27672     26963
 -1      3745    4    0    1
 -2      1789      1799      8356      8266      1790      1800      8357      8267      2690     27671
 -2     27672     26963      2660      2692     27677     26969      2693     27678     27679     26970
 -1      3746    4    0    1
 -2      1790      1800      8357      8267      1791      1801      8358      8268      2693     27678
 -2     27679     26970      2663      2695     27684     26976      2696     27685     27686     26977
 -1      3747    4    0    1
 -2      1791      1801      8358      8268      1792      1802      8359      8269      2696     27685
 -2     27686     26977      2666      2698     27691     26983      2699     27692     27693     26984
 -1      3748    4    0    1
 -2      1792      1802      8359      8269      1793      1803      8360      8270      2699     27692
 -2     27693     26984      2669      2701     27698     26990      2702     27699     27700     26991
 -1      3749    4    0    1
 -2      1793      1803      8360      8270      1794      1804      8361      8271      2702     27699
 -2     27700     26991      2672      2704     27705     26997      2705     27706     27707     26998
 -1      3750    4    0    1
 -2      1794      1804      8361      8271      1795      1805      8362      8272      2705     27706
 -2     27707     26998      2675      2707     27712     27004      2708     27713     27714     27005
 -1      3751    4    0    1
 -2      1795      1805      8362      8272       191       192      5045      5036      2708     27713
 -2     27714     27005      2678      2710     27719     27011       221      5846      5847      5817
 -1      3752    4    0    1
 -2       639       648       649       640      8263      8353      8363      8273      1450      1452
 -2      1453      1423     26941     27649     27723     27015     27651     27724     27725     27016
 -1      3753    4    0    1
 -2      8263      8353      8363      8273      8264      8354      8364      8274     27651     27724
 -2     27725     27016     26948     27656     27730     27022     27658     27731     27732     27023
 -1      3754    4    0    1
 -2      8264      8354      8364      8274      8265      8355      8365      8275     27658     27731
 -2     27732     27023     26955     27663     27737     27029     27665     27738     27739     27030
 -1      3755    4    0    1
 -2      8265      8355      8365      8275      8266      8356      8366      8276     27665     27738
 -2     27739     27030     26962     27670     27744     27036     27672     27745     27746     27037
 -1      3756    4    0    1
 -2      8266      8356      8366      8276      8267      8357      8367      8277     27672     27745
 -2     27746     27037     26969     27677     27751     27043     27679     27752     27753     27044
 -1      3757    4    0    1
 -2      8267      8357      8367      8277      8268      8358      8368      8278     27679     27752
 -2     27753     27044     26976     27684     27758     27050     27686     27759     27760     27051
 -1      3758    4    0    1
 -2      8268      8358      8368      8278      8269      8359      8369      8279     27686     27759
 -2     27760     27051     26983     27691     27765     27057     27693     27766     27767     27058
 -1      3759    4    0    1
 -2      8269      8359      8369      8279      8270      8360      8370      8280     27693     27766
 -2     27767     27058     26990     27698     27772     27064     27700     27773     27774     27065
 -1      3760    4    0    1
 -2      8270      8360      8370      8280      8271      8361      8371      8281     27700     27773
 -2     27774     27065     26997     27705     27779     27071     27707     27780     27781     27072
 -1      3761    4    0    1
 -2      8271      8361      8371      8281      8272      8362      8372      8282     27707     27780
 -2     27781     27072     27004     27712     27786     27078     27714     27787     27788     27079
 -1      3762    4    0    1
 -2      8272      8362      8372      8282      5036      5045      5046      5037     27714     27787
 -2     27788     27079     27011     27719     27793     27085      5847      5849      5850      5820
 -1      3763    4    0    1
 -2       640       649       650       641      8273      8363      8373      8283      1453      1455
 -2      1456      1426     27015     27723     27797     27089     27725     27798     27799     27090
 -1      3764    4    0    1
 -2      8273      8363      8373      8283      8274      8364      8374      8284     27725     27798
 -2     27799     27090     27022     27730     27804     27096     27732     27805     27806     27097
 -1      3765    4    0    1
 -2      8274      8364      8374      8284      8275      8365      8375      8285     27732     27805
 -2     27806     27097     27029     27737     27811     27103     27739     27812     27813     27104
 -1      3766    4    0    1
 -2      8275      8365      8375      8285      8276      8366      8376      8286     27739     27812
 -2     27813     27104     27036     27744     27818     27110     27746     27819     27820     27111
 -1      3767    4    0    1
 -2      8276      8366      8376      8286      8277      8367      8377      8287     27746     27819
 -2     27820     27111     27043     27751     27825     27117     27753     27826     27827     27118
 -1      3768    4    0    1
 -2      8277      8367      8377      8287      8278      8368      8378      8288     27753     27826
 -2     27827     27118     27050     27758     27832     27124     27760     27833     27834     27125
 -1      3769    4    0    1
 -2      8278      8368      8378      8288      8279      8369      8379      8289     27760     27833
 -2     27834     27125     27057     27765     27839     27131     27767     27840     27841     27132
 -1      3770    4    0    1
 -2      8279      8369      8379      8289      8280      8370      8380      8290     27767     27840
 -2     27841     27132     27064     27772     27846     27138     27774     27847     27848     27139
 -1      3771    4    0    1
 -2      8280      8370      8380      8290      8281      8371      8381      8291     27774     27847
 -2     27848     27139     27071     27779     27853     27145     27781     27854     27855     27146
 -1      3772    4    0    1
 -2      8281      8371      8381      8291      8282      8372      8382      8292     27781     27854
 -2     27855     27146     27078     27786     27860     27152     27788     27861     27862     27153
 -1      3773    4    0    1
 -2      8282      8372      8382      8292      5037      5046      5047      5038     27788     27861
 -2     27862     27153     27085     27793     27867     27159      5850      5852      5853      5823
 -1      3774    4    0    1
 -2       641       650       651       642      8283      8373      8383      8293      1456      1458
 -2      1459      1429     27089     27797     27871     27163     27799     27872     27873     27164
 -1      3775    4    0    1
 -2      8283      8373      8383      8293      8284      8374      8384      8294     27799     27872
 -2     27873     27164     27096     27804     27878     27170     27806     27879     27880     27171
 -1      3776    4    0    1
 -2      8284      8374      8384      8294      8285      8375      8385      8295     27806     27879
 -2     27880     27171     27103     27811     27885     27177     27813     27886     27887     27178
 -1      3777    4    0    1
 -2      8285      8375      8385      8295      8286      8376      8386      8296     27813     27886
 -2     27887     27178     27110     27818     27892     27184     27820     27893     27894     27185
 -1      3778    4    0    1
 -2      8286      8376      8386      8296      8287      8377      8387      8297     27820     27893
 -2     27894     27185     27117     27825     27899     27191     27827     27900     27901     27192
 -1      3779    4    0    1
 -2      8287      8377      8387      8297      8288      8378      8388      8298     27827     27900
 -2     27901     27192     27124     27832     27906     27198     27834     27907     27908     27199
 -1      3780    4    0    1
 -2      8288      8378      8388      8298      8289      8379      8389      8299     27834     27907
 -2     27908     27199     27131     27839     27913     27205     27841     27914     27915     27206
 -1      3781    4    0    1
 -2      8289      8379      8389      8299      8290      8380      8390      8300     27841     27914
 -2     27915     27206     27138     27846     27920     27212     27848     27921     27922     27213
 -1      3782    4    0    1
 -2      8290      8380      8390      8300      8291      8381      8391      8301     27848     27921
 -2     27922     27213     27145     27853     27927     27219     27855     27928     27929     27220
 -1      3783    4    0    1
 -2      8291      8381      8391      8301      8292      8382      8392      8302     27855     27928
 -2     27929     27220     27152     27860     27934     27226     27862     27935     27936     27227
 -1      3784    4    0    1
 -2      8292      8382      8392      8302      5038      5047      5048      5039     27862     27935
 -2     27936     27227     27159     27867     27941     27233      5853      5855      5856      5826
 -1      3785    4    0    1
 -2       642       651       652       643      8293      8383      8393      8303      1459      1461
 -2      1462      1432     27163     27871     27945     27237     27873     27946     27947     27238
 -1      3786    4    0    1
 -2      8293      8383      8393      8303      8294      8384      8394      8304     27873     27946
 -2     27947     27238     27170     27878     27952     27244     27880     27953     27954     27245
 -1      3787    4    0    1
 -2      8294      8384      8394      8304      8295      8385      8395      8305     27880     27953
 -2     27954     27245     27177     27885     27959     27251     27887     27960     27961     27252
 -1      3788    4    0    1
 -2      8295      8385      8395      8305      8296      8386      8396      8306     27887     27960
 -2     27961     27252     27184     27892     27966     27258     27894     27967     27968     27259
 -1      3789    4    0    1
 -2      8296      8386      8396      8306      8297      8387      8397      8307     27894     27967
 -2     27968     27259     27191     27899     27973     27265     27901     27974     27975     27266
 -1      3790    4    0    1
 -2      8297      8387      8397      8307      8298      8388      8398      8308     27901     27974
 -2     27975     27266     27198     27906     27980     27272     27908     27981     27982     27273
 -1      3791    4    0    1
 -2      8298      8388      8398      8308      8299      8389      8399      8309     27908     27981
 -2     27982     27273     27205     27913     27987     27279     27915     27988     27989     27280
 -1      3792    4    0    1
 -2      8299      8389      8399      8309      8300      8390      8400      8310     27915     27988
 -2     27989     27280     27212     27920     27994     27286     27922     27995     27996     27287
 -1      3793    4    0    1
 -2      8300      8390      8400      8310      8301      8391      8401      8311     27922     27995
 -2     27996     27287     27219     27927     28001     27293     27929     28002     28003     27294
 -1      3794    4    0    1
 -2      8301      8391      8401      8311      8302      8392      8402      8312     27929     28002
 -2     28003     27294     27226     27934     28008     27300     27936     28009     28010     27301
 -1      3795    4    0    1
 -2      8302      8392      8402      8312      5039      5048      5049      5040     27936     28009
 -2     28010     27301     27233     27941     28015     27307      5856      5858      5859      5829
 -1      3796    4    0    1
 -2       643       652       653       644      8303      8393      8403      8313      1462      1464
 -2      1465      1435     27237     27945     28019     27311     27947     28020     28021     27312
 -1      3797    4    0    1
 -2      8303      8393      8403      8313      8304      8394      8404      8314     27947     28020
 -2     28021     27312     27244     27952     28026     27318     27954     28027     28028     27319
 -1      3798    4    0    1
 -2      8304      8394      8404      8314      8305      8395      8405      8315     27954     28027
 -2     28028     27319     27251     27959     28033     27325     27961     28034     28035     27326
 -1      3799    4    0    1
 -2      8305      8395      8405      8315      8306      8396      8406      8316     27961     28034
 -2     28035     27326     27258     27966     28040     27332     27968     28041     28042     27333
 -1      3800    4    0    1
 -2      8306      8396      8406      8316      8307      8397      8407      8317     27968     28041
 -2     28042     27333     27265     27973     28047     27339     27975     28048     28049     27340
 -1      3801    4    0    1
 -2      8307      8397      8407      8317      8308      8398      8408      8318     27975     28048
 -2     28049     27340     27272     27980     28054     27346     27982     28055     28056     27347
 -1      3802    4    0    1
 -2      8308      8398      8408      8318      8309      8399      8409      8319     27982     28055
 -2     28056     27347     27279     27987     28061     27353     27989     28062     28063     27354
 -1      3803    4    0    1
 -2      8309      8399      8409      8319      8310      8400      8410      8320     27989     28062
 -2     28063     27354     27286     27994     28068     27360     27996     28069     28070     27361
 -1      3804    4    0    1
 -2      8310      8400      8410      8320      8311      8401      8411      8321     27996     28069
 -2     28070     27361     27293     28001     28075     27367     28003     28076     28077     27368
 -1      3805    4    0    1
 -2      8311      8401      8411      8321      8312      8402      8412      8322     28003     28076
 -2     28077     27368     27300     28008     28082     27374     28010     28083     28084     27375
 -1      3806    4    0    1
 -2      8312      8402      8412      8322      5040      5049      5050      5041     28010     28083
 -2     28084     27375     27307     28015     28089     27381      5859      5861      5862      5832
 -1      3807    4    0    1
 -2       644       653       654       645      8313      8403      8413      8323      1465      1467
 -2      1468      1438     27311     28019     28093     27385     28021     28094     28095     27386
 -1      3808    4    0    1
 -2      8313      8403      8413      8323      8314      8404      8414      8324     28021     28094
 -2     28095     27386     27318     28026     28100     27392     28028     28101     28102     27393
 -1      3809    4    0    1
 -2      8314      8404      8414      8324      8315      8405      8415      8325     28028     28101
 -2     28102     27393     27325     28033     28107     27399     28035     28108     28109     27400
 -1      3810    4    0    1
 -2      8315      8405      8415      8325      8316      8406      8416      8326     28035     28108
 -2     28109     27400     27332     28040     28114     27406     28042     28115     28116     27407
 -1      3811    4    0    1
 -2      8316      8406      8416      8326      8317      8407      8417      8327     28042     28115
 -2     28116     27407     27339     28047     28121     27413     28049     28122     28123     27414
 -1      3812    4    0    1
 -2      8317      8407      8417      8327      8318      8408      8418      8328     28049     28122
 -2     28123     27414     27346     28054     28128     27420     28056     28129     28130     27421
 -1      3813    4    0    1
 -2      8318      8408      8418      8328      8319      8409      8419      8329     28056     28129
 -2     28130     27421     27353     28061     28135     27427     28063     28136     28137     27428
 -1      3814    4    0    1
 -2      8319      8409      8419      8329      8320      8410      8420      8330     28063     28136
 -2     28137     27428     27360     28068     28142     27434     28070     28143     28144     27435
 -1      3815    4    0    1
 -2      8320      8410      8420      8330      8321      8411      8421      8331     28070     28143
 -2     28144     27435     27367     28075     28149     27441     28077     28150     28151     27442
 -1      3816    4    0    1
 -2      8321      8411      8421      8331      8322      8412      8422      8332     28077     28150
 -2     28151     27442     27374     28082     28156     27448     28084     28157     28158     27449
 -1      3817    4    0    1
 -2      8322      8412      8422      8332      5041      5050      5051      5042     28084     28157
 -2     28158     27449     27381     28089     28163     27455      5862      5864      5865      5835
 -1      3818    4    0    1
 -2       645       654       655       646      8323      8413      8423      8333      1468      1470
 -2      1471      1441     27385     28093     28167     27459     28095     28168     28169     27460
 -1      3819    4    0    1
 -2      8323      8413      8423      8333      8324      8414      8424      8334     28095     28168
 -2     28169     27460     27392     28100     28174     27466     28102     28175     28176     27467
 -1      3820    4    0    1
 -2      8324      8414      8424      8334      8325      8415      8425      8335     28102     28175
 -2     28176     27467     27399     28107     28181     27473     28109     28182     28183     27474
 -1      3821    4    0    1
 -2      8325      8415      8425      8335      8326      8416      8426      8336     28109     28182
 -2     28183     27474     27406     28114     28188     27480     28116     28189     28190     27481
 -1      3822    4    0    1
 -2      8326      8416      8426      8336      8327      8417      8427      8337     28116     28189
 -2     28190     27481     27413     28121     28195     27487     28123     28196     28197     27488
 -1      3823    4    0    1
 -2      8327      8417      8427      8337      8328      8418      8428      8338     28123     28196
 -2     28197     27488     27420     28128     28202     27494     28130     28203     28204     27495
 -1      3824    4    0    1
 -2      8328      8418      8428      8338      8329      8419      8429      8339     28130     28203
 -2     28204     27495     27427     28135     28209     27501     28137     28210     28211     27502
 -1      3825    4    0    1
 -2      8329      8419      8429      8339      8330      8420      8430      8340     28137     28210
 -2     28211     27502     27434     28142     28216     27508     28144     28217     28218     27509
 -1      3826    4    0    1
 -2      8330      8420      8430      8340      8331      8421      8431      8341     28144     28217
 -2     28218     27509     27441     28149     28223     27515     28151     28224     28225     27516
 -1      3827    4    0    1
 -2      8331      8421      8431      8341      8332      8422      8432      8342     28151     28224
 -2     28225     27516     27448     28156     28230     27522     28158     28231     28232     27523
 -1      3828    4    0    1
 -2      8332      8422      8432      8342      5042      5051      5052      5043     28158     28231
 -2     28232     27523     27455     28163     28237     27529      5865      5867      5868      5838
 -1      3829    4    0    1
 -2       646       655       656       647      8333      8423      8433      8343      1471      1473
 -2      1474      1444     27459     28167     28241     27533     28169     28242     28243     27534
 -1      3830    4    0    1
 -2      8333      8423      8433      8343      8334      8424      8434      8344     28169     28242
 -2     28243     27534     27466     28174     28248     27540     28176     28249     28250     27541
 -1      3831    4    0    1
 -2      8334      8424      8434      8344      8335      8425      8435      8345     28176     28249
 -2     28250     27541     27473     28181     28255     27547     28183     28256     28257     27548
 -1      3832    4    0    1
 -2      8335      8425      8435      8345      8336      8426      8436      8346     28183     28256
 -2     28257     27548     27480     28188     28262     27554     28190     28263     28264     27555
 -1      3833    4    0    1
 -2      8336      8426      8436      8346      8337      8427      8437      8347     28190     28263
 -2     28264     27555     27487     28195     28269     27561     28197     28270     28271     27562
 -1      3834    4    0    1
 -2      8337      8427      8437      8347      8338      8428      8438      8348     28197     28270
 -2     28271     27562     27494     28202     28276     27568     28204     28277     28278     27569
 -1      3835    4    0    1
 -2      8338      8428      8438      8348      8339      8429      8439      8349     28204     28277
 -2     28278     27569     27501     28209     28283     27575     28211     28284     28285     27576
 -1      3836    4    0    1
 -2      8339      8429      8439      8349      8340      8430      8440      8350     28211     28284
 -2     28285     27576     27508     28216     28290     27582     28218     28291     28292     27583
 -1      3837    4    0    1
 -2      8340      8430      8440      8350      8341      8431      8441      8351     28218     28291
 -2     28292     27583     27515     28223     28297     27589     28225     28298     28299     27590
 -1      3838    4    0    1
 -2      8341      8431      8441      8351      8342      8432      8442      8352     28225     28298
 -2     28299     27590     27522     28230     28304     27596     28232     28305     28306     27597
 -1      3839    4    0    1
 -2      8342      8432      8442      8352      5043      5052      5053      5044     28232     28305
 -2     28306     27597     27529     28237     28311     27603      5868      5870      5871      5841
 -1      3840    4    0    1
 -2       647       656        88        89      8343      8433      3174      3184      1474      1476
 -2       118      1447     27533     28241      3486      3518     28243     28315      3519     27607
 -1      3841    4    0    1
 -2      8343      8433      3174      3184      8344      8434      3175      3185     28243     28315
 -2      3519     27607     27540     28248      3489      3521     28250     28319      3522     27611
 -1      3842    4    0    1
 -2      8344      8434      3175      3185      8345      8435      3176      3186     28250     28319
 -2      3522     27611     27547     28255      3492      3524     28257     28323      3525     27615
 -1      3843    4    0    1
 -2      8345      8435      3176      3186      8346      8436      3177      3187     28257     28323
 -2      3525     27615     27554     28262      3495      3527     28264     28327      3528     27619
 -1      3844    4    0    1
 -2      8346      8436      3177      3187      8347      8437      3178      3188     28264     28327
 -2      3528     27619     27561     28269      3498      3530     28271     28331      3531     27623
 -1      3845    4    0    1
 -2      8347      8437      3178      3188      8348      8438      3179      3189     28271     28331
 -2      3531     27623     27568     28276      3501      3533     28278     28335      3534     27627
 -1      3846    4    0    1
 -2      8348      8438      3179      3189      8349      8439      3180      3190     28278     28335
 -2      3534     27627     27575     28283      3504      3536     28285     28339      3537     27631
 -1      3847    4    0    1
 -2      8349      8439      3180      3190      8350      8440      3181      3191     28285     28339
 -2      3537     27631     27582     28290      3507      3539     28292     28343      3540     27635
 -1      3848    4    0    1
 -2      8350      8440      3181      3191      8351      8441      3182      3192     28292     28343
 -2      3540     27635     27589     28297      3510      3542     28299     28347      3543     27639
 -1      3849    4    0    1
 -2      8351      8441      3182      3192      8352      8442      3183      3193     28299     28347
 -2      3543     27639     27596     28304      3513      3545     28306     28351      3546     27643
 -1      3850    4    0    1
 -2      8352      8442      3183      3193      5044      5053       244       245     28306     28351
 -2      3546     27643     27603     28311      3516      3548      5871      5873       274      5844
 -1      3851    4    0    1
 -2        36        37       657       648      1796      1806      8443      8353        66      1478
 -2      1479      1449      2680      2712     28357     27649      2713     28358     28359     27650
 -1      3852    4    0    1
 -2      1796      1806      8443      8353      1797      1807      8444      8354      2713     28358
 -2     28359     27650      2683      2715     28364     27656      2716     28365     28366     27657
 -1      3853    4    0    1
 -2      1797      1807      8444      8354      1798      1808      8445      8355      2716     28365
 -2     28366     27657      2686      2718     28371     27663      2719     28372     28373     27664
 -1      3854    4    0    1
 -2      1798      1808      8445      8355      1799      1809      8446      8356      2719     28372
 -2     28373     27664      2689      2721     28378     27670      2722     28379     28380     27671
 -1      3855    4    0    1
 -2      1799      1809      8446      8356      1800      1810      8447      8357      2722     28379
 -2     28380     27671      2692      2724     28385     27677      2725     28386     28387     27678
 -1      3856    4    0    1
 -2      1800      1810      8447      8357      1801      1811      8448      8358      2725     28386
 -2     28387     27678      2695      2727     28392     27684      2728     28393     28394     27685
 -1      3857    4    0    1
 -2      1801      1811      8448      8358      1802      1812      8449      8359      2728     28393
 -2     28394     27685      2698      2730     28399     27691      2731     28400     28401     27692
 -1      3858    4    0    1
 -2      1802      1812      8449      8359      1803      1813      8450      8360      2731     28400
 -2     28401     27692      2701      2733     28406     27698      2734     28407     28408     27699
 -1      3859    4    0    1
 -2      1803      1813      8450      8360      1804      1814      8451      8361      2734     28407
 -2     28408     27699      2704      2736     28413     27705      2737     28414     28415     27706
 -1      3860    4    0    1
 -2      1804      1814      8451      8361      1805      1815      8452      8362      2737     28414
 -2     28415     27706      2707      2739     28420     27712      2740     28421     28422     27713
 -1      3861    4    0    1
 -2      1805      1815      8452      8362       192       193      5054      5045      2740     28421
 -2     28422     27713      2710      2742     28427     27719       222      5875      5876      5846
 -1      3862    4    0    1
 -2       648       657       658       649      8353      8443      8453      8363      1479      1481
 -2      1482      1452     27649     28357     28431     27723     28359     28432     28433     27724
 -1      3863    4    0    1
 -2      8353      8443      8453      8363      8354      8444      8454      8364     28359     28432
 -2     28433     27724     27656     28364     28438     27730     28366     28439     28440     27731
 -1      3864    4    0    1
 -2      8354      8444      8454      8364      8355      8445      8455      8365     28366     28439
 -2     28440     27731     27663     28371     28445     27737     28373     28446     28447     27738
 -1      3865    4    0    1
 -2      8355      8445      8455      8365      8356      8446      8456      8366     28373     28446
 -2     28447     27738     27670     28378     28452     27744     28380     28453     28454     27745
 -1      3866    4    0    1
 -2      8356      8446      8456      8366      8357      8447      8457      8367     28380     28453
 -2     28454     27745     27677     28385     28459     27751     28387     28460     28461     27752
 -1      3867    4    0    1
 -2      8357      8447      8457      8367      8358      8448      8458      8368     28387     28460
 -2     28461     27752     27684     28392     28466     27758     28394     28467     28468     27759
 -1      3868    4    0    1
 -2      8358      8448      8458      8368      8359      8449      8459      8369     28394     28467
 -2     28468     27759     27691     28399     28473     27765     28401     28474     28475     27766
 -1      3869    4    0    1
 -2      8359      8449      8459      8369      8360      8450      8460      8370     28401     28474
 -2     28475     27766     27698     28406     28480     27772     28408     28481     28482     27773
 -1      3870    4    0    1
 -2      8360      8450      8460      8370      8361      8451      8461      8371     28408     28481
 -2     28482     27773     27705     28413     28487     27779     28415     28488     28489     27780
 -1      3871    4    0    1
 -2      8361      8451      8461      8371      8362      8452      8462      8372     28415     28488
 -2     28489     27780     27712     28420     28494     27786     28422     28495     28496     27787
 -1      3872    4    0    1
 -2      8362      8452      8462      8372      5045      5054      5055      5046     28422     28495
 -2     28496     27787     27719     28427     28501     27793      5876      5878      5879      5849
 -1      3873    4    0    1
 -2       649       658       659       650      8363      8453      8463      8373      1482      1484
 -2      1485      1455     27723     28431     28505     27797     28433     28506     28507     27798
 -1      3874    4    0    1
 -2      8363      8453      8463      8373      8364      8454      8464      8374     28433     28506
 -2     28507     27798     27730     28438     28512     27804     28440     28513     28514     27805
 -1      3875    4    0    1
 -2      8364      8454      8464      8374      8365      8455      8465      8375     28440     28513
 -2     28514     27805     27737     28445     28519     27811     28447     28520     28521     27812
 -1      3876    4    0    1
 -2      8365      8455      8465      8375      8366      8456      8466      8376     28447     28520
 -2     28521     27812     27744     28452     28526     27818     28454     28527     28528     27819
 -1      3877    4    0    1
 -2      8366      8456      8466      8376      8367      8457      8467      8377     28454     28527
 -2     28528     27819     27751     28459     28533     27825     28461     28534     28535     27826
 -1      3878    4    0    1
 -2      8367      8457      8467      8377      8368      8458      8468      8378     28461     28534
 -2     28535     27826     27758     28466     28540     27832     28468     28541     28542     27833
 -1      3879    4    0    1
 -2      8368      8458      8468      8378      8369      8459      8469      8379     28468     28541
 -2     28542     27833     27765     28473     28547     27839     28475     28548     28549     27840
 -1      3880    4    0    1
 -2      8369      8459      8469      8379      8370      8460      8470      8380     28475     28548
 -2     28549     27840     27772     28480     28554     27846     28482     28555     28556     27847
 -1      3881    4    0    1
 -2      8370      8460      8470      8380      8371      8461      8471      8381     28482     28555
 -2     28556     27847     27779     28487     28561     27853     28489     28562     28563     27854
 -1      3882    4    0    1
 -2      8371      8461      8471      8381      8372      8462      8472      8382     28489     28562
 -2     28563     27854     27786     28494     28568     27860     28496     28569     28570     27861
 -1      3883    4    0    1
 -2      8372      8462      8472      8382      5046      5055      5056      5047     28496     28569
 -2     28570     27861     27793     28501     28575     27867      5879      5881      5882      5852
 -1      3884    4    0    1
 -2       650       659       660       651      8373      8463      8473      8383      1485      1487
 -2      1488      1458     27797     28505     28579     27871     28507     28580     28581     27872
 -1      3885    4    0    1
 -2      8373      8463      8473      8383      8374      8464      8474      8384     28507     28580
 -2     28581     27872     27804     28512     28586     27878     28514     28587     28588     27879
 -1      3886    4    0    1
 -2      8374      8464      8474      8384      8375      8465      8475      8385     28514     28587
 -2     28588     27879     27811     28519     28593     27885     28521     28594     28595     27886
 -1      3887    4    0    1
 -2      8375      8465      8475      8385      8376      8466      8476      8386     28521     28594
 -2     28595     27886     27818     28526     28600     27892     28528     28601     28602     27893
 -1      3888    4    0    1
 -2      8376      8466      8476      8386      8377      8467      8477      8387     28528     28601
 -2     28602     27893     27825     28533     28607     27899     28535     28608     28609     27900
 -1      3889    4    0    1
 -2      8377      8467      8477      8387      8378      8468      8478      8388     28535     28608
 -2     28609     27900     27832     28540     28614     27906     28542     28615     28616     27907
 -1      3890    4    0    1
 -2      8378      8468      8478      8388      8379      8469      8479      8389     28542     28615
 -2     28616     27907     27839     28547     28621     27913     28549     28622     28623     27914
 -1      3891    4    0    1
 -2      8379      8469      8479      8389      8380      8470      8480      8390     28549     28622
 -2     28623     27914     27846     28554     28628     27920     28556     28629     28630     27921
 -1      3892    4    0    1
 -2      8380      8470      8480      8390      8381      8471      8481      8391     28556     28629
 -2     28630     27921     27853     28561     28635     27927     28563     28636     28637     27928
 -1      3893    4    0    1
 -2      8381      8471      8481      8391      8382      8472      8482      8392     28563     28636
 -2     28637     27928     27860     28568     28642     27934     28570     28643     28644     27935
 -1      3894    4    0    1
 -2      8382      8472      8482      8392      5047      5056      5057      5048     28570     28643
 -2     28644     27935     27867     28575     28649     27941      5882      5884      5885      5855
 -1      3895    4    0    1
 -2       651       660       661       652      8383      8473      8483      8393      1488      1490
 -2      1491      1461     27871     28579     28653     27945     28581     28654     28655     27946
 -1      3896    4    0    1
 -2      8383      8473      8483      8393      8384      8474      8484      8394     28581     28654
 -2     28655     27946     27878     28586     28660     27952     28588     28661     28662     27953
 -1      3897    4    0    1
 -2      8384      8474      8484      8394      8385      8475      8485      8395     28588     28661
 -2     28662     27953     27885     28593     28667     27959     28595     28668     28669     27960
 -1      3898    4    0    1
 -2      8385      8475      8485      8395      8386      8476      8486      8396     28595     28668
 -2     28669     27960     27892     28600     28674     27966     28602     28675     28676     27967
 -1      3899    4    0    1
 -2      8386      8476      8486      8396      8387      8477      8487      8397     28602     28675
 -2     28676     27967     27899     28607     28681     27973     28609     28682     28683     27974
 -1      3900    4    0    1
 -2      8387      8477      8487      8397      8388      8478      8488      8398     28609     28682
 -2     28683     27974     27906     28614     28688     27980     28616     28689     28690     27981
 -1      3901    4    0    1
 -2      8388      8478      8488      8398      8389      8479      8489      8399     28616     28689
 -2     28690     27981     27913     28621     28695     27987     28623     28696     28697     27988
 -1      3902    4    0    1
 -2      8389      8479      8489      8399      8390      8480      8490      8400     28623     28696
 -2     28697     27988     27920     28628     28702     27994     28630     28703     28704     27995
 -1      3903    4    0    1
 -2      8390      8480      8490      8400      8391      8481      8491      8401     28630     28703
 -2     28704     27995     27927     28635     28709     28001     28637     28710     28711     28002
 -1      3904    4    0    1
 -2      8391      8481      8491      8401      8392      8482      8492      8402     28637     28710
 -2     28711     28002     27934     28642     28716     28008     28644     28717     28718     28009
 -1      3905    4    0    1
 -2      8392      8482      8492      8402      5048      5057      5058      5049     28644     28717
 -2     28718     28009     27941     28649     28723     28015      5885      5887      5888      5858
 -1      3906    4    0    1
 -2       652       661       662       653      8393      8483      8493      8403      1491      1493
 -2      1494      1464     27945     28653     28727     28019     28655     28728     28729     28020
 -1      3907    4    0    1
 -2      8393      8483      8493      8403      8394      8484      8494      8404     28655     28728
 -2     28729     28020     27952     28660     28734     28026     28662     28735     28736     28027
 -1      3908    4    0    1
 -2      8394      8484      8494      8404      8395      8485      8495      8405     28662     28735
 -2     28736     28027     27959     28667     28741     28033     28669     28742     28743     28034
 -1      3909    4    0    1
 -2      8395      8485      8495      8405      8396      8486      8496      8406     28669     28742
 -2     28743     28034     27966     28674     28748     28040     28676     28749     28750     28041
 -1      3910    4    0    1
 -2      8396      8486      8496      8406      8397      8487      8497      8407     28676     28749
 -2     28750     28041     27973     28681     28755     28047     28683     28756     28757     28048
 -1      3911    4    0    1
 -2      8397      8487      8497      8407      8398      8488      8498      8408     28683     28756
 -2     28757     28048     27980     28688     28762     28054     28690     28763     28764     28055
 -1      3912    4    0    1
 -2      8398      8488      8498      8408      8399      8489      8499      8409     28690     28763
 -2     28764     28055     27987     28695     28769     28061     28697     28770     28771     28062
 -1      3913    4    0    1
 -2      8399      8489      8499      8409      8400      8490      8500      8410     28697     28770
 -2     28771     28062     27994     28702     28776     28068     28704     28777     28778     28069
 -1      3914    4    0    1
 -2      8400      8490      8500      8410      8401      8491      8501      8411     28704     28777
 -2     28778     28069     28001     28709     28783     28075     28711     28784     28785     28076
 -1      3915    4    0    1
 -2      8401      8491      8501      8411      8402      8492      8502      8412     28711     28784
 -2     28785     28076     28008     28716     28790     28082     28718     28791     28792     28083
 -1      3916    4    0    1
 -2      8402      8492      8502      8412      5049      5058      5059      5050     28718     28791
 -2     28792     28083     28015     28723     28797     28089      5888      5890      5891      5861
 -1      3917    4    0    1
 -2       653       662       663       654      8403      8493      8503      8413      1494      1496
 -2      1497      1467     28019     28727     28801     28093     28729     28802     28803     28094
 -1      3918    4    0    1
 -2      8403      8493      8503      8413      8404      8494      8504      8414     28729     28802
 -2     28803     28094     28026     28734     28808     28100     28736     28809     28810     28101
 -1      3919    4    0    1
 -2      8404      8494      8504      8414      8405      8495      8505      8415     28736     28809
 -2     28810     28101     28033     28741     28815     28107     28743     28816     28817     28108
 -1      3920    4    0    1
 -2      8405      8495      8505      8415      8406      8496      8506      8416     28743     28816
 -2     28817     28108     28040     28748     28822     28114     28750     28823     28824     28115
 -1      3921    4    0    1
 -2      8406      8496      8506      8416      8407      8497      8507      8417     28750     28823
 -2     28824     28115     28047     28755     28829     28121     28757     28830     28831     28122
 -1      3922    4    0    1
 -2      8407      8497      8507      8417      8408      8498      8508      8418     28757     28830
 -2     28831     28122     28054     28762     28836     28128     28764     28837     28838     28129
 -1      3923    4    0    1
 -2      8408      8498      8508      8418      8409      8499      8509      8419     28764     28837
 -2     28838     28129     28061     28769     28843     28135     28771     28844     28845     28136
 -1      3924    4    0    1
 -2      8409      8499      8509      8419      8410      8500      8510      8420     28771     28844
 -2     28845     28136     28068     28776     28850     28142     28778     28851     28852     28143
 -1      3925    4    0    1
 -2      8410      8500      8510      8420      8411      8501      8511      8421     28778     28851
 -2     28852     28143     28075     28783     28857     28149     28785     28858     28859     28150
 -1      3926    4    0    1
 -2      8411      8501      8511      8421      8412      8502      8512      8422     28785     28858
 -2     28859     28150     28082     28790     28864     28156     28792     28865     28866     28157
 -1      3927    4    0    1
 -2      8412      8502      8512      8422      5050      5059      5060      5051     28792     28865
 -2     28866     28157     28089     28797     28871     28163      5891      5893      5894      5864
 -1      3928    4    0    1
 -2       654       663       664       655      8413      8503      8513      8423      1497      1499
 -2      1500      1470     28093     28801     28875     28167     28803     28876     28877     28168
 -1      3929    4    0    1
 -2      8413      8503      8513      8423      8414      8504      8514      8424     28803     28876
 -2     28877     28168     28100     28808     28882     28174     28810     28883     28884     28175
 -1      3930    4    0    1
 -2      8414      8504      8514      8424      8415      8505      8515      8425     28810     28883
 -2     28884     28175     28107     28815     28889     28181     28817     28890     28891     28182
 -1      3931    4    0    1
 -2      8415      8505      8515      8425      8416      8506      8516      8426     28817     28890
 -2     28891     28182     28114     28822     28896     28188     28824     28897     28898     28189
 -1      3932    4    0    1
 -2      8416      8506      8516      8426      8417      8507      8517      8427     28824     28897
 -2     28898     28189     28121     28829     28903     28195     28831     28904     28905     28196
 -1      3933    4    0    1
 -2      8417      8507      8517      8427      8418      8508      8518      8428     28831     28904
 -2     28905     28196     28128     28836     28910     28202     28838     28911     28912     28203
 -1      3934    4    0    1
 -2      8418      8508      8518      8428      8419      8509      8519      8429     28838     28911
 -2     28912     28203     28135     28843     28917     28209     28845     28918     28919     28210
 -1      3935    4    0    1
 -2      8419      8509      8519      8429      8420      8510      8520      8430     28845     28918
 -2     28919     28210     28142     28850     28924     28216     28852     28925     28926     28217
 -1      3936    4    0    1
 -2      8420      8510      8520      8430      8421      8511      8521      8431     28852     28925
 -2     28926     28217     28149     28857     28931     28223     28859     28932     28933     28224
 -1      3937    4    0    1
 -2      8421      8511      8521      8431      8422      8512      8522      8432     28859     28932
 -2     28933     28224     28156     28864     28938     28230     28866     28939     28940     28231
 -1      3938    4    0    1
 -2      8422      8512      8522      8432      5051      5060      5061      5052     28866     28939
 -2     28940     28231     28163     28871     28945     28237      5894      5896      5897      5867
 -1      3939    4    0    1
 -2       655       664       665       656      8423      8513      8523      8433      1500      1502
 -2      1503      1473     28167     28875     28949     28241     28877     28950     28951     28242
 -1      3940    4    0    1
 -2      8423      8513      8523      8433      8424      8514      8524      8434     28877     28950
 -2     28951     28242     28174     28882     28956     28248     28884     28957     28958     28249
 -1      3941    4    0    1
 -2      8424      8514      8524      8434      8425      8515      8525      8435     28884     28957
 -2     28958     28249     28181     28889     28963     28255     28891     28964     28965     28256
 -1      3942    4    0    1
 -2      8425      8515      8525      8435      8426      8516      8526      8436     28891     28964
 -2     28965     28256     28188     28896     28970     28262     28898     28971     28972     28263
 -1      3943    4    0    1
 -2      8426      8516      8526      8436      8427      8517      8527      8437     28898     28971
 -2     28972     28263     28195     28903     28977     28269     28905     28978     28979     28270
 -1      3944    4    0    1
 -2      8427      8517      8527      8437      8428      8518      8528      8438     28905     28978
 -2     28979     28270     28202     28910     28984     28276     28912     28985     28986     28277
 -1      3945    4    0    1
 -2      8428      8518      8528      8438      8429      8519      8529      8439     28912     28985
 -2     28986     28277     28209     28917     28991     28283     28919     28992     28993     28284
 -1      3946    4    0    1
 -2      8429      8519      8529      8439      8430      8520      8530      8440     28919     28992
 -2     28993     28284     28216     28924     28998     28290     28926     28999     29000     28291
 -1      3947    4    0    1
 -2      8430      8520      8530      8440      8431      8521      8531      8441     28926     28999
 -2     29000     28291     28223     28931     29005     28297     28933     29006     29007     28298
 -1      3948    4    0    1
 -2      8431      8521      8531      8441      8432      8522      8532      8442     28933     29006
 -2     29007     28298     28230     28938     29012     28304     28940     29013     29014     28305
 -1      3949    4    0    1
 -2      8432      8522      8532      8442      5052      5061      5062      5053     28940     29013
 -2     29014     28305     28237     28945     29019     28311      5897      5899      5900      5870
 -1      3950    4    0    1
 -2       656       665        87        88      8433      8523      3164      3174      1503      1505
 -2       117      1476     28241     28949      3454      3486     28951     29023      3487     28315
 -1      3951    4    0    1
 -2      8433      8523      3164      3174      8434      8524      3165      3175     28951     29023
 -2      3487     28315     28248     28956      3457      3489     28958     29027      3490     28319
 -1      3952    4    0    1
 -2      8434      8524      3165      3175      8435      8525      3166      3176     28958     29027
 -2      3490     28319     28255     28963      3460      3492     28965     29031      3493     28323
 -1      3953    4    0    1
 -2      8435      8525      3166      3176      8436      8526      3167      3177     28965     29031
 -2      3493     28323     28262     28970      3463      3495     28972     29035      3496     28327
 -1      3954    4    0    1
 -2      8436      8526      3167      3177      8437      8527      3168      3178     28972     29035
 -2      3496     28327     28269     28977      3466      3498     28979     29039      3499     28331
 -1      3955    4    0    1
 -2      8437      8527      3168      3178      8438      8528      3169      3179     28979     29039
 -2      3499     28331     28276     28984      3469      3501     28986     29043      3502     28335
 -1      3956    4    0    1
 -2      8438      8528      3169      3179      8439      8529      3170      3180     28986     29043
 -2      3502     28335     28283     28991      3472      3504     28993     29047      3505     28339
 -1      3957    4    0    1
 -2      8439      8529      3170      3180      8440      8530      3171      3181     28993     29047
 -2      3505     28339     28290     28998      3475      3507     29000     29051      3508     28343
 -1      3958    4    0    1
 -2      8440      8530      3171      3181      8441      8531      3172      3182     29000     29051
 -2      3508     28343     28297     29005      3478      3510     29007     29055      3511     28347
 -1      3959    4    0    1
 -2      8441      8531      3172      3182      8442      8532      3173      3183     29007     29055
 -2      3511     28347     28304     29012      3481      3513     29014     29059      3514     28351
 -1      3960    4    0    1
 -2      8442      8532      3173      3183      5053      5062       243       244     29014     29059
 -2      3514     28351     28311     29019      3484      3516      5900      5902       273      5873
 -1      3961    4    0    1
 -2        37         2        68       657      1806       342      2765      8443        67        77
 -2      1507      1478      2712       352      2855     28357      2744      2856     29065     28358
 -1      3962    4    0    1
 -2      1806       342      2765      8443      1807       343      2766      8444      2744      2856
 -2     29065     28358      2715       353      2858     28364      2746      2859     29069     28365
 -1      3963    4    0    1
 -2      1807       343      2766      8444      1808       344      2767      8445      2746      2859
 -2     29069     28365      2718       354      2861     28371      2748      2862     29073     28372
 -1      3964    4    0    1
 -2      1808       344      2767      8445      1809       345      2768      8446      2748      2862
 -2     29073     28372      2721       355      2864     28378      2750      2865     29077     28379
 -1      3965    4    0    1
 -2      1809       345      2768      8446      1810       346      2769      8447      2750      2865
 -2     29077     28379      2724       356      2867     28385      2752      2868     29081     28386
 -1      3966    4    0    1
 -2      1810       346      2769      8447      1811       347      2770      8448      2752      2868
 -2     29081     28386      2727       357      2870     28392      2754      2871     29085     28393
 -1      3967    4    0    1
 -2      1811       347      2770      8448      1812       348      2771      8449      2754      2871
 -2     29085     28393      2730       358      2873     28399      2756      2874     29089     28400
 -1      3968    4    0    1
 -2      1812       348      2771      8449      1813       349      2772      8450      2756      2874
 -2     29089     28400      2733       359      2876     28406      2758      2877     29093     28407
 -1      3969    4    0    1
 -2      1813       349      2772      8450      1814       350      2773      8451      2758      2877
 -2     29093     28407      2736       360      2879     28413      2760      2880     29097     28414
 -1      3970    4    0    1
 -2      1814       350      2773      8451      1815       351      2774      8452      2760      2880
 -2     29097     28414      2739       361      2882     28420      2762      2883     29101     28421
 -1      3971    4    0    1
 -2      1815       351      2774      8452       193         6       224      5054      2762      2883
 -2     29101     28421      2742       362      2885     28427       223       233      5904      5875
 -1      3972    4    0    1
 -2       657        68        69       658      8443      2765      2775      8453      1507        78
 -2      1509      1481     28357      2855      2887     28431     29065      2888     29107     28432
 -1      3973    4    0    1
 -2      8443      2765      2775      8453      8444      2766      2776      8454     29065      2888
 -2     29107     28432     28364      2858      2890     28438     29069      2891     29111     28439
 -1      3974    4    0    1
 -2      8444      2766      2776      8454      8445      2767      2777      8455     29069      2891
 -2     29111     28439     28371      2861      2893     28445     29073      2894     29115     28446
 -1      3975    4    0    1
 -2      8445      2767      2777      8455      8446      2768      2778      8456     29073      2894
 -2     29115     28446     28378      2864      2896     28452     29077      2897     29119     28453
 -1      3976    4    0    1
 -2      8446      2768      2778      8456      8447      2769      2779      8457     29077      2897
 -2     29119     28453     28385      2867      2899     28459     29081      2900     29123     28460
 -1      3977    4    0    1
 -2      8447      2769      2779      8457      8448      2770      2780      8458     29081      2900
 -2     29123     28460     28392      2870      2902     28466     29085      2903     29127     28467
 -1      3978    4    0    1
 -2      8448      2770      2780      8458      8449      2771      2781      8459     29085      2903
 -2     29127     28467     28399      2873      2905     28473     29089      2906     29131     28474
 -1      3979    4    0    1
 -2      8449      2771      2781      8459      8450      2772      2782      8460     29089      2906
 -2     29131     28474     28406      2876      2908     28480     29093      2909     29135     28481
 -1      3980    4    0    1
 -2      8450      2772      2782      8460      8451      2773      2783      8461     29093      2909
 -2     29135     28481     28413      2879      2911     28487     29097      2912     29139     28488
 -1      3981    4    0    1
 -2      8451      2773      2783      8461      8452      2774      2784      8462     29097      2912
 -2     29139     28488     28420      2882      2914     28494     29101      2915     29143     28495
 -1      3982    4    0    1
 -2      8452      2774      2784      8462      5054       224       225      5055     29101      2915
 -2     29143     28495     28427      2885      2917     28501      5904       234      5906      5878
 -1      3983    4    0    1
 -2       658        69        70       659      8453      2775      2785      8463      1509        79
 -2      1511      1484     28431      2887      2919     28505     29107      2920     29149     28506
 -1      3984    4    0    1
 -2      8453      2775      2785      8463      8454      2776      2786      8464     29107      2920
 -2     29149     28506     28438      2890      2922     28512     29111      2923     29153     28513
 -1      3985    4    0    1
 -2      8454      2776      2786      8464      8455      2777      2787      8465     29111      2923
 -2     29153     28513     28445      2893      2925     28519     29115      2926     29157     28520
 -1      3986    4    0    1
 -2      8455      2777      2787      8465      8456      2778      2788      8466     29115      2926
 -2     29157     28520     28452      2896      2928     28526     29119      2929     29161     28527
 -1      3987    4    0    1
 -2      8456      2778      2788      8466      8457      2779      2789      8467     29119      2929
 -2     29161     28527     28459      2899      2931     28533     29123      2932     29165     28534
 -1      3988    4    0    1
 -2      8457      2779      2789      8467      8458      2780      2790      8468     29123      2932
 -2     29165     28534     28466      2902      2934     28540     29127      2935     29169     28541
 -1      3989    4    0    1
 -2      8458      2780      2790      8468      8459      2781      2791      8469     29127      2935
 -2     29169     28541     28473      2905      2937     28547     29131      2938     29173     28548
 -1      3990    4    0    1
 -2      8459      2781      2791      8469      8460      2782      2792      8470     29131      2938
 -2     29173     28548     28480      2908      2940     28554     29135      2941     29177     28555
 -1      3991    4    0    1
 -2      8460      2782      2792      8470      8461      2783      2793      8471     29135      2941
 -2     29177     28555     28487      2911      2943     28561     29139      2944     29181     28562
 -1      3992    4    0    1
 -2      8461      2783      2793      8471      8462      2784      2794      8472     29139      2944
 -2     29181     28562     28494      2914      2946     28568     29143      2947     29185     28569
 -1      3993    4    0    1
 -2      8462      2784      2794      8472      5055       225       226      5056     29143      2947
 -2     29185     28569     28501      2917      2949     28575      5906       235      5908      5881
 -1      3994    4    0    1
 -2       659        70        71       660      8463      2785      2795      8473      1511        80
 -2      1513      1487     28505      2919      2951     28579     29149      2952     29191     28580
 -1      3995    4    0    1
 -2      8463      2785      2795      8473      8464      2786      2796      8474     29149      2952
 -2     29191     28580     28512      2922      2954     28586     29153      2955     29195     28587
 -1      3996    4    0    1
 -2      8464      2786      2796      8474      8465      2787      2797      8475     29153      2955
 -2     29195     28587     28519      2925      2957     28593     29157      2958     29199     28594
 -1      3997    4    0    1
 -2      8465      2787      2797      8475      8466      2788      2798      8476     29157      2958
 -2     29199     28594     28526      2928      2960     28600     29161      2961     29203     28601
 -1      3998    4    0    1
 -2      8466      2788      2798      8476      8467      2789      2799      8477     29161      2961
 -2     29203     28601     28533      2931      2963     28607     29165      2964     29207     28608
 -1      3999    4    0    1
 -2      8467      2789      2799      8477      8468      2790      2800      8478     29165      2964
 -2     29207     28608     28540      2934      2966     28614     29169      2967     29211     28615
 -1      4000    4    0    1
 -2      8468      2790      2800      8478      8469      2791      2801      8479     29169      2967
 -2     29211     28615     28547      2937      2969     28621     29173      2970     29215     28622
 -1      4001    4    0    1
 -2      8469      2791      2801      8479      8470      2792      2802      8480     29173      2970
 -2     29215     28622     28554      2940      2972     28628     29177      2973     29219     28629
 -1      4002    4    0    1
 -2      8470      2792      2802      8480      8471      2793      2803      8481     29177      2973
 -2     29219     28629     28561      2943      2975     28635     29181      2976     29223     28636
 -1      4003    4    0    1
 -2      8471      2793      2803      8481      8472      2794      2804      8482     29181      2976
 -2     29223     28636     28568      2946      2978     28642     29185      2979     29227     28643
 -1      4004    4    0    1
 -2      8472      2794      2804      8482      5056       226       227      5057     29185      2979
 -2     29227     28643     28575      2949      2981     28649      5908       236      5910      5884
 -1      4005    4    0    1
 -2       660        71        72       661      8473      2795      2805      8483      1513        81
 -2      1515      1490     28579      2951      2983     28653     29191      2984     29233     28654
 -1      4006    4    0    1
 -2      8473      2795      2805      8483      8474      2796      2806      8484     29191      2984
 -2     29233     28654     28586      2954      2986     28660     29195      2987     29237     28661
 -1      4007    4    0    1
 -2      8474      2796      2806      8484      8475      2797      2807      8485     29195      2987
 -2     29237     28661     28593      2957      2989     28667     29199      2990     29241     28668
 -1      4008    4    0    1
 -2      8475      2797      2807      8485      8476      2798      2808      8486     29199      2990
 -2     29241     28668     28600      2960      2992     28674     29203      2993     29245     28675
 -1      4009    4    0    1
 -2      8476      2798      2808      8486      8477      2799      2809      8487     29203      2993
 -2     29245     28675     28607      2963      2995     28681     29207      2996     29249     28682
 -1      4010    4    0    1
 -2      8477      2799      2809      8487      8478      2800      2810      8488     29207      2996
 -2     29249     28682     28614      2966      2998     28688     29211      2999     29253     28689
 -1      4011    4    0    1
 -2      8478      2800      2810      8488      8479      2801      2811      8489     29211      2999
 -2     29253     28689     28621      2969      3001     28695     29215      3002     29257     28696
 -1      4012    4    0    1
 -2      8479      2801      2811      8489      8480      2802      2812      8490     29215      3002
 -2     29257     28696     28628      2972      3004     28702     29219      3005     29261     28703
 -1      4013    4    0    1
 -2      8480      2802      2812      8490      8481      2803      2813      8491     29219      3005
 -2     29261     28703     28635      2975      3007     28709     29223      3008     29265     28710
 -1      4014    4    0    1
 -2      8481      2803      2813      8491      8482      2804      2814      8492     29223      3008
 -2     29265     28710     28642      2978      3010     28716     29227      3011     29269     28717
 -1      4015    4    0    1
 -2      8482      2804      2814      8492      5057       227       228      5058     29227      3011
 -2     29269     28717     28649      2981      3013     28723      5910       237      5912      5887
 -1      4016    4    0    1
 -2       661        72        73       662      8483      2805      2815      8493      1515        82
 -2      1517      1493     28653      2983      3015     28727     29233      3016     29275     28728
 -1      4017    4    0    1
 -2      8483      2805      2815      8493      8484      2806      2816      8494     29233      3016
 -2     29275     28728     28660      2986      3018     28734     29237      3019     29279     28735
 -1      4018    4    0    1
 -2      8484      2806      2816      8494      8485      2807      2817      8495     29237      3019
 -2     29279     28735     28667      2989      3021     28741     29241      3022     29283     28742
 -1      4019    4    0    1
 -2      8485      2807      2817      8495      8486      2808      2818      8496     29241      3022
 -2     29283     28742     28674      2992      3024     28748     29245      3025     29287     28749
 -1      4020    4    0    1
 -2      8486      2808      2818      8496      8487      2809      2819      8497     29245      3025
 -2     29287     28749     28681      2995      3027     28755     29249      3028     29291     28756
 -1      4021    4    0    1
 -2      8487      2809      2819      8497      8488      2810      2820      8498     29249      3028
 -2     29291     28756     28688      2998      3030     28762     29253      3031     29295     28763
 -1      4022    4    0    1
 -2      8488      2810      2820      8498      8489      2811      2821      8499     29253      3031
 -2     29295     28763     28695      3001      3033     28769     29257      3034     29299     28770
 -1      4023    4    0    1
 -2      8489      2811      2821      8499      8490      2812      2822      8500     29257      3034
 -2     29299     28770     28702      3004      3036     28776     29261      3037     29303     28777
 -1      4024    4    0    1
 -2      8490      2812      2822      8500      8491      2813      2823      8501     29261      3037
 -2     29303     28777     28709      3007      3039     28783     29265      3040     29307     28784
 -1      4025    4    0    1
 -2      8491      2813      2823      8501      8492      2814      2824      8502     29265      3040
 -2     29307     28784     28716      3010      3042     28790     29269      3043     29311     28791
 -1      4026    4    0    1
 -2      8492      2814      2824      8502      5058       228       229      5059     29269      3043
 -2     29311     28791     28723      3013      3045     28797      5912       238      5914      5890
 -1      4027    4    0    1
 -2       662        73        74       663      8493      2815      2825      8503      1517        83
 -2      1519      1496     28727      3015      3047     28801     29275      3048     29317     28802
 -1      4028    4    0    1
 -2      8493      2815      2825      8503      8494      2816      2826      8504     29275      3048
 -2     29317     28802     28734      3018      3050     28808     29279      3051     29321     28809
 -1      4029    4    0    1
 -2      8494      2816      2826      8504      8495      2817      2827      8505     29279      3051
 -2     29321     28809     28741      3021      3053     28815     29283      3054     29325     28816
 -1      4030    4    0    1
 -2      8495      2817      2827      8505      8496      2818      2828      8506     29283      3054
 -2     29325     28816     28748      3024      3056     28822     29287      3057     29329     28823
 -1      4031    4    0    1
 -2      8496      2818      2828      8506      8497      2819      2829      8507     29287      3057
 -2     29329     28823     28755      3027      3059     28829     29291      3060     29333     28830
 -1      4032    4    0    1
 -2      8497      2819      2829      8507      8498      2820      2830      8508     29291      3060
 -2     29333     28830     28762      3030      3062     28836     29295      3063     29337     28837
 -1      4033    4    0    1
 -2      8498      2820      2830      8508      8499      2821      2831      8509     29295      3063
 -2     29337     28837     28769      3033      3065     28843     29299      3066     29341     28844
 -1      4034    4    0    1
 -2      8499      2821      2831      8509      8500      2822      2832      8510     29299      3066
 -2     29341     28844     28776      3036      3068     28850     29303      3069     29345     28851
 -1      4035    4    0    1
 -2      8500      2822      2832      8510      8501      2823      2833      8511     29303      3069
 -2     29345     28851     28783      3039      3071     28857     29307      3072     29349     28858
 -1      4036    4    0    1
 -2      8501      2823      2833      8511      8502      2824      2834      8512     29307      3072
 -2     29349     28858     28790      3042      3074     28864     29311      3075     29353     28865
 -1      4037    4    0    1
 -2      8502      2824      2834      8512      5059       229       230      5060     29311      3075
 -2     29353     28865     28797      3045      3077     28871      5914       239      5916      5893
 -1      4038    4    0    1
 -2       663        74        75       664      8503      2825      2835      8513      1519        84
 -2      1521      1499     28801      3047      3079     28875     29317      3080     29359     28876
 -1      4039    4    0    1
 -2      8503      2825      2835      8513      8504      2826      2836      8514     29317      3080
 -2     29359     28876     28808      3050      3082     28882     29321      3083     29363     28883
 -1      4040    4    0    1
 -2      8504      2826      2836      8514      8505      2827      2837      8515     29321      3083
 -2     29363     28883     28815      3053      3085     28889     29325      3086     29367     28890
 -1      4041    4    0    1
 -2      8505      2827      2837      8515      8506      2828      2838      8516     29325      3086
 -2     29367     28890     28822      3056      3088     28896     29329      3089     29371     28897
 -1      4042    4    0    1
 -2      8506      2828      2838      8516      8507      2829      2839      8517     29329      3089
 -2     29371     28897     28829      3059      3091     28903     29333      3092     29375     28904
 -1      4043    4    0    1
 -2      8507      2829      2839      8517      8508      2830      2840      8518     29333      3092
 -2     29375     28904     28836      3062      3094     28910     29337      3095     29379     28911
 -1      4044    4    0    1
 -2      8508      2830      2840      8518      8509      2831      2841      8519     29337      3095
 -2     29379     28911     28843      3065      3097     28917     29341      3098     29383     28918
 -1      4045    4    0    1
 -2      8509      2831      2841      8519      8510      2832      2842      8520     29341      3098
 -2     29383     28918     28850      3068      3100     28924     29345      3101     29387     28925
 -1      4046    4    0    1
 -2      8510      2832      2842      8520      8511      2833      2843      8521     29345      3101
 -2     29387     28925     28857      3071      3103     28931     29349      3104     29391     28932
 -1      4047    4    0    1
 -2      8511      2833      2843      8521      8512      2834      2844      8522     29349      3104
 -2     29391     28932     28864      3074      3106     28938     29353      3107     29395     28939
 -1      4048    4    0    1
 -2      8512      2834      2844      8522      5060       230       231      5061     29353      3107
 -2     29395     28939     28871      3077      3109     28945      5916       240      5918      5896
 -1      4049    4    0    1
 -2       664        75        76       665      8513      2835      2845      8523      1521        85
 -2      1523      1502     28875      3079      3111     28949     29359      3112     29401     28950
 -1      4050    4    0    1
 -2      8513      2835      2845      8523      8514      2836      2846      8524     29359      3112
 -2     29401     28950     28882      3082      3114     28956     29363      3115     29405     28957
 -1      4051    4    0    1
 -2      8514      2836      2846      8524      8515      2837      2847      8525     29363      3115
 -2     29405     28957     28889      3085      3117     28963     29367      3118     29409     28964
 -1      4052    4    0    1
 -2      8515      2837      2847      8525      8516      2838      2848      8526     29367      3118
 -2     29409     28964     28896      3088      3120     28970     29371      3121     29413     28971
 -1      4053    4    0    1
 -2      8516      2838      2848      8526      8517      2839      2849      8527     29371      3121
 -2     29413     28971     28903      3091      3123     28977     29375      3124     29417     28978
 -1      4054    4    0    1
 -2      8517      2839      2849      8527      8518      2840      2850      8528     29375      3124
 -2     29417     28978     28910      3094      3126     28984     29379      3127     29421     28985
 -1      4055    4    0    1
 -2      8518      2840      2850      8528      8519      2841      2851      8529     29379      3127
 -2     29421     28985     28917      3097      3129     28991     29383      3130     29425     28992
 -1      4056    4    0    1
 -2      8519      2841      2851      8529      8520      2842      2852      8530     29383      3130
 -2     29425     28992     28924      3100      3132     28998     29387      3133     29429     28999
 -1      4057    4    0    1
 -2      8520      2842      2852      8530      8521      2843      2853      8531     29387      3133
 -2     29429     28999     28931      3103      3135     29005     29391      3136     29433     29006
 -1      4058    4    0    1
 -2      8521      2843      2853      8531      8522      2844      2854      8532     29391      3136
 -2     29433     29006     28938      3106      3138     29012     29395      3139     29437     29013
 -1      4059    4    0    1
 -2      8522      2844      2854      8532      5061       231       232      5062     29395      3139
 -2     29437     29013     28945      3109      3141     29019      5918       241      5920      5899
 -1      4060    4    0    1
 -2       665        76         3        87      8523      2845       363      3164      1523        86
 -2       116      1505     28949      3111       373      3454     29401      3143      3455     29023
 -1      4061    4    0    1
 -2      8523      2845       363      3164      8524      2846       364      3165     29401      3143
 -2      3455     29023     28956      3114       374      3457     29405      3145      3458     29027
 -1      4062    4    0    1
 -2      8524      2846       364      3165      8525      2847       365      3166     29405      3145
 -2      3458     29027     28963      3117       375      3460     29409      3147      3461     29031
 -1      4063    4    0    1
 -2      8525      2847       365      3166      8526      2848       366      3167     29409      3147
 -2      3461     29031     28970      3120       376      3463     29413      3149      3464     29035
 -1      4064    4    0    1
 -2      8526      2848       366      3167      8527      2849       367      3168     29413      3149
 -2      3464     29035     28977      3123       377      3466     29417      3151      3467     29039
 -1      4065    4    0    1
 -2      8527      2849       367      3168      8528      2850       368      3169     29417      3151
 -2      3467     29039     28984      3126       378      3469     29421      3153      3470     29043
 -1      4066    4    0    1
 -2      8528      2850       368      3169      8529      2851       369      3170     29421      3153
 -2      3470     29043     28991      3129       379      3472     29425      3155      3473     29047
 -1      4067    4    0    1
 -2      8529      2851       369      3170      8530      2852       370      3171     29425      3155
 -2      3473     29047     28998      3132       380      3475     29429      3157      3476     29051
 -1      4068    4    0    1
 -2      8530      2852       370      3171      8531      2853       371      3172     29429      3157
 -2      3476     29051     29005      3135       381      3478     29433      3159      3479     29055
 -1      4069    4    0    1
 -2      8531      2853       371      3172      8532      2854       372      3173     29433      3159
 -2      3479     29055     29012      3138       382      3481     29437      3161      3482     29059
 -1      4070    4    0    1
 -2      8532      2854       372      3173      5062       232         7       243     29437      3161
 -2      3482     29059     29019      3141       383      3484      5920       242       272      5902
 -3
    1PSTEP                         1           1           1          
  100CL  101 1.000000000       15523                     0    1           1
 -4  DISP        4    1
 -5  D1          1    2    1    0
 -5  D2          1    2    2    0
 -5  D3          1    2    3    0
 -5  ALL         1    2    0    0    1ALL
 -1         1 1.70636E-04 0.00000E+00-1.23706E-06
 -1         2 6.34825E-05 0.00000E+00-1.25367E-06
 -1         3 0.00000E+00 6.34825E-05-1.25367E-06
 -1         4 0.00000E+00 1.70636E-04-1.23706E-06
 -1         5 1.70636E-04 0.00000E+00-3.17866E-06
 -1         6 6.34825E-05 0.00000E+00-3.16205E-06
 -1         7 0.00000E+00 6.34825E-05-3.16205E-06
 -1         8 0.00000E+00 1.70636E-04-3.17866E-06
 -1         9 1.56188E-04 0.00000E+00-1.22726E-06
 -1        10 1.44233E-04 0.00000E+00-1.22437E-06
 -1        11 1.34206E-04 0.00000E+00-1.22803E-06
 -1        12 1.25692E-04 0.00000E+00-1.23028E-06
 -1        13 1.18386E-04 0.00000E+00-1.23229E-06
 -1        14 1.12063E-04 0.00000E+00-1.23397E-06
 -1        15 1.06550E-04 0.00000E+00-1.23542E-06
 -1        16 1.01711E-04 0.00000E+00-1.23668E-06
 -1        17 9.74392E-05 0.00000E+00-1.23779E-06
 -1        18 9.36506E-05 0.00000E+00-1.23878E-06
 -1        19 9.02757E-05 0.00000E+00-1.23967E-06
 -1        20 8.72581E-05 0.00000E+00-1.24047E-06
 -1        21 8.45512E-05 0.00000E+00-1.24121E-06
 -1        22 8.21162E-05 0.00000E+00-1.24188E-06
 -1        23 7.99204E-05 0.00000E+00-1.24251E-06
 -1        24 7.79363E-05 0.00000E+00-1.24308E-06
 -1        25 7.61403E-05 0.00000E+00-1.24362E-06
 -1        26 7.45122E-05 0.00000E+00-1.24412E-06
 -1        27 7.30348E-05 0.00000E+00-1.24459E-06
 -1        28 7.16929E-05 0.00000E+00-1.24503E-06
 -1        29 7.04734E-05 0.00000E+00-1.24545E-06
 -1        30 6.93648E-05 0.00000E+00-1.24584E-06
 -1        31 6.83571E-05 0.00000E+00-1.24622E-06
 -1        32 6.74413E-05 0.00000E+00-1.24660E-06
 -1        33 6.66094E-05 0.00000E+00-1.24699E-06
 -1        34 6.58544E-05 0.00000E+00-1.24745E-06
 -1        35 6.51697E-05 0.00000E+00-1.24807E-06
 -1        36 6.45493E-05 0.00000E+00-1.24904E-06
 -1        37 6.39872E-05 0.00000E+00-1.25101E-06
 -1        38 1.63070E-04 0.00000E+00-1.24332E-06
 -1        39 1.49937E-04 0.00000E+00-1.23258E-06
 -1        40 1.39007E-04 0.00000E+00-1.23110E-06
 -1        41 1.29780E-04 0.00000E+00-1.23274E-06
 -1        42 1.21903E-04 0.00000E+00-1.23398E-06
 -1        43 1.15113E-04 0.00000E+00-1.23519E-06
 -1        44 1.09214E-04 0.00000E+00-1.23630E-06
 -1        45 1.04053E-04 0.00000E+00-1.23731E-06
 -1        46 9.95094E-05 0.00000E+00-1.23825E-06
 -1        47 9.54890E-05 0.00000E+00-1.23910E-06
 -1        48 9.19150E-05 0.00000E+00-1.23989E-06
 -1        49 8.87251E-05 0.00000E+00-1.24062E-06
 -1        50 8.58682E-05 0.00000E+00-1.24130E-06
 -1        51 8.33017E-05 0.00000E+00-1.24193E-06
 -1        52 8.09901E-05 0.00000E+00-1.24252E-06
 -1        53 7.89033E-05 0.00000E+00-1.24307E-06
 -1        54 7.70160E-05 0.00000E+00-1.24359E-06
 -1        55 7.53063E-05 0.00000E+00-1.24408E-06
 -1        56 7.37556E-05 0.00000E+00-1.24454E-06
 -1        57 7.23477E-05 0.00000E+00-1.24497E-06
 -1        58 7.10685E-05 0.00000E+00-1.24538E-06
 -1        59 6.99058E-05 0.00000E+00-1.24577E-06
 -1        60 6.88489E-05 0.00000E+00-1.24614E-06
 -1        61 6.78881E-05 0.00000E+00-1.24651E-06
 -1        62 6.70152E-05 0.00000E+00-1.24688E-06
 -1        63 6.62226E-05 0.00000E+00-1.24730E-06
 -1        64 6.55035E-05 0.00000E+00-1.24782E-06
 -1        65 6.48516E-05 0.00000E+00-1.24861E-06
 -1        66 6.42610E-05 0.00000E+00-1.25007E-06
 -1        67 6.37270E-05 0.00000E+00-1.25243E-06
 -1        68 6.27009E-05 9.93085E-06-1.25367E-06
 -1        69 6.03754E-05 1.96172E-05-1.25367E-06
 -1        70 5.65633E-05 2.88204E-05-1.25367E-06
 -1        71 5.13584E-05 3.73141E-05-1.25367E-06
 -1        72 4.48889E-05 4.48889E-05-1.25367E-06
 -1        73 3.73141E-05 5.13584E-05-1.25367E-06
 -1        74 2.88204E-05 5.65633E-05-1.25367E-06
 -1        75 1.96172E-05 6.03754E-05-1.25368E-06
 -1        76 9.93084E-06 6.27009E-05-1.25367E-06
 -1        77 6.32998E-05 4.98180E-06-1.25631E-06
 -1        78 6.17411E-05 1.48227E-05-1.25631E-06
 -1        79 5.86622E-05 2.42987E-05-1.25631E-06
 -1        80 5.41388E-05 3.31763E-05-1.25631E-06
 -1        81 4.82824E-05 4.12370E-05-1.25631E-06
 -1        82 4.12370E-05 4.82824E-05-1.25631E-06
 -1        83 3.31763E-05 5.41388E-05-1.25631E-06
 -1        84 2.42987E-05 5.86622E-05-1.25631E-06
 -1        85 1.48227E-05 6.17411E-05-1.25631E-06
 -1        86 4.98180E-06 6.32998E-05-1.25631E-06
 -1        87 0.00000E+00 6.39872E-05-1.25101E-06
 -1        88 0.00000E+00 6.45493E-05-1.24903E-06
 -1        89 0.00000E+00 6.51697E-05-1.24807E-06
 -1        90 0.00000E+00 6.58544E-05-1.24745E-06
 -1        91 0.00000E+00 6.66094E-05-1.24699E-06
 -1        92 0.00000E+00 6.74413E-05-1.24660E-06
 -1        93 0.00000E+00 6.83571E-05-1.24622E-06
 -1        94 0.00000E+00 6.93648E-05-1.24584E-06
 -1        95 0.00000E+00 7.04734E-05-1.24545E-06
 -1        96 0.00000E+00 7.16929E-05-1.24503E-06
 -1        97 0.00000E+00 7.30348E-05-1.24459E-06
 -1        98 0.00000E+00 7.45122E-05-1.24412E-06
 -1        99 0.00000E+00 7.61403E-05-1.24362E-06
 -1       100 0.00000E+00 7.79363E-05-1.24308E-06
 -1       101 0.00000E+00 7.99204E-05-1.24251E-06
 -1       102 0.00000E+00 8.21162E-05-1.24188E-06
 -1       103 0.00000E+00 8.45512E-05-1.24121E-06
 -1       104 0.00000E+00 8.72581E-05-1.24047E-06
 -1       105 0.00000E+00 9.02757E-05-1.23967E-06
 -1       106 0.00000E+00 9.36506E-05-1.23878E-06
 -1       107 0.00000E+00 9.74392E-05-1.23779E-06
 -1       108 0.00000E+00 1.01711E-04-1.23668E-06
 -1       109 0.00000E+00 1.06550E-04-1.23542E-06
 -1       110 0.00000E+00 1.12063E-04-1.23397E-06
 -1       111 0.00000E+00 1.18386E-04-1.23229E-06
 -1       112 0.00000E+00 1.25692E-04-1.23028E-06
 -1       113 0.00000E+00 1.34206E-04-1.22803E-06
 -1       114 0.00000E+00 1.44233E-04-1.22437E-06
 -1       115 0.00000E+00 1.56188E-04-1.22726E-06
 -1       116 0.00000E+00 6.37270E-05-1.25242E-06
 -1       117 0.00000E+00 6.42610E-05-1.25007E-06
 -1       118 0.00000E+00 6.48516E-05-1.24861E-06
 -1       119 0.00000E+00 6.55035E-05-1.24782E-06
 -1       120 0.00000E+00 6.62226E-05-1.24730E-06
 -1       121 0.00000E+00 6.70152E-05-1.24688E-06
 -1       122 0.00000E+00 6.78881E-05-1.24651E-06
 -1       123 0.00000E+00 6.88489E-05-1.24614E-06
 -1       124 0.00000E+00 6.99058E-05-1.24577E-06
 -1       125 0.00000E+00 7.10685E-05-1.24538E-06
 -1       126 0.00000E+00 7.23477E-05-1.24497E-06
 -1       127 0.00000E+00 7.37556E-05-1.24454E-06
 -1       128 0.00000E+00 7.53063E-05-1.24408E-06
 -1       129 0.00000E+00 7.70160E-05-1.24359E-06
 -1       130 0.00000E+00 7.89033E-05-1.24307E-06
 -1       131 0.00000E+00 8.09901E-05-1.24252E-06
 -1       132 0.00000E+00 8.33017E-05-1.24193E-06
 -1       133 0.00000E+00 8.58682E-05-1.24130E-06
 -1       134 0.00000E+00 8.87251E-05-1.24062E-06
 -1       135 0.00000E+00 9.19150E-05-1.23989E-06
 -1       136 0.00000E+00 9.54890E-05-1.23910E-06
 -1       137 0.00000E+00 9.95094E-05-1.23825E-06
 -1       138 0.00000E+00 1.04053E-04-1.23731E-06
 -1       139 0.00000E+00 1.09214E-04-1.23630E-06
 -1       140 0.00000E+00 1.15113E-04-1.23519E-06
 -1       141 0.00000E+00 1.21903E-04-1.23398E-06
 -1       142 0.00000E+00 1.29780E-04-1.23274E-06
 -1       143 0.00000E+00 1.39007E-04-1.23110E-06
 -1       144 0.00000E+00 1.49937E-04-1.23258E-06
 -1       145 0.00000E+00 1.63070E-04-1.24332E-06
 -1       146 2.66933E-05 1.68535E-04-1.23706E-06
 -1       147 5.27293E-05 1.62284E-04-1.23706E-06
 -1       148 7.74669E-05 1.52037E-04-1.23706E-06
 -1       149 1.00297E-04 1.38047E-04-1.23706E-06
 -1       150 1.20658E-04 1.20658E-04-1.23706E-06
 -1       151 1.38047E-04 1.00297E-04-1.23706E-06
 -1       152 1.52037E-04 7.74669E-05-1.23706E-06
 -1       153 1.62284E-04 5.27293E-05-1.23706E-06
 -1       154 1.68535E-04 2.66933E-05-1.23706E-06
 -1       155 1.33866E-05 1.70092E-04-1.24904E-06
 -1       156 3.98301E-05 1.65904E-04-1.24904E-06
 -1       157 6.52928E-05 1.57631E-04-1.24904E-06
 -1       158 8.91479E-05 1.45476E-04-1.24904E-06
 -1       159 1.10808E-04 1.29739E-04-1.24904E-06
 -1       160 1.29739E-04 1.10808E-04-1.24904E-06
 -1       161 1.45476E-04 8.91479E-05-1.24904E-06
 -1       162 1.57631E-04 6.52928E-05-1.24904E-06
 -1       163 1.65904E-04 3.98301E-05-1.24904E-06
 -1       164 1.70092E-04 1.33866E-05-1.24904E-06
 -1       165 1.56188E-04 0.00000E+00-3.18847E-06
 -1       166 1.44233E-04 0.00000E+00-3.19135E-06
 -1       167 1.34206E-04 0.00000E+00-3.18770E-06
 -1       168 1.25692E-04 0.00000E+00-3.18544E-06
 -1       169 1.18386E-04 0.00000E+00-3.18344E-06
 -1       170 1.12063E-04 0.00000E+00-3.18176E-06
 -1       171 1.06550E-04 0.00000E+00-3.18031E-06
 -1       172 1.01711E-04 0.00000E+00-3.17905E-06
 -1       173 9.74392E-05 0.00000E+00-3.17794E-06
 -1       174 9.36506E-05 0.00000E+00-3.17695E-06
 -1       175 9.02757E-05 0.00000E+00-3.17606E-06
 -1       176 8.72581E-05 0.00000E+00-3.17525E-06
 -1       177 8.45512E-05 0.00000E+00-3.17452E-06
 -1       178 8.21162E-05 0.00000E+00-3.17384E-06
 -1       179 7.99204E-05 0.00000E+00-3.17322E-06
 -1       180 7.79363E-05 0.00000E+00-3.17264E-06
 -1       181 7.61403E-05 0.00000E+00-3.17211E-06
 -1       182 7.45122E-05 0.00000E+00-3.17161E-06
 -1       183 7.30348E-05 0.00000E+00-3.17114E-06
 -1       184 7.16929E-05 0.00000E+00-3.17069E-06
 -1       185 7.04734E-05 0.00000E+00-3.17028E-06
 -1       186 6.93648E-05 0.00000E+00-3.16988E-06
 -1       187 6.83571E-05 0.00000E+00-3.16950E-06
 -1       188 6.74413E-05 0.00000E+00-3.16913E-06
 -1       189 6.66094E-05 0.00000E+00-3.16873E-06
 -1       190 6.58544E-05 0.00000E+00-3.16828E-06
 -1       191 6.51697E-05 0.00000E+00-3.16766E-06
 -1       192 6.45493E-05 0.00000E+00-3.16669E-06
 -1       193 6.39872E-05 0.00000E+00-3.16472E-06
 -1       194 1.63070E-04 0.00000E+00-3.17241E-06
 -1       195 1.49937E-04 0.00000E+00-3.18315E-06
 -1       196 1.39007E-04 0.00000E+00-3.18462E-06
 -1       197 1.29780E-04 0.00000E+00-3.18299E-06
 -1       198 1.21903E-04 0.00000E+00-3.18175E-06
 -1       199 1.15113E-04 0.00000E+00-3.18054E-06
 -1       200 1.09214E-04 0.00000E+00-3.17943E-06
 -1       201 1.04053E-04 0.00000E+00-3.17841E-06
 -1       202 9.95094E-05 0.00000E+00-3.17748E-06
 -1       203 9.54890E-05 0.00000E+00-3.17662E-06
 -1       204 9.19150E-05 0.00000E+00-3.17583E-06
 -1       205 8.87251E-05 0.00000E+00-3.17510E-06
 -1       206 8.58682E-05 0.00000E+00-3.17443E-06
 -1       207 8.33017E-05 0.00000E+00-3.17379E-06
 -1       208 8.09901E-05 0.00000E+00-3.17320E-06
 -1       209 7.89033E-05 0.00000E+00-3.17265E-06
 -1       210 7.70160E-05 0.00000E+00-3.17214E-06
 -1       211 7.53063E-05 0.00000E+00-3.17165E-06
 -1       212 7.37556E-05 0.00000E+00-3.17119E-06
 -1       213 7.23477E-05 0.00000E+00-3.17076E-06
 -1       214 7.10685E-05 0.00000E+00-3.17035E-06
 -1       215 6.99058E-05 0.00000E+00-3.16996E-06
 -1       216 6.88489E-05 0.00000E+00-3.16959E-06
 -1       217 6.78881E-05 0.00000E+00-3.16922E-06
 -1       218 6.70152E-05 0.00000E+00-3.16885E-06
 -1       219 6.62226E-05 0.00000E+00-3.16843E-06
 -1       220 6.55035E-05 0.00000E+00-3.16790E-06
 -1       221 6.48516E-05 0.00000E+00-3.16712E-06
 -1       222 6.42610E-05 0.00000E+00-3.16565E-06
 -1       223 6.37270E-05 0.00000E+00-3.16330E-06
 -1       224 6.27009E-05 9.93085E-06-3.16205E-06
 -1       225 6.03754E-05 1.96172E-05-3.16205E-06
 -1       226 5.65633E-05 2.88204E-05-3.16205E-06
 -1       227 5.13584E-05 3.73141E-05-3.16205E-06
 -1       228 4.48889E-05 4.48889E-05-3.16205E-06
 -1       229 3.73141E-05 5.13584E-05-3.16205E-06
 -1       230 2.88204E-05 5.65633E-05-3.16205E-06
 -1       231 1.96172E-05 6.03754E-05-3.16205E-06
 -1       232 9.93084E-06 6.27009E-05-3.16205E-06
 -1       233 6.32998E-05 4.98180E-06-3.15942E-06
 -1       234 6.17411E-05 1.48227E-05-3.15942E-06
 -1       235 5.86622E-05 2.42987E-05-3.15942E-06
 -1       236 5.41388E-05 3.31763E-05-3.15942E-06
 -1       237 4.82824E-05 4.12370E-05-3.15942E-06
 -1       238 4.12370E-05 4.82824E-05-3.15942E-06
 -1       239 3.31763E-05 5.41388E-05-3.15942E-06
 -1       240 2.42987E-05 5.86622E-05-3.15942E-06
 -1       241 1.48227E-05 6.17411E-05-3.15942E-06
 -1       242 4.98180E-06 6.32998E-05-3.15942E-06
 -1       243 0.00000E+00 6.39872E-05-3.16472E-06
 -1       244 0.00000E+00 6.45493E-05-3.16669E-06
 -1       245 0.00000E+00 6.51697E-05-3.16766E-06
 -1       246 0.00000E+00 6.58544E-05-3.16828E-06
 -1       247 0.00000E+00 6.66094E-05-3.16873E-06
 -1       248 0.00000E+00 6.74413E-05-3.16913E-06
 -1       249 0.00000E+00 6.83571E-05-3.16950E-06
 -1       250 0.00000E+00 6.93648E-05-3.16988E-06
 -1       251 0.00000E+00 7.04734E-05-3.17028E-06
 -1       252 0.00000E+00 7.16929E-05-3.17069E-06
 -1       253 0.00000E+00 7.30348E-05-3.17114E-06
 -1       254 0.00000E+00 7.45122E-05-3.17161E-06
 -1       255 0.00000E+00 7.61403E-05-3.17211E-06
 -1       256 0.00000E+00 7.79363E-05-3.17264E-06
 -1       257 0.00000E+00 7.99204E-05-3.17322E-06
 -1       258 0.00000E+00 8.21162E-05-3.17384E-06
 -1       259 0.00000E+00 8.45512E-05-3.17452E-06
 -1       260 0.00000E+00 8.72581E-05-3.17525E-06
 -1       261 0.00000E+00 9.02757E-05-3.17606E-06
 -1       262 0.00000E+00 9.36506E-05-3.17695E-06
 -1       263 0.00000E+00 9.74392E-05-3.17794E-06
 -1       264 0.00000E+00 1.01711E-04-3.17905E-06
 -1       265 0.00000E+00 1.06550E-04-3.18031E-06
 -1       266 0.00000E+00 1.12063E-04-3.18176E-06
 -1       267 0.00000E+00 1.18386E-04-3.18344E-06
 -1       268 0.00000E+00 1.25692E-04-3.18544E-06
 -1       269 0.00000E+00 1.34206E-04-3.18770E-06
 -1       270 0.00000E+00 1.44233E-04-3.19135E-06
 -1       271 0.00000E+00 1.56188E-04-3.18847E-06
 -1       272 0.00000E+00 6.37270E-05-3.16330E-06
 -1       273 0.00000E+00 6.42610E-05-3.16565E-06
 -1       274 0.00000E+00 6.48516E-05-3.16712E-06
 -1       275 0.00000E+00 6.55035E-05-3.16790E-06
 -1       276 0.00000E+00 6.62226E-05-3.16843E-06
 -1       277 0.00000E+00 6.70152E-05-3.16885E-06
 -1       278 0.00000E+00 6.78881E-05-3.16922E-06
 -1       279 0.00000E+00 6.88489E-05-3.16959E-06
 -1       280 0.00000E+00 6.99058E-05-3.16996E-06
 -1       281 0.00000E+00 7.10685E-05-3.17035E-06
 -1       282 0.00000E+00 7.23477E-05-3.17076E-06
 -1       283 0.00000E+00 7.37556E-05-3.17119E-06
 -1       284 0.00000E+00 7.53063E-05-3.17165E-06
 -1       285 0.00000E+00 7.70160E-05-3.17214E-06
 -1       286 0.00000E+00 7.89033E-05-3.17265E-06
 -1       287 0.00000E+00 8.09901E-05-3.17320E-06
 -1       288 0.00000E+00 8.33017E-05-3.17379E-06
 -1       289 0.00000E+00 8.58682E-05-3.17443E-06
 -1       290 0.00000E+00 8.87251E-05-3.17510E-06
 -1       291 0.00000E+00 9.19150E-05-3.17583E-06
 -1       292 0.00000E+00 9.54890E-05-3.17662E-06
 -1       293 0.00000E+00 9.95094E-05-3.17748E-06
 -1       294 0.00000E+00 1.04053E-04-3.17841E-06
 -1       295 0.00000E+00 1.09214E-04-3.17943E-06
 -1       296 0.00000E+00 1.15113E-04-3.18054E-06
 -1       297 0.00000E+00 1.21903E-04-3.18175E-06
 -1       298 0.00000E+00 1.29780E-04-3.18299E-06
 -1       299 0.00000E+00 1.39007E-04-3.18462E-06
 -1       300 0.00000E+00 1.49937E-04-3.18315E-06
 -1       301 0.00000E+00 1.63070E-04-3.17241E-06
 -1       302 2.66933E-05 1.68535E-04-3.17866E-06
 -1       303 5.27293E-05 1.62284E-04-3.17866E-06
 -1       304 7.74669E-05 1.52037E-04-3.17866E-06
 -1       305 1.00297E-04 1.38047E-04-3.17866E-06
 -1       306 1.20658E-04 1.20658E-04-3.17866E-06
 -1       307 1.38047E-04 1.00297E-04-3.17866E-06
 -1       308 1.52037E-04 7.74669E-05-3.17866E-06
 -1       309 1.62284E-04 5.27293E-05-3.17866E-06
 -1       310 1.68535E-04 2.66933E-05-3.17866E-06
 -1       311 1.33866E-05 1.70092E-04-3.16669E-06
 -1       312 3.98301E-05 1.65904E-04-3.16669E-06
 -1       313 6.52928E-05 1.57631E-04-3.16669E-06
 -1       314 8.91479E-05 1.45476E-04-3.16669E-06
 -1       315 1.10808E-04 1.29739E-04-3.16669E-06
 -1       316 1.29739E-04 1.10808E-04-3.16669E-06
 -1       317 1.45476E-04 8.91479E-05-3.16669E-06
 -1       318 1.57631E-04 6.52928E-05-3.16669E-06
 -1       319 1.65904E-04 3.98301E-05-3.16669E-06
 -1       320 1.70092E-04 1.33866E-05-3.16669E-06
 -1       321 1.70641E-04 0.00000E+00-1.42206E-06
 -1       322 1.70643E-04 0.00000E+00-1.59910E-06
 -1       323 1.70644E-04 0.00000E+00-1.77382E-06
 -1       324 1.70644E-04 0.00000E+00-1.94765E-06
 -1       325 1.70644E-04 0.00000E+00-2.12115E-06
 -1       326 1.70644E-04 0.00000E+00-2.29457E-06
 -1       327 1.70644E-04 0.00000E+00-2.46808E-06
 -1       328 1.70644E-04 0.00000E+00-2.64191E-06
 -1       329 1.70643E-04 0.00000E+00-2.81663E-06
 -1       330 1.70641E-04 0.00000E+00-2.99367E-06
 -1       331 1.70640E-04 0.00000E+00-1.32979E-06
 -1       332 1.70642E-04 0.00000E+00-1.51054E-06
 -1       333 1.70643E-04 0.00000E+00-1.68648E-06
 -1       334 1.70644E-04 0.00000E+00-1.86075E-06
 -1       335 1.70644E-04 0.00000E+00-2.03441E-06
 -1       336 1.70644E-04 0.00000E+00-2.20786E-06
 -1       337 1.70644E-04 0.00000E+00-2.38132E-06
 -1       338 1.70644E-04 0.00000E+00-2.55498E-06
 -1       339 1.70643E-04 0.00000E+00-2.72925E-06
 -1       340 1.70642E-04 0.00000E+00-2.90518E-06
 -1       341 1.70640E-04 0.00000E+00-3.08594E-06
 -1       342 6.34830E-05 0.00000E+00-1.42714E-06
 -1       343 6.34832E-05 0.00000E+00-1.60059E-06
 -1       344 6.34832E-05 0.00000E+00-1.77406E-06
 -1       345 6.34832E-05 0.00000E+00-1.94757E-06
 -1       346 6.34831E-05 0.00000E+00-2.12110E-06
 -1       347 6.34831E-05 0.00000E+00-2.29463E-06
 -1       348 6.34832E-05 0.00000E+00-2.46816E-06
 -1       349 6.34832E-05 0.00000E+00-2.64167E-06
 -1       350 6.34832E-05 0.00000E+00-2.81514E-06
 -1       351 6.34830E-05 0.00000E+00-2.98859E-06
 -1       352 6.34827E-05 0.00000E+00-1.34041E-06
 -1       353 6.34831E-05 0.00000E+00-1.51386E-06
 -1       354 6.34832E-05 0.00000E+00-1.68732E-06
 -1       355 6.34832E-05 0.00000E+00-1.86081E-06
 -1       356 6.34831E-05 0.00000E+00-2.03433E-06
 -1       357 6.34831E-05 0.00000E+00-2.20786E-06
 -1       358 6.34831E-05 0.00000E+00-2.38139E-06
 -1       359 6.34832E-05 0.00000E+00-2.55491E-06
 -1       360 6.34832E-05 0.00000E+00-2.72840E-06
 -1       361 6.34831E-05 0.00000E+00-2.90186E-06
 -1       362 6.34827E-05 0.00000E+00-3.07532E-06
 -1       363 0.00000E+00 6.34830E-05-1.42714E-06
 -1       364 0.00000E+00 6.34832E-05-1.60059E-06
 -1       365 0.00000E+00 6.34832E-05-1.77406E-06
 -1       366 0.00000E+00 6.34832E-05-1.94757E-06
 -1       367 0.00000E+00 6.34831E-05-2.12110E-06
 -1       368 0.00000E+00 6.34831E-05-2.29463E-06
 -1       369 0.00000E+00 6.34832E-05-2.46816E-06
 -1       370 0.00000E+00 6.34832E-05-2.64167E-06
 -1       371 0.00000E+00 6.34832E-05-2.81514E-06
 -1       372 0.00000E+00 6.34830E-05-2.98859E-06
 -1       373 0.00000E+00 6.34827E-05-1.34041E-06
 -1       374 0.00000E+00 6.34831E-05-1.51386E-06
 -1       375 0.00000E+00 6.34832E-05-1.68732E-06
 -1       376 0.00000E+00 6.34832E-05-1.86081E-06
 -1       377 0.00000E+00 6.34831E-05-2.03433E-06
 -1       378 0.00000E+00 6.34831E-05-2.20786E-06
 -1       379 0.00000E+00 6.34831E-05-2.38139E-06
 -1       380 0.00000E+00 6.34832E-05-2.55491E-06
 -1       381 0.00000E+00 6.34832E-05-2.72840E-06
 -1       382 0.00000E+00 6.34831E-05-2.90187E-06
 -1       383 0.00000E+00 6.34827E-05-3.07532E-06
 -1       384 0.00000E+00 1.70641E-04-1.42206E-06
 -1       385 0.00000E+00 1.70643E-04-1.59910E-06
 -1       386 0.00000E+00 1.70644E-04-1.77382E-06
 -1       387 0.00000E+00 1.70644E-04-1.94765E-06
 -1       388 0.00000E+00 1.70644E-04-2.12115E-06
 -1       389 0.00000E+00 1.70644E-04-2.29457E-06
 -1       390 0.00000E+00 1.70644E-04-2.46808E-06
 -1       391 0.00000E+00 1.70644E-04-2.64191E-06
 -1       392 0.00000E+00 1.70643E-04-2.81663E-06
 -1       393 0.00000E+00 1.70641E-04-2.99367E-06
 -1       394 0.00000E+00 1.70640E-04-1.32979E-06
 -1       395 0.00000E+00 1.70642E-04-1.51054E-06
 -1       396 0.00000E+00 1.70643E-04-1.68648E-06
 -1       397 0.00000E+00 1.70644E-04-1.86075E-06
 -1       398 0.00000E+00 1.70644E-04-2.03441E-06
 -1       399 0.00000E+00 1.70644E-04-2.20786E-06
 -1       400 0.00000E+00 1.70644E-04-2.38132E-06
 -1       401 0.00000E+00 1.70644E-04-2.55498E-06
 -1       402 0.00000E+00 1.70643E-04-2.72925E-06
 -1       403 0.00000E+00 1.70642E-04-2.90518E-06
 -1       404 0.00000E+00 1.70640E-04-3.08594E-06
 -1       405 1.54265E-04 2.44332E-05-1.22726E-06
 -1       406 1.48543E-04 4.82647E-05-1.22726E-06
 -1       407 1.39164E-04 7.09078E-05-1.22726E-06
 -1       408 1.26359E-04 9.18049E-05-1.22726E-06
 -1       409 1.10441E-04 1.10441E-04-1.22726E-06
 -1       410 9.18049E-05 1.26359E-04-1.22726E-06
 -1       411 7.09078E-05 1.39164E-04-1.22726E-06
 -1       412 4.82647E-05 1.48543E-04-1.22726E-06
 -1       413 2.44332E-05 1.54265E-04-1.22726E-06
 -1       414 1.42457E-04 2.25630E-05-1.22437E-06
 -1       415 1.37174E-04 4.45704E-05-1.22437E-06
 -1       416 1.28512E-04 6.54803E-05-1.22437E-06
 -1       417 1.16687E-04 8.47779E-05-1.22437E-06
 -1       418 1.01988E-04 1.01988E-04-1.22437E-06
 -1       419 8.47779E-05 1.16687E-04-1.22437E-06
 -1       420 6.54803E-05 1.28512E-04-1.22437E-06
 -1       421 4.45704E-05 1.37174E-04-1.22437E-06
 -1       422 2.25630E-05 1.42457E-04-1.22437E-06
 -1       423 1.32554E-04 2.09945E-05-1.22803E-06
 -1       424 1.27638E-04 4.14720E-05-1.22803E-06
 -1       425 1.19579E-04 6.09284E-05-1.22803E-06
 -1       426 1.08575E-04 7.88845E-05-1.22803E-06
 -1       427 9.48982E-05 9.48982E-05-1.22803E-06
 -1       428 7.88845E-05 1.08575E-04-1.22803E-06
 -1       429 6.09284E-05 1.19579E-04-1.22803E-06
 -1       430 4.14720E-05 1.27638E-04-1.22803E-06
 -1       431 2.09945E-05 1.32554E-04-1.22803E-06
 -1       432 1.24144E-04 1.96625E-05-1.23028E-06
 -1       433 1.19540E-04 3.88408E-05-1.23028E-06
 -1       434 1.11992E-04 5.70627E-05-1.23028E-06
 -1       435 1.01687E-04 7.38796E-05-1.23028E-06
 -1       436 8.88773E-05 8.88773E-05-1.23028E-06
 -1       437 7.38796E-05 1.01687E-04-1.23028E-06
 -1       438 5.70627E-05 1.11992E-04-1.23028E-06
 -1       439 3.88408E-05 1.19540E-04-1.23028E-06
 -1       440 1.96625E-05 1.24144E-04-1.23028E-06
 -1       441 1.16929E-04 1.85197E-05-1.23229E-06
 -1       442 1.12592E-04 3.65833E-05-1.23229E-06
 -1       443 1.05483E-04 5.37462E-05-1.23229E-06
 -1       444 9.57764E-05 6.95856E-05-1.23229E-06
 -1       445 8.37116E-05 8.37116E-05-1.23229E-06
 -1       446 6.95856E-05 9.57764E-05-1.23229E-06
 -1       447 5.37462E-05 1.05483E-04-1.23229E-06
 -1       448 3.65833E-05 1.12592E-04-1.23229E-06
 -1       449 1.85197E-05 1.16929E-04-1.23229E-06
 -1       450 1.10684E-04 1.75306E-05-1.23397E-06
 -1       451 1.06579E-04 3.46295E-05-1.23397E-06
 -1       452 9.98491E-05 5.08757E-05-1.23397E-06
 -1       453 9.06611E-05 6.58692E-05-1.23397E-06
 -1       454 7.92407E-05 7.92407E-05-1.23397E-06
 -1       455 6.58692E-05 9.06611E-05-1.23397E-06
 -1       456 5.08757E-05 9.98491E-05-1.23397E-06
 -1       457 3.46295E-05 1.06579E-04-1.23397E-06
 -1       458 1.75306E-05 1.10684E-04-1.23397E-06
 -1       459 1.05238E-04 1.66681E-05-1.23542E-06
 -1       460 1.01335E-04 3.29257E-05-1.23542E-06
 -1       461 9.49365E-05 4.83726E-05-1.23542E-06
 -1       462 8.62006E-05 6.26284E-05-1.23542E-06
 -1       463 7.53421E-05 7.53421E-05-1.23542E-06
 -1       464 6.26284E-05 8.62006E-05-1.23542E-06
 -1       465 4.83726E-05 9.49365E-05-1.23542E-06
 -1       466 3.29257E-05 1.01335E-04-1.23542E-06
 -1       467 1.66681E-05 1.05238E-04-1.23542E-06
 -1       468 1.00458E-04 1.59110E-05-1.23668E-06
 -1       469 9.67325E-05 3.14303E-05-1.23668E-06
 -1       470 9.06248E-05 4.61756E-05-1.23668E-06
 -1       471 8.22856E-05 5.97840E-05-1.23668E-06
 -1       472 7.19202E-05 7.19202E-05-1.23668E-06
 -1       473 5.97840E-05 8.22856E-05-1.23668E-06
 -1       474 4.61756E-05 9.06248E-05-1.23668E-06
 -1       475 3.14303E-05 9.67325E-05-1.23668E-06
 -1       476 1.59110E-05 1.00458E-04-1.23668E-06
 -1       477 9.62396E-05 1.52429E-05-1.23779E-06
 -1       478 9.26702E-05 3.01104E-05-1.23779E-06
 -1       479 8.68190E-05 4.42365E-05-1.23779E-06
 -1       480 7.88300E-05 5.72733E-05-1.23779E-06
 -1       481 6.88999E-05 6.88999E-05-1.23779E-06
 -1       482 5.72733E-05 7.88300E-05-1.23779E-06
 -1       483 4.42365E-05 8.68190E-05-1.23779E-06
 -1       484 3.01104E-05 9.26702E-05-1.23779E-06
 -1       485 1.52429E-05 9.62396E-05-1.23779E-06
 -1       486 9.24976E-05 1.46502E-05-1.23878E-06
 -1       487 8.90670E-05 2.89396E-05-1.23878E-06
 -1       488 8.34433E-05 4.25165E-05-1.23878E-06
 -1       489 7.57649E-05 5.50464E-05-1.23878E-06
 -1       490 6.62210E-05 6.62210E-05-1.23878E-06
 -1       491 5.50464E-05 7.57649E-05-1.23878E-06
 -1       492 4.25165E-05 8.34433E-05-1.23878E-06
 -1       493 2.89396E-05 8.90670E-05-1.23878E-06
 -1       494 1.46502E-05 9.24976E-05-1.23878E-06
 -1       495 8.91642E-05 1.41222E-05-1.23967E-06
 -1       496 8.58573E-05 2.78967E-05-1.23967E-06
 -1       497 8.04362E-05 4.09843E-05-1.23967E-06
 -1       498 7.30345E-05 5.30627E-05-1.23967E-06
 -1       499 6.38345E-05 6.38345E-05-1.23967E-06
 -1       500 5.30627E-05 7.30345E-05-1.23967E-06
 -1       501 4.09843E-05 8.04362E-05-1.23967E-06
 -1       502 2.78967E-05 8.58573E-05-1.23967E-06
 -1       503 1.41222E-05 8.91642E-05-1.23967E-06
 -1       504 8.61838E-05 1.36502E-05-1.24047E-06
 -1       505 8.29874E-05 2.69642E-05-1.24047E-06
 -1       506 7.77475E-05 3.96143E-05-1.24047E-06
 -1       507 7.05933E-05 5.12890E-05-1.24047E-06
 -1       508 6.17008E-05 6.17008E-05-1.24047E-06
 -1       509 5.12890E-05 7.05933E-05-1.24047E-06
 -1       510 3.96143E-05 7.77475E-05-1.24047E-06
 -1       511 2.69642E-05 8.29874E-05-1.24047E-06
 -1       512 1.36502E-05 8.61838E-05-1.24047E-06
 -1       513 8.35102E-05 1.32267E-05-1.24121E-06
 -1       514 8.04130E-05 2.61278E-05-1.24121E-06
 -1       515 7.53357E-05 3.83854E-05-1.24121E-06
 -1       516 6.84033E-05 4.96979E-05-1.24121E-06
 -1       517 5.97867E-05 5.97867E-05-1.24121E-06
 -1       518 4.96979E-05 6.84033E-05-1.24121E-06
 -1       519 3.83854E-05 7.53357E-05-1.24121E-06
 -1       520 2.61278E-05 8.04130E-05-1.24121E-06
 -1       521 1.32267E-05 8.35102E-05-1.24121E-06
 -1       522 8.11052E-05 1.28458E-05-1.24188E-06
 -1       523 7.80971E-05 2.53753E-05-1.24188E-06
 -1       524 7.31660E-05 3.72800E-05-1.24188E-06
 -1       525 6.64334E-05 4.82667E-05-1.24188E-06
 -1       526 5.80649E-05 5.80649E-05-1.24188E-06
 -1       527 4.82667E-05 6.64334E-05-1.24188E-06
 -1       528 3.72800E-05 7.31660E-05-1.24188E-06
 -1       529 2.53753E-05 7.80971E-05-1.24188E-06
 -1       530 1.28458E-05 8.11052E-05-1.24188E-06
 -1       531 7.89364E-05 1.25023E-05-1.24251E-06
 -1       532 7.60088E-05 2.46968E-05-1.24251E-06
 -1       533 7.12096E-05 3.62831E-05-1.24251E-06
 -1       534 6.46570E-05 4.69760E-05-1.24251E-06
 -1       535 5.65123E-05 5.65123E-05-1.24251E-06
 -1       536 4.69760E-05 6.46570E-05-1.24251E-06
 -1       537 3.62831E-05 7.12096E-05-1.24251E-06
 -1       538 2.46968E-05 7.60088E-05-1.24251E-06
 -1       539 1.25023E-05 7.89364E-05-1.24251E-06
 -1       540 7.69767E-05 1.21919E-05-1.24308E-06
 -1       541 7.41218E-05 2.40836E-05-1.24308E-06
 -1       542 6.94417E-05 3.53823E-05-1.24308E-06
 -1       543 6.30518E-05 4.58098E-05-1.24308E-06
 -1       544 5.51093E-05 5.51093E-05-1.24308E-06
 -1       545 4.58098E-05 6.30518E-05-1.24308E-06
 -1       546 3.53823E-05 6.94417E-05-1.24308E-06
 -1       547 2.40836E-05 7.41218E-05-1.24308E-06
 -1       548 1.21919E-05 7.69767E-05-1.24308E-06
 -1       549 7.52028E-05 1.19110E-05-1.24362E-06
 -1       550 7.24137E-05 2.35286E-05-1.24362E-06
 -1       551 6.78415E-05 3.45670E-05-1.24362E-06
 -1       552 6.15988E-05 4.47541E-05-1.24362E-06
 -1       553 5.38393E-05 5.38393E-05-1.24362E-06
 -1       554 4.47541E-05 6.15988E-05-1.24362E-06
 -1       555 3.45670E-05 6.78415E-05-1.24362E-06
 -1       556 2.35286E-05 7.24137E-05-1.24362E-06
 -1       557 1.19110E-05 7.52028E-05-1.24362E-06
 -1       558 7.35949E-05 1.16563E-05-1.24412E-06
 -1       559 7.08653E-05 2.30255E-05-1.24412E-06
 -1       560 6.63909E-05 3.38278E-05-1.24412E-06
 -1       561 6.02817E-05 4.37972E-05-1.24412E-06
 -1       562 5.26881E-05 5.26881E-05-1.24412E-06
 -1       563 4.37972E-05 6.02817E-05-1.24412E-06
 -1       564 3.38278E-05 6.63909E-05-1.24412E-06
 -1       565 2.30255E-05 7.08653E-05-1.24412E-06
 -1       566 1.16563E-05 7.35949E-05-1.24412E-06
 -1       567 7.21356E-05 1.14252E-05-1.24459E-06
 -1       568 6.94602E-05 2.25690E-05-1.24459E-06
 -1       569 6.50745E-05 3.31571E-05-1.24459E-06
 -1       570 5.90864E-05 4.29288E-05-1.24459E-06
 -1       571 5.16434E-05 5.16434E-05-1.24459E-06
 -1       572 4.29288E-05 5.90864E-05-1.24459E-06
 -1       573 3.31571E-05 6.50745E-05-1.24459E-06
 -1       574 2.25690E-05 6.94602E-05-1.24459E-06
 -1       575 1.14252E-05 7.21356E-05-1.24459E-06
 -1       576 7.08102E-05 1.12152E-05-1.24503E-06
 -1       577 6.81840E-05 2.21543E-05-1.24503E-06
 -1       578 6.38788E-05 3.25479E-05-1.24503E-06
 -1       579 5.80007E-05 4.21400E-05-1.24503E-06
 -1       580 5.06945E-05 5.06945E-05-1.24503E-06
 -1       581 4.21400E-05 5.80007E-05-1.24503E-06
 -1       582 3.25479E-05 6.38788E-05-1.24503E-06
 -1       583 2.21543E-05 6.81840E-05-1.24503E-06
 -1       584 1.12152E-05 7.08102E-05-1.24503E-06
 -1       585 6.96057E-05 1.10245E-05-1.24545E-06
 -1       586 6.70242E-05 2.17775E-05-1.24545E-06
 -1       587 6.27922E-05 3.19942E-05-1.24545E-06
 -1       588 5.70142E-05 4.14232E-05-1.24545E-06
 -1       589 4.98322E-05 4.98322E-05-1.24545E-06
 -1       590 4.14232E-05 5.70142E-05-1.24545E-06
 -1       591 3.19942E-05 6.27922E-05-1.24545E-06
 -1       592 2.17775E-05 6.70242E-05-1.24545E-06
 -1       593 1.10245E-05 6.96057E-05-1.24545E-06
 -1       594 6.85108E-05 1.08510E-05-1.24584E-06
 -1       595 6.59698E-05 2.14349E-05-1.24584E-06
 -1       596 6.18045E-05 3.14910E-05-1.24584E-06
 -1       597 5.61173E-05 4.07716E-05-1.24584E-06
 -1       598 4.90483E-05 4.90483E-05-1.24584E-06
 -1       599 4.07716E-05 5.61173E-05-1.24584E-06
 -1       600 3.14910E-05 6.18045E-05-1.24584E-06
 -1       601 2.14349E-05 6.59698E-05-1.24584E-06
 -1       602 1.08510E-05 6.85108E-05-1.24584E-06
 -1       603 6.75155E-05 1.06934E-05-1.24622E-06
 -1       604 6.50114E-05 2.11235E-05-1.24622E-06
 -1       605 6.09066E-05 3.10335E-05-1.24622E-06
 -1       606 5.53020E-05 4.01793E-05-1.24622E-06
 -1       607 4.83358E-05 4.83358E-05-1.24622E-06
 -1       608 4.01793E-05 5.53020E-05-1.24622E-06
 -1       609 3.10335E-05 6.09066E-05-1.24622E-06
 -1       610 2.11235E-05 6.50114E-05-1.24622E-06
 -1       611 1.06934E-05 6.75155E-05-1.24622E-06
 -1       612 6.66109E-05 1.05501E-05-1.24660E-06
 -1       613 6.41404E-05 2.08405E-05-1.24660E-06
 -1       614 6.00906E-05 3.06177E-05-1.24660E-06
 -1       615 5.45611E-05 3.96410E-05-1.24660E-06
 -1       616 4.76882E-05 4.76882E-05-1.24660E-06
 -1       617 3.96410E-05 5.45611E-05-1.24660E-06
 -1       618 3.06177E-05 6.00906E-05-1.24660E-06
 -1       619 2.08405E-05 6.41404E-05-1.24660E-06
 -1       620 1.05501E-05 6.66109E-05-1.24660E-06
 -1       621 6.57893E-05 1.04200E-05-1.24699E-06
 -1       622 6.33493E-05 2.05834E-05-1.24699E-06
 -1       623 5.93494E-05 3.02400E-05-1.24699E-06
 -1       624 5.38881E-05 3.91520E-05-1.24699E-06
 -1       625 4.71000E-05 4.71000E-05-1.24699E-06
 -1       626 3.91520E-05 5.38881E-05-1.24699E-06
 -1       627 3.02400E-05 5.93494E-05-1.24699E-06
 -1       628 2.05834E-05 6.33493E-05-1.24699E-06
 -1       629 1.04200E-05 6.57893E-05-1.24699E-06
 -1       630 6.50436E-05 1.03019E-05-1.24745E-06
 -1       631 6.26312E-05 2.03501E-05-1.24745E-06
 -1       632 5.86767E-05 2.98973E-05-1.24745E-06
 -1       633 5.32773E-05 3.87082E-05-1.24745E-06
 -1       634 4.65661E-05 4.65661E-05-1.24745E-06
 -1       635 3.87082E-05 5.32773E-05-1.24745E-06
 -1       636 2.98973E-05 5.86767E-05-1.24745E-06
 -1       637 2.03501E-05 6.26312E-05-1.24745E-06
 -1       638 1.03019E-05 6.50436E-05-1.24745E-06
 -1       639 6.43674E-05 1.01948E-05-1.24807E-06
 -1       640 6.19801E-05 2.01385E-05-1.24807E-06
 -1       641 5.80666E-05 2.95864E-05-1.24807E-06
 -1       642 5.27234E-05 3.83058E-05-1.24807E-06
 -1       643 4.60819E-05 4.60819E-05-1.24807E-06
 -1       644 3.83058E-05 5.27234E-05-1.24807E-06
 -1       645 2.95864E-05 5.80666E-05-1.24807E-06
 -1       646 2.01385E-05 6.19801E-05-1.24807E-06
 -1       647 1.01948E-05 6.43674E-05-1.24807E-06
 -1       648 6.37546E-05 1.00977E-05-1.24904E-06
 -1       649 6.13900E-05 1.99468E-05-1.24904E-06
 -1       650 5.75138E-05 2.93048E-05-1.24904E-06
 -1       651 5.22215E-05 3.79411E-05-1.24904E-06
 -1       652 4.56432E-05 4.56432E-05-1.24904E-06
 -1       653 3.79411E-05 5.22215E-05-1.24903E-06
 -1       654 2.93048E-05 5.75138E-05-1.24904E-06
 -1       655 1.99468E-05 6.13900E-05-1.24904E-06
 -1       656 1.00977E-05 6.37546E-05-1.24904E-06
 -1       657 6.31994E-05 1.00098E-05-1.25101E-06
 -1       658 6.08555E-05 1.97731E-05-1.25101E-06
 -1       659 5.70130E-05 2.90496E-05-1.25101E-06
 -1       660 5.17668E-05 3.76107E-05-1.25101E-06
 -1       661 4.52458E-05 4.52458E-05-1.25101E-06
 -1       662 3.76107E-05 5.17668E-05-1.25101E-06
 -1       663 2.90496E-05 5.70130E-05-1.25101E-06
 -1       664 1.97731E-05 6.08555E-05-1.25101E-06
 -1       665 1.00098E-05 6.31994E-05-1.25101E-06
 -1       666 1.56137E-04 1.22883E-05-1.26215E-06
 -1       667 1.61063E-04 2.55098E-05-1.24332E-06
 -1       669 1.52292E-04 3.65622E-05-1.26215E-06
 -1       670 1.55089E-04 5.03915E-05-1.24332E-06
 -1       672 1.44698E-04 5.99358E-05-1.26215E-06
 -1       673 1.45297E-04 7.40323E-05-1.24332E-06
 -1       675 1.33540E-04 8.18337E-05-1.26215E-06
 -1       676 1.31927E-04 9.58503E-05-1.24332E-06
 -1       678 1.19095E-04 1.01716E-04-1.26215E-06
 -1       679 1.15308E-04 1.15308E-04-1.24332E-06
 -1       681 1.01716E-04 1.19095E-04-1.26215E-06
 -1       682 9.58503E-05 1.31927E-04-1.24332E-06
 -1       684 8.18337E-05 1.33540E-04-1.26215E-06
 -1       685 7.40323E-05 1.45297E-04-1.24332E-06
 -1       687 5.99358E-05 1.44698E-04-1.26215E-06
 -1       688 5.03915E-05 1.55089E-04-1.24332E-06
 -1       690 3.65622E-05 1.52292E-04-1.26215E-06
 -1       691 2.55098E-05 1.61063E-04-1.24332E-06
 -1       693 1.22883E-05 1.56137E-04-1.26215E-06
 -1       695 1.44186E-04 1.13477E-05-1.26553E-06
 -1       696 1.48092E-04 2.34554E-05-1.23258E-06
 -1       698 1.40636E-04 3.37637E-05-1.26553E-06
 -1       699 1.42599E-04 4.63332E-05-1.23258E-06
 -1       701 1.33623E-04 5.53484E-05-1.26553E-06
 -1       702 1.33595E-04 6.80702E-05-1.23258E-06
 -1       704 1.23319E-04 7.55701E-05-1.26553E-06
 -1       705 1.21302E-04 8.81310E-05-1.23258E-06
 -1       707 1.09979E-04 9.39311E-05-1.26553E-06
 -1       708 1.06022E-04 1.06022E-04-1.23258E-06
 -1       710 9.39311E-05 1.09979E-04-1.26553E-06
 -1       711 8.81310E-05 1.21302E-04-1.23258E-06
 -1       713 7.55701E-05 1.23319E-04-1.26553E-06
 -1       714 6.80702E-05 1.33595E-04-1.23258E-06
 -1       716 5.53484E-05 1.33623E-04-1.26553E-06
 -1       717 4.63332E-05 1.42599E-04-1.23258E-06
 -1       719 3.37637E-05 1.40636E-04-1.26553E-06
 -1       720 2.34554E-05 1.48092E-04-1.23258E-06
 -1       722 1.13477E-05 1.44186E-04-1.26553E-06
 -1       724 1.34157E-04 1.05584E-05-1.26510E-06
 -1       725 1.37296E-04 2.17455E-05-1.23110E-06
 -1       727 1.30854E-04 3.14152E-05-1.26510E-06
 -1       728 1.32204E-04 4.29556E-05-1.23110E-06
 -1       730 1.24328E-04 5.14985E-05-1.26510E-06
 -1       731 1.23856E-04 6.31079E-05-1.23110E-06
 -1       733 1.14742E-04 7.03137E-05-1.26510E-06
 -1       734 1.12459E-04 8.17063E-05-1.23110E-06
 -1       736 1.02329E-04 8.73975E-05-1.26510E-06
 -1       737 9.82929E-05 9.82929E-05-1.23110E-06
 -1       739 8.73975E-05 1.02329E-04-1.26510E-06
 -1       740 8.17063E-05 1.12459E-04-1.23110E-06
 -1       742 7.03137E-05 1.14742E-04-1.26510E-06
 -1       743 6.31079E-05 1.23856E-04-1.23110E-06
 -1       745 5.14985E-05 1.24328E-04-1.26510E-06
 -1       746 4.29556E-05 1.32204E-04-1.23110E-06
 -1       748 3.14152E-05 1.30854E-04-1.26510E-06
 -1       749 2.17455E-05 1.37296E-04-1.23110E-06
 -1       751 1.05584E-05 1.34157E-04-1.26510E-06
 -1       753 1.25639E-04 9.88803E-06-1.26497E-06
 -1       754 1.28182E-04 2.03021E-05-1.23274E-06
 -1       756 1.22546E-04 2.94206E-05-1.26497E-06
 -1       757 1.23428E-04 4.01043E-05-1.23274E-06
 -1       759 1.16435E-04 4.82288E-05-1.26497E-06
 -1       760 1.15635E-04 5.89190E-05-1.23274E-06
 -1       762 1.07456E-04 6.58494E-05-1.26497E-06
 -1       763 1.04994E-04 7.62829E-05-1.23274E-06
 -1       765 9.58324E-05 8.18486E-05-1.26497E-06
 -1       766 9.17685E-05 9.17685E-05-1.23274E-06
 -1       768 8.18486E-05 9.58324E-05-1.26497E-06
 -1       769 7.62829E-05 1.04994E-04-1.23274E-06
 -1       771 6.58494E-05 1.07456E-04-1.26497E-06
 -1       772 5.89190E-05 1.15635E-04-1.23274E-06
 -1       774 4.82288E-05 1.16435E-04-1.26497E-06
 -1       775 4.01043E-05 1.23428E-04-1.23274E-06
 -1       777 2.94206E-05 1.22546E-04-1.26497E-06
 -1       778 2.03021E-05 1.28182E-04-1.23274E-06
 -1       780 9.88803E-06 1.25639E-04-1.26497E-06
 -1       782 1.18331E-04 9.31284E-06-1.26470E-06
 -1       783 1.20402E-04 1.90698E-05-1.23398E-06
 -1       785 1.15417E-04 2.77092E-05-1.26470E-06
 -1       786 1.15936E-04 3.76700E-05-1.23398E-06
 -1       788 1.09662E-04 4.54233E-05-1.26470E-06
 -1       789 1.08616E-04 5.53427E-05-1.23398E-06
 -1       791 1.01206E-04 6.20189E-05-1.26470E-06
 -1       792 9.86214E-05 7.16526E-05-1.23398E-06
 -1       794 9.02578E-05 7.70874E-05-1.26470E-06
 -1       795 8.61982E-05 8.61982E-05-1.23398E-06
 -1       797 7.70874E-05 9.02578E-05-1.26470E-06
 -1       798 7.16526E-05 9.86214E-05-1.23398E-06
 -1       800 6.20189E-05 1.01206E-04-1.26470E-06
 -1       801 5.53427E-05 1.08616E-04-1.23398E-06
 -1       803 4.54233E-05 1.09662E-04-1.26470E-06
 -1       804 3.76700E-05 1.15936E-04-1.23398E-06
 -1       806 2.77092E-05 1.15417E-04-1.26470E-06
 -1       807 1.90698E-05 1.20402E-04-1.23398E-06
 -1       809 9.31284E-06 1.18331E-04-1.26470E-06
 -1       811 1.12005E-04 8.81499E-06-1.26440E-06
 -1       812 1.13696E-04 1.80077E-05-1.23519E-06
 -1       814 1.09247E-04 2.62279E-05-1.26440E-06
 -1       815 1.09479E-04 3.55720E-05-1.23519E-06
 -1       817 1.03799E-04 4.29950E-05-1.26440E-06
 -1       818 1.02567E-04 5.22604E-05-1.23519E-06
 -1       820 9.57953E-05 5.87034E-05-1.26440E-06
 -1       821 9.31286E-05 6.76619E-05-1.23519E-06
 -1       823 8.54326E-05 7.29664E-05-1.26440E-06
 -1       824 8.13974E-05 8.13974E-05-1.23519E-06
 -1       826 7.29664E-05 8.54326E-05-1.26440E-06
 -1       827 6.76619E-05 9.31286E-05-1.23519E-06
 -1       829 5.87034E-05 9.57953E-05-1.26440E-06
 -1       830 5.22604E-05 1.02567E-04-1.23519E-06
 -1       832 4.29950E-05 1.03799E-04-1.26440E-06
 -1       833 3.55720E-05 1.09479E-04-1.23519E-06
 -1       835 2.62279E-05 1.09247E-04-1.26440E-06
 -1       836 1.80077E-05 1.13696E-04-1.23519E-06
 -1       838 8.81499E-06 1.12005E-04-1.26440E-06
 -1       840 1.06488E-04 8.38081E-06-1.26407E-06
 -1       841 1.07870E-04 1.70849E-05-1.23630E-06
 -1       843 1.03866E-04 2.49361E-05-1.26407E-06
 -1       844 1.03869E-04 3.37490E-05-1.23630E-06
 -1       846 9.86866E-05 4.08773E-05-1.26407E-06
 -1       847 9.73106E-05 4.95822E-05-1.23630E-06
 -1       849 9.10770E-05 5.58120E-05-1.26407E-06
 -1       850 8.83562E-05 6.41945E-05-1.23630E-06
 -1       852 8.12247E-05 6.93725E-05-1.26407E-06
 -1       853 7.72261E-05 7.72261E-05-1.23630E-06
 -1       855 6.93725E-05 8.12247E-05-1.26407E-06
 -1       856 6.41945E-05 8.83562E-05-1.23630E-06
 -1       858 5.58120E-05 9.10770E-05-1.26407E-06
 -1       859 4.95822E-05 9.73106E-05-1.23630E-06
 -1       861 4.08773E-05 9.86866E-05-1.26407E-06
 -1       862 3.37490E-05 1.03869E-04-1.23630E-06
 -1       864 2.49361E-05 1.03866E-04-1.26407E-06
 -1       865 1.70849E-05 1.07870E-04-1.23630E-06
 -1       867 8.38081E-06 1.06488E-04-1.26407E-06
 -1       869 1.01646E-04 7.99971E-06-1.26374E-06
 -1       870 1.02772E-04 1.62774E-05-1.23731E-06
 -1       872 9.91430E-05 2.38021E-05-1.26374E-06
 -1       873 9.89601E-05 3.21541E-05-1.23731E-06
 -1       875 9.41989E-05 3.90185E-05-1.26374E-06
 -1       876 9.27117E-05 4.72390E-05-1.23731E-06
 -1       878 8.69354E-05 5.32741E-05-1.26374E-06
 -1       879 8.41805E-05 6.11607E-05-1.23731E-06
 -1       881 7.75311E-05 6.62178E-05-1.26374E-06
 -1       882 7.35764E-05 7.35764E-05-1.23731E-06
 -1       884 6.62178E-05 7.75311E-05-1.26374E-06
 -1       885 6.11607E-05 8.41805E-05-1.23731E-06
 -1       887 5.32741E-05 8.69354E-05-1.26374E-06
 -1       888 4.72390E-05 9.27117E-05-1.23731E-06
 -1       890 3.90185E-05 9.41989E-05-1.26374E-06
 -1       891 3.21541E-05 9.89601E-05-1.23731E-06
 -1       893 2.38021E-05 9.91430E-05-1.26374E-06
 -1       894 1.62774E-05 1.02772E-04-1.23731E-06
 -1       896 7.99971E-06 1.01646E-04-1.26374E-06
 -1       898 9.73713E-05 7.66329E-06-1.26340E-06
 -1       899 9.82843E-05 1.55667E-05-1.23825E-06
 -1       901 9.49737E-05 2.28012E-05-1.26340E-06
 -1       902 9.46391E-05 3.07501E-05-1.23825E-06
 -1       904 9.02376E-05 3.73776E-05-1.26340E-06
 -1       905 8.86635E-05 4.51763E-05-1.23825E-06
 -1       907 8.32794E-05 5.10337E-05-1.26340E-06
 -1       908 8.05048E-05 5.84902E-05-1.23825E-06
 -1       910 7.42707E-05 6.34332E-05-1.26340E-06
 -1       911 7.03638E-05 7.03638E-05-1.23825E-06
 -1       913 6.34332E-05 7.42707E-05-1.26340E-06
 -1       914 5.84902E-05 8.05048E-05-1.23825E-06
 -1       916 5.10337E-05 8.32794E-05-1.26340E-06
 -1       917 4.51763E-05 8.86635E-05-1.23825E-06
 -1       919 3.73776E-05 9.02376E-05-1.26340E-06
 -1       920 3.07501E-05 9.46391E-05-1.23825E-06
 -1       922 2.28012E-05 9.49737E-05-1.26340E-06
 -1       923 1.55667E-05 9.82843E-05-1.23825E-06
 -1       925 7.66329E-06 9.73713E-05-1.26340E-06
 -1       927 9.35794E-05 7.36486E-06-1.26308E-06
 -1       928 9.43133E-05 1.49378E-05-1.23910E-06
 -1       930 9.12752E-05 2.19132E-05-1.26308E-06
 -1       931 9.08154E-05 2.95077E-05-1.23910E-06
 -1       933 8.67235E-05 3.59220E-05-1.26308E-06
 -1       934 8.50813E-05 4.33511E-05-1.23910E-06
 -1       936 8.00363E-05 4.90463E-05-1.26308E-06
 -1       937 7.72522E-05 5.61270E-05-1.23910E-06
 -1       939 7.13784E-05 6.09629E-05-1.26308E-06
 -1       940 6.75209E-05 6.75209E-05-1.23910E-06
 -1       942 6.09629E-05 7.13784E-05-1.26308E-06
 -1       943 5.61270E-05 7.72522E-05-1.23910E-06
 -1       945 4.90463E-05 8.00363E-05-1.26308E-06
 -1       946 4.33511E-05 8.50813E-05-1.23910E-06
 -1       948 3.59220E-05 8.67235E-05-1.26308E-06
 -1       949 2.95077E-05 9.08154E-05-1.23910E-06
 -1       951 2.19132E-05 9.12752E-05-1.26308E-06
 -1       952 1.49378E-05 9.43133E-05-1.23910E-06
 -1       954 7.36486E-06 9.35794E-05-1.26308E-06
 -1       956 9.02013E-05 7.09899E-06-1.26277E-06
 -1       957 9.07834E-05 1.43787E-05-1.23989E-06
 -1       959 8.79802E-05 2.11222E-05-1.26277E-06
 -1       960 8.74164E-05 2.84033E-05-1.23989E-06
 -1       962 8.35928E-05 3.46253E-05-1.26277E-06
 -1       963 8.18969E-05 4.17285E-05-1.23989E-06
 -1       965 7.71470E-05 4.72758E-05-1.26277E-06
 -1       966 7.43608E-05 5.40263E-05-1.23989E-06
 -1       968 6.88017E-05 5.87622E-05-1.26277E-06
 -1       969 6.49937E-05 6.49937E-05-1.23989E-06
 -1       971 5.87622E-05 6.88017E-05-1.26277E-06
 -1       972 5.40263E-05 7.43608E-05-1.23989E-06
 -1       974 4.72758E-05 7.71470E-05-1.26277E-06
 -1       975 4.17285E-05 8.18969E-05-1.23989E-06
 -1       977 3.46253E-05 8.35928E-05-1.26277E-06
 -1       978 2.84033E-05 8.74164E-05-1.23989E-06
 -1       980 2.11222E-05 8.79802E-05-1.26277E-06
 -1       981 1.43787E-05 9.07834E-05-1.23989E-06
 -1       983 7.09899E-06 9.02013E-05-1.26277E-06
 -1       985 8.71804E-05 6.86125E-06-1.26247E-06
 -1       986 8.76328E-05 1.38797E-05-1.24062E-06
 -1       988 8.50337E-05 2.04148E-05-1.26247E-06
 -1       989 8.43826E-05 2.74176E-05-1.24062E-06
 -1       991 8.07932E-05 3.34657E-05-1.26247E-06
 -1       992 7.90547E-05 4.02804E-05-1.24062E-06
 -1       994 7.45634E-05 4.56925E-05-1.26247E-06
 -1       995 7.17802E-05 5.21513E-05-1.24062E-06
 -1       997 6.64975E-05 5.67942E-05-1.26247E-06
 -1       998 6.27382E-05 6.27382E-05-1.24062E-06
 -1      1000 5.67942E-05 6.64975E-05-1.26247E-06
 -1      1001 5.21513E-05 7.17802E-05-1.24062E-06
 -1      1003 4.56925E-05 7.45634E-05-1.26247E-06
 -1      1004 4.02804E-05 7.90547E-05-1.24062E-06
 -1      1006 3.34657E-05 8.07932E-05-1.26247E-06
 -1      1007 2.74176E-05 8.43826E-05-1.24062E-06
 -1      1009 2.04148E-05 8.50337E-05-1.26247E-06
 -1      1010 1.38797E-05 8.76328E-05-1.24062E-06
 -1      1012 6.86125E-06 8.71804E-05-1.26247E-06
 -1      1014 8.44702E-05 6.64795E-06-1.26219E-06
 -1      1015 8.48110E-05 1.34328E-05-1.24130E-06
 -1      1017 8.23903E-05 1.97802E-05-1.26219E-06
 -1      1018 8.16655E-05 2.65347E-05-1.24130E-06
 -1      1020 7.82816E-05 3.24253E-05-1.26219E-06
 -1      1021 7.65091E-05 3.89834E-05-1.24130E-06
 -1      1023 7.22454E-05 4.42720E-05-1.26219E-06
 -1      1024 6.94689E-05 5.04721E-05-1.24130E-06
 -1      1026 6.44303E-05 5.50287E-05-1.26219E-06
 -1      1027 6.07180E-05 6.07180E-05-1.24130E-06
 -1      1029 5.50287E-05 6.44303E-05-1.26219E-06
 -1      1030 5.04721E-05 6.94689E-05-1.24130E-06
 -1      1032 4.42720E-05 7.22454E-05-1.26219E-06
 -1      1033 3.89834E-05 7.65092E-05-1.24130E-06
 -1      1035 3.24253E-05 7.82816E-05-1.26219E-06
 -1      1036 2.65347E-05 8.16655E-05-1.24130E-06
 -1      1038 1.97802E-05 8.23903E-05-1.26219E-06
 -1      1039 1.34328E-05 8.48110E-05-1.24130E-06
 -1      1041 6.64795E-06 8.44702E-05-1.26219E-06
 -1      1043 8.20319E-05 6.45605E-06-1.26192E-06
 -1      1044 8.22761E-05 1.30313E-05-1.24193E-06
 -1      1046 8.00120E-05 1.92092E-05-1.26192E-06
 -1      1047 7.92247E-05 2.57417E-05-1.24193E-06
 -1      1049 7.60219E-05 3.14893E-05-1.26192E-06
 -1      1050 7.42224E-05 3.78182E-05-1.24193E-06
 -1      1052 7.01600E-05 4.29941E-05-1.26192E-06
 -1      1053 6.73925E-05 4.89635E-05-1.24193E-06
 -1      1055 6.25704E-05 5.34402E-05-1.26192E-06
 -1      1056 5.89032E-05 5.89032E-05-1.24193E-06
 -1      1058 5.34402E-05 6.25704E-05-1.26192E-06
 -1      1059 4.89635E-05 6.73925E-05-1.24193E-06
 -1      1061 4.29941E-05 7.01600E-05-1.26192E-06
 -1      1062 3.78182E-05 7.42224E-05-1.24193E-06
 -1      1064 3.14893E-05 7.60219E-05-1.26192E-06
 -1      1065 2.57416E-05 7.92247E-05-1.24193E-06
 -1      1067 1.92092E-05 8.00120E-05-1.26192E-06
 -1      1068 1.30313E-05 8.22761E-05-1.24193E-06
 -1      1070 6.45605E-06 8.20319E-05-1.26192E-06
 -1      1072 7.98328E-05 6.28298E-06-1.26166E-06
 -1      1073 7.99930E-05 1.26696E-05-1.24252E-06
 -1      1075 7.78671E-05 1.86942E-05-1.26166E-06
 -1      1076 7.70262E-05 2.50273E-05-1.24252E-06
 -1      1078 7.39840E-05 3.06452E-05-1.26166E-06
 -1      1079 7.21627E-05 3.67687E-05-1.24252E-06
 -1      1081 6.82792E-05 4.18415E-05-1.26166E-06
 -1      1082 6.55224E-05 4.76048E-05-1.24252E-06
 -1      1084 6.08931E-05 5.20076E-05-1.26166E-06
 -1      1085 5.72686E-05 5.72686E-05-1.24252E-06
 -1      1087 5.20076E-05 6.08931E-05-1.26166E-06
 -1      1088 4.76048E-05 6.55224E-05-1.24252E-06
 -1      1090 4.18415E-05 6.82792E-05-1.26166E-06
 -1      1091 3.67687E-05 7.21627E-05-1.24252E-06
 -1      1093 3.06452E-05 7.39840E-05-1.26166E-06
 -1      1094 2.50273E-05 7.70262E-05-1.24252E-06
 -1      1096 1.86942E-05 7.78671E-05-1.26166E-06
 -1      1097 1.26696E-05 7.99930E-05-1.24252E-06
 -1      1099 6.28298E-06 7.98328E-05-1.26166E-06
 -1      1101 7.78454E-05 6.12656E-06-1.26141E-06
 -1      1102 7.79319E-05 1.23432E-05-1.24307E-06
 -1      1104 7.59286E-05 1.82288E-05-1.26141E-06
 -1      1105 7.50415E-05 2.43825E-05-1.24307E-06
 -1      1107 7.21421E-05 2.98823E-05-1.26141E-06
 -1      1108 7.03034E-05 3.58214E-05-1.24307E-06
 -1      1110 6.65793E-05 4.07999E-05-1.26141E-06
 -1      1111 6.38341E-05 4.63782E-05-1.24307E-06
 -1      1113 5.93771E-05 5.07129E-05-1.26141E-06
 -1      1114 5.57931E-05 5.57931E-05-1.24307E-06
 -1      1116 5.07129E-05 5.93771E-05-1.26141E-06
 -1      1117 4.63782E-05 6.38341E-05-1.24307E-06
 -1      1119 4.07999E-05 6.65793E-05-1.26141E-06
 -1      1120 3.58214E-05 7.03034E-05-1.24307E-06
 -1      1122 2.98823E-05 7.21421E-05-1.26141E-06
 -1      1123 2.43825E-05 7.50415E-05-1.24307E-06
 -1      1125 1.82288E-05 7.59286E-05-1.26141E-06
 -1      1126 1.23432E-05 7.79319E-05-1.24307E-06
 -1      1128 6.12656E-06 7.78454E-05-1.26141E-06
 -1      1130 7.60460E-05 5.98495E-06-1.26118E-06
 -1      1131 7.60678E-05 1.20480E-05-1.24359E-06
 -1      1133 7.41735E-05 1.78075E-05-1.26118E-06
 -1      1134 7.32466E-05 2.37992E-05-1.24359E-06
 -1      1136 7.04746E-05 2.91915E-05-1.26118E-06
 -1      1137 6.86217E-05 3.49645E-05-1.24359E-06
 -1      1139 6.50404E-05 3.98568E-05-1.26118E-06
 -1      1140 6.23072E-05 4.52689E-05-1.24359E-06
 -1      1142 5.80047E-05 4.95407E-05-1.26118E-06
 -1      1143 5.44585E-05 5.44585E-05-1.24359E-06
 -1      1145 4.95407E-05 5.80047E-05-1.26118E-06
 -1      1146 4.52689E-05 6.23072E-05-1.24359E-06
 -1      1148 3.98568E-05 6.50404E-05-1.26118E-06
 -1      1149 3.49645E-05 6.86217E-05-1.24359E-06
 -1      1151 2.91915E-05 7.04746E-05-1.26118E-06
 -1      1152 2.37992E-05 7.32466E-05-1.24359E-06
 -1      1154 1.78075E-05 7.41735E-05-1.26118E-06
 -1      1155 1.20480E-05 7.60678E-05-1.24359E-06
 -1      1157 5.98495E-06 7.60460E-05-1.26118E-06
 -1      1159 7.44147E-05 5.85656E-06-1.26096E-06
 -1      1160 7.43792E-05 1.17805E-05-1.24408E-06
 -1      1162 7.25823E-05 1.74255E-05-1.26096E-06
 -1      1163 7.16206E-05 2.32709E-05-1.24408E-06
 -1      1165 6.89628E-05 2.85653E-05-1.26096E-06
 -1      1166 6.70984E-05 3.41883E-05-1.24408E-06
 -1      1168 6.36451E-05 3.90018E-05-1.26096E-06
 -1      1169 6.09241E-05 4.42639E-05-1.24408E-06
 -1      1171 5.67603E-05 4.84779E-05-1.26096E-06
 -1      1172 5.32496E-05 5.32496E-05-1.24408E-06
 -1      1174 4.84779E-05 5.67603E-05-1.26096E-06
 -1      1175 4.42639E-05 6.09241E-05-1.24408E-06
 -1      1177 3.90018E-05 6.36451E-05-1.26096E-06
 -1      1178 3.41883E-05 6.70984E-05-1.24408E-06
 -1      1180 2.85653E-05 6.89628E-05-1.26096E-06
 -1      1181 2.32709E-05 7.16206E-05-1.24408E-06
 -1      1183 1.74255E-05 7.25823E-05-1.26096E-06
 -1      1184 1.17805E-05 7.43792E-05-1.24408E-06
 -1      1186 5.85656E-06 7.44147E-05-1.26096E-06
 -1      1188 7.29339E-05 5.74002E-06-1.26075E-06
 -1      1189 7.28475E-05 1.15379E-05-1.24454E-06
 -1      1191 7.11380E-05 1.70787E-05-1.26075E-06
 -1      1192 7.01457E-05 2.27917E-05-1.24454E-06
 -1      1194 6.75905E-05 2.79969E-05-1.26075E-06
 -1      1195 6.57167E-05 3.34843E-05-1.24454E-06
 -1      1197 6.23787E-05 3.82257E-05-1.26075E-06
 -1      1198 5.96695E-05 4.33525E-05-1.24454E-06
 -1      1200 5.56309E-05 4.75132E-05-1.26075E-06
 -1      1201 5.21531E-05 5.21531E-05-1.24454E-06
 -1      1203 4.75132E-05 5.56309E-05-1.26075E-06
 -1      1204 4.33525E-05 5.96695E-05-1.24454E-06
 -1      1206 3.82257E-05 6.23787E-05-1.26075E-06
 -1      1207 3.34843E-05 6.57167E-05-1.24454E-06
 -1      1209 2.79969E-05 6.75905E-05-1.26075E-06
 -1      1210 2.27917E-05 7.01457E-05-1.24454E-06
 -1      1212 1.70787E-05 7.11380E-05-1.26075E-06
 -1      1213 1.15379E-05 7.28475E-05-1.24454E-06
 -1      1215 5.74002E-06 7.29339E-05-1.26075E-06
 -1      1217 7.15886E-05 5.63415E-06-1.26055E-06
 -1      1218 7.14570E-05 1.13177E-05-1.24497E-06
 -1      1220 6.98259E-05 1.67637E-05-1.26055E-06
 -1      1221 6.88067E-05 2.23567E-05-1.24497E-06
 -1      1223 6.63438E-05 2.74805E-05-1.26055E-06
 -1      1224 6.44623E-05 3.28452E-05-1.24497E-06
 -1      1226 6.12281E-05 3.75206E-05-1.26055E-06
 -1      1227 5.85305E-05 4.25249E-05-1.24497E-06
 -1      1229 5.46048E-05 4.66369E-05-1.26055E-06
 -1      1230 5.11575E-05 5.11575E-05-1.24497E-06
 -1      1232 4.66369E-05 5.46048E-05-1.26055E-06
 -1      1233 4.25249E-05 5.85305E-05-1.24497E-06
 -1      1235 3.75206E-05 6.12281E-05-1.26055E-06
 -1      1236 3.28452E-05 6.44623E-05-1.24497E-06
 -1      1238 2.74805E-05 6.63438E-05-1.26055E-06
 -1      1239 2.23567E-05 6.88067E-05-1.24497E-06
 -1      1241 1.67637E-05 6.98259E-05-1.26055E-06
 -1      1242 1.13177E-05 7.14570E-05-1.24497E-06
 -1      1244 5.63415E-06 7.15886E-05-1.26055E-06
 -1      1246 7.03658E-05 5.53791E-06-1.26037E-06
 -1      1247 7.01935E-05 1.11176E-05-1.24538E-06
 -1      1249 6.86332E-05 1.64774E-05-1.26037E-06
 -1      1250 6.75902E-05 2.19614E-05-1.24538E-06
 -1      1252 6.52105E-05 2.70111E-05-1.26037E-06
 -1      1253 6.33225E-05 3.22644E-05-1.24538E-06
 -1      1255 6.01822E-05 3.68797E-05-1.26037E-06
 -1      1256 5.74956E-05 4.17730E-05-1.24538E-06
 -1      1258 5.36720E-05 4.58402E-05-1.26037E-06
 -1      1259 5.02530E-05 5.02530E-05-1.24538E-06
 -1      1261 4.58402E-05 5.36720E-05-1.26037E-06
 -1      1262 4.17730E-05 5.74956E-05-1.24538E-06
 -1      1264 3.68797E-05 6.01822E-05-1.26037E-06
 -1      1265 3.22644E-05 6.33225E-05-1.24538E-06
 -1      1267 2.70111E-05 6.52105E-05-1.26037E-06
 -1      1268 2.19614E-05 6.75902E-05-1.24538E-06
 -1      1270 1.64774E-05 6.86332E-05-1.26037E-06
 -1      1271 1.11176E-05 7.01935E-05-1.24538E-06
 -1      1273 5.53791E-06 7.03658E-05-1.26037E-06
 -1      1275 6.92539E-05 5.45040E-06-1.26018E-06
 -1      1276 6.90452E-05 1.09357E-05-1.24577E-06
 -1      1278 6.75486E-05 1.62170E-05-1.26018E-06
 -1      1279 6.64844E-05 2.16021E-05-1.24577E-06
 -1      1281 6.41801E-05 2.65843E-05-1.26018E-06
 -1      1282 6.22865E-05 3.17366E-05-1.24577E-06
 -1      1284 5.92312E-05 3.62970E-05-1.26018E-06
 -1      1285 5.65550E-05 4.10896E-05-1.24577E-06
 -1      1287 5.28239E-05 4.51159E-05-1.26018E-06
 -1      1288 4.94309E-05 4.94309E-05-1.24577E-06
 -1      1290 4.51159E-05 5.28239E-05-1.26018E-06
 -1      1291 4.10896E-05 5.65550E-05-1.24577E-06
 -1      1293 3.62970E-05 5.92312E-05-1.26018E-06
 -1      1294 3.17366E-05 6.22865E-05-1.24577E-06
 -1      1296 2.65843E-05 6.41801E-05-1.26018E-06
 -1      1297 2.16021E-05 6.64844E-05-1.24577E-06
 -1      1299 1.62170E-05 6.75486E-05-1.26018E-06
 -1      1300 1.09357E-05 6.90452E-05-1.24577E-06
 -1      1302 5.45040E-06 6.92539E-05-1.26018E-06
 -1      1304 6.82429E-05 5.37083E-06-1.26001E-06
 -1      1305 6.80012E-05 1.07703E-05-1.24614E-06
 -1      1307 6.65625E-05 1.59802E-05-1.26001E-06
 -1      1308 6.54792E-05 2.12755E-05-1.24614E-06
 -1      1310 6.32431E-05 2.61962E-05-1.26001E-06
 -1      1311 6.13448E-05 3.12567E-05-1.24614E-06
 -1      1313 5.83665E-05 3.57671E-05-1.26001E-06
 -1      1314 5.56999E-05 4.04683E-05-1.24614E-06
 -1      1316 5.20527E-05 4.44572E-05-1.26001E-06
 -1      1317 4.86835E-05 4.86835E-05-1.24614E-06
 -1      1319 4.44572E-05 5.20527E-05-1.26001E-06
 -1      1320 4.04683E-05 5.56999E-05-1.24614E-06
 -1      1322 3.57671E-05 5.83665E-05-1.26001E-06
 -1      1323 3.12567E-05 6.13448E-05-1.24614E-06
 -1      1325 2.61962E-05 6.32431E-05-1.26001E-06
 -1      1326 2.12755E-05 6.54792E-05-1.24614E-06
 -1      1328 1.59802E-05 6.65625E-05-1.26001E-06
 -1      1329 1.07703E-05 6.80012E-05-1.24614E-06
 -1      1331 5.37083E-06 6.82429E-05-1.26001E-06
 -1      1333 6.73238E-05 5.29850E-06-1.25983E-06
 -1      1334 6.70523E-05 1.06200E-05-1.24651E-06
 -1      1336 6.56661E-05 1.57650E-05-1.25983E-06
 -1      1337 6.45655E-05 2.09786E-05-1.24651E-06
 -1      1339 6.23914E-05 2.58434E-05-1.25983E-06
 -1      1340 6.04888E-05 3.08206E-05-1.24651E-06
 -1      1342 5.75805E-05 3.52854E-05-1.25983E-06
 -1      1343 5.49227E-05 3.99036E-05-1.24651E-06
 -1      1345 5.13517E-05 4.38585E-05-1.25983E-06
 -1      1346 4.80042E-05 4.80042E-05-1.24651E-06
 -1      1348 4.38585E-05 5.13517E-05-1.25983E-06
 -1      1349 3.99036E-05 5.49227E-05-1.24651E-06
 -1      1351 3.52854E-05 5.75805E-05-1.25983E-06
 -1      1352 3.08206E-05 6.04888E-05-1.24651E-06
 -1      1354 2.58434E-05 6.23914E-05-1.25983E-06
 -1      1355 2.09786E-05 6.45655E-05-1.24651E-06
 -1      1357 1.57650E-05 6.56661E-05-1.25983E-06
 -1      1358 1.06200E-05 6.70523E-05-1.24651E-06
 -1      1360 5.29850E-06 6.73238E-05-1.25983E-06
 -1      1362 6.64889E-05 5.23279E-06-1.25964E-06
 -1      1363 6.61902E-05 1.04835E-05-1.24688E-06
 -1      1365 6.48517E-05 1.55695E-05-1.25964E-06
 -1      1366 6.37353E-05 2.07088E-05-1.24688E-06
 -1      1368 6.16176E-05 2.55229E-05-1.25964E-06
 -1      1369 5.97110E-05 3.04243E-05-1.24688E-06
 -1      1371 5.68664E-05 3.48478E-05-1.25964E-06
 -1      1372 5.42165E-05 3.93906E-05-1.24688E-06
 -1      1374 5.07149E-05 4.33146E-05-1.25964E-06
 -1      1375 4.73869E-05 4.73869E-05-1.24688E-06
 -1      1377 4.33146E-05 5.07149E-05-1.25964E-06
 -1      1378 3.93906E-05 5.42165E-05-1.24688E-06
 -1      1380 3.48478E-05 5.68664E-05-1.25964E-06
 -1      1381 3.04243E-05 5.97110E-05-1.24688E-06
 -1      1383 2.55229E-05 6.16176E-05-1.25964E-06
 -1      1384 2.07088E-05 6.37353E-05-1.24688E-06
 -1      1386 1.55695E-05 6.48517E-05-1.25964E-06
 -1      1387 1.04835E-05 6.61902E-05-1.24688E-06
 -1      1389 5.23279E-06 6.64889E-05-1.25964E-06
 -1      1391 6.57311E-05 5.17315E-06-1.25943E-06
 -1      1392 6.54073E-05 1.03595E-05-1.24730E-06
 -1      1394 6.41126E-05 1.53921E-05-1.25943E-06
 -1      1395 6.29815E-05 2.04639E-05-1.24730E-06
 -1      1397 6.09154E-05 2.52320E-05-1.25943E-06
 -1      1398 5.90048E-05 3.00644E-05-1.24730E-06
 -1      1400 5.62183E-05 3.44506E-05-1.25943E-06
 -1      1401 5.35752E-05 3.89247E-05-1.24730E-06
 -1      1403 5.01369E-05 4.28209E-05-1.25943E-06
 -1      1404 4.68265E-05 4.68265E-05-1.24730E-06
 -1      1406 4.28209E-05 5.01369E-05-1.25943E-06
 -1      1407 3.89247E-05 5.35752E-05-1.24730E-06
 -1      1409 3.44506E-05 5.62183E-05-1.25943E-06
 -1      1410 3.00644E-05 5.90048E-05-1.24730E-06
 -1      1412 2.52320E-05 6.09154E-05-1.25943E-06
 -1      1413 2.04639E-05 6.29815E-05-1.24730E-06
 -1      1415 1.53921E-05 6.41126E-05-1.25943E-06
 -1      1416 1.03595E-05 6.54073E-05-1.24730E-06
 -1      1418 5.17315E-06 6.57311E-05-1.25943E-06
 -1      1420 6.50444E-05 5.11910E-06-1.25913E-06
 -1      1421 6.46971E-05 1.02470E-05-1.24782E-06
 -1      1423 6.34427E-05 1.52313E-05-1.25913E-06
 -1      1424 6.22975E-05 2.02417E-05-1.24782E-06
 -1      1426 6.02790E-05 2.49684E-05-1.25913E-06
 -1      1427 5.83641E-05 2.97380E-05-1.24782E-06
 -1      1429 5.56309E-05 3.40907E-05-1.25913E-06
 -1      1430 5.29935E-05 3.85020E-05-1.24782E-06
 -1      1432 4.96131E-05 4.23736E-05-1.25913E-06
 -1      1433 4.63180E-05 4.63180E-05-1.24782E-06
 -1      1435 4.23736E-05 4.96131E-05-1.25913E-06
 -1      1436 3.85020E-05 5.29935E-05-1.24782E-06
 -1      1438 3.40907E-05 5.56309E-05-1.25913E-06
 -1      1439 2.97380E-05 5.83641E-05-1.24782E-06
 -1      1441 2.49684E-05 6.02790E-05-1.25913E-06
 -1      1442 2.02417E-05 6.22975E-05-1.24782E-06
 -1      1444 1.52313E-05 6.34427E-05-1.25913E-06
 -1      1445 1.02470E-05 6.46971E-05-1.24782E-06
 -1      1447 5.11910E-06 6.50444E-05-1.25913E-06
 -1      1449 6.44233E-05 5.07023E-06-1.25867E-06
 -1      1450 6.40532E-05 1.01450E-05-1.24861E-06
 -1      1452 6.28370E-05 1.50858E-05-1.25867E-06
 -1      1453 6.16776E-05 2.00403E-05-1.24861E-06
 -1      1455 5.97035E-05 2.47300E-05-1.25867E-06
 -1      1456 5.77832E-05 2.94420E-05-1.24861E-06
 -1      1458 5.50998E-05 3.37652E-05-1.25867E-06
 -1      1459 5.24661E-05 3.81188E-05-1.24861E-06
 -1      1461 4.91394E-05 4.19690E-05-1.25867E-06
 -1      1462 4.58570E-05 4.58570E-05-1.24861E-06
 -1      1464 4.19690E-05 4.91394E-05-1.25867E-06
 -1      1465 3.81188E-05 5.24661E-05-1.24861E-06
 -1      1467 3.37652E-05 5.50998E-05-1.25867E-06
 -1      1468 2.94420E-05 5.77832E-05-1.24861E-06
 -1      1470 2.47300E-05 5.97035E-05-1.25867E-06
 -1      1471 2.00403E-05 6.16776E-05-1.24861E-06
 -1      1473 1.50858E-05 6.28370E-05-1.25867E-06
 -1      1474 1.01450E-05 6.40532E-05-1.24861E-06
 -1      1476 5.07023E-06 6.44233E-05-1.25867E-06
 -1      1478 6.38634E-05 5.02616E-06-1.25772E-06
 -1      1479 6.34698E-05 1.00526E-05-1.25007E-06
 -1      1481 6.22909E-05 1.49547E-05-1.25772E-06
 -1      1482 6.11158E-05 1.98577E-05-1.25007E-06
 -1      1484 5.91845E-05 2.45150E-05-1.25772E-06
 -1      1485 5.72570E-05 2.91739E-05-1.25007E-06
 -1      1487 5.46209E-05 3.34717E-05-1.25772E-06
 -1      1488 5.19882E-05 3.77717E-05-1.25007E-06
 -1      1490 4.87123E-05 4.16042E-05-1.25772E-06
 -1      1491 4.54394E-05 4.54394E-05-1.25007E-06
 -1      1493 4.16042E-05 4.87123E-05-1.25772E-06
 -1      1494 3.77717E-05 5.19882E-05-1.25007E-06
 -1      1496 3.34717E-05 5.46209E-05-1.25772E-06
 -1      1497 2.91739E-05 5.72570E-05-1.25007E-06
 -1      1499 2.45150E-05 5.91845E-05-1.25772E-06
 -1      1500 1.98577E-05 6.11158E-05-1.25007E-06
 -1      1502 1.49547E-05 6.22909E-05-1.25772E-06
 -1      1503 1.00526E-05 6.34698E-05-1.25007E-06
 -1      1505 5.02616E-06 6.38634E-05-1.25772E-06
 -1      1507 6.29424E-05 9.96910E-06-1.25243E-06
 -1      1509 6.06080E-05 1.96927E-05-1.25243E-06
 -1      1511 5.67812E-05 2.89315E-05-1.25243E-06
 -1      1513 5.15562E-05 3.74578E-05-1.25243E-06
 -1      1515 4.50618E-05 4.50618E-05-1.25243E-06
 -1      1517 3.74578E-05 5.15562E-05-1.25243E-06
 -1      1519 2.89315E-05 5.67812E-05-1.25243E-06
 -1      1521 1.96927E-05 6.06080E-05-1.25243E-06
 -1      1523 9.96910E-06 6.29424E-05-1.25243E-06
 -1      1526 1.56186E-04 0.00000E+00-1.41907E-06
 -1      1527 1.56187E-04 0.00000E+00-1.59865E-06
 -1      1528 1.56187E-04 0.00000E+00-1.77385E-06
 -1      1529 1.56188E-04 0.00000E+00-1.94772E-06
 -1      1530 1.56188E-04 0.00000E+00-2.12118E-06
 -1      1531 1.56188E-04 0.00000E+00-2.29455E-06
 -1      1532 1.56188E-04 0.00000E+00-2.46800E-06
 -1      1533 1.56187E-04 0.00000E+00-2.64188E-06
 -1      1534 1.56187E-04 0.00000E+00-2.81708E-06
 -1      1535 1.56186E-04 0.00000E+00-2.99666E-06
 -1      1536 1.44232E-04 0.00000E+00-1.41614E-06
 -1      1537 1.44232E-04 0.00000E+00-1.59669E-06
 -1      1538 1.44232E-04 0.00000E+00-1.77289E-06
 -1      1539 1.44232E-04 0.00000E+00-1.94734E-06
 -1      1540 1.44233E-04 0.00000E+00-2.12108E-06
 -1      1541 1.44233E-04 0.00000E+00-2.29464E-06
 -1      1542 1.44232E-04 0.00000E+00-2.46839E-06
 -1      1543 1.44232E-04 0.00000E+00-2.64283E-06
 -1      1544 1.44232E-04 0.00000E+00-2.81904E-06
 -1      1545 1.44232E-04 0.00000E+00-2.99958E-06
 -1      1546 1.34206E-04 0.00000E+00-1.41657E-06
 -1      1547 1.34206E-04 0.00000E+00-1.59632E-06
 -1      1548 1.34206E-04 0.00000E+00-1.77249E-06
 -1      1549 1.34206E-04 0.00000E+00-1.94708E-06
 -1      1550 1.34206E-04 0.00000E+00-2.12100E-06
 -1      1551 1.34206E-04 0.00000E+00-2.29473E-06
 -1      1552 1.34206E-04 0.00000E+00-2.46864E-06
 -1      1553 1.34206E-04 0.00000E+00-2.64323E-06
 -1      1554 1.34206E-04 0.00000E+00-2.81941E-06
 -1      1555 1.34206E-04 0.00000E+00-2.99916E-06
 -1      1556 1.25691E-04 0.00000E+00-1.41681E-06
 -1      1557 1.25691E-04 0.00000E+00-1.59608E-06
 -1      1558 1.25691E-04 0.00000E+00-1.77221E-06
 -1      1559 1.25691E-04 0.00000E+00-1.94689E-06
 -1      1560 1.25691E-04 0.00000E+00-2.12093E-06
 -1      1561 1.25691E-04 0.00000E+00-2.29479E-06
 -1      1562 1.25691E-04 0.00000E+00-2.46883E-06
 -1      1563 1.25691E-04 0.00000E+00-2.64351E-06
 -1      1564 1.25691E-04 0.00000E+00-2.81965E-06
 -1      1565 1.25691E-04 0.00000E+00-2.99892E-06
 -1      1566 1.18385E-04 0.00000E+00-1.41710E-06
 -1      1567 1.18385E-04 0.00000E+00-1.59593E-06
 -1      1568 1.18385E-04 0.00000E+00-1.77201E-06
 -1      1569 1.18386E-04 0.00000E+00-1.94675E-06
 -1      1570 1.18386E-04 0.00000E+00-2.12089E-06
 -1      1571 1.18386E-04 0.00000E+00-2.29484E-06
 -1      1572 1.18386E-04 0.00000E+00-2.46897E-06
 -1      1573 1.18385E-04 0.00000E+00-2.64372E-06
 -1      1574 1.18385E-04 0.00000E+00-2.81980E-06
 -1      1575 1.18385E-04 0.00000E+00-2.99863E-06
 -1      1576 1.12063E-04 0.00000E+00-1.41741E-06
 -1      1577 1.12063E-04 0.00000E+00-1.59583E-06
 -1      1578 1.12063E-04 0.00000E+00-1.77184E-06
 -1      1579 1.12063E-04 0.00000E+00-1.94663E-06
 -1      1580 1.12063E-04 0.00000E+00-2.12084E-06
 -1      1581 1.12063E-04 0.00000E+00-2.29488E-06
 -1      1582 1.12063E-04 0.00000E+00-2.46909E-06
 -1      1583 1.12063E-04 0.00000E+00-2.64388E-06
 -1      1584 1.12063E-04 0.00000E+00-2.81989E-06
 -1      1585 1.12063E-04 0.00000E+00-2.99832E-06
 -1      1586 1.06549E-04 0.00000E+00-1.41772E-06
 -1      1587 1.06549E-04 0.00000E+00-1.59578E-06
 -1      1588 1.06549E-04 0.00000E+00-1.77172E-06
 -1      1589 1.06549E-04 0.00000E+00-1.94653E-06
 -1      1590 1.06549E-04 0.00000E+00-2.12081E-06
 -1      1591 1.06549E-04 0.00000E+00-2.29492E-06
 -1      1592 1.06549E-04 0.00000E+00-2.46919E-06
 -1      1593 1.06549E-04 0.00000E+00-2.64401E-06
 -1      1594 1.06549E-04 0.00000E+00-2.81994E-06
 -1      1595 1.06549E-04 0.00000E+00-2.99800E-06
 -1      1596 1.01710E-04 0.00000E+00-1.41803E-06
 -1      1597 1.01710E-04 0.00000E+00-1.59577E-06
 -1      1598 1.01710E-04 0.00000E+00-1.77162E-06
 -1      1599 1.01710E-04 0.00000E+00-1.94645E-06
 -1      1600 1.01710E-04 0.00000E+00-2.12078E-06
 -1      1601 1.01710E-04 0.00000E+00-2.29495E-06
 -1      1602 1.01710E-04 0.00000E+00-2.46928E-06
 -1      1603 1.01710E-04 0.00000E+00-2.64411E-06
 -1      1604 1.01710E-04 0.00000E+00-2.81996E-06
 -1      1605 1.01710E-04 0.00000E+00-2.99769E-06
 -1      1606 9.74388E-05 0.00000E+00-1.41834E-06
 -1      1607 9.74387E-05 0.00000E+00-1.59578E-06
 -1      1608 9.74387E-05 0.00000E+00-1.77154E-06
 -1      1609 9.74387E-05 0.00000E+00-1.94638E-06
 -1      1610 9.74387E-05 0.00000E+00-2.12075E-06
 -1      1611 9.74387E-05 0.00000E+00-2.29498E-06
 -1      1612 9.74387E-05 0.00000E+00-2.46934E-06
 -1      1613 9.74387E-05 0.00000E+00-2.64418E-06
 -1      1614 9.74387E-05 0.00000E+00-2.81995E-06
 -1      1615 9.74388E-05 0.00000E+00-2.99739E-06
 -1      1616 9.36502E-05 0.00000E+00-1.41864E-06
 -1      1617 9.36501E-05 0.00000E+00-1.59581E-06
 -1      1618 9.36501E-05 0.00000E+00-1.77149E-06
 -1      1619 9.36501E-05 0.00000E+00-1.94633E-06
 -1      1620 9.36501E-05 0.00000E+00-2.12073E-06
 -1      1621 9.36501E-05 0.00000E+00-2.29500E-06
 -1      1622 9.36501E-05 0.00000E+00-2.46940E-06
 -1      1623 9.36501E-05 0.00000E+00-2.64423E-06
 -1      1624 9.36501E-05 0.00000E+00-2.81991E-06
 -1      1625 9.36502E-05 0.00000E+00-2.99708E-06
 -1      1626 9.02753E-05 0.00000E+00-1.41894E-06
 -1      1627 9.02752E-05 0.00000E+00-1.59587E-06
 -1      1628 9.02752E-05 0.00000E+00-1.77146E-06
 -1      1629 9.02752E-05 0.00000E+00-1.94629E-06
 -1      1630 9.02752E-05 0.00000E+00-2.12071E-06
 -1      1631 9.02752E-05 0.00000E+00-2.29501E-06
 -1      1632 9.02752E-05 0.00000E+00-2.46944E-06
 -1      1633 9.02752E-05 0.00000E+00-2.64427E-06
 -1      1634 9.02752E-05 0.00000E+00-2.81986E-06
 -1      1635 9.02753E-05 0.00000E+00-2.99679E-06
 -1      1636 8.72578E-05 0.00000E+00-1.41923E-06
 -1      1637 8.72576E-05 0.00000E+00-1.59594E-06
 -1      1638 8.72576E-05 0.00000E+00-1.77145E-06
 -1      1639 8.72576E-05 0.00000E+00-1.94626E-06
 -1      1640 8.72576E-05 0.00000E+00-2.12070E-06
 -1      1641 8.72576E-05 0.00000E+00-2.29503E-06
 -1      1642 8.72576E-05 0.00000E+00-2.46947E-06
 -1      1643 8.72576E-05 0.00000E+00-2.64428E-06
 -1      1644 8.72576E-05 0.00000E+00-2.81979E-06
 -1      1645 8.72578E-05 0.00000E+00-2.99649E-06
 -1      1646 8.45509E-05 0.00000E+00-1.41952E-06
 -1      1647 8.45508E-05 0.00000E+00-1.59602E-06
 -1      1648 8.45508E-05 0.00000E+00-1.77145E-06
 -1      1649 8.45508E-05 0.00000E+00-1.94624E-06
 -1      1650 8.45508E-05 0.00000E+00-2.12069E-06
 -1      1651 8.45508E-05 0.00000E+00-2.29504E-06
 -1      1652 8.45508E-05 0.00000E+00-2.46949E-06
 -1      1653 8.45508E-05 0.00000E+00-2.64428E-06
 -1      1654 8.45508E-05 0.00000E+00-2.81971E-06
 -1      1655 8.45509E-05 0.00000E+00-2.99621E-06
 -1      1656 8.21159E-05 0.00000E+00-1.41980E-06
 -1      1657 8.21158E-05 0.00000E+00-1.59611E-06
 -1      1658 8.21158E-05 0.00000E+00-1.77146E-06
 -1      1659 8.21158E-05 0.00000E+00-1.94623E-06
 -1      1660 8.21158E-05 0.00000E+00-2.12068E-06
 -1      1661 8.21158E-05 0.00000E+00-2.29504E-06
 -1      1662 8.21158E-05 0.00000E+00-2.46950E-06
 -1      1663 8.21158E-05 0.00000E+00-2.64427E-06
 -1      1664 8.21158E-05 0.00000E+00-2.81962E-06
 -1      1665 8.21159E-05 0.00000E+00-2.99593E-06
 -1      1666 7.99201E-05 0.00000E+00-1.42007E-06
 -1      1667 7.99200E-05 0.00000E+00-1.59621E-06
 -1      1668 7.99200E-05 0.00000E+00-1.77148E-06
 -1      1669 7.99200E-05 0.00000E+00-1.94623E-06
 -1      1670 7.99200E-05 0.00000E+00-2.12068E-06
 -1      1671 7.99200E-05 0.00000E+00-2.29504E-06
 -1      1672 7.99200E-05 0.00000E+00-2.46950E-06
 -1      1673 7.99200E-05 0.00000E+00-2.64424E-06
 -1      1674 7.99200E-05 0.00000E+00-2.81952E-06
 -1      1675 7.99201E-05 0.00000E+00-2.99566E-06
 -1      1676 7.79360E-05 0.00000E+00-1.42033E-06
 -1      1677 7.79359E-05 0.00000E+00-1.59632E-06
 -1      1678 7.79359E-05 0.00000E+00-1.77152E-06
 -1      1679 7.79359E-05 0.00000E+00-1.94623E-06
 -1      1680 7.79359E-05 0.00000E+00-2.12068E-06
 -1      1681 7.79359E-05 0.00000E+00-2.29505E-06
 -1      1682 7.79359E-05 0.00000E+00-2.46950E-06
 -1      1683 7.79359E-05 0.00000E+00-2.64421E-06
 -1      1684 7.79359E-05 0.00000E+00-2.81941E-06
 -1      1685 7.79360E-05 0.00000E+00-2.99539E-06
 -1      1686 7.61401E-05 0.00000E+00-1.42059E-06
 -1      1687 7.61400E-05 0.00000E+00-1.59643E-06
 -1      1688 7.61399E-05 0.00000E+00-1.77156E-06
 -1      1689 7.61399E-05 0.00000E+00-1.94624E-06
 -1      1690 7.61399E-05 0.00000E+00-2.12068E-06
 -1      1691 7.61399E-05 0.00000E+00-2.29504E-06
 -1      1692 7.61399E-05 0.00000E+00-2.46949E-06
 -1      1693 7.61399E-05 0.00000E+00-2.64417E-06
 -1      1694 7.61400E-05 0.00000E+00-2.81930E-06
 -1      1695 7.61401E-05 0.00000E+00-2.99514E-06
 -1      1696 7.45120E-05 0.00000E+00-1.42084E-06
 -1      1697 7.45119E-05 0.00000E+00-1.59654E-06
 -1      1698 7.45119E-05 0.00000E+00-1.77160E-06
 -1      1699 7.45119E-05 0.00000E+00-1.94626E-06
 -1      1700 7.45119E-05 0.00000E+00-2.12068E-06
 -1      1701 7.45119E-05 0.00000E+00-2.29504E-06
 -1      1702 7.45119E-05 0.00000E+00-2.46947E-06
 -1      1703 7.45119E-05 0.00000E+00-2.64412E-06
 -1      1704 7.45119E-05 0.00000E+00-2.81918E-06
 -1      1705 7.45120E-05 0.00000E+00-2.99489E-06
 -1      1706 7.30346E-05 0.00000E+00-1.42108E-06
 -1      1707 7.30345E-05 0.00000E+00-1.59666E-06
 -1      1708 7.30345E-05 0.00000E+00-1.77165E-06
 -1      1709 7.30344E-05 0.00000E+00-1.94628E-06
 -1      1710 7.30344E-05 0.00000E+00-2.12069E-06
 -1      1711 7.30344E-05 0.00000E+00-2.29504E-06
 -1      1712 7.30344E-05 0.00000E+00-2.46945E-06
 -1      1713 7.30345E-05 0.00000E+00-2.64407E-06
 -1      1714 7.30345E-05 0.00000E+00-2.81907E-06
 -1      1715 7.30346E-05 0.00000E+00-2.99464E-06
 -1      1716 7.16927E-05 0.00000E+00-1.42132E-06
 -1      1717 7.16926E-05 0.00000E+00-1.59678E-06
 -1      1718 7.16926E-05 0.00000E+00-1.77171E-06
 -1      1719 7.16925E-05 0.00000E+00-1.94630E-06
 -1      1720 7.16925E-05 0.00000E+00-2.12070E-06
 -1      1721 7.16925E-05 0.00000E+00-2.29503E-06
 -1      1722 7.16925E-05 0.00000E+00-2.46943E-06
 -1      1723 7.16926E-05 0.00000E+00-2.64402E-06
 -1      1724 7.16926E-05 0.00000E+00-2.81895E-06
 -1      1725 7.16927E-05 0.00000E+00-2.99441E-06
 -1      1726 7.04732E-05 0.00000E+00-1.42155E-06
 -1      1727 7.04731E-05 0.00000E+00-1.59690E-06
 -1      1728 7.04731E-05 0.00000E+00-1.77177E-06
 -1      1729 7.04731E-05 0.00000E+00-1.94632E-06
 -1      1730 7.04731E-05 0.00000E+00-2.12070E-06
 -1      1731 7.04731E-05 0.00000E+00-2.29502E-06
 -1      1732 7.04731E-05 0.00000E+00-2.46940E-06
 -1      1733 7.04731E-05 0.00000E+00-2.64396E-06
 -1      1734 7.04731E-05 0.00000E+00-2.81883E-06
 -1      1735 7.04732E-05 0.00000E+00-2.99418E-06
 -1      1736 6.93647E-05 0.00000E+00-1.42177E-06
 -1      1737 6.93646E-05 0.00000E+00-1.59702E-06
 -1      1738 6.93645E-05 0.00000E+00-1.77183E-06
 -1      1739 6.93645E-05 0.00000E+00-1.94635E-06
 -1      1740 6.93645E-05 0.00000E+00-2.12071E-06
 -1      1741 6.93645E-05 0.00000E+00-2.29502E-06
 -1      1742 6.93645E-05 0.00000E+00-2.46937E-06
 -1      1743 6.93645E-05 0.00000E+00-2.64390E-06
 -1      1744 6.93646E-05 0.00000E+00-2.81870E-06
 -1      1745 6.93647E-05 0.00000E+00-2.99396E-06
 -1      1746 6.83569E-05 0.00000E+00-1.42199E-06
 -1      1747 6.83569E-05 0.00000E+00-1.59715E-06
 -1      1748 6.83568E-05 0.00000E+00-1.77190E-06
 -1      1749 6.83568E-05 0.00000E+00-1.94638E-06
 -1      1750 6.83568E-05 0.00000E+00-2.12072E-06
 -1      1751 6.83568E-05 0.00000E+00-2.29501E-06
 -1      1752 6.83568E-05 0.00000E+00-2.46934E-06
 -1      1753 6.83568E-05 0.00000E+00-2.64383E-06
 -1      1754 6.83569E-05 0.00000E+00-2.81858E-06
 -1      1755 6.83569E-05 0.00000E+00-2.99374E-06
 -1      1756 6.74411E-05 0.00000E+00-1.42222E-06
 -1      1757 6.74411E-05 0.00000E+00-1.59728E-06
 -1      1758 6.74410E-05 0.00000E+00-1.77197E-06
 -1      1759 6.74410E-05 0.00000E+00-1.94642E-06
 -1      1760 6.74410E-05 0.00000E+00-2.12073E-06
 -1      1761 6.74410E-05 0.00000E+00-2.29500E-06
 -1      1762 6.74410E-05 0.00000E+00-2.46931E-06
 -1      1763 6.74410E-05 0.00000E+00-2.64376E-06
 -1      1764 6.74411E-05 0.00000E+00-2.81845E-06
 -1      1765 6.74411E-05 0.00000E+00-2.99351E-06
 -1      1766 6.66093E-05 0.00000E+00-1.42246E-06
 -1      1767 6.66093E-05 0.00000E+00-1.59743E-06
 -1      1768 6.66092E-05 0.00000E+00-1.77206E-06
 -1      1769 6.66092E-05 0.00000E+00-1.94646E-06
 -1      1770 6.66092E-05 0.00000E+00-2.12074E-06
 -1      1771 6.66092E-05 0.00000E+00-2.29498E-06
 -1      1772 6.66092E-05 0.00000E+00-2.46926E-06
 -1      1773 6.66092E-05 0.00000E+00-2.64367E-06
 -1      1774 6.66093E-05 0.00000E+00-2.81830E-06
 -1      1775 6.66093E-05 0.00000E+00-2.99327E-06
 -1      1776 6.58543E-05 0.00000E+00-1.42276E-06
 -1      1777 6.58543E-05 0.00000E+00-1.59761E-06
 -1      1778 6.58543E-05 0.00000E+00-1.77217E-06
 -1      1779 6.58543E-05 0.00000E+00-1.94652E-06
 -1      1780 6.58543E-05 0.00000E+00-2.12076E-06
 -1      1781 6.58543E-05 0.00000E+00-2.29496E-06
 -1      1782 6.58543E-05 0.00000E+00-2.46920E-06
 -1      1783 6.58543E-05 0.00000E+00-2.64356E-06
 -1      1784 6.58543E-05 0.00000E+00-2.81811E-06
 -1      1785 6.58543E-05 0.00000E+00-2.99297E-06
 -1      1786 6.51697E-05 0.00000E+00-1.42317E-06
 -1      1787 6.51698E-05 0.00000E+00-1.59789E-06
 -1      1788 6.51698E-05 0.00000E+00-1.77235E-06
 -1      1789 6.51698E-05 0.00000E+00-1.94662E-06
 -1      1790 6.51698E-05 0.00000E+00-2.12080E-06
 -1      1791 6.51698E-05 0.00000E+00-2.29493E-06
 -1      1792 6.51698E-05 0.00000E+00-2.46910E-06
 -1      1793 6.51698E-05 0.00000E+00-2.64338E-06
 -1      1794 6.51698E-05 0.00000E+00-2.81783E-06
 -1      1795 6.51697E-05 0.00000E+00-2.99256E-06
 -1      1796 6.45495E-05 0.00000E+00-1.42389E-06
 -1      1797 6.45496E-05 0.00000E+00-1.59842E-06
 -1      1798 6.45496E-05 0.00000E+00-1.77271E-06
 -1      1799 6.45496E-05 0.00000E+00-1.94684E-06
 -1      1800 6.45496E-05 0.00000E+00-2.12087E-06
 -1      1801 6.45496E-05 0.00000E+00-2.29486E-06
 -1      1802 6.45496E-05 0.00000E+00-2.46889E-06
 -1      1803 6.45496E-05 0.00000E+00-2.64302E-06
 -1      1804 6.45496E-05 0.00000E+00-2.81731E-06
 -1      1805 6.45495E-05 0.00000E+00-2.99184E-06
 -1      1806 6.39877E-05 0.00000E+00-1.42535E-06
 -1      1807 6.39879E-05 0.00000E+00-1.59946E-06
 -1      1808 6.39879E-05 0.00000E+00-1.77340E-06
 -1      1809 6.39878E-05 0.00000E+00-1.94723E-06
 -1      1810 6.39878E-05 0.00000E+00-2.12099E-06
 -1      1811 6.39878E-05 0.00000E+00-2.29473E-06
 -1      1812 6.39878E-05 0.00000E+00-2.46850E-06
 -1      1813 6.39879E-05 0.00000E+00-2.64233E-06
 -1      1814 6.39879E-05 0.00000E+00-2.81627E-06
 -1      1815 6.39877E-05 0.00000E+00-2.99038E-06
 -1      1816 1.56186E-04 0.00000E+00-1.32321E-06
 -1      1817 1.63070E-04 0.00000E+00-1.42334E-06
 -1      1819 1.56186E-04 0.00000E+00-1.50888E-06
 -1      1820 1.63072E-04 0.00000E+00-1.59938E-06
 -1      1822 1.56187E-04 0.00000E+00-1.68623E-06
 -1      1823 1.63073E-04 0.00000E+00-1.77387E-06
 -1      1825 1.56188E-04 0.00000E+00-1.86077E-06
 -1      1826 1.63073E-04 0.00000E+00-1.94765E-06
 -1      1828 1.56188E-04 0.00000E+00-2.03445E-06
 -1      1829 1.63073E-04 0.00000E+00-2.12115E-06
 -1      1831 1.56188E-04 0.00000E+00-2.20786E-06
 -1      1832 1.63073E-04 0.00000E+00-2.29457E-06
 -1      1834 1.56188E-04 0.00000E+00-2.38128E-06
 -1      1835 1.63073E-04 0.00000E+00-2.46807E-06
 -1      1837 1.56188E-04 0.00000E+00-2.55495E-06
 -1      1838 1.63073E-04 0.00000E+00-2.64186E-06
 -1      1840 1.56187E-04 0.00000E+00-2.72950E-06
 -1      1841 1.63072E-04 0.00000E+00-2.81635E-06
 -1      1843 1.56186E-04 0.00000E+00-2.90685E-06
 -1      1844 1.63070E-04 0.00000E+00-2.99238E-06
 -1      1846 1.56186E-04 0.00000E+00-3.09252E-06
 -1      1848 1.44232E-04 0.00000E+00-1.32025E-06
 -1      1849 1.49936E-04 0.00000E+00-1.41883E-06
 -1      1851 1.44232E-04 0.00000E+00-1.50642E-06
 -1      1852 1.49936E-04 0.00000E+00-1.59787E-06
 -1      1854 1.44232E-04 0.00000E+00-1.68480E-06
 -1      1855 1.49937E-04 0.00000E+00-1.77346E-06
 -1      1857 1.44232E-04 0.00000E+00-1.86012E-06
 -1      1858 1.49937E-04 0.00000E+00-1.94758E-06
 -1      1860 1.44232E-04 0.00000E+00-2.03421E-06
 -1      1861 1.49937E-04 0.00000E+00-2.12115E-06
 -1      1863 1.44233E-04 0.00000E+00-2.20786E-06
 -1      1864 1.49937E-04 0.00000E+00-2.29458E-06
 -1      1866 1.44232E-04 0.00000E+00-2.38151E-06
 -1      1867 1.49937E-04 0.00000E+00-2.46815E-06
 -1      1869 1.44232E-04 0.00000E+00-2.55560E-06
 -1      1870 1.49937E-04 0.00000E+00-2.64227E-06
 -1      1872 1.44232E-04 0.00000E+00-2.73092E-06
 -1      1873 1.49936E-04 0.00000E+00-2.81785E-06
 -1      1875 1.44232E-04 0.00000E+00-2.90931E-06
 -1      1876 1.49936E-04 0.00000E+00-2.99690E-06
 -1      1878 1.44232E-04 0.00000E+00-3.09548E-06
 -1      1880 1.34206E-04 0.00000E+00-1.32230E-06
 -1      1881 1.39006E-04 0.00000E+00-1.41720E-06
 -1      1883 1.34206E-04 0.00000E+00-1.50645E-06
 -1      1884 1.39006E-04 0.00000E+00-1.59665E-06
 -1      1886 1.34206E-04 0.00000E+00-1.68441E-06
 -1      1887 1.39006E-04 0.00000E+00-1.77272E-06
 -1      1889 1.34206E-04 0.00000E+00-1.85979E-06
 -1      1890 1.39007E-04 0.00000E+00-1.94721E-06
 -1      1892 1.34206E-04 0.00000E+00-2.03404E-06
 -1      1893 1.39007E-04 0.00000E+00-2.12104E-06
 -1      1895 1.34206E-04 0.00000E+00-2.20786E-06
 -1      1896 1.39007E-04 0.00000E+00-2.29469E-06
 -1      1898 1.34206E-04 0.00000E+00-2.38169E-06
 -1      1899 1.39007E-04 0.00000E+00-2.46851E-06
 -1      1901 1.34206E-04 0.00000E+00-2.55594E-06
 -1      1902 1.39006E-04 0.00000E+00-2.64301E-06
 -1      1904 1.34206E-04 0.00000E+00-2.73132E-06
 -1      1905 1.39006E-04 0.00000E+00-2.81907E-06
 -1      1907 1.34206E-04 0.00000E+00-2.90928E-06
 -1      1908 1.39006E-04 0.00000E+00-2.99853E-06
 -1      1910 1.34206E-04 0.00000E+00-3.09343E-06
 -1      1912 1.25691E-04 0.00000E+00-1.32354E-06
 -1      1913 1.29780E-04 0.00000E+00-1.41731E-06
 -1      1915 1.25691E-04 0.00000E+00-1.50644E-06
 -1      1916 1.29780E-04 0.00000E+00-1.59631E-06
 -1      1918 1.25691E-04 0.00000E+00-1.68415E-06
 -1      1919 1.29780E-04 0.00000E+00-1.77237E-06
 -1      1921 1.25691E-04 0.00000E+00-1.85955E-06
 -1      1922 1.29780E-04 0.00000E+00-1.94699E-06
 -1      1924 1.25691E-04 0.00000E+00-2.03391E-06
 -1      1925 1.29780E-04 0.00000E+00-2.12097E-06
 -1      1927 1.25691E-04 0.00000E+00-2.20786E-06
 -1      1928 1.29780E-04 0.00000E+00-2.29476E-06
 -1      1930 1.25691E-04 0.00000E+00-2.38181E-06
 -1      1931 1.29780E-04 0.00000E+00-2.46874E-06
 -1      1933 1.25691E-04 0.00000E+00-2.55617E-06
 -1      1934 1.29780E-04 0.00000E+00-2.64336E-06
 -1      1936 1.25691E-04 0.00000E+00-2.73158E-06
 -1      1937 1.29780E-04 0.00000E+00-2.81942E-06
 -1      1939 1.25691E-04 0.00000E+00-2.90929E-06
 -1      1940 1.29780E-04 0.00000E+00-2.99842E-06
 -1      1942 1.25691E-04 0.00000E+00-3.09218E-06
 -1      1944 1.18386E-04 0.00000E+00-1.32469E-06
 -1      1945 1.21902E-04 0.00000E+00-1.41743E-06
 -1      1947 1.18385E-04 0.00000E+00-1.50651E-06
 -1      1948 1.21902E-04 0.00000E+00-1.59609E-06
 -1      1950 1.18385E-04 0.00000E+00-1.68397E-06
 -1      1951 1.21902E-04 0.00000E+00-1.77212E-06
 -1      1953 1.18386E-04 0.00000E+00-1.85938E-06
 -1      1954 1.21902E-04 0.00000E+00-1.94682E-06
 -1      1956 1.18386E-04 0.00000E+00-2.03382E-06
 -1      1957 1.21902E-04 0.00000E+00-2.12091E-06
 -1      1959 1.18386E-04 0.00000E+00-2.20786E-06
 -1      1960 1.21902E-04 0.00000E+00-2.29482E-06
 -1      1962 1.18386E-04 0.00000E+00-2.38191E-06
 -1      1963 1.21902E-04 0.00000E+00-2.46890E-06
 -1      1965 1.18386E-04 0.00000E+00-2.55635E-06
 -1      1966 1.21902E-04 0.00000E+00-2.64360E-06
 -1      1968 1.18385E-04 0.00000E+00-2.73176E-06
 -1      1969 1.21902E-04 0.00000E+00-2.81964E-06
 -1      1971 1.18385E-04 0.00000E+00-2.90922E-06
 -1      1972 1.21902E-04 0.00000E+00-2.99830E-06
 -1      1974 1.18386E-04 0.00000E+00-3.09103E-06
 -1      1976 1.12063E-04 0.00000E+00-1.32569E-06
 -1      1977 1.15113E-04 0.00000E+00-1.41762E-06
 -1      1979 1.12063E-04 0.00000E+00-1.50662E-06
 -1      1980 1.15113E-04 0.00000E+00-1.59595E-06
 -1      1982 1.12063E-04 0.00000E+00-1.68384E-06
 -1      1983 1.15113E-04 0.00000E+00-1.77194E-06
 -1      1985 1.12063E-04 0.00000E+00-1.85924E-06
 -1      1986 1.15113E-04 0.00000E+00-1.94669E-06
 -1      1988 1.12063E-04 0.00000E+00-2.03374E-06
 -1      1989 1.15113E-04 0.00000E+00-2.12086E-06
 -1      1991 1.12063E-04 0.00000E+00-2.20786E-06
 -1      1992 1.15113E-04 0.00000E+00-2.29486E-06
 -1      1994 1.12063E-04 0.00000E+00-2.38199E-06
 -1      1995 1.15113E-04 0.00000E+00-2.46903E-06
 -1      1997 1.12063E-04 0.00000E+00-2.55649E-06
 -1      1998 1.15113E-04 0.00000E+00-2.64379E-06
 -1      2000 1.12063E-04 0.00000E+00-2.73189E-06
 -1      2001 1.15113E-04 0.00000E+00-2.81978E-06
 -1      2003 1.12063E-04 0.00000E+00-2.90910E-06
 -1      2004 1.15113E-04 0.00000E+00-2.99811E-06
 -1      2006 1.12063E-04 0.00000E+00-3.09004E-06
 -1      2008 1.06550E-04 0.00000E+00-1.32657E-06
 -1      2009 1.09214E-04 0.00000E+00-1.41785E-06
 -1      2011 1.06549E-04 0.00000E+00-1.50675E-06
 -1      2012 1.09214E-04 0.00000E+00-1.59586E-06
 -1      2014 1.06549E-04 0.00000E+00-1.68375E-06
 -1      2015 1.09214E-04 0.00000E+00-1.77179E-06
 -1      2017 1.06549E-04 0.00000E+00-1.85912E-06
 -1      2018 1.09214E-04 0.00000E+00-1.94658E-06
 -1      2020 1.06549E-04 0.00000E+00-2.03367E-06
 -1      2021 1.09214E-04 0.00000E+00-2.12083E-06
 -1      2023 1.06549E-04 0.00000E+00-2.20786E-06
 -1      2024 1.09214E-04 0.00000E+00-2.29490E-06
 -1      2026 1.06549E-04 0.00000E+00-2.38206E-06
 -1      2027 1.09214E-04 0.00000E+00-2.46914E-06
 -1      2029 1.06549E-04 0.00000E+00-2.55660E-06
 -1      2030 1.09214E-04 0.00000E+00-2.64394E-06
 -1      2032 1.06549E-04 0.00000E+00-2.73198E-06
 -1      2033 1.09214E-04 0.00000E+00-2.81987E-06
 -1      2035 1.06549E-04 0.00000E+00-2.90897E-06
 -1      2036 1.09214E-04 0.00000E+00-2.99788E-06
 -1      2038 1.06550E-04 0.00000E+00-3.08916E-06
 -1      2040 1.01710E-04 0.00000E+00-1.32736E-06
 -1      2041 1.04052E-04 0.00000E+00-1.41810E-06
 -1      2043 1.01710E-04 0.00000E+00-1.50690E-06
 -1      2044 1.04052E-04 0.00000E+00-1.59582E-06
 -1      2046 1.01710E-04 0.00000E+00-1.68369E-06
 -1      2047 1.04052E-04 0.00000E+00-1.77167E-06
 -1      2049 1.01710E-04 0.00000E+00-1.85903E-06
 -1      2050 1.04052E-04 0.00000E+00-1.94649E-06
 -1      2052 1.01710E-04 0.00000E+00-2.03361E-06
 -1      2053 1.04052E-04 0.00000E+00-2.12079E-06
 -1      2055 1.01710E-04 0.00000E+00-2.20786E-06
 -1      2056 1.04052E-04 0.00000E+00-2.29493E-06
 -1      2058 1.01710E-04 0.00000E+00-2.38211E-06
 -1      2059 1.04052E-04 0.00000E+00-2.46923E-06
 -1      2061 1.01710E-04 0.00000E+00-2.55669E-06
 -1      2062 1.04052E-04 0.00000E+00-2.64405E-06
 -1      2064 1.01710E-04 0.00000E+00-2.73203E-06
 -1      2065 1.04052E-04 0.00000E+00-2.81991E-06
 -1      2067 1.01710E-04 0.00000E+00-2.90883E-06
 -1      2068 1.04052E-04 0.00000E+00-2.99762E-06
 -1      2070 1.01710E-04 0.00000E+00-3.08837E-06
 -1      2072 9.74390E-05 0.00000E+00-1.32806E-06
 -1      2073 9.95090E-05 0.00000E+00-1.41837E-06
 -1      2075 9.74388E-05 0.00000E+00-1.50706E-06
 -1      2076 9.95089E-05 0.00000E+00-1.59581E-06
 -1      2078 9.74387E-05 0.00000E+00-1.68366E-06
 -1      2079 9.95089E-05 0.00000E+00-1.77159E-06
 -1      2081 9.74387E-05 0.00000E+00-1.85896E-06
 -1      2082 9.95089E-05 0.00000E+00-1.94642E-06
 -1      2084 9.74387E-05 0.00000E+00-2.03357E-06
 -1      2085 9.95089E-05 0.00000E+00-2.12076E-06
 -1      2087 9.74387E-05 0.00000E+00-2.20786E-06
 -1      2088 9.95089E-05 0.00000E+00-2.29496E-06
 -1      2090 9.74387E-05 0.00000E+00-2.38216E-06
 -1      2091 9.95089E-05 0.00000E+00-2.46931E-06
 -1      2093 9.74387E-05 0.00000E+00-2.55676E-06
 -1      2094 9.95089E-05 0.00000E+00-2.64414E-06
 -1      2096 9.74387E-05 0.00000E+00-2.73207E-06
 -1      2097 9.95089E-05 0.00000E+00-2.81992E-06
 -1      2099 9.74388E-05 0.00000E+00-2.90867E-06
 -1      2100 9.95090E-05 0.00000E+00-2.99736E-06
 -1      2102 9.74390E-05 0.00000E+00-3.08766E-06
 -1      2104 9.36504E-05 0.00000E+00-1.32871E-06
 -1      2105 9.54886E-05 0.00000E+00-1.41864E-06
 -1      2107 9.36501E-05 0.00000E+00-1.50723E-06
 -1      2108 9.54885E-05 0.00000E+00-1.59582E-06
 -1      2110 9.36501E-05 0.00000E+00-1.68365E-06
 -1      2111 9.54885E-05 0.00000E+00-1.77152E-06
 -1      2113 9.36501E-05 0.00000E+00-1.85891E-06
 -1      2114 9.54885E-05 0.00000E+00-1.94636E-06
 -1      2116 9.36501E-05 0.00000E+00-2.03353E-06
 -1      2117 9.54885E-05 0.00000E+00-2.12074E-06
 -1      2119 9.36501E-05 0.00000E+00-2.20786E-06
 -1      2120 9.54885E-05 0.00000E+00-2.29499E-06
 -1      2122 9.36501E-05 0.00000E+00-2.38220E-06
 -1      2123 9.54885E-05 0.00000E+00-2.46937E-06
 -1      2125 9.36501E-05 0.00000E+00-2.55682E-06
 -1      2126 9.54885E-05 0.00000E+00-2.64420E-06
 -1      2128 9.36501E-05 0.00000E+00-2.73207E-06
 -1      2129 9.54885E-05 0.00000E+00-2.81990E-06
 -1      2131 9.36501E-05 0.00000E+00-2.90850E-06
 -1      2132 9.54886E-05 0.00000E+00-2.99709E-06
 -1      2134 9.36504E-05 0.00000E+00-3.08702E-06
 -1      2136 9.02755E-05 0.00000E+00-1.32930E-06
 -1      2137 9.19146E-05 0.00000E+00-1.41891E-06
 -1      2139 9.02753E-05 0.00000E+00-1.50740E-06
 -1      2140 9.19145E-05 0.00000E+00-1.59586E-06
 -1      2142 9.02752E-05 0.00000E+00-1.68366E-06
 -1      2143 9.19145E-05 0.00000E+00-1.77148E-06
 -1      2145 9.02752E-05 0.00000E+00-1.85887E-06
 -1      2146 9.19145E-05 0.00000E+00-1.94631E-06
 -1      2148 9.02752E-05 0.00000E+00-2.03350E-06
 -1      2149 9.19145E-05 0.00000E+00-2.12072E-06
 -1      2151 9.02752E-05 0.00000E+00-2.20786E-06
 -1      2152 9.19145E-05 0.00000E+00-2.29501E-06
 -1      2154 9.02752E-05 0.00000E+00-2.38223E-06
 -1      2155 9.19145E-05 0.00000E+00-2.46942E-06
 -1      2157 9.02752E-05 0.00000E+00-2.55685E-06
 -1      2158 9.19145E-05 0.00000E+00-2.64425E-06
 -1      2160 9.02752E-05 0.00000E+00-2.73206E-06
 -1      2161 9.19145E-05 0.00000E+00-2.81987E-06
 -1      2163 9.02753E-05 0.00000E+00-2.90832E-06
 -1      2164 9.19146E-05 0.00000E+00-2.99681E-06
 -1      2166 9.02755E-05 0.00000E+00-3.08642E-06
 -1      2168 8.72579E-05 0.00000E+00-1.32985E-06
 -1      2169 8.87248E-05 0.00000E+00-1.41919E-06
 -1      2171 8.72577E-05 0.00000E+00-1.50758E-06
 -1      2172 8.87247E-05 0.00000E+00-1.59592E-06
 -1      2174 8.72576E-05 0.00000E+00-1.68369E-06
 -1      2175 8.87247E-05 0.00000E+00-1.77146E-06
 -1      2177 8.72576E-05 0.00000E+00-1.85885E-06
 -1      2178 8.87247E-05 0.00000E+00-1.94627E-06
 -1      2180 8.72576E-05 0.00000E+00-2.03348E-06
 -1      2181 8.87247E-05 0.00000E+00-2.12071E-06
 -1      2183 8.72576E-05 0.00000E+00-2.20786E-06
 -1      2184 8.87247E-05 0.00000E+00-2.29502E-06
 -1      2186 8.72576E-05 0.00000E+00-2.38225E-06
 -1      2187 8.87247E-05 0.00000E+00-2.46945E-06
 -1      2189 8.72576E-05 0.00000E+00-2.55687E-06
 -1      2190 8.87247E-05 0.00000E+00-2.64427E-06
 -1      2192 8.72576E-05 0.00000E+00-2.73204E-06
 -1      2193 8.87247E-05 0.00000E+00-2.81981E-06
 -1      2195 8.72577E-05 0.00000E+00-2.90814E-06
 -1      2196 8.87248E-05 0.00000E+00-2.99654E-06
 -1      2198 8.72579E-05 0.00000E+00-3.08587E-06
 -1      2200 8.45510E-05 0.00000E+00-1.33036E-06
 -1      2201 8.58679E-05 0.00000E+00-1.41946E-06
 -1      2203 8.45508E-05 0.00000E+00-1.50777E-06
 -1      2204 8.58678E-05 0.00000E+00-1.59599E-06
 -1      2206 8.45508E-05 0.00000E+00-1.68373E-06
 -1      2207 8.58678E-05 0.00000E+00-1.77145E-06
 -1      2209 8.45508E-05 0.00000E+00-1.85884E-06
 -1      2210 8.58678E-05 0.00000E+00-1.94625E-06
 -1      2212 8.45508E-05 0.00000E+00-2.03347E-06
 -1      2213 8.58678E-05 0.00000E+00-2.12070E-06
 -1      2215 8.45508E-05 0.00000E+00-2.20786E-06
 -1      2216 8.58678E-05 0.00000E+00-2.29503E-06
 -1      2218 8.45508E-05 0.00000E+00-2.38226E-06
 -1      2219 8.58678E-05 0.00000E+00-2.46948E-06
 -1      2221 8.45508E-05 0.00000E+00-2.55688E-06
 -1      2222 8.58678E-05 0.00000E+00-2.64428E-06
 -1      2224 8.45508E-05 0.00000E+00-2.73199E-06
 -1      2225 8.58678E-05 0.00000E+00-2.81974E-06
 -1      2227 8.45508E-05 0.00000E+00-2.90796E-06
 -1      2228 8.58679E-05 0.00000E+00-2.99627E-06
 -1      2230 8.45510E-05 0.00000E+00-3.08536E-06
 -1      2232 8.21160E-05 0.00000E+00-1.33084E-06
 -1      2233 8.33015E-05 0.00000E+00-1.41973E-06
 -1      2235 8.21158E-05 0.00000E+00-1.50795E-06
 -1      2236 8.33013E-05 0.00000E+00-1.59608E-06
 -1      2238 8.21158E-05 0.00000E+00-1.68378E-06
 -1      2239 8.33013E-05 0.00000E+00-1.77146E-06
 -1      2241 8.21158E-05 0.00000E+00-1.85884E-06
 -1      2242 8.33013E-05 0.00000E+00-1.94623E-06
 -1      2244 8.21158E-05 0.00000E+00-2.03346E-06
 -1      2245 8.33013E-05 0.00000E+00-2.12069E-06
 -1      2247 8.21158E-05 0.00000E+00-2.20786E-06
 -1      2248 8.33013E-05 0.00000E+00-2.29504E-06
 -1      2250 8.21158E-05 0.00000E+00-2.38227E-06
 -1      2251 8.33013E-05 0.00000E+00-2.46949E-06
 -1      2253 8.21158E-05 0.00000E+00-2.55688E-06
 -1      2254 8.33013E-05 0.00000E+00-2.64427E-06
 -1      2256 8.21158E-05 0.00000E+00-2.73194E-06
 -1      2257 8.33013E-05 0.00000E+00-2.81965E-06
 -1      2259 8.21158E-05 0.00000E+00-2.90777E-06
 -1      2260 8.33015E-05 0.00000E+00-2.99600E-06
 -1      2262 8.21160E-05 0.00000E+00-3.08489E-06
 -1      2264 7.99203E-05 0.00000E+00-1.33129E-06
 -1      2265 8.09898E-05 0.00000E+00-1.41999E-06
 -1      2267 7.99201E-05 0.00000E+00-1.50814E-06
 -1      2268 8.09897E-05 0.00000E+00-1.59617E-06
 -1      2270 7.99200E-05 0.00000E+00-1.68385E-06
 -1      2271 8.09897E-05 0.00000E+00-1.77147E-06
 -1      2273 7.99200E-05 0.00000E+00-1.85886E-06
 -1      2274 8.09897E-05 0.00000E+00-1.94623E-06
 -1      2276 7.99200E-05 0.00000E+00-2.03345E-06
 -1      2277 8.09897E-05 0.00000E+00-2.12068E-06
 -1      2279 7.99200E-05 0.00000E+00-2.20786E-06
 -1      2280 8.09897E-05 0.00000E+00-2.29504E-06
 -1      2282 7.99200E-05 0.00000E+00-2.38227E-06
 -1      2283 8.09897E-05 0.00000E+00-2.46950E-06
 -1      2285 7.99200E-05 0.00000E+00-2.55687E-06
 -1      2286 8.09897E-05 0.00000E+00-2.64425E-06
 -1      2288 7.99200E-05 0.00000E+00-2.73188E-06
 -1      2289 8.09897E-05 0.00000E+00-2.81956E-06
 -1      2291 7.99201E-05 0.00000E+00-2.90759E-06
 -1      2292 8.09898E-05 0.00000E+00-2.99574E-06
 -1      2294 7.99203E-05 0.00000E+00-3.08444E-06
 -1      2296 7.79362E-05 0.00000E+00-1.33171E-06
 -1      2297 7.89031E-05 0.00000E+00-1.42025E-06
 -1      2299 7.79360E-05 0.00000E+00-1.50832E-06
 -1      2300 7.89030E-05 0.00000E+00-1.59627E-06
 -1      2302 7.79359E-05 0.00000E+00-1.68392E-06
 -1      2303 7.89030E-05 0.00000E+00-1.77150E-06
 -1      2305 7.79359E-05 0.00000E+00-1.85887E-06
 -1      2306 7.89029E-05 0.00000E+00-1.94623E-06
 -1      2308 7.79359E-05 0.00000E+00-2.03346E-06
 -1      2309 7.89029E-05 0.00000E+00-2.12068E-06
 -1      2311 7.79359E-05 0.00000E+00-2.20786E-06
 -1      2312 7.89029E-05 0.00000E+00-2.29505E-06
 -1      2314 7.79359E-05 0.00000E+00-2.38227E-06
 -1      2315 7.89029E-05 0.00000E+00-2.46950E-06
 -1      2317 7.79359E-05 0.00000E+00-2.55685E-06
 -1      2318 7.89030E-05 0.00000E+00-2.64422E-06
 -1      2320 7.79359E-05 0.00000E+00-2.73181E-06
 -1      2321 7.89030E-05 0.00000E+00-2.81945E-06
 -1      2323 7.79360E-05 0.00000E+00-2.90740E-06
 -1      2324 7.89031E-05 0.00000E+00-2.99548E-06
 -1      2326 7.79362E-05 0.00000E+00-3.08402E-06
 -1      2328 7.61402E-05 0.00000E+00-1.33211E-06
 -1      2329 7.70158E-05 0.00000E+00-1.42050E-06
 -1      2331 7.61400E-05 0.00000E+00-1.50851E-06
 -1      2332 7.70157E-05 0.00000E+00-1.59638E-06
 -1      2334 7.61399E-05 0.00000E+00-1.68399E-06
 -1      2335 7.70156E-05 0.00000E+00-1.77154E-06
 -1      2337 7.61399E-05 0.00000E+00-1.85890E-06
 -1      2338 7.70156E-05 0.00000E+00-1.94624E-06
 -1      2340 7.61399E-05 0.00000E+00-2.03346E-06
 -1      2341 7.70156E-05 0.00000E+00-2.12068E-06
 -1      2343 7.61399E-05 0.00000E+00-2.20786E-06
 -1      2344 7.70156E-05 0.00000E+00-2.29505E-06
 -1      2346 7.61399E-05 0.00000E+00-2.38226E-06
 -1      2347 7.70156E-05 0.00000E+00-2.46949E-06
 -1      2349 7.61399E-05 0.00000E+00-2.55683E-06
 -1      2350 7.70156E-05 0.00000E+00-2.64419E-06
 -1      2352 7.61399E-05 0.00000E+00-2.73173E-06
 -1      2353 7.70157E-05 0.00000E+00-2.81935E-06
 -1      2355 7.61400E-05 0.00000E+00-2.90722E-06
 -1      2356 7.70158E-05 0.00000E+00-2.99522E-06
 -1      2358 7.61402E-05 0.00000E+00-3.08362E-06
 -1      2360 7.45121E-05 0.00000E+00-1.33248E-06
 -1      2361 7.53061E-05 0.00000E+00-1.42075E-06
 -1      2363 7.45120E-05 0.00000E+00-1.50869E-06
 -1      2364 7.53060E-05 0.00000E+00-1.59649E-06
 -1      2366 7.45119E-05 0.00000E+00-1.68407E-06
 -1      2367 7.53060E-05 0.00000E+00-1.77158E-06
 -1      2369 7.45119E-05 0.00000E+00-1.85893E-06
 -1      2370 7.53060E-05 0.00000E+00-1.94625E-06
 -1      2372 7.45119E-05 0.00000E+00-2.03347E-06
 -1      2373 7.53060E-05 0.00000E+00-2.12068E-06
 -1      2375 7.45119E-05 0.00000E+00-2.20786E-06
 -1      2376 7.53060E-05 0.00000E+00-2.29504E-06
 -1      2378 7.45119E-05 0.00000E+00-2.38226E-06
 -1      2379 7.53060E-05 0.00000E+00-2.46948E-06
 -1      2381 7.45119E-05 0.00000E+00-2.55680E-06
 -1      2382 7.53060E-05 0.00000E+00-2.64415E-06
 -1      2384 7.45119E-05 0.00000E+00-2.73165E-06
 -1      2385 7.53060E-05 0.00000E+00-2.81923E-06
 -1      2387 7.45120E-05 0.00000E+00-2.90704E-06
 -1      2388 7.53061E-05 0.00000E+00-2.99497E-06
 -1      2390 7.45121E-05 0.00000E+00-3.08325E-06
 -1      2392 7.30347E-05 0.00000E+00-1.33284E-06
 -1      2393 7.37554E-05 0.00000E+00-1.42099E-06
 -1      2395 7.30346E-05 0.00000E+00-1.50887E-06
 -1      2396 7.37553E-05 0.00000E+00-1.59661E-06
 -1      2398 7.30345E-05 0.00000E+00-1.68416E-06
 -1      2399 7.37553E-05 0.00000E+00-1.77163E-06
 -1      2401 7.30345E-05 0.00000E+00-1.85896E-06
 -1      2402 7.37553E-05 0.00000E+00-1.94627E-06
 -1      2404 7.30344E-05 0.00000E+00-2.03348E-06
 -1      2405 7.37553E-05 0.00000E+00-2.12069E-06
 -1      2407 7.30344E-05 0.00000E+00-2.20786E-06
 -1      2408 7.37553E-05 0.00000E+00-2.29504E-06
 -1      2410 7.30344E-05 0.00000E+00-2.38224E-06
 -1      2411 7.37553E-05 0.00000E+00-2.46946E-06
 -1      2413 7.30345E-05 0.00000E+00-2.55676E-06
 -1      2414 7.37553E-05 0.00000E+00-2.64410E-06
 -1      2416 7.30345E-05 0.00000E+00-2.73157E-06
 -1      2417 7.37553E-05 0.00000E+00-2.81912E-06
 -1      2419 7.30346E-05 0.00000E+00-2.90686E-06
 -1      2420 7.37554E-05 0.00000E+00-2.99473E-06
 -1      2422 7.30347E-05 0.00000E+00-3.08289E-06
 -1      2424 7.16928E-05 0.00000E+00-1.33317E-06
 -1      2425 7.23475E-05 0.00000E+00-1.42123E-06
 -1      2427 7.16927E-05 0.00000E+00-1.50905E-06
 -1      2428 7.23474E-05 0.00000E+00-1.59673E-06
 -1      2430 7.16926E-05 0.00000E+00-1.68424E-06
 -1      2431 7.23474E-05 0.00000E+00-1.77168E-06
 -1      2433 7.16926E-05 0.00000E+00-1.85900E-06
 -1      2434 7.23474E-05 0.00000E+00-1.94629E-06
 -1      2436 7.16925E-05 0.00000E+00-2.03350E-06
 -1      2437 7.23473E-05 0.00000E+00-2.12069E-06
 -1      2439 7.16925E-05 0.00000E+00-2.20786E-06
 -1      2440 7.23473E-05 0.00000E+00-2.29503E-06
 -1      2442 7.16925E-05 0.00000E+00-2.38223E-06
 -1      2443 7.23474E-05 0.00000E+00-2.46944E-06
 -1      2445 7.16926E-05 0.00000E+00-2.55672E-06
 -1      2446 7.23474E-05 0.00000E+00-2.64404E-06
 -1      2448 7.16926E-05 0.00000E+00-2.73148E-06
 -1      2449 7.23474E-05 0.00000E+00-2.81900E-06
 -1      2451 7.16927E-05 0.00000E+00-2.90668E-06
 -1      2452 7.23475E-05 0.00000E+00-2.99450E-06
 -1      2454 7.16928E-05 0.00000E+00-3.08255E-06
 -1      2456 7.04733E-05 0.00000E+00-1.33350E-06
 -1      2457 7.10684E-05 0.00000E+00-1.42146E-06
 -1      2459 7.04732E-05 0.00000E+00-1.50922E-06
 -1      2460 7.10683E-05 0.00000E+00-1.59684E-06
 -1      2462 7.04731E-05 0.00000E+00-1.68433E-06
 -1      2463 7.10682E-05 0.00000E+00-1.77174E-06
 -1      2465 7.04731E-05 0.00000E+00-1.85905E-06
 -1      2466 7.10682E-05 0.00000E+00-1.94631E-06
 -1      2468 7.04731E-05 0.00000E+00-2.03351E-06
 -1      2469 7.10682E-05 0.00000E+00-2.12070E-06
 -1      2471 7.04731E-05 0.00000E+00-2.20786E-06
 -1      2472 7.10682E-05 0.00000E+00-2.29503E-06
 -1      2474 7.04731E-05 0.00000E+00-2.38221E-06
 -1      2475 7.10682E-05 0.00000E+00-2.46942E-06
 -1      2477 7.04731E-05 0.00000E+00-2.55668E-06
 -1      2478 7.10682E-05 0.00000E+00-2.64399E-06
 -1      2480 7.04731E-05 0.00000E+00-2.73139E-06
 -1      2481 7.10683E-05 0.00000E+00-2.81888E-06
 -1      2483 7.04732E-05 0.00000E+00-2.90650E-06
 -1      2484 7.10684E-05 0.00000E+00-2.99427E-06
 -1      2486 7.04733E-05 0.00000E+00-3.08223E-06
 -1      2488 6.93647E-05 0.00000E+00-1.33381E-06
 -1      2489 6.99057E-05 0.00000E+00-1.42168E-06
 -1      2491 6.93646E-05 0.00000E+00-1.50940E-06
 -1      2492 6.99056E-05 0.00000E+00-1.59697E-06
 -1      2494 6.93646E-05 0.00000E+00-1.68443E-06
 -1      2495 6.99056E-05 0.00000E+00-1.77180E-06
 -1      2497 6.93645E-05 0.00000E+00-1.85909E-06
 -1      2498 6.99055E-05 0.00000E+00-1.94634E-06
 -1      2500 6.93645E-05 0.00000E+00-2.03353E-06
 -1      2501 6.99055E-05 0.00000E+00-2.12071E-06
 -1      2503 6.93645E-05 0.00000E+00-2.20786E-06
 -1      2504 6.99055E-05 0.00000E+00-2.29502E-06
 -1      2506 6.93645E-05 0.00000E+00-2.38220E-06
 -1      2507 6.99055E-05 0.00000E+00-2.46939E-06
 -1      2509 6.93645E-05 0.00000E+00-2.55664E-06
 -1      2510 6.99056E-05 0.00000E+00-2.64393E-06
 -1      2512 6.93646E-05 0.00000E+00-2.73130E-06
 -1      2513 6.99056E-05 0.00000E+00-2.81876E-06
 -1      2515 6.93646E-05 0.00000E+00-2.90633E-06
 -1      2516 6.99057E-05 0.00000E+00-2.99405E-06
 -1      2518 6.93647E-05 0.00000E+00-3.08192E-06
 -1      2520 6.83570E-05 0.00000E+00-1.33411E-06
 -1      2521 6.88487E-05 0.00000E+00-1.42190E-06
 -1      2523 6.83569E-05 0.00000E+00-1.50957E-06
 -1      2524 6.88487E-05 0.00000E+00-1.59709E-06
 -1      2526 6.83569E-05 0.00000E+00-1.68452E-06
 -1      2527 6.88486E-05 0.00000E+00-1.77186E-06
 -1      2529 6.83568E-05 0.00000E+00-1.85914E-06
 -1      2530 6.88486E-05 0.00000E+00-1.94637E-06
 -1      2532 6.83568E-05 0.00000E+00-2.03355E-06
 -1      2533 6.88486E-05 0.00000E+00-2.12071E-06
 -1      2535 6.83568E-05 0.00000E+00-2.20786E-06
 -1      2536 6.88486E-05 0.00000E+00-2.29501E-06
 -1      2538 6.83568E-05 0.00000E+00-2.38218E-06
 -1      2539 6.88486E-05 0.00000E+00-2.46936E-06
 -1      2541 6.83568E-05 0.00000E+00-2.55659E-06
 -1      2542 6.88486E-05 0.00000E+00-2.64386E-06
 -1      2544 6.83569E-05 0.00000E+00-2.73120E-06
 -1      2545 6.88487E-05 0.00000E+00-2.81864E-06
 -1      2547 6.83569E-05 0.00000E+00-2.90616E-06
 -1      2548 6.88487E-05 0.00000E+00-2.99383E-06
 -1      2550 6.83570E-05 0.00000E+00-3.08162E-06
 -1      2552 6.74412E-05 0.00000E+00-1.33441E-06
 -1      2553 6.78880E-05 0.00000E+00-1.42212E-06
 -1      2555 6.74411E-05 0.00000E+00-1.50975E-06
 -1      2556 6.78879E-05 0.00000E+00-1.59722E-06
 -1      2558 6.74411E-05 0.00000E+00-1.68462E-06
 -1      2559 6.78879E-05 0.00000E+00-1.77193E-06
 -1      2561 6.74410E-05 0.00000E+00-1.85919E-06
 -1      2562 6.78879E-05 0.00000E+00-1.94640E-06
 -1      2564 6.74410E-05 0.00000E+00-2.03357E-06
 -1      2565 6.78879E-05 0.00000E+00-2.12072E-06
 -1      2567 6.74410E-05 0.00000E+00-2.20786E-06
 -1      2568 6.78879E-05 0.00000E+00-2.29500E-06
 -1      2570 6.74410E-05 0.00000E+00-2.38215E-06
 -1      2571 6.78879E-05 0.00000E+00-2.46933E-06
 -1      2573 6.74410E-05 0.00000E+00-2.55653E-06
 -1      2574 6.78879E-05 0.00000E+00-2.64379E-06
 -1      2576 6.74411E-05 0.00000E+00-2.73110E-06
 -1      2577 6.78879E-05 0.00000E+00-2.81851E-06
 -1      2579 6.74411E-05 0.00000E+00-2.90598E-06
 -1      2580 6.78880E-05 0.00000E+00-2.99361E-06
 -1      2582 6.74412E-05 0.00000E+00-3.08132E-06
 -1      2584 6.66094E-05 0.00000E+00-1.33473E-06
 -1      2585 6.70151E-05 0.00000E+00-1.42235E-06
 -1      2587 6.66093E-05 0.00000E+00-1.50994E-06
 -1      2588 6.70151E-05 0.00000E+00-1.59736E-06
 -1      2590 6.66092E-05 0.00000E+00-1.68474E-06
 -1      2591 6.70150E-05 0.00000E+00-1.77201E-06
 -1      2593 6.66092E-05 0.00000E+00-1.85926E-06
 -1      2594 6.70150E-05 0.00000E+00-1.94644E-06
 -1      2596 6.66092E-05 0.00000E+00-2.03360E-06
 -1      2597 6.70150E-05 0.00000E+00-2.12074E-06
 -1      2599 6.66092E-05 0.00000E+00-2.20786E-06
 -1      2600 6.70150E-05 0.00000E+00-2.29499E-06
 -1      2602 6.66092E-05 0.00000E+00-2.38212E-06
 -1      2603 6.70150E-05 0.00000E+00-2.46929E-06
 -1      2605 6.66092E-05 0.00000E+00-2.55647E-06
 -1      2606 6.70150E-05 0.00000E+00-2.64371E-06
 -1      2608 6.66092E-05 0.00000E+00-2.73099E-06
 -1      2609 6.70151E-05 0.00000E+00-2.81837E-06
 -1      2611 6.66093E-05 0.00000E+00-2.90578E-06
 -1      2612 6.70151E-05 0.00000E+00-2.99337E-06
 -1      2614 6.66094E-05 0.00000E+00-3.08100E-06
 -1      2616 6.58544E-05 0.00000E+00-1.33510E-06
 -1      2617 6.62226E-05 0.00000E+00-1.42262E-06
 -1      2619 6.58543E-05 0.00000E+00-1.51018E-06
 -1      2620 6.62225E-05 0.00000E+00-1.59752E-06
 -1      2622 6.58543E-05 0.00000E+00-1.68489E-06
 -1      2623 6.62225E-05 0.00000E+00-1.77211E-06
 -1      2625 6.58543E-05 0.00000E+00-1.85935E-06
 -1      2626 6.62225E-05 0.00000E+00-1.94649E-06
 -1      2628 6.58543E-05 0.00000E+00-2.03364E-06
 -1      2629 6.62225E-05 0.00000E+00-2.12075E-06
 -1      2631 6.58543E-05 0.00000E+00-2.20786E-06
 -1      2632 6.62225E-05 0.00000E+00-2.29497E-06
 -1      2634 6.58543E-05 0.00000E+00-2.38208E-06
 -1      2635 6.62225E-05 0.00000E+00-2.46923E-06
 -1      2637 6.58543E-05 0.00000E+00-2.55638E-06
 -1      2638 6.62225E-05 0.00000E+00-2.64361E-06
 -1      2640 6.58543E-05 0.00000E+00-2.73084E-06
 -1      2641 6.62225E-05 0.00000E+00-2.81820E-06
 -1      2643 6.58543E-05 0.00000E+00-2.90554E-06
 -1      2644 6.62226E-05 0.00000E+00-2.99310E-06
 -1      2646 6.58544E-05 0.00000E+00-3.08062E-06
 -1      2648 6.51697E-05 0.00000E+00-1.33562E-06
 -1      2649 6.55035E-05 0.00000E+00-1.42297E-06
 -1      2651 6.51698E-05 0.00000E+00-1.51053E-06
 -1      2652 6.55035E-05 0.00000E+00-1.59775E-06
 -1      2654 6.51698E-05 0.00000E+00-1.68512E-06
 -1      2655 6.55035E-05 0.00000E+00-1.77226E-06
 -1      2657 6.51698E-05 0.00000E+00-1.85949E-06
 -1      2658 6.55035E-05 0.00000E+00-1.94657E-06
 -1      2660 6.51698E-05 0.00000E+00-2.03371E-06
 -1      2661 6.55035E-05 0.00000E+00-2.12078E-06
 -1      2663 6.51698E-05 0.00000E+00-2.20786E-06
 -1      2664 6.55035E-05 0.00000E+00-2.29495E-06
 -1      2666 6.51698E-05 0.00000E+00-2.38202E-06
 -1      2667 6.55035E-05 0.00000E+00-2.46915E-06
 -1      2669 6.51698E-05 0.00000E+00-2.55624E-06
 -1      2670 6.55035E-05 0.00000E+00-2.64347E-06
 -1      2672 6.51698E-05 0.00000E+00-2.73061E-06
 -1      2673 6.55035E-05 0.00000E+00-2.81797E-06
 -1      2675 6.51698E-05 0.00000E+00-2.90520E-06
 -1      2676 6.55035E-05 0.00000E+00-2.99275E-06
 -1      2678 6.51697E-05 0.00000E+00-3.08011E-06
 -1      2680 6.45494E-05 0.00000E+00-1.33646E-06
 -1      2681 6.48518E-05 0.00000E+00-1.42354E-06
 -1      2683 6.45496E-05 0.00000E+00-1.51116E-06
 -1      2684 6.48518E-05 0.00000E+00-1.59816E-06
 -1      2686 6.45496E-05 0.00000E+00-1.68557E-06
 -1      2687 6.48519E-05 0.00000E+00-1.77253E-06
 -1      2689 6.45496E-05 0.00000E+00-1.85977E-06
 -1      2690 6.48519E-05 0.00000E+00-1.94673E-06
 -1      2692 6.45496E-05 0.00000E+00-2.03385E-06
 -1      2693 6.48519E-05 0.00000E+00-2.12083E-06
 -1      2695 6.45496E-05 0.00000E+00-2.20786E-06
 -1      2696 6.48519E-05 0.00000E+00-2.29490E-06
 -1      2698 6.45496E-05 0.00000E+00-2.38188E-06
 -1      2699 6.48519E-05 0.00000E+00-2.46900E-06
 -1      2701 6.45496E-05 0.00000E+00-2.55595E-06
 -1      2702 6.48519E-05 0.00000E+00-2.64320E-06
 -1      2704 6.45496E-05 0.00000E+00-2.73016E-06
 -1      2705 6.48518E-05 0.00000E+00-2.81757E-06
 -1      2707 6.45496E-05 0.00000E+00-2.90457E-06
 -1      2708 6.48518E-05 0.00000E+00-2.99219E-06
 -1      2710 6.45494E-05 0.00000E+00-3.07926E-06
 -1      2712 6.39875E-05 0.00000E+00-1.33818E-06
 -1      2713 6.42614E-05 0.00000E+00-1.42463E-06
 -1      2715 6.39878E-05 0.00000E+00-1.51240E-06
 -1      2716 6.42615E-05 0.00000E+00-1.59894E-06
 -1      2718 6.39879E-05 0.00000E+00-1.68643E-06
 -1      2719 6.42615E-05 0.00000E+00-1.77306E-06
 -1      2721 6.39879E-05 0.00000E+00-1.86031E-06
 -1      2722 6.42615E-05 0.00000E+00-1.94703E-06
 -1      2724 6.39878E-05 0.00000E+00-2.03411E-06
 -1      2725 6.42615E-05 0.00000E+00-2.12093E-06
 -1      2727 6.39878E-05 0.00000E+00-2.20786E-06
 -1      2728 6.42615E-05 0.00000E+00-2.29480E-06
 -1      2730 6.39878E-05 0.00000E+00-2.38162E-06
 -1      2731 6.42615E-05 0.00000E+00-2.46869E-06
 -1      2733 6.39879E-05 0.00000E+00-2.55541E-06
 -1      2734 6.42615E-05 0.00000E+00-2.64267E-06
 -1      2736 6.39879E-05 0.00000E+00-2.72930E-06
 -1      2737 6.42615E-05 0.00000E+00-2.81679E-06
 -1      2739 6.39878E-05 0.00000E+00-2.90332E-06
 -1      2740 6.42614E-05 0.00000E+00-2.99110E-06
 -1      2742 6.39875E-05 0.00000E+00-3.07755E-06
 -1      2744 6.37275E-05 0.00000E+00-1.42627E-06
 -1      2746 6.37277E-05 0.00000E+00-1.60003E-06
 -1      2748 6.37277E-05 0.00000E+00-1.77373E-06
 -1      2750 6.37277E-05 0.00000E+00-1.94740E-06
 -1      2752 6.37276E-05 0.00000E+00-2.12104E-06
 -1      2754 6.37276E-05 0.00000E+00-2.29468E-06
 -1      2756 6.37277E-05 0.00000E+00-2.46833E-06
 -1      2758 6.37277E-05 0.00000E+00-2.64199E-06
 -1      2760 6.37277E-05 0.00000E+00-2.81570E-06
 -1      2762 6.37275E-05 0.00000E+00-2.98946E-06
 -1      2765 6.27014E-05 9.93093E-06-1.42714E-06
 -1      2766 6.27016E-05 9.93096E-06-1.60059E-06
 -1      2767 6.27016E-05 9.93096E-06-1.77406E-06
 -1      2768 6.27016E-05 9.93095E-06-1.94757E-06
 -1      2769 6.27015E-05 9.93095E-06-2.12110E-06
 -1      2770 6.27015E-05 9.93095E-06-2.29463E-06
 -1      2771 6.27016E-05 9.93095E-06-2.46816E-06
 -1      2772 6.27016E-05 9.93096E-06-2.64167E-06
 -1      2773 6.27016E-05 9.93096E-06-2.81514E-06
 -1      2774 6.27014E-05 9.93093E-06-2.98859E-06
 -1      2775 6.03759E-05 1.96173E-05-1.42714E-06
 -1      2776 6.03761E-05 1.96174E-05-1.60059E-06
 -1      2777 6.03761E-05 1.96174E-05-1.77406E-06
 -1      2778 6.03761E-05 1.96174E-05-1.94757E-06
 -1      2779 6.03760E-05 1.96174E-05-2.12110E-06
 -1      2780 6.03760E-05 1.96174E-05-2.29463E-06
 -1      2781 6.03761E-05 1.96174E-05-2.46816E-06
 -1      2782 6.03761E-05 1.96174E-05-2.64167E-06
 -1      2783 6.03761E-05 1.96174E-05-2.81514E-06
 -1      2784 6.03759E-05 1.96173E-05-2.98859E-06
 -1      2785 5.65638E-05 2.88207E-05-1.42714E-06
 -1      2786 5.65639E-05 2.88208E-05-1.60059E-06
 -1      2787 5.65639E-05 2.88208E-05-1.77406E-06
 -1      2788 5.65639E-05 2.88208E-05-1.94757E-06
 -1      2789 5.65639E-05 2.88207E-05-2.12110E-06
 -1      2790 5.65639E-05 2.88207E-05-2.29463E-06
 -1      2791 5.65639E-05 2.88208E-05-2.46816E-06
 -1      2792 5.65639E-05 2.88208E-05-2.64167E-06
 -1      2793 5.65639E-05 2.88208E-05-2.81514E-06
 -1      2794 5.65638E-05 2.88207E-05-2.98859E-06
 -1      2795 5.13588E-05 3.73144E-05-1.42714E-06
 -1      2796 5.13590E-05 3.73145E-05-1.60059E-06
 -1      2797 5.13590E-05 3.73145E-05-1.77406E-06
 -1      2798 5.13590E-05 3.73145E-05-1.94757E-06
 -1      2799 5.13589E-05 3.73144E-05-2.12110E-06
 -1      2800 5.13589E-05 3.73144E-05-2.29463E-06
 -1      2801 5.13590E-05 3.73145E-05-2.46816E-06
 -1      2802 5.13590E-05 3.73145E-05-2.64166E-06
 -1      2803 5.13590E-05 3.73145E-05-2.81514E-06
 -1      2804 5.13588E-05 3.73144E-05-2.98859E-06
 -1      2805 4.48893E-05 4.48893E-05-1.42714E-06
 -1      2806 4.48894E-05 4.48894E-05-1.60059E-06
 -1      2807 4.48894E-05 4.48894E-05-1.77406E-06
 -1      2808 4.48894E-05 4.48894E-05-1.94757E-06
 -1      2809 4.48893E-05 4.48893E-05-2.12110E-06
 -1      2810 4.48893E-05 4.48893E-05-2.29463E-06
 -1      2811 4.48894E-05 4.48894E-05-2.46816E-06
 -1      2812 4.48894E-05 4.48894E-05-2.64166E-06
 -1      2813 4.48894E-05 4.48894E-05-2.81514E-06
 -1      2814 4.48893E-05 4.48893E-05-2.98859E-06
 -1      2815 3.73144E-05 5.13588E-05-1.42714E-06
 -1      2816 3.73145E-05 5.13590E-05-1.60059E-06
 -1      2817 3.73145E-05 5.13590E-05-1.77406E-06
 -1      2818 3.73145E-05 5.13590E-05-1.94757E-06
 -1      2819 3.73144E-05 5.13589E-05-2.12110E-06
 -1      2820 3.73144E-05 5.13589E-05-2.29463E-06
 -1      2821 3.73145E-05 5.13590E-05-2.46816E-06
 -1      2822 3.73145E-05 5.13590E-05-2.64167E-06
 -1      2823 3.73145E-05 5.13590E-05-2.81514E-06
 -1      2824 3.73144E-05 5.13588E-05-2.98859E-06
 -1      2825 2.88207E-05 5.65638E-05-1.42714E-06
 -1      2826 2.88208E-05 5.65639E-05-1.60059E-06
 -1      2827 2.88208E-05 5.65639E-05-1.77406E-06
 -1      2828 2.88208E-05 5.65639E-05-1.94757E-06
 -1      2829 2.88207E-05 5.65639E-05-2.12110E-06
 -1      2830 2.88207E-05 5.65639E-05-2.29463E-06
 -1      2831 2.88208E-05 5.65639E-05-2.46816E-06
 -1      2832 2.88208E-05 5.65639E-05-2.64167E-06
 -1      2833 2.88208E-05 5.65639E-05-2.81514E-06
 -1      2834 2.88207E-05 5.65638E-05-2.98859E-06
 -1      2835 1.96173E-05 6.03759E-05-1.42714E-06
 -1      2836 1.96174E-05 6.03761E-05-1.60059E-06
 -1      2837 1.96174E-05 6.03761E-05-1.77406E-06
 -1      2838 1.96174E-05 6.03761E-05-1.94757E-06
 -1      2839 1.96174E-05 6.03760E-05-2.12110E-06
 -1      2840 1.96174E-05 6.03760E-05-2.29463E-06
 -1      2841 1.96174E-05 6.03761E-05-2.46816E-06
 -1      2842 1.96174E-05 6.03761E-05-2.64166E-06
 -1      2843 1.96174E-05 6.03761E-05-2.81514E-06
 -1      2844 1.96173E-05 6.03759E-05-2.98859E-06
 -1      2845 9.93093E-06 6.27014E-05-1.42714E-06
 -1      2846 9.93096E-06 6.27016E-05-1.60059E-06
 -1      2847 9.93096E-06 6.27016E-05-1.77406E-06
 -1      2848 9.93095E-06 6.27016E-05-1.94757E-06
 -1      2849 9.93095E-06 6.27015E-05-2.12110E-06
 -1      2850 9.93095E-06 6.27015E-05-2.29463E-06
 -1      2851 9.93095E-06 6.27016E-05-2.46816E-06
 -1      2852 9.93096E-06 6.27016E-05-2.64167E-06
 -1      2853 9.93096E-06 6.27016E-05-2.81514E-06
 -1      2854 9.93093E-06 6.27014E-05-2.98859E-06
 -1      2855 6.27011E-05 9.93089E-06-1.34041E-06
 -1      2856 6.32994E-05 4.98177E-06-1.42938E-06
 -1      2858 6.27015E-05 9.93094E-06-1.51386E-06
 -1      2859 6.32993E-05 4.98177E-06-1.60241E-06
 -1      2861 6.27016E-05 9.93096E-06-1.68732E-06
 -1      2862 6.32993E-05 4.98176E-06-1.77542E-06
 -1      2864 6.27016E-05 9.93096E-06-1.86081E-06
 -1      2865 6.32993E-05 4.98177E-06-1.94840E-06
 -1      2867 6.27016E-05 9.93095E-06-2.03433E-06
 -1      2868 6.32994E-05 4.98177E-06-2.12138E-06
 -1      2870 6.27015E-05 9.93095E-06-2.20786E-06
 -1      2871 6.32994E-05 4.98177E-06-2.29435E-06
 -1      2873 6.27016E-05 9.93095E-06-2.38139E-06
 -1      2874 6.32993E-05 4.98177E-06-2.46732E-06
 -1      2876 6.27016E-05 9.93096E-06-2.55491E-06
 -1      2877 6.32993E-05 4.98176E-06-2.64031E-06
 -1      2879 6.27016E-05 9.93096E-06-2.72840E-06
 -1      2880 6.32993E-05 4.98177E-06-2.81332E-06
 -1      2882 6.27015E-05 9.93094E-06-2.90186E-06
 -1      2883 6.32994E-05 4.98177E-06-2.98635E-06
 -1      2885 6.27011E-05 9.93089E-06-3.07532E-06
 -1      2887 6.03757E-05 1.96172E-05-1.34041E-06
 -1      2888 6.17408E-05 1.48226E-05-1.42938E-06
 -1      2890 6.03760E-05 1.96174E-05-1.51386E-06
 -1      2891 6.17407E-05 1.48226E-05-1.60241E-06
 -1      2893 6.03761E-05 1.96174E-05-1.68732E-06
 -1      2894 6.17407E-05 1.48226E-05-1.77542E-06
 -1      2896 6.03761E-05 1.96174E-05-1.86081E-06
 -1      2897 6.17407E-05 1.48226E-05-1.94840E-06
 -1      2899 6.03761E-05 1.96174E-05-2.03433E-06
 -1      2900 6.17407E-05 1.48226E-05-2.12138E-06
 -1      2902 6.03760E-05 1.96174E-05-2.20786E-06
 -1      2903 6.17407E-05 1.48226E-05-2.29435E-06
 -1      2905 6.03761E-05 1.96174E-05-2.38139E-06
 -1      2906 6.17407E-05 1.48226E-05-2.46732E-06
 -1      2908 6.03761E-05 1.96174E-05-2.55491E-06
 -1      2909 6.17407E-05 1.48226E-05-2.64031E-06
 -1      2911 6.03761E-05 1.96174E-05-2.72840E-06
 -1      2912 6.17407E-05 1.48226E-05-2.81332E-06
 -1      2914 6.03760E-05 1.96174E-05-2.90186E-06
 -1      2915 6.17408E-05 1.48226E-05-2.98635E-06
 -1      2917 6.03757E-05 1.96172E-05-3.07532E-06
 -1      2919 5.65635E-05 2.88206E-05-1.34041E-06
 -1      2920 5.86619E-05 2.42985E-05-1.42938E-06
 -1      2922 5.65639E-05 2.88207E-05-1.51386E-06
 -1      2923 5.86618E-05 2.42985E-05-1.60241E-06
 -1      2925 5.65639E-05 2.88208E-05-1.68732E-06
 -1      2926 5.86618E-05 2.42985E-05-1.77542E-06
 -1      2928 5.65639E-05 2.88208E-05-1.86081E-06
 -1      2929 5.86618E-05 2.42985E-05-1.94840E-06
 -1      2931 5.65639E-05 2.88207E-05-2.03433E-06
 -1      2932 5.86618E-05 2.42985E-05-2.12138E-06
 -1      2934 5.65639E-05 2.88207E-05-2.20786E-06
 -1      2935 5.86618E-05 2.42985E-05-2.29435E-06
 -1      2937 5.65639E-05 2.88207E-05-2.38139E-06
 -1      2938 5.86618E-05 2.42985E-05-2.46732E-06
 -1      2940 5.65639E-05 2.88208E-05-2.55491E-06
 -1      2941 5.86618E-05 2.42985E-05-2.64031E-06
 -1      2943 5.65639E-05 2.88208E-05-2.72840E-06
 -1      2944 5.86618E-05 2.42985E-05-2.81332E-06
 -1      2946 5.65639E-05 2.88207E-05-2.90186E-06
 -1      2947 5.86619E-05 2.42985E-05-2.98635E-06
 -1      2949 5.65635E-05 2.88206E-05-3.07532E-06
 -1      2951 5.13586E-05 3.73142E-05-1.34041E-06
 -1      2952 5.41385E-05 3.31761E-05-1.42938E-06
 -1      2954 5.13589E-05 3.73144E-05-1.51386E-06
 -1      2955 5.41384E-05 3.31761E-05-1.60241E-06
 -1      2957 5.13590E-05 3.73145E-05-1.68732E-06
 -1      2958 5.41384E-05 3.31761E-05-1.77542E-06
 -1      2960 5.13590E-05 3.73145E-05-1.86082E-06
 -1      2961 5.41385E-05 3.31761E-05-1.94840E-06
 -1      2963 5.13589E-05 3.73145E-05-2.03433E-06
 -1      2964 5.41385E-05 3.31761E-05-2.12138E-06
 -1      2966 5.13589E-05 3.73144E-05-2.20786E-06
 -1      2967 5.41385E-05 3.31761E-05-2.29435E-06
 -1      2969 5.13589E-05 3.73145E-05-2.38139E-06
 -1      2970 5.41385E-05 3.31761E-05-2.46732E-06
 -1      2972 5.13590E-05 3.73145E-05-2.55491E-06
 -1      2973 5.41384E-05 3.31761E-05-2.64031E-06
 -1      2975 5.13590E-05 3.73145E-05-2.72840E-06
 -1      2976 5.41384E-05 3.31761E-05-2.81332E-06
 -1      2978 5.13589E-05 3.73144E-05-2.90186E-06
 -1      2979 5.41385E-05 3.31761E-05-2.98635E-06
 -1      2981 5.13586E-05 3.73142E-05-3.07532E-06
 -1      2983 4.48891E-05 4.48891E-05-1.34041E-06
 -1      2984 4.82821E-05 4.12368E-05-1.42938E-06
 -1      2986 4.48893E-05 4.48893E-05-1.51386E-06
 -1      2987 4.82820E-05 4.12367E-05-1.60241E-06
 -1      2989 4.48894E-05 4.48894E-05-1.68732E-06
 -1      2990 4.82820E-05 4.12367E-05-1.77542E-06
 -1      2992 4.48894E-05 4.48894E-05-1.86082E-06
 -1      2993 4.82821E-05 4.12367E-05-1.94840E-06
 -1      2995 4.48894E-05 4.48894E-05-2.03433E-06
 -1      2996 4.82821E-05 4.12368E-05-2.12138E-06
 -1      2998 4.48893E-05 4.48893E-05-2.20786E-06
 -1      2999 4.82821E-05 4.12368E-05-2.29435E-06
 -1      3001 4.48894E-05 4.48894E-05-2.38139E-06
 -1      3002 4.82821E-05 4.12367E-05-2.46732E-06
 -1      3004 4.48894E-05 4.48894E-05-2.55491E-06
 -1      3005 4.82820E-05 4.12367E-05-2.64031E-06
 -1      3007 4.48894E-05 4.48894E-05-2.72840E-06
 -1      3008 4.82820E-05 4.12367E-05-2.81332E-06
 -1      3010 4.48893E-05 4.48893E-05-2.90186E-06
 -1      3011 4.82821E-05 4.12368E-05-2.98635E-06
 -1      3013 4.48891E-05 4.48891E-05-3.07532E-06
 -1      3015 3.73142E-05 5.13586E-05-1.34041E-06
 -1      3016 4.12368E-05 4.82821E-05-1.42938E-06
 -1      3018 3.73144E-05 5.13589E-05-1.51386E-06
 -1      3019 4.12368E-05 4.82820E-05-1.60241E-06
 -1      3021 3.73145E-05 5.13590E-05-1.68732E-06
 -1      3022 4.12368E-05 4.82820E-05-1.77542E-06
 -1      3024 3.73145E-05 5.13590E-05-1.86081E-06
 -1      3025 4.12368E-05 4.82820E-05-1.94840E-06
 -1      3027 3.73145E-05 5.13589E-05-2.03433E-06
 -1      3028 4.12368E-05 4.82820E-05-2.12138E-06
 -1      3030 3.73144E-05 5.13589E-05-2.20786E-06
 -1      3031 4.12368E-05 4.82820E-05-2.29435E-06
 -1      3033 3.73145E-05 5.13589E-05-2.38139E-06
 -1      3034 4.12368E-05 4.82820E-05-2.46732E-06
 -1      3036 3.73145E-05 5.13590E-05-2.55491E-06
 -1      3037 4.12368E-05 4.82820E-05-2.64031E-06
 -1      3039 3.73145E-05 5.13590E-05-2.72840E-06
 -1      3040 4.12368E-05 4.82820E-05-2.81332E-06
 -1      3042 3.73144E-05 5.13589E-05-2.90186E-06
 -1      3043 4.12368E-05 4.82821E-05-2.98635E-06
 -1      3045 3.73142E-05 5.13586E-05-3.07532E-06
 -1      3047 2.88206E-05 5.65635E-05-1.34041E-06
 -1      3048 3.31761E-05 5.41385E-05-1.42938E-06
 -1      3050 2.88207E-05 5.65639E-05-1.51386E-06
 -1      3051 3.31761E-05 5.41384E-05-1.60241E-06
 -1      3053 2.88208E-05 5.65639E-05-1.68732E-06
 -1      3054 3.31761E-05 5.41384E-05-1.77542E-06
 -1      3056 2.88208E-05 5.65639E-05-1.86081E-06
 -1      3057 3.31761E-05 5.41385E-05-1.94840E-06
 -1      3059 2.88207E-05 5.65639E-05-2.03433E-06
 -1      3060 3.31761E-05 5.41385E-05-2.12138E-06
 -1      3062 2.88207E-05 5.65639E-05-2.20786E-06
 -1      3063 3.31761E-05 5.41385E-05-2.29435E-06
 -1      3065 2.88207E-05 5.65639E-05-2.38139E-06
 -1      3066 3.31761E-05 5.41385E-05-2.46732E-06
 -1      3068 2.88208E-05 5.65639E-05-2.55491E-06
 -1      3069 3.31761E-05 5.41384E-05-2.64031E-06
 -1      3071 2.88208E-05 5.65639E-05-2.72840E-06
 -1      3072 3.31761E-05 5.41384E-05-2.81332E-06
 -1      3074 2.88207E-05 5.65639E-05-2.90186E-06
 -1      3075 3.31761E-05 5.41385E-05-2.98635E-06
 -1      3077 2.88206E-05 5.65635E-05-3.07532E-06
 -1      3079 1.96172E-05 6.03757E-05-1.34041E-06
 -1      3080 2.42985E-05 5.86619E-05-1.42938E-06
 -1      3082 1.96174E-05 6.03760E-05-1.51386E-06
 -1      3083 2.42985E-05 5.86618E-05-1.60241E-06
 -1      3085 1.96174E-05 6.03761E-05-1.68732E-06
 -1      3086 2.42985E-05 5.86618E-05-1.77542E-06
 -1      3088 1.96174E-05 6.03761E-05-1.86082E-06
 -1      3089 2.42985E-05 5.86618E-05-1.94840E-06
 -1      3091 1.96174E-05 6.03761E-05-2.03433E-06
 -1      3092 2.42985E-05 5.86618E-05-2.12138E-06
 -1      3094 1.96174E-05 6.03760E-05-2.20786E-06
 -1      3095 2.42985E-05 5.86618E-05-2.29435E-06
 -1      3097 1.96174E-05 6.03761E-05-2.38139E-06
 -1      3098 2.42985E-05 5.86618E-05-2.46732E-06
 -1      3100 1.96174E-05 6.03761E-05-2.55491E-06
 -1      3101 2.42985E-05 5.86618E-05-2.64031E-06
 -1      3103 1.96174E-05 6.03761E-05-2.72840E-06
 -1      3104 2.42985E-05 5.86618E-05-2.81332E-06
 -1      3106 1.96174E-05 6.03760E-05-2.90186E-06
 -1      3107 2.42985E-05 5.86619E-05-2.98635E-06
 -1      3109 1.96172E-05 6.03757E-05-3.07532E-06
 -1      3111 9.93088E-06 6.27012E-05-1.34041E-06
 -1      3112 1.48227E-05 6.17408E-05-1.42938E-06
 -1      3114 9.93094E-06 6.27015E-05-1.51386E-06
 -1      3115 1.48227E-05 6.17407E-05-1.60241E-06
 -1      3117 9.93096E-06 6.27016E-05-1.68732E-06
 -1      3118 1.48227E-05 6.17407E-05-1.77542E-06
 -1      3120 9.93095E-06 6.27016E-05-1.86081E-06
 -1      3121 1.48227E-05 6.17407E-05-1.94840E-06
 -1      3123 9.93095E-06 6.27016E-05-2.03433E-06
 -1      3124 1.48227E-05 6.17407E-05-2.12138E-06
 -1      3126 9.93095E-06 6.27015E-05-2.20786E-06
 -1      3127 1.48227E-05 6.17407E-05-2.29435E-06
 -1      3129 9.93095E-06 6.27016E-05-2.38139E-06
 -1      3130 1.48227E-05 6.17407E-05-2.46732E-06
 -1      3132 9.93095E-06 6.27016E-05-2.55491E-06
 -1      3133 1.48227E-05 6.17407E-05-2.64031E-06
 -1      3135 9.93096E-06 6.27016E-05-2.72840E-06
 -1      3136 1.48227E-05 6.17407E-05-2.81332E-06
 -1      3138 9.93094E-06 6.27015E-05-2.90186E-06
 -1      3139 1.48227E-05 6.17408E-05-2.98635E-06
 -1      3141 9.93088E-06 6.27012E-05-3.07532E-06
 -1      3143 4.98184E-06 6.32994E-05-1.42938E-06
 -1      3145 4.98184E-06 6.32993E-05-1.60241E-06
 -1      3147 4.98184E-06 6.32993E-05-1.77542E-06
 -1      3149 4.98184E-06 6.32993E-05-1.94840E-06
 -1      3151 4.98184E-06 6.32994E-05-2.12138E-06
 -1      3153 4.98184E-06 6.32994E-05-2.29435E-06
 -1      3155 4.98184E-06 6.32993E-05-2.46732E-06
 -1      3157 4.98184E-06 6.32993E-05-2.64031E-06
 -1      3159 4.98184E-06 6.32993E-05-2.81332E-06
 -1      3161 4.98184E-06 6.32994E-05-2.98635E-06
 -1      3164 0.00000E+00 6.39877E-05-1.42535E-06
 -1      3165 0.00000E+00 6.39879E-05-1.59946E-06
 -1      3166 0.00000E+00 6.39879E-05-1.77340E-06
 -1      3167 0.00000E+00 6.39878E-05-1.94723E-06
 -1      3168 0.00000E+00 6.39878E-05-2.12099E-06
 -1      3169 0.00000E+00 6.39878E-05-2.29473E-06
 -1      3170 0.00000E+00 6.39878E-05-2.46850E-06
 -1      3171 0.00000E+00 6.39879E-05-2.64233E-06
 -1      3172 0.00000E+00 6.39879E-05-2.81627E-06
 -1      3173 0.00000E+00 6.39877E-05-2.99038E-06
 -1      3174 0.00000E+00 6.45495E-05-1.42389E-06
 -1      3175 0.00000E+00 6.45496E-05-1.59842E-06
 -1      3176 0.00000E+00 6.45496E-05-1.77271E-06
 -1      3177 0.00000E+00 6.45496E-05-1.94684E-06
 -1      3178 0.00000E+00 6.45496E-05-2.12087E-06
 -1      3179 0.00000E+00 6.45496E-05-2.29486E-06
 -1      3180 0.00000E+00 6.45496E-05-2.46889E-06
 -1      3181 0.00000E+00 6.45496E-05-2.64302E-06
 -1      3182 0.00000E+00 6.45496E-05-2.81731E-06
 -1      3183 0.00000E+00 6.45495E-05-2.99184E-06
 -1      3184 0.00000E+00 6.51697E-05-1.42317E-06
 -1      3185 0.00000E+00 6.51698E-05-1.59789E-06
 -1      3186 0.00000E+00 6.51698E-05-1.77235E-06
 -1      3187 0.00000E+00 6.51698E-05-1.94662E-06
 -1      3188 0.00000E+00 6.51698E-05-2.12080E-06
 -1      3189 0.00000E+00 6.51698E-05-2.29493E-06
 -1      3190 0.00000E+00 6.51698E-05-2.46910E-06
 -1      3191 0.00000E+00 6.51698E-05-2.64338E-06
 -1      3192 0.00000E+00 6.51698E-05-2.81783E-06
 -1      3193 0.00000E+00 6.51697E-05-2.99256E-06
 -1      3194 0.00000E+00 6.58543E-05-1.42276E-06
 -1      3195 0.00000E+00 6.58543E-05-1.59761E-06
 -1      3196 0.00000E+00 6.58543E-05-1.77217E-06
 -1      3197 0.00000E+00 6.58543E-05-1.94652E-06
 -1      3198 0.00000E+00 6.58543E-05-2.12076E-06
 -1      3199 0.00000E+00 6.58543E-05-2.29496E-06
 -1      3200 0.00000E+00 6.58543E-05-2.46920E-06
 -1      3201 0.00000E+00 6.58543E-05-2.64356E-06
 -1      3202 0.00000E+00 6.58543E-05-2.81811E-06
 -1      3203 0.00000E+00 6.58543E-05-2.99297E-06
 -1      3204 0.00000E+00 6.66093E-05-1.42246E-06
 -1      3205 0.00000E+00 6.66093E-05-1.59743E-06
 -1      3206 0.00000E+00 6.66092E-05-1.77206E-06
 -1      3207 0.00000E+00 6.66092E-05-1.94646E-06
 -1      3208 0.00000E+00 6.66092E-05-2.12074E-06
 -1      3209 0.00000E+00 6.66092E-05-2.29498E-06
 -1      3210 0.00000E+00 6.66092E-05-2.46926E-06
 -1      3211 0.00000E+00 6.66092E-05-2.64367E-06
 -1      3212 0.00000E+00 6.66093E-05-2.81830E-06
 -1      3213 0.00000E+00 6.66093E-05-2.99327E-06
 -1      3214 0.00000E+00 6.74411E-05-1.42222E-06
 -1      3215 0.00000E+00 6.74411E-05-1.59728E-06
 -1      3216 0.00000E+00 6.74410E-05-1.77197E-06
 -1      3217 0.00000E+00 6.74410E-05-1.94642E-06
 -1      3218 0.00000E+00 6.74410E-05-2.12073E-06
 -1      3219 0.00000E+00 6.74410E-05-2.29500E-06
 -1      3220 0.00000E+00 6.74410E-05-2.46931E-06
 -1      3221 0.00000E+00 6.74410E-05-2.64376E-06
 -1      3222 0.00000E+00 6.74411E-05-2.81845E-06
 -1      3223 0.00000E+00 6.74411E-05-2.99351E-06
 -1      3224 0.00000E+00 6.83569E-05-1.42199E-06
 -1      3225 0.00000E+00 6.83569E-05-1.59715E-06
 -1      3226 0.00000E+00 6.83568E-05-1.77190E-06
 -1      3227 0.00000E+00 6.83568E-05-1.94638E-06
 -1      3228 0.00000E+00 6.83568E-05-2.12072E-06
 -1      3229 0.00000E+00 6.83568E-05-2.29501E-06
 -1      3230 0.00000E+00 6.83568E-05-2.46934E-06
 -1      3231 0.00000E+00 6.83568E-05-2.64383E-06
 -1      3232 0.00000E+00 6.83569E-05-2.81858E-06
 -1      3233 0.00000E+00 6.83569E-05-2.99374E-06
 -1      3234 0.00000E+00 6.93647E-05-1.42177E-06
 -1      3235 0.00000E+00 6.93646E-05-1.59702E-06
 -1      3236 0.00000E+00 6.93645E-05-1.77183E-06
 -1      3237 0.00000E+00 6.93645E-05-1.94635E-06
 -1      3238 0.00000E+00 6.93645E-05-2.12071E-06
 -1      3239 0.00000E+00 6.93645E-05-2.29502E-06
 -1      3240 0.00000E+00 6.93645E-05-2.46937E-06
 -1      3241 0.00000E+00 6.93645E-05-2.64390E-06
 -1      3242 0.00000E+00 6.93646E-05-2.81870E-06
 -1      3243 0.00000E+00 6.93647E-05-2.99396E-06
 -1      3244 0.00000E+00 7.04732E-05-1.42155E-06
 -1      3245 0.00000E+00 7.04731E-05-1.59690E-06
 -1      3246 0.00000E+00 7.04731E-05-1.77177E-06
 -1      3247 0.00000E+00 7.04731E-05-1.94632E-06
 -1      3248 0.00000E+00 7.04731E-05-2.12070E-06
 -1      3249 0.00000E+00 7.04731E-05-2.29502E-06
 -1      3250 0.00000E+00 7.04731E-05-2.46940E-06
 -1      3251 0.00000E+00 7.04731E-05-2.64396E-06
 -1      3252 0.00000E+00 7.04731E-05-2.81883E-06
 -1      3253 0.00000E+00 7.04732E-05-2.99418E-06
 -1      3254 0.00000E+00 7.16927E-05-1.42132E-06
 -1      3255 0.00000E+00 7.16926E-05-1.59678E-06
 -1      3256 0.00000E+00 7.16926E-05-1.77171E-06
 -1      3257 0.00000E+00 7.16925E-05-1.94630E-06
 -1      3258 0.00000E+00 7.16925E-05-2.12070E-06
 -1      3259 0.00000E+00 7.16925E-05-2.29503E-06
 -1      3260 0.00000E+00 7.16925E-05-2.46943E-06
 -1      3261 0.00000E+00 7.16926E-05-2.64402E-06
 -1      3262 0.00000E+00 7.16926E-05-2.81895E-06
 -1      3263 0.00000E+00 7.16927E-05-2.99441E-06
 -1      3264 0.00000E+00 7.30346E-05-1.42108E-06
 -1      3265 0.00000E+00 7.30345E-05-1.59666E-06
 -1      3266 0.00000E+00 7.30345E-05-1.77165E-06
 -1      3267 0.00000E+00 7.30344E-05-1.94628E-06
 -1      3268 0.00000E+00 7.30344E-05-2.12069E-06
 -1      3269 0.00000E+00 7.30344E-05-2.29504E-06
 -1      3270 0.00000E+00 7.30344E-05-2.46945E-06
 -1      3271 0.00000E+00 7.30345E-05-2.64407E-06
 -1      3272 0.00000E+00 7.30345E-05-2.81907E-06
 -1      3273 0.00000E+00 7.30346E-05-2.99464E-06
 -1      3274 0.00000E+00 7.45120E-05-1.42084E-06
 -1      3275 0.00000E+00 7.45119E-05-1.59654E-06
 -1      3276 0.00000E+00 7.45119E-05-1.77160E-06
 -1      3277 0.00000E+00 7.45119E-05-1.94626E-06
 -1      3278 0.00000E+00 7.45119E-05-2.12068E-06
 -1      3279 0.00000E+00 7.45119E-05-2.29504E-06
 -1      3280 0.00000E+00 7.45119E-05-2.46947E-06
 -1      3281 0.00000E+00 7.45119E-05-2.64412E-06
 -1      3282 0.00000E+00 7.45119E-05-2.81918E-06
 -1      3283 0.00000E+00 7.45120E-05-2.99489E-06
 -1      3284 0.00000E+00 7.61401E-05-1.42059E-06
 -1      3285 0.00000E+00 7.61400E-05-1.59643E-06
 -1      3286 0.00000E+00 7.61399E-05-1.77156E-06
 -1      3287 0.00000E+00 7.61399E-05-1.94624E-06
 -1      3288 0.00000E+00 7.61399E-05-2.12068E-06
 -1      3289 0.00000E+00 7.61399E-05-2.29504E-06
 -1      3290 0.00000E+00 7.61399E-05-2.46949E-06
 -1      3291 0.00000E+00 7.61399E-05-2.64417E-06
 -1      3292 0.00000E+00 7.61400E-05-2.81930E-06
 -1      3293 0.00000E+00 7.61401E-05-2.99514E-06
 -1      3294 0.00000E+00 7.79360E-05-1.42033E-06
 -1      3295 0.00000E+00 7.79359E-05-1.59632E-06
 -1      3296 0.00000E+00 7.79359E-05-1.77152E-06
 -1      3297 0.00000E+00 7.79359E-05-1.94623E-06
 -1      3298 0.00000E+00 7.79359E-05-2.12068E-06
 -1      3299 0.00000E+00 7.79359E-05-2.29505E-06
 -1      3300 0.00000E+00 7.79359E-05-2.46950E-06
 -1      3301 0.00000E+00 7.79359E-05-2.64421E-06
 -1      3302 0.00000E+00 7.79359E-05-2.81941E-06
 -1      3303 0.00000E+00 7.79360E-05-2.99539E-06
 -1      3304 0.00000E+00 7.99202E-05-1.42007E-06
 -1      3305 0.00000E+00 7.99200E-05-1.59621E-06
 -1      3306 0.00000E+00 7.99200E-05-1.77148E-06
 -1      3307 0.00000E+00 7.99200E-05-1.94623E-06
 -1      3308 0.00000E+00 7.99200E-05-2.12068E-06
 -1      3309 0.00000E+00 7.99200E-05-2.29504E-06
 -1      3310 0.00000E+00 7.99200E-05-2.46950E-06
 -1      3311 0.00000E+00 7.99200E-05-2.64424E-06
 -1      3312 0.00000E+00 7.99200E-05-2.81952E-06
 -1      3313 0.00000E+00 7.99202E-05-2.99566E-06
 -1      3314 0.00000E+00 8.21159E-05-1.41980E-06
 -1      3315 0.00000E+00 8.21158E-05-1.59611E-06
 -1      3316 0.00000E+00 8.21158E-05-1.77146E-06
 -1      3317 0.00000E+00 8.21158E-05-1.94623E-06
 -1      3318 0.00000E+00 8.21158E-05-2.12068E-06
 -1      3319 0.00000E+00 8.21158E-05-2.29504E-06
 -1      3320 0.00000E+00 8.21158E-05-2.46950E-06
 -1      3321 0.00000E+00 8.21158E-05-2.64427E-06
 -1      3322 0.00000E+00 8.21158E-05-2.81962E-06
 -1      3323 0.00000E+00 8.21159E-05-2.99593E-06
 -1      3324 0.00000E+00 8.45509E-05-1.41952E-06
 -1      3325 0.00000E+00 8.45508E-05-1.59602E-06
 -1      3326 0.00000E+00 8.45508E-05-1.77145E-06
 -1      3327 0.00000E+00 8.45508E-05-1.94624E-06
 -1      3328 0.00000E+00 8.45508E-05-2.12069E-06
 -1      3329 0.00000E+00 8.45508E-05-2.29504E-06
 -1      3330 0.00000E+00 8.45508E-05-2.46949E-06
 -1      3331 0.00000E+00 8.45508E-05-2.64428E-06
 -1      3332 0.00000E+00 8.45508E-05-2.81971E-06
 -1      3333 0.00000E+00 8.45509E-05-2.99621E-06
 -1      3334 0.00000E+00 8.72578E-05-1.41923E-06
 -1      3335 0.00000E+00 8.72576E-05-1.59594E-06
 -1      3336 0.00000E+00 8.72576E-05-1.77145E-06
 -1      3337 0.00000E+00 8.72576E-05-1.94626E-06
 -1      3338 0.00000E+00 8.72576E-05-2.12070E-06
 -1      3339 0.00000E+00 8.72576E-05-2.29503E-06
 -1      3340 0.00000E+00 8.72576E-05-2.46947E-06
 -1      3341 0.00000E+00 8.72576E-05-2.64428E-06
 -1      3342 0.00000E+00 8.72576E-05-2.81979E-06
 -1      3343 0.00000E+00 8.72578E-05-2.99649E-06
 -1      3344 0.00000E+00 9.02753E-05-1.41894E-06
 -1      3345 0.00000E+00 9.02752E-05-1.59587E-06
 -1      3346 0.00000E+00 9.02752E-05-1.77146E-06
 -1      3347 0.00000E+00 9.02752E-05-1.94629E-06
 -1      3348 0.00000E+00 9.02752E-05-2.12071E-06
 -1      3349 0.00000E+00 9.02752E-05-2.29501E-06
 -1      3350 0.00000E+00 9.02752E-05-2.46944E-06
 -1      3351 0.00000E+00 9.02752E-05-2.64427E-06
 -1      3352 0.00000E+00 9.02752E-05-2.81986E-06
 -1      3353 0.00000E+00 9.02753E-05-2.99679E-06
 -1      3354 0.00000E+00 9.36502E-05-1.41864E-06
 -1      3355 0.00000E+00 9.36501E-05-1.59581E-06
 -1      3356 0.00000E+00 9.36501E-05-1.77149E-06
 -1      3357 0.00000E+00 9.36501E-05-1.94633E-06
 -1      3358 0.00000E+00 9.36501E-05-2.12073E-06
 -1      3359 0.00000E+00 9.36501E-05-2.29500E-06
 -1      3360 0.00000E+00 9.36501E-05-2.46940E-06
 -1      3361 0.00000E+00 9.36501E-05-2.64423E-06
 -1      3362 0.00000E+00 9.36501E-05-2.81991E-06
 -1      3363 0.00000E+00 9.36502E-05-2.99708E-06
 -1      3364 0.00000E+00 9.74388E-05-1.41834E-06
 -1      3365 0.00000E+00 9.74387E-05-1.59578E-06
 -1      3366 0.00000E+00 9.74387E-05-1.77154E-06
 -1      3367 0.00000E+00 9.74387E-05-1.94638E-06
 -1      3368 0.00000E+00 9.74387E-05-2.12075E-06
 -1      3369 0.00000E+00 9.74387E-05-2.29498E-06
 -1      3370 0.00000E+00 9.74387E-05-2.46934E-06
 -1      3371 0.00000E+00 9.74387E-05-2.64418E-06
 -1      3372 0.00000E+00 9.74387E-05-2.81995E-06
 -1      3373 0.00000E+00 9.74388E-05-2.99739E-06
 -1      3374 0.00000E+00 1.01710E-04-1.41803E-06
 -1      3375 0.00000E+00 1.01710E-04-1.59577E-06
 -1      3376 0.00000E+00 1.01710E-04-1.77162E-06
 -1      3377 0.00000E+00 1.01710E-04-1.94645E-06
 -1      3378 0.00000E+00 1.01710E-04-2.12078E-06
 -1      3379 0.00000E+00 1.01710E-04-2.29495E-06
 -1      3380 0.00000E+00 1.01710E-04-2.46928E-06
 -1      3381 0.00000E+00 1.01710E-04-2.64411E-06
 -1      3382 0.00000E+00 1.01710E-04-2.81996E-06
 -1      3383 0.00000E+00 1.01710E-04-2.99769E-06
 -1      3384 0.00000E+00 1.06549E-04-1.41772E-06
 -1      3385 0.00000E+00 1.06549E-04-1.59578E-06
 -1      3386 0.00000E+00 1.06549E-04-1.77172E-06
 -1      3387 0.00000E+00 1.06549E-04-1.94653E-06
 -1      3388 0.00000E+00 1.06549E-04-2.12081E-06
 -1      3389 0.00000E+00 1.06549E-04-2.29492E-06
 -1      3390 0.00000E+00 1.06549E-04-2.46919E-06
 -1      3391 0.00000E+00 1.06549E-04-2.64401E-06
 -1      3392 0.00000E+00 1.06549E-04-2.81994E-06
 -1      3393 0.00000E+00 1.06549E-04-2.99800E-06
 -1      3394 0.00000E+00 1.12063E-04-1.41741E-06
 -1      3395 0.00000E+00 1.12063E-04-1.59583E-06
 -1      3396 0.00000E+00 1.12063E-04-1.77184E-06
 -1      3397 0.00000E+00 1.12063E-04-1.94663E-06
 -1      3398 0.00000E+00 1.12063E-04-2.12084E-06
 -1      3399 0.00000E+00 1.12063E-04-2.29488E-06
 -1      3400 0.00000E+00 1.12063E-04-2.46909E-06
 -1      3401 0.00000E+00 1.12063E-04-2.64388E-06
 -1      3402 0.00000E+00 1.12063E-04-2.81989E-06
 -1      3403 0.00000E+00 1.12063E-04-2.99832E-06
 -1      3404 0.00000E+00 1.18385E-04-1.41710E-06
 -1      3405 0.00000E+00 1.18385E-04-1.59593E-06
 -1      3406 0.00000E+00 1.18385E-04-1.77201E-06
 -1      3407 0.00000E+00 1.18386E-04-1.94675E-06
 -1      3408 0.00000E+00 1.18386E-04-2.12089E-06
 -1      3409 0.00000E+00 1.18386E-04-2.29484E-06
 -1      3410 0.00000E+00 1.18386E-04-2.46897E-06
 -1      3411 0.00000E+00 1.18385E-04-2.64372E-06
 -1      3412 0.00000E+00 1.18385E-04-2.81980E-06
 -1      3413 0.00000E+00 1.18385E-04-2.99863E-06
 -1      3414 0.00000E+00 1.25691E-04-1.41681E-06
 -1      3415 0.00000E+00 1.25691E-04-1.59608E-06
 -1      3416 0.00000E+00 1.25691E-04-1.77221E-06
 -1      3417 0.00000E+00 1.25691E-04-1.94689E-06
 -1      3418 0.00000E+00 1.25691E-04-2.12093E-06
 -1      3419 0.00000E+00 1.25691E-04-2.29479E-06
 -1      3420 0.00000E+00 1.25691E-04-2.46883E-06
 -1      3421 0.00000E+00 1.25691E-04-2.64351E-06
 -1      3422 0.00000E+00 1.25691E-04-2.81965E-06
 -1      3423 0.00000E+00 1.25691E-04-2.99892E-06
 -1      3424 0.00000E+00 1.34206E-04-1.41657E-06
 -1      3425 0.00000E+00 1.34206E-04-1.59632E-06
 -1      3426 0.00000E+00 1.34206E-04-1.77249E-06
 -1      3427 0.00000E+00 1.34206E-04-1.94708E-06
 -1      3428 0.00000E+00 1.34206E-04-2.12100E-06
 -1      3429 0.00000E+00 1.34206E-04-2.29473E-06
 -1      3430 0.00000E+00 1.34206E-04-2.46864E-06
 -1      3431 0.00000E+00 1.34206E-04-2.64323E-06
 -1      3432 0.00000E+00 1.34206E-04-2.81941E-06
 -1      3433 0.00000E+00 1.34206E-04-2.99916E-06
 -1      3434 0.00000E+00 1.44232E-04-1.41614E-06
 -1      3435 0.00000E+00 1.44232E-04-1.59669E-06
 -1      3436 0.00000E+00 1.44232E-04-1.77289E-06
 -1      3437 0.00000E+00 1.44232E-04-1.94734E-06
 -1      3438 0.00000E+00 1.44233E-04-2.12108E-06
 -1      3439 0.00000E+00 1.44233E-04-2.29464E-06
 -1      3440 0.00000E+00 1.44232E-04-2.46839E-06
 -1      3441 0.00000E+00 1.44232E-04-2.64283E-06
 -1      3442 0.00000E+00 1.44232E-04-2.81904E-06
 -1      3443 0.00000E+00 1.44232E-04-2.99958E-06
 -1      3444 0.00000E+00 1.56186E-04-1.41907E-06
 -1      3445 0.00000E+00 1.56187E-04-1.59865E-06
 -1      3446 0.00000E+00 1.56187E-04-1.77385E-06
 -1      3447 0.00000E+00 1.56188E-04-1.94772E-06
 -1      3448 0.00000E+00 1.56188E-04-2.12118E-06
 -1      3449 0.00000E+00 1.56188E-04-2.29455E-06
 -1      3450 0.00000E+00 1.56188E-04-2.46800E-06
 -1      3451 0.00000E+00 1.56187E-04-2.64188E-06
 -1      3452 0.00000E+00 1.56187E-04-2.81708E-06
 -1      3453 0.00000E+00 1.56186E-04-2.99666E-06
 -1      3454 0.00000E+00 6.39875E-05-1.33818E-06
 -1      3455 0.00000E+00 6.37275E-05-1.42627E-06
 -1      3457 0.00000E+00 6.39878E-05-1.51240E-06
 -1      3458 0.00000E+00 6.37277E-05-1.60003E-06
 -1      3460 0.00000E+00 6.39879E-05-1.68643E-06
 -1      3461 0.00000E+00 6.37277E-05-1.77373E-06
 -1      3463 0.00000E+00 6.39879E-05-1.86031E-06
 -1      3464 0.00000E+00 6.37277E-05-1.94740E-06
 -1      3466 0.00000E+00 6.39878E-05-2.03411E-06
 -1      3467 0.00000E+00 6.37276E-05-2.12104E-06
 -1      3469 0.00000E+00 6.39878E-05-2.20786E-06
 -1      3470 0.00000E+00 6.37276E-05-2.29468E-06
 -1      3472 0.00000E+00 6.39878E-05-2.38162E-06
 -1      3473 0.00000E+00 6.37277E-05-2.46833E-06
 -1      3475 0.00000E+00 6.39879E-05-2.55541E-06
 -1      3476 0.00000E+00 6.37277E-05-2.64199E-06
 -1      3478 0.00000E+00 6.39879E-05-2.72930E-06
 -1      3479 0.00000E+00 6.37277E-05-2.81570E-06
 -1      3481 0.00000E+00 6.39878E-05-2.90333E-06
 -1      3482 0.00000E+00 6.37275E-05-2.98946E-06
 -1      3484 0.00000E+00 6.39875E-05-3.07755E-06
 -1      3486 0.00000E+00 6.45494E-05-1.33646E-06
 -1      3487 0.00000E+00 6.42614E-05-1.42463E-06
 -1      3489 0.00000E+00 6.45496E-05-1.51116E-06
 -1      3490 0.00000E+00 6.42615E-05-1.59894E-06
 -1      3492 0.00000E+00 6.45496E-05-1.68557E-06
 -1      3493 0.00000E+00 6.42615E-05-1.77306E-06
 -1      3495 0.00000E+00 6.45496E-05-1.85977E-06
 -1      3496 0.00000E+00 6.42615E-05-1.94703E-06
 -1      3498 0.00000E+00 6.45496E-05-2.03385E-06
 -1      3499 0.00000E+00 6.42615E-05-2.12093E-06
 -1      3501 0.00000E+00 6.45496E-05-2.20786E-06
 -1      3502 0.00000E+00 6.42615E-05-2.29480E-06
 -1      3504 0.00000E+00 6.45496E-05-2.38188E-06
 -1      3505 0.00000E+00 6.42615E-05-2.46869E-06
 -1      3507 0.00000E+00 6.45496E-05-2.55595E-06
 -1      3508 0.00000E+00 6.42615E-05-2.64267E-06
 -1      3510 0.00000E+00 6.45496E-05-2.73016E-06
 -1      3511 0.00000E+00 6.42615E-05-2.81679E-06
 -1      3513 0.00000E+00 6.45496E-05-2.90457E-06
 -1      3514 0.00000E+00 6.42614E-05-2.99110E-06
 -1      3516 0.00000E+00 6.45494E-05-3.07926E-06
 -1      3518 0.00000E+00 6.51697E-05-1.33562E-06
 -1      3519 0.00000E+00 6.48518E-05-1.42354E-06
 -1      3521 0.00000E+00 6.51698E-05-1.51053E-06
 -1      3522 0.00000E+00 6.48518E-05-1.59816E-06
 -1      3524 0.00000E+00 6.51698E-05-1.68512E-06
 -1      3525 0.00000E+00 6.48519E-05-1.77253E-06
 -1      3527 0.00000E+00 6.51698E-05-1.85949E-06
 -1      3528 0.00000E+00 6.48519E-05-1.94673E-06
 -1      3530 0.00000E+00 6.51698E-05-2.03371E-06
 -1      3531 0.00000E+00 6.48519E-05-2.12083E-06
 -1      3533 0.00000E+00 6.51698E-05-2.20786E-06
 -1      3534 0.00000E+00 6.48519E-05-2.29490E-06
 -1      3536 0.00000E+00 6.51698E-05-2.38202E-06
 -1      3537 0.00000E+00 6.48519E-05-2.46900E-06
 -1      3539 0.00000E+00 6.51698E-05-2.55624E-06
 -1      3540 0.00000E+00 6.48519E-05-2.64320E-06
 -1      3542 0.00000E+00 6.51698E-05-2.73061E-06
 -1      3543 0.00000E+00 6.48518E-05-2.81757E-06
 -1      3545 0.00000E+00 6.51698E-05-2.90520E-06
 -1      3546 0.00000E+00 6.48518E-05-2.99219E-06
 -1      3548 0.00000E+00 6.51697E-05-3.08011E-06
 -1      3550 0.00000E+00 6.58544E-05-1.33510E-06
 -1      3551 0.00000E+00 6.55035E-05-1.42297E-06
 -1      3553 0.00000E+00 6.58543E-05-1.51018E-06
 -1      3554 0.00000E+00 6.55035E-05-1.59775E-06
 -1      3556 0.00000E+00 6.58543E-05-1.68489E-06
 -1      3557 0.00000E+00 6.55035E-05-1.77226E-06
 -1      3559 0.00000E+00 6.58543E-05-1.85935E-06
 -1      3560 0.00000E+00 6.55035E-05-1.94657E-06
 -1      3562 0.00000E+00 6.58543E-05-2.03364E-06
 -1      3563 0.00000E+00 6.55035E-05-2.12078E-06
 -1      3565 0.00000E+00 6.58543E-05-2.20786E-06
 -1      3566 0.00000E+00 6.55035E-05-2.29495E-06
 -1      3568 0.00000E+00 6.58543E-05-2.38208E-06
 -1      3569 0.00000E+00 6.55035E-05-2.46915E-06
 -1      3571 0.00000E+00 6.58543E-05-2.55638E-06
 -1      3572 0.00000E+00 6.55035E-05-2.64347E-06
 -1      3574 0.00000E+00 6.58543E-05-2.73084E-06
 -1      3575 0.00000E+00 6.55035E-05-2.81797E-06
 -1      3577 0.00000E+00 6.58543E-05-2.90554E-06
 -1      3578 0.00000E+00 6.55035E-05-2.99275E-06
 -1      3580 0.00000E+00 6.58544E-05-3.08062E-06
 -1      3582 0.00000E+00 6.66094E-05-1.33473E-06
 -1      3583 0.00000E+00 6.62226E-05-1.42262E-06
 -1      3585 0.00000E+00 6.66093E-05-1.50994E-06
 -1      3586 0.00000E+00 6.62225E-05-1.59752E-06
 -1      3588 0.00000E+00 6.66092E-05-1.68474E-06
 -1      3589 0.00000E+00 6.62225E-05-1.77211E-06
 -1      3591 0.00000E+00 6.66092E-05-1.85926E-06
 -1      3592 0.00000E+00 6.62225E-05-1.94649E-06
 -1      3594 0.00000E+00 6.66092E-05-2.03360E-06
 -1      3595 0.00000E+00 6.62225E-05-2.12075E-06
 -1      3597 0.00000E+00 6.66092E-05-2.20786E-06
 -1      3598 0.00000E+00 6.62225E-05-2.29497E-06
 -1      3600 0.00000E+00 6.66092E-05-2.38212E-06
 -1      3601 0.00000E+00 6.62225E-05-2.46923E-06
 -1      3603 0.00000E+00 6.66092E-05-2.55647E-06
 -1      3604 0.00000E+00 6.62225E-05-2.64361E-06
 -1      3606 0.00000E+00 6.66092E-05-2.73099E-06
 -1      3607 0.00000E+00 6.62225E-05-2.81820E-06
 -1      3609 0.00000E+00 6.66093E-05-2.90578E-06
 -1      3610 0.00000E+00 6.62226E-05-2.99310E-06
 -1      3612 0.00000E+00 6.66094E-05-3.08100E-06
 -1      3614 0.00000E+00 6.74412E-05-1.33441E-06
 -1      3615 0.00000E+00 6.70151E-05-1.42235E-06
 -1      3617 0.00000E+00 6.74411E-05-1.50975E-06
 -1      3618 0.00000E+00 6.70151E-05-1.59736E-06
 -1      3620 0.00000E+00 6.74411E-05-1.68462E-06
 -1      3621 0.00000E+00 6.70150E-05-1.77201E-06
 -1      3623 0.00000E+00 6.74410E-05-1.85919E-06
 -1      3624 0.00000E+00 6.70150E-05-1.94644E-06
 -1      3626 0.00000E+00 6.74410E-05-2.03357E-06
 -1      3627 0.00000E+00 6.70150E-05-2.12074E-06
 -1      3629 0.00000E+00 6.74410E-05-2.20786E-06
 -1      3630 0.00000E+00 6.70150E-05-2.29499E-06
 -1      3632 0.00000E+00 6.74410E-05-2.38215E-06
 -1      3633 0.00000E+00 6.70150E-05-2.46929E-06
 -1      3635 0.00000E+00 6.74410E-05-2.55653E-06
 -1      3636 0.00000E+00 6.70150E-05-2.64371E-06
 -1      3638 0.00000E+00 6.74411E-05-2.73110E-06
 -1      3639 0.00000E+00 6.70151E-05-2.81837E-06
 -1      3641 0.00000E+00 6.74411E-05-2.90598E-06
 -1      3642 0.00000E+00 6.70151E-05-2.99337E-06
 -1      3644 0.00000E+00 6.74412E-05-3.08132E-06
 -1      3646 0.00000E+00 6.83570E-05-1.33411E-06
 -1      3647 0.00000E+00 6.78880E-05-1.42212E-06
 -1      3649 0.00000E+00 6.83569E-05-1.50957E-06
 -1      3650 0.00000E+00 6.78879E-05-1.59722E-06
 -1      3652 0.00000E+00 6.83569E-05-1.68452E-06
 -1      3653 0.00000E+00 6.78879E-05-1.77193E-06
 -1      3655 0.00000E+00 6.83568E-05-1.85914E-06
 -1      3656 0.00000E+00 6.78879E-05-1.94640E-06
 -1      3658 0.00000E+00 6.83568E-05-2.03355E-06
 -1      3659 0.00000E+00 6.78879E-05-2.12072E-06
 -1      3661 0.00000E+00 6.83568E-05-2.20786E-06
 -1      3662 0.00000E+00 6.78879E-05-2.29500E-06
 -1      3664 0.00000E+00 6.83568E-05-2.38218E-06
 -1      3665 0.00000E+00 6.78879E-05-2.46933E-06
 -1      3667 0.00000E+00 6.83568E-05-2.55659E-06
 -1      3668 0.00000E+00 6.78879E-05-2.64379E-06
 -1      3670 0.00000E+00 6.83569E-05-2.73120E-06
 -1      3671 0.00000E+00 6.78879E-05-2.81851E-06
 -1      3673 0.00000E+00 6.83569E-05-2.90616E-06
 -1      3674 0.00000E+00 6.78880E-05-2.99361E-06
 -1      3676 0.00000E+00 6.83570E-05-3.08162E-06
 -1      3678 0.00000E+00 6.93647E-05-1.33381E-06
 -1      3679 0.00000E+00 6.88487E-05-1.42190E-06
 -1      3681 0.00000E+00 6.93646E-05-1.50940E-06
 -1      3682 0.00000E+00 6.88487E-05-1.59709E-06
 -1      3684 0.00000E+00 6.93646E-05-1.68443E-06
 -1      3685 0.00000E+00 6.88486E-05-1.77186E-06
 -1      3687 0.00000E+00 6.93645E-05-1.85909E-06
 -1      3688 0.00000E+00 6.88486E-05-1.94637E-06
 -1      3690 0.00000E+00 6.93645E-05-2.03353E-06
 -1      3691 0.00000E+00 6.88486E-05-2.12071E-06
 -1      3693 0.00000E+00 6.93645E-05-2.20786E-06
 -1      3694 0.00000E+00 6.88486E-05-2.29501E-06
 -1      3696 0.00000E+00 6.93645E-05-2.38220E-06
 -1      3697 0.00000E+00 6.88486E-05-2.46936E-06
 -1      3699 0.00000E+00 6.93645E-05-2.55664E-06
 -1      3700 0.00000E+00 6.88486E-05-2.64386E-06
 -1      3702 0.00000E+00 6.93646E-05-2.73130E-06
 -1      3703 0.00000E+00 6.88487E-05-2.81864E-06
 -1      3705 0.00000E+00 6.93646E-05-2.90633E-06
 -1      3706 0.00000E+00 6.88487E-05-2.99383E-06
 -1      3708 0.00000E+00 6.93647E-05-3.08192E-06
 -1      3710 0.00000E+00 7.04733E-05-1.33350E-06
 -1      3711 0.00000E+00 6.99057E-05-1.42168E-06
 -1      3713 0.00000E+00 7.04732E-05-1.50922E-06
 -1      3714 0.00000E+00 6.99056E-05-1.59697E-06
 -1      3716 0.00000E+00 7.04731E-05-1.68433E-06
 -1      3717 0.00000E+00 6.99056E-05-1.77180E-06
 -1      3719 0.00000E+00 7.04731E-05-1.85905E-06
 -1      3720 0.00000E+00 6.99055E-05-1.94634E-06
 -1      3722 0.00000E+00 7.04731E-05-2.03351E-06
 -1      3723 0.00000E+00 6.99055E-05-2.12071E-06
 -1      3725 0.00000E+00 7.04731E-05-2.20786E-06
 -1      3726 0.00000E+00 6.99055E-05-2.29502E-06
 -1      3728 0.00000E+00 7.04731E-05-2.38221E-06
 -1      3729 0.00000E+00 6.99055E-05-2.46939E-06
 -1      3731 0.00000E+00 7.04731E-05-2.55668E-06
 -1      3732 0.00000E+00 6.99056E-05-2.64393E-06
 -1      3734 0.00000E+00 7.04731E-05-2.73139E-06
 -1      3735 0.00000E+00 6.99056E-05-2.81876E-06
 -1      3737 0.00000E+00 7.04732E-05-2.90650E-06
 -1      3738 0.00000E+00 6.99057E-05-2.99405E-06
 -1      3740 0.00000E+00 7.04733E-05-3.08223E-06
 -1      3742 0.00000E+00 7.16928E-05-1.33317E-06
 -1      3743 0.00000E+00 7.10684E-05-1.42146E-06
 -1      3745 0.00000E+00 7.16927E-05-1.50905E-06
 -1      3746 0.00000E+00 7.10683E-05-1.59684E-06
 -1      3748 0.00000E+00 7.16926E-05-1.68424E-06
 -1      3749 0.00000E+00 7.10682E-05-1.77174E-06
 -1      3751 0.00000E+00 7.16926E-05-1.85900E-06
 -1      3752 0.00000E+00 7.10682E-05-1.94631E-06
 -1      3754 0.00000E+00 7.16925E-05-2.03350E-06
 -1      3755 0.00000E+00 7.10682E-05-2.12070E-06
 -1      3757 0.00000E+00 7.16925E-05-2.20786E-06
 -1      3758 0.00000E+00 7.10682E-05-2.29503E-06
 -1      3760 0.00000E+00 7.16925E-05-2.38223E-06
 -1      3761 0.00000E+00 7.10682E-05-2.46942E-06
 -1      3763 0.00000E+00 7.16926E-05-2.55672E-06
 -1      3764 0.00000E+00 7.10682E-05-2.64399E-06
 -1      3766 0.00000E+00 7.16926E-05-2.73148E-06
 -1      3767 0.00000E+00 7.10683E-05-2.81888E-06
 -1      3769 0.00000E+00 7.16927E-05-2.90668E-06
 -1      3770 0.00000E+00 7.10684E-05-2.99427E-06
 -1      3772 0.00000E+00 7.16928E-05-3.08255E-06
 -1      3774 0.00000E+00 7.30347E-05-1.33284E-06
 -1      3775 0.00000E+00 7.23475E-05-1.42123E-06
 -1      3777 0.00000E+00 7.30346E-05-1.50887E-06
 -1      3778 0.00000E+00 7.23474E-05-1.59673E-06
 -1      3780 0.00000E+00 7.30345E-05-1.68416E-06
 -1      3781 0.00000E+00 7.23474E-05-1.77168E-06
 -1      3783 0.00000E+00 7.30345E-05-1.85896E-06
 -1      3784 0.00000E+00 7.23474E-05-1.94629E-06
 -1      3786 0.00000E+00 7.30344E-05-2.03348E-06
 -1      3787 0.00000E+00 7.23473E-05-2.12069E-06
 -1      3789 0.00000E+00 7.30344E-05-2.20786E-06
 -1      3790 0.00000E+00 7.23473E-05-2.29503E-06
 -1      3792 0.00000E+00 7.30344E-05-2.38224E-06
 -1      3793 0.00000E+00 7.23474E-05-2.46944E-06
 -1      3795 0.00000E+00 7.30345E-05-2.55676E-06
 -1      3796 0.00000E+00 7.23474E-05-2.64404E-06
 -1      3798 0.00000E+00 7.30345E-05-2.73157E-06
 -1      3799 0.00000E+00 7.23474E-05-2.81900E-06
 -1      3801 0.00000E+00 7.30346E-05-2.90686E-06
 -1      3802 0.00000E+00 7.23475E-05-2.99450E-06
 -1      3804 0.00000E+00 7.30347E-05-3.08289E-06
 -1      3806 0.00000E+00 7.45121E-05-1.33248E-06
 -1      3807 0.00000E+00 7.37554E-05-1.42099E-06
 -1      3809 0.00000E+00 7.45120E-05-1.50869E-06
 -1      3810 0.00000E+00 7.37553E-05-1.59661E-06
 -1      3812 0.00000E+00 7.45119E-05-1.68407E-06
 -1      3813 0.00000E+00 7.37553E-05-1.77163E-06
 -1      3815 0.00000E+00 7.45119E-05-1.85893E-06
 -1      3816 0.00000E+00 7.37553E-05-1.94627E-06
 -1      3818 0.00000E+00 7.45119E-05-2.03347E-06
 -1      3819 0.00000E+00 7.37553E-05-2.12069E-06
 -1      3821 0.00000E+00 7.45119E-05-2.20786E-06
 -1      3822 0.00000E+00 7.37553E-05-2.29504E-06
 -1      3824 0.00000E+00 7.45119E-05-2.38226E-06
 -1      3825 0.00000E+00 7.37553E-05-2.46946E-06
 -1      3827 0.00000E+00 7.45119E-05-2.55680E-06
 -1      3828 0.00000E+00 7.37553E-05-2.64410E-06
 -1      3830 0.00000E+00 7.45119E-05-2.73165E-06
 -1      3831 0.00000E+00 7.37553E-05-2.81912E-06
 -1      3833 0.00000E+00 7.45120E-05-2.90704E-06
 -1      3834 0.00000E+00 7.37554E-05-2.99473E-06
 -1      3836 0.00000E+00 7.45121E-05-3.08325E-06
 -1      3838 0.00000E+00 7.61402E-05-1.33211E-06
 -1      3839 0.00000E+00 7.53061E-05-1.42075E-06
 -1      3841 0.00000E+00 7.61400E-05-1.50851E-06
 -1      3842 0.00000E+00 7.53060E-05-1.59649E-06
 -1      3844 0.00000E+00 7.61399E-05-1.68399E-06
 -1      3845 0.00000E+00 7.53060E-05-1.77158E-06
 -1      3847 0.00000E+00 7.61399E-05-1.85890E-06
 -1      3848 0.00000E+00 7.53060E-05-1.94625E-06
 -1      3850 0.00000E+00 7.61399E-05-2.03346E-06
 -1      3851 0.00000E+00 7.53060E-05-2.12068E-06
 -1      3853 0.00000E+00 7.61399E-05-2.20786E-06
 -1      3854 0.00000E+00 7.53060E-05-2.29504E-06
 -1      3856 0.00000E+00 7.61399E-05-2.38226E-06
 -1      3857 0.00000E+00 7.53060E-05-2.46948E-06
 -1      3859 0.00000E+00 7.61399E-05-2.55683E-06
 -1      3860 0.00000E+00 7.53060E-05-2.64415E-06
 -1      3862 0.00000E+00 7.61399E-05-2.73173E-06
 -1      3863 0.00000E+00 7.53060E-05-2.81923E-06
 -1      3865 0.00000E+00 7.61400E-05-2.90722E-06
 -1      3866 0.00000E+00 7.53061E-05-2.99497E-06
 -1      3868 0.00000E+00 7.61402E-05-3.08362E-06
 -1      3870 0.00000E+00 7.79362E-05-1.33171E-06
 -1      3871 0.00000E+00 7.70158E-05-1.42050E-06
 -1      3873 0.00000E+00 7.79360E-05-1.50832E-06
 -1      3874 0.00000E+00 7.70157E-05-1.59638E-06
 -1      3876 0.00000E+00 7.79359E-05-1.68392E-06
 -1      3877 0.00000E+00 7.70156E-05-1.77154E-06
 -1      3879 0.00000E+00 7.79359E-05-1.85887E-06
 -1      3880 0.00000E+00 7.70156E-05-1.94624E-06
 -1      3882 0.00000E+00 7.79359E-05-2.03346E-06
 -1      3883 0.00000E+00 7.70156E-05-2.12068E-06
 -1      3885 0.00000E+00 7.79359E-05-2.20786E-06
 -1      3886 0.00000E+00 7.70156E-05-2.29505E-06
 -1      3888 0.00000E+00 7.79359E-05-2.38227E-06
 -1      3889 0.00000E+00 7.70156E-05-2.46949E-06
 -1      3891 0.00000E+00 7.79359E-05-2.55685E-06
 -1      3892 0.00000E+00 7.70156E-05-2.64419E-06
 -1      3894 0.00000E+00 7.79359E-05-2.73181E-06
 -1      3895 0.00000E+00 7.70157E-05-2.81935E-06
 -1      3897 0.00000E+00 7.79360E-05-2.90740E-06
 -1      3898 0.00000E+00 7.70158E-05-2.99522E-06
 -1      3900 0.00000E+00 7.79362E-05-3.08402E-06
 -1      3902 0.00000E+00 7.99203E-05-1.33129E-06
 -1      3903 0.00000E+00 7.89031E-05-1.42025E-06
 -1      3905 0.00000E+00 7.99201E-05-1.50814E-06
 -1      3906 0.00000E+00 7.89030E-05-1.59627E-06
 -1      3908 0.00000E+00 7.99200E-05-1.68385E-06
 -1      3909 0.00000E+00 7.89030E-05-1.77150E-06
 -1      3911 0.00000E+00 7.99200E-05-1.85886E-06
 -1      3912 0.00000E+00 7.89029E-05-1.94623E-06
 -1      3914 0.00000E+00 7.99200E-05-2.03345E-06
 -1      3915 0.00000E+00 7.89029E-05-2.12068E-06
 -1      3917 0.00000E+00 7.99200E-05-2.20786E-06
 -1      3918 0.00000E+00 7.89029E-05-2.29505E-06
 -1      3920 0.00000E+00 7.99200E-05-2.38227E-06
 -1      3921 0.00000E+00 7.89029E-05-2.46950E-06
 -1      3923 0.00000E+00 7.99200E-05-2.55687E-06
 -1      3924 0.00000E+00 7.89030E-05-2.64422E-06
 -1      3926 0.00000E+00 7.99200E-05-2.73188E-06
 -1      3927 0.00000E+00 7.89030E-05-2.81945E-06
 -1      3929 0.00000E+00 7.99201E-05-2.90759E-06
 -1      3930 0.00000E+00 7.89031E-05-2.99548E-06
 -1      3932 0.00000E+00 7.99203E-05-3.08444E-06
 -1      3934 0.00000E+00 8.21160E-05-1.33084E-06
 -1      3935 0.00000E+00 8.09898E-05-1.41999E-06
 -1      3937 0.00000E+00 8.21158E-05-1.50795E-06
 -1      3938 0.00000E+00 8.09897E-05-1.59617E-06
 -1      3940 0.00000E+00 8.21158E-05-1.68378E-06
 -1      3941 0.00000E+00 8.09897E-05-1.77147E-06
 -1      3943 0.00000E+00 8.21158E-05-1.85884E-06
 -1      3944 0.00000E+00 8.09897E-05-1.94623E-06
 -1      3946 0.00000E+00 8.21158E-05-2.03346E-06
 -1      3947 0.00000E+00 8.09897E-05-2.12068E-06
 -1      3949 0.00000E+00 8.21158E-05-2.20786E-06
 -1      3950 0.00000E+00 8.09897E-05-2.29504E-06
 -1      3952 0.00000E+00 8.21158E-05-2.38227E-06
 -1      3953 0.00000E+00 8.09897E-05-2.46950E-06
 -1      3955 0.00000E+00 8.21158E-05-2.55688E-06
 -1      3956 0.00000E+00 8.09897E-05-2.64425E-06
 -1      3958 0.00000E+00 8.21158E-05-2.73194E-06
 -1      3959 0.00000E+00 8.09897E-05-2.81956E-06
 -1      3961 0.00000E+00 8.21158E-05-2.90777E-06
 -1      3962 0.00000E+00 8.09898E-05-2.99574E-06
 -1      3964 0.00000E+00 8.21160E-05-3.08489E-06
 -1      3966 0.00000E+00 8.45510E-05-1.33036E-06
 -1      3967 0.00000E+00 8.33015E-05-1.41973E-06
 -1      3969 0.00000E+00 8.45508E-05-1.50777E-06
 -1      3970 0.00000E+00 8.33013E-05-1.59608E-06
 -1      3972 0.00000E+00 8.45508E-05-1.68373E-06
 -1      3973 0.00000E+00 8.33013E-05-1.77146E-06
 -1      3975 0.00000E+00 8.45508E-05-1.85884E-06
 -1      3976 0.00000E+00 8.33013E-05-1.94623E-06
 -1      3978 0.00000E+00 8.45508E-05-2.03347E-06
 -1      3979 0.00000E+00 8.33013E-05-2.12069E-06
 -1      3981 0.00000E+00 8.45508E-05-2.20786E-06
 -1      3982 0.00000E+00 8.33013E-05-2.29504E-06
 -1      3984 0.00000E+00 8.45508E-05-2.38226E-06
 -1      3985 0.00000E+00 8.33013E-05-2.46949E-06
 -1      3987 0.00000E+00 8.45508E-05-2.55688E-06
 -1      3988 0.00000E+00 8.33013E-05-2.64427E-06
 -1      3990 0.00000E+00 8.45508E-05-2.73199E-06
 -1      3991 0.00000E+00 8.33013E-05-2.81965E-06
 -1      3993 0.00000E+00 8.45508E-05-2.90796E-06
 -1      3994 0.00000E+00 8.33015E-05-2.99600E-06
 -1      3996 0.00000E+00 8.45510E-05-3.08536E-06
 -1      3998 0.00000E+00 8.72579E-05-1.32985E-06
 -1      3999 0.00000E+00 8.58679E-05-1.41946E-06
 -1      4001 0.00000E+00 8.72577E-05-1.50758E-06
 -1      4002 0.00000E+00 8.58678E-05-1.59599E-06
 -1      4004 0.00000E+00 8.72576E-05-1.68369E-06
 -1      4005 0.00000E+00 8.58678E-05-1.77145E-06
 -1      4007 0.00000E+00 8.72576E-05-1.85885E-06
 -1      4008 0.00000E+00 8.58678E-05-1.94625E-06
 -1      4010 0.00000E+00 8.72576E-05-2.03348E-06
 -1      4011 0.00000E+00 8.58678E-05-2.12070E-06
 -1      4013 0.00000E+00 8.72576E-05-2.20786E-06
 -1      4014 0.00000E+00 8.58678E-05-2.29503E-06
 -1      4016 0.00000E+00 8.72576E-05-2.38225E-06
 -1      4017 0.00000E+00 8.58678E-05-2.46948E-06
 -1      4019 0.00000E+00 8.72576E-05-2.55687E-06
 -1      4020 0.00000E+00 8.58678E-05-2.64428E-06
 -1      4022 0.00000E+00 8.72576E-05-2.73204E-06
 -1      4023 0.00000E+00 8.58678E-05-2.81974E-06
 -1      4025 0.00000E+00 8.72577E-05-2.90814E-06
 -1      4026 0.00000E+00 8.58679E-05-2.99627E-06
 -1      4028 0.00000E+00 8.72579E-05-3.08587E-06
 -1      4030 0.00000E+00 9.02755E-05-1.32930E-06
 -1      4031 0.00000E+00 8.87248E-05-1.41919E-06
 -1      4033 0.00000E+00 9.02753E-05-1.50740E-06
 -1      4034 0.00000E+00 8.87247E-05-1.59592E-06
 -1      4036 0.00000E+00 9.02752E-05-1.68366E-06
 -1      4037 0.00000E+00 8.87247E-05-1.77146E-06
 -1      4039 0.00000E+00 9.02752E-05-1.85887E-06
 -1      4040 0.00000E+00 8.87247E-05-1.94627E-06
 -1      4042 0.00000E+00 9.02752E-05-2.03350E-06
 -1      4043 0.00000E+00 8.87247E-05-2.12071E-06
 -1      4045 0.00000E+00 9.02752E-05-2.20786E-06
 -1      4046 0.00000E+00 8.87247E-05-2.29502E-06
 -1      4048 0.00000E+00 9.02752E-05-2.38223E-06
 -1      4049 0.00000E+00 8.87247E-05-2.46945E-06
 -1      4051 0.00000E+00 9.02752E-05-2.55685E-06
 -1      4052 0.00000E+00 8.87247E-05-2.64427E-06
 -1      4054 0.00000E+00 9.02752E-05-2.73206E-06
 -1      4055 0.00000E+00 8.87247E-05-2.81981E-06
 -1      4057 0.00000E+00 9.02753E-05-2.90832E-06
 -1      4058 0.00000E+00 8.87248E-05-2.99654E-06
 -1      4060 0.00000E+00 9.02755E-05-3.08642E-06
 -1      4062 0.00000E+00 9.36504E-05-1.32871E-06
 -1      4063 0.00000E+00 9.19146E-05-1.41891E-06
 -1      4065 0.00000E+00 9.36501E-05-1.50723E-06
 -1      4066 0.00000E+00 9.19145E-05-1.59586E-06
 -1      4068 0.00000E+00 9.36501E-05-1.68365E-06
 -1      4069 0.00000E+00 9.19145E-05-1.77148E-06
 -1      4071 0.00000E+00 9.36501E-05-1.85891E-06
 -1      4072 0.00000E+00 9.19145E-05-1.94631E-06
 -1      4074 0.00000E+00 9.36501E-05-2.03353E-06
 -1      4075 0.00000E+00 9.19145E-05-2.12072E-06
 -1      4077 0.00000E+00 9.36501E-05-2.20786E-06
 -1      4078 0.00000E+00 9.19145E-05-2.29501E-06
 -1      4080 0.00000E+00 9.36501E-05-2.38220E-06
 -1      4081 0.00000E+00 9.19145E-05-2.46942E-06
 -1      4083 0.00000E+00 9.36501E-05-2.55682E-06
 -1      4084 0.00000E+00 9.19145E-05-2.64425E-06
 -1      4086 0.00000E+00 9.36501E-05-2.73207E-06
 -1      4087 0.00000E+00 9.19145E-05-2.81987E-06
 -1      4089 0.00000E+00 9.36501E-05-2.90850E-06
 -1      4090 0.00000E+00 9.19146E-05-2.99681E-06
 -1      4092 0.00000E+00 9.36504E-05-3.08702E-06
 -1      4094 0.00000E+00 9.74390E-05-1.32806E-06
 -1      4095 0.00000E+00 9.54886E-05-1.41864E-06
 -1      4097 0.00000E+00 9.74388E-05-1.50706E-06
 -1      4098 0.00000E+00 9.54885E-05-1.59582E-06
 -1      4100 0.00000E+00 9.74387E-05-1.68366E-06
 -1      4101 0.00000E+00 9.54885E-05-1.77152E-06
 -1      4103 0.00000E+00 9.74387E-05-1.85896E-06
 -1      4104 0.00000E+00 9.54885E-05-1.94636E-06
 -1      4106 0.00000E+00 9.74387E-05-2.03357E-06
 -1      4107 0.00000E+00 9.54885E-05-2.12074E-06
 -1      4109 0.00000E+00 9.74387E-05-2.20786E-06
 -1      4110 0.00000E+00 9.54885E-05-2.29499E-06
 -1      4112 0.00000E+00 9.74387E-05-2.38216E-06
 -1      4113 0.00000E+00 9.54885E-05-2.46937E-06
 -1      4115 0.00000E+00 9.74387E-05-2.55676E-06
 -1      4116 0.00000E+00 9.54885E-05-2.64420E-06
 -1      4118 0.00000E+00 9.74387E-05-2.73207E-06
 -1      4119 0.00000E+00 9.54885E-05-2.81990E-06
 -1      4121 0.00000E+00 9.74388E-05-2.90867E-06
 -1      4122 0.00000E+00 9.54886E-05-2.99709E-06
 -1      4124 0.00000E+00 9.74390E-05-3.08766E-06
 -1      4126 0.00000E+00 1.01710E-04-1.32736E-06
 -1      4127 0.00000E+00 9.95090E-05-1.41837E-06
 -1      4129 0.00000E+00 1.01710E-04-1.50690E-06
 -1      4130 0.00000E+00 9.95089E-05-1.59581E-06
 -1      4132 0.00000E+00 1.01710E-04-1.68369E-06
 -1      4133 0.00000E+00 9.95089E-05-1.77159E-06
 -1      4135 0.00000E+00 1.01710E-04-1.85903E-06
 -1      4136 0.00000E+00 9.95089E-05-1.94642E-06
 -1      4138 0.00000E+00 1.01710E-04-2.03361E-06
 -1      4139 0.00000E+00 9.95089E-05-2.12076E-06
 -1      4141 0.00000E+00 1.01710E-04-2.20786E-06
 -1      4142 0.00000E+00 9.95089E-05-2.29496E-06
 -1      4144 0.00000E+00 1.01710E-04-2.38211E-06
 -1      4145 0.00000E+00 9.95089E-05-2.46931E-06
 -1      4147 0.00000E+00 1.01710E-04-2.55669E-06
 -1      4148 0.00000E+00 9.95089E-05-2.64414E-06
 -1      4150 0.00000E+00 1.01710E-04-2.73203E-06
 -1      4151 0.00000E+00 9.95089E-05-2.81992E-06
 -1      4153 0.00000E+00 1.01710E-04-2.90883E-06
 -1      4154 0.00000E+00 9.95090E-05-2.99736E-06
 -1      4156 0.00000E+00 1.01710E-04-3.08837E-06
 -1      4158 0.00000E+00 1.06550E-04-1.32657E-06
 -1      4159 0.00000E+00 1.04052E-04-1.41810E-06
 -1      4161 0.00000E+00 1.06549E-04-1.50675E-06
 -1      4162 0.00000E+00 1.04052E-04-1.59582E-06
 -1      4164 0.00000E+00 1.06549E-04-1.68375E-06
 -1      4165 0.00000E+00 1.04052E-04-1.77167E-06
 -1      4167 0.00000E+00 1.06549E-04-1.85912E-06
 -1      4168 0.00000E+00 1.04052E-04-1.94649E-06
 -1      4170 0.00000E+00 1.06549E-04-2.03367E-06
 -1      4171 0.00000E+00 1.04052E-04-2.12079E-06
 -1      4173 0.00000E+00 1.06549E-04-2.20786E-06
 -1      4174 0.00000E+00 1.04052E-04-2.29493E-06
 -1      4176 0.00000E+00 1.06549E-04-2.38206E-06
 -1      4177 0.00000E+00 1.04052E-04-2.46923E-06
 -1      4179 0.00000E+00 1.06549E-04-2.55660E-06
 -1      4180 0.00000E+00 1.04052E-04-2.64405E-06
 -1      4182 0.00000E+00 1.06549E-04-2.73198E-06
 -1      4183 0.00000E+00 1.04052E-04-2.81991E-06
 -1      4185 0.00000E+00 1.06549E-04-2.90897E-06
 -1      4186 0.00000E+00 1.04052E-04-2.99762E-06
 -1      4188 0.00000E+00 1.06550E-04-3.08916E-06
 -1      4190 0.00000E+00 1.12063E-04-1.32569E-06
 -1      4191 0.00000E+00 1.09214E-04-1.41785E-06
 -1      4193 0.00000E+00 1.12063E-04-1.50662E-06
 -1      4194 0.00000E+00 1.09214E-04-1.59586E-06
 -1      4196 0.00000E+00 1.12063E-04-1.68384E-06
 -1      4197 0.00000E+00 1.09214E-04-1.77179E-06
 -1      4199 0.00000E+00 1.12063E-04-1.85924E-06
 -1      4200 0.00000E+00 1.09214E-04-1.94658E-06
 -1      4202 0.00000E+00 1.12063E-04-2.03374E-06
 -1      4203 0.00000E+00 1.09214E-04-2.12083E-06
 -1      4205 0.00000E+00 1.12063E-04-2.20786E-06
 -1      4206 0.00000E+00 1.09214E-04-2.29490E-06
 -1      4208 0.00000E+00 1.12063E-04-2.38199E-06
 -1      4209 0.00000E+00 1.09214E-04-2.46914E-06
 -1      4211 0.00000E+00 1.12063E-04-2.55649E-06
 -1      4212 0.00000E+00 1.09214E-04-2.64394E-06
 -1      4214 0.00000E+00 1.12063E-04-2.73189E-06
 -1      4215 0.00000E+00 1.09214E-04-2.81987E-06
 -1      4217 0.00000E+00 1.12063E-04-2.90910E-06
 -1      4218 0.00000E+00 1.09214E-04-2.99788E-06
 -1      4220 0.00000E+00 1.12063E-04-3.09004E-06
 -1      4222 0.00000E+00 1.18386E-04-1.32469E-06
 -1      4223 0.00000E+00 1.15113E-04-1.41762E-06
 -1      4225 0.00000E+00 1.18385E-04-1.50651E-06
 -1      4226 0.00000E+00 1.15113E-04-1.59595E-06
 -1      4228 0.00000E+00 1.18385E-04-1.68397E-06
 -1      4229 0.00000E+00 1.15113E-04-1.77194E-06
 -1      4231 0.00000E+00 1.18386E-04-1.85938E-06
 -1      4232 0.00000E+00 1.15113E-04-1.94669E-06
 -1      4234 0.00000E+00 1.18386E-04-2.03382E-06
 -1      4235 0.00000E+00 1.15113E-04-2.12086E-06
 -1      4237 0.00000E+00 1.18386E-04-2.20786E-06
 -1      4238 0.00000E+00 1.15113E-04-2.29486E-06
 -1      4240 0.00000E+00 1.18386E-04-2.38191E-06
 -1      4241 0.00000E+00 1.15113E-04-2.46903E-06
 -1      4243 0.00000E+00 1.18386E-04-2.55635E-06
 -1      4244 0.00000E+00 1.15113E-04-2.64379E-06
 -1      4246 0.00000E+00 1.18385E-04-2.73176E-06
 -1      4247 0.00000E+00 1.15113E-04-2.81978E-06
 -1      4249 0.00000E+00 1.18385E-04-2.90922E-06
 -1      4250 0.00000E+00 1.15113E-04-2.99811E-06
 -1      4252 0.00000E+00 1.18386E-04-3.09103E-06
 -1      4254 0.00000E+00 1.25691E-04-1.32354E-06
 -1      4255 0.00000E+00 1.21902E-04-1.41743E-06
 -1      4257 0.00000E+00 1.25691E-04-1.50644E-06
 -1      4258 0.00000E+00 1.21902E-04-1.59609E-06
 -1      4260 0.00000E+00 1.25691E-04-1.68415E-06
 -1      4261 0.00000E+00 1.21902E-04-1.77212E-06
 -1      4263 0.00000E+00 1.25691E-04-1.85955E-06
 -1      4264 0.00000E+00 1.21902E-04-1.94682E-06
 -1      4266 0.00000E+00 1.25691E-04-2.03391E-06
 -1      4267 0.00000E+00 1.21902E-04-2.12091E-06
 -1      4269 0.00000E+00 1.25691E-04-2.20786E-06
 -1      4270 0.00000E+00 1.21902E-04-2.29482E-06
 -1      4272 0.00000E+00 1.25691E-04-2.38181E-06
 -1      4273 0.00000E+00 1.21902E-04-2.46890E-06
 -1      4275 0.00000E+00 1.25691E-04-2.55617E-06
 -1      4276 0.00000E+00 1.21902E-04-2.64360E-06
 -1      4278 0.00000E+00 1.25691E-04-2.73158E-06
 -1      4279 0.00000E+00 1.21902E-04-2.81964E-06
 -1      4281 0.00000E+00 1.25691E-04-2.90929E-06
 -1      4282 0.00000E+00 1.21902E-04-2.99830E-06
 -1      4284 0.00000E+00 1.25691E-04-3.09218E-06
 -1      4286 0.00000E+00 1.34206E-04-1.32230E-06
 -1      4287 0.00000E+00 1.29780E-04-1.41731E-06
 -1      4289 0.00000E+00 1.34206E-04-1.50645E-06
 -1      4290 0.00000E+00 1.29780E-04-1.59631E-06
 -1      4292 0.00000E+00 1.34206E-04-1.68441E-06
 -1      4293 0.00000E+00 1.29780E-04-1.77237E-06
 -1      4295 0.00000E+00 1.34206E-04-1.85979E-06
 -1      4296 0.00000E+00 1.29780E-04-1.94699E-06
 -1      4298 0.00000E+00 1.34206E-04-2.03404E-06
 -1      4299 0.00000E+00 1.29780E-04-2.12097E-06
 -1      4301 0.00000E+00 1.34206E-04-2.20786E-06
 -1      4302 0.00000E+00 1.29780E-04-2.29476E-06
 -1      4304 0.00000E+00 1.34206E-04-2.38169E-06
 -1      4305 0.00000E+00 1.29780E-04-2.46874E-06
 -1      4307 0.00000E+00 1.34206E-04-2.55594E-06
 -1      4308 0.00000E+00 1.29780E-04-2.64336E-06
 -1      4310 0.00000E+00 1.34206E-04-2.73132E-06
 -1      4311 0.00000E+00 1.29780E-04-2.81942E-06
 -1      4313 0.00000E+00 1.34206E-04-2.90928E-06
 -1      4314 0.00000E+00 1.29780E-04-2.99842E-06
 -1      4316 0.00000E+00 1.34206E-04-3.09343E-06
 -1      4318 0.00000E+00 1.44232E-04-1.32025E-06
 -1      4319 0.00000E+00 1.39006E-04-1.41720E-06
 -1      4321 0.00000E+00 1.44232E-04-1.50642E-06
 -1      4322 0.00000E+00 1.39006E-04-1.59665E-06
 -1      4324 0.00000E+00 1.44232E-04-1.68480E-06
 -1      4325 0.00000E+00 1.39006E-04-1.77272E-06
 -1      4327 0.00000E+00 1.44232E-04-1.86012E-06
 -1      4328 0.00000E+00 1.39007E-04-1.94721E-06
 -1      4330 0.00000E+00 1.44232E-04-2.03421E-06
 -1      4331 0.00000E+00 1.39007E-04-2.12104E-06
 -1      4333 0.00000E+00 1.44233E-04-2.20786E-06
 -1      4334 0.00000E+00 1.39007E-04-2.29469E-06
 -1      4336 0.00000E+00 1.44232E-04-2.38151E-06
 -1      4337 0.00000E+00 1.39007E-04-2.46851E-06
 -1      4339 0.00000E+00 1.44232E-04-2.55560E-06
 -1      4340 0.00000E+00 1.39006E-04-2.64301E-06
 -1      4342 0.00000E+00 1.44232E-04-2.73092E-06
 -1      4343 0.00000E+00 1.39006E-04-2.81907E-06
 -1      4345 0.00000E+00 1.44232E-04-2.90931E-06
 -1      4346 0.00000E+00 1.39006E-04-2.99853E-06
 -1      4348 0.00000E+00 1.44232E-04-3.09548E-06
 -1      4350 0.00000E+00 1.56186E-04-1.32321E-06
 -1      4351 0.00000E+00 1.49936E-04-1.41883E-06
 -1      4353 0.00000E+00 1.56186E-04-1.50888E-06
 -1      4354 0.00000E+00 1.49936E-04-1.59787E-06
 -1      4356 0.00000E+00 1.56187E-04-1.68623E-06
 -1      4357 0.00000E+00 1.49937E-04-1.77346E-06
 -1      4359 0.00000E+00 1.56188E-04-1.86077E-06
 -1      4360 0.00000E+00 1.49937E-04-1.94758E-06
 -1      4362 0.00000E+00 1.56188E-04-2.03445E-06
 -1      4363 0.00000E+00 1.49937E-04-2.12115E-06
 -1      4365 0.00000E+00 1.56188E-04-2.20786E-06
 -1      4366 0.00000E+00 1.49937E-04-2.29458E-06
 -1      4368 0.00000E+00 1.56188E-04-2.38128E-06
 -1      4369 0.00000E+00 1.49937E-04-2.46815E-06
 -1      4371 0.00000E+00 1.56188E-04-2.55495E-06
 -1      4372 0.00000E+00 1.49937E-04-2.64227E-06
 -1      4374 0.00000E+00 1.56187E-04-2.72950E-06
 -1      4375 0.00000E+00 1.49936E-04-2.81785E-06
 -1      4377 0.00000E+00 1.56186E-04-2.90685E-06
 -1      4378 0.00000E+00 1.49936E-04-2.99690E-06
 -1      4380 0.00000E+00 1.56186E-04-3.09252E-06
 -1      4382 0.00000E+00 1.63070E-04-1.42334E-06
 -1      4384 0.00000E+00 1.63072E-04-1.59938E-06
 -1      4386 0.00000E+00 1.63073E-04-1.77387E-06
 -1      4388 0.00000E+00 1.63073E-04-1.94765E-06
 -1      4390 0.00000E+00 1.63073E-04-2.12115E-06
 -1      4392 0.00000E+00 1.63073E-04-2.29457E-06
 -1      4394 0.00000E+00 1.63073E-04-2.46807E-06
 -1      4396 0.00000E+00 1.63073E-04-2.64186E-06
 -1      4398 0.00000E+00 1.63072E-04-2.81635E-06
 -1      4400 0.00000E+00 1.63070E-04-2.99238E-06
 -1      4403 2.66942E-05 1.68540E-04-1.42206E-06
 -1      4404 2.66944E-05 1.68542E-04-1.59910E-06
 -1      4405 2.66946E-05 1.68543E-04-1.77382E-06
 -1      4406 2.66946E-05 1.68543E-04-1.94765E-06
 -1      4407 2.66946E-05 1.68543E-04-2.12115E-06
 -1      4408 2.66946E-05 1.68543E-04-2.29457E-06
 -1      4409 2.66946E-05 1.68543E-04-2.46808E-06
 -1      4410 2.66946E-05 1.68543E-04-2.64191E-06
 -1      4411 2.66944E-05 1.68542E-04-2.81663E-06
 -1      4412 2.66942E-05 1.68540E-04-2.99367E-06
 -1      4413 5.27310E-05 1.62289E-04-1.42206E-06
 -1      4414 5.27315E-05 1.62291E-04-1.59910E-06
 -1      4415 5.27318E-05 1.62292E-04-1.77382E-06
 -1      4416 5.27319E-05 1.62292E-04-1.94765E-06
 -1      4417 5.27319E-05 1.62292E-04-2.12115E-06
 -1      4418 5.27319E-05 1.62292E-04-2.29457E-06
 -1      4419 5.27319E-05 1.62292E-04-2.46808E-06
 -1      4420 5.27318E-05 1.62292E-04-2.64191E-06
 -1      4421 5.27315E-05 1.62291E-04-2.81663E-06
 -1      4422 5.27310E-05 1.62289E-04-2.99367E-06
 -1      4423 7.74694E-05 1.52042E-04-1.42206E-06
 -1      4424 7.74702E-05 1.52044E-04-1.59910E-06
 -1      4425 7.74706E-05 1.52045E-04-1.77382E-06
 -1      4426 7.74708E-05 1.52045E-04-1.94765E-06
 -1      4427 7.74708E-05 1.52045E-04-2.12115E-06
 -1      4428 7.74708E-05 1.52045E-04-2.29457E-06
 -1      4429 7.74708E-05 1.52045E-04-2.46808E-06
 -1      4430 7.74706E-05 1.52045E-04-2.64191E-06
 -1      4431 7.74702E-05 1.52044E-04-2.81663E-06
 -1      4432 7.74694E-05 1.52042E-04-2.99367E-06
 -1      4433 1.00300E-04 1.38052E-04-1.42206E-06
 -1      4434 1.00301E-04 1.38053E-04-1.59910E-06
 -1      4435 1.00302E-04 1.38054E-04-1.77382E-06
 -1      4436 1.00302E-04 1.38054E-04-1.94765E-06
 -1      4437 1.00302E-04 1.38054E-04-2.12115E-06
 -1      4438 1.00302E-04 1.38054E-04-2.29457E-06
 -1      4439 1.00302E-04 1.38054E-04-2.46808E-06
 -1      4440 1.00302E-04 1.38054E-04-2.64191E-06
 -1      4441 1.00301E-04 1.38053E-04-2.81663E-06
 -1      4442 1.00300E-04 1.38052E-04-2.99367E-06
 -1      4443 1.20661E-04 1.20661E-04-1.42206E-06
 -1      4444 1.20663E-04 1.20663E-04-1.59910E-06
 -1      4445 1.20663E-04 1.20663E-04-1.77382E-06
 -1      4446 1.20664E-04 1.20664E-04-1.94765E-06
 -1      4447 1.20664E-04 1.20664E-04-2.12115E-06
 -1      4448 1.20664E-04 1.20664E-04-2.29457E-06
 -1      4449 1.20664E-04 1.20664E-04-2.46808E-06
 -1      4450 1.20663E-04 1.20663E-04-2.64191E-06
 -1      4451 1.20663E-04 1.20663E-04-2.81663E-06
 -1      4452 1.20661E-04 1.20661E-04-2.99367E-06
 -1      4453 1.38052E-04 1.00300E-04-1.42206E-06
 -1      4454 1.38053E-04 1.00301E-04-1.59910E-06
 -1      4455 1.38054E-04 1.00302E-04-1.77382E-06
 -1      4456 1.38054E-04 1.00302E-04-1.94765E-06
 -1      4457 1.38054E-04 1.00302E-04-2.12115E-06
 -1      4458 1.38054E-04 1.00302E-04-2.29457E-06
 -1      4459 1.38054E-04 1.00302E-04-2.46808E-06
 -1      4460 1.38054E-04 1.00302E-04-2.64191E-06
 -1      4461 1.38053E-04 1.00301E-04-2.81663E-06
 -1      4462 1.38052E-04 1.00300E-04-2.99367E-06
 -1      4463 1.52042E-04 7.74694E-05-1.42206E-06
 -1      4464 1.52044E-04 7.74702E-05-1.59910E-06
 -1      4465 1.52045E-04 7.74706E-05-1.77382E-06
 -1      4466 1.52045E-04 7.74708E-05-1.94765E-06
 -1      4467 1.52045E-04 7.74708E-05-2.12115E-06
 -1      4468 1.52045E-04 7.74708E-05-2.29457E-06
 -1      4469 1.52045E-04 7.74708E-05-2.46808E-06
 -1      4470 1.52045E-04 7.74706E-05-2.64191E-06
 -1      4471 1.52044E-04 7.74702E-05-2.81663E-06
 -1      4472 1.52042E-04 7.74694E-05-2.99367E-06
 -1      4473 1.62289E-04 5.27310E-05-1.42206E-06
 -1      4474 1.62291E-04 5.27315E-05-1.59910E-06
 -1      4475 1.62292E-04 5.27318E-05-1.77382E-06
 -1      4476 1.62292E-04 5.27319E-05-1.94765E-06
 -1      4477 1.62292E-04 5.27319E-05-2.12115E-06
 -1      4478 1.62292E-04 5.27319E-05-2.29457E-06
 -1      4479 1.62292E-04 5.27319E-05-2.46808E-06
 -1      4480 1.62292E-04 5.27318E-05-2.64191E-06
 -1      4481 1.62291E-04 5.27315E-05-2.81663E-06
 -1      4482 1.62289E-04 5.27310E-05-2.99367E-06
 -1      4483 1.68540E-04 2.66942E-05-1.42206E-06
 -1      4484 1.68542E-04 2.66944E-05-1.59910E-06
 -1      4485 1.68543E-04 2.66946E-05-1.77382E-06
 -1      4486 1.68543E-04 2.66946E-05-1.94765E-06
 -1      4487 1.68543E-04 2.66946E-05-2.12115E-06
 -1      4488 1.68543E-04 2.66946E-05-2.29457E-06
 -1      4489 1.68543E-04 2.66946E-05-2.46808E-06
 -1      4490 1.68543E-04 2.66946E-05-2.64191E-06
 -1      4491 1.68542E-04 2.66944E-05-2.81663E-06
 -1      4492 1.68540E-04 2.66942E-05-2.99367E-06
 -1      4493 2.66939E-05 1.68539E-04-1.32979E-06
 -1      4494 1.33872E-05 1.70101E-04-1.42687E-06
 -1      4496 2.66943E-05 1.68541E-04-1.51054E-06
 -1      4497 1.33872E-05 1.70100E-04-1.60119E-06
 -1      4499 2.66945E-05 1.68542E-04-1.68648E-06
 -1      4500 1.33871E-05 1.70100E-04-1.77472E-06
 -1      4502 2.66946E-05 1.68543E-04-1.86075E-06
 -1      4503 1.33871E-05 1.70099E-04-1.94801E-06
 -1      4505 2.66946E-05 1.68543E-04-2.03441E-06
 -1      4506 1.33871E-05 1.70099E-04-2.12125E-06
 -1      4508 2.66946E-05 1.68543E-04-2.20786E-06
 -1      4509 1.33871E-05 1.70099E-04-2.29448E-06
 -1      4511 2.66946E-05 1.68543E-04-2.38132E-06
 -1      4512 1.33871E-05 1.70099E-04-2.46771E-06
 -1      4514 2.66946E-05 1.68543E-04-2.55498E-06
 -1      4515 1.33871E-05 1.70100E-04-2.64100E-06
 -1      4517 2.66945E-05 1.68542E-04-2.72925E-06
 -1      4518 1.33872E-05 1.70100E-04-2.81453E-06
 -1      4520 2.66943E-05 1.68541E-04-2.90518E-06
 -1      4521 1.33872E-05 1.70101E-04-2.98885E-06
 -1      4523 2.66939E-05 1.68539E-04-3.08594E-06
 -1      4525 5.27306E-05 1.62288E-04-1.32979E-06
 -1      4526 3.98320E-05 1.65912E-04-1.42687E-06
 -1      4528 5.27313E-05 1.62290E-04-1.51054E-06
 -1      4529 3.98318E-05 1.65912E-04-1.60119E-06
 -1      4531 5.27317E-05 1.62291E-04-1.68648E-06
 -1      4532 3.98317E-05 1.65911E-04-1.77472E-06
 -1      4534 5.27319E-05 1.62292E-04-1.86075E-06
 -1      4535 3.98317E-05 1.65911E-04-1.94801E-06
 -1      4537 5.27319E-05 1.62292E-04-2.03441E-06
 -1      4538 3.98317E-05 1.65911E-04-2.12125E-06
 -1      4540 5.27319E-05 1.62292E-04-2.20786E-06
 -1      4541 3.98317E-05 1.65911E-04-2.29448E-06
 -1      4543 5.27319E-05 1.62292E-04-2.38132E-06
 -1      4544 3.98317E-05 1.65911E-04-2.46771E-06
 -1      4546 5.27319E-05 1.62292E-04-2.55498E-06
 -1      4547 3.98317E-05 1.65911E-04-2.64100E-06
 -1      4549 5.27317E-05 1.62291E-04-2.72925E-06
 -1      4550 3.98318E-05 1.65912E-04-2.81453E-06
 -1      4552 5.27313E-05 1.62290E-04-2.90518E-06
 -1      4553 3.98320E-05 1.65912E-04-2.98885E-06
 -1      4555 5.27306E-05 1.62288E-04-3.08594E-06
 -1      4557 7.74688E-05 1.52041E-04-1.32979E-06
 -1      4558 6.52960E-05 1.57639E-04-1.42687E-06
 -1      4560 7.74699E-05 1.52043E-04-1.51054E-06
 -1      4561 6.52957E-05 1.57638E-04-1.60119E-06
 -1      4563 7.74704E-05 1.52044E-04-1.68648E-06
 -1      4564 6.52956E-05 1.57637E-04-1.77472E-06
 -1      4566 7.74707E-05 1.52045E-04-1.86075E-06
 -1      4567 6.52955E-05 1.57637E-04-1.94801E-06
 -1      4569 7.74708E-05 1.52045E-04-2.03441E-06
 -1      4570 6.52954E-05 1.57637E-04-2.12125E-06
 -1      4572 7.74708E-05 1.52045E-04-2.20786E-06
 -1      4573 6.52954E-05 1.57637E-04-2.29448E-06
 -1      4575 7.74708E-05 1.52045E-04-2.38132E-06
 -1      4576 6.52955E-05 1.57637E-04-2.46771E-06
 -1      4578 7.74707E-05 1.52045E-04-2.55498E-06
 -1      4579 6.52956E-05 1.57637E-04-2.64100E-06
 -1      4581 7.74704E-05 1.52044E-04-2.72925E-06
 -1      4582 6.52957E-05 1.57638E-04-2.81453E-06
 -1      4584 7.74699E-05 1.52043E-04-2.90518E-06
 -1      4585 6.52960E-05 1.57639E-04-2.98885E-06
 -1      4587 7.74688E-05 1.52041E-04-3.08594E-06
 -1      4589 1.00300E-04 1.38050E-04-1.32979E-06
 -1      4590 8.91523E-05 1.45483E-04-1.42687E-06
 -1      4592 1.00301E-04 1.38052E-04-1.51054E-06
 -1      4593 8.91518E-05 1.45483E-04-1.60119E-06
 -1      4595 1.00302E-04 1.38053E-04-1.68648E-06
 -1      4596 8.91516E-05 1.45482E-04-1.77472E-06
 -1      4598 1.00302E-04 1.38054E-04-1.86075E-06
 -1      4599 8.91515E-05 1.45482E-04-1.94801E-06
 -1      4601 1.00302E-04 1.38054E-04-2.03441E-06
 -1      4602 8.91514E-05 1.45482E-04-2.12125E-06
 -1      4604 1.00302E-04 1.38054E-04-2.20786E-06
 -1      4605 8.91514E-05 1.45482E-04-2.29448E-06
 -1      4607 1.00302E-04 1.38054E-04-2.38132E-06
 -1      4608 8.91515E-05 1.45482E-04-2.46771E-06
 -1      4610 1.00302E-04 1.38054E-04-2.55498E-06
 -1      4611 8.91516E-05 1.45482E-04-2.64100E-06
 -1      4613 1.00302E-04 1.38053E-04-2.72925E-06
 -1      4614 8.91518E-05 1.45483E-04-2.81453E-06
 -1      4616 1.00301E-04 1.38052E-04-2.90518E-06
 -1      4617 8.91523E-05 1.45483E-04-2.98885E-06
 -1      4619 1.00300E-04 1.38050E-04-3.08594E-06
 -1      4621 1.20661E-04 1.20661E-04-1.32979E-06
 -1      4622 1.10813E-04 1.29746E-04-1.42687E-06
 -1      4624 1.20662E-04 1.20662E-04-1.51054E-06
 -1      4625 1.10813E-04 1.29745E-04-1.60119E-06
 -1      4627 1.20663E-04 1.20663E-04-1.68648E-06
 -1      4628 1.10812E-04 1.29745E-04-1.77472E-06
 -1      4630 1.20663E-04 1.20663E-04-1.86075E-06
 -1      4631 1.10812E-04 1.29744E-04-1.94801E-06
 -1      4633 1.20664E-04 1.20664E-04-2.03441E-06
 -1      4634 1.10812E-04 1.29744E-04-2.12125E-06
 -1      4636 1.20664E-04 1.20664E-04-2.20786E-06
 -1      4637 1.10812E-04 1.29744E-04-2.29448E-06
 -1      4639 1.20664E-04 1.20664E-04-2.38132E-06
 -1      4640 1.10812E-04 1.29744E-04-2.46771E-06
 -1      4642 1.20663E-04 1.20663E-04-2.55498E-06
 -1      4643 1.10812E-04 1.29745E-04-2.64100E-06
 -1      4645 1.20663E-04 1.20663E-04-2.72925E-06
 -1      4646 1.10813E-04 1.29745E-04-2.81453E-06
 -1      4648 1.20662E-04 1.20662E-04-2.90518E-06
 -1      4649 1.10813E-04 1.29746E-04-2.98885E-06
 -1      4651 1.20661E-04 1.20661E-04-3.08594E-06
 -1      4653 1.38050E-04 1.00300E-04-1.32979E-06
 -1      4654 1.29746E-04 1.10813E-04-1.42687E-06
 -1      4656 1.38052E-04 1.00301E-04-1.51054E-06
 -1      4657 1.29745E-04 1.10813E-04-1.60119E-06
 -1      4659 1.38053E-04 1.00302E-04-1.68648E-06
 -1      4660 1.29745E-04 1.10812E-04-1.77472E-06
 -1      4662 1.38054E-04 1.00302E-04-1.86075E-06
 -1      4663 1.29744E-04 1.10812E-04-1.94801E-06
 -1      4665 1.38054E-04 1.00302E-04-2.03441E-06
 -1      4666 1.29744E-04 1.10812E-04-2.12125E-06
 -1      4668 1.38054E-04 1.00302E-04-2.20786E-06
 -1      4669 1.29744E-04 1.10812E-04-2.29448E-06
 -1      4671 1.38054E-04 1.00302E-04-2.38132E-06
 -1      4672 1.29744E-04 1.10812E-04-2.46771E-06
 -1      4674 1.38054E-04 1.00302E-04-2.55498E-06
 -1      4675 1.29745E-04 1.10812E-04-2.64100E-06
 -1      4677 1.38053E-04 1.00302E-04-2.72925E-06
 -1      4678 1.29745E-04 1.10813E-04-2.81453E-06
 -1      4680 1.38052E-04 1.00301E-04-2.90518E-06
 -1      4681 1.29746E-04 1.10813E-04-2.98885E-06
 -1      4683 1.38050E-04 1.00300E-04-3.08594E-06
 -1      4685 1.52041E-04 7.74688E-05-1.32979E-06
 -1      4686 1.45483E-04 8.91523E-05-1.42687E-06
 -1      4688 1.52043E-04 7.74699E-05-1.51054E-06
 -1      4689 1.45483E-04 8.91518E-05-1.60119E-06
 -1      4691 1.52044E-04 7.74704E-05-1.68648E-06
 -1      4692 1.45482E-04 8.91516E-05-1.77472E-06
 -1      4694 1.52045E-04 7.74707E-05-1.86075E-06
 -1      4695 1.45482E-04 8.91515E-05-1.94801E-06
 -1      4697 1.52045E-04 7.74708E-05-2.03441E-06
 -1      4698 1.45482E-04 8.91514E-05-2.12125E-06
 -1      4700 1.52045E-04 7.74708E-05-2.20786E-06
 -1      4701 1.45482E-04 8.91514E-05-2.29448E-06
 -1      4703 1.52045E-04 7.74708E-05-2.38132E-06
 -1      4704 1.45482E-04 8.91515E-05-2.46771E-06
 -1      4706 1.52045E-04 7.74707E-05-2.55498E-06
 -1      4707 1.45482E-04 8.91516E-05-2.64100E-06
 -1      4709 1.52044E-04 7.74704E-05-2.72925E-06
 -1      4710 1.45483E-04 8.91518E-05-2.81453E-06
 -1      4712 1.52043E-04 7.74699E-05-2.90518E-06
 -1      4713 1.45483E-04 8.91523E-05-2.98885E-06
 -1      4715 1.52041E-04 7.74688E-05-3.08594E-06
 -1      4717 1.62288E-04 5.27306E-05-1.32979E-06
 -1      4718 1.57639E-04 6.52960E-05-1.42687E-06
 -1      4720 1.62290E-04 5.27313E-05-1.51054E-06
 -1      4721 1.57638E-04 6.52957E-05-1.60119E-06
 -1      4723 1.62291E-04 5.27317E-05-1.68648E-06
 -1      4724 1.57637E-04 6.52956E-05-1.77472E-06
 -1      4726 1.62292E-04 5.27319E-05-1.86075E-06
 -1      4727 1.57637E-04 6.52955E-05-1.94801E-06
 -1      4729 1.62292E-04 5.27319E-05-2.03441E-06
 -1      4730 1.57637E-04 6.52954E-05-2.12125E-06
 -1      4732 1.62292E-04 5.27319E-05-2.20786E-06
 -1      4733 1.57637E-04 6.52954E-05-2.29448E-06
 -1      4735 1.62292E-04 5.27319E-05-2.38132E-06
 -1      4736 1.57637E-04 6.52955E-05-2.46771E-06
 -1      4738 1.62292E-04 5.27319E-05-2.55498E-06
 -1      4739 1.57637E-04 6.52956E-05-2.64100E-06
 -1      4741 1.62291E-04 5.27317E-05-2.72925E-06
 -1      4742 1.57638E-04 6.52957E-05-2.81453E-06
 -1      4744 1.62290E-04 5.27313E-05-2.90518E-06
 -1      4745 1.57639E-04 6.52960E-05-2.98885E-06
 -1      4747 1.62288E-04 5.27306E-05-3.08594E-06
 -1      4749 1.68539E-04 2.66939E-05-1.32979E-06
 -1      4750 1.65912E-04 3.98320E-05-1.42687E-06
 -1      4752 1.68541E-04 2.66943E-05-1.51054E-06
 -1      4753 1.65912E-04 3.98318E-05-1.60119E-06
 -1      4755 1.68542E-04 2.66945E-05-1.68648E-06
 -1      4756 1.65911E-04 3.98317E-05-1.77472E-06
 -1      4758 1.68543E-04 2.66946E-05-1.86075E-06
 -1      4759 1.65911E-04 3.98317E-05-1.94801E-06
 -1      4761 1.68543E-04 2.66946E-05-2.03441E-06
 -1      4762 1.65911E-04 3.98317E-05-2.12125E-06
 -1      4764 1.68543E-04 2.66946E-05-2.20786E-06
 -1      4765 1.65911E-04 3.98317E-05-2.29448E-06
 -1      4767 1.68543E-04 2.66946E-05-2.38132E-06
 -1      4768 1.65911E-04 3.98317E-05-2.46771E-06
 -1      4770 1.68543E-04 2.66946E-05-2.55498E-06
 -1      4771 1.65911E-04 3.98317E-05-2.64100E-06
 -1      4773 1.68542E-04 2.66945E-05-2.72925E-06
 -1      4774 1.65912E-04 3.98318E-05-2.81453E-06
 -1      4776 1.68541E-04 2.66943E-05-2.90518E-06
 -1      4777 1.65912E-04 3.98320E-05-2.98885E-06
 -1      4779 1.68539E-04 2.66939E-05-3.08594E-06
 -1      4781 1.70101E-04 1.33872E-05-1.42687E-06
 -1      4783 1.70100E-04 1.33872E-05-1.60119E-06
 -1      4785 1.70100E-04 1.33871E-05-1.77472E-06
 -1      4787 1.70099E-04 1.33871E-05-1.94801E-06
 -1      4789 1.70099E-04 1.33871E-05-2.12125E-06
 -1      4791 1.70099E-04 1.33871E-05-2.29448E-06
 -1      4793 1.70099E-04 1.33871E-05-2.46771E-06
 -1      4795 1.70100E-04 1.33871E-05-2.64100E-06
 -1      4797 1.70100E-04 1.33872E-05-2.81453E-06
 -1      4799 1.70101E-04 1.33872E-05-2.98885E-06
 -1      4802 1.54265E-04 2.44332E-05-3.18847E-06
 -1      4803 1.48543E-04 4.82647E-05-3.18847E-06
 -1      4804 1.39164E-04 7.09078E-05-3.18847E-06
 -1      4805 1.26359E-04 9.18049E-05-3.18847E-06
 -1      4806 1.10441E-04 1.10441E-04-3.18847E-06
 -1      4807 9.18049E-05 1.26359E-04-3.18847E-06
 -1      4808 7.09078E-05 1.39164E-04-3.18847E-06
 -1      4809 4.82647E-05 1.48543E-04-3.18847E-06
 -1      4810 2.44332E-05 1.54265E-04-3.18847E-06
 -1      4811 1.42457E-04 2.25630E-05-3.19135E-06
 -1      4812 1.37174E-04 4.45704E-05-3.19135E-06
 -1      4813 1.28512E-04 6.54803E-05-3.19135E-06
 -1      4814 1.16687E-04 8.47779E-05-3.19135E-06
 -1      4815 1.01988E-04 1.01988E-04-3.19135E-06
 -1      4816 8.47779E-05 1.16687E-04-3.19135E-06
 -1      4817 6.54803E-05 1.28512E-04-3.19135E-06
 -1      4818 4.45704E-05 1.37174E-04-3.19135E-06
 -1      4819 2.25630E-05 1.42457E-04-3.19135E-06
 -1      4820 1.32554E-04 2.09945E-05-3.18770E-06
 -1      4821 1.27638E-04 4.14720E-05-3.18770E-06
 -1      4822 1.19579E-04 6.09284E-05-3.18770E-06
 -1      4823 1.08575E-04 7.88845E-05-3.18770E-06
 -1      4824 9.48982E-05 9.48982E-05-3.18770E-06
 -1      4825 7.88845E-05 1.08575E-04-3.18770E-06
 -1      4826 6.09284E-05 1.19579E-04-3.18770E-06
 -1      4827 4.14720E-05 1.27638E-04-3.18770E-06
 -1      4828 2.09945E-05 1.32554E-04-3.18770E-06
 -1      4829 1.24144E-04 1.96625E-05-3.18544E-06
 -1      4830 1.19540E-04 3.88408E-05-3.18544E-06
 -1      4831 1.11992E-04 5.70627E-05-3.18544E-06
 -1      4832 1.01687E-04 7.38796E-05-3.18544E-06
 -1      4833 8.88773E-05 8.88773E-05-3.18544E-06
 -1      4834 7.38796E-05 1.01687E-04-3.18544E-06
 -1      4835 5.70627E-05 1.11992E-04-3.18544E-06
 -1      4836 3.88408E-05 1.19540E-04-3.18544E-06
 -1      4837 1.96625E-05 1.24144E-04-3.18544E-06
 -1      4838 1.16929E-04 1.85197E-05-3.18344E-06
 -1      4839 1.12592E-04 3.65833E-05-3.18344E-06
 -1      4840 1.05483E-04 5.37462E-05-3.18344E-06
 -1      4841 9.57764E-05 6.95856E-05-3.18344E-06
 -1      4842 8.37116E-05 8.37116E-05-3.18344E-06
 -1      4843 6.95856E-05 9.57764E-05-3.18344E-06
 -1      4844 5.37462E-05 1.05483E-04-3.18344E-06
 -1      4845 3.65833E-05 1.12592E-04-3.18344E-06
 -1      4846 1.85197E-05 1.16929E-04-3.18344E-06
 -1      4847 1.10684E-04 1.75306E-05-3.18176E-06
 -1      4848 1.06579E-04 3.46295E-05-3.18176E-06
 -1      4849 9.98491E-05 5.08757E-05-3.18176E-06
 -1      4850 9.06611E-05 6.58692E-05-3.18176E-06
 -1      4851 7.92407E-05 7.92407E-05-3.18176E-06
 -1      4852 6.58692E-05 9.06611E-05-3.18176E-06
 -1      4853 5.08757E-05 9.98491E-05-3.18176E-06
 -1      4854 3.46295E-05 1.06579E-04-3.18176E-06
 -1      4855 1.75306E-05 1.10684E-04-3.18176E-06
 -1      4856 1.05238E-04 1.66681E-05-3.18031E-06
 -1      4857 1.01335E-04 3.29257E-05-3.18031E-06
 -1      4858 9.49365E-05 4.83726E-05-3.18031E-06
 -1      4859 8.62006E-05 6.26284E-05-3.18031E-06
 -1      4860 7.53421E-05 7.53421E-05-3.18031E-06
 -1      4861 6.26284E-05 8.62006E-05-3.18031E-06
 -1      4862 4.83726E-05 9.49365E-05-3.18031E-06
 -1      4863 3.29257E-05 1.01335E-04-3.18031E-06
 -1      4864 1.66681E-05 1.05238E-04-3.18031E-06
 -1      4865 1.00458E-04 1.59110E-05-3.17905E-06
 -1      4866 9.67325E-05 3.14303E-05-3.17905E-06
 -1      4867 9.06248E-05 4.61756E-05-3.17905E-06
 -1      4868 8.22856E-05 5.97840E-05-3.17905E-06
 -1      4869 7.19202E-05 7.19202E-05-3.17905E-06
 -1      4870 5.97840E-05 8.22856E-05-3.17905E-06
 -1      4871 4.61756E-05 9.06248E-05-3.17905E-06
 -1      4872 3.14303E-05 9.67325E-05-3.17905E-06
 -1      4873 1.59110E-05 1.00458E-04-3.17905E-06
 -1      4874 9.62396E-05 1.52429E-05-3.17794E-06
 -1      4875 9.26702E-05 3.01104E-05-3.17794E-06
 -1      4876 8.68190E-05 4.42365E-05-3.17794E-06
 -1      4877 7.88300E-05 5.72733E-05-3.17794E-06
 -1      4878 6.88999E-05 6.88999E-05-3.17794E-06
 -1      4879 5.72733E-05 7.88300E-05-3.17794E-06
 -1      4880 4.42365E-05 8.68190E-05-3.17794E-06
 -1      4881 3.01104E-05 9.26702E-05-3.17794E-06
 -1      4882 1.52429E-05 9.62396E-05-3.17794E-06
 -1      4883 9.24976E-05 1.46502E-05-3.17695E-06
 -1      4884 8.90670E-05 2.89396E-05-3.17695E-06
 -1      4885 8.34433E-05 4.25165E-05-3.17695E-06
 -1      4886 7.57649E-05 5.50464E-05-3.17695E-06
 -1      4887 6.62210E-05 6.62210E-05-3.17695E-06
 -1      4888 5.50464E-05 7.57649E-05-3.17695E-06
 -1      4889 4.25165E-05 8.34433E-05-3.17695E-06
 -1      4890 2.89396E-05 8.90670E-05-3.17695E-06
 -1      4891 1.46502E-05 9.24976E-05-3.17695E-06
 -1      4892 8.91642E-05 1.41222E-05-3.17606E-06
 -1      4893 8.58573E-05 2.78967E-05-3.17606E-06
 -1      4894 8.04362E-05 4.09843E-05-3.17606E-06
 -1      4895 7.30345E-05 5.30627E-05-3.17606E-06
 -1      4896 6.38345E-05 6.38345E-05-3.17606E-06
 -1      4897 5.30627E-05 7.30345E-05-3.17606E-06
 -1      4898 4.09843E-05 8.04362E-05-3.17606E-06
 -1      4899 2.78967E-05 8.58573E-05-3.17606E-06
 -1      4900 1.41222E-05 8.91642E-05-3.17606E-06
 -1      4901 8.61838E-05 1.36502E-05-3.17525E-06
 -1      4902 8.29874E-05 2.69642E-05-3.17525E-06
 -1      4903 7.77475E-05 3.96143E-05-3.17525E-06
 -1      4904 7.05933E-05 5.12890E-05-3.17525E-06
 -1      4905 6.17008E-05 6.17008E-05-3.17525E-06
 -1      4906 5.12890E-05 7.05933E-05-3.17525E-06
 -1      4907 3.96143E-05 7.77475E-05-3.17525E-06
 -1      4908 2.69642E-05 8.29874E-05-3.17525E-06
 -1      4909 1.36502E-05 8.61838E-05-3.17525E-06
 -1      4910 8.35102E-05 1.32267E-05-3.17452E-06
 -1      4911 8.04130E-05 2.61278E-05-3.17452E-06
 -1      4912 7.53357E-05 3.83854E-05-3.17452E-06
 -1      4913 6.84033E-05 4.96979E-05-3.17452E-06
 -1      4914 5.97867E-05 5.97867E-05-3.17452E-06
 -1      4915 4.96979E-05 6.84033E-05-3.17452E-06
 -1      4916 3.83854E-05 7.53357E-05-3.17452E-06
 -1      4917 2.61278E-05 8.04130E-05-3.17452E-06
 -1      4918 1.32267E-05 8.35102E-05-3.17452E-06
 -1      4919 8.11052E-05 1.28458E-05-3.17384E-06
 -1      4920 7.80971E-05 2.53753E-05-3.17384E-06
 -1      4921 7.31660E-05 3.72800E-05-3.17384E-06
 -1      4922 6.64334E-05 4.82667E-05-3.17384E-06
 -1      4923 5.80649E-05 5.80649E-05-3.17384E-06
 -1      4924 4.82667E-05 6.64334E-05-3.17384E-06
 -1      4925 3.72800E-05 7.31660E-05-3.17384E-06
 -1      4926 2.53753E-05 7.80971E-05-3.17384E-06
 -1      4927 1.28458E-05 8.11052E-05-3.17384E-06
 -1      4928 7.89364E-05 1.25023E-05-3.17322E-06
 -1      4929 7.60088E-05 2.46968E-05-3.17322E-06
 -1      4930 7.12096E-05 3.62831E-05-3.17322E-06
 -1      4931 6.46570E-05 4.69760E-05-3.17322E-06
 -1      4932 5.65123E-05 5.65123E-05-3.17322E-06
 -1      4933 4.69760E-05 6.46570E-05-3.17322E-06
 -1      4934 3.62831E-05 7.12096E-05-3.17322E-06
 -1      4935 2.46968E-05 7.60088E-05-3.17322E-06
 -1      4936 1.25023E-05 7.89364E-05-3.17322E-06
 -1      4937 7.69767E-05 1.21919E-05-3.17264E-06
 -1      4938 7.41218E-05 2.40836E-05-3.17264E-06
 -1      4939 6.94417E-05 3.53823E-05-3.17264E-06
 -1      4940 6.30518E-05 4.58098E-05-3.17264E-06
 -1      4941 5.51093E-05 5.51093E-05-3.17264E-06
 -1      4942 4.58098E-05 6.30518E-05-3.17264E-06
 -1      4943 3.53823E-05 6.94417E-05-3.17264E-06
 -1      4944 2.40836E-05 7.41218E-05-3.17264E-06
 -1      4945 1.21919E-05 7.69767E-05-3.17264E-06
 -1      4946 7.52028E-05 1.19110E-05-3.17211E-06
 -1      4947 7.24137E-05 2.35286E-05-3.17211E-06
 -1      4948 6.78415E-05 3.45670E-05-3.17211E-06
 -1      4949 6.15988E-05 4.47541E-05-3.17211E-06
 -1      4950 5.38393E-05 5.38393E-05-3.17211E-06
 -1      4951 4.47541E-05 6.15988E-05-3.17211E-06
 -1      4952 3.45670E-05 6.78415E-05-3.17211E-06
 -1      4953 2.35286E-05 7.24137E-05-3.17211E-06
 -1      4954 1.19110E-05 7.52028E-05-3.17211E-06
 -1      4955 7.35949E-05 1.16563E-05-3.17161E-06
 -1      4956 7.08653E-05 2.30255E-05-3.17161E-06
 -1      4957 6.63909E-05 3.38278E-05-3.17160E-06
 -1      4958 6.02817E-05 4.37972E-05-3.17160E-06
 -1      4959 5.26881E-05 5.26881E-05-3.17160E-06
 -1      4960 4.37972E-05 6.02817E-05-3.17161E-06
 -1      4961 3.38278E-05 6.63909E-05-3.17160E-06
 -1      4962 2.30255E-05 7.08653E-05-3.17160E-06
 -1      4963 1.16563E-05 7.35949E-05-3.17161E-06
 -1      4964 7.21356E-05 1.14252E-05-3.17114E-06
 -1      4965 6.94602E-05 2.25690E-05-3.17114E-06
 -1      4966 6.50745E-05 3.31571E-05-3.17114E-06
 -1      4967 5.90864E-05 4.29288E-05-3.17114E-06
 -1      4968 5.16434E-05 5.16434E-05-3.17114E-06
 -1      4969 4.29288E-05 5.90864E-05-3.17114E-06
 -1      4970 3.31571E-05 6.50745E-05-3.17114E-06
 -1      4971 2.25690E-05 6.94602E-05-3.17114E-06
 -1      4972 1.14252E-05 7.21356E-05-3.17114E-06
 -1      4973 7.08102E-05 1.12152E-05-3.17069E-06
 -1      4974 6.81840E-05 2.21543E-05-3.17069E-06
 -1      4975 6.38788E-05 3.25479E-05-3.17069E-06
 -1      4976 5.80007E-05 4.21400E-05-3.17069E-06
 -1      4977 5.06945E-05 5.06945E-05-3.17069E-06
 -1      4978 4.21400E-05 5.80007E-05-3.17069E-06
 -1      4979 3.25479E-05 6.38788E-05-3.17069E-06
 -1      4980 2.21543E-05 6.81840E-05-3.17069E-06
 -1      4981 1.12152E-05 7.08102E-05-3.17069E-06
 -1      4982 6.96057E-05 1.10245E-05-3.17028E-06
 -1      4983 6.70242E-05 2.17775E-05-3.17028E-06
 -1      4984 6.27922E-05 3.19942E-05-3.17028E-06
 -1      4985 5.70142E-05 4.14232E-05-3.17028E-06
 -1      4986 4.98322E-05 4.98322E-05-3.17028E-06
 -1      4987 4.14232E-05 5.70142E-05-3.17028E-06
 -1      4988 3.19942E-05 6.27922E-05-3.17028E-06
 -1      4989 2.17775E-05 6.70242E-05-3.17028E-06
 -1      4990 1.10245E-05 6.96057E-05-3.17028E-06
 -1      4991 6.85108E-05 1.08510E-05-3.16988E-06
 -1      4992 6.59698E-05 2.14349E-05-3.16988E-06
 -1      4993 6.18045E-05 3.14910E-05-3.16988E-06
 -1      4994 5.61173E-05 4.07716E-05-3.16988E-06
 -1      4995 4.90483E-05 4.90483E-05-3.16988E-06
 -1      4996 4.07716E-05 5.61173E-05-3.16988E-06
 -1      4997 3.14910E-05 6.18045E-05-3.16988E-06
 -1      4998 2.14349E-05 6.59698E-05-3.16988E-06
 -1      4999 1.08510E-05 6.85108E-05-3.16988E-06
 -1      5000 6.75155E-05 1.06934E-05-3.16950E-06
 -1      5001 6.50114E-05 2.11235E-05-3.16950E-06
 -1      5002 6.09066E-05 3.10335E-05-3.16950E-06
 -1      5003 5.53020E-05 4.01793E-05-3.16950E-06
 -1      5004 4.83358E-05 4.83358E-05-3.16950E-06
 -1      5005 4.01793E-05 5.53020E-05-3.16950E-06
 -1      5006 3.10335E-05 6.09066E-05-3.16950E-06
 -1      5007 2.11235E-05 6.50114E-05-3.16950E-06
 -1      5008 1.06934E-05 6.75155E-05-3.16950E-06
 -1      5009 6.66109E-05 1.05501E-05-3.16913E-06
 -1      5010 6.41404E-05 2.08405E-05-3.16913E-06
 -1      5011 6.00906E-05 3.06177E-05-3.16913E-06
 -1      5012 5.45611E-05 3.96410E-05-3.16913E-06
 -1      5013 4.76882E-05 4.76882E-05-3.16913E-06
 -1      5014 3.96410E-05 5.45611E-05-3.16913E-06
 -1      5015 3.06177E-05 6.00906E-05-3.16913E-06
 -1      5016 2.08405E-05 6.41404E-05-3.16913E-06
 -1      5017 1.05501E-05 6.66109E-05-3.16913E-06
 -1      5018 6.57893E-05 1.04200E-05-3.16873E-06
 -1      5019 6.33493E-05 2.05834E-05-3.16873E-06
 -1      5020 5.93494E-05 3.02400E-05-3.16873E-06
 -1      5021 5.38881E-05 3.91520E-05-3.16873E-06
 -1      5022 4.71000E-05 4.71000E-05-3.16873E-06
 -1      5023 3.91520E-05 5.38881E-05-3.16873E-06
 -1      5024 3.02400E-05 5.93494E-05-3.16873E-06
 -1      5025 2.05834E-05 6.33493E-05-3.16873E-06
 -1      5026 1.04200E-05 6.57893E-05-3.16873E-06
 -1      5027 6.50436E-05 1.03019E-05-3.16828E-06
 -1      5028 6.26312E-05 2.03501E-05-3.16828E-06
 -1      5029 5.86767E-05 2.98973E-05-3.16828E-06
 -1      5030 5.32773E-05 3.87082E-05-3.16828E-06
 -1      5031 4.65661E-05 4.65661E-05-3.16828E-06
 -1      5032 3.87082E-05 5.32773E-05-3.16828E-06
 -1      5033 2.98973E-05 5.86767E-05-3.16828E-06
 -1      5034 2.03501E-05 6.26312E-05-3.16828E-06
 -1      5035 1.03019E-05 6.50436E-05-3.16828E-06
 -1      5036 6.43674E-05 1.01948E-05-3.16766E-06
 -1      5037 6.19801E-05 2.01385E-05-3.16766E-06
 -1      5038 5.80666E-05 2.95864E-05-3.16766E-06
 -1      5039 5.27234E-05 3.83058E-05-3.16766E-06
 -1      5040 4.60819E-05 4.60819E-05-3.16766E-06
 -1      5041 3.83058E-05 5.27234E-05-3.16766E-06
 -1      5042 2.95864E-05 5.80666E-05-3.16766E-06
 -1      5043 2.01385E-05 6.19801E-05-3.16766E-06
 -1      5044 1.01948E-05 6.43674E-05-3.16766E-06
 -1      5045 6.37546E-05 1.00977E-05-3.16669E-06
 -1      5046 6.13900E-05 1.99468E-05-3.16669E-06
 -1      5047 5.75138E-05 2.93048E-05-3.16669E-06
 -1      5048 5.22215E-05 3.79411E-05-3.16669E-06
 -1      5049 4.56432E-05 4.56432E-05-3.16669E-06
 -1      5050 3.79411E-05 5.22215E-05-3.16669E-06
 -1      5051 2.93048E-05 5.75138E-05-3.16669E-06
 -1      5052 1.99468E-05 6.13900E-05-3.16669E-06
 -1      5053 1.00977E-05 6.37546E-05-3.16669E-06
 -1      5054 6.31994E-05 1.00098E-05-3.16472E-06
 -1      5055 6.08555E-05 1.97731E-05-3.16472E-06
 -1      5056 5.70130E-05 2.90496E-05-3.16472E-06
 -1      5057 5.17668E-05 3.76107E-05-3.16472E-06
 -1      5058 4.52458E-05 4.52458E-05-3.16472E-06
 -1      5059 3.76107E-05 5.17668E-05-3.16472E-06
 -1      5060 2.90496E-05 5.70130E-05-3.16472E-06
 -1      5061 1.97731E-05 6.08555E-05-3.16472E-06
 -1      5062 1.00098E-05 6.31994E-05-3.16472E-06
 -1      5063 1.56137E-04 1.22883E-05-3.15358E-06
 -1      5064 1.61063E-04 2.55098E-05-3.17241E-06
 -1      5066 1.52292E-04 3.65622E-05-3.15358E-06
 -1      5067 1.55089E-04 5.03915E-05-3.17241E-06
 -1      5069 1.44698E-04 5.99358E-05-3.15358E-06
 -1      5070 1.45297E-04 7.40323E-05-3.17241E-06
 -1      5072 1.33540E-04 8.18337E-05-3.15358E-06
 -1      5073 1.31927E-04 9.58503E-05-3.17241E-06
 -1      5075 1.19095E-04 1.01716E-04-3.15358E-06
 -1      5076 1.15308E-04 1.15308E-04-3.17241E-06
 -1      5078 1.01716E-04 1.19095E-04-3.15358E-06
 -1      5079 9.58503E-05 1.31927E-04-3.17241E-06
 -1      5081 8.18337E-05 1.33540E-04-3.15358E-06
 -1      5082 7.40323E-05 1.45297E-04-3.17241E-06
 -1      5084 5.99358E-05 1.44698E-04-3.15358E-06
 -1      5085 5.03915E-05 1.55089E-04-3.17241E-06
 -1      5087 3.65622E-05 1.52292E-04-3.15358E-06
 -1      5088 2.55098E-05 1.61063E-04-3.17241E-06
 -1      5090 1.22883E-05 1.56137E-04-3.15358E-06
 -1      5092 1.44186E-04 1.13477E-05-3.15020E-06
 -1      5093 1.48092E-04 2.34554E-05-3.18315E-06
 -1      5095 1.40636E-04 3.37637E-05-3.15020E-06
 -1      5096 1.42599E-04 4.63332E-05-3.18315E-06
 -1      5098 1.33623E-04 5.53484E-05-3.15020E-06
 -1      5099 1.33595E-04 6.80702E-05-3.18315E-06
 -1      5101 1.23319E-04 7.55701E-05-3.15020E-06
 -1      5102 1.21302E-04 8.81310E-05-3.18315E-06
 -1      5104 1.09979E-04 9.39311E-05-3.15020E-06
 -1      5105 1.06022E-04 1.06022E-04-3.18315E-06
 -1      5107 9.39311E-05 1.09979E-04-3.15020E-06
 -1      5108 8.81310E-05 1.21302E-04-3.18315E-06
 -1      5110 7.55701E-05 1.23319E-04-3.15020E-06
 -1      5111 6.80702E-05 1.33595E-04-3.18315E-06
 -1      5113 5.53484E-05 1.33623E-04-3.15020E-06
 -1      5114 4.63332E-05 1.42599E-04-3.18315E-06
 -1      5116 3.37637E-05 1.40636E-04-3.15020E-06
 -1      5117 2.34554E-05 1.48092E-04-3.18315E-06
 -1      5119 1.13477E-05 1.44186E-04-3.15020E-06
 -1      5121 1.34157E-04 1.05584E-05-3.15062E-06
 -1      5122 1.37296E-04 2.17455E-05-3.18462E-06
 -1      5124 1.30854E-04 3.14152E-05-3.15062E-06
 -1      5125 1.32204E-04 4.29556E-05-3.18462E-06
 -1      5127 1.24328E-04 5.14985E-05-3.15062E-06
 -1      5128 1.23856E-04 6.31079E-05-3.18462E-06
 -1      5130 1.14742E-04 7.03137E-05-3.15062E-06
 -1      5131 1.12459E-04 8.17063E-05-3.18462E-06
 -1      5133 1.02329E-04 8.73975E-05-3.15062E-06
 -1      5134 9.82929E-05 9.82929E-05-3.18462E-06
 -1      5136 8.73975E-05 1.02329E-04-3.15062E-06
 -1      5137 8.17063E-05 1.12459E-04-3.18462E-06
 -1      5139 7.03137E-05 1.14742E-04-3.15062E-06
 -1      5140 6.31079E-05 1.23856E-04-3.18462E-06
 -1      5142 5.14985E-05 1.24328E-04-3.15062E-06
 -1      5143 4.29556E-05 1.32204E-04-3.18462E-06
 -1      5145 3.14152E-05 1.30854E-04-3.15062E-06
 -1      5146 2.17455E-05 1.37296E-04-3.18462E-06
 -1      5148 1.05584E-05 1.34157E-04-3.15062E-06
 -1      5150 1.25639E-04 9.88803E-06-3.15075E-06
 -1      5151 1.28182E-04 2.03021E-05-3.18299E-06
 -1      5153 1.22546E-04 2.94206E-05-3.15075E-06
 -1      5154 1.23428E-04 4.01043E-05-3.18299E-06
 -1      5156 1.16435E-04 4.82288E-05-3.15075E-06
 -1      5157 1.15635E-04 5.89190E-05-3.18299E-06
 -1      5159 1.07456E-04 6.58494E-05-3.15075E-06
 -1      5160 1.04994E-04 7.62829E-05-3.18299E-06
 -1      5162 9.58324E-05 8.18486E-05-3.15075E-06
 -1      5163 9.17685E-05 9.17685E-05-3.18299E-06
 -1      5165 8.18486E-05 9.58324E-05-3.15075E-06
 -1      5166 7.62829E-05 1.04994E-04-3.18299E-06
 -1      5168 6.58494E-05 1.07456E-04-3.15075E-06
 -1      5169 5.89190E-05 1.15635E-04-3.18299E-06
 -1      5171 4.82288E-05 1.16435E-04-3.15075E-06
 -1      5172 4.01043E-05 1.23428E-04-3.18299E-06
 -1      5174 2.94206E-05 1.22546E-04-3.15075E-06
 -1      5175 2.03021E-05 1.28182E-04-3.18299E-06
 -1      5177 9.88803E-06 1.25639E-04-3.15075E-06
 -1      5179 1.18331E-04 9.31284E-06-3.15102E-06
 -1      5180 1.20402E-04 1.90698E-05-3.18175E-06
 -1      5182 1.15417E-04 2.77092E-05-3.15102E-06
 -1      5183 1.15936E-04 3.76700E-05-3.18175E-06
 -1      5185 1.09662E-04 4.54233E-05-3.15102E-06
 -1      5186 1.08616E-04 5.53427E-05-3.18175E-06
 -1      5188 1.01206E-04 6.20189E-05-3.15102E-06
 -1      5189 9.86214E-05 7.16526E-05-3.18175E-06
 -1      5191 9.02578E-05 7.70874E-05-3.15102E-06
 -1      5192 8.61982E-05 8.61982E-05-3.18175E-06
 -1      5194 7.70874E-05 9.02578E-05-3.15102E-06
 -1      5195 7.16526E-05 9.86214E-05-3.18175E-06
 -1      5197 6.20189E-05 1.01206E-04-3.15102E-06
 -1      5198 5.53427E-05 1.08616E-04-3.18175E-06
 -1      5200 4.54233E-05 1.09662E-04-3.15102E-06
 -1      5201 3.76700E-05 1.15936E-04-3.18175E-06
 -1      5203 2.77092E-05 1.15417E-04-3.15102E-06
 -1      5204 1.90698E-05 1.20402E-04-3.18175E-06
 -1      5206 9.31284E-06 1.18331E-04-3.15102E-06
 -1      5208 1.12005E-04 8.81499E-06-3.15133E-06
 -1      5209 1.13696E-04 1.80077E-05-3.18054E-06
 -1      5211 1.09247E-04 2.62279E-05-3.15133E-06
 -1      5212 1.09479E-04 3.55720E-05-3.18054E-06
 -1      5214 1.03799E-04 4.29950E-05-3.15133E-06
 -1      5215 1.02567E-04 5.22604E-05-3.18054E-06
 -1      5217 9.57953E-05 5.87034E-05-3.15133E-06
 -1      5218 9.31286E-05 6.76619E-05-3.18054E-06
 -1      5220 8.54326E-05 7.29664E-05-3.15133E-06
 -1      5221 8.13974E-05 8.13974E-05-3.18054E-06
 -1      5223 7.29664E-05 8.54326E-05-3.15133E-06
 -1      5224 6.76619E-05 9.31286E-05-3.18054E-06
 -1      5226 5.87034E-05 9.57953E-05-3.15133E-06
 -1      5227 5.22604E-05 1.02567E-04-3.18054E-06
 -1      5229 4.29950E-05 1.03799E-04-3.15133E-06
 -1      5230 3.55720E-05 1.09479E-04-3.18054E-06
 -1      5232 2.62279E-05 1.09247E-04-3.15133E-06
 -1      5233 1.80077E-05 1.13696E-04-3.18054E-06
 -1      5235 8.81499E-06 1.12005E-04-3.15133E-06
 -1      5237 1.06488E-04 8.38081E-06-3.15165E-06
 -1      5238 1.07870E-04 1.70849E-05-3.17943E-06
 -1      5240 1.03866E-04 2.49361E-05-3.15165E-06
 -1      5241 1.03869E-04 3.37490E-05-3.17943E-06
 -1      5243 9.86866E-05 4.08773E-05-3.15165E-06
 -1      5244 9.73106E-05 4.95822E-05-3.17943E-06
 -1      5246 9.10770E-05 5.58120E-05-3.15165E-06
 -1      5247 8.83562E-05 6.41945E-05-3.17943E-06
 -1      5249 8.12247E-05 6.93725E-05-3.15165E-06
 -1      5250 7.72261E-05 7.72261E-05-3.17943E-06
 -1      5252 6.93725E-05 8.12247E-05-3.15165E-06
 -1      5253 6.41945E-05 8.83562E-05-3.17943E-06
 -1      5255 5.58120E-05 9.10770E-05-3.15165E-06
 -1      5256 4.95822E-05 9.73106E-05-3.17943E-06
 -1      5258 4.08773E-05 9.86866E-05-3.15165E-06
 -1      5259 3.37490E-05 1.03869E-04-3.17943E-06
 -1      5261 2.49361E-05 1.03866E-04-3.15165E-06
 -1      5262 1.70849E-05 1.07870E-04-3.17943E-06
 -1      5264 8.38081E-06 1.06488E-04-3.15165E-06
 -1      5266 1.01646E-04 7.99971E-06-3.15199E-06
 -1      5267 1.02772E-04 1.62774E-05-3.17841E-06
 -1      5269 9.91430E-05 2.38021E-05-3.15199E-06
 -1      5270 9.89601E-05 3.21541E-05-3.17841E-06
 -1      5272 9.41989E-05 3.90185E-05-3.15199E-06
 -1      5273 9.27117E-05 4.72390E-05-3.17841E-06
 -1      5275 8.69354E-05 5.32741E-05-3.15199E-06
 -1      5276 8.41805E-05 6.11607E-05-3.17841E-06
 -1      5278 7.75311E-05 6.62178E-05-3.15199E-06
 -1      5279 7.35764E-05 7.35764E-05-3.17841E-06
 -1      5281 6.62178E-05 7.75311E-05-3.15199E-06
 -1      5282 6.11607E-05 8.41805E-05-3.17841E-06
 -1      5284 5.32741E-05 8.69354E-05-3.15199E-06
 -1      5285 4.72390E-05 9.27117E-05-3.17841E-06
 -1      5287 3.90185E-05 9.41989E-05-3.15199E-06
 -1      5288 3.21541E-05 9.89601E-05-3.17841E-06
 -1      5290 2.38021E-05 9.91430E-05-3.15199E-06
 -1      5291 1.62774E-05 1.02772E-04-3.17841E-06
 -1      5293 7.99971E-06 1.01646E-04-3.15199E-06
 -1      5295 9.73713E-05 7.66329E-06-3.15232E-06
 -1      5296 9.82843E-05 1.55667E-05-3.17748E-06
 -1      5298 9.49737E-05 2.28012E-05-3.15232E-06
 -1      5299 9.46391E-05 3.07501E-05-3.17748E-06
 -1      5301 9.02376E-05 3.73776E-05-3.15232E-06
 -1      5302 8.86635E-05 4.51763E-05-3.17748E-06
 -1      5304 8.32794E-05 5.10337E-05-3.15232E-06
 -1      5305 8.05048E-05 5.84902E-05-3.17748E-06
 -1      5307 7.42707E-05 6.34332E-05-3.15232E-06
 -1      5308 7.03638E-05 7.03638E-05-3.17748E-06
 -1      5310 6.34332E-05 7.42707E-05-3.15232E-06
 -1      5311 5.84902E-05 8.05048E-05-3.17748E-06
 -1      5313 5.10337E-05 8.32794E-05-3.15232E-06
 -1      5314 4.51763E-05 8.86635E-05-3.17748E-06
 -1      5316 3.73776E-05 9.02376E-05-3.15232E-06
 -1      5317 3.07501E-05 9.46391E-05-3.17748E-06
 -1      5319 2.28012E-05 9.49737E-05-3.15232E-06
 -1      5320 1.55667E-05 9.82843E-05-3.17748E-06
 -1      5322 7.66329E-06 9.73713E-05-3.15232E-06
 -1      5324 9.35794E-05 7.36486E-06-3.15265E-06
 -1      5325 9.43133E-05 1.49378E-05-3.17662E-06
 -1      5327 9.12752E-05 2.19132E-05-3.15265E-06
 -1      5328 9.08154E-05 2.95077E-05-3.17662E-06
 -1      5330 8.67235E-05 3.59220E-05-3.15265E-06
 -1      5331 8.50813E-05 4.33511E-05-3.17662E-06
 -1      5333 8.00363E-05 4.90463E-05-3.15265E-06
 -1      5334 7.72522E-05 5.61270E-05-3.17662E-06
 -1      5336 7.13784E-05 6.09629E-05-3.15265E-06
 -1      5337 6.75209E-05 6.75209E-05-3.17662E-06
 -1      5339 6.09629E-05 7.13784E-05-3.15265E-06
 -1      5340 5.61270E-05 7.72522E-05-3.17662E-06
 -1      5342 4.90463E-05 8.00363E-05-3.15265E-06
 -1      5343 4.33511E-05 8.50813E-05-3.17662E-06
 -1      5345 3.59220E-05 8.67235E-05-3.15265E-06
 -1      5346 2.95077E-05 9.08154E-05-3.17662E-06
 -1      5348 2.19132E-05 9.12752E-05-3.15265E-06
 -1      5349 1.49378E-05 9.43133E-05-3.17662E-06
 -1      5351 7.36486E-06 9.35794E-05-3.15265E-06
 -1      5353 9.02013E-05 7.09899E-06-3.15296E-06
 -1      5354 9.07834E-05 1.43787E-05-3.17583E-06
 -1      5356 8.79802E-05 2.11222E-05-3.15296E-06
 -1      5357 8.74164E-05 2.84033E-05-3.17583E-06
 -1      5359 8.35928E-05 3.46253E-05-3.15296E-06
 -1      5360 8.18969E-05 4.17285E-05-3.17583E-06
 -1      5362 7.71470E-05 4.72758E-05-3.15296E-06
 -1      5363 7.43608E-05 5.40263E-05-3.17583E-06
 -1      5365 6.88017E-05 5.87622E-05-3.15296E-06
 -1      5366 6.49937E-05 6.49937E-05-3.17583E-06
 -1      5368 5.87622E-05 6.88017E-05-3.15296E-06
 -1      5369 5.40263E-05 7.43608E-05-3.17583E-06
 -1      5371 4.72758E-05 7.71470E-05-3.15296E-06
 -1      5372 4.17285E-05 8.18969E-05-3.17583E-06
 -1      5374 3.46253E-05 8.35928E-05-3.15296E-06
 -1      5375 2.84033E-05 8.74164E-05-3.17583E-06
 -1      5377 2.11222E-05 8.79802E-05-3.15296E-06
 -1      5378 1.43787E-05 9.07834E-05-3.17583E-06
 -1      5380 7.09899E-06 9.02013E-05-3.15296E-06
 -1      5382 8.71804E-05 6.86125E-06-3.15326E-06
 -1      5383 8.76328E-05 1.38797E-05-3.17510E-06
 -1      5385 8.50337E-05 2.04148E-05-3.15326E-06
 -1      5386 8.43826E-05 2.74176E-05-3.17510E-06
 -1      5388 8.07932E-05 3.34657E-05-3.15326E-06
 -1      5389 7.90547E-05 4.02804E-05-3.17510E-06
 -1      5391 7.45634E-05 4.56925E-05-3.15326E-06
 -1      5392 7.17802E-05 5.21513E-05-3.17510E-06
 -1      5394 6.64975E-05 5.67942E-05-3.15326E-06
 -1      5395 6.27382E-05 6.27382E-05-3.17510E-06
 -1      5397 5.67942E-05 6.64975E-05-3.15326E-06
 -1      5398 5.21513E-05 7.17802E-05-3.17510E-06
 -1      5400 4.56925E-05 7.45634E-05-3.15326E-06
 -1      5401 4.02804E-05 7.90547E-05-3.17510E-06
 -1      5403 3.34657E-05 8.07932E-05-3.15326E-06
 -1      5404 2.74176E-05 8.43826E-05-3.17510E-06
 -1      5406 2.04148E-05 8.50337E-05-3.15326E-06
 -1      5407 1.38797E-05 8.76328E-05-3.17510E-06
 -1      5409 6.86125E-06 8.71804E-05-3.15326E-06
 -1      5411 8.44702E-05 6.64795E-06-3.15354E-06
 -1      5412 8.48110E-05 1.34328E-05-3.17443E-06
 -1      5414 8.23903E-05 1.97802E-05-3.15354E-06
 -1      5415 8.16655E-05 2.65347E-05-3.17443E-06
 -1      5417 7.82816E-05 3.24253E-05-3.15354E-06
 -1      5418 7.65091E-05 3.89834E-05-3.17443E-06
 -1      5420 7.22454E-05 4.42720E-05-3.15354E-06
 -1      5421 6.94689E-05 5.04721E-05-3.17443E-06
 -1      5423 6.44303E-05 5.50287E-05-3.15354E-06
 -1      5424 6.07180E-05 6.07180E-05-3.17443E-06
 -1      5426 5.50287E-05 6.44303E-05-3.15354E-06
 -1      5427 5.04721E-05 6.94689E-05-3.17443E-06
 -1      5429 4.42720E-05 7.22454E-05-3.15354E-06
 -1      5430 3.89834E-05 7.65092E-05-3.17443E-06
 -1      5432 3.24253E-05 7.82816E-05-3.15354E-06
 -1      5433 2.65347E-05 8.16655E-05-3.17443E-06
 -1      5435 1.97802E-05 8.23903E-05-3.15354E-06
 -1      5436 1.34328E-05 8.48110E-05-3.17443E-06
 -1      5438 6.64795E-06 8.44702E-05-3.15354E-06
 -1      5440 8.20319E-05 6.45605E-06-3.15381E-06
 -1      5441 8.22761E-05 1.30313E-05-3.17379E-06
 -1      5443 8.00120E-05 1.92092E-05-3.15381E-06
 -1      5444 7.92247E-05 2.57417E-05-3.17379E-06
 -1      5446 7.60219E-05 3.14893E-05-3.15381E-06
 -1      5447 7.42224E-05 3.78182E-05-3.17379E-06
 -1      5449 7.01600E-05 4.29941E-05-3.15381E-06
 -1      5450 6.73925E-05 4.89635E-05-3.17379E-06
 -1      5452 6.25704E-05 5.34402E-05-3.15381E-06
 -1      5453 5.89032E-05 5.89032E-05-3.17379E-06
 -1      5455 5.34402E-05 6.25704E-05-3.15381E-06
 -1      5456 4.89635E-05 6.73925E-05-3.17379E-06
 -1      5458 4.29941E-05 7.01600E-05-3.15381E-06
 -1      5459 3.78182E-05 7.42224E-05-3.17379E-06
 -1      5461 3.14893E-05 7.60219E-05-3.15381E-06
 -1      5462 2.57416E-05 7.92247E-05-3.17379E-06
 -1      5464 1.92092E-05 8.00120E-05-3.15381E-06
 -1      5465 1.30313E-05 8.22761E-05-3.17379E-06
 -1      5467 6.45605E-06 8.20319E-05-3.15381E-06
 -1      5469 7.98328E-05 6.28298E-06-3.15407E-06
 -1      5470 7.99930E-05 1.26696E-05-3.17320E-06
 -1      5472 7.78671E-05 1.86942E-05-3.15407E-06
 -1      5473 7.70262E-05 2.50273E-05-3.17320E-06
 -1      5475 7.39840E-05 3.06452E-05-3.15407E-06
 -1      5476 7.21627E-05 3.67687E-05-3.17320E-06
 -1      5478 6.82792E-05 4.18415E-05-3.15407E-06
 -1      5479 6.55224E-05 4.76048E-05-3.17320E-06
 -1      5481 6.08931E-05 5.20076E-05-3.15407E-06
 -1      5482 5.72686E-05 5.72686E-05-3.17320E-06
 -1      5484 5.20076E-05 6.08931E-05-3.15407E-06
 -1      5485 4.76048E-05 6.55224E-05-3.17320E-06
 -1      5487 4.18415E-05 6.82792E-05-3.15407E-06
 -1      5488 3.67687E-05 7.21627E-05-3.17320E-06
 -1      5490 3.06452E-05 7.39840E-05-3.15407E-06
 -1      5491 2.50273E-05 7.70262E-05-3.17320E-06
 -1      5493 1.86942E-05 7.78671E-05-3.15407E-06
 -1      5494 1.26696E-05 7.99930E-05-3.17320E-06
 -1      5496 6.28298E-06 7.98328E-05-3.15407E-06
 -1      5498 7.78454E-05 6.12656E-06-3.15431E-06
 -1      5499 7.79319E-05 1.23432E-05-3.17265E-06
 -1      5501 7.59286E-05 1.82288E-05-3.15431E-06
 -1      5502 7.50415E-05 2.43825E-05-3.17265E-06
 -1      5504 7.21421E-05 2.98823E-05-3.15431E-06
 -1      5505 7.03034E-05 3.58214E-05-3.17265E-06
 -1      5507 6.65793E-05 4.07999E-05-3.15431E-06
 -1      5508 6.38341E-05 4.63782E-05-3.17265E-06
 -1      5510 5.93771E-05 5.07129E-05-3.15431E-06
 -1      5511 5.57931E-05 5.57931E-05-3.17265E-06
 -1      5513 5.07129E-05 5.93771E-05-3.15431E-06
 -1      5514 4.63782E-05 6.38341E-05-3.17265E-06
 -1      5516 4.07999E-05 6.65793E-05-3.15431E-06
 -1      5517 3.58214E-05 7.03034E-05-3.17265E-06
 -1      5519 2.98823E-05 7.21421E-05-3.15431E-06
 -1      5520 2.43825E-05 7.50415E-05-3.17265E-06
 -1      5522 1.82288E-05 7.59286E-05-3.15431E-06
 -1      5523 1.23432E-05 7.79319E-05-3.17265E-06
 -1      5525 6.12656E-06 7.78454E-05-3.15431E-06
 -1      5527 7.60460E-05 5.98495E-06-3.15454E-06
 -1      5528 7.60678E-05 1.20480E-05-3.17214E-06
 -1      5530 7.41735E-05 1.78075E-05-3.15454E-06
 -1      5531 7.32466E-05 2.37992E-05-3.17214E-06
 -1      5533 7.04746E-05 2.91915E-05-3.15454E-06
 -1      5534 6.86217E-05 3.49645E-05-3.17214E-06
 -1      5536 6.50404E-05 3.98568E-05-3.15454E-06
 -1      5537 6.23072E-05 4.52689E-05-3.17214E-06
 -1      5539 5.80047E-05 4.95407E-05-3.15454E-06
 -1      5540 5.44585E-05 5.44585E-05-3.17214E-06
 -1      5542 4.95407E-05 5.80047E-05-3.15454E-06
 -1      5543 4.52689E-05 6.23072E-05-3.17214E-06
 -1      5545 3.98568E-05 6.50404E-05-3.15454E-06
 -1      5546 3.49645E-05 6.86217E-05-3.17214E-06
 -1      5548 2.91915E-05 7.04746E-05-3.15454E-06
 -1      5549 2.37992E-05 7.32466E-05-3.17214E-06
 -1      5551 1.78075E-05 7.41735E-05-3.15454E-06
 -1      5552 1.20480E-05 7.60678E-05-3.17214E-06
 -1      5554 5.98495E-06 7.60460E-05-3.15454E-06
 -1      5556 7.44147E-05 5.85656E-06-3.15476E-06
 -1      5557 7.43792E-05 1.17805E-05-3.17165E-06
 -1      5559 7.25823E-05 1.74255E-05-3.15476E-06
 -1      5560 7.16206E-05 2.32709E-05-3.17165E-06
 -1      5562 6.89628E-05 2.85653E-05-3.15476E-06
 -1      5563 6.70984E-05 3.41883E-05-3.17165E-06
 -1      5565 6.36451E-05 3.90018E-05-3.15476E-06
 -1      5566 6.09241E-05 4.42639E-05-3.17165E-06
 -1      5568 5.67603E-05 4.84779E-05-3.15476E-06
 -1      5569 5.32496E-05 5.32496E-05-3.17165E-06
 -1      5571 4.84779E-05 5.67603E-05-3.15476E-06
 -1      5572 4.42639E-05 6.09241E-05-3.17165E-06
 -1      5574 3.90018E-05 6.36451E-05-3.15476E-06
 -1      5575 3.41883E-05 6.70984E-05-3.17165E-06
 -1      5577 2.85653E-05 6.89628E-05-3.15476E-06
 -1      5578 2.32709E-05 7.16206E-05-3.17165E-06
 -1      5580 1.74255E-05 7.25823E-05-3.15476E-06
 -1      5581 1.17805E-05 7.43792E-05-3.17165E-06
 -1      5583 5.85656E-06 7.44147E-05-3.15476E-06
 -1      5585 7.29339E-05 5.74002E-06-3.15497E-06
 -1      5586 7.28475E-05 1.15379E-05-3.17119E-06
 -1      5588 7.11380E-05 1.70787E-05-3.15497E-06
 -1      5589 7.01457E-05 2.27917E-05-3.17119E-06
 -1      5591 6.75905E-05 2.79969E-05-3.15497E-06
 -1      5592 6.57167E-05 3.34843E-05-3.17119E-06
 -1      5594 6.23787E-05 3.82257E-05-3.15497E-06
 -1      5595 5.96695E-05 4.33525E-05-3.17119E-06
 -1      5597 5.56309E-05 4.75132E-05-3.15497E-06
 -1      5598 5.21531E-05 5.21531E-05-3.17119E-06
 -1      5600 4.75132E-05 5.56309E-05-3.15497E-06
 -1      5601 4.33525E-05 5.96695E-05-3.17119E-06
 -1      5603 3.82257E-05 6.23787E-05-3.15497E-06
 -1      5604 3.34843E-05 6.57167E-05-3.17119E-06
 -1      5606 2.79969E-05 6.75905E-05-3.15497E-06
 -1      5607 2.27917E-05 7.01457E-05-3.17119E-06
 -1      5609 1.70787E-05 7.11380E-05-3.15497E-06
 -1      5610 1.15379E-05 7.28475E-05-3.17119E-06
 -1      5612 5.74002E-06 7.29339E-05-3.15497E-06
 -1      5614 7.15886E-05 5.63415E-06-3.15517E-06
 -1      5615 7.14570E-05 1.13177E-05-3.17076E-06
 -1      5617 6.98259E-05 1.67637E-05-3.15517E-06
 -1      5618 6.88067E-05 2.23567E-05-3.17076E-06
 -1      5620 6.63438E-05 2.74805E-05-3.15517E-06
 -1      5621 6.44623E-05 3.28452E-05-3.17076E-06
 -1      5623 6.12281E-05 3.75206E-05-3.15517E-06
 -1      5624 5.85305E-05 4.25249E-05-3.17076E-06
 -1      5626 5.46048E-05 4.66369E-05-3.15517E-06
 -1      5627 5.11575E-05 5.11575E-05-3.17076E-06
 -1      5629 4.66369E-05 5.46048E-05-3.15517E-06
 -1      5630 4.25249E-05 5.85305E-05-3.17076E-06
 -1      5632 3.75206E-05 6.12281E-05-3.15517E-06
 -1      5633 3.28452E-05 6.44623E-05-3.17076E-06
 -1      5635 2.74805E-05 6.63438E-05-3.15517E-06
 -1      5636 2.23567E-05 6.88067E-05-3.17076E-06
 -1      5638 1.67637E-05 6.98259E-05-3.15517E-06
 -1      5639 1.13177E-05 7.14570E-05-3.17076E-06
 -1      5641 5.63415E-06 7.15886E-05-3.15517E-06
 -1      5643 7.03658E-05 5.53791E-06-3.15536E-06
 -1      5644 7.01935E-05 1.11176E-05-3.17035E-06
 -1      5646 6.86332E-05 1.64774E-05-3.15536E-06
 -1      5647 6.75902E-05 2.19614E-05-3.17035E-06
 -1      5649 6.52105E-05 2.70111E-05-3.15536E-06
 -1      5650 6.33225E-05 3.22644E-05-3.17035E-06
 -1      5652 6.01822E-05 3.68797E-05-3.15536E-06
 -1      5653 5.74956E-05 4.17730E-05-3.17035E-06
 -1      5655 5.36720E-05 4.58402E-05-3.15536E-06
 -1      5656 5.02530E-05 5.02530E-05-3.17035E-06
 -1      5658 4.58402E-05 5.36720E-05-3.15536E-06
 -1      5659 4.17730E-05 5.74956E-05-3.17035E-06
 -1      5661 3.68797E-05 6.01822E-05-3.15536E-06
 -1      5662 3.22644E-05 6.33225E-05-3.17035E-06
 -1      5664 2.70111E-05 6.52105E-05-3.15536E-06
 -1      5665 2.19614E-05 6.75902E-05-3.17035E-06
 -1      5667 1.64774E-05 6.86332E-05-3.15536E-06
 -1      5668 1.11176E-05 7.01935E-05-3.17035E-06
 -1      5670 5.53791E-06 7.03658E-05-3.15536E-06
 -1      5672 6.92539E-05 5.45040E-06-3.15554E-06
 -1      5673 6.90452E-05 1.09357E-05-3.16996E-06
 -1      5675 6.75486E-05 1.62170E-05-3.15554E-06
 -1      5676 6.64844E-05 2.16021E-05-3.16996E-06
 -1      5678 6.41801E-05 2.65843E-05-3.15554E-06
 -1      5679 6.22865E-05 3.17366E-05-3.16996E-06
 -1      5681 5.92312E-05 3.62970E-05-3.15554E-06
 -1      5682 5.65550E-05 4.10896E-05-3.16996E-06
 -1      5684 5.28239E-05 4.51159E-05-3.15554E-06
 -1      5685 4.94309E-05 4.94309E-05-3.16996E-06
 -1      5687 4.51159E-05 5.28239E-05-3.15554E-06
 -1      5688 4.10896E-05 5.65550E-05-3.16996E-06
 -1      5690 3.62970E-05 5.92312E-05-3.15554E-06
 -1      5691 3.17366E-05 6.22865E-05-3.16996E-06
 -1      5693 2.65843E-05 6.41801E-05-3.15554E-06
 -1      5694 2.16021E-05 6.64844E-05-3.16996E-06
 -1      5696 1.62170E-05 6.75486E-05-3.15554E-06
 -1      5697 1.09357E-05 6.90452E-05-3.16996E-06
 -1      5699 5.45040E-06 6.92539E-05-3.15554E-06
 -1      5701 6.82429E-05 5.37083E-06-3.15572E-06
 -1      5702 6.80012E-05 1.07703E-05-3.16959E-06
 -1      5704 6.65625E-05 1.59802E-05-3.15572E-06
 -1      5705 6.54792E-05 2.12755E-05-3.16959E-06
 -1      5707 6.32431E-05 2.61962E-05-3.15572E-06
 -1      5708 6.13448E-05 3.12567E-05-3.16959E-06
 -1      5710 5.83665E-05 3.57671E-05-3.15572E-06
 -1      5711 5.56999E-05 4.04683E-05-3.16959E-06
 -1      5713 5.20527E-05 4.44572E-05-3.15572E-06
 -1      5714 4.86835E-05 4.86835E-05-3.16959E-06
 -1      5716 4.44572E-05 5.20527E-05-3.15572E-06
 -1      5717 4.04683E-05 5.56999E-05-3.16959E-06
 -1      5719 3.57671E-05 5.83665E-05-3.15572E-06
 -1      5720 3.12567E-05 6.13448E-05-3.16959E-06
 -1      5722 2.61962E-05 6.32431E-05-3.15572E-06
 -1      5723 2.12755E-05 6.54792E-05-3.16959E-06
 -1      5725 1.59802E-05 6.65625E-05-3.15572E-06
 -1      5726 1.07703E-05 6.80012E-05-3.16959E-06
 -1      5728 5.37083E-06 6.82429E-05-3.15572E-06
 -1      5730 6.73238E-05 5.29850E-06-3.15590E-06
 -1      5731 6.70523E-05 1.06200E-05-3.16922E-06
 -1      5733 6.56661E-05 1.57650E-05-3.15590E-06
 -1      5734 6.45655E-05 2.09786E-05-3.16922E-06
 -1      5736 6.23914E-05 2.58434E-05-3.15590E-06
 -1      5737 6.04888E-05 3.08206E-05-3.16922E-06
 -1      5739 5.75805E-05 3.52854E-05-3.15590E-06
 -1      5740 5.49227E-05 3.99036E-05-3.16922E-06
 -1      5742 5.13517E-05 4.38585E-05-3.15590E-06
 -1      5743 4.80042E-05 4.80042E-05-3.16922E-06
 -1      5745 4.38585E-05 5.13517E-05-3.15590E-06
 -1      5746 3.99036E-05 5.49227E-05-3.16922E-06
 -1      5748 3.52854E-05 5.75805E-05-3.15590E-06
 -1      5749 3.08206E-05 6.04888E-05-3.16922E-06
 -1      5751 2.58434E-05 6.23914E-05-3.15590E-06
 -1      5752 2.09786E-05 6.45655E-05-3.16922E-06
 -1      5754 1.57650E-05 6.56661E-05-3.15590E-06
 -1      5755 1.06200E-05 6.70523E-05-3.16922E-06
 -1      5757 5.29850E-06 6.73238E-05-3.15590E-06
 -1      5759 6.64889E-05 5.23279E-06-3.15608E-06
 -1      5760 6.61902E-05 1.04835E-05-3.16885E-06
 -1      5762 6.48517E-05 1.55695E-05-3.15608E-06
 -1      5763 6.37353E-05 2.07088E-05-3.16885E-06
 -1      5765 6.16176E-05 2.55229E-05-3.15608E-06
 -1      5766 5.97110E-05 3.04243E-05-3.16885E-06
 -1      5768 5.68664E-05 3.48478E-05-3.15608E-06
 -1      5769 5.42165E-05 3.93906E-05-3.16885E-06
 -1      5771 5.07149E-05 4.33146E-05-3.15608E-06
 -1      5772 4.73869E-05 4.73869E-05-3.16885E-06
 -1      5774 4.33146E-05 5.07149E-05-3.15608E-06
 -1      5775 3.93906E-05 5.42165E-05-3.16885E-06
 -1      5777 3.48478E-05 5.68664E-05-3.15608E-06
 -1      5778 3.04243E-05 5.97110E-05-3.16885E-06
 -1      5780 2.55229E-05 6.16176E-05-3.15608E-06
 -1      5781 2.07088E-05 6.37353E-05-3.16885E-06
 -1      5783 1.55695E-05 6.48517E-05-3.15608E-06
 -1      5784 1.04835E-05 6.61902E-05-3.16885E-06
 -1      5786 5.23279E-06 6.64889E-05-3.15608E-06
 -1      5788 6.57311E-05 5.17315E-06-3.15630E-06
 -1      5789 6.54073E-05 1.03595E-05-3.16843E-06
 -1      5791 6.41126E-05 1.53921E-05-3.15630E-06
 -1      5792 6.29815E-05 2.04639E-05-3.16843E-06
 -1      5794 6.09154E-05 2.52320E-05-3.15630E-06
 -1      5795 5.90048E-05 3.00644E-05-3.16843E-06
 -1      5797 5.62183E-05 3.44506E-05-3.15630E-06
 -1      5798 5.35752E-05 3.89247E-05-3.16843E-06
 -1      5800 5.01369E-05 4.28209E-05-3.15630E-06
 -1      5801 4.68265E-05 4.68265E-05-3.16843E-06
 -1      5803 4.28209E-05 5.01369E-05-3.15630E-06
 -1      5804 3.89247E-05 5.35752E-05-3.16843E-06
 -1      5806 3.44506E-05 5.62183E-05-3.15630E-06
 -1      5807 3.00644E-05 5.90048E-05-3.16843E-06
 -1      5809 2.52320E-05 6.09154E-05-3.15630E-06
 -1      5810 2.04639E-05 6.29815E-05-3.16843E-06
 -1      5812 1.53921E-05 6.41126E-05-3.15630E-06
 -1      5813 1.03595E-05 6.54073E-05-3.16843E-06
 -1      5815 5.17315E-06 6.57311E-05-3.15630E-06
 -1      5817 6.50444E-05 5.11910E-06-3.15659E-06
 -1      5818 6.46971E-05 1.02470E-05-3.16790E-06
 -1      5820 6.34427E-05 1.52313E-05-3.15659E-06
 -1      5821 6.22975E-05 2.02417E-05-3.16790E-06
 -1      5823 6.02790E-05 2.49684E-05-3.15659E-06
 -1      5824 5.83641E-05 2.97380E-05-3.16790E-06
 -1      5826 5.56309E-05 3.40907E-05-3.15659E-06
 -1      5827 5.29935E-05 3.85020E-05-3.16790E-06
 -1      5829 4.96131E-05 4.23736E-05-3.15659E-06
 -1      5830 4.63180E-05 4.63180E-05-3.16790E-06
 -1      5832 4.23736E-05 4.96131E-05-3.15659E-06
 -1      5833 3.85020E-05 5.29935E-05-3.16790E-06
 -1      5835 3.40907E-05 5.56309E-05-3.15659E-06
 -1      5836 2.97380E-05 5.83641E-05-3.16790E-06
 -1      5838 2.49684E-05 6.02790E-05-3.15659E-06
 -1      5839 2.02417E-05 6.22975E-05-3.16790E-06
 -1      5841 1.52313E-05 6.34427E-05-3.15659E-06
 -1      5842 1.02470E-05 6.46971E-05-3.16790E-06
 -1      5844 5.11910E-06 6.50444E-05-3.15659E-06
 -1      5846 6.44233E-05 5.07023E-06-3.15706E-06
 -1      5847 6.40532E-05 1.01450E-05-3.16712E-06
 -1      5849 6.28370E-05 1.50858E-05-3.15706E-06
 -1      5850 6.16776E-05 2.00403E-05-3.16712E-06
 -1      5852 5.97035E-05 2.47300E-05-3.15706E-06
 -1      5853 5.77832E-05 2.94420E-05-3.16712E-06
 -1      5855 5.50998E-05 3.37652E-05-3.15706E-06
 -1      5856 5.24661E-05 3.81188E-05-3.16712E-06
 -1      5858 4.91394E-05 4.19690E-05-3.15706E-06
 -1      5859 4.58570E-05 4.58570E-05-3.16712E-06
 -1      5861 4.19690E-05 4.91394E-05-3.15706E-06
 -1      5862 3.81188E-05 5.24661E-05-3.16712E-06
 -1      5864 3.37652E-05 5.50998E-05-3.15706E-06
 -1      5865 2.94420E-05 5.77832E-05-3.16712E-06
 -1      5867 2.47300E-05 5.97035E-05-3.15706E-06
 -1      5868 2.00403E-05 6.16776E-05-3.16712E-06
 -1      5870 1.50858E-05 6.28370E-05-3.15706E-06
 -1      5871 1.01450E-05 6.40532E-05-3.16712E-06
 -1      5873 5.07023E-06 6.44233E-05-3.15706E-06
 -1      5875 6.38634E-05 5.02616E-06-3.15800E-06
 -1      5876 6.34698E-05 1.00526E-05-3.16565E-06
 -1      5878 6.22909E-05 1.49547E-05-3.15800E-06
 -1      5879 6.11158E-05 1.98577E-05-3.16565E-06
 -1      5881 5.91845E-05 2.45150E-05-3.15800E-06
 -1      5882 5.72570E-05 2.91739E-05-3.16565E-06
 -1      5884 5.46209E-05 3.34717E-05-3.15800E-06
 -1      5885 5.19882E-05 3.77717E-05-3.16565E-06
 -1      5887 4.87123E-05 4.16042E-05-3.15800E-06
 -1      5888 4.54394E-05 4.54394E-05-3.16565E-06
 -1      5890 4.16042E-05 4.87123E-05-3.15800E-06
 -1      5891 3.77717E-05 5.19882E-05-3.16565E-06
 -1      5893 3.34717E-05 5.46209E-05-3.15800E-06
 -1      5894 2.91739E-05 5.72570E-05-3.16565E-06
 -1      5896 2.45150E-05 5.91845E-05-3.15800E-06
 -1      5897 1.98577E-05 6.11158E-05-3.16565E-06
 -1      5899 1.49547E-05 6.22909E-05-3.15800E-06
 -1      5900 1.00526E-05 6.34698E-05-3.16565E-06
 -1      5902 5.02616E-06 6.38634E-05-3.15800E-06
 -1      5904 6.29424E-05 9.96910E-06-3.16330E-06
 -1      5906 6.06080E-05 1.96927E-05-3.16330E-06
 -1      5908 5.67812E-05 2.89315E-05-3.16330E-06
 -1      5910 5.15562E-05 3.74578E-05-3.16330E-06
 -1      5912 4.50618E-05 4.50618E-05-3.16330E-06
 -1      5914 3.74578E-05 5.15562E-05-3.16330E-06
 -1      5916 2.89315E-05 5.67812E-05-3.16330E-06
 -1      5918 1.96927E-05 6.06080E-05-3.16330E-06
 -1      5920 9.96910E-06 6.29424E-05-3.16330E-06
 -1      5923 1.54263E-04 2.44328E-05-1.41907E-06
 -1      5924 1.54264E-04 2.44330E-05-1.59865E-06
 -1      5925 1.54265E-04 2.44331E-05-1.77385E-06
 -1      5926 1.54265E-04 2.44332E-05-1.94772E-06
 -1      5927 1.54265E-04 2.44332E-05-2.12118E-06
 -1      5928 1.54265E-04 2.44332E-05-2.29455E-06
 -1      5929 1.54265E-04 2.44332E-05-2.46800E-06
 -1      5930 1.54265E-04 2.44331E-05-2.64188E-06
 -1      5931 1.54264E-04 2.44330E-05-2.81708E-06
 -1      5932 1.54263E-04 2.44328E-05-2.99666E-06
 -1      5933 1.48541E-04 4.82640E-05-1.41907E-06
 -1      5934 1.48542E-04 4.82643E-05-1.59865E-06
 -1      5935 1.48543E-04 4.82646E-05-1.77385E-06
 -1      5936 1.48543E-04 4.82647E-05-1.94772E-06
 -1      5937 1.48544E-04 4.82647E-05-2.12118E-06
 -1      5938 1.48544E-04 4.82647E-05-2.29455E-06
 -1      5939 1.48543E-04 4.82647E-05-2.46800E-06
 -1      5940 1.48543E-04 4.82646E-05-2.64188E-06
 -1      5941 1.48542E-04 4.82643E-05-2.81708E-06
 -1      5942 1.48541E-04 4.82640E-05-2.99666E-06
 -1      5943 1.39162E-04 7.09068E-05-1.41907E-06
 -1      5944 1.39163E-04 7.09072E-05-1.59865E-06
 -1      5945 1.39164E-04 7.09076E-05-1.77385E-06
 -1      5946 1.39164E-04 7.09078E-05-1.94772E-06
 -1      5947 1.39164E-04 7.09078E-05-2.12118E-06
 -1      5948 1.39164E-04 7.09078E-05-2.29455E-06
 -1      5949 1.39164E-04 7.09078E-05-2.46800E-06
 -1      5950 1.39164E-04 7.09076E-05-2.64188E-06
 -1      5951 1.39163E-04 7.09072E-05-2.81708E-06
 -1      5952 1.39162E-04 7.09068E-05-2.99666E-06
 -1      5953 1.26357E-04 9.18036E-05-1.41907E-06
 -1      5954 1.26358E-04 9.18042E-05-1.59865E-06
 -1      5955 1.26358E-04 9.18047E-05-1.77385E-06
 -1      5956 1.26359E-04 9.18049E-05-1.94772E-06
 -1      5957 1.26359E-04 9.18049E-05-2.12118E-06
 -1      5958 1.26359E-04 9.18049E-05-2.29455E-06
 -1      5959 1.26359E-04 9.18049E-05-2.46800E-06
 -1      5960 1.26358E-04 9.18047E-05-2.64188E-06
 -1      5961 1.26358E-04 9.18042E-05-2.81708E-06
 -1      5962 1.26357E-04 9.18036E-05-2.99666E-06
 -1      5963 1.10440E-04 1.10440E-04-1.41907E-06
 -1      5964 1.10441E-04 1.10441E-04-1.59865E-06
 -1      5965 1.10441E-04 1.10441E-04-1.77385E-06
 -1      5966 1.10441E-04 1.10441E-04-1.94772E-06
 -1      5967 1.10442E-04 1.10442E-04-2.12118E-06
 -1      5968 1.10442E-04 1.10442E-04-2.29455E-06
 -1      5969 1.10441E-04 1.10441E-04-2.46800E-06
 -1      5970 1.10441E-04 1.10441E-04-2.64188E-06
 -1      5971 1.10441E-04 1.10441E-04-2.81708E-06
 -1      5972 1.10440E-04 1.10440E-04-2.99666E-06
 -1      5973 9.18036E-05 1.26357E-04-1.41907E-06
 -1      5974 9.18042E-05 1.26358E-04-1.59865E-06
 -1      5975 9.18047E-05 1.26358E-04-1.77385E-06
 -1      5976 9.18049E-05 1.26359E-04-1.94772E-06
 -1      5977 9.18049E-05 1.26359E-04-2.12118E-06
 -1      5978 9.18049E-05 1.26359E-04-2.29455E-06
 -1      5979 9.18049E-05 1.26359E-04-2.46800E-06
 -1      5980 9.18047E-05 1.26358E-04-2.64188E-06
 -1      5981 9.18042E-05 1.26358E-04-2.81708E-06
 -1      5982 9.18036E-05 1.26357E-04-2.99666E-06
 -1      5983 7.09068E-05 1.39162E-04-1.41907E-06
 -1      5984 7.09072E-05 1.39163E-04-1.59865E-06
 -1      5985 7.09076E-05 1.39164E-04-1.77385E-06
 -1      5986 7.09078E-05 1.39164E-04-1.94772E-06
 -1      5987 7.09078E-05 1.39164E-04-2.12118E-06
 -1      5988 7.09078E-05 1.39164E-04-2.29455E-06
 -1      5989 7.09078E-05 1.39164E-04-2.46800E-06
 -1      5990 7.09076E-05 1.39164E-04-2.64188E-06
 -1      5991 7.09072E-05 1.39163E-04-2.81708E-06
 -1      5992 7.09068E-05 1.39162E-04-2.99666E-06
 -1      5993 4.82640E-05 1.48541E-04-1.41907E-06
 -1      5994 4.82643E-05 1.48542E-04-1.59865E-06
 -1      5995 4.82646E-05 1.48543E-04-1.77385E-06
 -1      5996 4.82647E-05 1.48543E-04-1.94772E-06
 -1      5997 4.82647E-05 1.48544E-04-2.12118E-06
 -1      5998 4.82647E-05 1.48544E-04-2.29455E-06
 -1      5999 4.82647E-05 1.48543E-04-2.46800E-06
 -1      6000 4.82646E-05 1.48543E-04-2.64188E-06
 -1      6001 4.82643E-05 1.48542E-04-2.81708E-06
 -1      6002 4.82640E-05 1.48541E-04-2.99666E-06
 -1      6003 2.44328E-05 1.54263E-04-1.41907E-06
 -1      6004 2.44330E-05 1.54264E-04-1.59865E-06
 -1      6005 2.44331E-05 1.54265E-04-1.77385E-06
 -1      6006 2.44332E-05 1.54265E-04-1.94772E-06
 -1      6007 2.44332E-05 1.54265E-04-2.12118E-06
 -1      6008 2.44332E-05 1.54265E-04-2.29455E-06
 -1      6009 2.44332E-05 1.54265E-04-2.46800E-06
 -1      6010 2.44331E-05 1.54265E-04-2.64188E-06
 -1      6011 2.44330E-05 1.54264E-04-2.81708E-06
 -1      6012 2.44328E-05 1.54263E-04-2.99666E-06
 -1      6013 1.42456E-04 2.25628E-05-1.41614E-06
 -1      6014 1.42456E-04 2.25628E-05-1.59669E-06
 -1      6015 1.42456E-04 2.25629E-05-1.77289E-06
 -1      6016 1.42457E-04 2.25629E-05-1.94734E-06
 -1      6017 1.42457E-04 2.25629E-05-2.12108E-06
 -1      6018 1.42457E-04 2.25629E-05-2.29464E-06
 -1      6019 1.42457E-04 2.25629E-05-2.46839E-06
 -1      6020 1.42456E-04 2.25629E-05-2.64283E-06
 -1      6021 1.42456E-04 2.25628E-05-2.81904E-06
 -1      6022 1.42456E-04 2.25628E-05-2.99958E-06
 -1      6023 1.37172E-04 4.45700E-05-1.41614E-06
 -1      6024 1.37173E-04 4.45701E-05-1.59669E-06
 -1      6025 1.37173E-04 4.45702E-05-1.77289E-06
 -1      6026 1.37173E-04 4.45703E-05-1.94734E-06
 -1      6027 1.37173E-04 4.45703E-05-2.12108E-06
 -1      6028 1.37173E-04 4.45703E-05-2.29464E-06
 -1      6029 1.37173E-04 4.45703E-05-2.46839E-06
 -1      6030 1.37173E-04 4.45702E-05-2.64283E-06
 -1      6031 1.37173E-04 4.45701E-05-2.81904E-06
 -1      6032 1.37172E-04 4.45700E-05-2.99958E-06
 -1      6033 1.28511E-04 6.54798E-05-1.41614E-06
 -1      6034 1.28512E-04 6.54799E-05-1.59669E-06
 -1      6035 1.28512E-04 6.54800E-05-1.77289E-06
 -1      6036 1.28512E-04 6.54801E-05-1.94734E-06
 -1      6037 1.28512E-04 6.54802E-05-2.12108E-06
 -1      6038 1.28512E-04 6.54802E-05-2.29464E-06
 -1      6039 1.28512E-04 6.54801E-05-2.46839E-06
 -1      6040 1.28512E-04 6.54800E-05-2.64283E-06
 -1      6041 1.28512E-04 6.54799E-05-2.81904E-06
 -1      6042 1.28511E-04 6.54798E-05-2.99958E-06
 -1      6043 1.16686E-04 8.47772E-05-1.41614E-06
 -1      6044 1.16686E-04 8.47774E-05-1.59669E-06
 -1      6045 1.16686E-04 8.47776E-05-1.77289E-06
 -1      6046 1.16686E-04 8.47777E-05-1.94734E-06
 -1      6047 1.16687E-04 8.47777E-05-2.12108E-06
 -1      6048 1.16687E-04 8.47777E-05-2.29464E-06
 -1      6049 1.16686E-04 8.47777E-05-2.46839E-06
 -1      6050 1.16686E-04 8.47776E-05-2.64283E-06
 -1      6051 1.16686E-04 8.47774E-05-2.81904E-06
 -1      6052 1.16686E-04 8.47772E-05-2.99958E-06
 -1      6053 1.01987E-04 1.01987E-04-1.41614E-06
 -1      6054 1.01987E-04 1.01987E-04-1.59669E-06
 -1      6055 1.01988E-04 1.01988E-04-1.77289E-06
 -1      6056 1.01988E-04 1.01988E-04-1.94734E-06
 -1      6057 1.01988E-04 1.01988E-04-2.12108E-06
 -1      6058 1.01988E-04 1.01988E-04-2.29464E-06
 -1      6059 1.01988E-04 1.01988E-04-2.46839E-06
 -1      6060 1.01988E-04 1.01988E-04-2.64283E-06
 -1      6061 1.01987E-04 1.01987E-04-2.81904E-06
 -1      6062 1.01987E-04 1.01987E-04-2.99958E-06
 -1      6063 8.47772E-05 1.16686E-04-1.41614E-06
 -1      6064 8.47774E-05 1.16686E-04-1.59669E-06
 -1      6065 8.47776E-05 1.16686E-04-1.77289E-06
 -1      6066 8.47777E-05 1.16686E-04-1.94734E-06
 -1      6067 8.47777E-05 1.16687E-04-2.12108E-06
 -1      6068 8.47777E-05 1.16687E-04-2.29464E-06
 -1      6069 8.47777E-05 1.16686E-04-2.46839E-06
 -1      6070 8.47776E-05 1.16686E-04-2.64283E-06
 -1      6071 8.47774E-05 1.16686E-04-2.81904E-06
 -1      6072 8.47772E-05 1.16686E-04-2.99958E-06
 -1      6073 6.54798E-05 1.28511E-04-1.41614E-06
 -1      6074 6.54799E-05 1.28512E-04-1.59669E-06
 -1      6075 6.54800E-05 1.28512E-04-1.77289E-06
 -1      6076 6.54801E-05 1.28512E-04-1.94734E-06
 -1      6077 6.54802E-05 1.28512E-04-2.12108E-06
 -1      6078 6.54802E-05 1.28512E-04-2.29464E-06
 -1      6079 6.54801E-05 1.28512E-04-2.46839E-06
 -1      6080 6.54800E-05 1.28512E-04-2.64283E-06
 -1      6081 6.54799E-05 1.28512E-04-2.81904E-06
 -1      6082 6.54798E-05 1.28511E-04-2.99958E-06
 -1      6083 4.45700E-05 1.37172E-04-1.41614E-06
 -1      6084 4.45701E-05 1.37173E-04-1.59669E-06
 -1      6085 4.45702E-05 1.37173E-04-1.77289E-06
 -1      6086 4.45703E-05 1.37173E-04-1.94734E-06
 -1      6087 4.45703E-05 1.37173E-04-2.12108E-06
 -1      6088 4.45703E-05 1.37173E-04-2.29464E-06
 -1      6089 4.45703E-05 1.37173E-04-2.46839E-06
 -1      6090 4.45702E-05 1.37173E-04-2.64283E-06
 -1      6091 4.45701E-05 1.37173E-04-2.81904E-06
 -1      6092 4.45700E-05 1.37172E-04-2.99958E-06
 -1      6093 2.25628E-05 1.42456E-04-1.41614E-06
 -1      6094 2.25628E-05 1.42456E-04-1.59669E-06
 -1      6095 2.25629E-05 1.42456E-04-1.77289E-06
 -1      6096 2.25629E-05 1.42457E-04-1.94734E-06
 -1      6097 2.25629E-05 1.42457E-04-2.12108E-06
 -1      6098 2.25629E-05 1.42457E-04-2.29464E-06
 -1      6099 2.25629E-05 1.42457E-04-2.46839E-06
 -1      6100 2.25629E-05 1.42456E-04-2.64283E-06
 -1      6101 2.25628E-05 1.42456E-04-2.81904E-06
 -1      6102 2.25628E-05 1.42456E-04-2.99958E-06
 -1      6103 1.32553E-04 2.09944E-05-1.41657E-06
 -1      6104 1.32553E-04 2.09944E-05-1.59632E-06
 -1      6105 1.32553E-04 2.09944E-05-1.77249E-06
 -1      6106 1.32553E-04 2.09944E-05-1.94708E-06
 -1      6107 1.32553E-04 2.09944E-05-2.12100E-06
 -1      6108 1.32553E-04 2.09944E-05-2.29473E-06
 -1      6109 1.32553E-04 2.09944E-05-2.46864E-06
 -1      6110 1.32553E-04 2.09944E-05-2.64323E-06
 -1      6111 1.32553E-04 2.09944E-05-2.81941E-06
 -1      6112 1.32553E-04 2.09944E-05-2.99916E-06
 -1      6113 1.27637E-04 4.14718E-05-1.41657E-06
 -1      6114 1.27637E-04 4.14718E-05-1.59632E-06
 -1      6115 1.27637E-04 4.14718E-05-1.77249E-06
 -1      6116 1.27637E-04 4.14719E-05-1.94708E-06
 -1      6117 1.27637E-04 4.14719E-05-2.12100E-06
 -1      6118 1.27637E-04 4.14719E-05-2.29473E-06
 -1      6119 1.27637E-04 4.14719E-05-2.46864E-06
 -1      6120 1.27637E-04 4.14718E-05-2.64323E-06
 -1      6121 1.27637E-04 4.14718E-05-2.81941E-06
 -1      6122 1.27637E-04 4.14718E-05-2.99916E-06
 -1      6123 1.19578E-04 6.09280E-05-1.41657E-06
 -1      6124 1.19578E-04 6.09281E-05-1.59632E-06
 -1      6125 1.19578E-04 6.09281E-05-1.77249E-06
 -1      6126 1.19578E-04 6.09281E-05-1.94708E-06
 -1      6127 1.19578E-04 6.09282E-05-2.12100E-06
 -1      6128 1.19578E-04 6.09282E-05-2.29473E-06
 -1      6129 1.19578E-04 6.09281E-05-2.46864E-06
 -1      6130 1.19578E-04 6.09281E-05-2.64323E-06
 -1      6131 1.19578E-04 6.09281E-05-2.81941E-06
 -1      6132 1.19578E-04 6.09280E-05-2.99916E-06
 -1      6133 1.08575E-04 7.88840E-05-1.41657E-06
 -1      6134 1.08575E-04 7.88841E-05-1.59632E-06
 -1      6135 1.08575E-04 7.88841E-05-1.77249E-06
 -1      6136 1.08575E-04 7.88842E-05-1.94708E-06
 -1      6137 1.08575E-04 7.88842E-05-2.12100E-06
 -1      6138 1.08575E-04 7.88842E-05-2.29473E-06
 -1      6139 1.08575E-04 7.88842E-05-2.46864E-06
 -1      6140 1.08575E-04 7.88841E-05-2.64323E-06
 -1      6141 1.08575E-04 7.88841E-05-2.81941E-06
 -1      6142 1.08575E-04 7.88840E-05-2.99916E-06
 -1      6143 9.48977E-05 9.48977E-05-1.41657E-06
 -1      6144 9.48977E-05 9.48977E-05-1.59632E-06
 -1      6145 9.48977E-05 9.48977E-05-1.77249E-06
 -1      6146 9.48978E-05 9.48978E-05-1.94708E-06
 -1      6147 9.48978E-05 9.48978E-05-2.12100E-06
 -1      6148 9.48978E-05 9.48978E-05-2.29473E-06
 -1      6149 9.48978E-05 9.48978E-05-2.46864E-06
 -1      6150 9.48977E-05 9.48977E-05-2.64323E-06
 -1      6151 9.48977E-05 9.48977E-05-2.81941E-06
 -1      6152 9.48977E-05 9.48977E-05-2.99916E-06
 -1      6153 7.88840E-05 1.08575E-04-1.41657E-06
 -1      6154 7.88841E-05 1.08575E-04-1.59632E-06
 -1      6155 7.88841E-05 1.08575E-04-1.77249E-06
 -1      6156 7.88842E-05 1.08575E-04-1.94708E-06
 -1      6157 7.88842E-05 1.08575E-04-2.12100E-06
 -1      6158 7.88842E-05 1.08575E-04-2.29473E-06
 -1      6159 7.88842E-05 1.08575E-04-2.46864E-06
 -1      6160 7.88841E-05 1.08575E-04-2.64323E-06
 -1      6161 7.88841E-05 1.08575E-04-2.81941E-06
 -1      6162 7.88840E-05 1.08575E-04-2.99916E-06
 -1      6163 6.09280E-05 1.19578E-04-1.41657E-06
 -1      6164 6.09281E-05 1.19578E-04-1.59632E-06
 -1      6165 6.09281E-05 1.19578E-04-1.77249E-06
 -1      6166 6.09281E-05 1.19578E-04-1.94708E-06
 -1      6167 6.09282E-05 1.19578E-04-2.12100E-06
 -1      6168 6.09282E-05 1.19578E-04-2.29473E-06
 -1      6169 6.09281E-05 1.19578E-04-2.46864E-06
 -1      6170 6.09281E-05 1.19578E-04-2.64323E-06
 -1      6171 6.09281E-05 1.19578E-04-2.81941E-06
 -1      6172 6.09280E-05 1.19578E-04-2.99916E-06
 -1      6173 4.14718E-05 1.27637E-04-1.41657E-06
 -1      6174 4.14718E-05 1.27637E-04-1.59632E-06
 -1      6175 4.14718E-05 1.27637E-04-1.77249E-06
 -1      6176 4.14719E-05 1.27637E-04-1.94708E-06
 -1      6177 4.14719E-05 1.27637E-04-2.12100E-06
 -1      6178 4.14719E-05 1.27637E-04-2.29473E-06
 -1      6179 4.14719E-05 1.27637E-04-2.46864E-06
 -1      6180 4.14718E-05 1.27637E-04-2.64323E-06
 -1      6181 4.14718E-05 1.27637E-04-2.81941E-06
 -1      6182 4.14718E-05 1.27637E-04-2.99916E-06
 -1      6183 2.09944E-05 1.32553E-04-1.41657E-06
 -1      6184 2.09944E-05 1.32553E-04-1.59632E-06
 -1      6185 2.09944E-05 1.32553E-04-1.77249E-06
 -1      6186 2.09944E-05 1.32553E-04-1.94708E-06
 -1      6187 2.09944E-05 1.32553E-04-2.12100E-06
 -1      6188 2.09944E-05 1.32553E-04-2.29473E-06
 -1      6189 2.09944E-05 1.32553E-04-2.46864E-06
 -1      6190 2.09944E-05 1.32553E-04-2.64323E-06
 -1      6191 2.09944E-05 1.32553E-04-2.81941E-06
 -1      6192 2.09944E-05 1.32553E-04-2.99916E-06
 -1      6193 1.24143E-04 1.96624E-05-1.41681E-06
 -1      6194 1.24143E-04 1.96624E-05-1.59608E-06
 -1      6195 1.24143E-04 1.96624E-05-1.77221E-06
 -1      6196 1.24143E-04 1.96624E-05-1.94689E-06
 -1      6197 1.24144E-04 1.96624E-05-2.12093E-06
 -1      6198 1.24144E-04 1.96624E-05-2.29479E-06
 -1      6199 1.24143E-04 1.96624E-05-2.46883E-06
 -1      6200 1.24143E-04 1.96624E-05-2.64351E-06
 -1      6201 1.24143E-04 1.96624E-05-2.81965E-06
 -1      6202 1.24143E-04 1.96624E-05-2.99892E-06
 -1      6203 1.19539E-04 3.88406E-05-1.41681E-06
 -1      6204 1.19539E-04 3.88406E-05-1.59608E-06
 -1      6205 1.19539E-04 3.88406E-05-1.77221E-06
 -1      6206 1.19539E-04 3.88406E-05-1.94689E-06
 -1      6207 1.19539E-04 3.88407E-05-2.12093E-06
 -1      6208 1.19539E-04 3.88407E-05-2.29479E-06
 -1      6209 1.19539E-04 3.88406E-05-2.46883E-06
 -1      6210 1.19539E-04 3.88406E-05-2.64351E-06
 -1      6211 1.19539E-04 3.88406E-05-2.81965E-06
 -1      6212 1.19539E-04 3.88406E-05-2.99892E-06
 -1      6213 1.11991E-04 5.70624E-05-1.41681E-06
 -1      6214 1.11991E-04 5.70624E-05-1.59608E-06
 -1      6215 1.11991E-04 5.70625E-05-1.77221E-06
 -1      6216 1.11991E-04 5.70625E-05-1.94689E-06
 -1      6217 1.11991E-04 5.70625E-05-2.12093E-06
 -1      6218 1.11991E-04 5.70625E-05-2.29479E-06
 -1      6219 1.11991E-04 5.70625E-05-2.46883E-06
 -1      6220 1.11991E-04 5.70625E-05-2.64351E-06
 -1      6221 1.11991E-04 5.70624E-05-2.81965E-06
 -1      6222 1.11991E-04 5.70624E-05-2.99892E-06
 -1      6223 1.01686E-04 7.38792E-05-1.41681E-06
 -1      6224 1.01686E-04 7.38792E-05-1.59608E-06
 -1      6225 1.01686E-04 7.38792E-05-1.77221E-06
 -1      6226 1.01686E-04 7.38793E-05-1.94689E-06
 -1      6227 1.01686E-04 7.38793E-05-2.12093E-06
 -1      6228 1.01686E-04 7.38793E-05-2.29479E-06
 -1      6229 1.01686E-04 7.38793E-05-2.46883E-06
 -1      6230 1.01686E-04 7.38792E-05-2.64351E-06
 -1      6231 1.01686E-04 7.38792E-05-2.81965E-06
 -1      6232 1.01686E-04 7.38792E-05-2.99892E-06
 -1      6233 8.88768E-05 8.88768E-05-1.41681E-06
 -1      6234 8.88768E-05 8.88768E-05-1.59608E-06
 -1      6235 8.88769E-05 8.88769E-05-1.77221E-06
 -1      6236 8.88769E-05 8.88769E-05-1.94689E-06
 -1      6237 8.88770E-05 8.88770E-05-2.12093E-06
 -1      6238 8.88770E-05 8.88770E-05-2.29479E-06
 -1      6239 8.88769E-05 8.88769E-05-2.46883E-06
 -1      6240 8.88769E-05 8.88769E-05-2.64351E-06
 -1      6241 8.88768E-05 8.88768E-05-2.81965E-06
 -1      6242 8.88768E-05 8.88768E-05-2.99892E-06
 -1      6243 7.38792E-05 1.01686E-04-1.41681E-06
 -1      6244 7.38792E-05 1.01686E-04-1.59608E-06
 -1      6245 7.38792E-05 1.01686E-04-1.77221E-06
 -1      6246 7.38793E-05 1.01686E-04-1.94689E-06
 -1      6247 7.38793E-05 1.01686E-04-2.12093E-06
 -1      6248 7.38793E-05 1.01686E-04-2.29479E-06
 -1      6249 7.38793E-05 1.01686E-04-2.46883E-06
 -1      6250 7.38792E-05 1.01686E-04-2.64351E-06
 -1      6251 7.38792E-05 1.01686E-04-2.81965E-06
 -1      6252 7.38792E-05 1.01686E-04-2.99892E-06
 -1      6253 5.70624E-05 1.11991E-04-1.41681E-06
 -1      6254 5.70624E-05 1.11991E-04-1.59608E-06
 -1      6255 5.70625E-05 1.11991E-04-1.77221E-06
 -1      6256 5.70625E-05 1.11991E-04-1.94689E-06
 -1      6257 5.70625E-05 1.11991E-04-2.12093E-06
 -1      6258 5.70625E-05 1.11991E-04-2.29479E-06
 -1      6259 5.70625E-05 1.11991E-04-2.46883E-06
 -1      6260 5.70625E-05 1.11991E-04-2.64351E-06
 -1      6261 5.70624E-05 1.11991E-04-2.81965E-06
 -1      6262 5.70624E-05 1.11991E-04-2.99892E-06
 -1      6263 3.88406E-05 1.19539E-04-1.41681E-06
 -1      6264 3.88406E-05 1.19539E-04-1.59608E-06
 -1      6265 3.88406E-05 1.19539E-04-1.77221E-06
 -1      6266 3.88406E-05 1.19539E-04-1.94689E-06
 -1      6267 3.88407E-05 1.19539E-04-2.12093E-06
 -1      6268 3.88407E-05 1.19539E-04-2.29479E-06
 -1      6269 3.88406E-05 1.19539E-04-2.46883E-06
 -1      6270 3.88406E-05 1.19539E-04-2.64351E-06
 -1      6271 3.88406E-05 1.19539E-04-2.81965E-06
 -1      6272 3.88406E-05 1.19539E-04-2.99892E-06
 -1      6273 1.96624E-05 1.24143E-04-1.41681E-06
 -1      6274 1.96624E-05 1.24143E-04-1.59608E-06
 -1      6275 1.96624E-05 1.24143E-04-1.77221E-06
 -1      6276 1.96624E-05 1.24143E-04-1.94689E-06
 -1      6277 1.96624E-05 1.24144E-04-2.12093E-06
 -1      6278 1.96624E-05 1.24144E-04-2.29479E-06
 -1      6279 1.96624E-05 1.24143E-04-2.46883E-06
 -1      6280 1.96624E-05 1.24143E-04-2.64351E-06
 -1      6281 1.96624E-05 1.24143E-04-2.81965E-06
 -1      6282 1.96624E-05 1.24143E-04-2.99892E-06
 -1      6283 1.16928E-04 1.85196E-05-1.41710E-06
 -1      6284 1.16928E-04 1.85196E-05-1.59593E-06
 -1      6285 1.16928E-04 1.85196E-05-1.77201E-06
 -1      6286 1.16928E-04 1.85196E-05-1.94675E-06
 -1      6287 1.16928E-04 1.85196E-05-2.12089E-06
 -1      6288 1.16928E-04 1.85196E-05-2.29484E-06
 -1      6289 1.16928E-04 1.85196E-05-2.46897E-06
 -1      6290 1.16928E-04 1.85196E-05-2.64372E-06
 -1      6291 1.16928E-04 1.85196E-05-2.81980E-06
 -1      6292 1.16928E-04 1.85196E-05-2.99863E-06
 -1      6293 1.12591E-04 3.65831E-05-1.41710E-06
 -1      6294 1.12591E-04 3.65831E-05-1.59593E-06
 -1      6295 1.12591E-04 3.65831E-05-1.77201E-06
 -1      6296 1.12591E-04 3.65831E-05-1.94675E-06
 -1      6297 1.12591E-04 3.65832E-05-2.12089E-06
 -1      6298 1.12591E-04 3.65832E-05-2.29484E-06
 -1      6299 1.12591E-04 3.65831E-05-2.46897E-06
 -1      6300 1.12591E-04 3.65831E-05-2.64372E-06
 -1      6301 1.12591E-04 3.65831E-05-2.81980E-06
 -1      6302 1.12591E-04 3.65831E-05-2.99863E-06
 -1      6303 1.05482E-04 5.37459E-05-1.41710E-06
 -1      6304 1.05482E-04 5.37459E-05-1.59593E-06
 -1      6305 1.05482E-04 5.37459E-05-1.77201E-06
 -1      6306 1.05482E-04 5.37459E-05-1.94675E-06
 -1      6307 1.05482E-04 5.37459E-05-2.12089E-06
 -1      6308 1.05482E-04 5.37459E-05-2.29484E-06
 -1      6309 1.05482E-04 5.37459E-05-2.46897E-06
 -1      6310 1.05482E-04 5.37459E-05-2.64372E-06
 -1      6311 1.05482E-04 5.37459E-05-2.81980E-06
 -1      6312 1.05482E-04 5.37459E-05-2.99863E-06
 -1      6313 9.57759E-05 6.95852E-05-1.41710E-06
 -1      6314 9.57758E-05 6.95852E-05-1.59593E-06
 -1      6315 9.57759E-05 6.95853E-05-1.77201E-06
 -1      6316 9.57759E-05 6.95853E-05-1.94675E-06
 -1      6317 9.57760E-05 6.95853E-05-2.12089E-06
 -1      6318 9.57760E-05 6.95853E-05-2.29484E-06
 -1      6319 9.57759E-05 6.95853E-05-2.46897E-06
 -1      6320 9.57759E-05 6.95853E-05-2.64372E-06
 -1      6321 9.57758E-05 6.95852E-05-2.81980E-06
 -1      6322 9.57759E-05 6.95852E-05-2.99863E-06
 -1      6323 8.37112E-05 8.37112E-05-1.41710E-06
 -1      6324 8.37112E-05 8.37112E-05-1.59593E-06
 -1      6325 8.37112E-05 8.37112E-05-1.77201E-06
 -1      6326 8.37112E-05 8.37112E-05-1.94675E-06
 -1      6327 8.37113E-05 8.37113E-05-2.12089E-06
 -1      6328 8.37113E-05 8.37113E-05-2.29484E-06
 -1      6329 8.37112E-05 8.37112E-05-2.46897E-06
 -1      6330 8.37112E-05 8.37112E-05-2.64372E-06
 -1      6331 8.37112E-05 8.37112E-05-2.81980E-06
 -1      6332 8.37112E-05 8.37112E-05-2.99863E-06
 -1      6333 6.95852E-05 9.57759E-05-1.41710E-06
 -1      6334 6.95852E-05 9.57758E-05-1.59593E-06
 -1      6335 6.95853E-05 9.57759E-05-1.77201E-06
 -1      6336 6.95853E-05 9.57759E-05-1.94675E-06
 -1      6337 6.95853E-05 9.57760E-05-2.12089E-06
 -1      6338 6.95853E-05 9.57760E-05-2.29484E-06
 -1      6339 6.95853E-05 9.57759E-05-2.46897E-06
 -1      6340 6.95853E-05 9.57759E-05-2.64372E-06
 -1      6341 6.95852E-05 9.57758E-05-2.81980E-06
 -1      6342 6.95852E-05 9.57759E-05-2.99863E-06
 -1      6343 5.37459E-05 1.05482E-04-1.41710E-06
 -1      6344 5.37459E-05 1.05482E-04-1.59593E-06
 -1      6345 5.37459E-05 1.05482E-04-1.77201E-06
 -1      6346 5.37459E-05 1.05482E-04-1.94675E-06
 -1      6347 5.37459E-05 1.05482E-04-2.12089E-06
 -1      6348 5.37459E-05 1.05482E-04-2.29484E-06
 -1      6349 5.37459E-05 1.05482E-04-2.46897E-06
 -1      6350 5.37459E-05 1.05482E-04-2.64372E-06
 -1      6351 5.37459E-05 1.05482E-04-2.81980E-06
 -1      6352 5.37459E-05 1.05482E-04-2.99863E-06
 -1      6353 3.65831E-05 1.12591E-04-1.41710E-06
 -1      6354 3.65831E-05 1.12591E-04-1.59593E-06
 -1      6355 3.65831E-05 1.12591E-04-1.77201E-06
 -1      6356 3.65831E-05 1.12591E-04-1.94675E-06
 -1      6357 3.65832E-05 1.12591E-04-2.12089E-06
 -1      6358 3.65832E-05 1.12591E-04-2.29484E-06
 -1      6359 3.65831E-05 1.12591E-04-2.46897E-06
 -1      6360 3.65831E-05 1.12591E-04-2.64372E-06
 -1      6361 3.65831E-05 1.12591E-04-2.81980E-06
 -1      6362 3.65831E-05 1.12591E-04-2.99863E-06
 -1      6363 1.85196E-05 1.16928E-04-1.41710E-06
 -1      6364 1.85196E-05 1.16928E-04-1.59593E-06
 -1      6365 1.85196E-05 1.16928E-04-1.77201E-06
 -1      6366 1.85196E-05 1.16928E-04-1.94675E-06
 -1      6367 1.85196E-05 1.16928E-04-2.12089E-06
 -1      6368 1.85196E-05 1.16928E-04-2.29484E-06
 -1      6369 1.85196E-05 1.16928E-04-2.46897E-06
 -1      6370 1.85196E-05 1.16928E-04-2.64372E-06
 -1      6371 1.85196E-05 1.16928E-04-2.81980E-06
 -1      6372 1.85196E-05 1.16928E-04-2.99863E-06
 -1      6373 1.10683E-04 1.75305E-05-1.41741E-06
 -1      6374 1.10683E-04 1.75305E-05-1.59583E-06
 -1      6375 1.10683E-04 1.75305E-05-1.77184E-06
 -1      6376 1.10683E-04 1.75305E-05-1.94663E-06
 -1      6377 1.10683E-04 1.75305E-05-2.12084E-06
 -1      6378 1.10683E-04 1.75305E-05-2.29488E-06
 -1      6379 1.10683E-04 1.75305E-05-2.46909E-06
 -1      6380 1.10683E-04 1.75305E-05-2.64388E-06
 -1      6381 1.10683E-04 1.75305E-05-2.81989E-06
 -1      6382 1.10683E-04 1.75305E-05-2.99832E-06
 -1      6383 1.06578E-04 3.46293E-05-1.41741E-06
 -1      6384 1.06578E-04 3.46293E-05-1.59583E-06
 -1      6385 1.06578E-04 3.46293E-05-1.77184E-06
 -1      6386 1.06578E-04 3.46293E-05-1.94663E-06
 -1      6387 1.06578E-04 3.46293E-05-2.12084E-06
 -1      6388 1.06578E-04 3.46293E-05-2.29488E-06
 -1      6389 1.06578E-04 3.46293E-05-2.46909E-06
 -1      6390 1.06578E-04 3.46293E-05-2.64388E-06
 -1      6391 1.06578E-04 3.46293E-05-2.81989E-06
 -1      6392 1.06578E-04 3.46293E-05-2.99832E-06
 -1      6393 9.98487E-05 5.08754E-05-1.41741E-06
 -1      6394 9.98486E-05 5.08754E-05-1.59583E-06
 -1      6395 9.98486E-05 5.08754E-05-1.77184E-06
 -1      6396 9.98487E-05 5.08754E-05-1.94663E-06
 -1      6397 9.98487E-05 5.08755E-05-2.12084E-06
 -1      6398 9.98487E-05 5.08755E-05-2.29488E-06
 -1      6399 9.98487E-05 5.08754E-05-2.46909E-06
 -1      6400 9.98486E-05 5.08754E-05-2.64388E-06
 -1      6401 9.98486E-05 5.08754E-05-2.81989E-06
 -1      6402 9.98487E-05 5.08754E-05-2.99832E-06
 -1      6403 9.06607E-05 6.58688E-05-1.41741E-06
 -1      6404 9.06606E-05 6.58688E-05-1.59583E-06
 -1      6405 9.06607E-05 6.58688E-05-1.77184E-06
 -1      6406 9.06607E-05 6.58689E-05-1.94663E-06
 -1      6407 9.06607E-05 6.58689E-05-2.12084E-06
 -1      6408 9.06607E-05 6.58689E-05-2.29488E-06
 -1      6409 9.06607E-05 6.58689E-05-2.46909E-06
 -1      6410 9.06607E-05 6.58688E-05-2.64388E-06
 -1      6411 9.06606E-05 6.58688E-05-2.81989E-06
 -1      6412 9.06607E-05 6.58688E-05-2.99832E-06
 -1      6413 7.92403E-05 7.92403E-05-1.41741E-06
 -1      6414 7.92403E-05 7.92403E-05-1.59583E-06
 -1      6415 7.92403E-05 7.92403E-05-1.77184E-06
 -1      6416 7.92404E-05 7.92404E-05-1.94663E-06
 -1      6417 7.92404E-05 7.92404E-05-2.12084E-06
 -1      6418 7.92404E-05 7.92404E-05-2.29488E-06
 -1      6419 7.92404E-05 7.92404E-05-2.46909E-06
 -1      6420 7.92403E-05 7.92403E-05-2.64388E-06
 -1      6421 7.92403E-05 7.92403E-05-2.81989E-06
 -1      6422 7.92403E-05 7.92403E-05-2.99832E-06
 -1      6423 6.58688E-05 9.06607E-05-1.41741E-06
 -1      6424 6.58688E-05 9.06606E-05-1.59583E-06
 -1      6425 6.58688E-05 9.06607E-05-1.77184E-06
 -1      6426 6.58689E-05 9.06607E-05-1.94663E-06
 -1      6427 6.58689E-05 9.06607E-05-2.12084E-06
 -1      6428 6.58689E-05 9.06607E-05-2.29488E-06
 -1      6429 6.58689E-05 9.06607E-05-2.46909E-06
 -1      6430 6.58688E-05 9.06607E-05-2.64388E-06
 -1      6431 6.58688E-05 9.06606E-05-2.81989E-06
 -1      6432 6.58688E-05 9.06607E-05-2.99832E-06
 -1      6433 5.08754E-05 9.98487E-05-1.41741E-06
 -1      6434 5.08754E-05 9.98486E-05-1.59583E-06
 -1      6435 5.08754E-05 9.98486E-05-1.77184E-06
 -1      6436 5.08754E-05 9.98487E-05-1.94663E-06
 -1      6437 5.08755E-05 9.98487E-05-2.12084E-06
 -1      6438 5.08755E-05 9.98487E-05-2.29488E-06
 -1      6439 5.08754E-05 9.98487E-05-2.46909E-06
 -1      6440 5.08754E-05 9.98486E-05-2.64388E-06
 -1      6441 5.08754E-05 9.98486E-05-2.81989E-06
 -1      6442 5.08754E-05 9.98487E-05-2.99832E-06
 -1      6443 3.46293E-05 1.06578E-04-1.41741E-06
 -1      6444 3.46293E-05 1.06578E-04-1.59583E-06
 -1      6445 3.46293E-05 1.06578E-04-1.77184E-06
 -1      6446 3.46293E-05 1.06578E-04-1.94663E-06
 -1      6447 3.46293E-05 1.06578E-04-2.12084E-06
 -1      6448 3.46293E-05 1.06578E-04-2.29488E-06
 -1      6449 3.46293E-05 1.06578E-04-2.46909E-06
 -1      6450 3.46293E-05 1.06578E-04-2.64388E-06
 -1      6451 3.46293E-05 1.06578E-04-2.81989E-06
 -1      6452 3.46293E-05 1.06578E-04-2.99832E-06
 -1      6453 1.75305E-05 1.10683E-04-1.41741E-06
 -1      6454 1.75305E-05 1.10683E-04-1.59583E-06
 -1      6455 1.75305E-05 1.10683E-04-1.77184E-06
 -1      6456 1.75305E-05 1.10683E-04-1.94663E-06
 -1      6457 1.75305E-05 1.10683E-04-2.12084E-06
 -1      6458 1.75305E-05 1.10683E-04-2.29488E-06
 -1      6459 1.75305E-05 1.10683E-04-2.46909E-06
 -1      6460 1.75305E-05 1.10683E-04-2.64388E-06
 -1      6461 1.75305E-05 1.10683E-04-2.81989E-06
 -1      6462 1.75305E-05 1.10683E-04-2.99832E-06
 -1      6463 1.05237E-04 1.66680E-05-1.41772E-06
 -1      6464 1.05237E-04 1.66680E-05-1.59578E-06
 -1      6465 1.05237E-04 1.66680E-05-1.77172E-06
 -1      6466 1.05237E-04 1.66680E-05-1.94653E-06
 -1      6467 1.05237E-04 1.66680E-05-2.12081E-06
 -1      6468 1.05237E-04 1.66680E-05-2.29492E-06
 -1      6469 1.05237E-04 1.66680E-05-2.46919E-06
 -1      6470 1.05237E-04 1.66680E-05-2.64401E-06
 -1      6471 1.05237E-04 1.66680E-05-2.81994E-06
 -1      6472 1.05237E-04 1.66680E-05-2.99800E-06
 -1      6473 1.01334E-04 3.29255E-05-1.41772E-06
 -1      6474 1.01334E-04 3.29255E-05-1.59578E-06
 -1      6475 1.01334E-04 3.29255E-05-1.77172E-06
 -1      6476 1.01334E-04 3.29255E-05-1.94653E-06
 -1      6477 1.01334E-04 3.29255E-05-2.12081E-06
 -1      6478 1.01334E-04 3.29255E-05-2.29492E-06
 -1      6479 1.01334E-04 3.29255E-05-2.46919E-06
 -1      6480 1.01334E-04 3.29255E-05-2.64401E-06
 -1      6481 1.01334E-04 3.29255E-05-2.81994E-06
 -1      6482 1.01334E-04 3.29255E-05-2.99800E-06
 -1      6483 9.49361E-05 4.83724E-05-1.41772E-06
 -1      6484 9.49360E-05 4.83723E-05-1.59578E-06
 -1      6485 9.49360E-05 4.83723E-05-1.77172E-06
 -1      6486 9.49361E-05 4.83723E-05-1.94653E-06
 -1      6487 9.49361E-05 4.83724E-05-2.12081E-06
 -1      6488 9.49361E-05 4.83724E-05-2.29492E-06
 -1      6489 9.49361E-05 4.83723E-05-2.46919E-06
 -1      6490 9.49360E-05 4.83723E-05-2.64401E-06
 -1      6491 9.49360E-05 4.83723E-05-2.81994E-06
 -1      6492 9.49361E-05 4.83724E-05-2.99800E-06
 -1      6493 8.62002E-05 6.26281E-05-1.41772E-06
 -1      6494 8.62001E-05 6.26280E-05-1.59578E-06
 -1      6495 8.62001E-05 6.26281E-05-1.77172E-06
 -1      6496 8.62002E-05 6.26281E-05-1.94653E-06
 -1      6497 8.62002E-05 6.26281E-05-2.12081E-06
 -1      6498 8.62002E-05 6.26281E-05-2.29492E-06
 -1      6499 8.62002E-05 6.26281E-05-2.46919E-06
 -1      6500 8.62001E-05 6.26281E-05-2.64401E-06
 -1      6501 8.62001E-05 6.26280E-05-2.81994E-06
 -1      6502 8.62002E-05 6.26281E-05-2.99800E-06
 -1      6503 7.53417E-05 7.53417E-05-1.41772E-06
 -1      6504 7.53417E-05 7.53417E-05-1.59578E-06
 -1      6505 7.53417E-05 7.53417E-05-1.77172E-06
 -1      6506 7.53417E-05 7.53417E-05-1.94653E-06
 -1      6507 7.53417E-05 7.53417E-05-2.12081E-06
 -1      6508 7.53417E-05 7.53417E-05-2.29492E-06
 -1      6509 7.53417E-05 7.53417E-05-2.46919E-06
 -1      6510 7.53417E-05 7.53417E-05-2.64401E-06
 -1      6511 7.53417E-05 7.53417E-05-2.81994E-06
 -1      6512 7.53417E-05 7.53417E-05-2.99800E-06
 -1      6513 6.26281E-05 8.62002E-05-1.41772E-06
 -1      6514 6.26280E-05 8.62001E-05-1.59578E-06
 -1      6515 6.26281E-05 8.62001E-05-1.77172E-06
 -1      6516 6.26281E-05 8.62002E-05-1.94653E-06
 -1      6517 6.26281E-05 8.62002E-05-2.12081E-06
 -1      6518 6.26281E-05 8.62002E-05-2.29492E-06
 -1      6519 6.26281E-05 8.62002E-05-2.46919E-06
 -1      6520 6.26281E-05 8.62001E-05-2.64401E-06
 -1      6521 6.26280E-05 8.62001E-05-2.81994E-06
 -1      6522 6.26281E-05 8.62002E-05-2.99800E-06
 -1      6523 4.83724E-05 9.49361E-05-1.41772E-06
 -1      6524 4.83723E-05 9.49360E-05-1.59578E-06
 -1      6525 4.83723E-05 9.49360E-05-1.77172E-06
 -1      6526 4.83723E-05 9.49361E-05-1.94653E-06
 -1      6527 4.83724E-05 9.49361E-05-2.12081E-06
 -1      6528 4.83724E-05 9.49361E-05-2.29492E-06
 -1      6529 4.83723E-05 9.49361E-05-2.46919E-06
 -1      6530 4.83723E-05 9.49360E-05-2.64401E-06
 -1      6531 4.83723E-05 9.49360E-05-2.81994E-06
 -1      6532 4.83724E-05 9.49361E-05-2.99800E-06
 -1      6533 3.29255E-05 1.01334E-04-1.41772E-06
 -1      6534 3.29255E-05 1.01334E-04-1.59578E-06
 -1      6535 3.29255E-05 1.01334E-04-1.77172E-06
 -1      6536 3.29255E-05 1.01334E-04-1.94653E-06
 -1      6537 3.29255E-05 1.01334E-04-2.12081E-06
 -1      6538 3.29255E-05 1.01334E-04-2.29492E-06
 -1      6539 3.29255E-05 1.01334E-04-2.46919E-06
 -1      6540 3.29255E-05 1.01334E-04-2.64401E-06
 -1      6541 3.29255E-05 1.01334E-04-2.81994E-06
 -1      6542 3.29255E-05 1.01334E-04-2.99800E-06
 -1      6543 1.66680E-05 1.05237E-04-1.41772E-06
 -1      6544 1.66680E-05 1.05237E-04-1.59578E-06
 -1      6545 1.66680E-05 1.05237E-04-1.77172E-06
 -1      6546 1.66680E-05 1.05237E-04-1.94653E-06
 -1      6547 1.66680E-05 1.05237E-04-2.12081E-06
 -1      6548 1.66680E-05 1.05237E-04-2.29492E-06
 -1      6549 1.66680E-05 1.05237E-04-2.46919E-06
 -1      6550 1.66680E-05 1.05237E-04-2.64401E-06
 -1      6551 1.66680E-05 1.05237E-04-2.81994E-06
 -1      6552 1.66680E-05 1.05237E-04-2.99800E-06
 -1      6553 1.00458E-04 1.59110E-05-1.41803E-06
 -1      6554 1.00458E-04 1.59110E-05-1.59577E-06
 -1      6555 1.00458E-04 1.59110E-05-1.77162E-06
 -1      6556 1.00458E-04 1.59110E-05-1.94645E-06
 -1      6557 1.00458E-04 1.59110E-05-2.12078E-06
 -1      6558 1.00458E-04 1.59110E-05-2.29495E-06
 -1      6559 1.00458E-04 1.59110E-05-2.46928E-06
 -1      6560 1.00458E-04 1.59110E-05-2.64411E-06
 -1      6561 1.00458E-04 1.59110E-05-2.81996E-06
 -1      6562 1.00458E-04 1.59110E-05-2.99769E-06
 -1      6563 9.67321E-05 3.14302E-05-1.41803E-06
 -1      6564 9.67320E-05 3.14301E-05-1.59577E-06
 -1      6565 9.67320E-05 3.14301E-05-1.77162E-06
 -1      6566 9.67320E-05 3.14301E-05-1.94645E-06
 -1      6567 9.67320E-05 3.14301E-05-2.12078E-06
 -1      6568 9.67320E-05 3.14301E-05-2.29495E-06
 -1      6569 9.67320E-05 3.14301E-05-2.46928E-06
 -1      6570 9.67320E-05 3.14301E-05-2.64411E-06
 -1      6571 9.67320E-05 3.14301E-05-2.81996E-06
 -1      6572 9.67321E-05 3.14302E-05-2.99769E-06
 -1      6573 9.06244E-05 4.61754E-05-1.41803E-06
 -1      6574 9.06243E-05 4.61754E-05-1.59577E-06
 -1      6575 9.06243E-05 4.61754E-05-1.77162E-06
 -1      6576 9.06243E-05 4.61754E-05-1.94645E-06
 -1      6577 9.06243E-05 4.61754E-05-2.12078E-06
 -1      6578 9.06243E-05 4.61754E-05-2.29495E-06
 -1      6579 9.06243E-05 4.61754E-05-2.46928E-06
 -1      6580 9.06243E-05 4.61754E-05-2.64411E-06
 -1      6581 9.06243E-05 4.61754E-05-2.81996E-06
 -1      6582 9.06244E-05 4.61754E-05-2.99769E-06
 -1      6583 8.22852E-05 5.97837E-05-1.41803E-06
 -1      6584 8.22851E-05 5.97836E-05-1.59577E-06
 -1      6585 8.22851E-05 5.97837E-05-1.77162E-06
 -1      6586 8.22852E-05 5.97837E-05-1.94645E-06
 -1      6587 8.22852E-05 5.97837E-05-2.12078E-06
 -1      6588 8.22852E-05 5.97837E-05-2.29495E-06
 -1      6589 8.22852E-05 5.97837E-05-2.46928E-06
 -1      6590 8.22851E-05 5.97837E-05-2.64411E-06
 -1      6591 8.22851E-05 5.97836E-05-2.81996E-06
 -1      6592 8.22852E-05 5.97837E-05-2.99769E-06
 -1      6593 7.19199E-05 7.19199E-05-1.41803E-06
 -1      6594 7.19198E-05 7.19198E-05-1.59577E-06
 -1      6595 7.19198E-05 7.19198E-05-1.77162E-06
 -1      6596 7.19199E-05 7.19199E-05-1.94645E-06
 -1      6597 7.19199E-05 7.19199E-05-2.12078E-06
 -1      6598 7.19199E-05 7.19199E-05-2.29495E-06
 -1      6599 7.19199E-05 7.19199E-05-2.46928E-06
 -1      6600 7.19198E-05 7.19198E-05-2.64411E-06
 -1      6601 7.19198E-05 7.19198E-05-2.81996E-06
 -1      6602 7.19199E-05 7.19199E-05-2.99769E-06
 -1      6603 5.97837E-05 8.22852E-05-1.41803E-06
 -1      6604 5.97836E-05 8.22851E-05-1.59577E-06
 -1      6605 5.97837E-05 8.22851E-05-1.77162E-06
 -1      6606 5.97837E-05 8.22852E-05-1.94645E-06
 -1      6607 5.97837E-05 8.22852E-05-2.12078E-06
 -1      6608 5.97837E-05 8.22852E-05-2.29495E-06
 -1      6609 5.97837E-05 8.22852E-05-2.46928E-06
 -1      6610 5.97837E-05 8.22851E-05-2.64411E-06
 -1      6611 5.97836E-05 8.22851E-05-2.81996E-06
 -1      6612 5.97837E-05 8.22852E-05-2.99769E-06
 -1      6613 4.61754E-05 9.06244E-05-1.41803E-06
 -1      6614 4.61754E-05 9.06243E-05-1.59577E-06
 -1      6615 4.61754E-05 9.06243E-05-1.77162E-06
 -1      6616 4.61754E-05 9.06243E-05-1.94645E-06
 -1      6617 4.61754E-05 9.06243E-05-2.12078E-06
 -1      6618 4.61754E-05 9.06243E-05-2.29495E-06
 -1      6619 4.61754E-05 9.06243E-05-2.46928E-06
 -1      6620 4.61754E-05 9.06243E-05-2.64411E-06
 -1      6621 4.61754E-05 9.06243E-05-2.81996E-06
 -1      6622 4.61754E-05 9.06244E-05-2.99769E-06
 -1      6623 3.14302E-05 9.67321E-05-1.41803E-06
 -1      6624 3.14301E-05 9.67320E-05-1.59577E-06
 -1      6625 3.14301E-05 9.67320E-05-1.77162E-06
 -1      6626 3.14301E-05 9.67320E-05-1.94645E-06
 -1      6627 3.14301E-05 9.67320E-05-2.12078E-06
 -1      6628 3.14301E-05 9.67320E-05-2.29495E-06
 -1      6629 3.14301E-05 9.67320E-05-2.46928E-06
 -1      6630 3.14301E-05 9.67320E-05-2.64411E-06
 -1      6631 3.14301E-05 9.67320E-05-2.81996E-06
 -1      6632 3.14302E-05 9.67321E-05-2.99769E-06
 -1      6633 1.59110E-05 1.00458E-04-1.41803E-06
 -1      6634 1.59110E-05 1.00458E-04-1.59577E-06
 -1      6635 1.59110E-05 1.00458E-04-1.77162E-06
 -1      6636 1.59110E-05 1.00458E-04-1.94645E-06
 -1      6637 1.59110E-05 1.00458E-04-2.12078E-06
 -1      6638 1.59110E-05 1.00458E-04-2.29495E-06
 -1      6639 1.59110E-05 1.00458E-04-2.46928E-06
 -1      6640 1.59110E-05 1.00458E-04-2.64411E-06
 -1      6641 1.59110E-05 1.00458E-04-2.81996E-06
 -1      6642 1.59110E-05 1.00458E-04-2.99769E-06
 -1      6643 9.62392E-05 1.52428E-05-1.41834E-06
 -1      6644 9.62391E-05 1.52428E-05-1.59578E-06
 -1      6645 9.62391E-05 1.52428E-05-1.77154E-06
 -1      6646 9.62391E-05 1.52428E-05-1.94638E-06
 -1      6647 9.62391E-05 1.52428E-05-2.12075E-06
 -1      6648 9.62391E-05 1.52428E-05-2.29498E-06
 -1      6649 9.62391E-05 1.52428E-05-2.46934E-06
 -1      6650 9.62391E-05 1.52428E-05-2.64418E-06
 -1      6651 9.62391E-05 1.52428E-05-2.81995E-06
 -1      6652 9.62392E-05 1.52428E-05-2.99739E-06
 -1      6653 9.26698E-05 3.01102E-05-1.41834E-06
 -1      6654 9.26697E-05 3.01102E-05-1.59578E-06
 -1      6655 9.26697E-05 3.01102E-05-1.77154E-06
 -1      6656 9.26697E-05 3.01102E-05-1.94638E-06
 -1      6657 9.26698E-05 3.01102E-05-2.12075E-06
 -1      6658 9.26698E-05 3.01102E-05-2.29498E-06
 -1      6659 9.26697E-05 3.01102E-05-2.46934E-06
 -1      6660 9.26697E-05 3.01102E-05-2.64418E-06
 -1      6661 9.26697E-05 3.01102E-05-2.81995E-06
 -1      6662 9.26698E-05 3.01102E-05-2.99739E-06
 -1      6663 8.68186E-05 4.42363E-05-1.41834E-06
 -1      6664 8.68185E-05 4.42363E-05-1.59578E-06
 -1      6665 8.68185E-05 4.42362E-05-1.77154E-06
 -1      6666 8.68185E-05 4.42363E-05-1.94638E-06
 -1      6667 8.68186E-05 4.42363E-05-2.12075E-06
 -1      6668 8.68186E-05 4.42363E-05-2.29498E-06
 -1      6669 8.68185E-05 4.42363E-05-2.46934E-06
 -1      6670 8.68185E-05 4.42362E-05-2.64418E-06
 -1      6671 8.68185E-05 4.42363E-05-2.81995E-06
 -1      6672 8.68186E-05 4.42363E-05-2.99739E-06
 -1      6673 7.88297E-05 5.72731E-05-1.41834E-06
 -1      6674 7.88296E-05 5.72730E-05-1.59578E-06
 -1      6675 7.88296E-05 5.72730E-05-1.77154E-06
 -1      6676 7.88296E-05 5.72730E-05-1.94638E-06
 -1      6677 7.88296E-05 5.72731E-05-2.12075E-06
 -1      6678 7.88296E-05 5.72731E-05-2.29498E-06
 -1      6679 7.88296E-05 5.72730E-05-2.46934E-06
 -1      6680 7.88296E-05 5.72730E-05-2.64418E-06
 -1      6681 7.88296E-05 5.72730E-05-2.81995E-06
 -1      6682 7.88297E-05 5.72731E-05-2.99739E-06
 -1      6683 6.88996E-05 6.88996E-05-1.41834E-06
 -1      6684 6.88996E-05 6.88996E-05-1.59578E-06
 -1      6685 6.88996E-05 6.88996E-05-1.77154E-06
 -1      6686 6.88996E-05 6.88996E-05-1.94638E-06
 -1      6687 6.88996E-05 6.88996E-05-2.12075E-06
 -1      6688 6.88996E-05 6.88996E-05-2.29498E-06
 -1      6689 6.88996E-05 6.88996E-05-2.46934E-06
 -1      6690 6.88996E-05 6.88996E-05-2.64418E-06
 -1      6691 6.88996E-05 6.88996E-05-2.81995E-06
 -1      6692 6.88996E-05 6.88996E-05-2.99739E-06
 -1      6693 5.72731E-05 7.88297E-05-1.41834E-06
 -1      6694 5.72730E-05 7.88296E-05-1.59578E-06
 -1      6695 5.72730E-05 7.88296E-05-1.77154E-06
 -1      6696 5.72730E-05 7.88296E-05-1.94638E-06
 -1      6697 5.72731E-05 7.88296E-05-2.12075E-06
 -1      6698 5.72731E-05 7.88296E-05-2.29498E-06
 -1      6699 5.72730E-05 7.88296E-05-2.46934E-06
 -1      6700 5.72730E-05 7.88296E-05-2.64418E-06
 -1      6701 5.72730E-05 7.88296E-05-2.81995E-06
 -1      6702 5.72731E-05 7.88297E-05-2.99739E-06
 -1      6703 4.42363E-05 8.68186E-05-1.41834E-06
 -1      6704 4.42363E-05 8.68185E-05-1.59578E-06
 -1      6705 4.42362E-05 8.68185E-05-1.77154E-06
 -1      6706 4.42363E-05 8.68185E-05-1.94638E-06
 -1      6707 4.42363E-05 8.68186E-05-2.12075E-06
 -1      6708 4.42363E-05 8.68186E-05-2.29498E-06
 -1      6709 4.42363E-05 8.68185E-05-2.46934E-06
 -1      6710 4.42362E-05 8.68185E-05-2.64418E-06
 -1      6711 4.42363E-05 8.68185E-05-2.81995E-06
 -1      6712 4.42363E-05 8.68186E-05-2.99739E-06
 -1      6713 3.01102E-05 9.26698E-05-1.41834E-06
 -1      6714 3.01102E-05 9.26697E-05-1.59578E-06
 -1      6715 3.01102E-05 9.26697E-05-1.77154E-06
 -1      6716 3.01102E-05 9.26697E-05-1.94638E-06
 -1      6717 3.01102E-05 9.26698E-05-2.12075E-06
 -1      6718 3.01102E-05 9.26698E-05-2.29498E-06
 -1      6719 3.01102E-05 9.26697E-05-2.46934E-06
 -1      6720 3.01102E-05 9.26697E-05-2.64418E-06
 -1      6721 3.01102E-05 9.26697E-05-2.81995E-06
 -1      6722 3.01102E-05 9.26698E-05-2.99739E-06
 -1      6723 1.52428E-05 9.62392E-05-1.41834E-06
 -1      6724 1.52428E-05 9.62391E-05-1.59578E-06
 -1      6725 1.52428E-05 9.62391E-05-1.77154E-06
 -1      6726 1.52428E-05 9.62391E-05-1.94638E-06
 -1      6727 1.52428E-05 9.62391E-05-2.12075E-06
 -1      6728 1.52428E-05 9.62391E-05-2.29498E-06
 -1      6729 1.52428E-05 9.62391E-05-2.46934E-06
 -1      6730 1.52428E-05 9.62391E-05-2.64418E-06
 -1      6731 1.52428E-05 9.62391E-05-2.81995E-06
 -1      6732 1.52428E-05 9.62392E-05-2.99739E-06
 -1      6733 9.24972E-05 1.46501E-05-1.41864E-06
 -1      6734 9.24971E-05 1.46501E-05-1.59581E-06
 -1      6735 9.24971E-05 1.46501E-05-1.77149E-06
 -1      6736 9.24971E-05 1.46501E-05-1.94633E-06
 -1      6737 9.24971E-05 1.46501E-05-2.12073E-06
 -1      6738 9.24971E-05 1.46501E-05-2.29500E-06
 -1      6739 9.24971E-05 1.46501E-05-2.46940E-06
 -1      6740 9.24971E-05 1.46501E-05-2.64423E-06
 -1      6741 9.24971E-05 1.46501E-05-2.81991E-06
 -1      6742 9.24972E-05 1.46501E-05-2.99708E-06
 -1      6743 8.90666E-05 2.89395E-05-1.41864E-06
 -1      6744 8.90665E-05 2.89395E-05-1.59581E-06
 -1      6745 8.90665E-05 2.89395E-05-1.77149E-06
 -1      6746 8.90665E-05 2.89395E-05-1.94633E-06
 -1      6747 8.90665E-05 2.89395E-05-2.12073E-06
 -1      6748 8.90665E-05 2.89395E-05-2.29500E-06
 -1      6749 8.90665E-05 2.89395E-05-2.46940E-06
 -1      6750 8.90665E-05 2.89395E-05-2.64423E-06
 -1      6751 8.90665E-05 2.89395E-05-2.81991E-06
 -1      6752 8.90666E-05 2.89395E-05-2.99708E-06
 -1      6753 8.34429E-05 4.25163E-05-1.41864E-06
 -1      6754 8.34429E-05 4.25163E-05-1.59581E-06
 -1      6755 8.34428E-05 4.25162E-05-1.77149E-06
 -1      6756 8.34429E-05 4.25163E-05-1.94633E-06
 -1      6757 8.34429E-05 4.25163E-05-2.12073E-06
 -1      6758 8.34429E-05 4.25163E-05-2.29500E-06
 -1      6759 8.34429E-05 4.25163E-05-2.46940E-06
 -1      6760 8.34428E-05 4.25162E-05-2.64423E-06
 -1      6761 8.34429E-05 4.25163E-05-2.81991E-06
 -1      6762 8.34429E-05 4.25163E-05-2.99708E-06
 -1      6763 7.57646E-05 5.50462E-05-1.41864E-06
 -1      6764 7.57645E-05 5.50461E-05-1.59581E-06
 -1      6765 7.57645E-05 5.50461E-05-1.77149E-06
 -1      6766 7.57645E-05 5.50461E-05-1.94633E-06
 -1      6767 7.57645E-05 5.50462E-05-2.12073E-06
 -1      6768 7.57645E-05 5.50462E-05-2.29500E-06
 -1      6769 7.57645E-05 5.50461E-05-2.46940E-06
 -1      6770 7.57645E-05 5.50461E-05-2.64423E-06
 -1      6771 7.57645E-05 5.50461E-05-2.81991E-06
 -1      6772 7.57646E-05 5.50462E-05-2.99708E-06
 -1      6773 6.62207E-05 6.62207E-05-1.41864E-06
 -1      6774 6.62206E-05 6.62206E-05-1.59581E-06
 -1      6775 6.62206E-05 6.62206E-05-1.77149E-06
 -1      6776 6.62206E-05 6.62206E-05-1.94633E-06
 -1      6777 6.62206E-05 6.62206E-05-2.12073E-06
 -1      6778 6.62206E-05 6.62206E-05-2.29500E-06
 -1      6779 6.62206E-05 6.62206E-05-2.46940E-06
 -1      6780 6.62206E-05 6.62206E-05-2.64423E-06
 -1      6781 6.62206E-05 6.62206E-05-2.81991E-06
 -1      6782 6.62207E-05 6.62207E-05-2.99708E-06
 -1      6783 5.50462E-05 7.57646E-05-1.41864E-06
 -1      6784 5.50461E-05 7.57645E-05-1.59581E-06
 -1      6785 5.50461E-05 7.57645E-05-1.77149E-06
 -1      6786 5.50461E-05 7.57645E-05-1.94633E-06
 -1      6787 5.50462E-05 7.57645E-05-2.12073E-06
 -1      6788 5.50462E-05 7.57645E-05-2.29500E-06
 -1      6789 5.50461E-05 7.57645E-05-2.46940E-06
 -1      6790 5.50461E-05 7.57645E-05-2.64423E-06
 -1      6791 5.50461E-05 7.57645E-05-2.81991E-06
 -1      6792 5.50462E-05 7.57646E-05-2.99708E-06
 -1      6793 4.25163E-05 8.34429E-05-1.41864E-06
 -1      6794 4.25163E-05 8.34429E-05-1.59581E-06
 -1      6795 4.25162E-05 8.34428E-05-1.77149E-06
 -1      6796 4.25163E-05 8.34429E-05-1.94633E-06
 -1      6797 4.25163E-05 8.34429E-05-2.12073E-06
 -1      6798 4.25163E-05 8.34429E-05-2.29500E-06
 -1      6799 4.25163E-05 8.34429E-05-2.46940E-06
 -1      6800 4.25162E-05 8.34428E-05-2.64423E-06
 -1      6801 4.25163E-05 8.34429E-05-2.81991E-06
 -1      6802 4.25163E-05 8.34429E-05-2.99708E-06
 -1      6803 2.89395E-05 8.90666E-05-1.41864E-06
 -1      6804 2.89395E-05 8.90665E-05-1.59581E-06
 -1      6805 2.89395E-05 8.90665E-05-1.77149E-06
 -1      6806 2.89395E-05 8.90665E-05-1.94633E-06
 -1      6807 2.89395E-05 8.90665E-05-2.12073E-06
 -1      6808 2.89395E-05 8.90665E-05-2.29500E-06
 -1      6809 2.89395E-05 8.90665E-05-2.46940E-06
 -1      6810 2.89395E-05 8.90665E-05-2.64423E-06
 -1      6811 2.89395E-05 8.90665E-05-2.81991E-06
 -1      6812 2.89395E-05 8.90666E-05-2.99708E-06
 -1      6813 1.46501E-05 9.24972E-05-1.41864E-06
 -1      6814 1.46501E-05 9.24971E-05-1.59581E-06
 -1      6815 1.46501E-05 9.24971E-05-1.77149E-06
 -1      6816 1.46501E-05 9.24971E-05-1.94633E-06
 -1      6817 1.46501E-05 9.24971E-05-2.12073E-06
 -1      6818 1.46501E-05 9.24971E-05-2.29500E-06
 -1      6819 1.46501E-05 9.24971E-05-2.46940E-06
 -1      6820 1.46501E-05 9.24971E-05-2.64423E-06
 -1      6821 1.46501E-05 9.24971E-05-2.81991E-06
 -1      6822 1.46501E-05 9.24972E-05-2.99708E-06
 -1      6823 8.91639E-05 1.41222E-05-1.41894E-06
 -1      6824 8.91638E-05 1.41222E-05-1.59587E-06
 -1      6825 8.91638E-05 1.41222E-05-1.77146E-06
 -1      6826 8.91638E-05 1.41222E-05-1.94629E-06
 -1      6827 8.91638E-05 1.41222E-05-2.12071E-06
 -1      6828 8.91638E-05 1.41222E-05-2.29501E-06
 -1      6829 8.91638E-05 1.41222E-05-2.46944E-06
 -1      6830 8.91638E-05 1.41222E-05-2.64427E-06
 -1      6831 8.91638E-05 1.41222E-05-2.81986E-06
 -1      6832 8.91639E-05 1.41222E-05-2.99679E-06
 -1      6833 8.58569E-05 2.78966E-05-1.41894E-06
 -1      6834 8.58568E-05 2.78966E-05-1.59587E-06
 -1      6835 8.58568E-05 2.78966E-05-1.77146E-06
 -1      6836 8.58568E-05 2.78966E-05-1.94629E-06
 -1      6837 8.58568E-05 2.78966E-05-2.12071E-06
 -1      6838 8.58568E-05 2.78966E-05-2.29501E-06
 -1      6839 8.58568E-05 2.78966E-05-2.46944E-06
 -1      6840 8.58568E-05 2.78966E-05-2.64427E-06
 -1      6841 8.58568E-05 2.78966E-05-2.81986E-06
 -1      6842 8.58569E-05 2.78966E-05-2.99679E-06
 -1      6843 8.04359E-05 4.09841E-05-1.41894E-06
 -1      6844 8.04358E-05 4.09841E-05-1.59587E-06
 -1      6845 8.04358E-05 4.09841E-05-1.77146E-06
 -1      6846 8.04358E-05 4.09841E-05-1.94629E-06
 -1      6847 8.04358E-05 4.09841E-05-2.12071E-06
 -1      6848 8.04358E-05 4.09841E-05-2.29501E-06
 -1      6849 8.04358E-05 4.09841E-05-2.46944E-06
 -1      6850 8.04358E-05 4.09841E-05-2.64427E-06
 -1      6851 8.04358E-05 4.09841E-05-2.81986E-06
 -1      6852 8.04359E-05 4.09841E-05-2.99679E-06
 -1      6853 7.30343E-05 5.30625E-05-1.41894E-06
 -1      6854 7.30342E-05 5.30624E-05-1.59587E-06
 -1      6855 7.30342E-05 5.30624E-05-1.77146E-06
 -1      6856 7.30342E-05 5.30624E-05-1.94629E-06
 -1      6857 7.30342E-05 5.30624E-05-2.12071E-06
 -1      6858 7.30342E-05 5.30624E-05-2.29501E-06
 -1      6859 7.30342E-05 5.30624E-05-2.46944E-06
 -1      6860 7.30342E-05 5.30624E-05-2.64427E-06
 -1      6861 7.30342E-05 5.30624E-05-2.81986E-06
 -1      6862 7.30343E-05 5.30625E-05-2.99679E-06
 -1      6863 6.38343E-05 6.38343E-05-1.41894E-06
 -1      6864 6.38342E-05 6.38342E-05-1.59587E-06
 -1      6865 6.38342E-05 6.38342E-05-1.77146E-06
 -1      6866 6.38342E-05 6.38342E-05-1.94629E-06
 -1      6867 6.38342E-05 6.38342E-05-2.12071E-06
 -1      6868 6.38342E-05 6.38342E-05-2.29501E-06
 -1      6869 6.38342E-05 6.38342E-05-2.46944E-06
 -1      6870 6.38342E-05 6.38342E-05-2.64427E-06
 -1      6871 6.38342E-05 6.38342E-05-2.81986E-06
 -1      6872 6.38343E-05 6.38343E-05-2.99679E-06
 -1      6873 5.30625E-05 7.30343E-05-1.41894E-06
 -1      6874 5.30624E-05 7.30342E-05-1.59587E-06
 -1      6875 5.30624E-05 7.30342E-05-1.77146E-06
 -1      6876 5.30624E-05 7.30342E-05-1.94629E-06
 -1      6877 5.30624E-05 7.30342E-05-2.12071E-06
 -1      6878 5.30624E-05 7.30342E-05-2.29501E-06
 -1      6879 5.30624E-05 7.30342E-05-2.46944E-06
 -1      6880 5.30624E-05 7.30342E-05-2.64427E-06
 -1      6881 5.30624E-05 7.30342E-05-2.81986E-06
 -1      6882 5.30625E-05 7.30343E-05-2.99679E-06
 -1      6883 4.09841E-05 8.04359E-05-1.41894E-06
 -1      6884 4.09841E-05 8.04358E-05-1.59587E-06
 -1      6885 4.09841E-05 8.04358E-05-1.77146E-06
 -1      6886 4.09841E-05 8.04358E-05-1.94629E-06
 -1      6887 4.09841E-05 8.04358E-05-2.12071E-06
 -1      6888 4.09841E-05 8.04358E-05-2.29501E-06
 -1      6889 4.09841E-05 8.04358E-05-2.46944E-06
 -1      6890 4.09841E-05 8.04358E-05-2.64427E-06
 -1      6891 4.09841E-05 8.04358E-05-2.81986E-06
 -1      6892 4.09841E-05 8.04359E-05-2.99679E-06
 -1      6893 2.78966E-05 8.58569E-05-1.41894E-06
 -1      6894 2.78966E-05 8.58568E-05-1.59587E-06
 -1      6895 2.78966E-05 8.58568E-05-1.77146E-06
 -1      6896 2.78966E-05 8.58568E-05-1.94629E-06
 -1      6897 2.78966E-05 8.58568E-05-2.12071E-06
 -1      6898 2.78966E-05 8.58568E-05-2.29501E-06
 -1      6899 2.78966E-05 8.58568E-05-2.46944E-06
 -1      6900 2.78966E-05 8.58568E-05-2.64427E-06
 -1      6901 2.78966E-05 8.58568E-05-2.81986E-06
 -1      6902 2.78966E-05 8.58569E-05-2.99679E-06
 -1      6903 1.41222E-05 8.91639E-05-1.41894E-06
 -1      6904 1.41222E-05 8.91638E-05-1.59587E-06
 -1      6905 1.41222E-05 8.91638E-05-1.77146E-06
 -1      6906 1.41222E-05 8.91638E-05-1.94629E-06
 -1      6907 1.41222E-05 8.91638E-05-2.12071E-06
 -1      6908 1.41222E-05 8.91638E-05-2.29501E-06
 -1      6909 1.41222E-05 8.91638E-05-2.46944E-06
 -1      6910 1.41222E-05 8.91638E-05-2.64427E-06
 -1      6911 1.41222E-05 8.91638E-05-2.81986E-06
 -1      6912 1.41222E-05 8.91639E-05-2.99679E-06
 -1      6913 8.61835E-05 1.36501E-05-1.41923E-06
 -1      6914 8.61834E-05 1.36501E-05-1.59594E-06
 -1      6915 8.61833E-05 1.36501E-05-1.77145E-06
 -1      6916 8.61833E-05 1.36501E-05-1.94626E-06
 -1      6917 8.61833E-05 1.36501E-05-2.12070E-06
 -1      6918 8.61833E-05 1.36501E-05-2.29503E-06
 -1      6919 8.61833E-05 1.36501E-05-2.46947E-06
 -1      6920 8.61833E-05 1.36501E-05-2.64428E-06
 -1      6921 8.61834E-05 1.36501E-05-2.81979E-06
 -1      6922 8.61835E-05 1.36501E-05-2.99649E-06
 -1      6923 8.29871E-05 2.69641E-05-1.41923E-06
 -1      6924 8.29870E-05 2.69641E-05-1.59594E-06
 -1      6925 8.29869E-05 2.69641E-05-1.77145E-06
 -1      6926 8.29869E-05 2.69641E-05-1.94626E-06
 -1      6927 8.29869E-05 2.69641E-05-2.12070E-06
 -1      6928 8.29869E-05 2.69641E-05-2.29503E-06
 -1      6929 8.29869E-05 2.69641E-05-2.46947E-06
 -1      6930 8.29869E-05 2.69641E-05-2.64428E-06
 -1      6931 8.29870E-05 2.69641E-05-2.81979E-06
 -1      6932 8.29871E-05 2.69641E-05-2.99649E-06
 -1      6933 7.77472E-05 3.96142E-05-1.41923E-06
 -1      6934 7.77471E-05 3.96141E-05-1.59594E-06
 -1      6935 7.77471E-05 3.96141E-05-1.77145E-06
 -1      6936 7.77471E-05 3.96141E-05-1.94626E-06
 -1      6937 7.77471E-05 3.96141E-05-2.12070E-06
 -1      6938 7.77471E-05 3.96141E-05-2.29503E-06
 -1      6939 7.77471E-05 3.96141E-05-2.46947E-06
 -1      6940 7.77471E-05 3.96141E-05-2.64428E-06
 -1      6941 7.77471E-05 3.96141E-05-2.81979E-06
 -1      6942 7.77472E-05 3.96142E-05-2.99649E-06
 -1      6943 7.05930E-05 5.12888E-05-1.41923E-06
 -1      6944 7.05929E-05 5.12888E-05-1.59594E-06
 -1      6945 7.05929E-05 5.12887E-05-1.77145E-06
 -1      6946 7.05929E-05 5.12887E-05-1.94626E-06
 -1      6947 7.05929E-05 5.12887E-05-2.12070E-06
 -1      6948 7.05929E-05 5.12887E-05-2.29503E-06
 -1      6949 7.05929E-05 5.12887E-05-2.46947E-06
 -1      6950 7.05929E-05 5.12887E-05-2.64428E-06
 -1      6951 7.05929E-05 5.12888E-05-2.81979E-06
 -1      6952 7.05930E-05 5.12888E-05-2.99649E-06
 -1      6953 6.17005E-05 6.17005E-05-1.41923E-06
 -1      6954 6.17005E-05 6.17005E-05-1.59594E-06
 -1      6955 6.17005E-05 6.17005E-05-1.77145E-06
 -1      6956 6.17005E-05 6.17005E-05-1.94626E-06
 -1      6957 6.17005E-05 6.17005E-05-2.12070E-06
 -1      6958 6.17005E-05 6.17005E-05-2.29503E-06
 -1      6959 6.17005E-05 6.17005E-05-2.46947E-06
 -1      6960 6.17005E-05 6.17005E-05-2.64428E-06
 -1      6961 6.17005E-05 6.17005E-05-2.81979E-06
 -1      6962 6.17005E-05 6.17005E-05-2.99649E-06
 -1      6963 5.12888E-05 7.05930E-05-1.41923E-06
 -1      6964 5.12888E-05 7.05929E-05-1.59594E-06
 -1      6965 5.12887E-05 7.05929E-05-1.77145E-06
 -1      6966 5.12887E-05 7.05929E-05-1.94626E-06
 -1      6967 5.12887E-05 7.05929E-05-2.12070E-06
 -1      6968 5.12887E-05 7.05929E-05-2.29503E-06
 -1      6969 5.12887E-05 7.05929E-05-2.46947E-06
 -1      6970 5.12887E-05 7.05929E-05-2.64428E-06
 -1      6971 5.12888E-05 7.05929E-05-2.81979E-06
 -1      6972 5.12888E-05 7.05930E-05-2.99649E-06
 -1      6973 3.96142E-05 7.77472E-05-1.41923E-06
 -1      6974 3.96141E-05 7.77471E-05-1.59594E-06
 -1      6975 3.96141E-05 7.77471E-05-1.77145E-06
 -1      6976 3.96141E-05 7.77471E-05-1.94626E-06
 -1      6977 3.96141E-05 7.77471E-05-2.12070E-06
 -1      6978 3.96141E-05 7.77471E-05-2.29503E-06
 -1      6979 3.96141E-05 7.77471E-05-2.46947E-06
 -1      6980 3.96141E-05 7.77471E-05-2.64428E-06
 -1      6981 3.96141E-05 7.77471E-05-2.81979E-06
 -1      6982 3.96142E-05 7.77472E-05-2.99649E-06
 -1      6983 2.69641E-05 8.29871E-05-1.41923E-06
 -1      6984 2.69641E-05 8.29870E-05-1.59594E-06
 -1      6985 2.69641E-05 8.29869E-05-1.77145E-06
 -1      6986 2.69641E-05 8.29869E-05-1.94626E-06
 -1      6987 2.69641E-05 8.29869E-05-2.12070E-06
 -1      6988 2.69641E-05 8.29869E-05-2.29503E-06
 -1      6989 2.69641E-05 8.29869E-05-2.46947E-06
 -1      6990 2.69641E-05 8.29869E-05-2.64428E-06
 -1      6991 2.69641E-05 8.29870E-05-2.81979E-06
 -1      6992 2.69641E-05 8.29871E-05-2.99649E-06
 -1      6993 1.36501E-05 8.61835E-05-1.41923E-06
 -1      6994 1.36501E-05 8.61834E-05-1.59594E-06
 -1      6995 1.36501E-05 8.61833E-05-1.77145E-06
 -1      6996 1.36501E-05 8.61833E-05-1.94626E-06
 -1      6997 1.36501E-05 8.61833E-05-2.12070E-06
 -1      6998 1.36501E-05 8.61833E-05-2.29503E-06
 -1      6999 1.36501E-05 8.61833E-05-2.46947E-06
 -1      7000 1.36501E-05 8.61833E-05-2.64428E-06
 -1      7001 1.36501E-05 8.61834E-05-2.81979E-06
 -1      7002 1.36501E-05 8.61835E-05-2.99649E-06
 -1      7003 8.35099E-05 1.32267E-05-1.41952E-06
 -1      7004 8.35098E-05 1.32267E-05-1.59602E-06
 -1      7005 8.35098E-05 1.32267E-05-1.77145E-06
 -1      7006 8.35098E-05 1.32267E-05-1.94624E-06
 -1      7007 8.35098E-05 1.32267E-05-2.12069E-06
 -1      7008 8.35098E-05 1.32267E-05-2.29504E-06
 -1      7009 8.35098E-05 1.32267E-05-2.46949E-06
 -1      7010 8.35098E-05 1.32267E-05-2.64428E-06
 -1      7011 8.35098E-05 1.32267E-05-2.81971E-06
 -1      7012 8.35099E-05 1.32267E-05-2.99621E-06
 -1      7013 8.04127E-05 2.61277E-05-1.41952E-06
 -1      7014 8.04126E-05 2.61276E-05-1.59602E-06
 -1      7015 8.04125E-05 2.61276E-05-1.77145E-06
 -1      7016 8.04125E-05 2.61276E-05-1.94624E-06
 -1      7017 8.04125E-05 2.61276E-05-2.12069E-06
 -1      7018 8.04125E-05 2.61276E-05-2.29504E-06
 -1      7019 8.04125E-05 2.61276E-05-2.46949E-06
 -1      7020 8.04125E-05 2.61276E-05-2.64428E-06
 -1      7021 8.04126E-05 2.61276E-05-2.81971E-06
 -1      7022 8.04127E-05 2.61277E-05-2.99621E-06
 -1      7023 7.53354E-05 3.83853E-05-1.41952E-06
 -1      7024 7.53353E-05 3.83853E-05-1.59602E-06
 -1      7025 7.53353E-05 3.83852E-05-1.77145E-06
 -1      7026 7.53353E-05 3.83852E-05-1.94624E-06
 -1      7027 7.53353E-05 3.83852E-05-2.12069E-06
 -1      7028 7.53353E-05 3.83852E-05-2.29504E-06
 -1      7029 7.53353E-05 3.83852E-05-2.46949E-06
 -1      7030 7.53353E-05 3.83852E-05-2.64428E-06
 -1      7031 7.53353E-05 3.83853E-05-2.81971E-06
 -1      7032 7.53354E-05 3.83853E-05-2.99621E-06
 -1      7033 6.84031E-05 4.96978E-05-1.41952E-06
 -1      7034 6.84030E-05 4.96977E-05-1.59602E-06
 -1      7035 6.84030E-05 4.96977E-05-1.77145E-06
 -1      7036 6.84030E-05 4.96977E-05-1.94624E-06
 -1      7037 6.84030E-05 4.96977E-05-2.12069E-06
 -1      7038 6.84030E-05 4.96977E-05-2.29504E-06
 -1      7039 6.84030E-05 4.96977E-05-2.46949E-06
 -1      7040 6.84030E-05 4.96977E-05-2.64428E-06
 -1      7041 6.84030E-05 4.96977E-05-2.81971E-06
 -1      7042 6.84031E-05 4.96978E-05-2.99621E-06
 -1      7043 5.97865E-05 5.97865E-05-1.41952E-06
 -1      7044 5.97864E-05 5.97864E-05-1.59602E-06
 -1      7045 5.97864E-05 5.97864E-05-1.77145E-06
 -1      7046 5.97864E-05 5.97864E-05-1.94624E-06
 -1      7047 5.97864E-05 5.97864E-05-2.12069E-06
 -1      7048 5.97864E-05 5.97864E-05-2.29504E-06
 -1      7049 5.97864E-05 5.97864E-05-2.46949E-06
 -1      7050 5.97864E-05 5.97864E-05-2.64428E-06
 -1      7051 5.97864E-05 5.97864E-05-2.81971E-06
 -1      7052 5.97865E-05 5.97865E-05-2.99621E-06
 -1      7053 4.96978E-05 6.84031E-05-1.41952E-06
 -1      7054 4.96977E-05 6.84030E-05-1.59602E-06
 -1      7055 4.96977E-05 6.84030E-05-1.77145E-06
 -1      7056 4.96977E-05 6.84030E-05-1.94624E-06
 -1      7057 4.96977E-05 6.84030E-05-2.12069E-06
 -1      7058 4.96977E-05 6.84030E-05-2.29504E-06
 -1      7059 4.96977E-05 6.84030E-05-2.46949E-06
 -1      7060 4.96977E-05 6.84030E-05-2.64428E-06
 -1      7061 4.96977E-05 6.84030E-05-2.81971E-06
 -1      7062 4.96978E-05 6.84031E-05-2.99621E-06
 -1      7063 3.83853E-05 7.53354E-05-1.41952E-06
 -1      7064 3.83853E-05 7.53353E-05-1.59602E-06
 -1      7065 3.83852E-05 7.53353E-05-1.77145E-06
 -1      7066 3.83852E-05 7.53353E-05-1.94624E-06
 -1      7067 3.83852E-05 7.53353E-05-2.12069E-06
 -1      7068 3.83852E-05 7.53353E-05-2.29504E-06
 -1      7069 3.83852E-05 7.53353E-05-2.46949E-06
 -1      7070 3.83852E-05 7.53353E-05-2.64428E-06
 -1      7071 3.83853E-05 7.53353E-05-2.81971E-06
 -1      7072 3.83853E-05 7.53354E-05-2.99621E-06
 -1      7073 2.61277E-05 8.04127E-05-1.41952E-06
 -1      7074 2.61276E-05 8.04126E-05-1.59602E-06
 -1      7075 2.61276E-05 8.04125E-05-1.77145E-06
 -1      7076 2.61276E-05 8.04125E-05-1.94624E-06
 -1      7077 2.61276E-05 8.04125E-05-2.12069E-06
 -1      7078 2.61276E-05 8.04125E-05-2.29504E-06
 -1      7079 2.61276E-05 8.04125E-05-2.46949E-06
 -1      7080 2.61276E-05 8.04125E-05-2.64428E-06
 -1      7081 2.61276E-05 8.04126E-05-2.81971E-06
 -1      7082 2.61277E-05 8.04127E-05-2.99621E-06
 -1      7083 1.32267E-05 8.35099E-05-1.41952E-06
 -1      7084 1.32267E-05 8.35098E-05-1.59602E-06
 -1      7085 1.32267E-05 8.35098E-05-1.77145E-06
 -1      7086 1.32267E-05 8.35098E-05-1.94624E-06
 -1      7087 1.32267E-05 8.35098E-05-2.12069E-06
 -1      7088 1.32267E-05 8.35098E-05-2.29504E-06
 -1      7089 1.32267E-05 8.35098E-05-2.46949E-06
 -1      7090 1.32267E-05 8.35098E-05-2.64428E-06
 -1      7091 1.32267E-05 8.35098E-05-2.81971E-06
 -1      7092 1.32267E-05 8.35099E-05-2.99621E-06
 -1      7093 8.11049E-05 1.28458E-05-1.41980E-06
 -1      7094 8.11048E-05 1.28457E-05-1.59611E-06
 -1      7095 8.11048E-05 1.28457E-05-1.77146E-06
 -1      7096 8.11048E-05 1.28457E-05-1.94623E-06
 -1      7097 8.11048E-05 1.28457E-05-2.12068E-06
 -1      7098 8.11048E-05 1.28457E-05-2.29504E-06
 -1      7099 8.11048E-05 1.28457E-05-2.46950E-06
 -1      7100 8.11048E-05 1.28457E-05-2.64427E-06
 -1      7101 8.11048E-05 1.28457E-05-2.81962E-06
 -1      7102 8.11049E-05 1.28458E-05-2.99593E-06
 -1      7103 7.80969E-05 2.53752E-05-1.41980E-06
 -1      7104 7.80968E-05 2.53752E-05-1.59611E-06
 -1      7105 7.80967E-05 2.53752E-05-1.77146E-06
 -1      7106 7.80967E-05 2.53752E-05-1.94623E-06
 -1      7107 7.80967E-05 2.53752E-05-2.12068E-06
 -1      7108 7.80967E-05 2.53752E-05-2.29504E-06
 -1      7109 7.80967E-05 2.53752E-05-2.46950E-06
 -1      7110 7.80967E-05 2.53752E-05-2.64427E-06
 -1      7111 7.80968E-05 2.53752E-05-2.81962E-06
 -1      7112 7.80969E-05 2.53752E-05-2.99593E-06
 -1      7113 7.31658E-05 3.72798E-05-1.41980E-06
 -1      7114 7.31657E-05 3.72798E-05-1.59611E-06
 -1      7115 7.31657E-05 3.72798E-05-1.77146E-06
 -1      7116 7.31657E-05 3.72798E-05-1.94623E-06
 -1      7117 7.31657E-05 3.72798E-05-2.12068E-06
 -1      7118 7.31657E-05 3.72798E-05-2.29504E-06
 -1      7119 7.31657E-05 3.72798E-05-2.46950E-06
 -1      7120 7.31657E-05 3.72798E-05-2.64427E-06
 -1      7121 7.31657E-05 3.72798E-05-2.81962E-06
 -1      7122 7.31658E-05 3.72798E-05-2.99593E-06
 -1      7123 6.64332E-05 4.82665E-05-1.41980E-06
 -1      7124 6.64331E-05 4.82665E-05-1.59611E-06
 -1      7125 6.64330E-05 4.82664E-05-1.77146E-06
 -1      7126 6.64330E-05 4.82664E-05-1.94623E-06
 -1      7127 6.64330E-05 4.82664E-05-2.12068E-06
 -1      7128 6.64330E-05 4.82664E-05-2.29504E-06
 -1      7129 6.64330E-05 4.82664E-05-2.46950E-06
 -1      7130 6.64330E-05 4.82664E-05-2.64427E-06
 -1      7131 6.64331E-05 4.82665E-05-2.81962E-06
 -1      7132 6.64332E-05 4.82665E-05-2.99593E-06
 -1      7133 5.80647E-05 5.80647E-05-1.41980E-06
 -1      7134 5.80646E-05 5.80646E-05-1.59611E-06
 -1      7135 5.80646E-05 5.80646E-05-1.77146E-06
 -1      7136 5.80646E-05 5.80646E-05-1.94623E-06
 -1      7137 5.80646E-05 5.80646E-05-2.12068E-06
 -1      7138 5.80646E-05 5.80646E-05-2.29504E-06
 -1      7139 5.80646E-05 5.80646E-05-2.46950E-06
 -1      7140 5.80646E-05 5.80646E-05-2.64427E-06
 -1      7141 5.80646E-05 5.80646E-05-2.81962E-06
 -1      7142 5.80647E-05 5.80647E-05-2.99593E-06
 -1      7143 4.82665E-05 6.64332E-05-1.41980E-06
 -1      7144 4.82665E-05 6.64331E-05-1.59611E-06
 -1      7145 4.82664E-05 6.64330E-05-1.77146E-06
 -1      7146 4.82664E-05 6.64330E-05-1.94623E-06
 -1      7147 4.82664E-05 6.64330E-05-2.12068E-06
 -1      7148 4.82664E-05 6.64330E-05-2.29504E-06
 -1      7149 4.82664E-05 6.64330E-05-2.46950E-06
 -1      7150 4.82664E-05 6.64330E-05-2.64427E-06
 -1      7151 4.82665E-05 6.64331E-05-2.81962E-06
 -1      7152 4.82665E-05 6.64332E-05-2.99593E-06
 -1      7153 3.72798E-05 7.31658E-05-1.41980E-06
 -1      7154 3.72798E-05 7.31657E-05-1.59611E-06
 -1      7155 3.72798E-05 7.31657E-05-1.77146E-06
 -1      7156 3.72798E-05 7.31657E-05-1.94623E-06
 -1      7157 3.72798E-05 7.31657E-05-2.12068E-06
 -1      7158 3.72798E-05 7.31657E-05-2.29504E-06
 -1      7159 3.72798E-05 7.31657E-05-2.46950E-06
 -1      7160 3.72798E-05 7.31657E-05-2.64427E-06
 -1      7161 3.72798E-05 7.31657E-05-2.81962E-06
 -1      7162 3.72798E-05 7.31658E-05-2.99593E-06
 -1      7163 2.53752E-05 7.80969E-05-1.41980E-06
 -1      7164 2.53752E-05 7.80968E-05-1.59611E-06
 -1      7165 2.53752E-05 7.80967E-05-1.77146E-06
 -1      7166 2.53752E-05 7.80967E-05-1.94623E-06
 -1      7167 2.53752E-05 7.80967E-05-2.12068E-06
 -1      7168 2.53752E-05 7.80967E-05-2.29504E-06
 -1      7169 2.53752E-05 7.80967E-05-2.46950E-06
 -1      7170 2.53752E-05 7.80967E-05-2.64427E-06
 -1      7171 2.53752E-05 7.80968E-05-2.81962E-06
 -1      7172 2.53752E-05 7.80969E-05-2.99593E-06
 -1      7173 1.28458E-05 8.11049E-05-1.41980E-06
 -1      7174 1.28457E-05 8.11048E-05-1.59611E-06
 -1      7175 1.28457E-05 8.11048E-05-1.77146E-06
 -1      7176 1.28457E-05 8.11048E-05-1.94623E-06
 -1      7177 1.28457E-05 8.11048E-05-2.12068E-06
 -1      7178 1.28457E-05 8.11048E-05-2.29504E-06
 -1      7179 1.28457E-05 8.11048E-05-2.46950E-06
 -1      7180 1.28457E-05 8.11048E-05-2.64427E-06
 -1      7181 1.28457E-05 8.11048E-05-2.81962E-06
 -1      7182 1.28458E-05 8.11049E-05-2.99593E-06
 -1      7183 7.89362E-05 1.25023E-05-1.42007E-06
 -1      7184 7.89361E-05 1.25022E-05-1.59621E-06
 -1      7185 7.89361E-05 1.25022E-05-1.77148E-06
 -1      7186 7.89360E-05 1.25022E-05-1.94623E-06
 -1      7187 7.89360E-05 1.25022E-05-2.12068E-06
 -1      7188 7.89360E-05 1.25022E-05-2.29504E-06
 -1      7189 7.89360E-05 1.25022E-05-2.46950E-06
 -1      7190 7.89361E-05 1.25022E-05-2.64424E-06
 -1      7191 7.89361E-05 1.25022E-05-2.81952E-06
 -1      7192 7.89362E-05 1.25023E-05-2.99566E-06
 -1      7193 7.60086E-05 2.46967E-05-1.42007E-06
 -1      7194 7.60085E-05 2.46967E-05-1.59621E-06
 -1      7195 7.60084E-05 2.46966E-05-1.77148E-06
 -1      7196 7.60084E-05 2.46966E-05-1.94623E-06
 -1      7197 7.60084E-05 2.46966E-05-2.12068E-06
 -1      7198 7.60084E-05 2.46966E-05-2.29504E-06
 -1      7199 7.60084E-05 2.46966E-05-2.46950E-06
 -1      7200 7.60084E-05 2.46966E-05-2.64424E-06
 -1      7201 7.60085E-05 2.46967E-05-2.81952E-06
 -1      7202 7.60086E-05 2.46967E-05-2.99566E-06
 -1      7203 7.12094E-05 3.62830E-05-1.42007E-06
 -1      7204 7.12093E-05 3.62829E-05-1.59621E-06
 -1      7205 7.12093E-05 3.62829E-05-1.77148E-06
 -1      7206 7.12092E-05 3.62829E-05-1.94623E-06
 -1      7207 7.12092E-05 3.62829E-05-2.12068E-06
 -1      7208 7.12092E-05 3.62829E-05-2.29504E-06
 -1      7209 7.12092E-05 3.62829E-05-2.46950E-06
 -1      7210 7.12093E-05 3.62829E-05-2.64424E-06
 -1      7211 7.12093E-05 3.62829E-05-2.81952E-06
 -1      7212 7.12094E-05 3.62830E-05-2.99566E-06
 -1      7213 6.46568E-05 4.69759E-05-1.42007E-06
 -1      7214 6.46567E-05 4.69758E-05-1.59621E-06
 -1      7215 6.46566E-05 4.69758E-05-1.77148E-06
 -1      7216 6.46566E-05 4.69758E-05-1.94623E-06
 -1      7217 6.46566E-05 4.69758E-05-2.12068E-06
 -1      7218 6.46566E-05 4.69758E-05-2.29504E-06
 -1      7219 6.46566E-05 4.69758E-05-2.46950E-06
 -1      7220 6.46566E-05 4.69758E-05-2.64424E-06
 -1      7221 6.46567E-05 4.69758E-05-2.81952E-06
 -1      7222 6.46568E-05 4.69759E-05-2.99566E-06
 -1      7223 5.65121E-05 5.65121E-05-1.42007E-06
 -1      7224 5.65120E-05 5.65120E-05-1.59621E-06
 -1      7225 5.65120E-05 5.65120E-05-1.77148E-06
 -1      7226 5.65120E-05 5.65120E-05-1.94623E-06
 -1      7227 5.65120E-05 5.65120E-05-2.12068E-06
 -1      7228 5.65120E-05 5.65120E-05-2.29504E-06
 -1      7229 5.65120E-05 5.65120E-05-2.46950E-06
 -1      7230 5.65120E-05 5.65120E-05-2.64424E-06
 -1      7231 5.65120E-05 5.65120E-05-2.81952E-06
 -1      7232 5.65121E-05 5.65121E-05-2.99566E-06
 -1      7233 4.69759E-05 6.46568E-05-1.42007E-06
 -1      7234 4.69758E-05 6.46567E-05-1.59621E-06
 -1      7235 4.69758E-05 6.46566E-05-1.77148E-06
 -1      7236 4.69758E-05 6.46566E-05-1.94623E-06
 -1      7237 4.69758E-05 6.46566E-05-2.12068E-06
 -1      7238 4.69758E-05 6.46566E-05-2.29504E-06
 -1      7239 4.69758E-05 6.46566E-05-2.46950E-06
 -1      7240 4.69758E-05 6.46566E-05-2.64424E-06
 -1      7241 4.69758E-05 6.46567E-05-2.81952E-06
 -1      7242 4.69759E-05 6.46568E-05-2.99566E-06
 -1      7243 3.62830E-05 7.12094E-05-1.42007E-06
 -1      7244 3.62829E-05 7.12093E-05-1.59621E-06
 -1      7245 3.62829E-05 7.12093E-05-1.77148E-06
 -1      7246 3.62829E-05 7.12092E-05-1.94623E-06
 -1      7247 3.62829E-05 7.12092E-05-2.12068E-06
 -1      7248 3.62829E-05 7.12092E-05-2.29504E-06
 -1      7249 3.62829E-05 7.12092E-05-2.46950E-06
 -1      7250 3.62829E-05 7.12093E-05-2.64424E-06
 -1      7251 3.62829E-05 7.12093E-05-2.81952E-06
 -1      7252 3.62830E-05 7.12094E-05-2.99566E-06
 -1      7253 2.46967E-05 7.60086E-05-1.42007E-06
 -1      7254 2.46967E-05 7.60085E-05-1.59621E-06
 -1      7255 2.46966E-05 7.60084E-05-1.77148E-06
 -1      7256 2.46966E-05 7.60084E-05-1.94623E-06
 -1      7257 2.46966E-05 7.60084E-05-2.12068E-06
 -1      7258 2.46966E-05 7.60084E-05-2.29504E-06
 -1      7259 2.46966E-05 7.60084E-05-2.46950E-06
 -1      7260 2.46966E-05 7.60084E-05-2.64424E-06
 -1      7261 2.46967E-05 7.60085E-05-2.81952E-06
 -1      7262 2.46967E-05 7.60086E-05-2.99566E-06
 -1      7263 1.25023E-05 7.89362E-05-1.42007E-06
 -1      7264 1.25022E-05 7.89361E-05-1.59621E-06
 -1      7265 1.25022E-05 7.89361E-05-1.77148E-06
 -1      7266 1.25022E-05 7.89360E-05-1.94623E-06
 -1      7267 1.25022E-05 7.89360E-05-2.12068E-06
 -1      7268 1.25022E-05 7.89360E-05-2.29504E-06
 -1      7269 1.25022E-05 7.89360E-05-2.46950E-06
 -1      7270 1.25022E-05 7.89361E-05-2.64424E-06
 -1      7271 1.25022E-05 7.89361E-05-2.81952E-06
 -1      7272 1.25023E-05 7.89362E-05-2.99566E-06
 -1      7273 7.69765E-05 1.21919E-05-1.42033E-06
 -1      7274 7.69764E-05 1.21919E-05-1.59632E-06
 -1      7275 7.69764E-05 1.21919E-05-1.77152E-06
 -1      7276 7.69764E-05 1.21919E-05-1.94623E-06
 -1      7277 7.69764E-05 1.21919E-05-2.12068E-06
 -1      7278 7.69764E-05 1.21919E-05-2.29505E-06
 -1      7279 7.69764E-05 1.21919E-05-2.46950E-06
 -1      7280 7.69764E-05 1.21919E-05-2.64421E-06
 -1      7281 7.69764E-05 1.21919E-05-2.81941E-06
 -1      7282 7.69765E-05 1.21919E-05-2.99539E-06
 -1      7283 7.41216E-05 2.40836E-05-1.42033E-06
 -1      7284 7.41215E-05 2.40835E-05-1.59632E-06
 -1      7285 7.41214E-05 2.40835E-05-1.77152E-06
 -1      7286 7.41214E-05 2.40835E-05-1.94623E-06
 -1      7287 7.41214E-05 2.40835E-05-2.12068E-06
 -1      7288 7.41214E-05 2.40835E-05-2.29505E-06
 -1      7289 7.41214E-05 2.40835E-05-2.46950E-06
 -1      7290 7.41214E-05 2.40835E-05-2.64421E-06
 -1      7291 7.41215E-05 2.40835E-05-2.81941E-06
 -1      7292 7.41216E-05 2.40836E-05-2.99539E-06
 -1      7293 6.94415E-05 3.53822E-05-1.42033E-06
 -1      7294 6.94414E-05 3.53822E-05-1.59632E-06
 -1      7295 6.94414E-05 3.53822E-05-1.77152E-06
 -1      7296 6.94414E-05 3.53822E-05-1.94623E-06
 -1      7297 6.94414E-05 3.53821E-05-2.12068E-06
 -1      7298 6.94414E-05 3.53821E-05-2.29505E-06
 -1      7299 6.94414E-05 3.53822E-05-2.46950E-06
 -1      7300 6.94414E-05 3.53822E-05-2.64421E-06
 -1      7301 6.94414E-05 3.53822E-05-2.81941E-06
 -1      7302 6.94415E-05 3.53822E-05-2.99539E-06
 -1      7303 6.30516E-05 4.58097E-05-1.42033E-06
 -1      7304 6.30515E-05 4.58096E-05-1.59632E-06
 -1      7305 6.30515E-05 4.58096E-05-1.77152E-06
 -1      7306 6.30515E-05 4.58096E-05-1.94623E-06
 -1      7307 6.30515E-05 4.58096E-05-2.12068E-06
 -1      7308 6.30515E-05 4.58096E-05-2.29505E-06
 -1      7309 6.30515E-05 4.58096E-05-2.46950E-06
 -1      7310 6.30515E-05 4.58096E-05-2.64421E-06
 -1      7311 6.30515E-05 4.58096E-05-2.81941E-06
 -1      7312 6.30516E-05 4.58097E-05-2.99539E-06
 -1      7313 5.51091E-05 5.51091E-05-1.42033E-06
 -1      7314 5.51090E-05 5.51090E-05-1.59632E-06
 -1      7315 5.51090E-05 5.51090E-05-1.77152E-06
 -1      7316 5.51090E-05 5.51090E-05-1.94623E-06
 -1      7317 5.51090E-05 5.51090E-05-2.12068E-06
 -1      7318 5.51090E-05 5.51090E-05-2.29505E-06
 -1      7319 5.51090E-05 5.51090E-05-2.46950E-06
 -1      7320 5.51090E-05 5.51090E-05-2.64421E-06
 -1      7321 5.51090E-05 5.51090E-05-2.81941E-06
 -1      7322 5.51091E-05 5.51091E-05-2.99539E-06
 -1      7323 4.58097E-05 6.30516E-05-1.42033E-06
 -1      7324 4.58096E-05 6.30515E-05-1.59632E-06
 -1      7325 4.58096E-05 6.30515E-05-1.77152E-06
 -1      7326 4.58096E-05 6.30515E-05-1.94623E-06
 -1      7327 4.58096E-05 6.30515E-05-2.12068E-06
 -1      7328 4.58096E-05 6.30515E-05-2.29505E-06
 -1      7329 4.58096E-05 6.30515E-05-2.46950E-06
 -1      7330 4.58096E-05 6.30515E-05-2.64421E-06
 -1      7331 4.58096E-05 6.30515E-05-2.81941E-06
 -1      7332 4.58097E-05 6.30516E-05-2.99539E-06
 -1      7333 3.53822E-05 6.94415E-05-1.42033E-06
 -1      7334 3.53822E-05 6.94414E-05-1.59632E-06
 -1      7335 3.53822E-05 6.94414E-05-1.77152E-06
 -1      7336 3.53822E-05 6.94414E-05-1.94623E-06
 -1      7337 3.53821E-05 6.94414E-05-2.12068E-06
 -1      7338 3.53821E-05 6.94414E-05-2.29505E-06
 -1      7339 3.53822E-05 6.94414E-05-2.46950E-06
 -1      7340 3.53822E-05 6.94414E-05-2.64421E-06
 -1      7341 3.53822E-05 6.94414E-05-2.81941E-06
 -1      7342 3.53822E-05 6.94415E-05-2.99539E-06
 -1      7343 2.40836E-05 7.41216E-05-1.42033E-06
 -1      7344 2.40835E-05 7.41215E-05-1.59632E-06
 -1      7345 2.40835E-05 7.41214E-05-1.77152E-06
 -1      7346 2.40835E-05 7.41214E-05-1.94623E-06
 -1      7347 2.40835E-05 7.41214E-05-2.12068E-06
 -1      7348 2.40835E-05 7.41214E-05-2.29505E-06
 -1      7349 2.40835E-05 7.41214E-05-2.46950E-06
 -1      7350 2.40835E-05 7.41214E-05-2.64421E-06
 -1      7351 2.40835E-05 7.41215E-05-2.81941E-06
 -1      7352 2.40836E-05 7.41216E-05-2.99539E-06
 -1      7353 1.21919E-05 7.69765E-05-1.42033E-06
 -1      7354 1.21919E-05 7.69764E-05-1.59632E-06
 -1      7355 1.21919E-05 7.69764E-05-1.77152E-06
 -1      7356 1.21919E-05 7.69764E-05-1.94623E-06
 -1      7357 1.21919E-05 7.69764E-05-2.12068E-06
 -1      7358 1.21919E-05 7.69764E-05-2.29505E-06
 -1      7359 1.21919E-05 7.69764E-05-2.46950E-06
 -1      7360 1.21919E-05 7.69764E-05-2.64421E-06
 -1      7361 1.21919E-05 7.69764E-05-2.81941E-06
 -1      7362 1.21919E-05 7.69765E-05-2.99539E-06
 -1      7363 7.52026E-05 1.19109E-05-1.42059E-06
 -1      7364 7.52025E-05 1.19109E-05-1.59643E-06
 -1      7365 7.52025E-05 1.19109E-05-1.77156E-06
 -1      7366 7.52025E-05 1.19109E-05-1.94624E-06
 -1      7367 7.52025E-05 1.19109E-05-2.12068E-06
 -1      7368 7.52025E-05 1.19109E-05-2.29504E-06
 -1      7369 7.52025E-05 1.19109E-05-2.46949E-06
 -1      7370 7.52025E-05 1.19109E-05-2.64417E-06
 -1      7371 7.52025E-05 1.19109E-05-2.81930E-06
 -1      7372 7.52026E-05 1.19109E-05-2.99514E-06
 -1      7373 7.24135E-05 2.35286E-05-1.42059E-06
 -1      7374 7.24134E-05 2.35285E-05-1.59643E-06
 -1      7375 7.24134E-05 2.35285E-05-1.77156E-06
 -1      7376 7.24133E-05 2.35285E-05-1.94624E-06
 -1      7377 7.24133E-05 2.35285E-05-2.12068E-06
 -1      7378 7.24133E-05 2.35285E-05-2.29504E-06
 -1      7379 7.24133E-05 2.35285E-05-2.46949E-06
 -1      7380 7.24134E-05 2.35285E-05-2.64417E-06
 -1      7381 7.24134E-05 2.35285E-05-2.81930E-06
 -1      7382 7.24135E-05 2.35286E-05-2.99514E-06
 -1      7383 6.78413E-05 3.45669E-05-1.42059E-06
 -1      7384 6.78412E-05 3.45668E-05-1.59643E-06
 -1      7385 6.78412E-05 3.45668E-05-1.77156E-06
 -1      7386 6.78411E-05 3.45668E-05-1.94624E-06
 -1      7387 6.78411E-05 3.45668E-05-2.12068E-06
 -1      7388 6.78411E-05 3.45668E-05-2.29504E-06
 -1      7389 6.78411E-05 3.45668E-05-2.46949E-06
 -1      7390 6.78412E-05 3.45668E-05-2.64417E-06
 -1      7391 6.78412E-05 3.45668E-05-2.81930E-06
 -1      7392 6.78413E-05 3.45669E-05-2.99514E-06
 -1      7393 6.15986E-05 4.47540E-05-1.42059E-06
 -1      7394 6.15985E-05 4.47539E-05-1.59643E-06
 -1      7395 6.15985E-05 4.47539E-05-1.77156E-06
 -1      7396 6.15985E-05 4.47539E-05-1.94624E-06
 -1      7397 6.15985E-05 4.47539E-05-2.12068E-06
 -1      7398 6.15985E-05 4.47539E-05-2.29504E-06
 -1      7399 6.15985E-05 4.47539E-05-2.46949E-06
 -1      7400 6.15985E-05 4.47539E-05-2.64417E-06
 -1      7401 6.15985E-05 4.47539E-05-2.81930E-06
 -1      7402 6.15986E-05 4.47540E-05-2.99514E-06
 -1      7403 5.38391E-05 5.38391E-05-1.42059E-06
 -1      7404 5.38391E-05 5.38391E-05-1.59643E-06
 -1      7405 5.38390E-05 5.38390E-05-1.77156E-06
 -1      7406 5.38390E-05 5.38390E-05-1.94624E-06
 -1      7407 5.38390E-05 5.38390E-05-2.12068E-06
 -1      7408 5.38390E-05 5.38390E-05-2.29504E-06
 -1      7409 5.38390E-05 5.38390E-05-2.46949E-06
 -1      7410 5.38390E-05 5.38390E-05-2.64417E-06
 -1      7411 5.38391E-05 5.38391E-05-2.81930E-06
 -1      7412 5.38391E-05 5.38391E-05-2.99514E-06
 -1      7413 4.47540E-05 6.15986E-05-1.42059E-06
 -1      7414 4.47539E-05 6.15985E-05-1.59643E-06
 -1      7415 4.47539E-05 6.15985E-05-1.77156E-06
 -1      7416 4.47539E-05 6.15985E-05-1.94624E-06
 -1      7417 4.47539E-05 6.15985E-05-2.12068E-06
 -1      7418 4.47539E-05 6.15985E-05-2.29504E-06
 -1      7419 4.47539E-05 6.15985E-05-2.46949E-06
 -1      7420 4.47539E-05 6.15985E-05-2.64417E-06
 -1      7421 4.47539E-05 6.15985E-05-2.81930E-06
 -1      7422 4.47540E-05 6.15986E-05-2.99514E-06
 -1      7423 3.45669E-05 6.78413E-05-1.42059E-06
 -1      7424 3.45668E-05 6.78412E-05-1.59643E-06
 -1      7425 3.45668E-05 6.78412E-05-1.77156E-06
 -1      7426 3.45668E-05 6.78411E-05-1.94624E-06
 -1      7427 3.45668E-05 6.78411E-05-2.12068E-06
 -1      7428 3.45668E-05 6.78411E-05-2.29504E-06
 -1      7429 3.45668E-05 6.78411E-05-2.46949E-06
 -1      7430 3.45668E-05 6.78412E-05-2.64417E-06
 -1      7431 3.45668E-05 6.78412E-05-2.81930E-06
 -1      7432 3.45669E-05 6.78413E-05-2.99514E-06
 -1      7433 2.35286E-05 7.24135E-05-1.42059E-06
 -1      7434 2.35285E-05 7.24134E-05-1.59643E-06
 -1      7435 2.35285E-05 7.24134E-05-1.77156E-06
 -1      7436 2.35285E-05 7.24133E-05-1.94624E-06
 -1      7437 2.35285E-05 7.24133E-05-2.12068E-06
 -1      7438 2.35285E-05 7.24133E-05-2.29504E-06
 -1      7439 2.35285E-05 7.24133E-05-2.46949E-06
 -1      7440 2.35285E-05 7.24134E-05-2.64417E-06
 -1      7441 2.35285E-05 7.24134E-05-2.81930E-06
 -1      7442 2.35286E-05 7.24135E-05-2.99514E-06
 -1      7443 1.19109E-05 7.52026E-05-1.42059E-06
 -1      7444 1.19109E-05 7.52025E-05-1.59643E-06
 -1      7445 1.19109E-05 7.52025E-05-1.77156E-06
 -1      7446 1.19109E-05 7.52025E-05-1.94624E-06
 -1      7447 1.19109E-05 7.52025E-05-2.12068E-06
 -1      7448 1.19109E-05 7.52025E-05-2.29504E-06
 -1      7449 1.19109E-05 7.52025E-05-2.46949E-06
 -1      7450 1.19109E-05 7.52025E-05-2.64417E-06
 -1      7451 1.19109E-05 7.52025E-05-2.81930E-06
 -1      7452 1.19109E-05 7.52026E-05-2.99514E-06
 -1      7453 7.35947E-05 1.16562E-05-1.42084E-06
 -1      7454 7.35946E-05 1.16562E-05-1.59654E-06
 -1      7455 7.35945E-05 1.16562E-05-1.77160E-06
 -1      7456 7.35945E-05 1.16562E-05-1.94626E-06
 -1      7457 7.35945E-05 1.16562E-05-2.12068E-06
 -1      7458 7.35945E-05 1.16562E-05-2.29504E-06
 -1      7459 7.35945E-05 1.16562E-05-2.46947E-06
 -1      7460 7.35945E-05 1.16562E-05-2.64412E-06
 -1      7461 7.35946E-05 1.16562E-05-2.81918E-06
 -1      7462 7.35947E-05 1.16562E-05-2.99489E-06
 -1      7463 7.08651E-05 2.30255E-05-1.42084E-06
 -1      7464 7.08651E-05 2.30255E-05-1.59654E-06
 -1      7465 7.08650E-05 2.30254E-05-1.77160E-06
 -1      7466 7.08650E-05 2.30254E-05-1.94626E-06
 -1      7467 7.08650E-05 2.30254E-05-2.12068E-06
 -1      7468 7.08650E-05 2.30254E-05-2.29504E-06
 -1      7469 7.08650E-05 2.30254E-05-2.46947E-06
 -1      7470 7.08650E-05 2.30254E-05-2.64412E-06
 -1      7471 7.08651E-05 2.30255E-05-2.81918E-06
 -1      7472 7.08651E-05 2.30255E-05-2.99489E-06
 -1      7473 6.63907E-05 3.38278E-05-1.42084E-06
 -1      7474 6.63906E-05 3.38277E-05-1.59654E-06
 -1      7475 6.63906E-05 3.38277E-05-1.77160E-06
 -1      7476 6.63906E-05 3.38277E-05-1.94626E-06
 -1      7477 6.63906E-05 3.38277E-05-2.12068E-06
 -1      7478 6.63906E-05 3.38277E-05-2.29504E-06
 -1      7479 6.63906E-05 3.38277E-05-2.46947E-06
 -1      7480 6.63906E-05 3.38277E-05-2.64412E-06
 -1      7481 6.63906E-05 3.38277E-05-2.81918E-06
 -1      7482 6.63907E-05 3.38278E-05-2.99489E-06
 -1      7483 6.02815E-05 4.37971E-05-1.42084E-06
 -1      7484 6.02814E-05 4.37970E-05-1.59654E-06
 -1      7485 6.02814E-05 4.37970E-05-1.77160E-06
 -1      7486 6.02814E-05 4.37970E-05-1.94626E-06
 -1      7487 6.02814E-05 4.37970E-05-2.12068E-06
 -1      7488 6.02814E-05 4.37970E-05-2.29504E-06
 -1      7489 6.02814E-05 4.37970E-05-2.46947E-06
 -1      7490 6.02814E-05 4.37970E-05-2.64412E-06
 -1      7491 6.02814E-05 4.37970E-05-2.81918E-06
 -1      7492 6.02815E-05 4.37971E-05-2.99489E-06
 -1      7493 5.26880E-05 5.26880E-05-1.42084E-06
 -1      7494 5.26879E-05 5.26879E-05-1.59654E-06
 -1      7495 5.26879E-05 5.26879E-05-1.77160E-06
 -1      7496 5.26879E-05 5.26879E-05-1.94626E-06
 -1      7497 5.26879E-05 5.26879E-05-2.12068E-06
 -1      7498 5.26879E-05 5.26879E-05-2.29504E-06
 -1      7499 5.26879E-05 5.26879E-05-2.46947E-06
 -1      7500 5.26879E-05 5.26879E-05-2.64412E-06
 -1      7501 5.26879E-05 5.26879E-05-2.81918E-06
 -1      7502 5.26880E-05 5.26880E-05-2.99489E-06
 -1      7503 4.37971E-05 6.02815E-05-1.42084E-06
 -1      7504 4.37970E-05 6.02814E-05-1.59654E-06
 -1      7505 4.37970E-05 6.02814E-05-1.77160E-06
 -1      7506 4.37970E-05 6.02814E-05-1.94626E-06
 -1      7507 4.37970E-05 6.02814E-05-2.12068E-06
 -1      7508 4.37970E-05 6.02814E-05-2.29504E-06
 -1      7509 4.37970E-05 6.02814E-05-2.46947E-06
 -1      7510 4.37970E-05 6.02814E-05-2.64412E-06
 -1      7511 4.37970E-05 6.02814E-05-2.81918E-06
 -1      7512 4.37971E-05 6.02815E-05-2.99489E-06
 -1      7513 3.38278E-05 6.63907E-05-1.42084E-06
 -1      7514 3.38277E-05 6.63906E-05-1.59654E-06
 -1      7515 3.38277E-05 6.63906E-05-1.77160E-06
 -1      7516 3.38277E-05 6.63906E-05-1.94626E-06
 -1      7517 3.38277E-05 6.63906E-05-2.12068E-06
 -1      7518 3.38277E-05 6.63906E-05-2.29504E-06
 -1      7519 3.38277E-05 6.63906E-05-2.46947E-06
 -1      7520 3.38277E-05 6.63906E-05-2.64412E-06
 -1      7521 3.38277E-05 6.63906E-05-2.81918E-06
 -1      7522 3.38278E-05 6.63907E-05-2.99489E-06
 -1      7523 2.30255E-05 7.08651E-05-1.42084E-06
 -1      7524 2.30255E-05 7.08651E-05-1.59654E-06
 -1      7525 2.30254E-05 7.08650E-05-1.77160E-06
 -1      7526 2.30254E-05 7.08650E-05-1.94626E-06
 -1      7527 2.30254E-05 7.08650E-05-2.12068E-06
 -1      7528 2.30254E-05 7.08650E-05-2.29504E-06
 -1      7529 2.30254E-05 7.08650E-05-2.46947E-06
 -1      7530 2.30254E-05 7.08650E-05-2.64412E-06
 -1      7531 2.30255E-05 7.08651E-05-2.81918E-06
 -1      7532 2.30255E-05 7.08651E-05-2.99489E-06
 -1      7533 1.16562E-05 7.35947E-05-1.42084E-06
 -1      7534 1.16562E-05 7.35946E-05-1.59654E-06
 -1      7535 1.16562E-05 7.35945E-05-1.77160E-06
 -1      7536 1.16562E-05 7.35945E-05-1.94626E-06
 -1      7537 1.16562E-05 7.35945E-05-2.12068E-06
 -1      7538 1.16562E-05 7.35945E-05-2.29504E-06
 -1      7539 1.16562E-05 7.35945E-05-2.46947E-06
 -1      7540 1.16562E-05 7.35945E-05-2.64412E-06
 -1      7541 1.16562E-05 7.35946E-05-2.81918E-06
 -1      7542 1.16562E-05 7.35947E-05-2.99489E-06
 -1      7543 7.21354E-05 1.14251E-05-1.42108E-06
 -1      7544 7.21353E-05 1.14251E-05-1.59666E-06
 -1      7545 7.21353E-05 1.14251E-05-1.77165E-06
 -1      7546 7.21353E-05 1.14251E-05-1.94628E-06
 -1      7547 7.21353E-05 1.14251E-05-2.12069E-06
 -1      7548 7.21353E-05 1.14251E-05-2.29504E-06
 -1      7549 7.21353E-05 1.14251E-05-2.46945E-06
 -1      7550 7.21353E-05 1.14251E-05-2.64407E-06
 -1      7551 7.21353E-05 1.14251E-05-2.81907E-06
 -1      7552 7.21354E-05 1.14251E-05-2.99464E-06
 -1      7553 6.94600E-05 2.25689E-05-1.42108E-06
 -1      7554 6.94599E-05 2.25689E-05-1.59666E-06
 -1      7555 6.94599E-05 2.25689E-05-1.77165E-06
 -1      7556 6.94599E-05 2.25689E-05-1.94628E-06
 -1      7557 6.94599E-05 2.25689E-05-2.12069E-06
 -1      7558 6.94599E-05 2.25689E-05-2.29504E-06
 -1      7559 6.94599E-05 2.25689E-05-2.46945E-06
 -1      7560 6.94599E-05 2.25689E-05-2.64407E-06
 -1      7561 6.94599E-05 2.25689E-05-2.81907E-06
 -1      7562 6.94600E-05 2.25689E-05-2.99464E-06
 -1      7563 6.50743E-05 3.31570E-05-1.42108E-06
 -1      7564 6.50742E-05 3.31570E-05-1.59666E-06
 -1      7565 6.50742E-05 3.31570E-05-1.77165E-06
 -1      7566 6.50742E-05 3.31569E-05-1.94628E-06
 -1      7567 6.50742E-05 3.31569E-05-2.12069E-06
 -1      7568 6.50742E-05 3.31569E-05-2.29504E-06
 -1      7569 6.50742E-05 3.31569E-05-2.46945E-06
 -1      7570 6.50742E-05 3.31570E-05-2.64407E-06
 -1      7571 6.50742E-05 3.31570E-05-2.81907E-06
 -1      7572 6.50743E-05 3.31570E-05-2.99464E-06
 -1      7573 5.90862E-05 4.29287E-05-1.42108E-06
 -1      7574 5.90862E-05 4.29286E-05-1.59666E-06
 -1      7575 5.90861E-05 4.29286E-05-1.77165E-06
 -1      7576 5.90861E-05 4.29286E-05-1.94628E-06
 -1      7577 5.90861E-05 4.29286E-05-2.12069E-06
 -1      7578 5.90861E-05 4.29286E-05-2.29504E-06
 -1      7579 5.90861E-05 4.29286E-05-2.46945E-06
 -1      7580 5.90861E-05 4.29286E-05-2.64407E-06
 -1      7581 5.90862E-05 4.29286E-05-2.81907E-06
 -1      7582 5.90862E-05 4.29287E-05-2.99464E-06
 -1      7583 5.16433E-05 5.16433E-05-1.42108E-06
 -1      7584 5.16432E-05 5.16432E-05-1.59666E-06
 -1      7585 5.16432E-05 5.16432E-05-1.77165E-06
 -1      7586 5.16432E-05 5.16432E-05-1.94628E-06
 -1      7587 5.16432E-05 5.16432E-05-2.12069E-06
 -1      7588 5.16432E-05 5.16432E-05-2.29504E-06
 -1      7589 5.16432E-05 5.16432E-05-2.46945E-06
 -1      7590 5.16432E-05 5.16432E-05-2.64407E-06
 -1      7591 5.16432E-05 5.16432E-05-2.81907E-06
 -1      7592 5.16433E-05 5.16433E-05-2.99464E-06
 -1      7593 4.29287E-05 5.90862E-05-1.42108E-06
 -1      7594 4.29286E-05 5.90862E-05-1.59666E-06
 -1      7595 4.29286E-05 5.90861E-05-1.77165E-06
 -1      7596 4.29286E-05 5.90861E-05-1.94628E-06
 -1      7597 4.29286E-05 5.90861E-05-2.12069E-06
 -1      7598 4.29286E-05 5.90861E-05-2.29504E-06
 -1      7599 4.29286E-05 5.90861E-05-2.46945E-06
 -1      7600 4.29286E-05 5.90861E-05-2.64407E-06
 -1      7601 4.29286E-05 5.90862E-05-2.81907E-06
 -1      7602 4.29287E-05 5.90862E-05-2.99464E-06
 -1      7603 3.31570E-05 6.50743E-05-1.42108E-06
 -1      7604 3.31570E-05 6.50742E-05-1.59666E-06
 -1      7605 3.31570E-05 6.50742E-05-1.77165E-06
 -1      7606 3.31569E-05 6.50742E-05-1.94628E-06
 -1      7607 3.31569E-05 6.50742E-05-2.12069E-06
 -1      7608 3.31569E-05 6.50742E-05-2.29504E-06
 -1      7609 3.31569E-05 6.50742E-05-2.46945E-06
 -1      7610 3.31570E-05 6.50742E-05-2.64407E-06
 -1      7611 3.31570E-05 6.50742E-05-2.81907E-06
 -1      7612 3.31570E-05 6.50743E-05-2.99464E-06
 -1      7613 2.25689E-05 6.94600E-05-1.42108E-06
 -1      7614 2.25689E-05 6.94599E-05-1.59666E-06
 -1      7615 2.25689E-05 6.94599E-05-1.77165E-06
 -1      7616 2.25689E-05 6.94599E-05-1.94628E-06
 -1      7617 2.25689E-05 6.94599E-05-2.12069E-06
 -1      7618 2.25689E-05 6.94599E-05-2.29504E-06
 -1      7619 2.25689E-05 6.94599E-05-2.46945E-06
 -1      7620 2.25689E-05 6.94599E-05-2.64407E-06
 -1      7621 2.25689E-05 6.94599E-05-2.81907E-06
 -1      7622 2.25689E-05 6.94600E-05-2.99464E-06
 -1      7623 1.14251E-05 7.21354E-05-1.42108E-06
 -1      7624 1.14251E-05 7.21353E-05-1.59666E-06
 -1      7625 1.14251E-05 7.21353E-05-1.77165E-06
 -1      7626 1.14251E-05 7.21353E-05-1.94628E-06
 -1      7627 1.14251E-05 7.21353E-05-2.12069E-06
 -1      7628 1.14251E-05 7.21353E-05-2.29504E-06
 -1      7629 1.14251E-05 7.21353E-05-2.46945E-06
 -1      7630 1.14251E-05 7.21353E-05-2.64407E-06
 -1      7631 1.14251E-05 7.21353E-05-2.81907E-06
 -1      7632 1.14251E-05 7.21354E-05-2.99464E-06
 -1      7633 7.08100E-05 1.12152E-05-1.42132E-06
 -1      7634 7.08100E-05 1.12152E-05-1.59678E-06
 -1      7635 7.08099E-05 1.12152E-05-1.77171E-06
 -1      7636 7.08099E-05 1.12152E-05-1.94630E-06
 -1      7637 7.08099E-05 1.12152E-05-2.12070E-06
 -1      7638 7.08099E-05 1.12152E-05-2.29503E-06
 -1      7639 7.08099E-05 1.12152E-05-2.46943E-06
 -1      7640 7.08099E-05 1.12152E-05-2.64402E-06
 -1      7641 7.08100E-05 1.12152E-05-2.81895E-06
 -1      7642 7.08100E-05 1.12152E-05-2.99441E-06
 -1      7643 6.81838E-05 2.21543E-05-1.42132E-06
 -1      7644 6.81837E-05 2.21542E-05-1.59678E-06
 -1      7645 6.81837E-05 2.21542E-05-1.77171E-06
 -1      7646 6.81837E-05 2.21542E-05-1.94630E-06
 -1      7647 6.81837E-05 2.21542E-05-2.12070E-06
 -1      7648 6.81837E-05 2.21542E-05-2.29503E-06
 -1      7649 6.81837E-05 2.21542E-05-2.46943E-06
 -1      7650 6.81837E-05 2.21542E-05-2.64402E-06
 -1      7651 6.81837E-05 2.21542E-05-2.81895E-06
 -1      7652 6.81838E-05 2.21543E-05-2.99441E-06
 -1      7653 6.38787E-05 3.25478E-05-1.42132E-06
 -1      7654 6.38786E-05 3.25478E-05-1.59678E-06
 -1      7655 6.38785E-05 3.25477E-05-1.77171E-06
 -1      7656 6.38785E-05 3.25477E-05-1.94630E-06
 -1      7657 6.38785E-05 3.25477E-05-2.12070E-06
 -1      7658 6.38785E-05 3.25477E-05-2.29503E-06
 -1      7659 6.38785E-05 3.25477E-05-2.46943E-06
 -1      7660 6.38785E-05 3.25477E-05-2.64402E-06
 -1      7661 6.38786E-05 3.25478E-05-2.81895E-06
 -1      7662 6.38787E-05 3.25478E-05-2.99441E-06
 -1      7663 5.80006E-05 4.21399E-05-1.42132E-06
 -1      7664 5.80005E-05 4.21399E-05-1.59678E-06
 -1      7665 5.80005E-05 4.21398E-05-1.77171E-06
 -1      7666 5.80005E-05 4.21398E-05-1.94630E-06
 -1      7667 5.80005E-05 4.21398E-05-2.12070E-06
 -1      7668 5.80005E-05 4.21398E-05-2.29503E-06
 -1      7669 5.80005E-05 4.21398E-05-2.46943E-06
 -1      7670 5.80005E-05 4.21398E-05-2.64402E-06
 -1      7671 5.80005E-05 4.21399E-05-2.81895E-06
 -1      7672 5.80006E-05 4.21399E-05-2.99441E-06
 -1      7673 5.06944E-05 5.06944E-05-1.42132E-06
 -1      7674 5.06943E-05 5.06943E-05-1.59678E-06
 -1      7675 5.06943E-05 5.06943E-05-1.77171E-06
 -1      7676 5.06943E-05 5.06943E-05-1.94630E-06
 -1      7677 5.06943E-05 5.06943E-05-2.12070E-06
 -1      7678 5.06943E-05 5.06943E-05-2.29503E-06
 -1      7679 5.06943E-05 5.06943E-05-2.46943E-06
 -1      7680 5.06943E-05 5.06943E-05-2.64402E-06
 -1      7681 5.06943E-05 5.06943E-05-2.81895E-06
 -1      7682 5.06944E-05 5.06944E-05-2.99441E-06
 -1      7683 4.21399E-05 5.80006E-05-1.42132E-06
 -1      7684 4.21399E-05 5.80005E-05-1.59678E-06
 -1      7685 4.21398E-05 5.80005E-05-1.77171E-06
 -1      7686 4.21398E-05 5.80005E-05-1.94630E-06
 -1      7687 4.21398E-05 5.80005E-05-2.12070E-06
 -1      7688 4.21398E-05 5.80005E-05-2.29503E-06
 -1      7689 4.21398E-05 5.80005E-05-2.46943E-06
 -1      7690 4.21398E-05 5.80005E-05-2.64402E-06
 -1      7691 4.21399E-05 5.80005E-05-2.81895E-06
 -1      7692 4.21399E-05 5.80006E-05-2.99441E-06
 -1      7693 3.25478E-05 6.38787E-05-1.42132E-06
 -1      7694 3.25478E-05 6.38786E-05-1.59678E-06
 -1      7695 3.25477E-05 6.38785E-05-1.77171E-06
 -1      7696 3.25477E-05 6.38785E-05-1.94630E-06
 -1      7697 3.25477E-05 6.38785E-05-2.12070E-06
 -1      7698 3.25477E-05 6.38785E-05-2.29503E-06
 -1      7699 3.25477E-05 6.38785E-05-2.46943E-06
 -1      7700 3.25477E-05 6.38785E-05-2.64402E-06
 -1      7701 3.25478E-05 6.38786E-05-2.81895E-06
 -1      7702 3.25478E-05 6.38787E-05-2.99441E-06
 -1      7703 2.21543E-05 6.81838E-05-1.42132E-06
 -1      7704 2.21542E-05 6.81837E-05-1.59678E-06
 -1      7705 2.21542E-05 6.81837E-05-1.77171E-06
 -1      7706 2.21542E-05 6.81837E-05-1.94630E-06
 -1      7707 2.21542E-05 6.81837E-05-2.12070E-06
 -1      7708 2.21542E-05 6.81837E-05-2.29503E-06
 -1      7709 2.21542E-05 6.81837E-05-2.46943E-06
 -1      7710 2.21542E-05 6.81837E-05-2.64402E-06
 -1      7711 2.21542E-05 6.81837E-05-2.81895E-06
 -1      7712 2.21543E-05 6.81838E-05-2.99441E-06
 -1      7713 1.12152E-05 7.08100E-05-1.42132E-06
 -1      7714 1.12152E-05 7.08100E-05-1.59678E-06
 -1      7715 1.12152E-05 7.08099E-05-1.77171E-06
 -1      7716 1.12152E-05 7.08099E-05-1.94630E-06
 -1      7717 1.12152E-05 7.08099E-05-2.12070E-06
 -1      7718 1.12152E-05 7.08099E-05-2.29503E-06
 -1      7719 1.12152E-05 7.08099E-05-2.46943E-06
 -1      7720 1.12152E-05 7.08099E-05-2.64402E-06
 -1      7721 1.12152E-05 7.08100E-05-2.81895E-06
 -1      7722 1.12152E-05 7.08100E-05-2.99441E-06
 -1      7723 6.96056E-05 1.10244E-05-1.42155E-06
 -1      7724 6.96055E-05 1.10244E-05-1.59690E-06
 -1      7725 6.96054E-05 1.10244E-05-1.77177E-06
 -1      7726 6.96054E-05 1.10244E-05-1.94632E-06
 -1      7727 6.96054E-05 1.10244E-05-2.12070E-06
 -1      7728 6.96054E-05 1.10244E-05-2.29502E-06
 -1      7729 6.96054E-05 1.10244E-05-2.46940E-06
 -1      7730 6.96054E-05 1.10244E-05-2.64396E-06
 -1      7731 6.96055E-05 1.10244E-05-2.81883E-06
 -1      7732 6.96056E-05 1.10244E-05-2.99418E-06
 -1      7733 6.70240E-05 2.17774E-05-1.42155E-06
 -1      7734 6.70239E-05 2.17774E-05-1.59690E-06
 -1      7735 6.70239E-05 2.17774E-05-1.77177E-06
 -1      7736 6.70239E-05 2.17774E-05-1.94632E-06
 -1      7737 6.70239E-05 2.17774E-05-2.12070E-06
 -1      7738 6.70239E-05 2.17774E-05-2.29502E-06
 -1      7739 6.70239E-05 2.17774E-05-2.46940E-06
 -1      7740 6.70239E-05 2.17774E-05-2.64396E-06
 -1      7741 6.70239E-05 2.17774E-05-2.81883E-06
 -1      7742 6.70240E-05 2.17774E-05-2.99418E-06
 -1      7743 6.27921E-05 3.19942E-05-1.42155E-06
 -1      7744 6.27920E-05 3.19941E-05-1.59690E-06
 -1      7745 6.27920E-05 3.19941E-05-1.77177E-06
 -1      7746 6.27920E-05 3.19941E-05-1.94632E-06
 -1      7747 6.27920E-05 3.19941E-05-2.12070E-06
 -1      7748 6.27920E-05 3.19941E-05-2.29502E-06
 -1      7749 6.27920E-05 3.19941E-05-2.46940E-06
 -1      7750 6.27920E-05 3.19941E-05-2.64396E-06
 -1      7751 6.27920E-05 3.19941E-05-2.81883E-06
 -1      7752 6.27921E-05 3.19942E-05-2.99418E-06
 -1      7753 5.70140E-05 4.14231E-05-1.42155E-06
 -1      7754 5.70140E-05 4.14231E-05-1.59690E-06
 -1      7755 5.70139E-05 4.14230E-05-1.77177E-06
 -1      7756 5.70139E-05 4.14230E-05-1.94632E-06
 -1      7757 5.70139E-05 4.14230E-05-2.12070E-06
 -1      7758 5.70139E-05 4.14230E-05-2.29502E-06
 -1      7759 5.70139E-05 4.14230E-05-2.46940E-06
 -1      7760 5.70139E-05 4.14230E-05-2.64396E-06
 -1      7761 5.70140E-05 4.14231E-05-2.81883E-06
 -1      7762 5.70140E-05 4.14231E-05-2.99418E-06
 -1      7763 4.98321E-05 4.98321E-05-1.42155E-06
 -1      7764 4.98320E-05 4.98320E-05-1.59690E-06
 -1      7765 4.98320E-05 4.98320E-05-1.77177E-06
 -1      7766 4.98320E-05 4.98320E-05-1.94632E-06
 -1      7767 4.98320E-05 4.98320E-05-2.12070E-06
 -1      7768 4.98320E-05 4.98320E-05-2.29502E-06
 -1      7769 4.98320E-05 4.98320E-05-2.46940E-06
 -1      7770 4.98320E-05 4.98320E-05-2.64396E-06
 -1      7771 4.98320E-05 4.98320E-05-2.81883E-06
 -1      7772 4.98321E-05 4.98321E-05-2.99418E-06
 -1      7773 4.14231E-05 5.70140E-05-1.42155E-06
 -1      7774 4.14231E-05 5.70140E-05-1.59690E-06
 -1      7775 4.14230E-05 5.70139E-05-1.77177E-06
 -1      7776 4.14230E-05 5.70139E-05-1.94632E-06
 -1      7777 4.14230E-05 5.70139E-05-2.12070E-06
 -1      7778 4.14230E-05 5.70139E-05-2.29502E-06
 -1      7779 4.14230E-05 5.70139E-05-2.46940E-06
 -1      7780 4.14230E-05 5.70139E-05-2.64396E-06
 -1      7781 4.14231E-05 5.70140E-05-2.81883E-06
 -1      7782 4.14231E-05 5.70140E-05-2.99418E-06
 -1      7783 3.19942E-05 6.27921E-05-1.42155E-06
 -1      7784 3.19941E-05 6.27920E-05-1.59690E-06
 -1      7785 3.19941E-05 6.27920E-05-1.77177E-06
 -1      7786 3.19941E-05 6.27920E-05-1.94632E-06
 -1      7787 3.19941E-05 6.27920E-05-2.12070E-06
 -1      7788 3.19941E-05 6.27920E-05-2.29502E-06
 -1      7789 3.19941E-05 6.27920E-05-2.46940E-06
 -1      7790 3.19941E-05 6.27920E-05-2.64396E-06
 -1      7791 3.19941E-05 6.27920E-05-2.81883E-06
 -1      7792 3.19942E-05 6.27921E-05-2.99418E-06
 -1      7793 2.17774E-05 6.70240E-05-1.42155E-06
 -1      7794 2.17774E-05 6.70239E-05-1.59690E-06
 -1      7795 2.17774E-05 6.70239E-05-1.77177E-06
 -1      7796 2.17774E-05 6.70239E-05-1.94632E-06
 -1      7797 2.17774E-05 6.70239E-05-2.12070E-06
 -1      7798 2.17774E-05 6.70239E-05-2.29502E-06
 -1      7799 2.17774E-05 6.70239E-05-2.46940E-06
 -1      7800 2.17774E-05 6.70239E-05-2.64396E-06
 -1      7801 2.17774E-05 6.70239E-05-2.81883E-06
 -1      7802 2.17774E-05 6.70240E-05-2.99418E-06
 -1      7803 1.10244E-05 6.96056E-05-1.42155E-06
 -1      7804 1.10244E-05 6.96055E-05-1.59690E-06
 -1      7805 1.10244E-05 6.96054E-05-1.77177E-06
 -1      7806 1.10244E-05 6.96054E-05-1.94632E-06
 -1      7807 1.10244E-05 6.96054E-05-2.12070E-06
 -1      7808 1.10244E-05 6.96054E-05-2.29502E-06
 -1      7809 1.10244E-05 6.96054E-05-2.46940E-06
 -1      7810 1.10244E-05 6.96054E-05-2.64396E-06
 -1      7811 1.10244E-05 6.96055E-05-2.81883E-06
 -1      7812 1.10244E-05 6.96056E-05-2.99418E-06
 -1      7813 6.85107E-05 1.08510E-05-1.42177E-06
 -1      7814 6.85106E-05 1.08510E-05-1.59702E-06
 -1      7815 6.85105E-05 1.08510E-05-1.77183E-06
 -1      7816 6.85105E-05 1.08510E-05-1.94635E-06
 -1      7817 6.85105E-05 1.08510E-05-2.12071E-06
 -1      7818 6.85105E-05 1.08510E-05-2.29502E-06
 -1      7819 6.85105E-05 1.08510E-05-2.46937E-06
 -1      7820 6.85105E-05 1.08510E-05-2.64390E-06
 -1      7821 6.85106E-05 1.08510E-05-2.81870E-06
 -1      7822 6.85107E-05 1.08510E-05-2.99396E-06
 -1      7823 6.59697E-05 2.14349E-05-1.42177E-06
 -1      7824 6.59696E-05 2.14348E-05-1.59702E-06
 -1      7825 6.59696E-05 2.14348E-05-1.77183E-06
 -1      7826 6.59696E-05 2.14348E-05-1.94635E-06
 -1      7827 6.59696E-05 2.14348E-05-2.12071E-06
 -1      7828 6.59696E-05 2.14348E-05-2.29502E-06
 -1      7829 6.59696E-05 2.14348E-05-2.46937E-06
 -1      7830 6.59696E-05 2.14348E-05-2.64390E-06
 -1      7831 6.59696E-05 2.14348E-05-2.81870E-06
 -1      7832 6.59697E-05 2.14349E-05-2.99396E-06
 -1      7833 6.18044E-05 3.14909E-05-1.42177E-06
 -1      7834 6.18043E-05 3.14909E-05-1.59702E-06
 -1      7835 6.18043E-05 3.14908E-05-1.77183E-06
 -1      7836 6.18042E-05 3.14908E-05-1.94635E-06
 -1      7837 6.18042E-05 3.14908E-05-2.12071E-06
 -1      7838 6.18042E-05 3.14908E-05-2.29502E-06
 -1      7839 6.18042E-05 3.14908E-05-2.46937E-06
 -1      7840 6.18043E-05 3.14908E-05-2.64390E-06
 -1      7841 6.18043E-05 3.14909E-05-2.81870E-06
 -1      7842 6.18044E-05 3.14909E-05-2.99396E-06
 -1      7843 5.61172E-05 4.07715E-05-1.42177E-06
 -1      7844 5.61171E-05 4.07715E-05-1.59702E-06
 -1      7845 5.61171E-05 4.07715E-05-1.77183E-06
 -1      7846 5.61171E-05 4.07714E-05-1.94635E-06
 -1      7847 5.61171E-05 4.07714E-05-2.12071E-06
 -1      7848 5.61171E-05 4.07714E-05-2.29502E-06
 -1      7849 5.61171E-05 4.07714E-05-2.46937E-06
 -1      7850 5.61171E-05 4.07715E-05-2.64390E-06
 -1      7851 5.61171E-05 4.07715E-05-2.81870E-06
 -1      7852 5.61172E-05 4.07715E-05-2.99396E-06
 -1      7853 4.90482E-05 4.90482E-05-1.42177E-06
 -1      7854 4.90482E-05 4.90482E-05-1.59702E-06
 -1      7855 4.90481E-05 4.90481E-05-1.77183E-06
 -1      7856 4.90481E-05 4.90481E-05-1.94635E-06
 -1      7857 4.90481E-05 4.90481E-05-2.12071E-06
 -1      7858 4.90481E-05 4.90481E-05-2.29502E-06
 -1      7859 4.90481E-05 4.90481E-05-2.46937E-06
 -1      7860 4.90481E-05 4.90481E-05-2.64390E-06
 -1      7861 4.90482E-05 4.90482E-05-2.81870E-06
 -1      7862 4.90482E-05 4.90482E-05-2.99396E-06
 -1      7863 4.07715E-05 5.61172E-05-1.42177E-06
 -1      7864 4.07715E-05 5.61171E-05-1.59702E-06
 -1      7865 4.07715E-05 5.61171E-05-1.77183E-06
 -1      7866 4.07714E-05 5.61171E-05-1.94635E-06
 -1      7867 4.07714E-05 5.61171E-05-2.12071E-06
 -1      7868 4.07714E-05 5.61171E-05-2.29502E-06
 -1      7869 4.07714E-05 5.61171E-05-2.46937E-06
 -1      7870 4.07715E-05 5.61171E-05-2.64390E-06
 -1      7871 4.07715E-05 5.61171E-05-2.81870E-06
 -1      7872 4.07715E-05 5.61172E-05-2.99396E-06
 -1      7873 3.14909E-05 6.18044E-05-1.42177E-06
 -1      7874 3.14909E-05 6.18043E-05-1.59702E-06
 -1      7875 3.14908E-05 6.18043E-05-1.77183E-06
 -1      7876 3.14908E-05 6.18042E-05-1.94635E-06
 -1      7877 3.14908E-05 6.18042E-05-2.12071E-06
 -1      7878 3.14908E-05 6.18042E-05-2.29502E-06
 -1      7879 3.14908E-05 6.18042E-05-2.46937E-06
 -1      7880 3.14908E-05 6.18043E-05-2.64390E-06
 -1      7881 3.14909E-05 6.18043E-05-2.81870E-06
 -1      7882 3.14909E-05 6.18044E-05-2.99396E-06
 -1      7883 2.14349E-05 6.59697E-05-1.42177E-06
 -1      7884 2.14348E-05 6.59696E-05-1.59702E-06
 -1      7885 2.14348E-05 6.59696E-05-1.77183E-06
 -1      7886 2.14348E-05 6.59696E-05-1.94635E-06
 -1      7887 2.14348E-05 6.59696E-05-2.12071E-06
 -1      7888 2.14348E-05 6.59696E-05-2.29502E-06
 -1      7889 2.14348E-05 6.59696E-05-2.46937E-06
 -1      7890 2.14348E-05 6.59696E-05-2.64390E-06
 -1      7891 2.14348E-05 6.59696E-05-2.81870E-06
 -1      7892 2.14349E-05 6.59697E-05-2.99396E-06
 -1      7893 1.08510E-05 6.85107E-05-1.42177E-06
 -1      7894 1.08510E-05 6.85106E-05-1.59702E-06
 -1      7895 1.08510E-05 6.85105E-05-1.77183E-06
 -1      7896 1.08510E-05 6.85105E-05-1.94635E-06
 -1      7897 1.08510E-05 6.85105E-05-2.12071E-06
 -1      7898 1.08510E-05 6.85105E-05-2.29502E-06
 -1      7899 1.08510E-05 6.85105E-05-2.46937E-06
 -1      7900 1.08510E-05 6.85105E-05-2.64390E-06
 -1      7901 1.08510E-05 6.85106E-05-2.81870E-06
 -1      7902 1.08510E-05 6.85107E-05-2.99396E-06
 -1      7903 6.75154E-05 1.06934E-05-1.42199E-06
 -1      7904 6.75153E-05 1.06934E-05-1.59715E-06
 -1      7905 6.75152E-05 1.06934E-05-1.77190E-06
 -1      7906 6.75152E-05 1.06934E-05-1.94638E-06
 -1      7907 6.75152E-05 1.06934E-05-2.12072E-06
 -1      7908 6.75152E-05 1.06934E-05-2.29501E-06
 -1      7909 6.75152E-05 1.06934E-05-2.46934E-06
 -1      7910 6.75152E-05 1.06934E-05-2.64383E-06
 -1      7911 6.75153E-05 1.06934E-05-2.81858E-06
 -1      7912 6.75154E-05 1.06934E-05-2.99374E-06
 -1      7913 6.50113E-05 2.11235E-05-1.42199E-06
 -1      7914 6.50112E-05 2.11234E-05-1.59715E-06
 -1      7915 6.50112E-05 2.11234E-05-1.77190E-06
 -1      7916 6.50112E-05 2.11234E-05-1.94638E-06
 -1      7917 6.50112E-05 2.11234E-05-2.12072E-06
 -1      7918 6.50112E-05 2.11234E-05-2.29501E-06
 -1      7919 6.50112E-05 2.11234E-05-2.46934E-06
 -1      7920 6.50112E-05 2.11234E-05-2.64383E-06
 -1      7921 6.50112E-05 2.11234E-05-2.81858E-06
 -1      7922 6.50113E-05 2.11235E-05-2.99374E-06
 -1      7923 6.09065E-05 3.10334E-05-1.42199E-06
 -1      7924 6.09064E-05 3.10334E-05-1.59715E-06
 -1      7925 6.09064E-05 3.10334E-05-1.77190E-06
 -1      7926 6.09064E-05 3.10333E-05-1.94638E-06
 -1      7927 6.09064E-05 3.10333E-05-2.12072E-06
 -1      7928 6.09064E-05 3.10333E-05-2.29501E-06
 -1      7929 6.09064E-05 3.10333E-05-2.46934E-06
 -1      7930 6.09064E-05 3.10334E-05-2.64383E-06
 -1      7931 6.09064E-05 3.10334E-05-2.81858E-06
 -1      7932 6.09065E-05 3.10334E-05-2.99374E-06
 -1      7933 5.53019E-05 4.01792E-05-1.42199E-06
 -1      7934 5.53019E-05 4.01792E-05-1.59715E-06
 -1      7935 5.53018E-05 4.01791E-05-1.77190E-06
 -1      7936 5.53018E-05 4.01791E-05-1.94638E-06
 -1      7937 5.53018E-05 4.01791E-05-2.12072E-06
 -1      7938 5.53018E-05 4.01791E-05-2.29501E-06
 -1      7939 5.53018E-05 4.01791E-05-2.46934E-06
 -1      7940 5.53018E-05 4.01791E-05-2.64383E-06
 -1      7941 5.53019E-05 4.01792E-05-2.81858E-06
 -1      7942 5.53019E-05 4.01792E-05-2.99374E-06
 -1      7943 4.83357E-05 4.83357E-05-1.42199E-06
 -1      7944 4.83356E-05 4.83356E-05-1.59715E-06
 -1      7945 4.83356E-05 4.83356E-05-1.77190E-06
 -1      7946 4.83356E-05 4.83356E-05-1.94638E-06
 -1      7947 4.83356E-05 4.83356E-05-2.12072E-06
 -1      7948 4.83356E-05 4.83356E-05-2.29501E-06
 -1      7949 4.83356E-05 4.83356E-05-2.46934E-06
 -1      7950 4.83356E-05 4.83356E-05-2.64383E-06
 -1      7951 4.83356E-05 4.83356E-05-2.81858E-06
 -1      7952 4.83357E-05 4.83357E-05-2.99374E-06
 -1      7953 4.01792E-05 5.53019E-05-1.42199E-06
 -1      7954 4.01792E-05 5.53019E-05-1.59715E-06
 -1      7955 4.01791E-05 5.53018E-05-1.77190E-06
 -1      7956 4.01791E-05 5.53018E-05-1.94638E-06
 -1      7957 4.01791E-05 5.53018E-05-2.12072E-06
 -1      7958 4.01791E-05 5.53018E-05-2.29501E-06
 -1      7959 4.01791E-05 5.53018E-05-2.46934E-06
 -1      7960 4.01791E-05 5.53018E-05-2.64383E-06
 -1      7961 4.01792E-05 5.53019E-05-2.81858E-06
 -1      7962 4.01792E-05 5.53019E-05-2.99374E-06
 -1      7963 3.10334E-05 6.09065E-05-1.42199E-06
 -1      7964 3.10334E-05 6.09064E-05-1.59715E-06
 -1      7965 3.10334E-05 6.09064E-05-1.77190E-06
 -1      7966 3.10333E-05 6.09064E-05-1.94638E-06
 -1      7967 3.10333E-05 6.09064E-05-2.12072E-06
 -1      7968 3.10333E-05 6.09064E-05-2.29501E-06
 -1      7969 3.10333E-05 6.09064E-05-2.46934E-06
 -1      7970 3.10334E-05 6.09064E-05-2.64383E-06
 -1      7971 3.10334E-05 6.09064E-05-2.81858E-06
 -1      7972 3.10334E-05 6.09065E-05-2.99374E-06
 -1      7973 2.11235E-05 6.50113E-05-1.42199E-06
 -1      7974 2.11234E-05 6.50112E-05-1.59715E-06
 -1      7975 2.11234E-05 6.50112E-05-1.77190E-06
 -1      7976 2.11234E-05 6.50112E-05-1.94638E-06
 -1      7977 2.11234E-05 6.50112E-05-2.12072E-06
 -1      7978 2.11234E-05 6.50112E-05-2.29501E-06
 -1      7979 2.11234E-05 6.50112E-05-2.46934E-06
 -1      7980 2.11234E-05 6.50112E-05-2.64383E-06
 -1      7981 2.11234E-05 6.50112E-05-2.81858E-06
 -1      7982 2.11235E-05 6.50113E-05-2.99374E-06
 -1      7983 1.06934E-05 6.75154E-05-1.42199E-06
 -1      7984 1.06934E-05 6.75153E-05-1.59715E-06
 -1      7985 1.06934E-05 6.75152E-05-1.77190E-06
 -1      7986 1.06934E-05 6.75152E-05-1.94638E-06
 -1      7987 1.06934E-05 6.75152E-05-2.12072E-06
 -1      7988 1.06934E-05 6.75152E-05-2.29501E-06
 -1      7989 1.06934E-05 6.75152E-05-2.46934E-06
 -1      7990 1.06934E-05 6.75152E-05-2.64383E-06
 -1      7991 1.06934E-05 6.75153E-05-2.81858E-06
 -1      7992 1.06934E-05 6.75154E-05-2.99374E-06
 -1      7993 6.66108E-05 1.05501E-05-1.42222E-06
 -1      7994 6.66108E-05 1.05501E-05-1.59728E-06
 -1      7995 6.66107E-05 1.05501E-05-1.77197E-06
 -1      7996 6.66107E-05 1.05501E-05-1.94642E-06
 -1      7997 6.66107E-05 1.05501E-05-2.12073E-06
 -1      7998 6.66107E-05 1.05501E-05-2.29500E-06
 -1      7999 6.66107E-05 1.05501E-05-2.46931E-06
 -1      8000 6.66107E-05 1.05501E-05-2.64376E-06
 -1      8001 6.66108E-05 1.05501E-05-2.81845E-06
 -1      8002 6.66108E-05 1.05501E-05-2.99351E-06
 -1      8003 6.41403E-05 2.08405E-05-1.42222E-06
 -1      8004 6.41403E-05 2.08404E-05-1.59728E-06
 -1      8005 6.41402E-05 2.08404E-05-1.77197E-06
 -1      8006 6.41402E-05 2.08404E-05-1.94642E-06
 -1      8007 6.41402E-05 2.08404E-05-2.12073E-06
 -1      8008 6.41402E-05 2.08404E-05-2.29500E-06
 -1      8009 6.41402E-05 2.08404E-05-2.46931E-06
 -1      8010 6.41402E-05 2.08404E-05-2.64376E-06
 -1      8011 6.41403E-05 2.08404E-05-2.81845E-06
 -1      8012 6.41403E-05 2.08405E-05-2.99351E-06
 -1      8013 6.00905E-05 3.06176E-05-1.42222E-06
 -1      8014 6.00904E-05 3.06176E-05-1.59728E-06
 -1      8015 6.00904E-05 3.06176E-05-1.77197E-06
 -1      8016 6.00904E-05 3.06176E-05-1.94642E-06
 -1      8017 6.00904E-05 3.06176E-05-2.12073E-06
 -1      8018 6.00904E-05 3.06176E-05-2.29500E-06
 -1      8019 6.00904E-05 3.06176E-05-2.46931E-06
 -1      8020 6.00904E-05 3.06176E-05-2.64376E-06
 -1      8021 6.00904E-05 3.06176E-05-2.81845E-06
 -1      8022 6.00905E-05 3.06176E-05-2.99351E-06
 -1      8023 5.45610E-05 3.96409E-05-1.42222E-06
 -1      8024 5.45610E-05 3.96409E-05-1.59728E-06
 -1      8025 5.45609E-05 3.96408E-05-1.77197E-06
 -1      8026 5.45609E-05 3.96408E-05-1.94642E-06
 -1      8027 5.45609E-05 3.96408E-05-2.12073E-06
 -1      8028 5.45609E-05 3.96408E-05-2.29500E-06
 -1      8029 5.45609E-05 3.96408E-05-2.46931E-06
 -1      8030 5.45609E-05 3.96408E-05-2.64376E-06
 -1      8031 5.45610E-05 3.96409E-05-2.81845E-06
 -1      8032 5.45610E-05 3.96409E-05-2.99351E-06
 -1      8033 4.76881E-05 4.76881E-05-1.42222E-06
 -1      8034 4.76880E-05 4.76880E-05-1.59728E-06
 -1      8035 4.76880E-05 4.76880E-05-1.77197E-06
 -1      8036 4.76880E-05 4.76880E-05-1.94642E-06
 -1      8037 4.76880E-05 4.76880E-05-2.12073E-06
 -1      8038 4.76880E-05 4.76880E-05-2.29500E-06
 -1      8039 4.76880E-05 4.76880E-05-2.46931E-06
 -1      8040 4.76880E-05 4.76880E-05-2.64376E-06
 -1      8041 4.76880E-05 4.76880E-05-2.81845E-06
 -1      8042 4.76881E-05 4.76881E-05-2.99351E-06
 -1      8043 3.96409E-05 5.45610E-05-1.42222E-06
 -1      8044 3.96409E-05 5.45610E-05-1.59728E-06
 -1      8045 3.96408E-05 5.45609E-05-1.77197E-06
 -1      8046 3.96408E-05 5.45609E-05-1.94642E-06
 -1      8047 3.96408E-05 5.45609E-05-2.12073E-06
 -1      8048 3.96408E-05 5.45609E-05-2.29500E-06
 -1      8049 3.96408E-05 5.45609E-05-2.46931E-06
 -1      8050 3.96408E-05 5.45609E-05-2.64376E-06
 -1      8051 3.96409E-05 5.45610E-05-2.81845E-06
 -1      8052 3.96409E-05 5.45610E-05-2.99351E-06
 -1      8053 3.06176E-05 6.00905E-05-1.42222E-06
 -1      8054 3.06176E-05 6.00904E-05-1.59728E-06
 -1      8055 3.06176E-05 6.00904E-05-1.77197E-06
 -1      8056 3.06176E-05 6.00904E-05-1.94642E-06
 -1      8057 3.06176E-05 6.00904E-05-2.12073E-06
 -1      8058 3.06176E-05 6.00904E-05-2.29500E-06
 -1      8059 3.06176E-05 6.00904E-05-2.46931E-06
 -1      8060 3.06176E-05 6.00904E-05-2.64376E-06
 -1      8061 3.06176E-05 6.00904E-05-2.81845E-06
 -1      8062 3.06176E-05 6.00905E-05-2.99351E-06
 -1      8063 2.08405E-05 6.41403E-05-1.42222E-06
 -1      8064 2.08404E-05 6.41403E-05-1.59728E-06
 -1      8065 2.08404E-05 6.41402E-05-1.77197E-06
 -1      8066 2.08404E-05 6.41402E-05-1.94642E-06
 -1      8067 2.08404E-05 6.41402E-05-2.12073E-06
 -1      8068 2.08404E-05 6.41402E-05-2.29500E-06
 -1      8069 2.08404E-05 6.41402E-05-2.46931E-06
 -1      8070 2.08404E-05 6.41402E-05-2.64376E-06
 -1      8071 2.08404E-05 6.41403E-05-2.81845E-06
 -1      8072 2.08405E-05 6.41403E-05-2.99351E-06
 -1      8073 1.05501E-05 6.66108E-05-1.42222E-06
 -1      8074 1.05501E-05 6.66108E-05-1.59728E-06
 -1      8075 1.05501E-05 6.66107E-05-1.77197E-06
 -1      8076 1.05501E-05 6.66107E-05-1.94642E-06
 -1      8077 1.05501E-05 6.66107E-05-2.12073E-06
 -1      8078 1.05501E-05 6.66107E-05-2.29500E-06
 -1      8079 1.05501E-05 6.66107E-05-2.46931E-06
 -1      8080 1.05501E-05 6.66107E-05-2.64376E-06
 -1      8081 1.05501E-05 6.66108E-05-2.81845E-06
 -1      8082 1.05501E-05 6.66108E-05-2.99351E-06
 -1      8083 6.57892E-05 1.04200E-05-1.42246E-06
 -1      8084 6.57892E-05 1.04200E-05-1.59743E-06
 -1      8085 6.57892E-05 1.04200E-05-1.77206E-06
 -1      8086 6.57891E-05 1.04200E-05-1.94646E-06
 -1      8087 6.57891E-05 1.04200E-05-2.12074E-06
 -1      8088 6.57891E-05 1.04200E-05-2.29498E-06
 -1      8089 6.57891E-05 1.04200E-05-2.46926E-06
 -1      8090 6.57892E-05 1.04200E-05-2.64367E-06
 -1      8091 6.57892E-05 1.04200E-05-2.81830E-06
 -1      8092 6.57892E-05 1.04200E-05-2.99327E-06
 -1      8093 6.33492E-05 2.05834E-05-1.42246E-06
 -1      8094 6.33492E-05 2.05834E-05-1.59743E-06
 -1      8095 6.33491E-05 2.05834E-05-1.77206E-06
 -1      8096 6.33491E-05 2.05834E-05-1.94646E-06
 -1      8097 6.33491E-05 2.05834E-05-2.12074E-06
 -1      8098 6.33491E-05 2.05834E-05-2.29498E-06
 -1      8099 6.33491E-05 2.05834E-05-2.46926E-06
 -1      8100 6.33491E-05 2.05834E-05-2.64367E-06
 -1      8101 6.33492E-05 2.05834E-05-2.81830E-06
 -1      8102 6.33492E-05 2.05834E-05-2.99327E-06
 -1      8103 5.93493E-05 3.02400E-05-1.42246E-06
 -1      8104 5.93493E-05 3.02400E-05-1.59743E-06
 -1      8105 5.93493E-05 3.02400E-05-1.77206E-06
 -1      8106 5.93492E-05 3.02399E-05-1.94646E-06
 -1      8107 5.93492E-05 3.02399E-05-2.12074E-06
 -1      8108 5.93492E-05 3.02399E-05-2.29498E-06
 -1      8109 5.93492E-05 3.02399E-05-2.46926E-06
 -1      8110 5.93493E-05 3.02400E-05-2.64367E-06
 -1      8111 5.93493E-05 3.02400E-05-2.81830E-06
 -1      8112 5.93493E-05 3.02400E-05-2.99327E-06
 -1      8113 5.38881E-05 3.91520E-05-1.42246E-06
 -1      8114 5.38880E-05 3.91519E-05-1.59743E-06
 -1      8115 5.38880E-05 3.91519E-05-1.77206E-06
 -1      8116 5.38880E-05 3.91519E-05-1.94646E-06
 -1      8117 5.38880E-05 3.91519E-05-2.12074E-06
 -1      8118 5.38880E-05 3.91519E-05-2.29498E-06
 -1      8119 5.38880E-05 3.91519E-05-2.46926E-06
 -1      8120 5.38880E-05 3.91519E-05-2.64367E-06
 -1      8121 5.38880E-05 3.91519E-05-2.81830E-06
 -1      8122 5.38881E-05 3.91520E-05-2.99327E-06
 -1      8123 4.70999E-05 4.70999E-05-1.42246E-06
 -1      8124 4.70999E-05 4.70999E-05-1.59743E-06
 -1      8125 4.70998E-05 4.70998E-05-1.77206E-06
 -1      8126 4.70998E-05 4.70998E-05-1.94646E-06
 -1      8127 4.70998E-05 4.70998E-05-2.12074E-06
 -1      8128 4.70998E-05 4.70998E-05-2.29498E-06
 -1      8129 4.70998E-05 4.70998E-05-2.46926E-06
 -1      8130 4.70998E-05 4.70998E-05-2.64367E-06
 -1      8131 4.70999E-05 4.70999E-05-2.81830E-06
 -1      8132 4.70999E-05 4.70999E-05-2.99327E-06
 -1      8133 3.91520E-05 5.38881E-05-1.42246E-06
 -1      8134 3.91519E-05 5.38880E-05-1.59743E-06
 -1      8135 3.91519E-05 5.38880E-05-1.77206E-06
 -1      8136 3.91519E-05 5.38880E-05-1.94646E-06
 -1      8137 3.91519E-05 5.38880E-05-2.12074E-06
 -1      8138 3.91519E-05 5.38880E-05-2.29498E-06
 -1      8139 3.91519E-05 5.38880E-05-2.46926E-06
 -1      8140 3.91519E-05 5.38880E-05-2.64367E-06
 -1      8141 3.91519E-05 5.38880E-05-2.81830E-06
 -1      8142 3.91520E-05 5.38881E-05-2.99327E-06
 -1      8143 3.02400E-05 5.93493E-05-1.42246E-06
 -1      8144 3.02400E-05 5.93493E-05-1.59743E-06
 -1      8145 3.02400E-05 5.93493E-05-1.77206E-06
 -1      8146 3.02399E-05 5.93492E-05-1.94646E-06
 -1      8147 3.02399E-05 5.93492E-05-2.12074E-06
 -1      8148 3.02399E-05 5.93492E-05-2.29498E-06
 -1      8149 3.02399E-05 5.93492E-05-2.46926E-06
 -1      8150 3.02400E-05 5.93493E-05-2.64367E-06
 -1      8151 3.02400E-05 5.93493E-05-2.81830E-06
 -1      8152 3.02400E-05 5.93493E-05-2.99327E-06
 -1      8153 2.05834E-05 6.33492E-05-1.42246E-06
 -1      8154 2.05834E-05 6.33492E-05-1.59743E-06
 -1      8155 2.05834E-05 6.33491E-05-1.77206E-06
 -1      8156 2.05834E-05 6.33491E-05-1.94646E-06
 -1      8157 2.05834E-05 6.33491E-05-2.12074E-06
 -1      8158 2.05834E-05 6.33491E-05-2.29498E-06
 -1      8159 2.05834E-05 6.33491E-05-2.46926E-06
 -1      8160 2.05834E-05 6.33491E-05-2.64367E-06
 -1      8161 2.05834E-05 6.33492E-05-2.81830E-06
 -1      8162 2.05834E-05 6.33492E-05-2.99327E-06
 -1      8163 1.04200E-05 6.57892E-05-1.42246E-06
 -1      8164 1.04200E-05 6.57892E-05-1.59743E-06
 -1      8165 1.04200E-05 6.57892E-05-1.77206E-06
 -1      8166 1.04200E-05 6.57891E-05-1.94646E-06
 -1      8167 1.04200E-05 6.57891E-05-2.12074E-06
 -1      8168 1.04200E-05 6.57891E-05-2.29498E-06
 -1      8169 1.04200E-05 6.57891E-05-2.46926E-06
 -1      8170 1.04200E-05 6.57892E-05-2.64367E-06
 -1      8171 1.04200E-05 6.57892E-05-2.81830E-06
 -1      8172 1.04200E-05 6.57892E-05-2.99327E-06
 -1      8173 6.50436E-05 1.03019E-05-1.42276E-06
 -1      8174 6.50435E-05 1.03019E-05-1.59761E-06
 -1      8175 6.50435E-05 1.03019E-05-1.77217E-06
 -1      8176 6.50435E-05 1.03019E-05-1.94652E-06
 -1      8177 6.50435E-05 1.03019E-05-2.12076E-06
 -1      8178 6.50435E-05 1.03019E-05-2.29496E-06
 -1      8179 6.50435E-05 1.03019E-05-2.46920E-06
 -1      8180 6.50435E-05 1.03019E-05-2.64356E-06
 -1      8181 6.50435E-05 1.03019E-05-2.81811E-06
 -1      8182 6.50436E-05 1.03019E-05-2.99297E-06
 -1      8183 6.26312E-05 2.03501E-05-1.42276E-06
 -1      8184 6.26312E-05 2.03501E-05-1.59761E-06
 -1      8185 6.26312E-05 2.03501E-05-1.77217E-06
 -1      8186 6.26312E-05 2.03501E-05-1.94652E-06
 -1      8187 6.26312E-05 2.03501E-05-2.12076E-06
 -1      8188 6.26312E-05 2.03501E-05-2.29496E-06
 -1      8189 6.26312E-05 2.03501E-05-2.46920E-06
 -1      8190 6.26312E-05 2.03501E-05-2.64356E-06
 -1      8191 6.26312E-05 2.03501E-05-2.81811E-06
 -1      8192 6.26312E-05 2.03501E-05-2.99297E-06
 -1      8193 5.86766E-05 2.98972E-05-1.42276E-06
 -1      8194 5.86766E-05 2.98972E-05-1.59761E-06
 -1      8195 5.86766E-05 2.98972E-05-1.77217E-06
 -1      8196 5.86766E-05 2.98972E-05-1.94652E-06
 -1      8197 5.86766E-05 2.98972E-05-2.12076E-06
 -1      8198 5.86766E-05 2.98972E-05-2.29496E-06
 -1      8199 5.86766E-05 2.98972E-05-2.46920E-06
 -1      8200 5.86766E-05 2.98972E-05-2.64356E-06
 -1      8201 5.86766E-05 2.98972E-05-2.81811E-06
 -1      8202 5.86766E-05 2.98972E-05-2.99297E-06
 -1      8203 5.32773E-05 3.87082E-05-1.42276E-06
 -1      8204 5.32773E-05 3.87082E-05-1.59761E-06
 -1      8205 5.32772E-05 3.87082E-05-1.77217E-06
 -1      8206 5.32772E-05 3.87082E-05-1.94652E-06
 -1      8207 5.32772E-05 3.87082E-05-2.12076E-06
 -1      8208 5.32772E-05 3.87082E-05-2.29496E-06
 -1      8209 5.32772E-05 3.87082E-05-2.46920E-06
 -1      8210 5.32772E-05 3.87082E-05-2.64356E-06
 -1      8211 5.32773E-05 3.87082E-05-2.81811E-06
 -1      8212 5.32773E-05 3.87082E-05-2.99297E-06
 -1      8213 4.65660E-05 4.65660E-05-1.42276E-06
 -1      8214 4.65660E-05 4.65660E-05-1.59761E-06
 -1      8215 4.65660E-05 4.65660E-05-1.77217E-06
 -1      8216 4.65660E-05 4.65660E-05-1.94652E-06
 -1      8217 4.65660E-05 4.65660E-05-2.12076E-06
 -1      8218 4.65660E-05 4.65660E-05-2.29496E-06
 -1      8219 4.65660E-05 4.65660E-05-2.46920E-06
 -1      8220 4.65660E-05 4.65660E-05-2.64356E-06
 -1      8221 4.65660E-05 4.65660E-05-2.81811E-06
 -1      8222 4.65660E-05 4.65660E-05-2.99297E-06
 -1      8223 3.87082E-05 5.32773E-05-1.42276E-06
 -1      8224 3.87082E-05 5.32773E-05-1.59761E-06
 -1      8225 3.87082E-05 5.32772E-05-1.77217E-06
 -1      8226 3.87082E-05 5.32772E-05-1.94652E-06
 -1      8227 3.87082E-05 5.32772E-05-2.12076E-06
 -1      8228 3.87082E-05 5.32772E-05-2.29496E-06
 -1      8229 3.87082E-05 5.32772E-05-2.46920E-06
 -1      8230 3.87082E-05 5.32772E-05-2.64356E-06
 -1      8231 3.87082E-05 5.32773E-05-2.81811E-06
 -1      8232 3.87082E-05 5.32773E-05-2.99297E-06
 -1      8233 2.98972E-05 5.86766E-05-1.42276E-06
 -1      8234 2.98972E-05 5.86766E-05-1.59761E-06
 -1      8235 2.98972E-05 5.86766E-05-1.77217E-06
 -1      8236 2.98972E-05 5.86766E-05-1.94652E-06
 -1      8237 2.98972E-05 5.86766E-05-2.12076E-06
 -1      8238 2.98972E-05 5.86766E-05-2.29496E-06
 -1      8239 2.98972E-05 5.86766E-05-2.46920E-06
 -1      8240 2.98972E-05 5.86766E-05-2.64356E-06
 -1      8241 2.98972E-05 5.86766E-05-2.81811E-06
 -1      8242 2.98972E-05 5.86766E-05-2.99297E-06
 -1      8243 2.03501E-05 6.26312E-05-1.42276E-06
 -1      8244 2.03501E-05 6.26312E-05-1.59761E-06
 -1      8245 2.03501E-05 6.26312E-05-1.77217E-06
 -1      8246 2.03501E-05 6.26312E-05-1.94652E-06
 -1      8247 2.03501E-05 6.26312E-05-2.12076E-06
 -1      8248 2.03501E-05 6.26312E-05-2.29496E-06
 -1      8249 2.03501E-05 6.26312E-05-2.46920E-06
 -1      8250 2.03501E-05 6.26312E-05-2.64356E-06
 -1      8251 2.03501E-05 6.26312E-05-2.81811E-06
 -1      8252 2.03501E-05 6.26312E-05-2.99297E-06
 -1      8253 1.03019E-05 6.50436E-05-1.42276E-06
 -1      8254 1.03019E-05 6.50435E-05-1.59761E-06
 -1      8255 1.03019E-05 6.50435E-05-1.77217E-06
 -1      8256 1.03019E-05 6.50435E-05-1.94652E-06
 -1      8257 1.03019E-05 6.50435E-05-2.12076E-06
 -1      8258 1.03019E-05 6.50435E-05-2.29496E-06
 -1      8259 1.03019E-05 6.50435E-05-2.46920E-06
 -1      8260 1.03019E-05 6.50435E-05-2.64356E-06
 -1      8261 1.03019E-05 6.50435E-05-2.81811E-06
 -1      8262 1.03019E-05 6.50436E-05-2.99297E-06
 -1      8263 6.43674E-05 1.01948E-05-1.42317E-06
 -1      8264 6.43674E-05 1.01948E-05-1.59789E-06
 -1      8265 6.43674E-05 1.01948E-05-1.77235E-06
 -1      8266 6.43674E-05 1.01948E-05-1.94662E-06
 -1      8267 6.43674E-05 1.01948E-05-2.12080E-06
 -1      8268 6.43674E-05 1.01948E-05-2.29493E-06
 -1      8269 6.43674E-05 1.01948E-05-2.46910E-06
 -1      8270 6.43674E-05 1.01948E-05-2.64338E-06
 -1      8271 6.43674E-05 1.01948E-05-2.81783E-06
 -1      8272 6.43674E-05 1.01948E-05-2.99256E-06
 -1      8273 6.19801E-05 2.01386E-05-1.42317E-06
 -1      8274 6.19801E-05 2.01386E-05-1.59789E-06
 -1      8275 6.19802E-05 2.01386E-05-1.77235E-06
 -1      8276 6.19802E-05 2.01386E-05-1.94662E-06
 -1      8277 6.19802E-05 2.01386E-05-2.12080E-06
 -1      8278 6.19802E-05 2.01386E-05-2.29493E-06
 -1      8279 6.19802E-05 2.01386E-05-2.46910E-06
 -1      8280 6.19802E-05 2.01386E-05-2.64338E-06
 -1      8281 6.19801E-05 2.01386E-05-2.81783E-06
 -1      8282 6.19801E-05 2.01386E-05-2.99256E-06
 -1      8283 5.80667E-05 2.95864E-05-1.42317E-06
 -1      8284 5.80667E-05 2.95865E-05-1.59789E-06
 -1      8285 5.80667E-05 2.95865E-05-1.77235E-06
 -1      8286 5.80667E-05 2.95865E-05-1.94662E-06
 -1      8287 5.80667E-05 2.95865E-05-2.12080E-06
 -1      8288 5.80667E-05 2.95865E-05-2.29493E-06
 -1      8289 5.80667E-05 2.95865E-05-2.46910E-06
 -1      8290 5.80667E-05 2.95865E-05-2.64338E-06
 -1      8291 5.80667E-05 2.95865E-05-2.81783E-06
 -1      8292 5.80667E-05 2.95864E-05-2.99256E-06
 -1      8293 5.27234E-05 3.83058E-05-1.42317E-06
 -1      8294 5.27235E-05 3.83058E-05-1.59789E-06
 -1      8295 5.27235E-05 3.83058E-05-1.77235E-06
 -1      8296 5.27235E-05 3.83058E-05-1.94662E-06
 -1      8297 5.27235E-05 3.83058E-05-2.12080E-06
 -1      8298 5.27235E-05 3.83058E-05-2.29493E-06
 -1      8299 5.27235E-05 3.83058E-05-2.46910E-06
 -1      8300 5.27235E-05 3.83058E-05-2.64338E-06
 -1      8301 5.27235E-05 3.83058E-05-2.81783E-06
 -1      8302 5.27234E-05 3.83058E-05-2.99256E-06
 -1      8303 4.60820E-05 4.60820E-05-1.42317E-06
 -1      8304 4.60820E-05 4.60820E-05-1.59789E-06
 -1      8305 4.60820E-05 4.60820E-05-1.77235E-06
 -1      8306 4.60820E-05 4.60820E-05-1.94662E-06
 -1      8307 4.60820E-05 4.60820E-05-2.12080E-06
 -1      8308 4.60820E-05 4.60820E-05-2.29493E-06
 -1      8309 4.60820E-05 4.60820E-05-2.46910E-06
 -1      8310 4.60820E-05 4.60820E-05-2.64338E-06
 -1      8311 4.60820E-05 4.60820E-05-2.81783E-06
 -1      8312 4.60820E-05 4.60820E-05-2.99256E-06
 -1      8313 3.83058E-05 5.27234E-05-1.42317E-06
 -1      8314 3.83058E-05 5.27235E-05-1.59789E-06
 -1      8315 3.83058E-05 5.27235E-05-1.77235E-06
 -1      8316 3.83058E-05 5.27235E-05-1.94662E-06
 -1      8317 3.83058E-05 5.27235E-05-2.12080E-06
 -1      8318 3.83058E-05 5.27235E-05-2.29493E-06
 -1      8319 3.83058E-05 5.27235E-05-2.46910E-06
 -1      8320 3.83058E-05 5.27235E-05-2.64338E-06
 -1      8321 3.83058E-05 5.27235E-05-2.81783E-06
 -1      8322 3.83058E-05 5.27234E-05-2.99256E-06
 -1      8323 2.95864E-05 5.80667E-05-1.42317E-06
 -1      8324 2.95865E-05 5.80667E-05-1.59789E-06
 -1      8325 2.95865E-05 5.80667E-05-1.77235E-06
 -1      8326 2.95865E-05 5.80667E-05-1.94662E-06
 -1      8327 2.95865E-05 5.80667E-05-2.12080E-06
 -1      8328 2.95865E-05 5.80667E-05-2.29493E-06
 -1      8329 2.95865E-05 5.80667E-05-2.46910E-06
 -1      8330 2.95865E-05 5.80667E-05-2.64338E-06
 -1      8331 2.95865E-05 5.80667E-05-2.81783E-06
 -1      8332 2.95864E-05 5.80667E-05-2.99256E-06
 -1      8333 2.01386E-05 6.19801E-05-1.42317E-06
 -1      8334 2.01386E-05 6.19801E-05-1.59789E-06
 -1      8335 2.01386E-05 6.19802E-05-1.77235E-06
 -1      8336 2.01386E-05 6.19802E-05-1.94662E-06
 -1      8337 2.01386E-05 6.19802E-05-2.12080E-06
 -1      8338 2.01386E-05 6.19802E-05-2.29493E-06
 -1      8339 2.01386E-05 6.19802E-05-2.46910E-06
 -1      8340 2.01386E-05 6.19802E-05-2.64338E-06
 -1      8341 2.01386E-05 6.19801E-05-2.81783E-06
 -1      8342 2.01386E-05 6.19801E-05-2.99256E-06
 -1      8343 1.01948E-05 6.43674E-05-1.42317E-06
 -1      8344 1.01948E-05 6.43674E-05-1.59789E-06
 -1      8345 1.01948E-05 6.43674E-05-1.77235E-06
 -1      8346 1.01948E-05 6.43674E-05-1.94662E-06
 -1      8347 1.01948E-05 6.43674E-05-2.12080E-06
 -1      8348 1.01948E-05 6.43674E-05-2.29493E-06
 -1      8349 1.01948E-05 6.43674E-05-2.46910E-06
 -1      8350 1.01948E-05 6.43674E-05-2.64338E-06
 -1      8351 1.01948E-05 6.43674E-05-2.81783E-06
 -1      8352 1.01948E-05 6.43674E-05-2.99256E-06
 -1      8353 6.37548E-05 1.00978E-05-1.42389E-06
 -1      8354 6.37549E-05 1.00978E-05-1.59842E-06
 -1      8355 6.37549E-05 1.00978E-05-1.77271E-06
 -1      8356 6.37549E-05 1.00978E-05-1.94684E-06
 -1      8357 6.37549E-05 1.00978E-05-2.12087E-06
 -1      8358 6.37549E-05 1.00978E-05-2.29486E-06
 -1      8359 6.37549E-05 1.00978E-05-2.46889E-06
 -1      8360 6.37549E-05 1.00978E-05-2.64302E-06
 -1      8361 6.37549E-05 1.00978E-05-2.81731E-06
 -1      8362 6.37548E-05 1.00978E-05-2.99184E-06
 -1      8363 6.13902E-05 1.99469E-05-1.42389E-06
 -1      8364 6.13903E-05 1.99469E-05-1.59842E-06
 -1      8365 6.13904E-05 1.99469E-05-1.77271E-06
 -1      8366 6.13904E-05 1.99469E-05-1.94684E-06
 -1      8367 6.13904E-05 1.99469E-05-2.12087E-06
 -1      8368 6.13904E-05 1.99469E-05-2.29486E-06
 -1      8369 6.13904E-05 1.99469E-05-2.46889E-06
 -1      8370 6.13904E-05 1.99469E-05-2.64302E-06
 -1      8371 6.13903E-05 1.99469E-05-2.81731E-06
 -1      8372 6.13902E-05 1.99469E-05-2.99184E-06
 -1      8373 5.75140E-05 2.93049E-05-1.42389E-06
 -1      8374 5.75141E-05 2.93049E-05-1.59842E-06
 -1      8375 5.75142E-05 2.93049E-05-1.77271E-06
 -1      8376 5.75142E-05 2.93049E-05-1.94684E-06
 -1      8377 5.75141E-05 2.93049E-05-2.12087E-06
 -1      8378 5.75141E-05 2.93049E-05-2.29486E-06
 -1      8379 5.75142E-05 2.93049E-05-2.46889E-06
 -1      8380 5.75142E-05 2.93049E-05-2.64302E-06
 -1      8381 5.75141E-05 2.93049E-05-2.81731E-06
 -1      8382 5.75140E-05 2.93049E-05-2.99184E-06
 -1      8383 5.22217E-05 3.79412E-05-1.42389E-06
 -1      8384 5.22217E-05 3.79413E-05-1.59842E-06
 -1      8385 5.22218E-05 3.79413E-05-1.77271E-06
 -1      8386 5.22218E-05 3.79413E-05-1.94684E-06
 -1      8387 5.22218E-05 3.79413E-05-2.12087E-06
 -1      8388 5.22218E-05 3.79413E-05-2.29486E-06
 -1      8389 5.22218E-05 3.79413E-05-2.46889E-06
 -1      8390 5.22218E-05 3.79413E-05-2.64302E-06
 -1      8391 5.22217E-05 3.79413E-05-2.81731E-06
 -1      8392 5.22217E-05 3.79412E-05-2.99184E-06
 -1      8393 4.56434E-05 4.56434E-05-1.42389E-06
 -1      8394 4.56435E-05 4.56435E-05-1.59842E-06
 -1      8395 4.56435E-05 4.56435E-05-1.77271E-06
 -1      8396 4.56435E-05 4.56435E-05-1.94684E-06
 -1      8397 4.56435E-05 4.56435E-05-2.12087E-06
 -1      8398 4.56435E-05 4.56435E-05-2.29486E-06
 -1      8399 4.56435E-05 4.56435E-05-2.46889E-06
 -1      8400 4.56435E-05 4.56435E-05-2.64302E-06
 -1      8401 4.56435E-05 4.56435E-05-2.81731E-06
 -1      8402 4.56434E-05 4.56434E-05-2.99184E-06
 -1      8403 3.79412E-05 5.22217E-05-1.42389E-06
 -1      8404 3.79413E-05 5.22217E-05-1.59842E-06
 -1      8405 3.79413E-05 5.22218E-05-1.77271E-06
 -1      8406 3.79413E-05 5.22218E-05-1.94684E-06
 -1      8407 3.79413E-05 5.22218E-05-2.12087E-06
 -1      8408 3.79413E-05 5.22218E-05-2.29486E-06
 -1      8409 3.79413E-05 5.22218E-05-2.46889E-06
 -1      8410 3.79413E-05 5.22218E-05-2.64302E-06
 -1      8411 3.79413E-05 5.22217E-05-2.81731E-06
 -1      8412 3.79412E-05 5.22217E-05-2.99184E-06
 -1      8413 2.93049E-05 5.75140E-05-1.42389E-06
 -1      8414 2.93049E-05 5.75141E-05-1.59842E-06
 -1      8415 2.93049E-05 5.75142E-05-1.77271E-06
 -1      8416 2.93049E-05 5.75142E-05-1.94684E-06
 -1      8417 2.93049E-05 5.75141E-05-2.12087E-06
 -1      8418 2.93049E-05 5.75141E-05-2.29486E-06
 -1      8419 2.93049E-05 5.75142E-05-2.46889E-06
 -1      8420 2.93049E-05 5.75142E-05-2.64302E-06
 -1      8421 2.93049E-05 5.75141E-05-2.81731E-06
 -1      8422 2.93049E-05 5.75140E-05-2.99184E-06
 -1      8423 1.99469E-05 6.13902E-05-1.42389E-06
 -1      8424 1.99469E-05 6.13903E-05-1.59842E-06
 -1      8425 1.99469E-05 6.13904E-05-1.77271E-06
 -1      8426 1.99469E-05 6.13904E-05-1.94684E-06
 -1      8427 1.99469E-05 6.13904E-05-2.12087E-06
 -1      8428 1.99469E-05 6.13904E-05-2.29486E-06
 -1      8429 1.99469E-05 6.13904E-05-2.46889E-06
 -1      8430 1.99469E-05 6.13904E-05-2.64302E-06
 -1      8431 1.99469E-05 6.13903E-05-2.81731E-06
 -1      8432 1.99469E-05 6.13902E-05-2.99183E-06
 -1      8433 1.00978E-05 6.37548E-05-1.42389E-06
 -1      8434 1.00978E-05 6.37549E-05-1.59842E-06
 -1      8435 1.00978E-05 6.37549E-05-1.77271E-06
 -1      8436 1.00978E-05 6.37549E-05-1.94684E-06
 -1      8437 1.00978E-05 6.37549E-05-2.12087E-06
 -1      8438 1.00978E-05 6.37549E-05-2.29486E-06
 -1      8439 1.00978E-05 6.37549E-05-2.46889E-06
 -1      8440 1.00978E-05 6.37549E-05-2.64302E-06
 -1      8441 1.00978E-05 6.37549E-05-2.81731E-06
 -1      8442 1.00978E-05 6.37548E-05-2.99184E-06
 -1      8443 6.31999E-05 1.00099E-05-1.42535E-06
 -1      8444 6.32001E-05 1.00099E-05-1.59946E-06
 -1      8445 6.32001E-05 1.00099E-05-1.77340E-06
 -1      8446 6.32000E-05 1.00099E-05-1.94723E-06
 -1      8447 6.32000E-05 1.00099E-05-2.12099E-06
 -1      8448 6.32000E-05 1.00099E-05-2.29473E-06
 -1      8449 6.32000E-05 1.00099E-05-2.46850E-06
 -1      8450 6.32001E-05 1.00099E-05-2.64233E-06
 -1      8451 6.32001E-05 1.00099E-05-2.81627E-06
 -1      8452 6.31999E-05 1.00099E-05-2.99038E-06
 -1      8453 6.08559E-05 1.97733E-05-1.42535E-06
 -1      8454 6.08561E-05 1.97733E-05-1.59946E-06
 -1      8455 6.08561E-05 1.97733E-05-1.77340E-06
 -1      8456 6.08561E-05 1.97733E-05-1.94723E-06
 -1      8457 6.08560E-05 1.97733E-05-2.12099E-06
 -1      8458 6.08560E-05 1.97733E-05-2.29473E-06
 -1      8459 6.08561E-05 1.97733E-05-2.46850E-06
 -1      8460 6.08561E-05 1.97733E-05-2.64233E-06
 -1      8461 6.08561E-05 1.97733E-05-2.81627E-06
 -1      8462 6.08559E-05 1.97733E-05-2.99038E-06
 -1      8463 5.70135E-05 2.90498E-05-1.42535E-06
 -1      8464 5.70136E-05 2.90499E-05-1.59946E-06
 -1      8465 5.70136E-05 2.90499E-05-1.77340E-06
 -1      8466 5.70136E-05 2.90499E-05-1.94723E-06
 -1      8467 5.70136E-05 2.90499E-05-2.12099E-06
 -1      8468 5.70136E-05 2.90499E-05-2.29473E-06
 -1      8469 5.70136E-05 2.90499E-05-2.46850E-06
 -1      8470 5.70136E-05 2.90499E-05-2.64233E-06
 -1      8471 5.70136E-05 2.90499E-05-2.81627E-06
 -1      8472 5.70135E-05 2.90498E-05-2.99038E-06
 -1      8473 5.17671E-05 3.76110E-05-1.42535E-06
 -1      8474 5.17673E-05 3.76111E-05-1.59946E-06
 -1      8475 5.17673E-05 3.76111E-05-1.77340E-06
 -1      8476 5.17673E-05 3.76111E-05-1.94723E-06
 -1      8477 5.17672E-05 3.76111E-05-2.12099E-06
 -1      8478 5.17672E-05 3.76111E-05-2.29473E-06
 -1      8479 5.17673E-05 3.76111E-05-2.46850E-06
 -1      8480 5.17673E-05 3.76111E-05-2.64233E-06
 -1      8481 5.17673E-05 3.76111E-05-2.81627E-06
 -1      8482 5.17671E-05 3.76110E-05-2.99038E-06
 -1      8483 4.52461E-05 4.52461E-05-1.42535E-06
 -1      8484 4.52463E-05 4.52463E-05-1.59946E-06
 -1      8485 4.52463E-05 4.52463E-05-1.77340E-06
 -1      8486 4.52462E-05 4.52462E-05-1.94723E-06
 -1      8487 4.52462E-05 4.52462E-05-2.12099E-06
 -1      8488 4.52462E-05 4.52462E-05-2.29473E-06
 -1      8489 4.52462E-05 4.52462E-05-2.46850E-06
 -1      8490 4.52463E-05 4.52463E-05-2.64233E-06
 -1      8491 4.52463E-05 4.52463E-05-2.81627E-06
 -1      8492 4.52461E-05 4.52461E-05-2.99038E-06
 -1      8493 3.76110E-05 5.17671E-05-1.42535E-06
 -1      8494 3.76111E-05 5.17673E-05-1.59946E-06
 -1      8495 3.76111E-05 5.17673E-05-1.77340E-06
 -1      8496 3.76111E-05 5.17673E-05-1.94723E-06
 -1      8497 3.76111E-05 5.17672E-05-2.12099E-06
 -1      8498 3.76111E-05 5.17672E-05-2.29473E-06
 -1      8499 3.76111E-05 5.17673E-05-2.46850E-06
 -1      8500 3.76111E-05 5.17673E-05-2.64233E-06
 -1      8501 3.76111E-05 5.17673E-05-2.81627E-06
 -1      8502 3.76110E-05 5.17671E-05-2.99038E-06
 -1      8503 2.90498E-05 5.70135E-05-1.42535E-06
 -1      8504 2.90499E-05 5.70136E-05-1.59946E-06
 -1      8505 2.90499E-05 5.70136E-05-1.77340E-06
 -1      8506 2.90499E-05 5.70136E-05-1.94723E-06
 -1      8507 2.90499E-05 5.70136E-05-2.12099E-06
 -1      8508 2.90499E-05 5.70136E-05-2.29473E-06
 -1      8509 2.90499E-05 5.70136E-05-2.46850E-06
 -1      8510 2.90499E-05 5.70136E-05-2.64233E-06
 -1      8511 2.90499E-05 5.70136E-05-2.81627E-06
 -1      8512 2.90498E-05 5.70135E-05-2.99038E-06
 -1      8513 1.97733E-05 6.08559E-05-1.42535E-06
 -1      8514 1.97733E-05 6.08561E-05-1.59946E-06
 -1      8515 1.97733E-05 6.08561E-05-1.77340E-06
 -1      8516 1.97733E-05 6.08561E-05-1.94723E-06
 -1      8517 1.97733E-05 6.08560E-05-2.12099E-06
 -1      8518 1.97733E-05 6.08560E-05-2.29473E-06
 -1      8519 1.97733E-05 6.08561E-05-2.46850E-06
 -1      8520 1.97733E-05 6.08561E-05-2.64233E-06
 -1      8521 1.97733E-05 6.08561E-05-2.81627E-06
 -1      8522 1.97733E-05 6.08559E-05-2.99038E-06
 -1      8523 1.00099E-05 6.31999E-05-1.42535E-06
 -1      8524 1.00099E-05 6.32001E-05-1.59946E-06
 -1      8525 1.00099E-05 6.32001E-05-1.77340E-06
 -1      8526 1.00099E-05 6.32000E-05-1.94723E-06
 -1      8527 1.00099E-05 6.32000E-05-2.12099E-06
 -1      8528 1.00099E-05 6.32000E-05-2.29473E-06
 -1      8529 1.00099E-05 6.32000E-05-2.46850E-06
 -1      8530 1.00099E-05 6.32001E-05-2.64233E-06
 -1      8531 1.00099E-05 6.32001E-05-2.81627E-06
 -1      8532 1.00099E-05 6.31999E-05-2.99038E-06
 -1      8533 1.54263E-04 2.44329E-05-1.32321E-06
 -1      8534 1.56138E-04 1.22883E-05-1.43265E-06
 -1      8535 1.61062E-04 2.55098E-05-1.42334E-06
 -1      8540 1.54263E-04 2.44329E-05-1.50888E-06
 -1      8541 1.56138E-04 1.22883E-05-1.60376E-06
 -1      8542 1.61064E-04 2.55101E-05-1.59938E-06
 -1      8547 1.54264E-04 2.44330E-05-1.68623E-06
 -1      8548 1.56138E-04 1.22883E-05-1.77576E-06
 -1      8549 1.61065E-04 2.55102E-05-1.77387E-06
 -1      8554 1.54265E-04 2.44331E-05-1.86077E-06
 -1      8555 1.56138E-04 1.22883E-05-1.94842E-06
 -1      8556 1.61065E-04 2.55102E-05-1.94765E-06
 -1      8561 1.54265E-04 2.44332E-05-2.03445E-06
 -1      8562 1.56138E-04 1.22883E-05-2.12136E-06
 -1      8563 1.61065E-04 2.55103E-05-2.12115E-06
 -1      8568 1.54265E-04 2.44332E-05-2.20786E-06
 -1      8569 1.56138E-04 1.22883E-05-2.29437E-06
 -1      8570 1.61065E-04 2.55103E-05-2.29457E-06
 -1      8575 1.54265E-04 2.44332E-05-2.38128E-06
 -1      8576 1.56138E-04 1.22883E-05-2.46731E-06
 -1      8577 1.61065E-04 2.55102E-05-2.46807E-06
 -1      8582 1.54265E-04 2.44331E-05-2.55495E-06
 -1      8583 1.56138E-04 1.22883E-05-2.63996E-06
 -1      8584 1.61065E-04 2.55102E-05-2.64186E-06
 -1      8589 1.54264E-04 2.44330E-05-2.72950E-06
 -1      8590 1.56138E-04 1.22883E-05-2.81197E-06
 -1      8591 1.61064E-04 2.55101E-05-2.81635E-06
 -1      8596 1.54263E-04 2.44329E-05-2.90685E-06
 -1      8597 1.56138E-04 1.22883E-05-2.98308E-06
 -1      8598 1.61062E-04 2.55098E-05-2.99238E-06
 -1      8603 1.54263E-04 2.44329E-05-3.09252E-06
 -1      8607 1.48542E-04 4.82642E-05-1.32321E-06
 -1      8608 1.52293E-04 3.65624E-05-1.43265E-06
 -1      8609 1.55089E-04 5.03914E-05-1.42334E-06
 -1      8614 1.48542E-04 4.82642E-05-1.50888E-06
 -1      8615 1.52294E-04 3.65624E-05-1.60376E-06
 -1      8616 1.55091E-04 5.03920E-05-1.59938E-06
 -1      8621 1.48543E-04 4.82645E-05-1.68623E-06
 -1      8622 1.52294E-04 3.65625E-05-1.77576E-06
 -1      8623 1.55091E-04 5.03923E-05-1.77387E-06
 -1      8628 1.48543E-04 4.82646E-05-1.86077E-06
 -1      8629 1.52294E-04 3.65624E-05-1.94842E-06
 -1      8630 1.55092E-04 5.03923E-05-1.94765E-06
 -1      8635 1.48543E-04 4.82647E-05-2.03445E-06
 -1      8636 1.52294E-04 3.65624E-05-2.12136E-06
 -1      8637 1.55092E-04 5.03924E-05-2.12115E-06
 -1      8642 1.48544E-04 4.82647E-05-2.20786E-06
 -1      8643 1.52294E-04 3.65624E-05-2.29437E-06
 -1      8644 1.55092E-04 5.03924E-05-2.29457E-06
 -1      8649 1.48543E-04 4.82647E-05-2.38128E-06
 -1      8650 1.52294E-04 3.65624E-05-2.46731E-06
 -1      8651 1.55092E-04 5.03923E-05-2.46807E-06
 -1      8656 1.48543E-04 4.82646E-05-2.55495E-06
 -1      8657 1.52294E-04 3.65625E-05-2.63996E-06
 -1      8658 1.55091E-04 5.03923E-05-2.64186E-06
 -1      8663 1.48543E-04 4.82645E-05-2.72950E-06
 -1      8664 1.52294E-04 3.65624E-05-2.81197E-06
 -1      8665 1.55091E-04 5.03920E-05-2.81635E-06
 -1      8670 1.48542E-04 4.82642E-05-2.90685E-06
 -1      8671 1.52293E-04 3.65624E-05-2.98308E-06
 -1      8672 1.55089E-04 5.03914E-05-2.99238E-06
 -1      8677 1.48542E-04 4.82642E-05-3.09252E-06
 -1      8681 1.39163E-04 7.09071E-05-1.32321E-06
 -1      8682 1.44699E-04 5.99362E-05-1.43265E-06
 -1      8683 1.45296E-04 7.40322E-05-1.42334E-06
 -1      8688 1.39163E-04 7.09070E-05-1.50888E-06
 -1      8689 1.44699E-04 5.99363E-05-1.60376E-06
 -1      8690 1.45298E-04 7.40331E-05-1.59938E-06
 -1      8695 1.39164E-04 7.09074E-05-1.68623E-06
 -1      8696 1.44699E-04 5.99363E-05-1.77576E-06
 -1      8697 1.45299E-04 7.40335E-05-1.77387E-06
 -1      8702 1.39164E-04 7.09077E-05-1.86077E-06
 -1      8703 1.44699E-04 5.99363E-05-1.94842E-06
 -1      8704 1.45299E-04 7.40336E-05-1.94765E-06
 -1      8709 1.39164E-04 7.09078E-05-2.03445E-06
 -1      8710 1.44699E-04 5.99362E-05-2.12136E-06
 -1      8711 1.45299E-04 7.40336E-05-2.12115E-06
 -1      8716 1.39164E-04 7.09078E-05-2.20786E-06
 -1      8717 1.44699E-04 5.99362E-05-2.29437E-06
 -1      8718 1.45299E-04 7.40336E-05-2.29457E-06
 -1      8723 1.39164E-04 7.09078E-05-2.38128E-06
 -1      8724 1.44699E-04 5.99363E-05-2.46731E-06
 -1      8725 1.45299E-04 7.40336E-05-2.46807E-06
 -1      8730 1.39164E-04 7.09077E-05-2.55495E-06
 -1      8731 1.44699E-04 5.99363E-05-2.63996E-06
 -1      8732 1.45299E-04 7.40335E-05-2.64186E-06
 -1      8737 1.39164E-04 7.09074E-05-2.72950E-06
 -1      8738 1.44699E-04 5.99363E-05-2.81197E-06
 -1      8739 1.45298E-04 7.40331E-05-2.81635E-06
 -1      8744 1.39163E-04 7.09070E-05-2.90685E-06
 -1      8745 1.44699E-04 5.99362E-05-2.98308E-06
 -1      8746 1.45296E-04 7.40322E-05-2.99238E-06
 -1      8751 1.39163E-04 7.09071E-05-3.09252E-06
 -1      8755 1.26357E-04 9.18040E-05-1.32321E-06
 -1      8756 1.33541E-04 8.18342E-05-1.43265E-06
 -1      8757 1.31926E-04 9.58502E-05-1.42334E-06
 -1      8762 1.26357E-04 9.18039E-05-1.50888E-06
 -1      8763 1.33541E-04 8.18342E-05-1.60376E-06
 -1      8764 1.31928E-04 9.58513E-05-1.59938E-06
 -1      8769 1.26358E-04 9.18045E-05-1.68623E-06
 -1      8770 1.33541E-04 8.18343E-05-1.77576E-06
 -1      8771 1.31929E-04 9.58518E-05-1.77387E-06
 -1      8776 1.26358E-04 9.18048E-05-1.86077E-06
 -1      8777 1.33541E-04 8.18342E-05-1.94842E-06
 -1      8778 1.31929E-04 9.58519E-05-1.94765E-06
 -1      8783 1.26359E-04 9.18049E-05-2.03445E-06
 -1      8784 1.33541E-04 8.18342E-05-2.12136E-06
 -1      8785 1.31929E-04 9.58520E-05-2.12115E-06
 -1      8790 1.26359E-04 9.18049E-05-2.20786E-06
 -1      8791 1.33541E-04 8.18342E-05-2.29437E-06
 -1      8792 1.31929E-04 9.58520E-05-2.29457E-06
 -1      8797 1.26359E-04 9.18049E-05-2.38128E-06
 -1      8798 1.33541E-04 8.18342E-05-2.46731E-06
 -1      8799 1.31929E-04 9.58519E-05-2.46807E-06
 -1      8804 1.26358E-04 9.18048E-05-2.55495E-06
 -1      8805 1.33541E-04 8.18343E-05-2.63996E-06
 -1      8806 1.31929E-04 9.58518E-05-2.64186E-06
 -1      8811 1.26358E-04 9.18045E-05-2.72950E-06
 -1      8812 1.33541E-04 8.18342E-05-2.81197E-06
 -1      8813 1.31928E-04 9.58513E-05-2.81635E-06
 -1      8818 1.26357E-04 9.18039E-05-2.90685E-06
 -1      8819 1.33541E-04 8.18342E-05-2.98308E-06
 -1      8820 1.31926E-04 9.58502E-05-2.99238E-06
 -1      8825 1.26357E-04 9.18040E-05-3.09252E-06
 -1      8829 1.10440E-04 1.10440E-04-1.32321E-06
 -1      8830 1.19095E-04 1.01717E-04-1.43265E-06
 -1      8831 1.15308E-04 1.15308E-04-1.42334E-06
 -1      8836 1.10440E-04 1.10440E-04-1.50888E-06
 -1      8837 1.19096E-04 1.01717E-04-1.60376E-06
 -1      8838 1.15309E-04 1.15309E-04-1.59938E-06
 -1      8843 1.10441E-04 1.10441E-04-1.68623E-06
 -1      8844 1.19096E-04 1.01717E-04-1.77576E-06
 -1      8845 1.15310E-04 1.15310E-04-1.77387E-06
 -1      8850 1.10441E-04 1.10441E-04-1.86077E-06
 -1      8851 1.19096E-04 1.01717E-04-1.94842E-06
 -1      8852 1.15310E-04 1.15310E-04-1.94765E-06
 -1      8857 1.10441E-04 1.10441E-04-2.03445E-06
 -1      8858 1.19096E-04 1.01717E-04-2.12136E-06
 -1      8859 1.15310E-04 1.15310E-04-2.12115E-06
 -1      8864 1.10442E-04 1.10442E-04-2.20786E-06
 -1      8865 1.19096E-04 1.01717E-04-2.29437E-06
 -1      8866 1.15310E-04 1.15310E-04-2.29457E-06
 -1      8871 1.10441E-04 1.10441E-04-2.38128E-06
 -1      8872 1.19096E-04 1.01717E-04-2.46731E-06
 -1      8873 1.15310E-04 1.15310E-04-2.46807E-06
 -1      8878 1.10441E-04 1.10441E-04-2.55495E-06
 -1      8879 1.19096E-04 1.01717E-04-2.63996E-06
 -1      8880 1.15310E-04 1.15310E-04-2.64186E-06
 -1      8885 1.10441E-04 1.10441E-04-2.72950E-06
 -1      8886 1.19096E-04 1.01717E-04-2.81197E-06
 -1      8887 1.15309E-04 1.15309E-04-2.81635E-06
 -1      8892 1.10440E-04 1.10440E-04-2.90685E-06
 -1      8893 1.19095E-04 1.01717E-04-2.98308E-06
 -1      8894 1.15308E-04 1.15308E-04-2.99238E-06
 -1      8899 1.10440E-04 1.10440E-04-3.09252E-06
 -1      8903 9.18040E-05 1.26357E-04-1.32321E-06
 -1      8904 1.01717E-04 1.19095E-04-1.43265E-06
 -1      8905 9.58502E-05 1.31926E-04-1.42334E-06
 -1      8910 9.18039E-05 1.26357E-04-1.50888E-06
 -1      8911 1.01717E-04 1.19096E-04-1.60376E-06
 -1      8912 9.58513E-05 1.31928E-04-1.59938E-06
 -1      8917 9.18045E-05 1.26358E-04-1.68623E-06
 -1      8918 1.01717E-04 1.19096E-04-1.77576E-06
 -1      8919 9.58518E-05 1.31929E-04-1.77387E-06
 -1      8924 9.18048E-05 1.26358E-04-1.86077E-06
 -1      8925 1.01717E-04 1.19096E-04-1.94842E-06
 -1      8926 9.58519E-05 1.31929E-04-1.94765E-06
 -1      8931 9.18049E-05 1.26359E-04-2.03445E-06
 -1      8932 1.01717E-04 1.19096E-04-2.12136E-06
 -1      8933 9.58520E-05 1.31929E-04-2.12115E-06
 -1      8938 9.18049E-05 1.26359E-04-2.20786E-06
 -1      8939 1.01717E-04 1.19096E-04-2.29437E-06
 -1      8940 9.58520E-05 1.31929E-04-2.29457E-06
 -1      8945 9.18049E-05 1.26359E-04-2.38128E-06
 -1      8946 1.01717E-04 1.19096E-04-2.46731E-06
 -1      8947 9.58519E-05 1.31929E-04-2.46807E-06
 -1      8952 9.18048E-05 1.26358E-04-2.55495E-06
 -1      8953 1.01717E-04 1.19096E-04-2.63996E-06
 -1      8954 9.58518E-05 1.31929E-04-2.64186E-06
 -1      8959 9.18045E-05 1.26358E-04-2.72950E-06
 -1      8960 1.01717E-04 1.19096E-04-2.81197E-06
 -1      8961 9.58513E-05 1.31928E-04-2.81635E-06
 -1      8966 9.18039E-05 1.26357E-04-2.90685E-06
 -1      8967 1.01717E-04 1.19095E-04-2.98308E-06
 -1      8968 9.58502E-05 1.31926E-04-2.99238E-06
 -1      8973 9.18040E-05 1.26357E-04-3.09252E-06
 -1      8977 7.09071E-05 1.39163E-04-1.32321E-06
 -1      8978 8.18342E-05 1.33541E-04-1.43265E-06
 -1      8979 7.40322E-05 1.45296E-04-1.42334E-06
 -1      8984 7.09070E-05 1.39163E-04-1.50888E-06
 -1      8985 8.18342E-05 1.33541E-04-1.60376E-06
 -1      8986 7.40331E-05 1.45298E-04-1.59938E-06
 -1      8991 7.09074E-05 1.39164E-04-1.68623E-06
 -1      8992 8.18343E-05 1.33541E-04-1.77576E-06
 -1      8993 7.40335E-05 1.45299E-04-1.77387E-06
 -1      8998 7.09077E-05 1.39164E-04-1.86077E-06
 -1      8999 8.18342E-05 1.33541E-04-1.94842E-06
 -1      9000 7.40336E-05 1.45299E-04-1.94765E-06
 -1      9005 7.09078E-05 1.39164E-04-2.03445E-06
 -1      9006 8.18342E-05 1.33541E-04-2.12136E-06
 -1      9007 7.40336E-05 1.45299E-04-2.12115E-06
 -1      9012 7.09078E-05 1.39164E-04-2.20786E-06
 -1      9013 8.18342E-05 1.33541E-04-2.29437E-06
 -1      9014 7.40336E-05 1.45299E-04-2.29457E-06
 -1      9019 7.09078E-05 1.39164E-04-2.38128E-06
 -1      9020 8.18342E-05 1.33541E-04-2.46731E-06
 -1      9021 7.40336E-05 1.45299E-04-2.46807E-06
 -1      9026 7.09077E-05 1.39164E-04-2.55495E-06
 -1      9027 8.18343E-05 1.33541E-04-2.63996E-06
 -1      9028 7.40335E-05 1.45299E-04-2.64186E-06
 -1      9033 7.09074E-05 1.39164E-04-2.72950E-06
 -1      9034 8.18342E-05 1.33541E-04-2.81197E-06
 -1      9035 7.40331E-05 1.45298E-04-2.81635E-06
 -1      9040 7.09070E-05 1.39163E-04-2.90685E-06
 -1      9041 8.18342E-05 1.33541E-04-2.98308E-06
 -1      9042 7.40322E-05 1.45296E-04-2.99238E-06
 -1      9047 7.09071E-05 1.39163E-04-3.09252E-06
 -1      9051 4.82642E-05 1.48542E-04-1.32321E-06
 -1      9052 5.99362E-05 1.44699E-04-1.43265E-06
 -1      9053 5.03914E-05 1.55089E-04-1.42334E-06
 -1      9058 4.82642E-05 1.48542E-04-1.50888E-06
 -1      9059 5.99363E-05 1.44699E-04-1.60376E-06
 -1      9060 5.03920E-05 1.55091E-04-1.59938E-06
 -1      9065 4.82645E-05 1.48543E-04-1.68623E-06
 -1      9066 5.99363E-05 1.44699E-04-1.77576E-06
 -1      9067 5.03923E-05 1.55091E-04-1.77387E-06
 -1      9072 4.82646E-05 1.48543E-04-1.86077E-06
 -1      9073 5.99363E-05 1.44699E-04-1.94842E-06
 -1      9074 5.03923E-05 1.55092E-04-1.94765E-06
 -1      9079 4.82647E-05 1.48543E-04-2.03445E-06
 -1      9080 5.99362E-05 1.44699E-04-2.12136E-06
 -1      9081 5.03924E-05 1.55092E-04-2.12115E-06
 -1      9086 4.82647E-05 1.48544E-04-2.20786E-06
 -1      9087 5.99362E-05 1.44699E-04-2.29437E-06
 -1      9088 5.03924E-05 1.55092E-04-2.29457E-06
 -1      9093 4.82647E-05 1.48543E-04-2.38128E-06
 -1      9094 5.99363E-05 1.44699E-04-2.46731E-06
 -1      9095 5.03923E-05 1.55092E-04-2.46807E-06
 -1      9100 4.82646E-05 1.48543E-04-2.55495E-06
 -1      9101 5.99363E-05 1.44699E-04-2.63996E-06
 -1      9102 5.03923E-05 1.55091E-04-2.64186E-06
 -1      9107 4.82645E-05 1.48543E-04-2.72950E-06
 -1      9108 5.99363E-05 1.44699E-04-2.81197E-06
 -1      9109 5.03920E-05 1.55091E-04-2.81635E-06
 -1      9114 4.82642E-05 1.48542E-04-2.90685E-06
 -1      9115 5.99362E-05 1.44699E-04-2.98308E-06
 -1      9116 5.03914E-05 1.55089E-04-2.99238E-06
 -1      9121 4.82642E-05 1.48542E-04-3.09252E-06
 -1      9125 2.44329E-05 1.54263E-04-1.32321E-06
 -1      9126 3.65624E-05 1.52293E-04-1.43265E-06
 -1      9127 2.55098E-05 1.61062E-04-1.42334E-06
 -1      9132 2.44329E-05 1.54263E-04-1.50888E-06
 -1      9133 3.65624E-05 1.52294E-04-1.60376E-06
 -1      9134 2.55101E-05 1.61064E-04-1.59938E-06
 -1      9139 2.44330E-05 1.54264E-04-1.68623E-06
 -1      9140 3.65625E-05 1.52294E-04-1.77576E-06
 -1      9141 2.55102E-05 1.61065E-04-1.77387E-06
 -1      9146 2.44331E-05 1.54265E-04-1.86077E-06
 -1      9147 3.65624E-05 1.52294E-04-1.94842E-06
 -1      9148 2.55102E-05 1.61065E-04-1.94765E-06
 -1      9153 2.44332E-05 1.54265E-04-2.03445E-06
 -1      9154 3.65624E-05 1.52294E-04-2.12136E-06
 -1      9155 2.55103E-05 1.61065E-04-2.12115E-06
 -1      9160 2.44332E-05 1.54265E-04-2.20786E-06
 -1      9161 3.65624E-05 1.52294E-04-2.29437E-06
 -1      9162 2.55103E-05 1.61065E-04-2.29457E-06
 -1      9167 2.44332E-05 1.54265E-04-2.38128E-06
 -1      9168 3.65624E-05 1.52294E-04-2.46731E-06
 -1      9169 2.55102E-05 1.61065E-04-2.46807E-06
 -1      9174 2.44331E-05 1.54265E-04-2.55495E-06
 -1      9175 3.65625E-05 1.52294E-04-2.63996E-06
 -1      9176 2.55102E-05 1.61065E-04-2.64186E-06
 -1      9181 2.44330E-05 1.54264E-04-2.72950E-06
 -1      9182 3.65624E-05 1.52294E-04-2.81197E-06
 -1      9183 2.55101E-05 1.61064E-04-2.81635E-06
 -1      9188 2.44329E-05 1.54263E-04-2.90685E-06
 -1      9189 3.65624E-05 1.52293E-04-2.98308E-06
 -1      9190 2.55098E-05 1.61062E-04-2.99238E-06
 -1      9195 2.44329E-05 1.54263E-04-3.09252E-06
 -1      9199 1.22883E-05 1.56138E-04-1.43265E-06
 -1      9203 1.22883E-05 1.56138E-04-1.60376E-06
 -1      9207 1.22883E-05 1.56138E-04-1.77576E-06
 -1      9211 1.22883E-05 1.56138E-04-1.94842E-06
 -1      9215 1.22883E-05 1.56138E-04-2.12136E-06
 -1      9219 1.22883E-05 1.56138E-04-2.29437E-06
 -1      9223 1.22883E-05 1.56138E-04-2.46731E-06
 -1      9227 1.22883E-05 1.56138E-04-2.63996E-06
 -1      9231 1.22883E-05 1.56138E-04-2.81197E-06
 -1      9235 1.22883E-05 1.56138E-04-2.98308E-06
 -1      9241 1.42457E-04 2.25629E-05-1.32025E-06
 -1      9242 1.44187E-04 1.13477E-05-1.43417E-06
 -1      9243 1.48090E-04 2.34552E-05-1.41883E-06
 -1      9248 1.42456E-04 2.25628E-05-1.50642E-06
 -1      9249 1.44187E-04 1.13478E-05-1.60447E-06
 -1      9250 1.48090E-04 2.34552E-05-1.59787E-06
 -1      9255 1.42456E-04 2.25629E-05-1.68480E-06
 -1      9256 1.44187E-04 1.13478E-05-1.77620E-06
 -1      9257 1.48091E-04 2.34553E-05-1.77346E-06
 -1      9262 1.42457E-04 2.25629E-05-1.86012E-06
 -1      9263 1.44187E-04 1.13478E-05-1.94866E-06
 -1      9264 1.48091E-04 2.34553E-05-1.94758E-06
 -1      9269 1.42457E-04 2.25629E-05-2.03421E-06
 -1      9270 1.44187E-04 1.13478E-05-2.12144E-06
 -1      9271 1.48091E-04 2.34554E-05-2.12115E-06
 -1      9276 1.42457E-04 2.25629E-05-2.20786E-06
 -1      9277 1.44187E-04 1.13478E-05-2.29429E-06
 -1      9278 1.48091E-04 2.34554E-05-2.29458E-06
 -1      9283 1.42457E-04 2.25629E-05-2.38151E-06
 -1      9284 1.44187E-04 1.13478E-05-2.46706E-06
 -1      9285 1.48091E-04 2.34553E-05-2.46815E-06
 -1      9290 1.42457E-04 2.25629E-05-2.55560E-06
 -1      9291 1.44187E-04 1.13478E-05-2.63953E-06
 -1      9292 1.48091E-04 2.34553E-05-2.64227E-06
 -1      9297 1.42456E-04 2.25629E-05-2.73092E-06
 -1      9298 1.44187E-04 1.13478E-05-2.81126E-06
 -1      9299 1.48090E-04 2.34552E-05-2.81785E-06
 -1      9304 1.42456E-04 2.25628E-05-2.90931E-06
 -1      9305 1.44187E-04 1.13477E-05-2.98156E-06
 -1      9306 1.48090E-04 2.34552E-05-2.99690E-06
 -1      9311 1.42457E-04 2.25629E-05-3.09548E-06
 -1      9315 1.37173E-04 4.45702E-05-1.32025E-06
 -1      9316 1.40636E-04 3.37638E-05-1.43417E-06
 -1      9317 1.42598E-04 4.63328E-05-1.41883E-06
 -1      9322 1.37173E-04 4.45701E-05-1.50642E-06
 -1      9323 1.40637E-04 3.37639E-05-1.60447E-06
 -1      9324 1.42598E-04 4.63329E-05-1.59787E-06
 -1      9329 1.37173E-04 4.45702E-05-1.68480E-06
 -1      9330 1.40637E-04 3.37639E-05-1.77620E-06
 -1      9331 1.42598E-04 4.63331E-05-1.77346E-06
 -1      9336 1.37173E-04 4.45702E-05-1.86012E-06
 -1      9337 1.40637E-04 3.37638E-05-1.94866E-06
 -1      9338 1.42599E-04 4.63331E-05-1.94758E-06
 -1      9343 1.37173E-04 4.45703E-05-2.03421E-06
 -1      9344 1.40637E-04 3.37638E-05-2.12144E-06
 -1      9345 1.42599E-04 4.63332E-05-2.12115E-06
 -1      9350 1.37173E-04 4.45703E-05-2.20786E-06
 -1      9351 1.40637E-04 3.37638E-05-2.29429E-06
 -1      9352 1.42599E-04 4.63332E-05-2.29458E-06
 -1      9357 1.37173E-04 4.45703E-05-2.38151E-06
 -1      9358 1.40637E-04 3.37638E-05-2.46706E-06
 -1      9359 1.42599E-04 4.63331E-05-2.46815E-06
 -1      9364 1.37173E-04 4.45702E-05-2.55560E-06
 -1      9365 1.40637E-04 3.37639E-05-2.63953E-06
 -1      9366 1.42598E-04 4.63331E-05-2.64227E-06
 -1      9371 1.37173E-04 4.45702E-05-2.73092E-06
 -1      9372 1.40637E-04 3.37639E-05-2.81126E-06
 -1      9373 1.42598E-04 4.63329E-05-2.81785E-06
 -1      9378 1.37173E-04 4.45701E-05-2.90931E-06
 -1      9379 1.40636E-04 3.37638E-05-2.98156E-06
 -1      9380 1.42598E-04 4.63328E-05-2.99690E-06
 -1      9385 1.37173E-04 4.45702E-05-3.09548E-06
 -1      9389 1.28512E-04 6.54801E-05-1.32025E-06
 -1      9390 1.33623E-04 5.53485E-05-1.43417E-06
 -1      9391 1.33594E-04 6.80695E-05-1.41883E-06
 -1      9396 1.28511E-04 6.54799E-05-1.50642E-06
 -1      9397 1.33623E-04 5.53486E-05-1.60447E-06
 -1      9398 1.33594E-04 6.80697E-05-1.59787E-06
 -1      9403 1.28512E-04 6.54800E-05-1.68480E-06
 -1      9404 1.33623E-04 5.53486E-05-1.77620E-06
 -1      9405 1.33595E-04 6.80699E-05-1.77346E-06
 -1      9410 1.28512E-04 6.54801E-05-1.86012E-06
 -1      9411 1.33623E-04 5.53486E-05-1.94866E-06
 -1      9412 1.33595E-04 6.80701E-05-1.94758E-06
 -1      9417 1.28512E-04 6.54802E-05-2.03421E-06
 -1      9418 1.33623E-04 5.53486E-05-2.12144E-06
 -1      9419 1.33595E-04 6.80701E-05-2.12115E-06
 -1      9424 1.28512E-04 6.54802E-05-2.20786E-06
 -1      9425 1.33623E-04 5.53486E-05-2.29429E-06
 -1      9426 1.33595E-04 6.80701E-05-2.29458E-06
 -1      9431 1.28512E-04 6.54802E-05-2.38151E-06
 -1      9432 1.33623E-04 5.53486E-05-2.46706E-06
 -1      9433 1.33595E-04 6.80701E-05-2.46815E-06
 -1      9438 1.28512E-04 6.54801E-05-2.55560E-06
 -1      9439 1.33623E-04 5.53486E-05-2.63953E-06
 -1      9440 1.33595E-04 6.80699E-05-2.64227E-06
 -1      9445 1.28512E-04 6.54800E-05-2.73092E-06
 -1      9446 1.33623E-04 5.53486E-05-2.81126E-06
 -1      9447 1.33594E-04 6.80697E-05-2.81785E-06
 -1      9452 1.28511E-04 6.54799E-05-2.90931E-06
 -1      9453 1.33623E-04 5.53485E-05-2.98156E-06
 -1      9454 1.33594E-04 6.80695E-05-2.99690E-06
 -1      9459 1.28512E-04 6.54801E-05-3.09548E-06
 -1      9463 1.16686E-04 8.47776E-05-1.32025E-06
 -1      9464 1.23320E-04 7.55703E-05-1.43417E-06
 -1      9465 1.21301E-04 8.81302E-05-1.41883E-06
 -1      9470 1.16686E-04 8.47773E-05-1.50642E-06
 -1      9471 1.23320E-04 7.55704E-05-1.60447E-06
 -1      9472 1.21301E-04 8.81304E-05-1.59787E-06
 -1      9477 1.16686E-04 8.47775E-05-1.68480E-06
 -1      9478 1.23320E-04 7.55704E-05-1.77620E-06
 -1      9479 1.21301E-04 8.81307E-05-1.77346E-06
 -1      9484 1.16686E-04 8.47776E-05-1.86012E-06
 -1      9485 1.23320E-04 7.55704E-05-1.94866E-06
 -1      9486 1.21302E-04 8.81309E-05-1.94758E-06
 -1      9491 1.16687E-04 8.47777E-05-2.03421E-06
 -1      9492 1.23320E-04 7.55704E-05-2.12144E-06
 -1      9493 1.21302E-04 8.81310E-05-2.12115E-06
 -1      9498 1.16687E-04 8.47777E-05-2.20786E-06
 -1      9499 1.23320E-04 7.55704E-05-2.29429E-06
 -1      9500 1.21302E-04 8.81310E-05-2.29458E-06
 -1      9505 1.16687E-04 8.47777E-05-2.38151E-06
 -1      9506 1.23320E-04 7.55704E-05-2.46706E-06
 -1      9507 1.21302E-04 8.81309E-05-2.46815E-06
 -1      9512 1.16686E-04 8.47776E-05-2.55560E-06
 -1      9513 1.23320E-04 7.55704E-05-2.63953E-06
 -1      9514 1.21301E-04 8.81307E-05-2.64227E-06
 -1      9519 1.16686E-04 8.47775E-05-2.73092E-06
 -1      9520 1.23320E-04 7.55704E-05-2.81126E-06
 -1      9521 1.21301E-04 8.81304E-05-2.81785E-06
 -1      9526 1.16686E-04 8.47773E-05-2.90931E-06
 -1      9527 1.23320E-04 7.55703E-05-2.98156E-06
 -1      9528 1.21301E-04 8.81302E-05-2.99690E-06
 -1      9533 1.16686E-04 8.47776E-05-3.09548E-06
 -1      9537 1.01988E-04 1.01988E-04-1.32025E-06
 -1      9538 1.09980E-04 9.39314E-05-1.43417E-06
 -1      9539 1.06021E-04 1.06021E-04-1.41883E-06
 -1      9544 1.01987E-04 1.01987E-04-1.50642E-06
 -1      9545 1.09980E-04 9.39315E-05-1.60447E-06
 -1      9546 1.06021E-04 1.06021E-04-1.59787E-06
 -1      9551 1.01987E-04 1.01987E-04-1.68480E-06
 -1      9552 1.09980E-04 9.39315E-05-1.77620E-06
 -1      9553 1.06021E-04 1.06021E-04-1.77346E-06
 -1      9558 1.01988E-04 1.01988E-04-1.86012E-06
 -1      9559 1.09980E-04 9.39315E-05-1.94866E-06
 -1      9560 1.06022E-04 1.06022E-04-1.94758E-06
 -1      9565 1.01988E-04 1.01988E-04-2.03421E-06
 -1      9566 1.09980E-04 9.39315E-05-2.12144E-06
 -1      9567 1.06022E-04 1.06022E-04-2.12115E-06
 -1      9572 1.01988E-04 1.01988E-04-2.20786E-06
 -1      9573 1.09980E-04 9.39315E-05-2.29429E-06
 -1      9574 1.06022E-04 1.06022E-04-2.29458E-06
 -1      9579 1.01988E-04 1.01988E-04-2.38151E-06
 -1      9580 1.09980E-04 9.39315E-05-2.46706E-06
 -1      9581 1.06022E-04 1.06022E-04-2.46815E-06
 -1      9586 1.01988E-04 1.01988E-04-2.55560E-06
 -1      9587 1.09980E-04 9.39315E-05-2.63953E-06
 -1      9588 1.06021E-04 1.06021E-04-2.64227E-06
 -1      9593 1.01987E-04 1.01987E-04-2.73092E-06
 -1      9594 1.09980E-04 9.39315E-05-2.81126E-06
 -1      9595 1.06021E-04 1.06021E-04-2.81785E-06
 -1      9600 1.01987E-04 1.01987E-04-2.90931E-06
 -1      9601 1.09980E-04 9.39314E-05-2.98156E-06
 -1      9602 1.06021E-04 1.06021E-04-2.99690E-06
 -1      9607 1.01988E-04 1.01988E-04-3.09548E-06
 -1      9611 8.47776E-05 1.16686E-04-1.32025E-06
 -1      9612 9.39314E-05 1.09980E-04-1.43417E-06
 -1      9613 8.81302E-05 1.21301E-04-1.41883E-06
 -1      9618 8.47773E-05 1.16686E-04-1.50642E-06
 -1      9619 9.39315E-05 1.09980E-04-1.60447E-06
 -1      9620 8.81304E-05 1.21301E-04-1.59787E-06
 -1      9625 8.47775E-05 1.16686E-04-1.68480E-06
 -1      9626 9.39315E-05 1.09980E-04-1.77620E-06
 -1      9627 8.81307E-05 1.21301E-04-1.77346E-06
 -1      9632 8.47776E-05 1.16686E-04-1.86012E-06
 -1      9633 9.39315E-05 1.09980E-04-1.94866E-06
 -1      9634 8.81309E-05 1.21302E-04-1.94758E-06
 -1      9639 8.47777E-05 1.16687E-04-2.03421E-06
 -1      9640 9.39315E-05 1.09980E-04-2.12144E-06
 -1      9641 8.81310E-05 1.21302E-04-2.12115E-06
 -1      9646 8.47777E-05 1.16687E-04-2.20786E-06
 -1      9647 9.39315E-05 1.09980E-04-2.29429E-06
 -1      9648 8.81310E-05 1.21302E-04-2.29458E-06
 -1      9653 8.47777E-05 1.16687E-04-2.38151E-06
 -1      9654 9.39315E-05 1.09980E-04-2.46706E-06
 -1      9655 8.81309E-05 1.21302E-04-2.46815E-06
 -1      9660 8.47776E-05 1.16686E-04-2.55560E-06
 -1      9661 9.39315E-05 1.09980E-04-2.63953E-06
 -1      9662 8.81307E-05 1.21301E-04-2.64227E-06
 -1      9667 8.47775E-05 1.16686E-04-2.73092E-06
 -1      9668 9.39315E-05 1.09980E-04-2.81126E-06
 -1      9669 8.81304E-05 1.21301E-04-2.81785E-06
 -1      9674 8.47773E-05 1.16686E-04-2.90931E-06
 -1      9675 9.39314E-05 1.09980E-04-2.98156E-06
 -1      9676 8.81302E-05 1.21301E-04-2.99690E-06
 -1      9681 8.47776E-05 1.16686E-04-3.09548E-06
 -1      9685 6.54801E-05 1.28512E-04-1.32025E-06
 -1      9686 7.55703E-05 1.23320E-04-1.43417E-06
 -1      9687 6.80695E-05 1.33594E-04-1.41883E-06
 -1      9692 6.54799E-05 1.28511E-04-1.50642E-06
 -1      9693 7.55704E-05 1.23320E-04-1.60447E-06
 -1      9694 6.80697E-05 1.33594E-04-1.59787E-06
 -1      9699 6.54800E-05 1.28512E-04-1.68480E-06
 -1      9700 7.55704E-05 1.23320E-04-1.77620E-06
 -1      9701 6.80699E-05 1.33595E-04-1.77346E-06
 -1      9706 6.54801E-05 1.28512E-04-1.86012E-06
 -1      9707 7.55704E-05 1.23320E-04-1.94866E-06
 -1      9708 6.80701E-05 1.33595E-04-1.94758E-06
 -1      9713 6.54802E-05 1.28512E-04-2.03421E-06
 -1      9714 7.55704E-05 1.23320E-04-2.12144E-06
 -1      9715 6.80701E-05 1.33595E-04-2.12115E-06
 -1      9720 6.54802E-05 1.28512E-04-2.20786E-06
 -1      9721 7.55704E-05 1.23320E-04-2.29429E-06
 -1      9722 6.80701E-05 1.33595E-04-2.29458E-06
 -1      9727 6.54802E-05 1.28512E-04-2.38151E-06
 -1      9728 7.55704E-05 1.23320E-04-2.46706E-06
 -1      9729 6.80701E-05 1.33595E-04-2.46815E-06
 -1      9734 6.54801E-05 1.28512E-04-2.55560E-06
 -1      9735 7.55704E-05 1.23320E-04-2.63953E-06
 -1      9736 6.80699E-05 1.33595E-04-2.64227E-06
 -1      9741 6.54800E-05 1.28512E-04-2.73092E-06
 -1      9742 7.55704E-05 1.23320E-04-2.81126E-06
 -1      9743 6.80697E-05 1.33594E-04-2.81785E-06
 -1      9748 6.54799E-05 1.28511E-04-2.90931E-06
 -1      9749 7.55703E-05 1.23320E-04-2.98156E-06
 -1      9750 6.80695E-05 1.33594E-04-2.99690E-06
 -1      9755 6.54801E-05 1.28512E-04-3.09548E-06
 -1      9759 4.45702E-05 1.37173E-04-1.32025E-06
 -1      9760 5.53485E-05 1.33623E-04-1.43417E-06
 -1      9761 4.63328E-05 1.42598E-04-1.41883E-06
 -1      9766 4.45701E-05 1.37173E-04-1.50642E-06
 -1      9767 5.53486E-05 1.33623E-04-1.60447E-06
 -1      9768 4.63329E-05 1.42598E-04-1.59787E-06
 -1      9773 4.45702E-05 1.37173E-04-1.68480E-06
 -1      9774 5.53486E-05 1.33623E-04-1.77620E-06
 -1      9775 4.63331E-05 1.42598E-04-1.77346E-06
 -1      9780 4.45702E-05 1.37173E-04-1.86012E-06
 -1      9781 5.53486E-05 1.33623E-04-1.94866E-06
 -1      9782 4.63331E-05 1.42599E-04-1.94758E-06
 -1      9787 4.45703E-05 1.37173E-04-2.03421E-06
 -1      9788 5.53486E-05 1.33623E-04-2.12144E-06
 -1      9789 4.63332E-05 1.42599E-04-2.12115E-06
 -1      9794 4.45703E-05 1.37173E-04-2.20786E-06
 -1      9795 5.53486E-05 1.33623E-04-2.29429E-06
 -1      9796 4.63332E-05 1.42599E-04-2.29458E-06
 -1      9801 4.45703E-05 1.37173E-04-2.38151E-06
 -1      9802 5.53486E-05 1.33623E-04-2.46706E-06
 -1      9803 4.63331E-05 1.42599E-04-2.46815E-06
 -1      9808 4.45702E-05 1.37173E-04-2.55560E-06
 -1      9809 5.53486E-05 1.33623E-04-2.63953E-06
 -1      9810 4.63331E-05 1.42598E-04-2.64227E-06
 -1      9815 4.45702E-05 1.37173E-04-2.73092E-06
 -1      9816 5.53486E-05 1.33623E-04-2.81126E-06
 -1      9817 4.63329E-05 1.42598E-04-2.81785E-06
 -1      9822 4.45701E-05 1.37173E-04-2.90931E-06
 -1      9823 5.53485E-05 1.33623E-04-2.98156E-06
 -1      9824 4.63328E-05 1.42598E-04-2.99690E-06
 -1      9829 4.45702E-05 1.37173E-04-3.09548E-06
 -1      9833 2.25629E-05 1.42457E-04-1.32025E-06
 -1      9834 3.37638E-05 1.40636E-04-1.43417E-06
 -1      9835 2.34552E-05 1.48090E-04-1.41883E-06
 -1      9840 2.25628E-05 1.42456E-04-1.50642E-06
 -1      9841 3.37639E-05 1.40637E-04-1.60447E-06
 -1      9842 2.34552E-05 1.48090E-04-1.59787E-06
 -1      9847 2.25629E-05 1.42456E-04-1.68480E-06
 -1      9848 3.37639E-05 1.40637E-04-1.77620E-06
 -1      9849 2.34553E-05 1.48091E-04-1.77346E-06
 -1      9854 2.25629E-05 1.42457E-04-1.86012E-06
 -1      9855 3.37638E-05 1.40637E-04-1.94866E-06
 -1      9856 2.34553E-05 1.48091E-04-1.94758E-06
 -1      9861 2.25629E-05 1.42457E-04-2.03421E-06
 -1      9862 3.37638E-05 1.40637E-04-2.12144E-06
 -1      9863 2.34554E-05 1.48091E-04-2.12115E-06
 -1      9868 2.25629E-05 1.42457E-04-2.20786E-06
 -1      9869 3.37638E-05 1.40637E-04-2.29429E-06
 -1      9870 2.34554E-05 1.48091E-04-2.29458E-06
 -1      9875 2.25629E-05 1.42457E-04-2.38151E-06
 -1      9876 3.37638E-05 1.40637E-04-2.46706E-06
 -1      9877 2.34553E-05 1.48091E-04-2.46815E-06
 -1      9882 2.25629E-05 1.42457E-04-2.55560E-06
 -1      9883 3.37639E-05 1.40637E-04-2.63953E-06
 -1      9884 2.34553E-05 1.48091E-04-2.64227E-06
 -1      9889 2.25629E-05 1.42456E-04-2.73092E-06
 -1      9890 3.37639E-05 1.40637E-04-2.81126E-06
 -1      9891 2.34552E-05 1.48090E-04-2.81785E-06
 -1      9896 2.25628E-05 1.42456E-04-2.90931E-06
 -1      9897 3.37638E-05 1.40636E-04-2.98156E-06
 -1      9898 2.34552E-05 1.48090E-04-2.99690E-06
 -1      9903 2.25629E-05 1.42457E-04-3.09548E-06
 -1      9907 1.13477E-05 1.44187E-04-1.43417E-06
 -1      9911 1.13478E-05 1.44187E-04-1.60447E-06
 -1      9915 1.13478E-05 1.44187E-04-1.77620E-06
 -1      9919 1.13478E-05 1.44187E-04-1.94866E-06
 -1      9923 1.13478E-05 1.44187E-04-2.12144E-06
 -1      9927 1.13478E-05 1.44187E-04-2.29429E-06
 -1      9931 1.13478E-05 1.44187E-04-2.46706E-06
 -1      9935 1.13478E-05 1.44187E-04-2.63953E-06
 -1      9939 1.13478E-05 1.44187E-04-2.81126E-06
 -1      9943 1.13477E-05 1.44187E-04-2.98156E-06
 -1      9949 1.32554E-04 2.09944E-05-1.32230E-06
 -1      9950 1.34157E-04 1.05584E-05-1.43402E-06
 -1      9951 1.37295E-04 2.17454E-05-1.41720E-06
 -1      9956 1.32553E-04 2.09944E-05-1.50645E-06
 -1      9957 1.34157E-04 1.05584E-05-1.60448E-06
 -1      9958 1.37295E-04 2.17454E-05-1.59665E-06
 -1      9963 1.32553E-04 2.09944E-05-1.68441E-06
 -1      9964 1.34157E-04 1.05584E-05-1.77625E-06
 -1      9965 1.37295E-04 2.17454E-05-1.77272E-06
 -1      9970 1.32553E-04 2.09944E-05-1.85979E-06
 -1      9971 1.34157E-04 1.05584E-05-1.94869E-06
 -1      9972 1.37295E-04 2.17454E-05-1.94721E-06
 -1      9977 1.32553E-04 2.09944E-05-2.03404E-06
 -1      9978 1.34157E-04 1.05584E-05-2.12144E-06
 -1      9979 1.37295E-04 2.17454E-05-2.12104E-06
 -1      9984 1.32553E-04 2.09944E-05-2.20786E-06
 -1      9985 1.34157E-04 1.05584E-05-2.29428E-06
 -1      9986 1.37295E-04 2.17454E-05-2.29469E-06
 -1      9991 1.32553E-04 2.09944E-05-2.38169E-06
 -1      9992 1.34157E-04 1.05584E-05-2.46704E-06
 -1      9993 1.37295E-04 2.17454E-05-2.46851E-06
 -1      9998 1.32553E-04 2.09944E-05-2.55594E-06
 -1      9999 1.34157E-04 1.05584E-05-2.63948E-06
 -1     10000 1.37295E-04 2.17454E-05-2.64301E-06
 -1     10005 1.32553E-04 2.09944E-05-2.73132E-06
 -1     10006 1.34157E-04 1.05584E-05-2.81124E-06
 -1     10007 1.37295E-04 2.17454E-05-2.81907E-06
 -1     10012 1.32553E-04 2.09944E-05-2.90928E-06
 -1     10013 1.34157E-04 1.05584E-05-2.98171E-06
 -1     10014 1.37295E-04 2.17454E-05-2.99853E-06
 -1     10019 1.32554E-04 2.09944E-05-3.09343E-06
 -1     10023 1.27637E-04 4.14719E-05-1.32230E-06
 -1     10024 1.30854E-04 3.14153E-05-1.43402E-06
 -1     10025 1.32203E-04 4.29553E-05-1.41720E-06
 -1     10030 1.27637E-04 4.14718E-05-1.50645E-06
 -1     10031 1.30854E-04 3.14153E-05-1.60448E-06
 -1     10032 1.32203E-04 4.29553E-05-1.59665E-06
 -1     10037 1.27637E-04 4.14718E-05-1.68441E-06
 -1     10038 1.30854E-04 3.14153E-05-1.77625E-06
 -1     10039 1.32203E-04 4.29554E-05-1.77272E-06
 -1     10044 1.27637E-04 4.14718E-05-1.85979E-06
 -1     10045 1.30854E-04 3.14153E-05-1.94869E-06
 -1     10046 1.32203E-04 4.29554E-05-1.94721E-06
 -1     10051 1.27637E-04 4.14719E-05-2.03404E-06
 -1     10052 1.30854E-04 3.14153E-05-2.12144E-06
 -1     10053 1.32203E-04 4.29554E-05-2.12104E-06
 -1     10058 1.27637E-04 4.14719E-05-2.20786E-06
 -1     10059 1.30854E-04 3.14153E-05-2.29428E-06
 -1     10060 1.32203E-04 4.29554E-05-2.29469E-06
 -1     10065 1.27637E-04 4.14719E-05-2.38169E-06
 -1     10066 1.30854E-04 3.14153E-05-2.46704E-06
 -1     10067 1.32203E-04 4.29554E-05-2.46851E-06
 -1     10072 1.27637E-04 4.14718E-05-2.55594E-06
 -1     10073 1.30854E-04 3.14153E-05-2.63948E-06
 -1     10074 1.32203E-04 4.29554E-05-2.64301E-06
 -1     10079 1.27637E-04 4.14718E-05-2.73132E-06
 -1     10080 1.30854E-04 3.14153E-05-2.81124E-06
 -1     10081 1.32203E-04 4.29553E-05-2.81907E-06
 -1     10086 1.27637E-04 4.14718E-05-2.90928E-06
 -1     10087 1.30854E-04 3.14153E-05-2.98171E-06
 -1     10088 1.32203E-04 4.29553E-05-2.99853E-06
 -1     10093 1.27637E-04 4.14719E-05-3.09343E-06
 -1     10097 1.19578E-04 6.09282E-05-1.32230E-06
 -1     10098 1.24328E-04 5.14985E-05-1.43402E-06
 -1     10099 1.23856E-04 6.31076E-05-1.41720E-06
 -1     10104 1.19578E-04 6.09281E-05-1.50645E-06
 -1     10105 1.24329E-04 5.14986E-05-1.60448E-06
 -1     10106 1.23856E-04 6.31075E-05-1.59665E-06
 -1     10111 1.19578E-04 6.09281E-05-1.68441E-06
 -1     10112 1.24329E-04 5.14986E-05-1.77625E-06
 -1     10113 1.23856E-04 6.31076E-05-1.77272E-06
 -1     10118 1.19578E-04 6.09281E-05-1.85979E-06
 -1     10119 1.24329E-04 5.14986E-05-1.94869E-06
 -1     10120 1.23856E-04 6.31077E-05-1.94721E-06
 -1     10125 1.19578E-04 6.09281E-05-2.03404E-06
 -1     10126 1.24329E-04 5.14986E-05-2.12144E-06
 -1     10127 1.23856E-04 6.31077E-05-2.12104E-06
 -1     10132 1.19578E-04 6.09282E-05-2.20786E-06
 -1     10133 1.24329E-04 5.14986E-05-2.29428E-06
 -1     10134 1.23856E-04 6.31077E-05-2.29469E-06
 -1     10139 1.19578E-04 6.09281E-05-2.38169E-06
 -1     10140 1.24329E-04 5.14986E-05-2.46704E-06
 -1     10141 1.23856E-04 6.31077E-05-2.46851E-06
 -1     10146 1.19578E-04 6.09281E-05-2.55594E-06
 -1     10147 1.24329E-04 5.14986E-05-2.63948E-06
 -1     10148 1.23856E-04 6.31076E-05-2.64301E-06
 -1     10153 1.19578E-04 6.09281E-05-2.73132E-06
 -1     10154 1.24329E-04 5.14986E-05-2.81124E-06
 -1     10155 1.23856E-04 6.31075E-05-2.81907E-06
 -1     10160 1.19578E-04 6.09281E-05-2.90928E-06
 -1     10161 1.24328E-04 5.14985E-05-2.98171E-06
 -1     10162 1.23856E-04 6.31076E-05-2.99853E-06
 -1     10167 1.19578E-04 6.09282E-05-3.09343E-06
 -1     10171 1.08575E-04 7.88842E-05-1.32230E-06
 -1     10172 1.14742E-04 7.03138E-05-1.43402E-06
 -1     10173 1.12458E-04 8.17059E-05-1.41720E-06
 -1     10178 1.08575E-04 7.88840E-05-1.50645E-06
 -1     10179 1.14742E-04 7.03138E-05-1.60448E-06
 -1     10180 1.12458E-04 8.17059E-05-1.59665E-06
 -1     10185 1.08575E-04 7.88841E-05-1.68441E-06
 -1     10186 1.14742E-04 7.03138E-05-1.77625E-06
 -1     10187 1.12459E-04 8.17060E-05-1.77272E-06
 -1     10192 1.08575E-04 7.88841E-05-1.85979E-06
 -1     10193 1.14742E-04 7.03138E-05-1.94869E-06
 -1     10194 1.12459E-04 8.17060E-05-1.94721E-06
 -1     10199 1.08575E-04 7.88842E-05-2.03404E-06
 -1     10200 1.14742E-04 7.03138E-05-2.12144E-06
 -1     10201 1.12459E-04 8.17061E-05-2.12104E-06
 -1     10206 1.08575E-04 7.88842E-05-2.20786E-06
 -1     10207 1.14742E-04 7.03138E-05-2.29428E-06
 -1     10208 1.12459E-04 8.17061E-05-2.29469E-06
 -1     10213 1.08575E-04 7.88842E-05-2.38169E-06
 -1     10214 1.14742E-04 7.03138E-05-2.46704E-06
 -1     10215 1.12459E-04 8.17060E-05-2.46851E-06
 -1     10220 1.08575E-04 7.88841E-05-2.55594E-06
 -1     10221 1.14742E-04 7.03138E-05-2.63948E-06
 -1     10222 1.12459E-04 8.17060E-05-2.64301E-06
 -1     10227 1.08575E-04 7.88841E-05-2.73132E-06
 -1     10228 1.14742E-04 7.03138E-05-2.81124E-06
 -1     10229 1.12458E-04 8.17059E-05-2.81907E-06
 -1     10234 1.08575E-04 7.88840E-05-2.90928E-06
 -1     10235 1.14742E-04 7.03138E-05-2.98171E-06
 -1     10236 1.12458E-04 8.17059E-05-2.99853E-06
 -1     10241 1.08575E-04 7.88842E-05-3.09343E-06
 -1     10245 9.48979E-05 9.48979E-05-1.32230E-06
 -1     10246 1.02329E-04 8.73976E-05-1.43402E-06
 -1     10247 9.82923E-05 9.82923E-05-1.41720E-06
 -1     10252 9.48977E-05 9.48977E-05-1.50645E-06
 -1     10253 1.02330E-04 8.73977E-05-1.60448E-06
 -1     10254 9.82923E-05 9.82923E-05-1.59665E-06
 -1     10259 9.48977E-05 9.48977E-05-1.68441E-06
 -1     10260 1.02330E-04 8.73977E-05-1.77625E-06
 -1     10261 9.82924E-05 9.82924E-05-1.77272E-06
 -1     10266 9.48978E-05 9.48978E-05-1.85979E-06
 -1     10267 1.02330E-04 8.73977E-05-1.94869E-06
 -1     10268 9.82925E-05 9.82925E-05-1.94721E-06
 -1     10273 9.48978E-05 9.48978E-05-2.03404E-06
 -1     10274 1.02330E-04 8.73977E-05-2.12144E-06
 -1     10275 9.82926E-05 9.82926E-05-2.12104E-06
 -1     10280 9.48978E-05 9.48978E-05-2.20786E-06
 -1     10281 1.02330E-04 8.73977E-05-2.29428E-06
 -1     10282 9.82926E-05 9.82926E-05-2.29469E-06
 -1     10287 9.48978E-05 9.48978E-05-2.38169E-06
 -1     10288 1.02330E-04 8.73977E-05-2.46704E-06
 -1     10289 9.82925E-05 9.82925E-05-2.46851E-06
 -1     10294 9.48978E-05 9.48978E-05-2.55594E-06
 -1     10295 1.02330E-04 8.73977E-05-2.63948E-06
 -1     10296 9.82924E-05 9.82924E-05-2.64301E-06
 -1     10301 9.48977E-05 9.48977E-05-2.73132E-06
 -1     10302 1.02330E-04 8.73977E-05-2.81124E-06
 -1     10303 9.82923E-05 9.82923E-05-2.81907E-06
 -1     10308 9.48977E-05 9.48977E-05-2.90928E-06
 -1     10309 1.02329E-04 8.73976E-05-2.98171E-06
 -1     10310 9.82923E-05 9.82923E-05-2.99853E-06
 -1     10315 9.48979E-05 9.48979E-05-3.09343E-06
 -1     10319 7.88842E-05 1.08575E-04-1.32230E-06
 -1     10320 8.73976E-05 1.02329E-04-1.43402E-06
 -1     10321 8.17059E-05 1.12458E-04-1.41720E-06
 -1     10326 7.88840E-05 1.08575E-04-1.50645E-06
 -1     10327 8.73977E-05 1.02330E-04-1.60448E-06
 -1     10328 8.17059E-05 1.12458E-04-1.59665E-06
 -1     10333 7.88841E-05 1.08575E-04-1.68441E-06
 -1     10334 8.73977E-05 1.02330E-04-1.77625E-06
 -1     10335 8.17060E-05 1.12459E-04-1.77272E-06
 -1     10340 7.88841E-05 1.08575E-04-1.85979E-06
 -1     10341 8.73977E-05 1.02330E-04-1.94869E-06
 -1     10342 8.17060E-05 1.12459E-04-1.94721E-06
 -1     10347 7.88842E-05 1.08575E-04-2.03404E-06
 -1     10348 8.73977E-05 1.02330E-04-2.12144E-06
 -1     10349 8.17061E-05 1.12459E-04-2.12104E-06
 -1     10354 7.88842E-05 1.08575E-04-2.20786E-06
 -1     10355 8.73977E-05 1.02330E-04-2.29428E-06
 -1     10356 8.17061E-05 1.12459E-04-2.29469E-06
 -1     10361 7.88842E-05 1.08575E-04-2.38169E-06
 -1     10362 8.73977E-05 1.02330E-04-2.46704E-06
 -1     10363 8.17060E-05 1.12459E-04-2.46851E-06
 -1     10368 7.88841E-05 1.08575E-04-2.55594E-06
 -1     10369 8.73977E-05 1.02330E-04-2.63948E-06
 -1     10370 8.17060E-05 1.12459E-04-2.64301E-06
 -1     10375 7.88841E-05 1.08575E-04-2.73132E-06
 -1     10376 8.73977E-05 1.02330E-04-2.81124E-06
 -1     10377 8.17059E-05 1.12458E-04-2.81907E-06
 -1     10382 7.88840E-05 1.08575E-04-2.90928E-06
 -1     10383 8.73976E-05 1.02329E-04-2.98171E-06
 -1     10384 8.17059E-05 1.12458E-04-2.99853E-06
 -1     10389 7.88842E-05 1.08575E-04-3.09343E-06
 -1     10393 6.09282E-05 1.19578E-04-1.32230E-06
 -1     10394 7.03138E-05 1.14742E-04-1.43402E-06
 -1     10395 6.31076E-05 1.23856E-04-1.41720E-06
 -1     10400 6.09281E-05 1.19578E-04-1.50645E-06
 -1     10401 7.03138E-05 1.14742E-04-1.60448E-06
 -1     10402 6.31075E-05 1.23856E-04-1.59665E-06
 -1     10407 6.09281E-05 1.19578E-04-1.68441E-06
 -1     10408 7.03138E-05 1.14742E-04-1.77625E-06
 -1     10409 6.31076E-05 1.23856E-04-1.77272E-06
 -1     10414 6.09281E-05 1.19578E-04-1.85979E-06
 -1     10415 7.03138E-05 1.14742E-04-1.94869E-06
 -1     10416 6.31077E-05 1.23856E-04-1.94721E-06
 -1     10421 6.09281E-05 1.19578E-04-2.03404E-06
 -1     10422 7.03138E-05 1.14742E-04-2.12144E-06
 -1     10423 6.31077E-05 1.23856E-04-2.12104E-06
 -1     10428 6.09282E-05 1.19578E-04-2.20786E-06
 -1     10429 7.03138E-05 1.14742E-04-2.29428E-06
 -1     10430 6.31077E-05 1.23856E-04-2.29469E-06
 -1     10435 6.09281E-05 1.19578E-04-2.38169E-06
 -1     10436 7.03138E-05 1.14742E-04-2.46704E-06
 -1     10437 6.31077E-05 1.23856E-04-2.46851E-06
 -1     10442 6.09281E-05 1.19578E-04-2.55594E-06
 -1     10443 7.03138E-05 1.14742E-04-2.63948E-06
 -1     10444 6.31076E-05 1.23856E-04-2.64301E-06
 -1     10449 6.09281E-05 1.19578E-04-2.73132E-06
 -1     10450 7.03138E-05 1.14742E-04-2.81124E-06
 -1     10451 6.31075E-05 1.23856E-04-2.81907E-06
 -1     10456 6.09281E-05 1.19578E-04-2.90928E-06
 -1     10457 7.03138E-05 1.14742E-04-2.98171E-06
 -1     10458 6.31076E-05 1.23856E-04-2.99853E-06
 -1     10463 6.09282E-05 1.19578E-04-3.09343E-06
 -1     10467 4.14719E-05 1.27637E-04-1.32230E-06
 -1     10468 5.14985E-05 1.24328E-04-1.43402E-06
 -1     10469 4.29553E-05 1.32203E-04-1.41720E-06
 -1     10474 4.14718E-05 1.27637E-04-1.50645E-06
 -1     10475 5.14986E-05 1.24329E-04-1.60448E-06
 -1     10476 4.29553E-05 1.32203E-04-1.59665E-06
 -1     10481 4.14718E-05 1.27637E-04-1.68441E-06
 -1     10482 5.14986E-05 1.24329E-04-1.77625E-06
 -1     10483 4.29554E-05 1.32203E-04-1.77272E-06
 -1     10488 4.14718E-05 1.27637E-04-1.85979E-06
 -1     10489 5.14986E-05 1.24329E-04-1.94869E-06
 -1     10490 4.29554E-05 1.32203E-04-1.94721E-06
 -1     10495 4.14719E-05 1.27637E-04-2.03404E-06
 -1     10496 5.14986E-05 1.24329E-04-2.12144E-06
 -1     10497 4.29554E-05 1.32203E-04-2.12104E-06
 -1     10502 4.14719E-05 1.27637E-04-2.20786E-06
 -1     10503 5.14986E-05 1.24329E-04-2.29428E-06
 -1     10504 4.29554E-05 1.32203E-04-2.29469E-06
 -1     10509 4.14719E-05 1.27637E-04-2.38169E-06
 -1     10510 5.14986E-05 1.24329E-04-2.46704E-06
 -1     10511 4.29554E-05 1.32203E-04-2.46851E-06
 -1     10516 4.14718E-05 1.27637E-04-2.55594E-06
 -1     10517 5.14986E-05 1.24329E-04-2.63948E-06
 -1     10518 4.29554E-05 1.32203E-04-2.64301E-06
 -1     10523 4.14718E-05 1.27637E-04-2.73132E-06
 -1     10524 5.14986E-05 1.24329E-04-2.81124E-06
 -1     10525 4.29553E-05 1.32203E-04-2.81907E-06
 -1     10530 4.14718E-05 1.27637E-04-2.90928E-06
 -1     10531 5.14985E-05 1.24328E-04-2.98171E-06
 -1     10532 4.29553E-05 1.32203E-04-2.99853E-06
 -1     10537 4.14719E-05 1.27637E-04-3.09343E-06
 -1     10541 2.09944E-05 1.32554E-04-1.32230E-06
 -1     10542 3.14153E-05 1.30854E-04-1.43402E-06
 -1     10543 2.17454E-05 1.37295E-04-1.41720E-06
 -1     10548 2.09944E-05 1.32553E-04-1.50645E-06
 -1     10549 3.14153E-05 1.30854E-04-1.60448E-06
 -1     10550 2.17454E-05 1.37295E-04-1.59665E-06
 -1     10555 2.09944E-05 1.32553E-04-1.68441E-06
 -1     10556 3.14153E-05 1.30854E-04-1.77625E-06
 -1     10557 2.17454E-05 1.37295E-04-1.77272E-06
 -1     10562 2.09944E-05 1.32553E-04-1.85979E-06
 -1     10563 3.14153E-05 1.30854E-04-1.94869E-06
 -1     10564 2.17454E-05 1.37295E-04-1.94721E-06
 -1     10569 2.09944E-05 1.32553E-04-2.03404E-06
 -1     10570 3.14153E-05 1.30854E-04-2.12144E-06
 -1     10571 2.17454E-05 1.37295E-04-2.12104E-06
 -1     10576 2.09944E-05 1.32553E-04-2.20786E-06
 -1     10577 3.14153E-05 1.30854E-04-2.29428E-06
 -1     10578 2.17454E-05 1.37295E-04-2.29469E-06
 -1     10583 2.09944E-05 1.32553E-04-2.38169E-06
 -1     10584 3.14153E-05 1.30854E-04-2.46704E-06
 -1     10585 2.17454E-05 1.37295E-04-2.46851E-06
 -1     10590 2.09944E-05 1.32553E-04-2.55594E-06
 -1     10591 3.14153E-05 1.30854E-04-2.63948E-06
 -1     10592 2.17454E-05 1.37295E-04-2.64301E-06
 -1     10597 2.09944E-05 1.32553E-04-2.73132E-06
 -1     10598 3.14153E-05 1.30854E-04-2.81124E-06
 -1     10599 2.17454E-05 1.37295E-04-2.81907E-06
 -1     10604 2.09944E-05 1.32553E-04-2.90928E-06
 -1     10605 3.14153E-05 1.30854E-04-2.98171E-06
 -1     10606 2.17454E-05 1.37295E-04-2.99853E-06
 -1     10611 2.09944E-05 1.32554E-04-3.09343E-06
 -1     10615 1.05584E-05 1.34157E-04-1.43402E-06
 -1     10619 1.05584E-05 1.34157E-04-1.60448E-06
 -1     10623 1.05584E-05 1.34157E-04-1.77625E-06
 -1     10627 1.05584E-05 1.34157E-04-1.94869E-06
 -1     10631 1.05584E-05 1.34157E-04-2.12144E-06
 -1     10635 1.05584E-05 1.34157E-04-2.29428E-06
 -1     10639 1.05584E-05 1.34157E-04-2.46704E-06
 -1     10643 1.05584E-05 1.34157E-04-2.63948E-06
 -1     10647 1.05584E-05 1.34157E-04-2.81124E-06
 -1     10651 1.05584E-05 1.34157E-04-2.98171E-06
 -1     10657 1.24144E-04 1.96624E-05-1.32354E-06
 -1     10658 1.25640E-04 9.88805E-06-1.43400E-06
 -1     10659 1.28182E-04 2.03020E-05-1.41731E-06
 -1     10664 1.24143E-04 1.96624E-05-1.50644E-06
 -1     10665 1.25640E-04 9.88806E-06-1.60456E-06
 -1     10666 1.28182E-04 2.03020E-05-1.59631E-06
 -1     10671 1.24143E-04 1.96624E-05-1.68415E-06
 -1     10672 1.25640E-04 9.88805E-06-1.77632E-06
 -1     10673 1.28182E-04 2.03020E-05-1.77237E-06
 -1     10678 1.24143E-04 1.96624E-05-1.85955E-06
 -1     10679 1.25640E-04 9.88805E-06-1.94874E-06
 -1     10680 1.28182E-04 2.03020E-05-1.94699E-06
 -1     10685 1.24143E-04 1.96624E-05-2.03391E-06
 -1     10686 1.25640E-04 9.88805E-06-2.12146E-06
 -1     10687 1.28182E-04 2.03020E-05-2.12097E-06
 -1     10692 1.24144E-04 1.96624E-05-2.20786E-06
 -1     10693 1.25640E-04 9.88805E-06-2.29427E-06
 -1     10694 1.28182E-04 2.03020E-05-2.29476E-06
 -1     10699 1.24143E-04 1.96624E-05-2.38181E-06
 -1     10700 1.25640E-04 9.88805E-06-2.46699E-06
 -1     10701 1.28182E-04 2.03020E-05-2.46874E-06
 -1     10706 1.24143E-04 1.96624E-05-2.55617E-06
 -1     10707 1.25640E-04 9.88805E-06-2.63941E-06
 -1     10708 1.28182E-04 2.03020E-05-2.64336E-06
 -1     10713 1.24143E-04 1.96624E-05-2.73158E-06
 -1     10714 1.25640E-04 9.88806E-06-2.81117E-06
 -1     10715 1.28182E-04 2.03020E-05-2.81942E-06
 -1     10720 1.24143E-04 1.96624E-05-2.90929E-06
 -1     10721 1.25640E-04 9.88805E-06-2.98172E-06
 -1     10722 1.28182E-04 2.03020E-05-2.99842E-06
 -1     10727 1.24144E-04 1.96624E-05-3.09218E-06
 -1     10731 1.19539E-04 3.88407E-05-1.32354E-06
 -1     10732 1.22546E-04 2.94207E-05-1.43400E-06
 -1     10733 1.23428E-04 4.01041E-05-1.41731E-06
 -1     10738 1.19539E-04 3.88406E-05-1.50644E-06
 -1     10739 1.22546E-04 2.94207E-05-1.60456E-06
 -1     10740 1.23428E-04 4.01041E-05-1.59631E-06
 -1     10745 1.19539E-04 3.88406E-05-1.68415E-06
 -1     10746 1.22546E-04 2.94207E-05-1.77632E-06
 -1     10747 1.23428E-04 4.01041E-05-1.77237E-06
 -1     10752 1.19539E-04 3.88406E-05-1.85955E-06
 -1     10753 1.22546E-04 2.94207E-05-1.94874E-06
 -1     10754 1.23428E-04 4.01041E-05-1.94699E-06
 -1     10759 1.19539E-04 3.88406E-05-2.03391E-06
 -1     10760 1.22546E-04 2.94207E-05-2.12146E-06
 -1     10761 1.23428E-04 4.01042E-05-2.12097E-06
 -1     10766 1.19539E-04 3.88407E-05-2.20786E-06
 -1     10767 1.22546E-04 2.94207E-05-2.29427E-06
 -1     10768 1.23428E-04 4.01042E-05-2.29476E-06
 -1     10773 1.19539E-04 3.88406E-05-2.38181E-06
 -1     10774 1.22546E-04 2.94207E-05-2.46699E-06
 -1     10775 1.23428E-04 4.01041E-05-2.46874E-06
 -1     10780 1.19539E-04 3.88406E-05-2.55617E-06
 -1     10781 1.22546E-04 2.94207E-05-2.63941E-06
 -1     10782 1.23428E-04 4.01041E-05-2.64336E-06
 -1     10787 1.19539E-04 3.88406E-05-2.73158E-06
 -1     10788 1.22546E-04 2.94207E-05-2.81117E-06
 -1     10789 1.23428E-04 4.01041E-05-2.81942E-06
 -1     10794 1.19539E-04 3.88406E-05-2.90929E-06
 -1     10795 1.22546E-04 2.94207E-05-2.98172E-06
 -1     10796 1.23428E-04 4.01041E-05-2.99842E-06
 -1     10801 1.19539E-04 3.88407E-05-3.09218E-06
 -1     10805 1.11992E-04 5.70626E-05-1.32354E-06
 -1     10806 1.16435E-04 4.82289E-05-1.43400E-06
 -1     10807 1.15635E-04 5.89187E-05-1.41731E-06
 -1     10812 1.11991E-04 5.70624E-05-1.50644E-06
 -1     10813 1.16435E-04 4.82289E-05-1.60456E-06
 -1     10814 1.15634E-04 5.89187E-05-1.59631E-06
 -1     10819 1.11991E-04 5.70624E-05-1.68415E-06
 -1     10820 1.16435E-04 4.82289E-05-1.77632E-06
 -1     10821 1.15635E-04 5.89187E-05-1.77237E-06
 -1     10826 1.11991E-04 5.70625E-05-1.85955E-06
 -1     10827 1.16435E-04 4.82289E-05-1.94874E-06
 -1     10828 1.15635E-04 5.89188E-05-1.94699E-06
 -1     10833 1.11991E-04 5.70625E-05-2.03391E-06
 -1     10834 1.16435E-04 4.82289E-05-2.12146E-06
 -1     10835 1.15635E-04 5.89188E-05-2.12097E-06
 -1     10840 1.11991E-04 5.70625E-05-2.20786E-06
 -1     10841 1.16435E-04 4.82289E-05-2.29427E-06
 -1     10842 1.15635E-04 5.89188E-05-2.29476E-06
 -1     10847 1.11991E-04 5.70625E-05-2.38181E-06
 -1     10848 1.16435E-04 4.82289E-05-2.46699E-06
 -1     10849 1.15635E-04 5.89188E-05-2.46874E-06
 -1     10854 1.11991E-04 5.70625E-05-2.55617E-06
 -1     10855 1.16435E-04 4.82289E-05-2.63941E-06
 -1     10856 1.15635E-04 5.89187E-05-2.64336E-06
 -1     10861 1.11991E-04 5.70624E-05-2.73158E-06
 -1     10862 1.16435E-04 4.82289E-05-2.81117E-06
 -1     10863 1.15634E-04 5.89187E-05-2.81942E-06
 -1     10868 1.11991E-04 5.70624E-05-2.90929E-06
 -1     10869 1.16435E-04 4.82289E-05-2.98172E-06
 -1     10870 1.15635E-04 5.89187E-05-2.99842E-06
 -1     10875 1.11992E-04 5.70626E-05-3.09218E-06
 -1     10879 1.01686E-04 7.38794E-05-1.32354E-06
 -1     10880 1.07457E-04 6.58495E-05-1.43400E-06
 -1     10881 1.04994E-04 7.62826E-05-1.41731E-06
 -1     10886 1.01686E-04 7.38792E-05-1.50644E-06
 -1     10887 1.07457E-04 6.58495E-05-1.60456E-06
 -1     10888 1.04994E-04 7.62825E-05-1.59631E-06
 -1     10893 1.01686E-04 7.38792E-05-1.68415E-06
 -1     10894 1.07457E-04 6.58495E-05-1.77632E-06
 -1     10895 1.04994E-04 7.62826E-05-1.77237E-06
 -1     10900 1.01686E-04 7.38793E-05-1.85955E-06
 -1     10901 1.07457E-04 6.58495E-05-1.94874E-06
 -1     10902 1.04994E-04 7.62826E-05-1.94699E-06
 -1     10907 1.01686E-04 7.38793E-05-2.03391E-06
 -1     10908 1.07457E-04 6.58495E-05-2.12146E-06
 -1     10909 1.04994E-04 7.62826E-05-2.12097E-06
 -1     10914 1.01686E-04 7.38793E-05-2.20786E-06
 -1     10915 1.07457E-04 6.58495E-05-2.29427E-06
 -1     10916 1.04994E-04 7.62826E-05-2.29476E-06
 -1     10921 1.01686E-04 7.38793E-05-2.38181E-06
 -1     10922 1.07457E-04 6.58495E-05-2.46699E-06
 -1     10923 1.04994E-04 7.62826E-05-2.46874E-06
 -1     10928 1.01686E-04 7.38793E-05-2.55617E-06
 -1     10929 1.07457E-04 6.58495E-05-2.63941E-06
 -1     10930 1.04994E-04 7.62826E-05-2.64336E-06
 -1     10935 1.01686E-04 7.38792E-05-2.73158E-06
 -1     10936 1.07457E-04 6.58495E-05-2.81117E-06
 -1     10937 1.04994E-04 7.62825E-05-2.81942E-06
 -1     10942 1.01686E-04 7.38792E-05-2.90929E-06
 -1     10943 1.07457E-04 6.58495E-05-2.98172E-06
 -1     10944 1.04994E-04 7.62826E-05-2.99842E-06
 -1     10949 1.01686E-04 7.38794E-05-3.09218E-06
 -1     10953 8.88771E-05 8.88771E-05-1.32354E-06
 -1     10954 9.58325E-05 8.18487E-05-1.43400E-06
 -1     10955 9.17681E-05 9.17681E-05-1.41731E-06
 -1     10960 8.88768E-05 8.88768E-05-1.50644E-06
 -1     10961 9.58326E-05 8.18488E-05-1.60456E-06
 -1     10962 9.17680E-05 9.17680E-05-1.59631E-06
 -1     10967 8.88768E-05 8.88768E-05-1.68415E-06
 -1     10968 9.58326E-05 8.18487E-05-1.77632E-06
 -1     10969 9.17681E-05 9.17681E-05-1.77237E-06
 -1     10974 8.88769E-05 8.88769E-05-1.85955E-06
 -1     10975 9.58325E-05 8.18487E-05-1.94874E-06
 -1     10976 9.17681E-05 9.17681E-05-1.94699E-06
 -1     10981 8.88769E-05 8.88769E-05-2.03391E-06
 -1     10982 9.58325E-05 8.18487E-05-2.12146E-06
 -1     10983 9.17682E-05 9.17682E-05-2.12097E-06
 -1     10988 8.88770E-05 8.88770E-05-2.20786E-06
 -1     10989 9.58325E-05 8.18487E-05-2.29427E-06
 -1     10990 9.17682E-05 9.17682E-05-2.29476E-06
 -1     10995 8.88769E-05 8.88769E-05-2.38181E-06
 -1     10996 9.58325E-05 8.18487E-05-2.46699E-06
 -1     10997 9.17681E-05 9.17681E-05-2.46874E-06
 -1     11002 8.88769E-05 8.88769E-05-2.55617E-06
 -1     11003 9.58326E-05 8.18487E-05-2.63941E-06
 -1     11004 9.17681E-05 9.17681E-05-2.64336E-06
 -1     11009 8.88768E-05 8.88768E-05-2.73158E-06
 -1     11010 9.58326E-05 8.18488E-05-2.81117E-06
 -1     11011 9.17680E-05 9.17680E-05-2.81942E-06
 -1     11016 8.88768E-05 8.88768E-05-2.90929E-06
 -1     11017 9.58325E-05 8.18487E-05-2.98172E-06
 -1     11018 9.17681E-05 9.17681E-05-2.99842E-06
 -1     11023 8.88771E-05 8.88771E-05-3.09218E-06
 -1     11027 7.38794E-05 1.01686E-04-1.32354E-06
 -1     11028 8.18487E-05 9.58325E-05-1.43400E-06
 -1     11029 7.62826E-05 1.04994E-04-1.41731E-06
 -1     11034 7.38792E-05 1.01686E-04-1.50644E-06
 -1     11035 8.18488E-05 9.58326E-05-1.60456E-06
 -1     11036 7.62825E-05 1.04994E-04-1.59631E-06
 -1     11041 7.38792E-05 1.01686E-04-1.68415E-06
 -1     11042 8.18487E-05 9.58326E-05-1.77632E-06
 -1     11043 7.62826E-05 1.04994E-04-1.77237E-06
 -1     11048 7.38793E-05 1.01686E-04-1.85955E-06
 -1     11049 8.18487E-05 9.58325E-05-1.94874E-06
 -1     11050 7.62826E-05 1.04994E-04-1.94699E-06
 -1     11055 7.38793E-05 1.01686E-04-2.03391E-06
 -1     11056 8.18487E-05 9.58325E-05-2.12146E-06
 -1     11057 7.62826E-05 1.04994E-04-2.12097E-06
 -1     11062 7.38793E-05 1.01686E-04-2.20786E-06
 -1     11063 8.18487E-05 9.58325E-05-2.29427E-06
 -1     11064 7.62826E-05 1.04994E-04-2.29476E-06
 -1     11069 7.38793E-05 1.01686E-04-2.38181E-06
 -1     11070 8.18487E-05 9.58325E-05-2.46699E-06
 -1     11071 7.62826E-05 1.04994E-04-2.46874E-06
 -1     11076 7.38793E-05 1.01686E-04-2.55617E-06
 -1     11077 8.18487E-05 9.58326E-05-2.63941E-06
 -1     11078 7.62826E-05 1.04994E-04-2.64336E-06
 -1     11083 7.38792E-05 1.01686E-04-2.73158E-06
 -1     11084 8.18488E-05 9.58326E-05-2.81117E-06
 -1     11085 7.62825E-05 1.04994E-04-2.81942E-06
 -1     11090 7.38792E-05 1.01686E-04-2.90929E-06
 -1     11091 8.18487E-05 9.58325E-05-2.98172E-06
 -1     11092 7.62826E-05 1.04994E-04-2.99842E-06
 -1     11097 7.38794E-05 1.01686E-04-3.09218E-06
 -1     11101 5.70626E-05 1.11992E-04-1.32354E-06
 -1     11102 6.58495E-05 1.07457E-04-1.43400E-06
 -1     11103 5.89187E-05 1.15635E-04-1.41731E-06
 -1     11108 5.70624E-05 1.11991E-04-1.50644E-06
 -1     11109 6.58495E-05 1.07457E-04-1.60456E-06
 -1     11110 5.89187E-05 1.15634E-04-1.59631E-06
 -1     11115 5.70624E-05 1.11991E-04-1.68415E-06
 -1     11116 6.58495E-05 1.07457E-04-1.77632E-06
 -1     11117 5.89187E-05 1.15635E-04-1.77237E-06
 -1     11122 5.70625E-05 1.11991E-04-1.85955E-06
 -1     11123 6.58495E-05 1.07457E-04-1.94874E-06
 -1     11124 5.89188E-05 1.15635E-04-1.94699E-06
 -1     11129 5.70625E-05 1.11991E-04-2.03391E-06
 -1     11130 6.58495E-05 1.07457E-04-2.12146E-06
 -1     11131 5.89188E-05 1.15635E-04-2.12097E-06
 -1     11136 5.70625E-05 1.11991E-04-2.20786E-06
 -1     11137 6.58495E-05 1.07457E-04-2.29427E-06
 -1     11138 5.89188E-05 1.15635E-04-2.29476E-06
 -1     11143 5.70625E-05 1.11991E-04-2.38181E-06
 -1     11144 6.58495E-05 1.07457E-04-2.46699E-06
 -1     11145 5.89188E-05 1.15635E-04-2.46874E-06
 -1     11150 5.70625E-05 1.11991E-04-2.55617E-06
 -1     11151 6.58495E-05 1.07457E-04-2.63941E-06
 -1     11152 5.89187E-05 1.15635E-04-2.64336E-06
 -1     11157 5.70624E-05 1.11991E-04-2.73158E-06
 -1     11158 6.58495E-05 1.07457E-04-2.81117E-06
 -1     11159 5.89187E-05 1.15634E-04-2.81942E-06
 -1     11164 5.70624E-05 1.11991E-04-2.90929E-06
 -1     11165 6.58495E-05 1.07457E-04-2.98172E-06
 -1     11166 5.89187E-05 1.15635E-04-2.99842E-06
 -1     11171 5.70626E-05 1.11992E-04-3.09218E-06
 -1     11175 3.88407E-05 1.19539E-04-1.32354E-06
 -1     11176 4.82289E-05 1.16435E-04-1.43400E-06
 -1     11177 4.01041E-05 1.23428E-04-1.41731E-06
 -1     11182 3.88406E-05 1.19539E-04-1.50644E-06
 -1     11183 4.82289E-05 1.16435E-04-1.60456E-06
 -1     11184 4.01041E-05 1.23428E-04-1.59631E-06
 -1     11189 3.88406E-05 1.19539E-04-1.68415E-06
 -1     11190 4.82289E-05 1.16435E-04-1.77632E-06
 -1     11191 4.01041E-05 1.23428E-04-1.77237E-06
 -1     11196 3.88406E-05 1.19539E-04-1.85955E-06
 -1     11197 4.82289E-05 1.16435E-04-1.94874E-06
 -1     11198 4.01041E-05 1.23428E-04-1.94699E-06
 -1     11203 3.88406E-05 1.19539E-04-2.03391E-06
 -1     11204 4.82289E-05 1.16435E-04-2.12146E-06
 -1     11205 4.01042E-05 1.23428E-04-2.12097E-06
 -1     11210 3.88407E-05 1.19539E-04-2.20786E-06
 -1     11211 4.82289E-05 1.16435E-04-2.29427E-06
 -1     11212 4.01042E-05 1.23428E-04-2.29476E-06
 -1     11217 3.88406E-05 1.19539E-04-2.38181E-06
 -1     11218 4.82289E-05 1.16435E-04-2.46699E-06
 -1     11219 4.01041E-05 1.23428E-04-2.46874E-06
 -1     11224 3.88406E-05 1.19539E-04-2.55617E-06
 -1     11225 4.82289E-05 1.16435E-04-2.63941E-06
 -1     11226 4.01041E-05 1.23428E-04-2.64336E-06
 -1     11231 3.88406E-05 1.19539E-04-2.73158E-06
 -1     11232 4.82289E-05 1.16435E-04-2.81117E-06
 -1     11233 4.01041E-05 1.23428E-04-2.81942E-06
 -1     11238 3.88406E-05 1.19539E-04-2.90929E-06
 -1     11239 4.82289E-05 1.16435E-04-2.98172E-06
 -1     11240 4.01041E-05 1.23428E-04-2.99842E-06
 -1     11245 3.88407E-05 1.19539E-04-3.09218E-06
 -1     11249 1.96624E-05 1.24144E-04-1.32354E-06
 -1     11250 2.94207E-05 1.22546E-04-1.43400E-06
 -1     11251 2.03020E-05 1.28182E-04-1.41731E-06
 -1     11256 1.96624E-05 1.24143E-04-1.50644E-06
 -1     11257 2.94207E-05 1.22546E-04-1.60456E-06
 -1     11258 2.03020E-05 1.28182E-04-1.59631E-06
 -1     11263 1.96624E-05 1.24143E-04-1.68415E-06
 -1     11264 2.94207E-05 1.22546E-04-1.77632E-06
 -1     11265 2.03020E-05 1.28182E-04-1.77237E-06
 -1     11270 1.96624E-05 1.24143E-04-1.85955E-06
 -1     11271 2.94207E-05 1.22546E-04-1.94874E-06
 -1     11272 2.03020E-05 1.28182E-04-1.94699E-06
 -1     11277 1.96624E-05 1.24143E-04-2.03391E-06
 -1     11278 2.94207E-05 1.22546E-04-2.12146E-06
 -1     11279 2.03020E-05 1.28182E-04-2.12097E-06
 -1     11284 1.96624E-05 1.24144E-04-2.20786E-06
 -1     11285 2.94207E-05 1.22546E-04-2.29427E-06
 -1     11286 2.03020E-05 1.28182E-04-2.29476E-06
 -1     11291 1.96624E-05 1.24143E-04-2.38181E-06
 -1     11292 2.94207E-05 1.22546E-04-2.46699E-06
 -1     11293 2.03020E-05 1.28182E-04-2.46874E-06
 -1     11298 1.96624E-05 1.24143E-04-2.55617E-06
 -1     11299 2.94207E-05 1.22546E-04-2.63941E-06
 -1     11300 2.03020E-05 1.28182E-04-2.64336E-06
 -1     11305 1.96624E-05 1.24143E-04-2.73158E-06
 -1     11306 2.94207E-05 1.22546E-04-2.81117E-06
 -1     11307 2.03020E-05 1.28182E-04-2.81942E-06
 -1     11312 1.96624E-05 1.24143E-04-2.90929E-06
 -1     11313 2.94207E-05 1.22546E-04-2.98172E-06
 -1     11314 2.03020E-05 1.28182E-04-2.99842E-06
 -1     11319 1.96624E-05 1.24144E-04-3.09218E-06
 -1     11323 9.88805E-06 1.25640E-04-1.43400E-06
 -1     11327 9.88806E-06 1.25640E-04-1.60456E-06
 -1     11331 9.88805E-06 1.25640E-04-1.77632E-06
 -1     11335 9.88805E-06 1.25640E-04-1.94874E-06
 -1     11339 9.88805E-06 1.25640E-04-2.12146E-06
 -1     11343 9.88805E-06 1.25640E-04-2.29427E-06
 -1     11347 9.88805E-06 1.25640E-04-2.46699E-06
 -1     11351 9.88805E-06 1.25640E-04-2.63941E-06
 -1     11355 9.88806E-06 1.25640E-04-2.81117E-06
 -1     11359 9.88805E-06 1.25640E-04-2.98172E-06
 -1     11365 1.16928E-04 1.85196E-05-1.32469E-06
 -1     11366 1.18331E-04 9.31286E-06-1.43397E-06
 -1     11367 1.20401E-04 1.90697E-05-1.41743E-06
 -1     11372 1.16928E-04 1.85196E-05-1.50651E-06
 -1     11373 1.18331E-04 9.31287E-06-1.60464E-06
 -1     11374 1.20401E-04 1.90697E-05-1.59609E-06
 -1     11379 1.16928E-04 1.85196E-05-1.68397E-06
 -1     11380 1.18331E-04 9.31287E-06-1.77641E-06
 -1     11381 1.20401E-04 1.90697E-05-1.77212E-06
 -1     11386 1.16928E-04 1.85196E-05-1.85938E-06
 -1     11387 1.18331E-04 9.31286E-06-1.94880E-06
 -1     11388 1.20401E-04 1.90697E-05-1.94682E-06
 -1     11393 1.16928E-04 1.85196E-05-2.03382E-06
 -1     11394 1.18331E-04 9.31286E-06-2.12148E-06
 -1     11395 1.20401E-04 1.90697E-05-2.12091E-06
 -1     11400 1.16928E-04 1.85196E-05-2.20786E-06
 -1     11401 1.18331E-04 9.31286E-06-2.29425E-06
 -1     11402 1.20401E-04 1.90697E-05-2.29482E-06
 -1     11407 1.16928E-04 1.85196E-05-2.38191E-06
 -1     11408 1.18331E-04 9.31286E-06-2.46693E-06
 -1     11409 1.20401E-04 1.90697E-05-2.46890E-06
 -1     11414 1.16928E-04 1.85196E-05-2.55635E-06
 -1     11415 1.18331E-04 9.31287E-06-2.63931E-06
 -1     11416 1.20401E-04 1.90697E-05-2.64360E-06
 -1     11421 1.16928E-04 1.85196E-05-2.73176E-06
 -1     11422 1.18331E-04 9.31287E-06-2.81108E-06
 -1     11423 1.20401E-04 1.90697E-05-2.81964E-06
 -1     11428 1.16928E-04 1.85196E-05-2.90922E-06
 -1     11429 1.18331E-04 9.31286E-06-2.98175E-06
 -1     11430 1.20401E-04 1.90697E-05-2.99830E-06
 -1     11435 1.16928E-04 1.85196E-05-3.09103E-06
 -1     11439 1.12592E-04 3.65832E-05-1.32469E-06
 -1     11440 1.15417E-04 2.77093E-05-1.43397E-06
 -1     11441 1.15936E-04 3.76698E-05-1.41743E-06
 -1     11446 1.12591E-04 3.65831E-05-1.50651E-06
 -1     11447 1.15418E-04 2.77093E-05-1.60464E-06
 -1     11448 1.15936E-04 3.76698E-05-1.59609E-06
 -1     11453 1.12591E-04 3.65831E-05-1.68397E-06
 -1     11454 1.15417E-04 2.77093E-05-1.77641E-06
 -1     11455 1.15936E-04 3.76698E-05-1.77212E-06
 -1     11460 1.12591E-04 3.65831E-05-1.85938E-06
 -1     11461 1.15417E-04 2.77093E-05-1.94880E-06
 -1     11462 1.15936E-04 3.76698E-05-1.94682E-06
 -1     11467 1.12591E-04 3.65832E-05-2.03382E-06
 -1     11468 1.15417E-04 2.77093E-05-2.12148E-06
 -1     11469 1.15936E-04 3.76699E-05-2.12091E-06
 -1     11474 1.12591E-04 3.65832E-05-2.20786E-06
 -1     11475 1.15417E-04 2.77093E-05-2.29425E-06
 -1     11476 1.15936E-04 3.76699E-05-2.29482E-06
 -1     11481 1.12591E-04 3.65832E-05-2.38191E-06
 -1     11482 1.15417E-04 2.77093E-05-2.46693E-06
 -1     11483 1.15936E-04 3.76698E-05-2.46890E-06
 -1     11488 1.12591E-04 3.65831E-05-2.55635E-06
 -1     11489 1.15417E-04 2.77093E-05-2.63931E-06
 -1     11490 1.15936E-04 3.76698E-05-2.64360E-06
 -1     11495 1.12591E-04 3.65831E-05-2.73176E-06
 -1     11496 1.15418E-04 2.77093E-05-2.81108E-06
 -1     11497 1.15936E-04 3.76698E-05-2.81964E-06
 -1     11502 1.12591E-04 3.65831E-05-2.90922E-06
 -1     11503 1.15417E-04 2.77093E-05-2.98175E-06
 -1     11504 1.15936E-04 3.76698E-05-2.99830E-06
 -1     11509 1.12592E-04 3.65832E-05-3.09103E-06
 -1     11513 1.05483E-04 5.37460E-05-1.32469E-06
 -1     11514 1.09662E-04 4.54234E-05-1.43397E-06
 -1     11515 1.08616E-04 5.53424E-05-1.41743E-06
 -1     11520 1.05482E-04 5.37459E-05-1.50651E-06
 -1     11521 1.09662E-04 4.54234E-05-1.60464E-06
 -1     11522 1.08616E-04 5.53424E-05-1.59609E-06
 -1     11527 1.05482E-04 5.37459E-05-1.68397E-06
 -1     11528 1.09662E-04 4.54234E-05-1.77641E-06
 -1     11529 1.08616E-04 5.53424E-05-1.77212E-06
 -1     11534 1.05482E-04 5.37459E-05-1.85938E-06
 -1     11535 1.09662E-04 4.54234E-05-1.94880E-06
 -1     11536 1.08616E-04 5.53424E-05-1.94682E-06
 -1     11541 1.05482E-04 5.37459E-05-2.03382E-06
 -1     11542 1.09662E-04 4.54234E-05-2.12148E-06
 -1     11543 1.08616E-04 5.53425E-05-2.12091E-06
 -1     11548 1.05482E-04 5.37459E-05-2.20786E-06
 -1     11549 1.09662E-04 4.54234E-05-2.29425E-06
 -1     11550 1.08616E-04 5.53425E-05-2.29482E-06
 -1     11555 1.05482E-04 5.37459E-05-2.38191E-06
 -1     11556 1.09662E-04 4.54234E-05-2.46693E-06
 -1     11557 1.08616E-04 5.53424E-05-2.46890E-06
 -1     11562 1.05482E-04 5.37459E-05-2.55635E-06
 -1     11563 1.09662E-04 4.54234E-05-2.63931E-06
 -1     11564 1.08616E-04 5.53424E-05-2.64360E-06
 -1     11569 1.05482E-04 5.37459E-05-2.73176E-06
 -1     11570 1.09662E-04 4.54234E-05-2.81108E-06
 -1     11571 1.08616E-04 5.53424E-05-2.81964E-06
 -1     11576 1.05482E-04 5.37459E-05-2.90922E-06
 -1     11577 1.09662E-04 4.54234E-05-2.98175E-06
 -1     11578 1.08616E-04 5.53424E-05-2.99830E-06
 -1     11583 1.05483E-04 5.37460E-05-3.09103E-06
 -1     11587 9.57761E-05 6.95854E-05-1.32469E-06
 -1     11588 1.01206E-04 6.20190E-05-1.43397E-06
 -1     11589 9.86209E-05 7.16523E-05-1.41743E-06
 -1     11594 9.57759E-05 6.95852E-05-1.50651E-06
 -1     11595 1.01206E-04 6.20191E-05-1.60464E-06
 -1     11596 9.86208E-05 7.16522E-05-1.59609E-06
 -1     11601 9.57759E-05 6.95852E-05-1.68397E-06
 -1     11602 1.01206E-04 6.20191E-05-1.77641E-06
 -1     11603 9.86209E-05 7.16523E-05-1.77212E-06
 -1     11608 9.57759E-05 6.95853E-05-1.85938E-06
 -1     11609 1.01206E-04 6.20190E-05-1.94880E-06
 -1     11610 9.86209E-05 7.16523E-05-1.94682E-06
 -1     11615 9.57759E-05 6.95853E-05-2.03382E-06
 -1     11616 1.01206E-04 6.20190E-05-2.12148E-06
 -1     11617 9.86210E-05 7.16523E-05-2.12091E-06
 -1     11622 9.57760E-05 6.95853E-05-2.20786E-06
 -1     11623 1.01206E-04 6.20190E-05-2.29425E-06
 -1     11624 9.86210E-05 7.16523E-05-2.29482E-06
 -1     11629 9.57759E-05 6.95853E-05-2.38191E-06
 -1     11630 1.01206E-04 6.20190E-05-2.46693E-06
 -1     11631 9.86209E-05 7.16523E-05-2.46890E-06
 -1     11636 9.57759E-05 6.95853E-05-2.55635E-06
 -1     11637 1.01206E-04 6.20191E-05-2.63931E-06
 -1     11638 9.86209E-05 7.16523E-05-2.64360E-06
 -1     11643 9.57759E-05 6.95852E-05-2.73176E-06
 -1     11644 1.01206E-04 6.20191E-05-2.81108E-06
 -1     11645 9.86208E-05 7.16522E-05-2.81964E-06
 -1     11650 9.57759E-05 6.95852E-05-2.90922E-06
 -1     11651 1.01206E-04 6.20190E-05-2.98175E-06
 -1     11652 9.86209E-05 7.16523E-05-2.99830E-06
 -1     11657 9.57761E-05 6.95854E-05-3.09103E-06
 -1     11661 8.37114E-05 8.37114E-05-1.32469E-06
 -1     11662 9.02579E-05 7.70876E-05-1.43397E-06
 -1     11663 8.61978E-05 8.61978E-05-1.41743E-06
 -1     11668 8.37112E-05 8.37112E-05-1.50651E-06
 -1     11669 9.02580E-05 7.70876E-05-1.60464E-06
 -1     11670 8.61978E-05 8.61978E-05-1.59609E-06
 -1     11675 8.37112E-05 8.37112E-05-1.68397E-06
 -1     11676 9.02580E-05 7.70876E-05-1.77641E-06
 -1     11677 8.61978E-05 8.61978E-05-1.77212E-06
 -1     11682 8.37112E-05 8.37112E-05-1.85938E-06
 -1     11683 9.02579E-05 7.70876E-05-1.94880E-06
 -1     11684 8.61979E-05 8.61979E-05-1.94682E-06
 -1     11689 8.37112E-05 8.37112E-05-2.03382E-06
 -1     11690 9.02579E-05 7.70876E-05-2.12148E-06
 -1     11691 8.61979E-05 8.61979E-05-2.12091E-06
 -1     11696 8.37113E-05 8.37113E-05-2.20786E-06
 -1     11697 9.02579E-05 7.70876E-05-2.29425E-06
 -1     11698 8.61979E-05 8.61979E-05-2.29482E-06
 -1     11703 8.37112E-05 8.37112E-05-2.38191E-06
 -1     11704 9.02579E-05 7.70876E-05-2.46693E-06
 -1     11705 8.61979E-05 8.61979E-05-2.46890E-06
 -1     11710 8.37112E-05 8.37112E-05-2.55635E-06
 -1     11711 9.02580E-05 7.70876E-05-2.63931E-06
 -1     11712 8.61978E-05 8.61978E-05-2.64360E-06
 -1     11717 8.37112E-05 8.37112E-05-2.73176E-06
 -1     11718 9.02580E-05 7.70876E-05-2.81108E-06
 -1     11719 8.61978E-05 8.61978E-05-2.81964E-06
 -1     11724 8.37112E-05 8.37112E-05-2.90922E-06
 -1     11725 9.02579E-05 7.70876E-05-2.98175E-06
 -1     11726 8.61978E-05 8.61978E-05-2.99830E-06
 -1     11731 8.37114E-05 8.37114E-05-3.09103E-06
 -1     11735 6.95854E-05 9.57761E-05-1.32469E-06
 -1     11736 7.70876E-05 9.02579E-05-1.43397E-06
 -1     11737 7.16523E-05 9.86209E-05-1.41743E-06
 -1     11742 6.95852E-05 9.57759E-05-1.50651E-06
 -1     11743 7.70876E-05 9.02580E-05-1.60464E-06
 -1     11744 7.16522E-05 9.86208E-05-1.59609E-06
 -1     11749 6.95852E-05 9.57759E-05-1.68397E-06
 -1     11750 7.70876E-05 9.02580E-05-1.77641E-06
 -1     11751 7.16523E-05 9.86209E-05-1.77212E-06
 -1     11756 6.95853E-05 9.57759E-05-1.85938E-06
 -1     11757 7.70876E-05 9.02579E-05-1.94880E-06
 -1     11758 7.16523E-05 9.86209E-05-1.94682E-06
 -1     11763 6.95853E-05 9.57759E-05-2.03382E-06
 -1     11764 7.70876E-05 9.02579E-05-2.12148E-06
 -1     11765 7.16523E-05 9.86210E-05-2.12091E-06
 -1     11770 6.95853E-05 9.57760E-05-2.20786E-06
 -1     11771 7.70876E-05 9.02579E-05-2.29425E-06
 -1     11772 7.16523E-05 9.86210E-05-2.29482E-06
 -1     11777 6.95853E-05 9.57759E-05-2.38191E-06
 -1     11778 7.70876E-05 9.02579E-05-2.46693E-06
 -1     11779 7.16523E-05 9.86209E-05-2.46890E-06
 -1     11784 6.95853E-05 9.57759E-05-2.55635E-06
 -1     11785 7.70876E-05 9.02580E-05-2.63931E-06
 -1     11786 7.16523E-05 9.86209E-05-2.64360E-06
 -1     11791 6.95852E-05 9.57759E-05-2.73176E-06
 -1     11792 7.70876E-05 9.02580E-05-2.81108E-06
 -1     11793 7.16522E-05 9.86208E-05-2.81964E-06
 -1     11798 6.95852E-05 9.57759E-05-2.90922E-06
 -1     11799 7.70876E-05 9.02579E-05-2.98175E-06
 -1     11800 7.16523E-05 9.86209E-05-2.99830E-06
 -1     11805 6.95854E-05 9.57761E-05-3.09103E-06
 -1     11809 5.37460E-05 1.05483E-04-1.32469E-06
 -1     11810 6.20190E-05 1.01206E-04-1.43397E-06
 -1     11811 5.53424E-05 1.08616E-04-1.41743E-06
 -1     11816 5.37459E-05 1.05482E-04-1.50651E-06
 -1     11817 6.20191E-05 1.01206E-04-1.60464E-06
 -1     11818 5.53424E-05 1.08616E-04-1.59609E-06
 -1     11823 5.37459E-05 1.05482E-04-1.68397E-06
 -1     11824 6.20191E-05 1.01206E-04-1.77641E-06
 -1     11825 5.53424E-05 1.08616E-04-1.77212E-06
 -1     11830 5.37459E-05 1.05482E-04-1.85938E-06
 -1     11831 6.20190E-05 1.01206E-04-1.94880E-06
 -1     11832 5.53424E-05 1.08616E-04-1.94682E-06
 -1     11837 5.37459E-05 1.05482E-04-2.03382E-06
 -1     11838 6.20190E-05 1.01206E-04-2.12148E-06
 -1     11839 5.53425E-05 1.08616E-04-2.12091E-06
 -1     11844 5.37459E-05 1.05482E-04-2.20786E-06
 -1     11845 6.20190E-05 1.01206E-04-2.29425E-06
 -1     11846 5.53425E-05 1.08616E-04-2.29482E-06
 -1     11851 5.37459E-05 1.05482E-04-2.38191E-06
 -1     11852 6.20190E-05 1.01206E-04-2.46693E-06
 -1     11853 5.53424E-05 1.08616E-04-2.46890E-06
 -1     11858 5.37459E-05 1.05482E-04-2.55635E-06
 -1     11859 6.20191E-05 1.01206E-04-2.63931E-06
 -1     11860 5.53424E-05 1.08616E-04-2.64360E-06
 -1     11865 5.37459E-05 1.05482E-04-2.73176E-06
 -1     11866 6.20191E-05 1.01206E-04-2.81108E-06
 -1     11867 5.53424E-05 1.08616E-04-2.81964E-06
 -1     11872 5.37459E-05 1.05482E-04-2.90922E-06
 -1     11873 6.20190E-05 1.01206E-04-2.98175E-06
 -1     11874 5.53424E-05 1.08616E-04-2.99830E-06
 -1     11879 5.37460E-05 1.05483E-04-3.09103E-06
 -1     11883 3.65832E-05 1.12592E-04-1.32469E-06
 -1     11884 4.54234E-05 1.09662E-04-1.43397E-06
 -1     11885 3.76698E-05 1.15936E-04-1.41743E-06
 -1     11890 3.65831E-05 1.12591E-04-1.50651E-06
 -1     11891 4.54234E-05 1.09662E-04-1.60464E-06
 -1     11892 3.76698E-05 1.15936E-04-1.59609E-06
 -1     11897 3.65831E-05 1.12591E-04-1.68397E-06
 -1     11898 4.54234E-05 1.09662E-04-1.77641E-06
 -1     11899 3.76698E-05 1.15936E-04-1.77212E-06
 -1     11904 3.65831E-05 1.12591E-04-1.85938E-06
 -1     11905 4.54234E-05 1.09662E-04-1.94880E-06
 -1     11906 3.76698E-05 1.15936E-04-1.94682E-06
 -1     11911 3.65832E-05 1.12591E-04-2.03382E-06
 -1     11912 4.54234E-05 1.09662E-04-2.12148E-06
 -1     11913 3.76699E-05 1.15936E-04-2.12091E-06
 -1     11918 3.65832E-05 1.12591E-04-2.20786E-06
 -1     11919 4.54234E-05 1.09662E-04-2.29425E-06
 -1     11920 3.76699E-05 1.15936E-04-2.29482E-06
 -1     11925 3.65832E-05 1.12591E-04-2.38191E-06
 -1     11926 4.54234E-05 1.09662E-04-2.46693E-06
 -1     11927 3.76698E-05 1.15936E-04-2.46890E-06
 -1     11932 3.65831E-05 1.12591E-04-2.55635E-06
 -1     11933 4.54234E-05 1.09662E-04-2.63931E-06
 -1     11934 3.76698E-05 1.15936E-04-2.64360E-06
 -1     11939 3.65831E-05 1.12591E-04-2.73176E-06
 -1     11940 4.54234E-05 1.09662E-04-2.81108E-06
 -1     11941 3.76698E-05 1.15936E-04-2.81964E-06
 -1     11946 3.65831E-05 1.12591E-04-2.90922E-06
 -1     11947 4.54234E-05 1.09662E-04-2.98175E-06
 -1     11948 3.76698E-05 1.15936E-04-2.99830E-06
 -1     11953 3.65832E-05 1.12592E-04-3.09103E-06
 -1     11957 1.85196E-05 1.16928E-04-1.32469E-06
 -1     11958 2.77093E-05 1.15417E-04-1.43397E-06
 -1     11959 1.90697E-05 1.20401E-04-1.41743E-06
 -1     11964 1.85196E-05 1.16928E-04-1.50651E-06
 -1     11965 2.77093E-05 1.15418E-04-1.60464E-06
 -1     11966 1.90697E-05 1.20401E-04-1.59609E-06
 -1     11971 1.85196E-05 1.16928E-04-1.68397E-06
 -1     11972 2.77093E-05 1.15417E-04-1.77641E-06
 -1     11973 1.90697E-05 1.20401E-04-1.77212E-06
 -1     11978 1.85196E-05 1.16928E-04-1.85938E-06
 -1     11979 2.77093E-05 1.15417E-04-1.94880E-06
 -1     11980 1.90697E-05 1.20401E-04-1.94682E-06
 -1     11985 1.85196E-05 1.16928E-04-2.03382E-06
 -1     11986 2.77093E-05 1.15417E-04-2.12148E-06
 -1     11987 1.90697E-05 1.20401E-04-2.12091E-06
 -1     11992 1.85196E-05 1.16928E-04-2.20786E-06
 -1     11993 2.77093E-05 1.15417E-04-2.29425E-06
 -1     11994 1.90697E-05 1.20401E-04-2.29482E-06
 -1     11999 1.85196E-05 1.16928E-04-2.38191E-06
 -1     12000 2.77093E-05 1.15417E-04-2.46693E-06
 -1     12001 1.90697E-05 1.20401E-04-2.46890E-06
 -1     12006 1.85196E-05 1.16928E-04-2.55635E-06
 -1     12007 2.77093E-05 1.15417E-04-2.63931E-06
 -1     12008 1.90697E-05 1.20401E-04-2.64360E-06
 -1     12013 1.85196E-05 1.16928E-04-2.73176E-06
 -1     12014 2.77093E-05 1.15418E-04-2.81108E-06
 -1     12015 1.90697E-05 1.20401E-04-2.81964E-06
 -1     12020 1.85196E-05 1.16928E-04-2.90922E-06
 -1     12021 2.77093E-05 1.15417E-04-2.98175E-06
 -1     12022 1.90697E-05 1.20401E-04-2.99830E-06
 -1     12027 1.85196E-05 1.16928E-04-3.09103E-06
 -1     12031 9.31286E-06 1.18331E-04-1.43397E-06
 -1     12035 9.31287E-06 1.18331E-04-1.60464E-06
 -1     12039 9.31287E-06 1.18331E-04-1.77641E-06
 -1     12043 9.31286E-06 1.18331E-04-1.94880E-06
 -1     12047 9.31286E-06 1.18331E-04-2.12148E-06
 -1     12051 9.31286E-06 1.18331E-04-2.29425E-06
 -1     12055 9.31286E-06 1.18331E-04-2.46693E-06
 -1     12059 9.31287E-06 1.18331E-04-2.63931E-06
 -1     12063 9.31287E-06 1.18331E-04-2.81108E-06
 -1     12067 9.31286E-06 1.18331E-04-2.98175E-06
 -1     12073 1.10683E-04 1.75305E-05-1.32569E-06
 -1     12074 1.12005E-04 8.81500E-06-1.43391E-06
 -1     12075 1.13696E-04 1.80076E-05-1.41762E-06
 -1     12080 1.10683E-04 1.75305E-05-1.50662E-06
 -1     12081 1.12005E-04 8.81501E-06-1.60471E-06
 -1     12082 1.13695E-04 1.80076E-05-1.59595E-06
 -1     12087 1.10683E-04 1.75305E-05-1.68384E-06
 -1     12088 1.12005E-04 8.81501E-06-1.77650E-06
 -1     12089 1.13696E-04 1.80076E-05-1.77194E-06
 -1     12094 1.10683E-04 1.75305E-05-1.85924E-06
 -1     12095 1.12005E-04 8.81500E-06-1.94886E-06
 -1     12096 1.13696E-04 1.80076E-05-1.94669E-06
 -1     12101 1.10683E-04 1.75305E-05-2.03374E-06
 -1     12102 1.12005E-04 8.81500E-06-2.12150E-06
 -1     12103 1.13696E-04 1.80076E-05-2.12086E-06
 -1     12108 1.10683E-04 1.75305E-05-2.20786E-06
 -1     12109 1.12005E-04 8.81500E-06-2.29423E-06
 -1     12110 1.13696E-04 1.80076E-05-2.29486E-06
 -1     12115 1.10683E-04 1.75305E-05-2.38199E-06
 -1     12116 1.12005E-04 8.81500E-06-2.46687E-06
 -1     12117 1.13696E-04 1.80076E-05-2.46903E-06
 -1     12122 1.10683E-04 1.75305E-05-2.55649E-06
 -1     12123 1.12005E-04 8.81501E-06-2.63923E-06
 -1     12124 1.13696E-04 1.80076E-05-2.64379E-06
 -1     12129 1.10683E-04 1.75305E-05-2.73189E-06
 -1     12130 1.12005E-04 8.81501E-06-2.81102E-06
 -1     12131 1.13695E-04 1.80076E-05-2.81978E-06
 -1     12136 1.10683E-04 1.75305E-05-2.90910E-06
 -1     12137 1.12005E-04 8.81500E-06-2.98182E-06
 -1     12138 1.13696E-04 1.80076E-05-2.99811E-06
 -1     12143 1.10683E-04 1.75305E-05-3.09004E-06
 -1     12147 1.06578E-04 3.46294E-05-1.32569E-06
 -1     12148 1.09247E-04 2.62280E-05-1.43391E-06
 -1     12149 1.09479E-04 3.55718E-05-1.41762E-06
 -1     12154 1.06578E-04 3.46293E-05-1.50662E-06
 -1     12155 1.09247E-04 2.62280E-05-1.60471E-06
 -1     12156 1.09479E-04 3.55718E-05-1.59595E-06
 -1     12161 1.06578E-04 3.46293E-05-1.68384E-06
 -1     12162 1.09247E-04 2.62280E-05-1.77650E-06
 -1     12163 1.09479E-04 3.55718E-05-1.77194E-06
 -1     12168 1.06578E-04 3.46293E-05-1.85924E-06
 -1     12169 1.09247E-04 2.62280E-05-1.94886E-06
 -1     12170 1.09479E-04 3.55718E-05-1.94669E-06
 -1     12175 1.06578E-04 3.46293E-05-2.03374E-06
 -1     12176 1.09247E-04 2.62280E-05-2.12150E-06
 -1     12177 1.09479E-04 3.55718E-05-2.12086E-06
 -1     12182 1.06578E-04 3.46293E-05-2.20786E-06
 -1     12183 1.09247E-04 2.62280E-05-2.29423E-06
 -1     12184 1.09479E-04 3.55718E-05-2.29486E-06
 -1     12189 1.06578E-04 3.46293E-05-2.38199E-06
 -1     12190 1.09247E-04 2.62280E-05-2.46687E-06
 -1     12191 1.09479E-04 3.55718E-05-2.46903E-06
 -1     12196 1.06578E-04 3.46293E-05-2.55649E-06
 -1     12197 1.09247E-04 2.62280E-05-2.63923E-06
 -1     12198 1.09479E-04 3.55718E-05-2.64379E-06
 -1     12203 1.06578E-04 3.46293E-05-2.73189E-06
 -1     12204 1.09247E-04 2.62280E-05-2.81102E-06
 -1     12205 1.09479E-04 3.55718E-05-2.81978E-06
 -1     12210 1.06578E-04 3.46293E-05-2.90910E-06
 -1     12211 1.09247E-04 2.62280E-05-2.98182E-06
 -1     12212 1.09479E-04 3.55718E-05-2.99811E-06
 -1     12217 1.06578E-04 3.46294E-05-3.09004E-06
 -1     12221 9.98489E-05 5.08756E-05-1.32569E-06
 -1     12222 1.03799E-04 4.29951E-05-1.43391E-06
 -1     12223 1.02566E-04 5.22601E-05-1.41762E-06
 -1     12228 9.98486E-05 5.08754E-05-1.50662E-06
 -1     12229 1.03799E-04 4.29951E-05-1.60471E-06
 -1     12230 1.02566E-04 5.22601E-05-1.59595E-06
 -1     12235 9.98486E-05 5.08754E-05-1.68384E-06
 -1     12236 1.03799E-04 4.29951E-05-1.77650E-06
 -1     12237 1.02566E-04 5.22601E-05-1.77194E-06
 -1     12242 9.98487E-05 5.08754E-05-1.85924E-06
 -1     12243 1.03799E-04 4.29951E-05-1.94886E-06
 -1     12244 1.02566E-04 5.22601E-05-1.94669E-06
 -1     12249 9.98487E-05 5.08754E-05-2.03374E-06
 -1     12250 1.03799E-04 4.29951E-05-2.12150E-06
 -1     12251 1.02566E-04 5.22601E-05-2.12086E-06
 -1     12256 9.98487E-05 5.08755E-05-2.20786E-06
 -1     12257 1.03799E-04 4.29951E-05-2.29423E-06
 -1     12258 1.02566E-04 5.22601E-05-2.29486E-06
 -1     12263 9.98487E-05 5.08754E-05-2.38199E-06
 -1     12264 1.03799E-04 4.29951E-05-2.46687E-06
 -1     12265 1.02566E-04 5.22601E-05-2.46903E-06
 -1     12270 9.98487E-05 5.08754E-05-2.55649E-06
 -1     12271 1.03799E-04 4.29951E-05-2.63923E-06
 -1     12272 1.02566E-04 5.22601E-05-2.64379E-06
 -1     12277 9.98486E-05 5.08754E-05-2.73189E-06
 -1     12278 1.03799E-04 4.29951E-05-2.81102E-06
 -1     12279 1.02566E-04 5.22601E-05-2.81978E-06
 -1     12284 9.98486E-05 5.08754E-05-2.90910E-06
 -1     12285 1.03799E-04 4.29951E-05-2.98182E-06
 -1     12286 1.02566E-04 5.22601E-05-2.99811E-06
 -1     12291 9.98489E-05 5.08756E-05-3.09004E-06
 -1     12295 9.06609E-05 6.58690E-05-1.32569E-06
 -1     12296 9.57955E-05 5.87035E-05-1.43391E-06
 -1     12297 9.31282E-05 6.76616E-05-1.41762E-06
 -1     12302 9.06607E-05 6.58688E-05-1.50662E-06
 -1     12303 9.57955E-05 5.87036E-05-1.60471E-06
 -1     12304 9.31281E-05 6.76616E-05-1.59595E-06
 -1     12309 9.06607E-05 6.58688E-05-1.68384E-06
 -1     12310 9.57955E-05 5.87036E-05-1.77650E-06
 -1     12311 9.31282E-05 6.76616E-05-1.77194E-06
 -1     12316 9.06607E-05 6.58688E-05-1.85924E-06
 -1     12317 9.57955E-05 5.87036E-05-1.94886E-06
 -1     12318 9.31282E-05 6.76616E-05-1.94669E-06
 -1     12323 9.06607E-05 6.58689E-05-2.03374E-06
 -1     12324 9.57955E-05 5.87035E-05-2.12150E-06
 -1     12325 9.31282E-05 6.76616E-05-2.12086E-06
 -1     12330 9.06607E-05 6.58689E-05-2.20786E-06
 -1     12331 9.57955E-05 5.87035E-05-2.29423E-06
 -1     12332 9.31282E-05 6.76616E-05-2.29486E-06
 -1     12337 9.06607E-05 6.58689E-05-2.38199E-06
 -1     12338 9.57955E-05 5.87036E-05-2.46687E-06
 -1     12339 9.31282E-05 6.76616E-05-2.46903E-06
 -1     12344 9.06607E-05 6.58688E-05-2.55649E-06
 -1     12345 9.57955E-05 5.87036E-05-2.63923E-06
 -1     12346 9.31282E-05 6.76616E-05-2.64379E-06
 -1     12351 9.06607E-05 6.58688E-05-2.73189E-06
 -1     12352 9.57955E-05 5.87036E-05-2.81102E-06
 -1     12353 9.31281E-05 6.76616E-05-2.81978E-06
 -1     12358 9.06607E-05 6.58688E-05-2.90910E-06
 -1     12359 9.57955E-05 5.87035E-05-2.98182E-06
 -1     12360 9.31282E-05 6.76616E-05-2.99811E-06
 -1     12365 9.06609E-05 6.58690E-05-3.09004E-06
 -1     12369 7.92405E-05 7.92405E-05-1.32569E-06
 -1     12370 8.54328E-05 7.29665E-05-1.43391E-06
 -1     12371 8.13970E-05 8.13970E-05-1.41762E-06
 -1     12376 7.92403E-05 7.92403E-05-1.50662E-06
 -1     12377 8.54329E-05 7.29666E-05-1.60471E-06
 -1     12378 8.13970E-05 8.13970E-05-1.59595E-06
 -1     12383 7.92403E-05 7.92403E-05-1.68384E-06
 -1     12384 8.54328E-05 7.29665E-05-1.77650E-06
 -1     12385 8.13970E-05 8.13970E-05-1.77194E-06
 -1     12390 7.92403E-05 7.92403E-05-1.85924E-06
 -1     12391 8.54328E-05 7.29665E-05-1.94886E-06
 -1     12392 8.13970E-05 8.13970E-05-1.94669E-06
 -1     12397 7.92404E-05 7.92404E-05-2.03374E-06
 -1     12398 8.54328E-05 7.29665E-05-2.12150E-06
 -1     12399 8.13971E-05 8.13971E-05-2.12086E-06
 -1     12404 7.92404E-05 7.92404E-05-2.20786E-06
 -1     12405 8.54328E-05 7.29665E-05-2.29423E-06
 -1     12406 8.13971E-05 8.13971E-05-2.29486E-06
 -1     12411 7.92404E-05 7.92404E-05-2.38199E-06
 -1     12412 8.54328E-05 7.29665E-05-2.46687E-06
 -1     12413 8.13970E-05 8.13970E-05-2.46903E-06
 -1     12418 7.92403E-05 7.92403E-05-2.55649E-06
 -1     12419 8.54328E-05 7.29665E-05-2.63923E-06
 -1     12420 8.13970E-05 8.13970E-05-2.64379E-06
 -1     12425 7.92403E-05 7.92403E-05-2.73189E-06
 -1     12426 8.54329E-05 7.29666E-05-2.81102E-06
 -1     12427 8.13970E-05 8.13970E-05-2.81978E-06
 -1     12432 7.92403E-05 7.92403E-05-2.90910E-06
 -1     12433 8.54328E-05 7.29665E-05-2.98182E-06
 -1     12434 8.13970E-05 8.13970E-05-2.99811E-06
 -1     12439 7.92405E-05 7.92405E-05-3.09004E-06
 -1     12443 6.58690E-05 9.06609E-05-1.32569E-06
 -1     12444 7.29665E-05 8.54328E-05-1.43391E-06
 -1     12445 6.76616E-05 9.31282E-05-1.41762E-06
 -1     12450 6.58688E-05 9.06607E-05-1.50662E-06
 -1     12451 7.29666E-05 8.54329E-05-1.60471E-06
 -1     12452 6.76616E-05 9.31281E-05-1.59595E-06
 -1     12457 6.58688E-05 9.06607E-05-1.68384E-06
 -1     12458 7.29665E-05 8.54328E-05-1.77650E-06
 -1     12459 6.76616E-05 9.31282E-05-1.77194E-06
 -1     12464 6.58688E-05 9.06607E-05-1.85924E-06
 -1     12465 7.29665E-05 8.54328E-05-1.94886E-06
 -1     12466 6.76616E-05 9.31282E-05-1.94669E-06
 -1     12471 6.58689E-05 9.06607E-05-2.03374E-06
 -1     12472 7.29665E-05 8.54328E-05-2.12150E-06
 -1     12473 6.76616E-05 9.31282E-05-2.12086E-06
 -1     12478 6.58689E-05 9.06607E-05-2.20786E-06
 -1     12479 7.29665E-05 8.54328E-05-2.29423E-06
 -1     12480 6.76616E-05 9.31282E-05-2.29486E-06
 -1     12485 6.58689E-05 9.06607E-05-2.38199E-06
 -1     12486 7.29665E-05 8.54328E-05-2.46687E-06
 -1     12487 6.76616E-05 9.31282E-05-2.46903E-06
 -1     12492 6.58688E-05 9.06607E-05-2.55649E-06
 -1     12493 7.29665E-05 8.54328E-05-2.63923E-06
 -1     12494 6.76616E-05 9.31282E-05-2.64379E-06
 -1     12499 6.58688E-05 9.06607E-05-2.73189E-06
 -1     12500 7.29666E-05 8.54329E-05-2.81102E-06
 -1     12501 6.76616E-05 9.31281E-05-2.81978E-06
 -1     12506 6.58688E-05 9.06607E-05-2.90910E-06
 -1     12507 7.29665E-05 8.54328E-05-2.98182E-06
 -1     12508 6.76616E-05 9.31282E-05-2.99811E-06
 -1     12513 6.58690E-05 9.06609E-05-3.09004E-06
 -1     12517 5.08756E-05 9.98489E-05-1.32569E-06
 -1     12518 5.87035E-05 9.57955E-05-1.43391E-06
 -1     12519 5.22601E-05 1.02566E-04-1.41762E-06
 -1     12524 5.08754E-05 9.98486E-05-1.50662E-06
 -1     12525 5.87036E-05 9.57955E-05-1.60471E-06
 -1     12526 5.22601E-05 1.02566E-04-1.59595E-06
 -1     12531 5.08754E-05 9.98486E-05-1.68384E-06
 -1     12532 5.87036E-05 9.57955E-05-1.77650E-06
 -1     12533 5.22601E-05 1.02566E-04-1.77194E-06
 -1     12538 5.08754E-05 9.98487E-05-1.85924E-06
 -1     12539 5.87036E-05 9.57955E-05-1.94886E-06
 -1     12540 5.22601E-05 1.02566E-04-1.94669E-06
 -1     12545 5.08754E-05 9.98487E-05-2.03374E-06
 -1     12546 5.87035E-05 9.57955E-05-2.12150E-06
 -1     12547 5.22601E-05 1.02566E-04-2.12086E-06
 -1     12552 5.08755E-05 9.98487E-05-2.20786E-06
 -1     12553 5.87035E-05 9.57955E-05-2.29423E-06
 -1     12554 5.22601E-05 1.02566E-04-2.29486E-06
 -1     12559 5.08754E-05 9.98487E-05-2.38199E-06
 -1     12560 5.87036E-05 9.57955E-05-2.46687E-06
 -1     12561 5.22601E-05 1.02566E-04-2.46903E-06
 -1     12566 5.08754E-05 9.98487E-05-2.55649E-06
 -1     12567 5.87036E-05 9.57955E-05-2.63923E-06
 -1     12568 5.22601E-05 1.02566E-04-2.64379E-06
 -1     12573 5.08754E-05 9.98486E-05-2.73189E-06
 -1     12574 5.87036E-05 9.57955E-05-2.81102E-06
 -1     12575 5.22601E-05 1.02566E-04-2.81978E-06
 -1     12580 5.08754E-05 9.98486E-05-2.90910E-06
 -1     12581 5.87035E-05 9.57955E-05-2.98182E-06
 -1     12582 5.22601E-05 1.02566E-04-2.99811E-06
 -1     12587 5.08756E-05 9.98489E-05-3.09004E-06
 -1     12591 3.46294E-05 1.06578E-04-1.32569E-06
 -1     12592 4.29951E-05 1.03799E-04-1.43391E-06
 -1     12593 3.55718E-05 1.09479E-04-1.41762E-06
 -1     12598 3.46293E-05 1.06578E-04-1.50662E-06
 -1     12599 4.29951E-05 1.03799E-04-1.60471E-06
 -1     12600 3.55718E-05 1.09479E-04-1.59595E-06
 -1     12605 3.46293E-05 1.06578E-04-1.68384E-06
 -1     12606 4.29951E-05 1.03799E-04-1.77650E-06
 -1     12607 3.55718E-05 1.09479E-04-1.77194E-06
 -1     12612 3.46293E-05 1.06578E-04-1.85924E-06
 -1     12613 4.29951E-05 1.03799E-04-1.94886E-06
 -1     12614 3.55718E-05 1.09479E-04-1.94669E-06
 -1     12619 3.46293E-05 1.06578E-04-2.03374E-06
 -1     12620 4.29951E-05 1.03799E-04-2.12150E-06
 -1     12621 3.55718E-05 1.09479E-04-2.12086E-06
 -1     12626 3.46293E-05 1.06578E-04-2.20786E-06
 -1     12627 4.29951E-05 1.03799E-04-2.29423E-06
 -1     12628 3.55718E-05 1.09479E-04-2.29486E-06
 -1     12633 3.46293E-05 1.06578E-04-2.38199E-06
 -1     12634 4.29951E-05 1.03799E-04-2.46687E-06
 -1     12635 3.55718E-05 1.09479E-04-2.46903E-06
 -1     12640 3.46293E-05 1.06578E-04-2.55649E-06
 -1     12641 4.29951E-05 1.03799E-04-2.63923E-06
 -1     12642 3.55718E-05 1.09479E-04-2.64379E-06
 -1     12647 3.46293E-05 1.06578E-04-2.73189E-06
 -1     12648 4.29951E-05 1.03799E-04-2.81102E-06
 -1     12649 3.55718E-05 1.09479E-04-2.81978E-06
 -1     12654 3.46293E-05 1.06578E-04-2.90910E-06
 -1     12655 4.29951E-05 1.03799E-04-2.98182E-06
 -1     12656 3.55718E-05 1.09479E-04-2.99811E-06
 -1     12661 3.46294E-05 1.06578E-04-3.09004E-06
 -1     12665 1.75305E-05 1.10683E-04-1.32569E-06
 -1     12666 2.62280E-05 1.09247E-04-1.43391E-06
 -1     12667 1.80076E-05 1.13696E-04-1.41762E-06
 -1     12672 1.75305E-05 1.10683E-04-1.50662E-06
 -1     12673 2.62280E-05 1.09247E-04-1.60471E-06
 -1     12674 1.80076E-05 1.13695E-04-1.59595E-06
 -1     12679 1.75305E-05 1.10683E-04-1.68384E-06
 -1     12680 2.62280E-05 1.09247E-04-1.77650E-06
 -1     12681 1.80076E-05 1.13696E-04-1.77194E-06
 -1     12686 1.75305E-05 1.10683E-04-1.85924E-06
 -1     12687 2.62280E-05 1.09247E-04-1.94886E-06
 -1     12688 1.80076E-05 1.13696E-04-1.94669E-06
 -1     12693 1.75305E-05 1.10683E-04-2.03374E-06
 -1     12694 2.62280E-05 1.09247E-04-2.12150E-06
 -1     12695 1.80076E-05 1.13696E-04-2.12086E-06
 -1     12700 1.75305E-05 1.10683E-04-2.20786E-06
 -1     12701 2.62280E-05 1.09247E-04-2.29423E-06
 -1     12702 1.80076E-05 1.13696E-04-2.29486E-06
 -1     12707 1.75305E-05 1.10683E-04-2.38199E-06
 -1     12708 2.62280E-05 1.09247E-04-2.46687E-06
 -1     12709 1.80076E-05 1.13696E-04-2.46903E-06
 -1     12714 1.75305E-05 1.10683E-04-2.55649E-06
 -1     12715 2.62280E-05 1.09247E-04-2.63923E-06
 -1     12716 1.80076E-05 1.13696E-04-2.64379E-06
 -1     12721 1.75305E-05 1.10683E-04-2.73189E-06
 -1     12722 2.62280E-05 1.09247E-04-2.81102E-06
 -1     12723 1.80076E-05 1.13695E-04-2.81978E-06
 -1     12728 1.75305E-05 1.10683E-04-2.90910E-06
 -1     12729 2.62280E-05 1.09247E-04-2.98182E-06
 -1     12730 1.80076E-05 1.13696E-04-2.99811E-06
 -1     12735 1.75305E-05 1.10683E-04-3.09004E-06
 -1     12739 8.81500E-06 1.12005E-04-1.43391E-06
 -1     12743 8.81501E-06 1.12005E-04-1.60471E-06
 -1     12747 8.81501E-06 1.12005E-04-1.77650E-06
 -1     12751 8.81500E-06 1.12005E-04-1.94886E-06
 -1     12755 8.81500E-06 1.12005E-04-2.12150E-06
 -1     12759 8.81500E-06 1.12005E-04-2.29423E-06
 -1     12763 8.81500E-06 1.12005E-04-2.46687E-06
 -1     12767 8.81501E-06 1.12005E-04-2.63923E-06
 -1     12771 8.81501E-06 1.12005E-04-2.81102E-06
 -1     12775 8.81500E-06 1.12005E-04-2.98182E-06
 -1     12781 1.05238E-04 1.66680E-05-1.32657E-06
 -1     12782 1.06489E-04 8.38083E-06-1.43383E-06
 -1     12783 1.07869E-04 1.70848E-05-1.41785E-06
 -1     12788 1.05237E-04 1.66680E-05-1.50675E-06
 -1     12789 1.06489E-04 8.38083E-06-1.60475E-06
 -1     12790 1.07869E-04 1.70848E-05-1.59586E-06
 -1     12795 1.05237E-04 1.66680E-05-1.68375E-06
 -1     12796 1.06489E-04 8.38083E-06-1.77657E-06
 -1     12797 1.07869E-04 1.70848E-05-1.77179E-06
 -1     12802 1.05237E-04 1.66680E-05-1.85912E-06
 -1     12803 1.06489E-04 8.38083E-06-1.94891E-06
 -1     12804 1.07869E-04 1.70848E-05-1.94658E-06
 -1     12809 1.05237E-04 1.66680E-05-2.03367E-06
 -1     12810 1.06489E-04 8.38083E-06-2.12152E-06
 -1     12811 1.07869E-04 1.70848E-05-2.12083E-06
 -1     12816 1.05237E-04 1.66680E-05-2.20786E-06
 -1     12817 1.06489E-04 8.38083E-06-2.29421E-06
 -1     12818 1.07869E-04 1.70848E-05-2.29490E-06
 -1     12823 1.05237E-04 1.66680E-05-2.38206E-06
 -1     12824 1.06489E-04 8.38083E-06-2.46682E-06
 -1     12825 1.07869E-04 1.70848E-05-2.46914E-06
 -1     12830 1.05237E-04 1.66680E-05-2.55660E-06
 -1     12831 1.06489E-04 8.38083E-06-2.63916E-06
 -1     12832 1.07869E-04 1.70848E-05-2.64394E-06
 -1     12837 1.05237E-04 1.66680E-05-2.73198E-06
 -1     12838 1.06489E-04 8.38083E-06-2.81098E-06
 -1     12839 1.07869E-04 1.70848E-05-2.81987E-06
 -1     12844 1.05237E-04 1.66680E-05-2.90897E-06
 -1     12845 1.06489E-04 8.38083E-06-2.98190E-06
 -1     12846 1.07869E-04 1.70848E-05-2.99788E-06
 -1     12851 1.05238E-04 1.66680E-05-3.08916E-06
 -1     12855 1.01335E-04 3.29256E-05-1.32657E-06
 -1     12856 1.03866E-04 2.49361E-05-1.43383E-06
 -1     12857 1.03868E-04 3.37489E-05-1.41785E-06
 -1     12862 1.01334E-04 3.29255E-05-1.50675E-06
 -1     12863 1.03866E-04 2.49361E-05-1.60475E-06
 -1     12864 1.03868E-04 3.37489E-05-1.59586E-06
 -1     12869 1.01334E-04 3.29255E-05-1.68375E-06
 -1     12870 1.03866E-04 2.49361E-05-1.77657E-06
 -1     12871 1.03868E-04 3.37489E-05-1.77179E-06
 -1     12876 1.01334E-04 3.29255E-05-1.85912E-06
 -1     12877 1.03866E-04 2.49361E-05-1.94891E-06
 -1     12878 1.03868E-04 3.37489E-05-1.94658E-06
 -1     12883 1.01334E-04 3.29255E-05-2.03367E-06
 -1     12884 1.03866E-04 2.49361E-05-2.12152E-06
 -1     12885 1.03868E-04 3.37489E-05-2.12083E-06
 -1     12890 1.01334E-04 3.29255E-05-2.20786E-06
 -1     12891 1.03866E-04 2.49361E-05-2.29421E-06
 -1     12892 1.03868E-04 3.37489E-05-2.29490E-06
 -1     12897 1.01334E-04 3.29255E-05-2.38206E-06
 -1     12898 1.03866E-04 2.49361E-05-2.46682E-06
 -1     12899 1.03868E-04 3.37489E-05-2.46914E-06
 -1     12904 1.01334E-04 3.29255E-05-2.55660E-06
 -1     12905 1.03866E-04 2.49361E-05-2.63916E-06
 -1     12906 1.03868E-04 3.37489E-05-2.64394E-06
 -1     12911 1.01334E-04 3.29255E-05-2.73198E-06
 -1     12912 1.03866E-04 2.49361E-05-2.81098E-06
 -1     12913 1.03868E-04 3.37489E-05-2.81987E-06
 -1     12918 1.01334E-04 3.29255E-05-2.90897E-06
 -1     12919 1.03866E-04 2.49361E-05-2.98190E-06
 -1     12920 1.03868E-04 3.37489E-05-2.99788E-06
 -1     12925 1.01335E-04 3.29256E-05-3.08916E-06
 -1     12929 9.49363E-05 4.83725E-05-1.32657E-06
 -1     12930 9.86868E-05 4.08774E-05-1.43383E-06
 -1     12931 9.73102E-05 4.95820E-05-1.41785E-06
 -1     12936 9.49361E-05 4.83723E-05-1.50675E-06
 -1     12937 9.86868E-05 4.08774E-05-1.60475E-06
 -1     12938 9.73101E-05 4.95820E-05-1.59586E-06
 -1     12943 9.49360E-05 4.83723E-05-1.68375E-06
 -1     12944 9.86868E-05 4.08774E-05-1.77657E-06
 -1     12945 9.73101E-05 4.95820E-05-1.77179E-06
 -1     12950 9.49361E-05 4.83723E-05-1.85912E-06
 -1     12951 9.86868E-05 4.08774E-05-1.94891E-06
 -1     12952 9.73101E-05 4.95820E-05-1.94658E-06
 -1     12957 9.49361E-05 4.83724E-05-2.03367E-06
 -1     12958 9.86868E-05 4.08774E-05-2.12152E-06
 -1     12959 9.73101E-05 4.95820E-05-2.12083E-06
 -1     12964 9.49361E-05 4.83724E-05-2.20786E-06
 -1     12965 9.86868E-05 4.08774E-05-2.29421E-06
 -1     12966 9.73101E-05 4.95820E-05-2.29490E-06
 -1     12971 9.49361E-05 4.83724E-05-2.38206E-06
 -1     12972 9.86868E-05 4.08774E-05-2.46682E-06
 -1     12973 9.73101E-05 4.95820E-05-2.46914E-06
 -1     12978 9.49361E-05 4.83723E-05-2.55660E-06
 -1     12979 9.86868E-05 4.08774E-05-2.63916E-06
 -1     12980 9.73101E-05 4.95820E-05-2.64394E-06
 -1     12985 9.49360E-05 4.83723E-05-2.73198E-06
 -1     12986 9.86868E-05 4.08774E-05-2.81098E-06
 -1     12987 9.73101E-05 4.95820E-05-2.81987E-06
 -1     12992 9.49361E-05 4.83723E-05-2.90897E-06
 -1     12993 9.86868E-05 4.08774E-05-2.98190E-06
 -1     12994 9.73102E-05 4.95820E-05-2.99788E-06
 -1     12999 9.49363E-05 4.83725E-05-3.08916E-06
 -1     13003 8.62004E-05 6.26282E-05-1.32657E-06
 -1     13004 9.10771E-05 5.58121E-05-1.43383E-06
 -1     13005 8.83558E-05 6.41942E-05-1.41785E-06
 -1     13010 8.62001E-05 6.26281E-05-1.50675E-06
 -1     13011 9.10772E-05 5.58122E-05-1.60475E-06
 -1     13012 8.83557E-05 6.41942E-05-1.59586E-06
 -1     13017 8.62001E-05 6.26280E-05-1.68375E-06
 -1     13018 9.10772E-05 5.58122E-05-1.77657E-06
 -1     13019 8.83557E-05 6.41942E-05-1.77179E-06
 -1     13024 8.62001E-05 6.26281E-05-1.85912E-06
 -1     13025 9.10772E-05 5.58122E-05-1.94891E-06
 -1     13026 8.83557E-05 6.41942E-05-1.94658E-06
 -1     13031 8.62002E-05 6.26281E-05-2.03367E-06
 -1     13032 9.10772E-05 5.58122E-05-2.12152E-06
 -1     13033 8.83558E-05 6.41942E-05-2.12083E-06
 -1     13038 8.62002E-05 6.26281E-05-2.20786E-06
 -1     13039 9.10772E-05 5.58122E-05-2.29421E-06
 -1     13040 8.83558E-05 6.41942E-05-2.29490E-06
 -1     13045 8.62002E-05 6.26281E-05-2.38206E-06
 -1     13046 9.10772E-05 5.58122E-05-2.46682E-06
 -1     13047 8.83557E-05 6.41942E-05-2.46914E-06
 -1     13052 8.62001E-05 6.26281E-05-2.55660E-06
 -1     13053 9.10772E-05 5.58122E-05-2.63916E-06
 -1     13054 8.83557E-05 6.41942E-05-2.64394E-06
 -1     13059 8.62001E-05 6.26280E-05-2.73198E-06
 -1     13060 9.10772E-05 5.58122E-05-2.81098E-06
 -1     13061 8.83557E-05 6.41942E-05-2.81987E-06
 -1     13066 8.62001E-05 6.26281E-05-2.90897E-06
 -1     13067 9.10771E-05 5.58121E-05-2.98190E-06
 -1     13068 8.83558E-05 6.41942E-05-2.99788E-06
 -1     13073 8.62004E-05 6.26282E-05-3.08916E-06
 -1     13077 7.53419E-05 7.53419E-05-1.32657E-06
 -1     13078 8.12249E-05 6.93726E-05-1.43383E-06
 -1     13079 7.72258E-05 7.72258E-05-1.41785E-06
 -1     13084 7.53417E-05 7.53417E-05-1.50675E-06
 -1     13085 8.12249E-05 6.93726E-05-1.60475E-06
 -1     13086 7.72257E-05 7.72257E-05-1.59586E-06
 -1     13091 7.53417E-05 7.53417E-05-1.68375E-06
 -1     13092 8.12249E-05 6.93726E-05-1.77657E-06
 -1     13093 7.72257E-05 7.72257E-05-1.77179E-06
 -1     13098 7.53417E-05 7.53417E-05-1.85912E-06
 -1     13099 8.12249E-05 6.93726E-05-1.94891E-06
 -1     13100 7.72257E-05 7.72257E-05-1.94658E-06
 -1     13105 7.53417E-05 7.53417E-05-2.03367E-06
 -1     13106 8.12249E-05 6.93726E-05-2.12152E-06
 -1     13107 7.72258E-05 7.72258E-05-2.12083E-06
 -1     13112 7.53417E-05 7.53417E-05-2.20786E-06
 -1     13113 8.12249E-05 6.93726E-05-2.29421E-06
 -1     13114 7.72258E-05 7.72258E-05-2.29490E-06
 -1     13119 7.53417E-05 7.53417E-05-2.38206E-06
 -1     13120 8.12249E-05 6.93726E-05-2.46682E-06
 -1     13121 7.72257E-05 7.72257E-05-2.46914E-06
 -1     13126 7.53417E-05 7.53417E-05-2.55660E-06
 -1     13127 8.12249E-05 6.93726E-05-2.63916E-06
 -1     13128 7.72257E-05 7.72257E-05-2.64394E-06
 -1     13133 7.53417E-05 7.53417E-05-2.73198E-06
 -1     13134 8.12249E-05 6.93726E-05-2.81098E-06
 -1     13135 7.72257E-05 7.72257E-05-2.81987E-06
 -1     13140 7.53417E-05 7.53417E-05-2.90897E-06
 -1     13141 8.12249E-05 6.93726E-05-2.98190E-06
 -1     13142 7.72258E-05 7.72258E-05-2.99788E-06
 -1     13147 7.53419E-05 7.53419E-05-3.08916E-06
 -1     13151 6.26282E-05 8.62004E-05-1.32657E-06
 -1     13152 6.93726E-05 8.12249E-05-1.43383E-06
 -1     13153 6.41942E-05 8.83558E-05-1.41785E-06
 -1     13158 6.26281E-05 8.62001E-05-1.50675E-06
 -1     13159 6.93726E-05 8.12249E-05-1.60475E-06
 -1     13160 6.41942E-05 8.83557E-05-1.59586E-06
 -1     13165 6.26280E-05 8.62001E-05-1.68375E-06
 -1     13166 6.93726E-05 8.12249E-05-1.77657E-06
 -1     13167 6.41942E-05 8.83557E-05-1.77179E-06
 -1     13172 6.26281E-05 8.62001E-05-1.85912E-06
 -1     13173 6.93726E-05 8.12249E-05-1.94891E-06
 -1     13174 6.41942E-05 8.83557E-05-1.94658E-06
 -1     13179 6.26281E-05 8.62002E-05-2.03367E-06
 -1     13180 6.93726E-05 8.12249E-05-2.12152E-06
 -1     13181 6.41942E-05 8.83558E-05-2.12083E-06
 -1     13186 6.26281E-05 8.62002E-05-2.20786E-06
 -1     13187 6.93726E-05 8.12249E-05-2.29421E-06
 -1     13188 6.41942E-05 8.83558E-05-2.29490E-06
 -1     13193 6.26281E-05 8.62002E-05-2.38206E-06
 -1     13194 6.93726E-05 8.12249E-05-2.46682E-06
 -1     13195 6.41942E-05 8.83557E-05-2.46914E-06
 -1     13200 6.26281E-05 8.62001E-05-2.55660E-06
 -1     13201 6.93726E-05 8.12249E-05-2.63916E-06
 -1     13202 6.41942E-05 8.83557E-05-2.64394E-06
 -1     13207 6.26280E-05 8.62001E-05-2.73198E-06
 -1     13208 6.93726E-05 8.12249E-05-2.81098E-06
 -1     13209 6.41942E-05 8.83557E-05-2.81987E-06
 -1     13214 6.26281E-05 8.62001E-05-2.90897E-06
 -1     13215 6.93726E-05 8.12249E-05-2.98190E-06
 -1     13216 6.41942E-05 8.83558E-05-2.99788E-06
 -1     13221 6.26282E-05 8.62004E-05-3.08916E-06
 -1     13225 4.83725E-05 9.49363E-05-1.32657E-06
 -1     13226 5.58121E-05 9.10771E-05-1.43383E-06
 -1     13227 4.95820E-05 9.73102E-05-1.41785E-06
 -1     13232 4.83723E-05 9.49361E-05-1.50675E-06
 -1     13233 5.58122E-05 9.10772E-05-1.60475E-06
 -1     13234 4.95820E-05 9.73101E-05-1.59586E-06
 -1     13239 4.83723E-05 9.49360E-05-1.68375E-06
 -1     13240 5.58122E-05 9.10772E-05-1.77657E-06
 -1     13241 4.95820E-05 9.73101E-05-1.77179E-06
 -1     13246 4.83723E-05 9.49361E-05-1.85912E-06
 -1     13247 5.58122E-05 9.10772E-05-1.94891E-06
 -1     13248 4.95820E-05 9.73101E-05-1.94658E-06
 -1     13253 4.83724E-05 9.49361E-05-2.03367E-06
 -1     13254 5.58122E-05 9.10772E-05-2.12152E-06
 -1     13255 4.95820E-05 9.73101E-05-2.12083E-06
 -1     13260 4.83724E-05 9.49361E-05-2.20786E-06
 -1     13261 5.58122E-05 9.10772E-05-2.29421E-06
 -1     13262 4.95820E-05 9.73101E-05-2.29490E-06
 -1     13267 4.83724E-05 9.49361E-05-2.38206E-06
 -1     13268 5.58122E-05 9.10772E-05-2.46682E-06
 -1     13269 4.95820E-05 9.73101E-05-2.46914E-06
 -1     13274 4.83723E-05 9.49361E-05-2.55660E-06
 -1     13275 5.58122E-05 9.10772E-05-2.63916E-06
 -1     13276 4.95820E-05 9.73101E-05-2.64394E-06
 -1     13281 4.83723E-05 9.49360E-05-2.73198E-06
 -1     13282 5.58122E-05 9.10772E-05-2.81098E-06
 -1     13283 4.95820E-05 9.73101E-05-2.81987E-06
 -1     13288 4.83723E-05 9.49361E-05-2.90897E-06
 -1     13289 5.58121E-05 9.10771E-05-2.98190E-06
 -1     13290 4.95820E-05 9.73102E-05-2.99788E-06
 -1     13295 4.83725E-05 9.49363E-05-3.08916E-06
 -1     13299 3.29256E-05 1.01335E-04-1.32657E-06
 -1     13300 4.08774E-05 9.86868E-05-1.43383E-06
 -1     13301 3.37489E-05 1.03868E-04-1.41785E-06
 -1     13306 3.29255E-05 1.01334E-04-1.50675E-06
 -1     13307 4.08774E-05 9.86868E-05-1.60475E-06
 -1     13308 3.37489E-05 1.03868E-04-1.59586E-06
 -1     13313 3.29255E-05 1.01334E-04-1.68375E-06
 -1     13314 4.08774E-05 9.86868E-05-1.77657E-06
 -1     13315 3.37489E-05 1.03868E-04-1.77179E-06
 -1     13320 3.29255E-05 1.01334E-04-1.85912E-06
 -1     13321 4.08774E-05 9.86868E-05-1.94891E-06
 -1     13322 3.37489E-05 1.03868E-04-1.94658E-06
 -1     13327 3.29255E-05 1.01334E-04-2.03367E-06
 -1     13328 4.08774E-05 9.86868E-05-2.12152E-06
 -1     13329 3.37489E-05 1.03868E-04-2.12083E-06
 -1     13334 3.29255E-05 1.01334E-04-2.20786E-06
 -1     13335 4.08774E-05 9.86868E-05-2.29421E-06
 -1     13336 3.37489E-05 1.03868E-04-2.29490E-06
 -1     13341 3.29255E-05 1.01334E-04-2.38206E-06
 -1     13342 4.08774E-05 9.86868E-05-2.46682E-06
 -1     13343 3.37489E-05 1.03868E-04-2.46914E-06
 -1     13348 3.29255E-05 1.01334E-04-2.55660E-06
 -1     13349 4.08774E-05 9.86868E-05-2.63916E-06
 -1     13350 3.37489E-05 1.03868E-04-2.64394E-06
 -1     13355 3.29255E-05 1.01334E-04-2.73198E-06
 -1     13356 4.08774E-05 9.86868E-05-2.81098E-06
 -1     13357 3.37489E-05 1.03868E-04-2.81987E-06
 -1     13362 3.29255E-05 1.01334E-04-2.90897E-06
 -1     13363 4.08774E-05 9.86868E-05-2.98190E-06
 -1     13364 3.37489E-05 1.03868E-04-2.99788E-06
 -1     13369 3.29256E-05 1.01335E-04-3.08916E-06
 -1     13373 1.66680E-05 1.05238E-04-1.32657E-06
 -1     13374 2.49361E-05 1.03866E-04-1.43383E-06
 -1     13375 1.70848E-05 1.07869E-04-1.41785E-06
 -1     13380 1.66680E-05 1.05237E-04-1.50675E-06
 -1     13381 2.49361E-05 1.03866E-04-1.60475E-06
 -1     13382 1.70848E-05 1.07869E-04-1.59586E-06
 -1     13387 1.66680E-05 1.05237E-04-1.68375E-06
 -1     13388 2.49361E-05 1.03866E-04-1.77657E-06
 -1     13389 1.70848E-05 1.07869E-04-1.77179E-06
 -1     13394 1.66680E-05 1.05237E-04-1.85912E-06
 -1     13395 2.49361E-05 1.03866E-04-1.94891E-06
 -1     13396 1.70848E-05 1.07869E-04-1.94658E-06
 -1     13401 1.66680E-05 1.05237E-04-2.03367E-06
 -1     13402 2.49361E-05 1.03866E-04-2.12152E-06
 -1     13403 1.70848E-05 1.07869E-04-2.12083E-06
 -1     13408 1.66680E-05 1.05237E-04-2.20786E-06
 -1     13409 2.49361E-05 1.03866E-04-2.29421E-06
 -1     13410 1.70848E-05 1.07869E-04-2.29490E-06
 -1     13415 1.66680E-05 1.05237E-04-2.38206E-06
 -1     13416 2.49361E-05 1.03866E-04-2.46682E-06
 -1     13417 1.70848E-05 1.07869E-04-2.46914E-06
 -1     13422 1.66680E-05 1.05237E-04-2.55660E-06
 -1     13423 2.49361E-05 1.03866E-04-2.63916E-06
 -1     13424 1.70848E-05 1.07869E-04-2.64394E-06
 -1     13429 1.66680E-05 1.05237E-04-2.73198E-06
 -1     13430 2.49361E-05 1.03866E-04-2.81098E-06
 -1     13431 1.70848E-05 1.07869E-04-2.81987E-06
 -1     13436 1.66680E-05 1.05237E-04-2.90897E-06
 -1     13437 2.49361E-05 1.03866E-04-2.98190E-06
 -1     13438 1.70848E-05 1.07869E-04-2.99788E-06
 -1     13443 1.66680E-05 1.05238E-04-3.08916E-06
 -1     13447 8.38083E-06 1.06489E-04-1.43383E-06
 -1     13451 8.38083E-06 1.06489E-04-1.60475E-06
 -1     13455 8.38083E-06 1.06489E-04-1.77657E-06
 -1     13459 8.38083E-06 1.06489E-04-1.94891E-06
 -1     13463 8.38083E-06 1.06489E-04-2.12152E-06
 -1     13467 8.38083E-06 1.06489E-04-2.29421E-06
 -1     13471 8.38083E-06 1.06489E-04-2.46682E-06
 -1     13475 8.38083E-06 1.06489E-04-2.63916E-06
 -1     13479 8.38083E-06 1.06489E-04-2.81098E-06
 -1     13483 8.38083E-06 1.06489E-04-2.98190E-06
 -1     13489 1.00458E-04 1.59110E-05-1.32736E-06
 -1     13490 1.01646E-04 7.99972E-06-1.43373E-06
 -1     13491 1.02771E-04 1.62774E-05-1.41810E-06
 -1     13496 1.00458E-04 1.59110E-05-1.50690E-06
 -1     13497 1.01646E-04 7.99973E-06-1.60477E-06
 -1     13498 1.02771E-04 1.62774E-05-1.59582E-06
 -1     13503 1.00458E-04 1.59110E-05-1.68369E-06
 -1     13504 1.01646E-04 7.99973E-06-1.77662E-06
 -1     13505 1.02771E-04 1.62774E-05-1.77167E-06
 -1     13510 1.00458E-04 1.59110E-05-1.85903E-06
 -1     13511 1.01646E-04 7.99972E-06-1.94895E-06
 -1     13512 1.02771E-04 1.62774E-05-1.94649E-06
 -1     13517 1.00458E-04 1.59110E-05-2.03361E-06
 -1     13518 1.01646E-04 7.99972E-06-2.12153E-06
 -1     13519 1.02771E-04 1.62774E-05-2.12079E-06
 -1     13524 1.00458E-04 1.59110E-05-2.20786E-06
 -1     13525 1.01646E-04 7.99972E-06-2.29419E-06
 -1     13526 1.02771E-04 1.62774E-05-2.29493E-06
 -1     13531 1.00458E-04 1.59110E-05-2.38211E-06
 -1     13532 1.01646E-04 7.99972E-06-2.46677E-06
 -1     13533 1.02771E-04 1.62774E-05-2.46923E-06
 -1     13538 1.00458E-04 1.59110E-05-2.55669E-06
 -1     13539 1.01646E-04 7.99973E-06-2.63911E-06
 -1     13540 1.02771E-04 1.62774E-05-2.64405E-06
 -1     13545 1.00458E-04 1.59110E-05-2.73203E-06
 -1     13546 1.01646E-04 7.99973E-06-2.81096E-06
 -1     13547 1.02771E-04 1.62774E-05-2.81991E-06
 -1     13552 1.00458E-04 1.59110E-05-2.90883E-06
 -1     13553 1.01646E-04 7.99972E-06-2.98200E-06
 -1     13554 1.02771E-04 1.62774E-05-2.99762E-06
 -1     13559 1.00458E-04 1.59110E-05-3.08837E-06
 -1     13563 9.67323E-05 3.14302E-05-1.32736E-06
 -1     13564 9.91432E-05 2.38022E-05-1.43373E-06
 -1     13565 9.89597E-05 3.21539E-05-1.41810E-06
 -1     13570 9.67320E-05 3.14301E-05-1.50690E-06
 -1     13571 9.91433E-05 2.38022E-05-1.60477E-06
 -1     13572 9.89596E-05 3.21539E-05-1.59582E-06
 -1     13577 9.67320E-05 3.14301E-05-1.68369E-06
 -1     13578 9.91433E-05 2.38022E-05-1.77662E-06
 -1     13579 9.89596E-05 3.21539E-05-1.77167E-06
 -1     13584 9.67320E-05 3.14301E-05-1.85903E-06
 -1     13585 9.91433E-05 2.38022E-05-1.94895E-06
 -1     13586 9.89596E-05 3.21539E-05-1.94649E-06
 -1     13591 9.67320E-05 3.14301E-05-2.03361E-06
 -1     13592 9.91433E-05 2.38022E-05-2.12153E-06
 -1     13593 9.89596E-05 3.21539E-05-2.12079E-06
 -1     13598 9.67320E-05 3.14301E-05-2.20786E-06
 -1     13599 9.91433E-05 2.38022E-05-2.29419E-06
 -1     13600 9.89596E-05 3.21539E-05-2.29493E-06
 -1     13605 9.67320E-05 3.14301E-05-2.38211E-06
 -1     13606 9.91433E-05 2.38022E-05-2.46677E-06
 -1     13607 9.89596E-05 3.21539E-05-2.46923E-06
 -1     13612 9.67320E-05 3.14301E-05-2.55669E-06
 -1     13613 9.91433E-05 2.38022E-05-2.63911E-06
 -1     13614 9.89596E-05 3.21539E-05-2.64405E-06
 -1     13619 9.67320E-05 3.14301E-05-2.73203E-06
 -1     13620 9.91433E-05 2.38022E-05-2.81096E-06
 -1     13621 9.89596E-05 3.21539E-05-2.81991E-06
 -1     13626 9.67320E-05 3.14301E-05-2.90883E-06
 -1     13627 9.91432E-05 2.38022E-05-2.98200E-06
 -1     13628 9.89597E-05 3.21539E-05-2.99762E-06
 -1     13633 9.67323E-05 3.14302E-05-3.08837E-06
 -1     13637 9.06246E-05 4.61755E-05-1.32736E-06
 -1     13638 9.41991E-05 3.90186E-05-1.43373E-06
 -1     13639 9.27113E-05 4.72388E-05-1.41810E-06
 -1     13644 9.06243E-05 4.61754E-05-1.50690E-06
 -1     13645 9.41992E-05 3.90186E-05-1.60477E-06
 -1     13646 9.27112E-05 4.72387E-05-1.59582E-06
 -1     13651 9.06243E-05 4.61754E-05-1.68369E-06
 -1     13652 9.41992E-05 3.90186E-05-1.77662E-06
 -1     13653 9.27112E-05 4.72387E-05-1.77167E-06
 -1     13658 9.06243E-05 4.61754E-05-1.85903E-06
 -1     13659 9.41992E-05 3.90186E-05-1.94895E-06
 -1     13660 9.27113E-05 4.72387E-05-1.94649E-06
 -1     13665 9.06243E-05 4.61754E-05-2.03361E-06
 -1     13666 9.41992E-05 3.90186E-05-2.12153E-06
 -1     13667 9.27113E-05 4.72388E-05-2.12079E-06
 -1     13672 9.06243E-05 4.61754E-05-2.20786E-06
 -1     13673 9.41992E-05 3.90186E-05-2.29419E-06
 -1     13674 9.27113E-05 4.72388E-05-2.29493E-06
 -1     13679 9.06243E-05 4.61754E-05-2.38211E-06
 -1     13680 9.41992E-05 3.90186E-05-2.46677E-06
 -1     13681 9.27113E-05 4.72387E-05-2.46923E-06
 -1     13686 9.06243E-05 4.61754E-05-2.55669E-06
 -1     13687 9.41992E-05 3.90186E-05-2.63911E-06
 -1     13688 9.27112E-05 4.72387E-05-2.64405E-06
 -1     13693 9.06243E-05 4.61754E-05-2.73203E-06
 -1     13694 9.41992E-05 3.90186E-05-2.81096E-06
 -1     13695 9.27112E-05 4.72387E-05-2.81991E-06
 -1     13700 9.06243E-05 4.61754E-05-2.90883E-06
 -1     13701 9.41991E-05 3.90186E-05-2.98200E-06
 -1     13702 9.27113E-05 4.72388E-05-2.99762E-06
 -1     13707 9.06246E-05 4.61755E-05-3.08837E-06
 -1     13711 8.22854E-05 5.97838E-05-1.32736E-06
 -1     13712 8.69355E-05 5.32742E-05-1.43373E-06
 -1     13713 8.41801E-05 6.11604E-05-1.41810E-06
 -1     13718 8.22852E-05 5.97837E-05-1.50690E-06
 -1     13719 8.69356E-05 5.32742E-05-1.60477E-06
 -1     13720 8.41800E-05 6.11604E-05-1.59582E-06
 -1     13725 8.22851E-05 5.97836E-05-1.68369E-06
 -1     13726 8.69356E-05 5.32742E-05-1.77662E-06
 -1     13727 8.41800E-05 6.11604E-05-1.77167E-06
 -1     13732 8.22852E-05 5.97837E-05-1.85903E-06
 -1     13733 8.69356E-05 5.32742E-05-1.94895E-06
 -1     13734 8.41801E-05 6.11604E-05-1.94649E-06
 -1     13739 8.22852E-05 5.97837E-05-2.03361E-06
 -1     13740 8.69356E-05 5.32742E-05-2.12153E-06
 -1     13741 8.41801E-05 6.11604E-05-2.12079E-06
 -1     13746 8.22852E-05 5.97837E-05-2.20786E-06
 -1     13747 8.69356E-05 5.32742E-05-2.29419E-06
 -1     13748 8.41801E-05 6.11604E-05-2.29493E-06
 -1     13753 8.22852E-05 5.97837E-05-2.38211E-06
 -1     13754 8.69356E-05 5.32742E-05-2.46677E-06
 -1     13755 8.41801E-05 6.11604E-05-2.46923E-06
 -1     13760 8.22852E-05 5.97837E-05-2.55669E-06
 -1     13761 8.69356E-05 5.32742E-05-2.63911E-06
 -1     13762 8.41800E-05 6.11604E-05-2.64405E-06
 -1     13767 8.22851E-05 5.97836E-05-2.73203E-06
 -1     13768 8.69356E-05 5.32742E-05-2.81096E-06
 -1     13769 8.41800E-05 6.11604E-05-2.81991E-06
 -1     13774 8.22852E-05 5.97837E-05-2.90883E-06
 -1     13775 8.69355E-05 5.32742E-05-2.98200E-06
 -1     13776 8.41801E-05 6.11604E-05-2.99762E-06
 -1     13781 8.22854E-05 5.97838E-05-3.08837E-06
 -1     13785 7.19201E-05 7.19201E-05-1.32736E-06
 -1     13786 7.75313E-05 6.62180E-05-1.43373E-06
 -1     13787 7.35761E-05 7.35761E-05-1.41810E-06
 -1     13792 7.19199E-05 7.19199E-05-1.50690E-06
 -1     13793 7.75313E-05 6.62180E-05-1.60477E-06
 -1     13794 7.35760E-05 7.35760E-05-1.59582E-06
 -1     13799 7.19198E-05 7.19198E-05-1.68369E-06
 -1     13800 7.75313E-05 6.62180E-05-1.77662E-06
 -1     13801 7.35760E-05 7.35760E-05-1.77167E-06
 -1     13806 7.19199E-05 7.19199E-05-1.85903E-06
 -1     13807 7.75313E-05 6.62180E-05-1.94895E-06
 -1     13808 7.35761E-05 7.35761E-05-1.94649E-06
 -1     13813 7.19199E-05 7.19199E-05-2.03361E-06
 -1     13814 7.75313E-05 6.62180E-05-2.12153E-06
 -1     13815 7.35761E-05 7.35761E-05-2.12079E-06
 -1     13820 7.19199E-05 7.19199E-05-2.20786E-06
 -1     13821 7.75313E-05 6.62180E-05-2.29419E-06
 -1     13822 7.35761E-05 7.35761E-05-2.29493E-06
 -1     13827 7.19199E-05 7.19199E-05-2.38211E-06
 -1     13828 7.75313E-05 6.62180E-05-2.46677E-06
 -1     13829 7.35761E-05 7.35761E-05-2.46923E-06
 -1     13834 7.19199E-05 7.19199E-05-2.55669E-06
 -1     13835 7.75313E-05 6.62180E-05-2.63911E-06
 -1     13836 7.35760E-05 7.35760E-05-2.64405E-06
 -1     13841 7.19198E-05 7.19198E-05-2.73203E-06
 -1     13842 7.75313E-05 6.62180E-05-2.81096E-06
 -1     13843 7.35760E-05 7.35760E-05-2.81991E-06
 -1     13848 7.19199E-05 7.19199E-05-2.90883E-06
 -1     13849 7.75313E-05 6.62180E-05-2.98200E-06
 -1     13850 7.35761E-05 7.35761E-05-2.99762E-06
 -1     13855 7.19201E-05 7.19201E-05-3.08837E-06
 -1     13859 5.97838E-05 8.22854E-05-1.32736E-06
 -1     13860 6.62180E-05 7.75313E-05-1.43373E-06
 -1     13861 6.11604E-05 8.41801E-05-1.41810E-06
 -1     13866 5.97837E-05 8.22852E-05-1.50690E-06
 -1     13867 6.62180E-05 7.75313E-05-1.60477E-06
 -1     13868 6.11604E-05 8.41800E-05-1.59582E-06
 -1     13873 5.97836E-05 8.22851E-05-1.68369E-06
 -1     13874 6.62180E-05 7.75313E-05-1.77662E-06
 -1     13875 6.11604E-05 8.41800E-05-1.77167E-06
 -1     13880 5.97837E-05 8.22852E-05-1.85903E-06
 -1     13881 6.62180E-05 7.75313E-05-1.94895E-06
 -1     13882 6.11604E-05 8.41801E-05-1.94649E-06
 -1     13887 5.97837E-05 8.22852E-05-2.03361E-06
 -1     13888 6.62180E-05 7.75313E-05-2.12153E-06
 -1     13889 6.11604E-05 8.41801E-05-2.12079E-06
 -1     13894 5.97837E-05 8.22852E-05-2.20786E-06
 -1     13895 6.62180E-05 7.75313E-05-2.29419E-06
 -1     13896 6.11604E-05 8.41801E-05-2.29493E-06
 -1     13901 5.97837E-05 8.22852E-05-2.38211E-06
 -1     13902 6.62180E-05 7.75313E-05-2.46677E-06
 -1     13903 6.11604E-05 8.41801E-05-2.46923E-06
 -1     13908 5.97837E-05 8.22852E-05-2.55669E-06
 -1     13909 6.62180E-05 7.75313E-05-2.63911E-06
 -1     13910 6.11604E-05 8.41800E-05-2.64405E-06
 -1     13915 5.97836E-05 8.22851E-05-2.73203E-06
 -1     13916 6.62180E-05 7.75313E-05-2.81096E-06
 -1     13917 6.11604E-05 8.41800E-05-2.81991E-06
 -1     13922 5.97837E-05 8.22852E-05-2.90883E-06
 -1     13923 6.62180E-05 7.75313E-05-2.98200E-06
 -1     13924 6.11604E-05 8.41801E-05-2.99762E-06
 -1     13929 5.97838E-05 8.22854E-05-3.08837E-06
 -1     13933 4.61755E-05 9.06246E-05-1.32736E-06
 -1     13934 5.32742E-05 8.69355E-05-1.43373E-06
 -1     13935 4.72388E-05 9.27113E-05-1.41810E-06
 -1     13940 4.61754E-05 9.06243E-05-1.50690E-06
 -1     13941 5.32742E-05 8.69356E-05-1.60477E-06
 -1     13942 4.72387E-05 9.27112E-05-1.59582E-06
 -1     13947 4.61754E-05 9.06243E-05-1.68369E-06
 -1     13948 5.32742E-05 8.69356E-05-1.77662E-06
 -1     13949 4.72387E-05 9.27112E-05-1.77167E-06
 -1     13954 4.61754E-05 9.06243E-05-1.85903E-06
 -1     13955 5.32742E-05 8.69356E-05-1.94895E-06
 -1     13956 4.72387E-05 9.27113E-05-1.94649E-06
 -1     13961 4.61754E-05 9.06243E-05-2.03361E-06
 -1     13962 5.32742E-05 8.69356E-05-2.12153E-06
 -1     13963 4.72388E-05 9.27113E-05-2.12079E-06
 -1     13968 4.61754E-05 9.06243E-05-2.20786E-06
 -1     13969 5.32742E-05 8.69356E-05-2.29419E-06
 -1     13970 4.72388E-05 9.27113E-05-2.29493E-06
 -1     13975 4.61754E-05 9.06243E-05-2.38211E-06
 -1     13976 5.32742E-05 8.69356E-05-2.46677E-06
 -1     13977 4.72387E-05 9.27113E-05-2.46923E-06
 -1     13982 4.61754E-05 9.06243E-05-2.55669E-06
 -1     13983 5.32742E-05 8.69356E-05-2.63911E-06
 -1     13984 4.72387E-05 9.27112E-05-2.64405E-06
 -1     13989 4.61754E-05 9.06243E-05-2.73203E-06
 -1     13990 5.32742E-05 8.69356E-05-2.81096E-06
 -1     13991 4.72387E-05 9.27112E-05-2.81991E-06
 -1     13996 4.61754E-05 9.06243E-05-2.90883E-06
 -1     13997 5.32742E-05 8.69355E-05-2.98200E-06
 -1     13998 4.72388E-05 9.27113E-05-2.99762E-06
 -1     14003 4.61755E-05 9.06246E-05-3.08837E-06
 -1     14007 3.14302E-05 9.67323E-05-1.32736E-06
 -1     14008 3.90186E-05 9.41991E-05-1.43373E-06
 -1     14009 3.21539E-05 9.89597E-05-1.41810E-06
 -1     14014 3.14301E-05 9.67320E-05-1.50690E-06
 -1     14015 3.90186E-05 9.41992E-05-1.60477E-06
 -1     14016 3.21539E-05 9.89596E-05-1.59582E-06
 -1     14021 3.14301E-05 9.67320E-05-1.68369E-06
 -1     14022 3.90186E-05 9.41992E-05-1.77662E-06
 -1     14023 3.21539E-05 9.89596E-05-1.77167E-06
 -1     14028 3.14301E-05 9.67320E-05-1.85903E-06
 -1     14029 3.90186E-05 9.41992E-05-1.94895E-06
 -1     14030 3.21539E-05 9.89596E-05-1.94649E-06
 -1     14035 3.14301E-05 9.67320E-05-2.03361E-06
 -1     14036 3.90186E-05 9.41992E-05-2.12153E-06
 -1     14037 3.21539E-05 9.89596E-05-2.12079E-06
 -1     14042 3.14301E-05 9.67320E-05-2.20786E-06
 -1     14043 3.90186E-05 9.41992E-05-2.29419E-06
 -1     14044 3.21539E-05 9.89596E-05-2.29493E-06
 -1     14049 3.14301E-05 9.67320E-05-2.38211E-06
 -1     14050 3.90186E-05 9.41992E-05-2.46677E-06
 -1     14051 3.21539E-05 9.89596E-05-2.46923E-06
 -1     14056 3.14301E-05 9.67320E-05-2.55669E-06
 -1     14057 3.90186E-05 9.41992E-05-2.63911E-06
 -1     14058 3.21539E-05 9.89596E-05-2.64405E-06
 -1     14063 3.14301E-05 9.67320E-05-2.73203E-06
 -1     14064 3.90186E-05 9.41992E-05-2.81096E-06
 -1     14065 3.21539E-05 9.89596E-05-2.81991E-06
 -1     14070 3.14301E-05 9.67320E-05-2.90883E-06
 -1     14071 3.90186E-05 9.41991E-05-2.98200E-06
 -1     14072 3.21539E-05 9.89597E-05-2.99762E-06
 -1     14077 3.14302E-05 9.67323E-05-3.08837E-06
 -1     14081 1.59110E-05 1.00458E-04-1.32736E-06
 -1     14082 2.38022E-05 9.91432E-05-1.43373E-06
 -1     14083 1.62774E-05 1.02771E-04-1.41810E-06
 -1     14088 1.59110E-05 1.00458E-04-1.50690E-06
 -1     14089 2.38022E-05 9.91433E-05-1.60477E-06
 -1     14090 1.62774E-05 1.02771E-04-1.59582E-06
 -1     14095 1.59110E-05 1.00458E-04-1.68369E-06
 -1     14096 2.38022E-05 9.91433E-05-1.77662E-06
 -1     14097 1.62774E-05 1.02771E-04-1.77167E-06
 -1     14102 1.59110E-05 1.00458E-04-1.85903E-06
 -1     14103 2.38022E-05 9.91433E-05-1.94895E-06
 -1     14104 1.62774E-05 1.02771E-04-1.94649E-06
 -1     14109 1.59110E-05 1.00458E-04-2.03361E-06
 -1     14110 2.38022E-05 9.91433E-05-2.12153E-06
 -1     14111 1.62774E-05 1.02771E-04-2.12079E-06
 -1     14116 1.59110E-05 1.00458E-04-2.20786E-06
 -1     14117 2.38022E-05 9.91433E-05-2.29419E-06
 -1     14118 1.62774E-05 1.02771E-04-2.29493E-06
 -1     14123 1.59110E-05 1.00458E-04-2.38211E-06
 -1     14124 2.38022E-05 9.91433E-05-2.46677E-06
 -1     14125 1.62774E-05 1.02771E-04-2.46923E-06
 -1     14130 1.59110E-05 1.00458E-04-2.55669E-06
 -1     14131 2.38022E-05 9.91433E-05-2.63911E-06
 -1     14132 1.62774E-05 1.02771E-04-2.64405E-06
 -1     14137 1.59110E-05 1.00458E-04-2.73203E-06
 -1     14138 2.38022E-05 9.91433E-05-2.81096E-06
 -1     14139 1.62774E-05 1.02771E-04-2.81991E-06
 -1     14144 1.59110E-05 1.00458E-04-2.90883E-06
 -1     14145 2.38022E-05 9.91432E-05-2.98200E-06
 -1     14146 1.62774E-05 1.02771E-04-2.99762E-06
 -1     14151 1.59110E-05 1.00458E-04-3.08837E-06
 -1     14155 7.99972E-06 1.01646E-04-1.43373E-06
 -1     14159 7.99973E-06 1.01646E-04-1.60477E-06
 -1     14163 7.99973E-06 1.01646E-04-1.77662E-06
 -1     14167 7.99972E-06 1.01646E-04-1.94895E-06
 -1     14171 7.99972E-06 1.01646E-04-2.12153E-06
 -1     14175 7.99972E-06 1.01646E-04-2.29419E-06
 -1     14179 7.99972E-06 1.01646E-04-2.46677E-06
 -1     14183 7.99973E-06 1.01646E-04-2.63911E-06
 -1     14187 7.99973E-06 1.01646E-04-2.81096E-06
 -1     14191 7.99972E-06 1.01646E-04-2.98200E-06
 -1     14197 9.62394E-05 1.52428E-05-1.32806E-06
 -1     14198 9.73715E-05 7.66330E-06-1.43362E-06
 -1     14199 9.82839E-05 1.55666E-05-1.41837E-06
 -1     14204 9.62391E-05 1.52428E-05-1.50706E-06
 -1     14205 9.73716E-05 7.66331E-06-1.60477E-06
 -1     14206 9.82838E-05 1.55666E-05-1.59581E-06
 -1     14211 9.62391E-05 1.52428E-05-1.68366E-06
 -1     14212 9.73716E-05 7.66331E-06-1.77666E-06
 -1     14213 9.82838E-05 1.55666E-05-1.77159E-06
 -1     14218 9.62391E-05 1.52428E-05-1.85896E-06
 -1     14219 9.73716E-05 7.66331E-06-1.94899E-06
 -1     14220 9.82838E-05 1.55666E-05-1.94642E-06
 -1     14225 9.62391E-05 1.52428E-05-2.03357E-06
 -1     14226 9.73716E-05 7.66331E-06-2.12155E-06
 -1     14227 9.82838E-05 1.55666E-05-2.12076E-06
 -1     14232 9.62391E-05 1.52428E-05-2.20786E-06
 -1     14233 9.73716E-05 7.66331E-06-2.29418E-06
 -1     14234 9.82838E-05 1.55666E-05-2.29496E-06
 -1     14239 9.62391E-05 1.52428E-05-2.38216E-06
 -1     14240 9.73716E-05 7.66331E-06-2.46674E-06
 -1     14241 9.82838E-05 1.55666E-05-2.46931E-06
 -1     14246 9.62391E-05 1.52428E-05-2.55676E-06
 -1     14247 9.73716E-05 7.66331E-06-2.63907E-06
 -1     14248 9.82838E-05 1.55666E-05-2.64414E-06
 -1     14253 9.62391E-05 1.52428E-05-2.73207E-06
 -1     14254 9.73716E-05 7.66331E-06-2.81095E-06
 -1     14255 9.82838E-05 1.55666E-05-2.81992E-06
 -1     14260 9.62391E-05 1.52428E-05-2.90867E-06
 -1     14261 9.73715E-05 7.66330E-06-2.98211E-06
 -1     14262 9.82839E-05 1.55666E-05-2.99736E-06
 -1     14267 9.62394E-05 1.52428E-05-3.08766E-06
 -1     14271 9.26700E-05 3.01103E-05-1.32806E-06
 -1     14272 9.49739E-05 2.28012E-05-1.43362E-06
 -1     14273 9.46387E-05 3.07500E-05-1.41837E-06
 -1     14278 9.26698E-05 3.01102E-05-1.50706E-06
 -1     14279 9.49740E-05 2.28012E-05-1.60477E-06
 -1     14280 9.46386E-05 3.07499E-05-1.59581E-06
 -1     14285 9.26697E-05 3.01102E-05-1.68366E-06
 -1     14286 9.49740E-05 2.28012E-05-1.77666E-06
 -1     14287 9.46386E-05 3.07499E-05-1.77159E-06
 -1     14292 9.26697E-05 3.01102E-05-1.85896E-06
 -1     14293 9.49740E-05 2.28012E-05-1.94899E-06
 -1     14294 9.46386E-05 3.07499E-05-1.94642E-06
 -1     14299 9.26697E-05 3.01102E-05-2.03357E-06
 -1     14300 9.49740E-05 2.28012E-05-2.12155E-06
 -1     14301 9.46386E-05 3.07499E-05-2.12076E-06
 -1     14306 9.26698E-05 3.01102E-05-2.20786E-06
 -1     14307 9.49740E-05 2.28012E-05-2.29418E-06
 -1     14308 9.46386E-05 3.07499E-05-2.29496E-06
 -1     14313 9.26697E-05 3.01102E-05-2.38216E-06
 -1     14314 9.49740E-05 2.28012E-05-2.46674E-06
 -1     14315 9.46386E-05 3.07499E-05-2.46931E-06
 -1     14320 9.26697E-05 3.01102E-05-2.55676E-06
 -1     14321 9.49740E-05 2.28012E-05-2.63907E-06
 -1     14322 9.46386E-05 3.07499E-05-2.64414E-06
 -1     14327 9.26697E-05 3.01102E-05-2.73207E-06
 -1     14328 9.49740E-05 2.28012E-05-2.81095E-06
 -1     14329 9.46386E-05 3.07499E-05-2.81992E-06
 -1     14334 9.26698E-05 3.01102E-05-2.90867E-06
 -1     14335 9.49739E-05 2.28012E-05-2.98211E-06
 -1     14336 9.46387E-05 3.07500E-05-2.99736E-06
 -1     14341 9.26700E-05 3.01103E-05-3.08766E-06
 -1     14345 8.68188E-05 4.42364E-05-1.32806E-06
 -1     14346 9.02377E-05 3.73777E-05-1.43362E-06
 -1     14347 8.86632E-05 4.51761E-05-1.41837E-06
 -1     14352 8.68186E-05 4.42363E-05-1.50706E-06
 -1     14353 9.02378E-05 3.73777E-05-1.60477E-06
 -1     14354 8.86631E-05 4.51761E-05-1.59581E-06
 -1     14359 8.68185E-05 4.42363E-05-1.68366E-06
 -1     14360 9.02378E-05 3.73777E-05-1.77666E-06
 -1     14361 8.86631E-05 4.51761E-05-1.77159E-06
 -1     14366 8.68185E-05 4.42363E-05-1.85896E-06
 -1     14367 9.02378E-05 3.73777E-05-1.94899E-06
 -1     14368 8.86631E-05 4.51761E-05-1.94642E-06
 -1     14373 8.68186E-05 4.42363E-05-2.03357E-06
 -1     14374 9.02378E-05 3.73777E-05-2.12155E-06
 -1     14375 8.86631E-05 4.51761E-05-2.12076E-06
 -1     14380 8.68186E-05 4.42363E-05-2.20786E-06
 -1     14381 9.02378E-05 3.73777E-05-2.29418E-06
 -1     14382 8.86631E-05 4.51761E-05-2.29496E-06
 -1     14387 8.68186E-05 4.42363E-05-2.38216E-06
 -1     14388 9.02378E-05 3.73777E-05-2.46674E-06
 -1     14389 8.86631E-05 4.51761E-05-2.46931E-06
 -1     14394 8.68185E-05 4.42363E-05-2.55676E-06
 -1     14395 9.02378E-05 3.73777E-05-2.63907E-06
 -1     14396 8.86631E-05 4.51761E-05-2.64414E-06
 -1     14401 8.68185E-05 4.42363E-05-2.73207E-06
 -1     14402 9.02378E-05 3.73777E-05-2.81095E-06
 -1     14403 8.86631E-05 4.51761E-05-2.81992E-06
 -1     14408 8.68186E-05 4.42363E-05-2.90867E-06
 -1     14409 9.02377E-05 3.73777E-05-2.98211E-06
 -1     14410 8.86632E-05 4.51761E-05-2.99736E-06
 -1     14415 8.68188E-05 4.42364E-05-3.08766E-06
 -1     14419 7.88298E-05 5.72732E-05-1.32806E-06
 -1     14420 8.32796E-05 5.10338E-05-1.43362E-06
 -1     14421 8.05045E-05 5.84899E-05-1.41837E-06
 -1     14426 7.88296E-05 5.72731E-05-1.50706E-06
 -1     14427 8.32796E-05 5.10338E-05-1.60477E-06
 -1     14428 8.05044E-05 5.84899E-05-1.59581E-06
 -1     14433 7.88296E-05 5.72730E-05-1.68366E-06
 -1     14434 8.32797E-05 5.10338E-05-1.77666E-06
 -1     14435 8.05044E-05 5.84899E-05-1.77159E-06
 -1     14440 7.88296E-05 5.72730E-05-1.85896E-06
 -1     14441 8.32796E-05 5.10338E-05-1.94899E-06
 -1     14442 8.05044E-05 5.84899E-05-1.94642E-06
 -1     14447 7.88296E-05 5.72731E-05-2.03357E-06
 -1     14448 8.32796E-05 5.10338E-05-2.12155E-06
 -1     14449 8.05044E-05 5.84899E-05-2.12076E-06
 -1     14454 7.88296E-05 5.72731E-05-2.20786E-06
 -1     14455 8.32796E-05 5.10338E-05-2.29418E-06
 -1     14456 8.05044E-05 5.84899E-05-2.29496E-06
 -1     14461 7.88296E-05 5.72731E-05-2.38216E-06
 -1     14462 8.32796E-05 5.10338E-05-2.46674E-06
 -1     14463 8.05044E-05 5.84899E-05-2.46931E-06
 -1     14468 7.88296E-05 5.72730E-05-2.55676E-06
 -1     14469 8.32797E-05 5.10338E-05-2.63907E-06
 -1     14470 8.05044E-05 5.84899E-05-2.64414E-06
 -1     14475 7.88296E-05 5.72730E-05-2.73207E-06
 -1     14476 8.32796E-05 5.10338E-05-2.81095E-06
 -1     14477 8.05044E-05 5.84899E-05-2.81992E-06
 -1     14482 7.88296E-05 5.72731E-05-2.90867E-06
 -1     14483 8.32796E-05 5.10338E-05-2.98211E-06
 -1     14484 8.05045E-05 5.84899E-05-2.99736E-06
 -1     14489 7.88298E-05 5.72732E-05-3.08766E-06
 -1     14493 6.88998E-05 6.88998E-05-1.32806E-06
 -1     14494 7.42708E-05 6.34333E-05-1.43362E-06
 -1     14495 7.03635E-05 7.03635E-05-1.41837E-06
 -1     14500 6.88996E-05 6.88996E-05-1.50706E-06
 -1     14501 7.42709E-05 6.34333E-05-1.60477E-06
 -1     14502 7.03634E-05 7.03634E-05-1.59581E-06
 -1     14507 6.88996E-05 6.88996E-05-1.68366E-06
 -1     14508 7.42709E-05 6.34333E-05-1.77666E-06
 -1     14509 7.03634E-05 7.03634E-05-1.77159E-06
 -1     14514 6.88996E-05 6.88996E-05-1.85896E-06
 -1     14515 7.42709E-05 6.34333E-05-1.94899E-06
 -1     14516 7.03634E-05 7.03634E-05-1.94642E-06
 -1     14521 6.88996E-05 6.88996E-05-2.03357E-06
 -1     14522 7.42709E-05 6.34333E-05-2.12155E-06
 -1     14523 7.03634E-05 7.03634E-05-2.12076E-06
 -1     14528 6.88996E-05 6.88996E-05-2.20786E-06
 -1     14529 7.42709E-05 6.34333E-05-2.29418E-06
 -1     14530 7.03634E-05 7.03634E-05-2.29496E-06
 -1     14535 6.88996E-05 6.88996E-05-2.38216E-06
 -1     14536 7.42709E-05 6.34333E-05-2.46674E-06
 -1     14537 7.03634E-05 7.03634E-05-2.46931E-06
 -1     14542 6.88996E-05 6.88996E-05-2.55676E-06
 -1     14543 7.42709E-05 6.34333E-05-2.63907E-06
 -1     14544 7.03634E-05 7.03634E-05-2.64414E-06
 -1     14549 6.88996E-05 6.88996E-05-2.73207E-06
 -1     14550 7.42709E-05 6.34333E-05-2.81095E-06
 -1     14551 7.03634E-05 7.03634E-05-2.81992E-06
 -1     14556 6.88996E-05 6.88996E-05-2.90867E-06
 -1     14557 7.42708E-05 6.34333E-05-2.98211E-06
 -1     14558 7.03635E-05 7.03635E-05-2.99736E-06
 -1     14563 6.88998E-05 6.88998E-05-3.08766E-06
 -1     14567 5.72732E-05 7.88298E-05-1.32806E-06
 -1     14568 6.34333E-05 7.42708E-05-1.43362E-06
 -1     14569 5.84899E-05 8.05045E-05-1.41837E-06
 -1     14574 5.72731E-05 7.88296E-05-1.50706E-06
 -1     14575 6.34333E-05 7.42709E-05-1.60477E-06
 -1     14576 5.84899E-05 8.05044E-05-1.59581E-06
 -1     14581 5.72730E-05 7.88296E-05-1.68366E-06
 -1     14582 6.34333E-05 7.42709E-05-1.77666E-06
 -1     14583 5.84899E-05 8.05044E-05-1.77159E-06
 -1     14588 5.72730E-05 7.88296E-05-1.85896E-06
 -1     14589 6.34333E-05 7.42709E-05-1.94899E-06
 -1     14590 5.84899E-05 8.05044E-05-1.94642E-06
 -1     14595 5.72731E-05 7.88296E-05-2.03357E-06
 -1     14596 6.34333E-05 7.42709E-05-2.12155E-06
 -1     14597 5.84899E-05 8.05044E-05-2.12076E-06
 -1     14602 5.72731E-05 7.88296E-05-2.20786E-06
 -1     14603 6.34333E-05 7.42709E-05-2.29418E-06
 -1     14604 5.84899E-05 8.05044E-05-2.29496E-06
 -1     14609 5.72731E-05 7.88296E-05-2.38216E-06
 -1     14610 6.34333E-05 7.42709E-05-2.46674E-06
 -1     14611 5.84899E-05 8.05044E-05-2.46931E-06
 -1     14616 5.72730E-05 7.88296E-05-2.55676E-06
 -1     14617 6.34333E-05 7.42709E-05-2.63907E-06
 -1     14618 5.84899E-05 8.05044E-05-2.64414E-06
 -1     14623 5.72730E-05 7.88296E-05-2.73207E-06
 -1     14624 6.34333E-05 7.42709E-05-2.81095E-06
 -1     14625 5.84899E-05 8.05044E-05-2.81992E-06
 -1     14630 5.72731E-05 7.88296E-05-2.90867E-06
 -1     14631 6.34333E-05 7.42708E-05-2.98211E-06
 -1     14632 5.84899E-05 8.05045E-05-2.99736E-06
 -1     14637 5.72732E-05 7.88298E-05-3.08766E-06
 -1     14641 4.42364E-05 8.68188E-05-1.32806E-06
 -1     14642 5.10338E-05 8.32796E-05-1.43362E-06
 -1     14643 4.51761E-05 8.86632E-05-1.41837E-06
 -1     14648 4.42363E-05 8.68186E-05-1.50706E-06
 -1     14649 5.10338E-05 8.32796E-05-1.60477E-06
 -1     14650 4.51761E-05 8.86631E-05-1.59581E-06
 -1     14655 4.42363E-05 8.68185E-05-1.68366E-06
 -1     14656 5.10338E-05 8.32797E-05-1.77666E-06
 -1     14657 4.51761E-05 8.86631E-05-1.77159E-06
 -1     14662 4.42363E-05 8.68185E-05-1.85896E-06
 -1     14663 5.10338E-05 8.32796E-05-1.94899E-06
 -1     14664 4.51761E-05 8.86631E-05-1.94642E-06
 -1     14669 4.42363E-05 8.68186E-05-2.03357E-06
 -1     14670 5.10338E-05 8.32796E-05-2.12155E-06
 -1     14671 4.51761E-05 8.86631E-05-2.12076E-06
 -1     14676 4.42363E-05 8.68186E-05-2.20786E-06
 -1     14677 5.10338E-05 8.32796E-05-2.29418E-06
 -1     14678 4.51761E-05 8.86631E-05-2.29496E-06
 -1     14683 4.42363E-05 8.68186E-05-2.38216E-06
 -1     14684 5.10338E-05 8.32796E-05-2.46674E-06
 -1     14685 4.51761E-05 8.86631E-05-2.46931E-06
 -1     14690 4.42363E-05 8.68185E-05-2.55676E-06
 -1     14691 5.10338E-05 8.32797E-05-2.63907E-06
 -1     14692 4.51761E-05 8.86631E-05-2.64414E-06
 -1     14697 4.42363E-05 8.68185E-05-2.73207E-06
 -1     14698 5.10338E-05 8.32796E-05-2.81095E-06
 -1     14699 4.51761E-05 8.86631E-05-2.81992E-06
 -1     14704 4.42363E-05 8.68186E-05-2.90867E-06
 -1     14705 5.10338E-05 8.32796E-05-2.98211E-06
 -1     14706 4.51761E-05 8.86632E-05-2.99736E-06
 -1     14711 4.42364E-05 8.68188E-05-3.08766E-06
 -1     14715 3.01103E-05 9.26700E-05-1.32806E-06
 -1     14716 3.73777E-05 9.02377E-05-1.43362E-06
 -1     14717 3.07500E-05 9.46387E-05-1.41837E-06
 -1     14722 3.01102E-05 9.26698E-05-1.50706E-06
 -1     14723 3.73777E-05 9.02378E-05-1.60477E-06
 -1     14724 3.07499E-05 9.46386E-05-1.59581E-06
 -1     14729 3.01102E-05 9.26697E-05-1.68366E-06
 -1     14730 3.73777E-05 9.02378E-05-1.77666E-06
 -1     14731 3.07499E-05 9.46386E-05-1.77159E-06
 -1     14736 3.01102E-05 9.26697E-05-1.85896E-06
 -1     14737 3.73777E-05 9.02378E-05-1.94899E-06
 -1     14738 3.07499E-05 9.46386E-05-1.94642E-06
 -1     14743 3.01102E-05 9.26697E-05-2.03357E-06
 -1     14744 3.73777E-05 9.02378E-05-2.12155E-06
 -1     14745 3.07499E-05 9.46386E-05-2.12076E-06
 -1     14750 3.01102E-05 9.26698E-05-2.20786E-06
 -1     14751 3.73777E-05 9.02378E-05-2.29418E-06
 -1     14752 3.07499E-05 9.46386E-05-2.29496E-06
 -1     14757 3.01102E-05 9.26697E-05-2.38216E-06
 -1     14758 3.73777E-05 9.02378E-05-2.46674E-06
 -1     14759 3.07499E-05 9.46386E-05-2.46931E-06
 -1     14764 3.01102E-05 9.26697E-05-2.55676E-06
 -1     14765 3.73777E-05 9.02378E-05-2.63907E-06
 -1     14766 3.07499E-05 9.46386E-05-2.64414E-06
 -1     14771 3.01102E-05 9.26697E-05-2.73207E-06
 -1     14772 3.73777E-05 9.02378E-05-2.81095E-06
 -1     14773 3.07499E-05 9.46386E-05-2.81992E-06
 -1     14778 3.01102E-05 9.26698E-05-2.90867E-06
 -1     14779 3.73777E-05 9.02377E-05-2.98211E-06
 -1     14780 3.07500E-05 9.46387E-05-2.99736E-06
 -1     14785 3.01103E-05 9.26700E-05-3.08766E-06
 -1     14789 1.52428E-05 9.62394E-05-1.32806E-06
 -1     14790 2.28012E-05 9.49739E-05-1.43362E-06
 -1     14791 1.55666E-05 9.82839E-05-1.41837E-06
 -1     14796 1.52428E-05 9.62391E-05-1.50706E-06
 -1     14797 2.28012E-05 9.49740E-05-1.60477E-06
 -1     14798 1.55666E-05 9.82838E-05-1.59581E-06
 -1     14803 1.52428E-05 9.62391E-05-1.68366E-06
 -1     14804 2.28012E-05 9.49740E-05-1.77666E-06
 -1     14805 1.55666E-05 9.82838E-05-1.77159E-06
 -1     14810 1.52428E-05 9.62391E-05-1.85896E-06
 -1     14811 2.28012E-05 9.49740E-05-1.94899E-06
 -1     14812 1.55666E-05 9.82838E-05-1.94642E-06
 -1     14817 1.52428E-05 9.62391E-05-2.03357E-06
 -1     14818 2.28012E-05 9.49740E-05-2.12155E-06
 -1     14819 1.55666E-05 9.82838E-05-2.12076E-06
 -1     14824 1.52428E-05 9.62391E-05-2.20786E-06
 -1     14825 2.28012E-05 9.49740E-05-2.29418E-06
 -1     14826 1.55666E-05 9.82838E-05-2.29496E-06
 -1     14831 1.52428E-05 9.62391E-05-2.38216E-06
 -1     14832 2.28012E-05 9.49740E-05-2.46674E-06
 -1     14833 1.55666E-05 9.82838E-05-2.46931E-06
 -1     14838 1.52428E-05 9.62391E-05-2.55676E-06
 -1     14839 2.28012E-05 9.49740E-05-2.63907E-06
 -1     14840 1.55666E-05 9.82838E-05-2.64414E-06
 -1     14845 1.52428E-05 9.62391E-05-2.73207E-06
 -1     14846 2.28012E-05 9.49740E-05-2.81095E-06
 -1     14847 1.55666E-05 9.82838E-05-2.81992E-06
 -1     14852 1.52428E-05 9.62391E-05-2.90867E-06
 -1     14853 2.28012E-05 9.49739E-05-2.98211E-06
 -1     14854 1.55666E-05 9.82839E-05-2.99736E-06
 -1     14859 1.52428E-05 9.62394E-05-3.08766E-06
 -1     14863 7.66330E-06 9.73715E-05-1.43362E-06
 -1     14867 7.66331E-06 9.73716E-05-1.60477E-06
 -1     14871 7.66331E-06 9.73716E-05-1.77666E-06
 -1     14875 7.66331E-06 9.73716E-05-1.94899E-06
 -1     14879 7.66331E-06 9.73716E-05-2.12155E-06
 -1     14883 7.66331E-06 9.73716E-05-2.29418E-06
 -1     14887 7.66331E-06 9.73716E-05-2.46674E-06
 -1     14891 7.66331E-06 9.73716E-05-2.63907E-06
 -1     14895 7.66331E-06 9.73716E-05-2.81095E-06
 -1     14899 7.66330E-06 9.73715E-05-2.98211E-06
 -1     14905 9.24974E-05 1.46501E-05-1.32871E-06
 -1     14906 9.35796E-05 7.36488E-06-1.43350E-06
 -1     14907 9.43130E-05 1.49377E-05-1.41864E-06
 -1     14912 9.24972E-05 1.46501E-05-1.50723E-06
 -1     14913 9.35797E-05 7.36488E-06-1.60476E-06
 -1     14914 9.43129E-05 1.49377E-05-1.59582E-06
 -1     14919 9.24971E-05 1.46501E-05-1.68365E-06
 -1     14920 9.35797E-05 7.36488E-06-1.77669E-06
 -1     14921 9.43129E-05 1.49377E-05-1.77152E-06
 -1     14926 9.24971E-05 1.46501E-05-1.85891E-06
 -1     14927 9.35797E-05 7.36488E-06-1.94902E-06
 -1     14928 9.43129E-05 1.49377E-05-1.94636E-06
 -1     14933 9.24971E-05 1.46501E-05-2.03353E-06
 -1     14934 9.35797E-05 7.36488E-06-2.12156E-06
 -1     14935 9.43129E-05 1.49377E-05-2.12074E-06
 -1     14940 9.24971E-05 1.46501E-05-2.20786E-06
 -1     14941 9.35797E-05 7.36488E-06-2.29417E-06
 -1     14942 9.43129E-05 1.49377E-05-2.29499E-06
 -1     14947 9.24971E-05 1.46501E-05-2.38220E-06
 -1     14948 9.35797E-05 7.36488E-06-2.46671E-06
 -1     14949 9.43129E-05 1.49377E-05-2.46937E-06
 -1     14954 9.24971E-05 1.46501E-05-2.55682E-06
 -1     14955 9.35797E-05 7.36488E-06-2.63904E-06
 -1     14956 9.43129E-05 1.49377E-05-2.64420E-06
 -1     14961 9.24971E-05 1.46501E-05-2.73207E-06
 -1     14962 9.35797E-05 7.36488E-06-2.81096E-06
 -1     14963 9.43129E-05 1.49377E-05-2.81990E-06
 -1     14968 9.24972E-05 1.46501E-05-2.90850E-06
 -1     14969 9.35796E-05 7.36488E-06-2.98223E-06
 -1     14970 9.43130E-05 1.49377E-05-2.99709E-06
 -1     14975 9.24974E-05 1.46501E-05-3.08702E-06
 -1     14979 8.90668E-05 2.89396E-05-1.32871E-06
 -1     14980 9.12754E-05 2.19133E-05-1.43350E-06
 -1     14981 9.08151E-05 2.95076E-05-1.41864E-06
 -1     14986 8.90666E-05 2.89395E-05-1.50723E-06
 -1     14987 9.12754E-05 2.19133E-05-1.60476E-06
 -1     14988 9.08150E-05 2.95076E-05-1.59582E-06
 -1     14993 8.90665E-05 2.89395E-05-1.68365E-06
 -1     14994 9.12754E-05 2.19133E-05-1.77669E-06
 -1     14995 9.08149E-05 2.95076E-05-1.77152E-06
 -1     15000 8.90665E-05 2.89395E-05-1.85891E-06
 -1     15001 9.12754E-05 2.19133E-05-1.94902E-06
 -1     15002 9.08150E-05 2.95076E-05-1.94636E-06
 -1     15007 8.90665E-05 2.89395E-05-2.03353E-06
 -1     15008 9.12754E-05 2.19133E-05-2.12156E-06
 -1     15009 9.08150E-05 2.95076E-05-2.12074E-06
 -1     15014 8.90665E-05 2.89395E-05-2.20786E-06
 -1     15015 9.12754E-05 2.19133E-05-2.29417E-06
 -1     15016 9.08150E-05 2.95076E-05-2.29499E-06
 -1     15021 8.90665E-05 2.89395E-05-2.38220E-06
 -1     15022 9.12754E-05 2.19133E-05-2.46671E-06
 -1     15023 9.08150E-05 2.95076E-05-2.46937E-06
 -1     15028 8.90665E-05 2.89395E-05-2.55682E-06
 -1     15029 9.12754E-05 2.19133E-05-2.63904E-06
 -1     15030 9.08149E-05 2.95076E-05-2.64420E-06
 -1     15035 8.90665E-05 2.89395E-05-2.73207E-06
 -1     15036 9.12754E-05 2.19133E-05-2.81096E-06
 -1     15037 9.08150E-05 2.95076E-05-2.81990E-06
 -1     15042 8.90666E-05 2.89395E-05-2.90850E-06
 -1     15043 9.12754E-05 2.19133E-05-2.98223E-06
 -1     15044 9.08151E-05 2.95076E-05-2.99709E-06
 -1     15049 8.90668E-05 2.89396E-05-3.08702E-06
 -1     15053 8.34431E-05 4.25164E-05-1.32871E-06
 -1     15054 8.67236E-05 3.59221E-05-1.43350E-06
 -1     15055 8.50810E-05 4.33509E-05-1.41864E-06
 -1     15060 8.34429E-05 4.25163E-05-1.50723E-06
 -1     15061 8.67237E-05 3.59221E-05-1.60476E-06
 -1     15062 8.50809E-05 4.33509E-05-1.59582E-06
 -1     15067 8.34428E-05 4.25163E-05-1.68365E-06
 -1     15068 8.67237E-05 3.59221E-05-1.77669E-06
 -1     15069 8.50809E-05 4.33509E-05-1.77152E-06
 -1     15074 8.34428E-05 4.25163E-05-1.85891E-06
 -1     15075 8.67237E-05 3.59221E-05-1.94902E-06
 -1     15076 8.50809E-05 4.33509E-05-1.94636E-06
 -1     15081 8.34429E-05 4.25163E-05-2.03353E-06
 -1     15082 8.67237E-05 3.59221E-05-2.12156E-06
 -1     15083 8.50809E-05 4.33509E-05-2.12074E-06
 -1     15088 8.34429E-05 4.25163E-05-2.20786E-06
 -1     15089 8.67237E-05 3.59221E-05-2.29417E-06
 -1     15090 8.50809E-05 4.33509E-05-2.29499E-06
 -1     15095 8.34429E-05 4.25163E-05-2.38220E-06
 -1     15096 8.67237E-05 3.59221E-05-2.46671E-06
 -1     15097 8.50809E-05 4.33509E-05-2.46937E-06
 -1     15102 8.34428E-05 4.25163E-05-2.55682E-06
 -1     15103 8.67237E-05 3.59221E-05-2.63904E-06
 -1     15104 8.50809E-05 4.33509E-05-2.64420E-06
 -1     15109 8.34428E-05 4.25163E-05-2.73207E-06
 -1     15110 8.67237E-05 3.59221E-05-2.81096E-06
 -1     15111 8.50809E-05 4.33509E-05-2.81990E-06
 -1     15116 8.34429E-05 4.25163E-05-2.90850E-06
 -1     15117 8.67236E-05 3.59221E-05-2.98223E-06
 -1     15118 8.50810E-05 4.33509E-05-2.99709E-06
 -1     15123 8.34431E-05 4.25164E-05-3.08702E-06
 -1     15127 7.57648E-05 5.50463E-05-1.32871E-06
 -1     15128 8.00365E-05 4.90464E-05-1.43350E-06
 -1     15129 7.72519E-05 5.61268E-05-1.41864E-06
 -1     15134 7.57646E-05 5.50462E-05-1.50723E-06
 -1     15135 8.00365E-05 4.90464E-05-1.60476E-06
 -1     15136 7.72518E-05 5.61267E-05-1.59582E-06
 -1     15141 7.57645E-05 5.50461E-05-1.68365E-06
 -1     15142 8.00365E-05 4.90464E-05-1.77669E-06
 -1     15143 7.72518E-05 5.61267E-05-1.77152E-06
 -1     15148 7.57645E-05 5.50461E-05-1.85891E-06
 -1     15149 8.00365E-05 4.90464E-05-1.94902E-06
 -1     15150 7.72518E-05 5.61267E-05-1.94636E-06
 -1     15155 7.57645E-05 5.50461E-05-2.03353E-06
 -1     15156 8.00365E-05 4.90464E-05-2.12156E-06
 -1     15157 7.72518E-05 5.61267E-05-2.12074E-06
 -1     15162 7.57645E-05 5.50462E-05-2.20786E-06
 -1     15163 8.00365E-05 4.90464E-05-2.29417E-06
 -1     15164 7.72518E-05 5.61267E-05-2.29499E-06
 -1     15169 7.57645E-05 5.50461E-05-2.38220E-06
 -1     15170 8.00365E-05 4.90464E-05-2.46671E-06
 -1     15171 7.72518E-05 5.61267E-05-2.46937E-06
 -1     15176 7.57645E-05 5.50461E-05-2.55682E-06
 -1     15177 8.00365E-05 4.90464E-05-2.63904E-06
 -1     15178 7.72518E-05 5.61267E-05-2.64420E-06
 -1     15183 7.57645E-05 5.50461E-05-2.73207E-06
 -1     15184 8.00365E-05 4.90464E-05-2.81096E-06
 -1     15185 7.72518E-05 5.61267E-05-2.81990E-06
 -1     15190 7.57646E-05 5.50462E-05-2.90850E-06
 -1     15191 8.00365E-05 4.90464E-05-2.98223E-06
 -1     15192 7.72519E-05 5.61268E-05-2.99709E-06
 -1     15197 7.57648E-05 5.50463E-05-3.08702E-06
 -1     15201 6.62208E-05 6.62208E-05-1.32871E-06
 -1     15202 7.13785E-05 6.09630E-05-1.43350E-06
 -1     15203 6.75206E-05 6.75206E-05-1.41864E-06
 -1     15208 6.62207E-05 6.62207E-05-1.50723E-06
 -1     15209 7.13786E-05 6.09631E-05-1.60476E-06
 -1     15210 6.75206E-05 6.75206E-05-1.59582E-06
 -1     15215 6.62206E-05 6.62206E-05-1.68365E-06
 -1     15216 7.13786E-05 6.09631E-05-1.77669E-06
 -1     15217 6.75206E-05 6.75206E-05-1.77152E-06
 -1     15222 6.62206E-05 6.62206E-05-1.85891E-06
 -1     15223 7.13786E-05 6.09631E-05-1.94902E-06
 -1     15224 6.75206E-05 6.75206E-05-1.94636E-06
 -1     15229 6.62206E-05 6.62206E-05-2.03353E-06
 -1     15230 7.13786E-05 6.09631E-05-2.12156E-06
 -1     15231 6.75206E-05 6.75206E-05-2.12074E-06
 -1     15236 6.62206E-05 6.62206E-05-2.20786E-06
 -1     15237 7.13786E-05 6.09631E-05-2.29417E-06
 -1     15238 6.75206E-05 6.75206E-05-2.29499E-06
 -1     15243 6.62206E-05 6.62206E-05-2.38220E-06
 -1     15244 7.13786E-05 6.09631E-05-2.46671E-06
 -1     15245 6.75206E-05 6.75206E-05-2.46937E-06
 -1     15250 6.62206E-05 6.62206E-05-2.55682E-06
 -1     15251 7.13786E-05 6.09631E-05-2.63904E-06
 -1     15252 6.75206E-05 6.75206E-05-2.64420E-06
 -1     15257 6.62206E-05 6.62206E-05-2.73207E-06
 -1     15258 7.13786E-05 6.09631E-05-2.81096E-06
 -1     15259 6.75206E-05 6.75206E-05-2.81990E-06
 -1     15264 6.62207E-05 6.62207E-05-2.90850E-06
 -1     15265 7.13785E-05 6.09630E-05-2.98223E-06
 -1     15266 6.75206E-05 6.75206E-05-2.99709E-06
 -1     15271 6.62208E-05 6.62208E-05-3.08702E-06
 -1     15275 5.50463E-05 7.57648E-05-1.32871E-06
 -1     15276 6.09630E-05 7.13785E-05-1.43350E-06
 -1     15277 5.61268E-05 7.72519E-05-1.41864E-06
 -1     15282 5.50462E-05 7.57646E-05-1.50723E-06
 -1     15283 6.09631E-05 7.13786E-05-1.60476E-06
 -1     15284 5.61267E-05 7.72518E-05-1.59582E-06
 -1     15289 5.50461E-05 7.57645E-05-1.68365E-06
 -1     15290 6.09631E-05 7.13786E-05-1.77669E-06
 -1     15291 5.61267E-05 7.72518E-05-1.77152E-06
 -1     15296 5.50461E-05 7.57645E-05-1.85891E-06
 -1     15297 6.09631E-05 7.13786E-05-1.94902E-06
 -1     15298 5.61267E-05 7.72518E-05-1.94636E-06
 -1     15303 5.50461E-05 7.57645E-05-2.03353E-06
 -1     15304 6.09631E-05 7.13786E-05-2.12156E-06
 -1     15305 5.61267E-05 7.72518E-05-2.12074E-06
 -1     15310 5.50462E-05 7.57645E-05-2.20786E-06
 -1     15311 6.09631E-05 7.13786E-05-2.29417E-06
 -1     15312 5.61267E-05 7.72518E-05-2.29499E-06
 -1     15317 5.50461E-05 7.57645E-05-2.38220E-06
 -1     15318 6.09631E-05 7.13786E-05-2.46671E-06
 -1     15319 5.61267E-05 7.72518E-05-2.46937E-06
 -1     15324 5.50461E-05 7.57645E-05-2.55682E-06
 -1     15325 6.09631E-05 7.13786E-05-2.63904E-06
 -1     15326 5.61267E-05 7.72518E-05-2.64420E-06
 -1     15331 5.50461E-05 7.57645E-05-2.73207E-06
 -1     15332 6.09631E-05 7.13786E-05-2.81096E-06
 -1     15333 5.61267E-05 7.72518E-05-2.81990E-06
 -1     15338 5.50462E-05 7.57646E-05-2.90850E-06
 -1     15339 6.09630E-05 7.13785E-05-2.98223E-06
 -1     15340 5.61268E-05 7.72519E-05-2.99709E-06
 -1     15345 5.50463E-05 7.57648E-05-3.08702E-06
 -1     15349 4.25164E-05 8.34431E-05-1.32871E-06
 -1     15350 4.90464E-05 8.00365E-05-1.43350E-06
 -1     15351 4.33509E-05 8.50810E-05-1.41864E-06
 -1     15356 4.25163E-05 8.34429E-05-1.50723E-06
 -1     15357 4.90464E-05 8.00365E-05-1.60476E-06
 -1     15358 4.33509E-05 8.50809E-05-1.59582E-06
 -1     15363 4.25163E-05 8.34428E-05-1.68365E-06
 -1     15364 4.90464E-05 8.00365E-05-1.77669E-06
 -1     15365 4.33509E-05 8.50809E-05-1.77152E-06
 -1     15370 4.25163E-05 8.34428E-05-1.85891E-06
 -1     15371 4.90464E-05 8.00365E-05-1.94902E-06
 -1     15372 4.33509E-05 8.50809E-05-1.94636E-06
 -1     15377 4.25163E-05 8.34429E-05-2.03353E-06
 -1     15378 4.90464E-05 8.00365E-05-2.12156E-06
 -1     15379 4.33509E-05 8.50809E-05-2.12074E-06
 -1     15384 4.25163E-05 8.34429E-05-2.20786E-06
 -1     15385 4.90464E-05 8.00365E-05-2.29417E-06
 -1     15386 4.33509E-05 8.50809E-05-2.29499E-06
 -1     15391 4.25163E-05 8.34429E-05-2.38220E-06
 -1     15392 4.90464E-05 8.00365E-05-2.46671E-06
 -1     15393 4.33509E-05 8.50809E-05-2.46937E-06
 -1     15398 4.25163E-05 8.34428E-05-2.55682E-06
 -1     15399 4.90464E-05 8.00365E-05-2.63904E-06
 -1     15400 4.33509E-05 8.50809E-05-2.64420E-06
 -1     15405 4.25163E-05 8.34428E-05-2.73207E-06
 -1     15406 4.90464E-05 8.00365E-05-2.81096E-06
 -1     15407 4.33509E-05 8.50809E-05-2.81990E-06
 -1     15412 4.25163E-05 8.34429E-05-2.90850E-06
 -1     15413 4.90464E-05 8.00365E-05-2.98223E-06
 -1     15414 4.33509E-05 8.50810E-05-2.99709E-06
 -1     15419 4.25164E-05 8.34431E-05-3.08702E-06
 -1     15423 2.89396E-05 8.90668E-05-1.32871E-06
 -1     15424 3.59221E-05 8.67236E-05-1.43350E-06
 -1     15425 2.95076E-05 9.08151E-05-1.41864E-06
 -1     15430 2.89395E-05 8.90666E-05-1.50723E-06
 -1     15431 3.59221E-05 8.67237E-05-1.60476E-06
 -1     15432 2.95076E-05 9.08150E-05-1.59582E-06
 -1     15437 2.89395E-05 8.90665E-05-1.68365E-06
 -1     15438 3.59221E-05 8.67237E-05-1.77669E-06
 -1     15439 2.95076E-05 9.08149E-05-1.77152E-06
 -1     15444 2.89395E-05 8.90665E-05-1.85891E-06
 -1     15445 3.59221E-05 8.67237E-05-1.94902E-06
 -1     15446 2.95076E-05 9.08150E-05-1.94636E-06
 -1     15451 2.89395E-05 8.90665E-05-2.03353E-06
 -1     15452 3.59221E-05 8.67237E-05-2.12156E-06
 -1     15453 2.95076E-05 9.08150E-05-2.12074E-06
 -1     15458 2.89395E-05 8.90665E-05-2.20786E-06
 -1     15459 3.59221E-05 8.67237E-05-2.29417E-06
 -1     15460 2.95076E-05 9.08150E-05-2.29499E-06
 -1     15465 2.89395E-05 8.90665E-05-2.38220E-06
 -1     15466 3.59221E-05 8.67237E-05-2.46671E-06
 -1     15467 2.95076E-05 9.08150E-05-2.46937E-06
 -1     15472 2.89395E-05 8.90665E-05-2.55682E-06
 -1     15473 3.59221E-05 8.67237E-05-2.63904E-06
 -1     15474 2.95076E-05 9.08149E-05-2.64420E-06
 -1     15479 2.89395E-05 8.90665E-05-2.73207E-06
 -1     15480 3.59221E-05 8.67237E-05-2.81096E-06
 -1     15481 2.95076E-05 9.08150E-05-2.81990E-06
 -1     15486 2.89395E-05 8.90666E-05-2.90850E-06
 -1     15487 3.59221E-05 8.67236E-05-2.98223E-06
 -1     15488 2.95076E-05 9.08151E-05-2.99709E-06
 -1     15493 2.89396E-05 8.90668E-05-3.08702E-06
 -1     15497 1.46501E-05 9.24974E-05-1.32871E-06
 -1     15498 2.19133E-05 9.12754E-05-1.43350E-06
 -1     15499 1.49377E-05 9.43130E-05-1.41864E-06
 -1     15504 1.46501E-05 9.24972E-05-1.50723E-06
 -1     15505 2.19133E-05 9.12754E-05-1.60476E-06
 -1     15506 1.49377E-05 9.43129E-05-1.59582E-06
 -1     15511 1.46501E-05 9.24971E-05-1.68365E-06
 -1     15512 2.19133E-05 9.12754E-05-1.77669E-06
 -1     15513 1.49377E-05 9.43129E-05-1.77152E-06
 -1     15518 1.46501E-05 9.24971E-05-1.85891E-06
 -1     15519 2.19133E-05 9.12754E-05-1.94902E-06
 -1     15520 1.49377E-05 9.43129E-05-1.94636E-06
 -1     15525 1.46501E-05 9.24971E-05-2.03353E-06
 -1     15526 2.19133E-05 9.12754E-05-2.12156E-06
 -1     15527 1.49377E-05 9.43129E-05-2.12074E-06
 -1     15532 1.46501E-05 9.24971E-05-2.20786E-06
 -1     15533 2.19133E-05 9.12754E-05-2.29417E-06
 -1     15534 1.49377E-05 9.43129E-05-2.29499E-06
 -1     15539 1.46501E-05 9.24971E-05-2.38220E-06
 -1     15540 2.19133E-05 9.12754E-05-2.46671E-06
 -1     15541 1.49377E-05 9.43129E-05-2.46937E-06
 -1     15546 1.46501E-05 9.24971E-05-2.55682E-06
 -1     15547 2.19133E-05 9.12754E-05-2.63904E-06
 -1     15548 1.49377E-05 9.43129E-05-2.64420E-06
 -1     15553 1.46501E-05 9.24971E-05-2.73207E-06
 -1     15554 2.19133E-05 9.12754E-05-2.81096E-06
 -1     15555 1.49377E-05 9.43129E-05-2.81990E-06
 -1     15560 1.46501E-05 9.24972E-05-2.90850E-06
 -1     15561 2.19133E-05 9.12754E-05-2.98223E-06
 -1     15562 1.49377E-05 9.43130E-05-2.99709E-06
 -1     15567 1.46501E-05 9.24974E-05-3.08702E-06
 -1     15571 7.36488E-06 9.35796E-05-1.43350E-06
 -1     15575 7.36488E-06 9.35797E-05-1.60476E-06
 -1     15579 7.36488E-06 9.35797E-05-1.77669E-06
 -1     15583 7.36488E-06 9.35797E-05-1.94902E-06
 -1     15587 7.36488E-06 9.35797E-05-2.12156E-06
 -1     15591 7.36488E-06 9.35797E-05-2.29417E-06
 -1     15595 7.36488E-06 9.35797E-05-2.46671E-06
 -1     15599 7.36488E-06 9.35797E-05-2.63904E-06
 -1     15603 7.36488E-06 9.35797E-05-2.81096E-06
 -1     15607 7.36488E-06 9.35796E-05-2.98223E-06
 -1     15613 8.91641E-05 1.41222E-05-1.32930E-06
 -1     15614 9.02014E-05 7.09901E-06-1.43337E-06
 -1     15615 9.07830E-05 1.43786E-05-1.41891E-06
 -1     15620 8.91638E-05 1.41222E-05-1.50740E-06
 -1     15621 9.02015E-05 7.09901E-06-1.60474E-06
 -1     15622 9.07829E-05 1.43786E-05-1.59586E-06
 -1     15627 8.91638E-05 1.41222E-05-1.68366E-06
 -1     15628 9.02015E-05 7.09901E-06-1.77670E-06
 -1     15629 9.07829E-05 1.43786E-05-1.77148E-06
 -1     15634 8.91638E-05 1.41222E-05-1.85887E-06
 -1     15635 9.02015E-05 7.09901E-06-1.94904E-06
 -1     15636 9.07829E-05 1.43786E-05-1.94631E-06
 -1     15641 8.91638E-05 1.41222E-05-2.03350E-06
 -1     15642 9.02015E-05 7.09901E-06-2.12157E-06
 -1     15643 9.07829E-05 1.43786E-05-2.12072E-06
 -1     15648 8.91638E-05 1.41222E-05-2.20786E-06
 -1     15649 9.02015E-05 7.09901E-06-2.29416E-06
 -1     15650 9.07829E-05 1.43786E-05-2.29501E-06
 -1     15655 8.91638E-05 1.41222E-05-2.38223E-06
 -1     15656 9.02015E-05 7.09901E-06-2.46669E-06
 -1     15657 9.07829E-05 1.43786E-05-2.46942E-06
 -1     15662 8.91638E-05 1.41222E-05-2.55685E-06
 -1     15663 9.02015E-05 7.09901E-06-2.63902E-06
 -1     15664 9.07829E-05 1.43786E-05-2.64425E-06
 -1     15669 8.91638E-05 1.41222E-05-2.73206E-06
 -1     15670 9.02015E-05 7.09901E-06-2.81099E-06
 -1     15671 9.07829E-05 1.43786E-05-2.81987E-06
 -1     15676 8.91638E-05 1.41222E-05-2.90832E-06
 -1     15677 9.02014E-05 7.09901E-06-2.98235E-06
 -1     15678 9.07830E-05 1.43786E-05-2.99681E-06
 -1     15683 8.91641E-05 1.41222E-05-3.08642E-06
 -1     15687 8.58571E-05 2.78967E-05-1.32930E-06
 -1     15688 8.79804E-05 2.11222E-05-1.43337E-06
 -1     15689 8.74160E-05 2.84032E-05-1.41891E-06
 -1     15694 8.58569E-05 2.78966E-05-1.50740E-06
 -1     15695 8.79804E-05 2.11222E-05-1.60474E-06
 -1     15696 8.74159E-05 2.84032E-05-1.59586E-06
 -1     15701 8.58568E-05 2.78966E-05-1.68366E-06
 -1     15702 8.79804E-05 2.11222E-05-1.77670E-06
 -1     15703 8.74159E-05 2.84031E-05-1.77148E-06
 -1     15708 8.58568E-05 2.78966E-05-1.85887E-06
 -1     15709 8.79804E-05 2.11222E-05-1.94904E-06
 -1     15710 8.74159E-05 2.84032E-05-1.94631E-06
 -1     15715 8.58568E-05 2.78966E-05-2.03350E-06
 -1     15716 8.79804E-05 2.11222E-05-2.12157E-06
 -1     15717 8.74159E-05 2.84032E-05-2.12072E-06
 -1     15722 8.58568E-05 2.78966E-05-2.20786E-06
 -1     15723 8.79804E-05 2.11222E-05-2.29416E-06
 -1     15724 8.74159E-05 2.84032E-05-2.29501E-06
 -1     15729 8.58568E-05 2.78966E-05-2.38223E-06
 -1     15730 8.79804E-05 2.11222E-05-2.46669E-06
 -1     15731 8.74159E-05 2.84032E-05-2.46942E-06
 -1     15736 8.58568E-05 2.78966E-05-2.55685E-06
 -1     15737 8.79804E-05 2.11222E-05-2.63902E-06
 -1     15738 8.74159E-05 2.84031E-05-2.64425E-06
 -1     15743 8.58568E-05 2.78966E-05-2.73206E-06
 -1     15744 8.79804E-05 2.11222E-05-2.81099E-06
 -1     15745 8.74159E-05 2.84032E-05-2.81987E-06
 -1     15750 8.58569E-05 2.78966E-05-2.90832E-06
 -1     15751 8.79804E-05 2.11222E-05-2.98235E-06
 -1     15752 8.74160E-05 2.84032E-05-2.99681E-06
 -1     15757 8.58571E-05 2.78967E-05-3.08642E-06
 -1     15761 8.04361E-05 4.09842E-05-1.32930E-06
 -1     15762 8.35929E-05 3.46253E-05-1.43337E-06
 -1     15763 8.18965E-05 4.17284E-05-1.41891E-06
 -1     15768 8.04358E-05 4.09841E-05-1.50740E-06
 -1     15769 8.35930E-05 3.46254E-05-1.60474E-06
 -1     15770 8.18964E-05 4.17283E-05-1.59586E-06
 -1     15775 8.04358E-05 4.09841E-05-1.68366E-06
 -1     15776 8.35930E-05 3.46254E-05-1.77670E-06
 -1     15777 8.18964E-05 4.17283E-05-1.77148E-06
 -1     15782 8.04358E-05 4.09841E-05-1.85887E-06
 -1     15783 8.35930E-05 3.46254E-05-1.94904E-06
 -1     15784 8.18964E-05 4.17283E-05-1.94631E-06
 -1     15789 8.04358E-05 4.09841E-05-2.03350E-06
 -1     15790 8.35930E-05 3.46254E-05-2.12157E-06
 -1     15791 8.18965E-05 4.17283E-05-2.12072E-06
 -1     15796 8.04358E-05 4.09841E-05-2.20786E-06
 -1     15797 8.35930E-05 3.46254E-05-2.29416E-06
 -1     15798 8.18965E-05 4.17283E-05-2.29501E-06
 -1     15803 8.04358E-05 4.09841E-05-2.38223E-06
 -1     15804 8.35930E-05 3.46254E-05-2.46669E-06
 -1     15805 8.18964E-05 4.17283E-05-2.46942E-06
 -1     15810 8.04358E-05 4.09841E-05-2.55685E-06
 -1     15811 8.35930E-05 3.46254E-05-2.63902E-06
 -1     15812 8.18964E-05 4.17283E-05-2.64425E-06
 -1     15817 8.04358E-05 4.09841E-05-2.73206E-06
 -1     15818 8.35930E-05 3.46254E-05-2.81099E-06
 -1     15819 8.18964E-05 4.17283E-05-2.81987E-06
 -1     15824 8.04358E-05 4.09841E-05-2.90832E-06
 -1     15825 8.35929E-05 3.46253E-05-2.98235E-06
 -1     15826 8.18965E-05 4.17284E-05-2.99681E-06
 -1     15831 8.04361E-05 4.09842E-05-3.08642E-06
 -1     15835 7.30344E-05 5.30626E-05-1.32930E-06
 -1     15836 7.71472E-05 4.72759E-05-1.43337E-06
 -1     15837 7.43605E-05 5.40261E-05-1.41891E-06
 -1     15842 7.30342E-05 5.30625E-05-1.50740E-06
 -1     15843 7.71472E-05 4.72759E-05-1.60474E-06
 -1     15844 7.43604E-05 5.40260E-05-1.59586E-06
 -1     15849 7.30342E-05 5.30624E-05-1.68366E-06
 -1     15850 7.71472E-05 4.72759E-05-1.77670E-06
 -1     15851 7.43604E-05 5.40260E-05-1.77148E-06
 -1     15856 7.30342E-05 5.30624E-05-1.85887E-06
 -1     15857 7.71472E-05 4.72759E-05-1.94904E-06
 -1     15858 7.43604E-05 5.40260E-05-1.94631E-06
 -1     15863 7.30342E-05 5.30624E-05-2.03350E-06
 -1     15864 7.71472E-05 4.72759E-05-2.12157E-06
 -1     15865 7.43604E-05 5.40260E-05-2.12072E-06
 -1     15870 7.30342E-05 5.30624E-05-2.20786E-06
 -1     15871 7.71472E-05 4.72759E-05-2.29416E-06
 -1     15872 7.43604E-05 5.40260E-05-2.29501E-06
 -1     15877 7.30342E-05 5.30624E-05-2.38223E-06
 -1     15878 7.71472E-05 4.72759E-05-2.46669E-06
 -1     15879 7.43604E-05 5.40260E-05-2.46942E-06
 -1     15884 7.30342E-05 5.30624E-05-2.55685E-06
 -1     15885 7.71472E-05 4.72759E-05-2.63902E-06
 -1     15886 7.43604E-05 5.40260E-05-2.64425E-06
 -1     15891 7.30342E-05 5.30624E-05-2.73206E-06
 -1     15892 7.71472E-05 4.72759E-05-2.81099E-06
 -1     15893 7.43604E-05 5.40260E-05-2.81987E-06
 -1     15898 7.30342E-05 5.30625E-05-2.90832E-06
 -1     15899 7.71472E-05 4.72759E-05-2.98235E-06
 -1     15900 7.43605E-05 5.40261E-05-2.99681E-06
 -1     15905 7.30344E-05 5.30626E-05-3.08642E-06
 -1     15909 6.38344E-05 6.38344E-05-1.32930E-06
 -1     15910 6.88018E-05 5.87623E-05-1.43337E-06
 -1     15911 6.49935E-05 6.49935E-05-1.41891E-06
 -1     15916 6.38343E-05 6.38343E-05-1.50740E-06
 -1     15917 6.88018E-05 5.87623E-05-1.60474E-06
 -1     15918 6.49934E-05 6.49934E-05-1.59586E-06
 -1     15923 6.38342E-05 6.38342E-05-1.68366E-06
 -1     15924 6.88019E-05 5.87623E-05-1.77670E-06
 -1     15925 6.49934E-05 6.49934E-05-1.77148E-06
 -1     15930 6.38342E-05 6.38342E-05-1.85887E-06
 -1     15931 6.88019E-05 5.87623E-05-1.94904E-06
 -1     15932 6.49934E-05 6.49934E-05-1.94631E-06
 -1     15937 6.38342E-05 6.38342E-05-2.03350E-06
 -1     15938 6.88018E-05 5.87623E-05-2.12157E-06
 -1     15939 6.49934E-05 6.49934E-05-2.12072E-06
 -1     15944 6.38342E-05 6.38342E-05-2.20786E-06
 -1     15945 6.88018E-05 5.87623E-05-2.29416E-06
 -1     15946 6.49934E-05 6.49934E-05-2.29501E-06
 -1     15951 6.38342E-05 6.38342E-05-2.38223E-06
 -1     15952 6.88019E-05 5.87623E-05-2.46669E-06
 -1     15953 6.49934E-05 6.49934E-05-2.46942E-06
 -1     15958 6.38342E-05 6.38342E-05-2.55685E-06
 -1     15959 6.88019E-05 5.87623E-05-2.63902E-06
 -1     15960 6.49934E-05 6.49934E-05-2.64425E-06
 -1     15965 6.38342E-05 6.38342E-05-2.73206E-06
 -1     15966 6.88018E-05 5.87623E-05-2.81099E-06
 -1     15967 6.49934E-05 6.49934E-05-2.81987E-06
 -1     15972 6.38343E-05 6.38343E-05-2.90832E-06
 -1     15973 6.88018E-05 5.87623E-05-2.98235E-06
 -1     15974 6.49935E-05 6.49935E-05-2.99681E-06
 -1     15979 6.38344E-05 6.38344E-05-3.08642E-06
 -1     15983 5.30626E-05 7.30344E-05-1.32930E-06
 -1     15984 5.87623E-05 6.88018E-05-1.43337E-06
 -1     15985 5.40261E-05 7.43605E-05-1.41891E-06
 -1     15990 5.30625E-05 7.30342E-05-1.50740E-06
 -1     15991 5.87623E-05 6.88018E-05-1.60474E-06
 -1     15992 5.40260E-05 7.43604E-05-1.59586E-06
 -1     15997 5.30624E-05 7.30342E-05-1.68366E-06
 -1     15998 5.87623E-05 6.88019E-05-1.77670E-06
 -1     15999 5.40260E-05 7.43604E-05-1.77148E-06
 -1     16004 5.30624E-05 7.30342E-05-1.85887E-06
 -1     16005 5.87623E-05 6.88019E-05-1.94904E-06
 -1     16006 5.40260E-05 7.43604E-05-1.94631E-06
 -1     16011 5.30624E-05 7.30342E-05-2.03350E-06
 -1     16012 5.87623E-05 6.88018E-05-2.12157E-06
 -1     16013 5.40260E-05 7.43604E-05-2.12072E-06
 -1     16018 5.30624E-05 7.30342E-05-2.20786E-06
 -1     16019 5.87623E-05 6.88018E-05-2.29416E-06
 -1     16020 5.40260E-05 7.43604E-05-2.29501E-06
 -1     16025 5.30624E-05 7.30342E-05-2.38223E-06
 -1     16026 5.87623E-05 6.88019E-05-2.46669E-06
 -1     16027 5.40260E-05 7.43604E-05-2.46942E-06
 -1     16032 5.30624E-05 7.30342E-05-2.55685E-06
 -1     16033 5.87623E-05 6.88019E-05-2.63902E-06
 -1     16034 5.40260E-05 7.43604E-05-2.64425E-06
 -1     16039 5.30624E-05 7.30342E-05-2.73206E-06
 -1     16040 5.87623E-05 6.88018E-05-2.81099E-06
 -1     16041 5.40260E-05 7.43604E-05-2.81987E-06
 -1     16046 5.30625E-05 7.30342E-05-2.90832E-06
 -1     16047 5.87623E-05 6.88018E-05-2.98235E-06
 -1     16048 5.40261E-05 7.43605E-05-2.99681E-06
 -1     16053 5.30626E-05 7.30344E-05-3.08642E-06
 -1     16057 4.09842E-05 8.04361E-05-1.32930E-06
 -1     16058 4.72759E-05 7.71472E-05-1.43337E-06
 -1     16059 4.17284E-05 8.18965E-05-1.41891E-06
 -1     16064 4.09841E-05 8.04358E-05-1.50740E-06
 -1     16065 4.72759E-05 7.71472E-05-1.60474E-06
 -1     16066 4.17283E-05 8.18964E-05-1.59586E-06
 -1     16071 4.09841E-05 8.04358E-05-1.68366E-06
 -1     16072 4.72759E-05 7.71472E-05-1.77670E-06
 -1     16073 4.17283E-05 8.18964E-05-1.77148E-06
 -1     16078 4.09841E-05 8.04358E-05-1.85887E-06
 -1     16079 4.72759E-05 7.71472E-05-1.94904E-06
 -1     16080 4.17283E-05 8.18964E-05-1.94631E-06
 -1     16085 4.09841E-05 8.04358E-05-2.03350E-06
 -1     16086 4.72759E-05 7.71472E-05-2.12157E-06
 -1     16087 4.17283E-05 8.18965E-05-2.12072E-06
 -1     16092 4.09841E-05 8.04358E-05-2.20786E-06
 -1     16093 4.72759E-05 7.71472E-05-2.29416E-06
 -1     16094 4.17283E-05 8.18965E-05-2.29501E-06
 -1     16099 4.09841E-05 8.04358E-05-2.38223E-06
 -1     16100 4.72759E-05 7.71472E-05-2.46669E-06
 -1     16101 4.17283E-05 8.18964E-05-2.46942E-06
 -1     16106 4.09841E-05 8.04358E-05-2.55685E-06
 -1     16107 4.72759E-05 7.71472E-05-2.63902E-06
 -1     16108 4.17283E-05 8.18964E-05-2.64425E-06
 -1     16113 4.09841E-05 8.04358E-05-2.73206E-06
 -1     16114 4.72759E-05 7.71472E-05-2.81099E-06
 -1     16115 4.17283E-05 8.18964E-05-2.81987E-06
 -1     16120 4.09841E-05 8.04358E-05-2.90832E-06
 -1     16121 4.72759E-05 7.71472E-05-2.98235E-06
 -1     16122 4.17284E-05 8.18965E-05-2.99681E-06
 -1     16127 4.09842E-05 8.04361E-05-3.08642E-06
 -1     16131 2.78967E-05 8.58571E-05-1.32930E-06
 -1     16132 3.46253E-05 8.35929E-05-1.43337E-06
 -1     16133 2.84032E-05 8.74160E-05-1.41891E-06
 -1     16138 2.78966E-05 8.58569E-05-1.50740E-06
 -1     16139 3.46254E-05 8.35930E-05-1.60474E-06
 -1     16140 2.84032E-05 8.74159E-05-1.59586E-06
 -1     16145 2.78966E-05 8.58568E-05-1.68366E-06
 -1     16146 3.46254E-05 8.35930E-05-1.77670E-06
 -1     16147 2.84031E-05 8.74159E-05-1.77148E-06
 -1     16152 2.78966E-05 8.58568E-05-1.85887E-06
 -1     16153 3.46254E-05 8.35930E-05-1.94904E-06
 -1     16154 2.84032E-05 8.74159E-05-1.94631E-06
 -1     16159 2.78966E-05 8.58568E-05-2.03350E-06
 -1     16160 3.46254E-05 8.35930E-05-2.12157E-06
 -1     16161 2.84032E-05 8.74159E-05-2.12072E-06
 -1     16166 2.78966E-05 8.58568E-05-2.20786E-06
 -1     16167 3.46254E-05 8.35930E-05-2.29416E-06
 -1     16168 2.84032E-05 8.74159E-05-2.29501E-06
 -1     16173 2.78966E-05 8.58568E-05-2.38223E-06
 -1     16174 3.46254E-05 8.35930E-05-2.46669E-06
 -1     16175 2.84032E-05 8.74159E-05-2.46942E-06
 -1     16180 2.78966E-05 8.58568E-05-2.55685E-06
 -1     16181 3.46254E-05 8.35930E-05-2.63902E-06
 -1     16182 2.84031E-05 8.74159E-05-2.64425E-06
 -1     16187 2.78966E-05 8.58568E-05-2.73206E-06
 -1     16188 3.46254E-05 8.35930E-05-2.81099E-06
 -1     16189 2.84032E-05 8.74159E-05-2.81987E-06
 -1     16194 2.78966E-05 8.58569E-05-2.90832E-06
 -1     16195 3.46253E-05 8.35929E-05-2.98235E-06
 -1     16196 2.84032E-05 8.74160E-05-2.99681E-06
 -1     16201 2.78967E-05 8.58571E-05-3.08642E-06
 -1     16205 1.41222E-05 8.91641E-05-1.32930E-06
 -1     16206 2.11222E-05 8.79804E-05-1.43337E-06
 -1     16207 1.43786E-05 9.07830E-05-1.41891E-06
 -1     16212 1.41222E-05 8.91638E-05-1.50740E-06
 -1     16213 2.11222E-05 8.79804E-05-1.60474E-06
 -1     16214 1.43786E-05 9.07829E-05-1.59586E-06
 -1     16219 1.41222E-05 8.91638E-05-1.68366E-06
 -1     16220 2.11222E-05 8.79804E-05-1.77670E-06
 -1     16221 1.43786E-05 9.07829E-05-1.77148E-06
 -1     16226 1.41222E-05 8.91638E-05-1.85887E-06
 -1     16227 2.11222E-05 8.79804E-05-1.94904E-06
 -1     16228 1.43786E-05 9.07829E-05-1.94631E-06
 -1     16233 1.41222E-05 8.91638E-05-2.03350E-06
 -1     16234 2.11222E-05 8.79804E-05-2.12157E-06
 -1     16235 1.43786E-05 9.07829E-05-2.12072E-06
 -1     16240 1.41222E-05 8.91638E-05-2.20786E-06
 -1     16241 2.11222E-05 8.79804E-05-2.29416E-06
 -1     16242 1.43786E-05 9.07829E-05-2.29501E-06
 -1     16247 1.41222E-05 8.91638E-05-2.38223E-06
 -1     16248 2.11222E-05 8.79804E-05-2.46669E-06
 -1     16249 1.43786E-05 9.07829E-05-2.46942E-06
 -1     16254 1.41222E-05 8.91638E-05-2.55685E-06
 -1     16255 2.11222E-05 8.79804E-05-2.63902E-06
 -1     16256 1.43786E-05 9.07829E-05-2.64425E-06
 -1     16261 1.41222E-05 8.91638E-05-2.73206E-06
 -1     16262 2.11222E-05 8.79804E-05-2.81099E-06
 -1     16263 1.43786E-05 9.07829E-05-2.81987E-06
 -1     16268 1.41222E-05 8.91638E-05-2.90832E-06
 -1     16269 2.11222E-05 8.79804E-05-2.98235E-06
 -1     16270 1.43786E-05 9.07830E-05-2.99681E-06
 -1     16275 1.41222E-05 8.91641E-05-3.08642E-06
 -1     16279 7.09901E-06 9.02014E-05-1.43337E-06
 -1     16283 7.09901E-06 9.02015E-05-1.60474E-06
 -1     16287 7.09901E-06 9.02015E-05-1.77670E-06
 -1     16291 7.09901E-06 9.02015E-05-1.94904E-06
 -1     16295 7.09901E-06 9.02015E-05-2.12157E-06
 -1     16299 7.09901E-06 9.02015E-05-2.29416E-06
 -1     16303 7.09901E-06 9.02015E-05-2.46669E-06
 -1     16307 7.09901E-06 9.02015E-05-2.63902E-06
 -1     16311 7.09901E-06 9.02015E-05-2.81099E-06
 -1     16315 7.09901E-06 9.02014E-05-2.98235E-06
 -1     16321 8.61836E-05 1.36501E-05-1.32985E-06
 -1     16322 8.71805E-05 6.86126E-06-1.43325E-06
 -1     16323 8.76325E-05 1.38796E-05-1.41919E-06
 -1     16328 8.61834E-05 1.36501E-05-1.50758E-06
 -1     16329 8.71806E-05 6.86126E-06-1.60471E-06
 -1     16330 8.76324E-05 1.38796E-05-1.59592E-06
 -1     16335 8.61833E-05 1.36501E-05-1.68369E-06
 -1     16336 8.71806E-05 6.86126E-06-1.77671E-06
 -1     16337 8.76323E-05 1.38796E-05-1.77146E-06
 -1     16342 8.61833E-05 1.36501E-05-1.85885E-06
 -1     16343 8.71806E-05 6.86126E-06-1.94905E-06
 -1     16344 8.76323E-05 1.38796E-05-1.94627E-06
 -1     16349 8.61833E-05 1.36501E-05-2.03348E-06
 -1     16350 8.71806E-05 6.86126E-06-2.12157E-06
 -1     16351 8.76324E-05 1.38796E-05-2.12071E-06
 -1     16356 8.61833E-05 1.36501E-05-2.20786E-06
 -1     16357 8.71806E-05 6.86126E-06-2.29415E-06
 -1     16358 8.76324E-05 1.38796E-05-2.29502E-06
 -1     16363 8.61833E-05 1.36501E-05-2.38225E-06
 -1     16364 8.71806E-05 6.86126E-06-2.46668E-06
 -1     16365 8.76323E-05 1.38796E-05-2.46945E-06
 -1     16370 8.61833E-05 1.36501E-05-2.55687E-06
 -1     16371 8.71806E-05 6.86126E-06-2.63902E-06
 -1     16372 8.76323E-05 1.38796E-05-2.64427E-06
 -1     16377 8.61833E-05 1.36501E-05-2.73204E-06
 -1     16378 8.71806E-05 6.86126E-06-2.81102E-06
 -1     16379 8.76324E-05 1.38796E-05-2.81981E-06
 -1     16384 8.61834E-05 1.36501E-05-2.90814E-06
 -1     16385 8.71805E-05 6.86126E-06-2.98248E-06
 -1     16386 8.76325E-05 1.38796E-05-2.99654E-06
 -1     16391 8.61836E-05 1.36501E-05-3.08587E-06
 -1     16395 8.29872E-05 2.69642E-05-1.32985E-06
 -1     16396 8.50339E-05 2.04148E-05-1.43325E-06
 -1     16397 8.43823E-05 2.74175E-05-1.41919E-06
 -1     16402 8.29870E-05 2.69641E-05-1.50758E-06
 -1     16403 8.50339E-05 2.04148E-05-1.60471E-06
 -1     16404 8.43822E-05 2.74174E-05-1.59592E-06
 -1     16409 8.29869E-05 2.69641E-05-1.68369E-06
 -1     16410 8.50339E-05 2.04148E-05-1.77671E-06
 -1     16411 8.43822E-05 2.74174E-05-1.77146E-06
 -1     16416 8.29869E-05 2.69641E-05-1.85885E-06
 -1     16417 8.50339E-05 2.04148E-05-1.94905E-06
 -1     16418 8.43822E-05 2.74174E-05-1.94627E-06
 -1     16423 8.29869E-05 2.69641E-05-2.03348E-06
 -1     16424 8.50339E-05 2.04148E-05-2.12157E-06
 -1     16425 8.43822E-05 2.74174E-05-2.12071E-06
 -1     16430 8.29869E-05 2.69641E-05-2.20786E-06
 -1     16431 8.50339E-05 2.04148E-05-2.29415E-06
 -1     16432 8.43822E-05 2.74174E-05-2.29502E-06
 -1     16437 8.29869E-05 2.69641E-05-2.38225E-06
 -1     16438 8.50339E-05 2.04148E-05-2.46668E-06
 -1     16439 8.43822E-05 2.74174E-05-2.46945E-06
 -1     16444 8.29869E-05 2.69641E-05-2.55687E-06
 -1     16445 8.50339E-05 2.04148E-05-2.63902E-06
 -1     16446 8.43822E-05 2.74174E-05-2.64427E-06
 -1     16451 8.29869E-05 2.69641E-05-2.73204E-06
 -1     16452 8.50339E-05 2.04148E-05-2.81102E-06
 -1     16453 8.43822E-05 2.74174E-05-2.81981E-06
 -1     16458 8.29870E-05 2.69641E-05-2.90814E-06
 -1     16459 8.50339E-05 2.04148E-05-2.98248E-06
 -1     16460 8.43823E-05 2.74175E-05-2.99654E-06
 -1     16465 8.29872E-05 2.69642E-05-3.08587E-06
 -1     16469 7.77474E-05 3.96143E-05-1.32985E-06
 -1     16470 8.07934E-05 3.34657E-05-1.43325E-06
 -1     16471 7.90544E-05 4.02802E-05-1.41919E-06
 -1     16476 7.77472E-05 3.96142E-05-1.50758E-06
 -1     16477 8.07934E-05 3.34657E-05-1.60471E-06
 -1     16478 7.90543E-05 4.02802E-05-1.59592E-06
 -1     16483 7.77471E-05 3.96141E-05-1.68369E-06
 -1     16484 8.07934E-05 3.34657E-05-1.77671E-06
 -1     16485 7.90543E-05 4.02802E-05-1.77146E-06
 -1     16490 7.77471E-05 3.96141E-05-1.85885E-06
 -1     16491 8.07934E-05 3.34657E-05-1.94905E-06
 -1     16492 7.90543E-05 4.02802E-05-1.94627E-06
 -1     16497 7.77471E-05 3.96141E-05-2.03348E-06
 -1     16498 8.07934E-05 3.34657E-05-2.12157E-06
 -1     16499 7.90543E-05 4.02802E-05-2.12071E-06
 -1     16504 7.77471E-05 3.96141E-05-2.20786E-06
 -1     16505 8.07934E-05 3.34657E-05-2.29415E-06
 -1     16506 7.90543E-05 4.02802E-05-2.29502E-06
 -1     16511 7.77471E-05 3.96141E-05-2.38225E-06
 -1     16512 8.07934E-05 3.34657E-05-2.46668E-06
 -1     16513 7.90543E-05 4.02802E-05-2.46945E-06
 -1     16518 7.77471E-05 3.96141E-05-2.55687E-06
 -1     16519 8.07934E-05 3.34657E-05-2.63902E-06
 -1     16520 7.90543E-05 4.02802E-05-2.64427E-06
 -1     16525 7.77471E-05 3.96141E-05-2.73204E-06
 -1     16526 8.07934E-05 3.34657E-05-2.81102E-06
 -1     16527 7.90543E-05 4.02802E-05-2.81981E-06
 -1     16532 7.77472E-05 3.96142E-05-2.90814E-06
 -1     16533 8.07934E-05 3.34657E-05-2.98248E-06
 -1     16534 7.90544E-05 4.02802E-05-2.99654E-06
 -1     16539 7.77474E-05 3.96143E-05-3.08587E-06
 -1     16543 7.05931E-05 5.12889E-05-1.32985E-06
 -1     16544 7.45635E-05 4.56926E-05-1.43325E-06
 -1     16545 7.17799E-05 5.21511E-05-1.41919E-06
 -1     16550 7.05930E-05 5.12888E-05-1.50758E-06
 -1     16551 7.45635E-05 4.56926E-05-1.60471E-06
 -1     16552 7.17798E-05 5.21511E-05-1.59592E-06
 -1     16557 7.05929E-05 5.12887E-05-1.68369E-06
 -1     16558 7.45636E-05 4.56926E-05-1.77671E-06
 -1     16559 7.17798E-05 5.21511E-05-1.77146E-06
 -1     16564 7.05929E-05 5.12887E-05-1.85885E-06
 -1     16565 7.45636E-05 4.56926E-05-1.94905E-06
 -1     16566 7.17798E-05 5.21511E-05-1.94627E-06
 -1     16571 7.05929E-05 5.12887E-05-2.03348E-06
 -1     16572 7.45636E-05 4.56926E-05-2.12157E-06
 -1     16573 7.17798E-05 5.21511E-05-2.12071E-06
 -1     16578 7.05929E-05 5.12887E-05-2.20786E-06
 -1     16579 7.45636E-05 4.56926E-05-2.29415E-06
 -1     16580 7.17798E-05 5.21511E-05-2.29502E-06
 -1     16585 7.05929E-05 5.12887E-05-2.38225E-06
 -1     16586 7.45636E-05 4.56926E-05-2.46668E-06
 -1     16587 7.17798E-05 5.21511E-05-2.46945E-06
 -1     16592 7.05929E-05 5.12887E-05-2.55687E-06
 -1     16593 7.45636E-05 4.56926E-05-2.63902E-06
 -1     16594 7.17798E-05 5.21511E-05-2.64427E-06
 -1     16599 7.05929E-05 5.12887E-05-2.73204E-06
 -1     16600 7.45635E-05 4.56926E-05-2.81102E-06
 -1     16601 7.17798E-05 5.21511E-05-2.81981E-06
 -1     16606 7.05930E-05 5.12888E-05-2.90814E-06
 -1     16607 7.45635E-05 4.56926E-05-2.98248E-06
 -1     16608 7.17799E-05 5.21511E-05-2.99654E-06
 -1     16613 7.05931E-05 5.12889E-05-3.08587E-06
 -1     16617 6.17007E-05 6.17007E-05-1.32985E-06
 -1     16618 6.64976E-05 5.67943E-05-1.43325E-06
 -1     16619 6.27379E-05 6.27379E-05-1.41919E-06
 -1     16624 6.17005E-05 6.17005E-05-1.50758E-06
 -1     16625 6.64976E-05 5.67944E-05-1.60471E-06
 -1     16626 6.27378E-05 6.27378E-05-1.59592E-06
 -1     16631 6.17005E-05 6.17005E-05-1.68369E-06
 -1     16632 6.64977E-05 5.67944E-05-1.77671E-06
 -1     16633 6.27378E-05 6.27378E-05-1.77146E-06
 -1     16638 6.17005E-05 6.17005E-05-1.85885E-06
 -1     16639 6.64977E-05 5.67944E-05-1.94905E-06
 -1     16640 6.27378E-05 6.27378E-05-1.94627E-06
 -1     16645 6.17005E-05 6.17005E-05-2.03348E-06
 -1     16646 6.64977E-05 5.67944E-05-2.12157E-06
 -1     16647 6.27378E-05 6.27378E-05-2.12071E-06
 -1     16652 6.17005E-05 6.17005E-05-2.20786E-06
 -1     16653 6.64977E-05 5.67944E-05-2.29415E-06
 -1     16654 6.27378E-05 6.27378E-05-2.29502E-06
 -1     16659 6.17005E-05 6.17005E-05-2.38225E-06
 -1     16660 6.64977E-05 5.67944E-05-2.46668E-06
 -1     16661 6.27378E-05 6.27378E-05-2.46945E-06
 -1     16666 6.17005E-05 6.17005E-05-2.55687E-06
 -1     16667 6.64977E-05 5.67944E-05-2.63902E-06
 -1     16668 6.27378E-05 6.27378E-05-2.64427E-06
 -1     16673 6.17005E-05 6.17005E-05-2.73204E-06
 -1     16674 6.64976E-05 5.67944E-05-2.81102E-06
 -1     16675 6.27378E-05 6.27378E-05-2.81981E-06
 -1     16680 6.17005E-05 6.17005E-05-2.90814E-06
 -1     16681 6.64976E-05 5.67943E-05-2.98248E-06
 -1     16682 6.27379E-05 6.27379E-05-2.99654E-06
 -1     16687 6.17007E-05 6.17007E-05-3.08587E-06
 -1     16691 5.12889E-05 7.05931E-05-1.32985E-06
 -1     16692 5.67943E-05 6.64976E-05-1.43325E-06
 -1     16693 5.21511E-05 7.17799E-05-1.41919E-06
 -1     16698 5.12888E-05 7.05930E-05-1.50758E-06
 -1     16699 5.67944E-05 6.64976E-05-1.60471E-06
 -1     16700 5.21511E-05 7.17798E-05-1.59592E-06
 -1     16705 5.12887E-05 7.05929E-05-1.68369E-06
 -1     16706 5.67944E-05 6.64977E-05-1.77671E-06
 -1     16707 5.21511E-05 7.17798E-05-1.77146E-06
 -1     16712 5.12887E-05 7.05929E-05-1.85885E-06
 -1     16713 5.67944E-05 6.64977E-05-1.94905E-06
 -1     16714 5.21511E-05 7.17798E-05-1.94627E-06
 -1     16719 5.12887E-05 7.05929E-05-2.03348E-06
 -1     16720 5.67944E-05 6.64977E-05-2.12157E-06
 -1     16721 5.21511E-05 7.17798E-05-2.12071E-06
 -1     16726 5.12887E-05 7.05929E-05-2.20786E-06
 -1     16727 5.67944E-05 6.64977E-05-2.29415E-06
 -1     16728 5.21511E-05 7.17798E-05-2.29502E-06
 -1     16733 5.12887E-05 7.05929E-05-2.38225E-06
 -1     16734 5.67944E-05 6.64977E-05-2.46668E-06
 -1     16735 5.21511E-05 7.17798E-05-2.46945E-06
 -1     16740 5.12887E-05 7.05929E-05-2.55687E-06
 -1     16741 5.67944E-05 6.64977E-05-2.63902E-06
 -1     16742 5.21511E-05 7.17798E-05-2.64427E-06
 -1     16747 5.12887E-05 7.05929E-05-2.73204E-06
 -1     16748 5.67944E-05 6.64976E-05-2.81102E-06
 -1     16749 5.21511E-05 7.17798E-05-2.81981E-06
 -1     16754 5.12888E-05 7.05930E-05-2.90814E-06
 -1     16755 5.67943E-05 6.64976E-05-2.98248E-06
 -1     16756 5.21511E-05 7.17799E-05-2.99654E-06
 -1     16761 5.12889E-05 7.05931E-05-3.08587E-06
 -1     16765 3.96143E-05 7.77474E-05-1.32985E-06
 -1     16766 4.56926E-05 7.45635E-05-1.43325E-06
 -1     16767 4.02802E-05 7.90544E-05-1.41919E-06
 -1     16772 3.96142E-05 7.77472E-05-1.50758E-06
 -1     16773 4.56926E-05 7.45635E-05-1.60471E-06
 -1     16774 4.02802E-05 7.90543E-05-1.59592E-06
 -1     16779 3.96141E-05 7.77471E-05-1.68369E-06
 -1     16780 4.56926E-05 7.45636E-05-1.77671E-06
 -1     16781 4.02802E-05 7.90543E-05-1.77146E-06
 -1     16786 3.96141E-05 7.77471E-05-1.85885E-06
 -1     16787 4.56926E-05 7.45636E-05-1.94905E-06
 -1     16788 4.02802E-05 7.90543E-05-1.94627E-06
 -1     16793 3.96141E-05 7.77471E-05-2.03348E-06
 -1     16794 4.56926E-05 7.45636E-05-2.12157E-06
 -1     16795 4.02802E-05 7.90543E-05-2.12071E-06
 -1     16800 3.96141E-05 7.77471E-05-2.20786E-06
 -1     16801 4.56926E-05 7.45636E-05-2.29415E-06
 -1     16802 4.02802E-05 7.90543E-05-2.29502E-06
 -1     16807 3.96141E-05 7.77471E-05-2.38225E-06
 -1     16808 4.56926E-05 7.45636E-05-2.46668E-06
 -1     16809 4.02802E-05 7.90543E-05-2.46945E-06
 -1     16814 3.96141E-05 7.77471E-05-2.55687E-06
 -1     16815 4.56926E-05 7.45636E-05-2.63902E-06
 -1     16816 4.02802E-05 7.90543E-05-2.64427E-06
 -1     16821 3.96141E-05 7.77471E-05-2.73204E-06
 -1     16822 4.56926E-05 7.45635E-05-2.81102E-06
 -1     16823 4.02802E-05 7.90543E-05-2.81981E-06
 -1     16828 3.96142E-05 7.77472E-05-2.90814E-06
 -1     16829 4.56926E-05 7.45635E-05-2.98248E-06
 -1     16830 4.02802E-05 7.90544E-05-2.99654E-06
 -1     16835 3.96143E-05 7.77474E-05-3.08587E-06
 -1     16839 2.69642E-05 8.29872E-05-1.32985E-06
 -1     16840 3.34657E-05 8.07934E-05-1.43325E-06
 -1     16841 2.74175E-05 8.43823E-05-1.41919E-06
 -1     16846 2.69641E-05 8.29870E-05-1.50758E-06
 -1     16847 3.34657E-05 8.07934E-05-1.60471E-06
 -1     16848 2.74174E-05 8.43822E-05-1.59592E-06
 -1     16853 2.69641E-05 8.29869E-05-1.68369E-06
 -1     16854 3.34657E-05 8.07935E-05-1.77671E-06
 -1     16855 2.74174E-05 8.43822E-05-1.77146E-06
 -1     16860 2.69641E-05 8.29869E-05-1.85885E-06
 -1     16861 3.34657E-05 8.07934E-05-1.94905E-06
 -1     16862 2.74174E-05 8.43822E-05-1.94627E-06
 -1     16867 2.69641E-05 8.29869E-05-2.03348E-06
 -1     16868 3.34657E-05 8.07934E-05-2.12157E-06
 -1     16869 2.74174E-05 8.43822E-05-2.12071E-06
 -1     16874 2.69641E-05 8.29869E-05-2.20786E-06
 -1     16875 3.34657E-05 8.07934E-05-2.29415E-06
 -1     16876 2.74174E-05 8.43822E-05-2.29502E-06
 -1     16881 2.69641E-05 8.29869E-05-2.38225E-06
 -1     16882 3.34657E-05 8.07934E-05-2.46668E-06
 -1     16883 2.74174E-05 8.43822E-05-2.46945E-06
 -1     16888 2.69641E-05 8.29869E-05-2.55687E-06
 -1     16889 3.34657E-05 8.07935E-05-2.63902E-06
 -1     16890 2.74174E-05 8.43822E-05-2.64427E-06
 -1     16895 2.69641E-05 8.29869E-05-2.73204E-06
 -1     16896 3.34657E-05 8.07934E-05-2.81102E-06
 -1     16897 2.74174E-05 8.43822E-05-2.81981E-06
 -1     16902 2.69641E-05 8.29870E-05-2.90814E-06
 -1     16903 3.34657E-05 8.07934E-05-2.98248E-06
 -1     16904 2.74175E-05 8.43823E-05-2.99654E-06
 -1     16909 2.69642E-05 8.29872E-05-3.08587E-06
 -1     16913 1.36501E-05 8.61836E-05-1.32985E-06
 -1     16914 2.04148E-05 8.50339E-05-1.43325E-06
 -1     16915 1.38796E-05 8.76325E-05-1.41919E-06
 -1     16920 1.36501E-05 8.61834E-05-1.50758E-06
 -1     16921 2.04148E-05 8.50339E-05-1.60471E-06
 -1     16922 1.38796E-05 8.76324E-05-1.59592E-06
 -1     16927 1.36501E-05 8.61833E-05-1.68369E-06
 -1     16928 2.04148E-05 8.50339E-05-1.77671E-06
 -1     16929 1.38796E-05 8.76323E-05-1.77146E-06
 -1     16934 1.36501E-05 8.61833E-05-1.85885E-06
 -1     16935 2.04148E-05 8.50339E-05-1.94905E-06
 -1     16936 1.38796E-05 8.76323E-05-1.94627E-06
 -1     16941 1.36501E-05 8.61833E-05-2.03348E-06
 -1     16942 2.04148E-05 8.50339E-05-2.12157E-06
 -1     16943 1.38796E-05 8.76324E-05-2.12071E-06
 -1     16948 1.36501E-05 8.61833E-05-2.20786E-06
 -1     16949 2.04148E-05 8.50339E-05-2.29415E-06
 -1     16950 1.38796E-05 8.76324E-05-2.29502E-06
 -1     16955 1.36501E-05 8.61833E-05-2.38225E-06
 -1     16956 2.04148E-05 8.50339E-05-2.46668E-06
 -1     16957 1.38796E-05 8.76323E-05-2.46945E-06
 -1     16962 1.36501E-05 8.61833E-05-2.55687E-06
 -1     16963 2.04148E-05 8.50339E-05-2.63902E-06
 -1     16964 1.38796E-05 8.76323E-05-2.64427E-06
 -1     16969 1.36501E-05 8.61833E-05-2.73204E-06
 -1     16970 2.04148E-05 8.50339E-05-2.81102E-06
 -1     16971 1.38796E-05 8.76324E-05-2.81981E-06
 -1     16976 1.36501E-05 8.61834E-05-2.90814E-06
 -1     16977 2.04148E-05 8.50339E-05-2.98248E-06
 -1     16978 1.38796E-05 8.76325E-05-2.99654E-06
 -1     16983 1.36501E-05 8.61836E-05-3.08587E-06
 -1     16987 6.86126E-06 8.71805E-05-1.43325E-06
 -1     16991 6.86126E-06 8.71806E-05-1.60471E-06
 -1     16995 6.86126E-06 8.71806E-05-1.77671E-06
 -1     16999 6.86126E-06 8.71806E-05-1.94905E-06
 -1     17003 6.86126E-06 8.71806E-05-2.12157E-06
 -1     17007 6.86126E-06 8.71806E-05-2.29415E-06
 -1     17011 6.86126E-06 8.71806E-05-2.46668E-06
 -1     17015 6.86126E-06 8.71806E-05-2.63902E-06
 -1     17019 6.86126E-06 8.71806E-05-2.81102E-06
 -1     17023 6.86126E-06 8.71805E-05-2.98248E-06
 -1     17029 8.35101E-05 1.32267E-05-1.33036E-06
 -1     17030 8.44704E-05 6.64796E-06-1.43312E-06
 -1     17031 8.48108E-05 1.34327E-05-1.41946E-06
 -1     17036 8.35099E-05 1.32267E-05-1.50777E-06
 -1     17037 8.44704E-05 6.64797E-06-1.60467E-06
 -1     17038 8.48107E-05 1.34327E-05-1.59599E-06
 -1     17043 8.35098E-05 1.32267E-05-1.68373E-06
 -1     17044 8.44704E-05 6.64797E-06-1.77671E-06
 -1     17045 8.48106E-05 1.34327E-05-1.77145E-06
 -1     17050 8.35098E-05 1.32267E-05-1.85884E-06
 -1     17051 8.44704E-05 6.64797E-06-1.94906E-06
 -1     17052 8.48106E-05 1.34327E-05-1.94625E-06
 -1     17057 8.35098E-05 1.32267E-05-2.03347E-06
 -1     17058 8.44704E-05 6.64797E-06-2.12158E-06
 -1     17059 8.48106E-05 1.34327E-05-2.12070E-06
 -1     17064 8.35098E-05 1.32267E-05-2.20786E-06
 -1     17065 8.44704E-05 6.64797E-06-2.29415E-06
 -1     17066 8.48106E-05 1.34327E-05-2.29503E-06
 -1     17071 8.35098E-05 1.32267E-05-2.38226E-06
 -1     17072 8.44704E-05 6.64797E-06-2.46667E-06
 -1     17073 8.48106E-05 1.34327E-05-2.46948E-06
 -1     17078 8.35098E-05 1.32267E-05-2.55688E-06
 -1     17079 8.44704E-05 6.64797E-06-2.63901E-06
 -1     17080 8.48106E-05 1.34327E-05-2.64428E-06
 -1     17085 8.35098E-05 1.32267E-05-2.73199E-06
 -1     17086 8.44704E-05 6.64797E-06-2.81105E-06
 -1     17087 8.48107E-05 1.34327E-05-2.81974E-06
 -1     17092 8.35099E-05 1.32267E-05-2.90796E-06
 -1     17093 8.44704E-05 6.64796E-06-2.98261E-06
 -1     17094 8.48108E-05 1.34327E-05-2.99627E-06
 -1     17099 8.35101E-05 1.32267E-05-3.08536E-06
 -1     17103 8.04128E-05 2.61277E-05-1.33036E-06
 -1     17104 8.23904E-05 1.97802E-05-1.43312E-06
 -1     17105 8.16653E-05 2.65347E-05-1.41946E-06
 -1     17110 8.04126E-05 2.61276E-05-1.50777E-06
 -1     17111 8.23905E-05 1.97802E-05-1.60467E-06
 -1     17112 8.16652E-05 2.65346E-05-1.59599E-06
 -1     17117 8.04126E-05 2.61276E-05-1.68373E-06
 -1     17118 8.23905E-05 1.97802E-05-1.77671E-06
 -1     17119 8.16651E-05 2.65346E-05-1.77145E-06
 -1     17124 8.04125E-05 2.61276E-05-1.85884E-06
 -1     17125 8.23905E-05 1.97802E-05-1.94906E-06
 -1     17126 8.16651E-05 2.65346E-05-1.94625E-06
 -1     17131 8.04125E-05 2.61276E-05-2.03347E-06
 -1     17132 8.23905E-05 1.97802E-05-2.12158E-06
 -1     17133 8.16651E-05 2.65346E-05-2.12070E-06
 -1     17138 8.04125E-05 2.61276E-05-2.20786E-06
 -1     17139 8.23905E-05 1.97802E-05-2.29415E-06
 -1     17140 8.16651E-05 2.65346E-05-2.29503E-06
 -1     17145 8.04125E-05 2.61276E-05-2.38226E-06
 -1     17146 8.23905E-05 1.97802E-05-2.46667E-06
 -1     17147 8.16651E-05 2.65346E-05-2.46948E-06
 -1     17152 8.04125E-05 2.61276E-05-2.55688E-06
 -1     17153 8.23905E-05 1.97802E-05-2.63901E-06
 -1     17154 8.16651E-05 2.65346E-05-2.64428E-06
 -1     17159 8.04126E-05 2.61276E-05-2.73199E-06
 -1     17160 8.23905E-05 1.97802E-05-2.81105E-06
 -1     17161 8.16652E-05 2.65346E-05-2.81974E-06
 -1     17166 8.04126E-05 2.61276E-05-2.90796E-06
 -1     17167 8.23904E-05 1.97802E-05-2.98261E-06
 -1     17168 8.16653E-05 2.65347E-05-2.99627E-06
 -1     17173 8.04128E-05 2.61277E-05-3.08536E-06
 -1     17177 7.53355E-05 3.83854E-05-1.33036E-06
 -1     17178 7.82818E-05 3.24254E-05-1.43312E-06
 -1     17179 7.65089E-05 3.89832E-05-1.41946E-06
 -1     17184 7.53353E-05 3.83853E-05-1.50777E-06
 -1     17185 7.82818E-05 3.24254E-05-1.60467E-06
 -1     17186 7.65088E-05 3.89832E-05-1.59599E-06
 -1     17191 7.53353E-05 3.83852E-05-1.68373E-06
 -1     17192 7.82818E-05 3.24254E-05-1.77671E-06
 -1     17193 7.65088E-05 3.89832E-05-1.77145E-06
 -1     17198 7.53353E-05 3.83852E-05-1.85884E-06
 -1     17199 7.82818E-05 3.24254E-05-1.94906E-06
 -1     17200 7.65088E-05 3.89832E-05-1.94625E-06
 -1     17205 7.53353E-05 3.83852E-05-2.03347E-06
 -1     17206 7.82818E-05 3.24254E-05-2.12158E-06
 -1     17207 7.65088E-05 3.89832E-05-2.12070E-06
 -1     17212 7.53353E-05 3.83852E-05-2.20786E-06
 -1     17213 7.82818E-05 3.24254E-05-2.29415E-06
 -1     17214 7.65088E-05 3.89832E-05-2.29503E-06
 -1     17219 7.53353E-05 3.83852E-05-2.38226E-06
 -1     17220 7.82818E-05 3.24254E-05-2.46667E-06
 -1     17221 7.65088E-05 3.89832E-05-2.46948E-06
 -1     17226 7.53353E-05 3.83852E-05-2.55688E-06
 -1     17227 7.82818E-05 3.24254E-05-2.63901E-06
 -1     17228 7.65088E-05 3.89832E-05-2.64428E-06
 -1     17233 7.53353E-05 3.83852E-05-2.73199E-06
 -1     17234 7.82818E-05 3.24254E-05-2.81105E-06
 -1     17235 7.65088E-05 3.89832E-05-2.81974E-06
 -1     17240 7.53353E-05 3.83853E-05-2.90796E-06
 -1     17241 7.82818E-05 3.24254E-05-2.98261E-06
 -1     17242 7.65089E-05 3.89832E-05-2.99627E-06
 -1     17247 7.53355E-05 3.83854E-05-3.08536E-06
 -1     17251 6.84032E-05 4.96979E-05-1.33036E-06
 -1     17252 7.22455E-05 4.42721E-05-1.43312E-06
 -1     17253 6.94686E-05 5.04719E-05-1.41946E-06
 -1     17258 6.84031E-05 4.96977E-05-1.50777E-06
 -1     17259 7.22456E-05 4.42722E-05-1.60467E-06
 -1     17260 6.94685E-05 5.04718E-05-1.59599E-06
 -1     17265 6.84030E-05 4.96977E-05-1.68373E-06
 -1     17266 7.22456E-05 4.42722E-05-1.77671E-06
 -1     17267 6.94685E-05 5.04718E-05-1.77145E-06
 -1     17272 6.84030E-05 4.96977E-05-1.85884E-06
 -1     17273 7.22456E-05 4.42722E-05-1.94906E-06
 -1     17274 6.94685E-05 5.04718E-05-1.94625E-06
 -1     17279 6.84030E-05 4.96977E-05-2.03347E-06
 -1     17280 7.22456E-05 4.42722E-05-2.12158E-06
 -1     17281 6.94685E-05 5.04718E-05-2.12070E-06
 -1     17286 6.84030E-05 4.96977E-05-2.20786E-06
 -1     17287 7.22456E-05 4.42722E-05-2.29415E-06
 -1     17288 6.94685E-05 5.04718E-05-2.29503E-06
 -1     17293 6.84030E-05 4.96977E-05-2.38226E-06
 -1     17294 7.22456E-05 4.42722E-05-2.46667E-06
 -1     17295 6.94685E-05 5.04718E-05-2.46948E-06
 -1     17300 6.84030E-05 4.96977E-05-2.55688E-06
 -1     17301 7.22456E-05 4.42722E-05-2.63901E-06
 -1     17302 6.94685E-05 5.04718E-05-2.64428E-06
 -1     17307 6.84030E-05 4.96977E-05-2.73199E-06
 -1     17308 7.22456E-05 4.42722E-05-2.81105E-06
 -1     17309 6.94685E-05 5.04718E-05-2.81974E-06
 -1     17314 6.84031E-05 4.96977E-05-2.90796E-06
 -1     17315 7.22455E-05 4.42721E-05-2.98261E-06
 -1     17316 6.94686E-05 5.04719E-05-2.99627E-06
 -1     17321 6.84032E-05 4.96979E-05-3.08536E-06
 -1     17325 5.97866E-05 5.97866E-05-1.33036E-06
 -1     17326 6.44304E-05 5.50287E-05-1.43312E-06
 -1     17327 6.07178E-05 6.07178E-05-1.41946E-06
 -1     17332 5.97865E-05 5.97865E-05-1.50777E-06
 -1     17333 6.44304E-05 5.50288E-05-1.60467E-06
 -1     17334 6.07177E-05 6.07177E-05-1.59599E-06
 -1     17339 5.97864E-05 5.97864E-05-1.68373E-06
 -1     17340 6.44304E-05 5.50288E-05-1.77671E-06
 -1     17341 6.07177E-05 6.07177E-05-1.77145E-06
 -1     17346 5.97864E-05 5.97864E-05-1.85884E-06
 -1     17347 6.44304E-05 5.50288E-05-1.94906E-06
 -1     17348 6.07177E-05 6.07177E-05-1.94625E-06
 -1     17353 5.97864E-05 5.97864E-05-2.03347E-06
 -1     17354 6.44304E-05 5.50288E-05-2.12158E-06
 -1     17355 6.07177E-05 6.07177E-05-2.12070E-06
 -1     17360 5.97864E-05 5.97864E-05-2.20786E-06
 -1     17361 6.44304E-05 5.50288E-05-2.29415E-06
 -1     17362 6.07177E-05 6.07177E-05-2.29503E-06
 -1     17367 5.97864E-05 5.97864E-05-2.38226E-06
 -1     17368 6.44304E-05 5.50288E-05-2.46667E-06
 -1     17369 6.07177E-05 6.07177E-05-2.46948E-06
 -1     17374 5.97864E-05 5.97864E-05-2.55688E-06
 -1     17375 6.44304E-05 5.50288E-05-2.63901E-06
 -1     17376 6.07177E-05 6.07177E-05-2.64428E-06
 -1     17381 5.97864E-05 5.97864E-05-2.73199E-06
 -1     17382 6.44304E-05 5.50288E-05-2.81105E-06
 -1     17383 6.07177E-05 6.07177E-05-2.81974E-06
 -1     17388 5.97865E-05 5.97865E-05-2.90796E-06
 -1     17389 6.44304E-05 5.50287E-05-2.98261E-06
 -1     17390 6.07178E-05 6.07178E-05-2.99627E-06
 -1     17395 5.97866E-05 5.97866E-05-3.08536E-06
 -1     17399 4.96979E-05 6.84032E-05-1.33036E-06
 -1     17400 5.50287E-05 6.44304E-05-1.43312E-06
 -1     17401 5.04719E-05 6.94686E-05-1.41946E-06
 -1     17406 4.96977E-05 6.84031E-05-1.50777E-06
 -1     17407 5.50288E-05 6.44304E-05-1.60467E-06
 -1     17408 5.04718E-05 6.94685E-05-1.59599E-06
 -1     17413 4.96977E-05 6.84030E-05-1.68373E-06
 -1     17414 5.50288E-05 6.44304E-05-1.77671E-06
 -1     17415 5.04718E-05 6.94685E-05-1.77145E-06
 -1     17420 4.96977E-05 6.84030E-05-1.85884E-06
 -1     17421 5.50288E-05 6.44304E-05-1.94906E-06
 -1     17422 5.04718E-05 6.94685E-05-1.94625E-06
 -1     17427 4.96977E-05 6.84030E-05-2.03347E-06
 -1     17428 5.50288E-05 6.44304E-05-2.12158E-06
 -1     17429 5.04718E-05 6.94685E-05-2.12070E-06
 -1     17434 4.96977E-05 6.84030E-05-2.20786E-06
 -1     17435 5.50288E-05 6.44304E-05-2.29415E-06
 -1     17436 5.04718E-05 6.94685E-05-2.29503E-06
 -1     17441 4.96977E-05 6.84030E-05-2.38226E-06
 -1     17442 5.50288E-05 6.44304E-05-2.46667E-06
 -1     17443 5.04718E-05 6.94685E-05-2.46948E-06
 -1     17448 4.96977E-05 6.84030E-05-2.55688E-06
 -1     17449 5.50288E-05 6.44304E-05-2.63901E-06
 -1     17450 5.04718E-05 6.94685E-05-2.64428E-06
 -1     17455 4.96977E-05 6.84030E-05-2.73199E-06
 -1     17456 5.50288E-05 6.44304E-05-2.81105E-06
 -1     17457 5.04718E-05 6.94685E-05-2.81974E-06
 -1     17462 4.96977E-05 6.84031E-05-2.90796E-06
 -1     17463 5.50287E-05 6.44304E-05-2.98261E-06
 -1     17464 5.04719E-05 6.94686E-05-2.99627E-06
 -1     17469 4.96979E-05 6.84032E-05-3.08536E-06
 -1     17473 3.83854E-05 7.53355E-05-1.33036E-06
 -1     17474 4.42721E-05 7.22455E-05-1.43312E-06
 -1     17475 3.89832E-05 7.65089E-05-1.41946E-06
 -1     17480 3.83853E-05 7.53354E-05-1.50777E-06
 -1     17481 4.42722E-05 7.22456E-05-1.60467E-06
 -1     17482 3.89832E-05 7.65088E-05-1.59599E-06
 -1     17487 3.83852E-05 7.53353E-05-1.68373E-06
 -1     17488 4.42722E-05 7.22456E-05-1.77671E-06
 -1     17489 3.89832E-05 7.65088E-05-1.77145E-06
 -1     17494 3.83852E-05 7.53353E-05-1.85884E-06
 -1     17495 4.42722E-05 7.22456E-05-1.94906E-06
 -1     17496 3.89832E-05 7.65088E-05-1.94625E-06
 -1     17501 3.83852E-05 7.53353E-05-2.03347E-06
 -1     17502 4.42722E-05 7.22456E-05-2.12158E-06
 -1     17503 3.89832E-05 7.65088E-05-2.12070E-06
 -1     17508 3.83852E-05 7.53353E-05-2.20786E-06
 -1     17509 4.42722E-05 7.22456E-05-2.29415E-06
 -1     17510 3.89832E-05 7.65088E-05-2.29503E-06
 -1     17515 3.83852E-05 7.53353E-05-2.38226E-06
 -1     17516 4.42722E-05 7.22456E-05-2.46667E-06
 -1     17517 3.89832E-05 7.65088E-05-2.46948E-06
 -1     17522 3.83852E-05 7.53353E-05-2.55688E-06
 -1     17523 4.42722E-05 7.22456E-05-2.63901E-06
 -1     17524 3.89832E-05 7.65088E-05-2.64428E-06
 -1     17529 3.83852E-05 7.53353E-05-2.73199E-06
 -1     17530 4.42722E-05 7.22456E-05-2.81105E-06
 -1     17531 3.89832E-05 7.65088E-05-2.81974E-06
 -1     17536 3.83853E-05 7.53354E-05-2.90796E-06
 -1     17537 4.42721E-05 7.22455E-05-2.98261E-06
 -1     17538 3.89832E-05 7.65089E-05-2.99627E-06
 -1     17543 3.83854E-05 7.53355E-05-3.08536E-06
 -1     17547 2.61277E-05 8.04128E-05-1.33036E-06
 -1     17548 3.24254E-05 7.82818E-05-1.43312E-06
 -1     17549 2.65347E-05 8.16653E-05-1.41946E-06
 -1     17554 2.61276E-05 8.04126E-05-1.50777E-06
 -1     17555 3.24254E-05 7.82818E-05-1.60467E-06
 -1     17556 2.65346E-05 8.16652E-05-1.59599E-06
 -1     17561 2.61276E-05 8.04126E-05-1.68373E-06
 -1     17562 3.24254E-05 7.82818E-05-1.77671E-06
 -1     17563 2.65346E-05 8.16651E-05-1.77145E-06
 -1     17568 2.61276E-05 8.04125E-05-1.85884E-06
 -1     17569 3.24254E-05 7.82818E-05-1.94906E-06
 -1     17570 2.65346E-05 8.16651E-05-1.94625E-06
 -1     17575 2.61276E-05 8.04125E-05-2.03347E-06
 -1     17576 3.24254E-05 7.82818E-05-2.12158E-06
 -1     17577 2.65346E-05 8.16651E-05-2.12070E-06
 -1     17582 2.61276E-05 8.04125E-05-2.20786E-06
 -1     17583 3.24254E-05 7.82818E-05-2.29415E-06
 -1     17584 2.65346E-05 8.16651E-05-2.29503E-06
 -1     17589 2.61276E-05 8.04125E-05-2.38226E-06
 -1     17590 3.24254E-05 7.82818E-05-2.46667E-06
 -1     17591 2.65346E-05 8.16651E-05-2.46948E-06
 -1     17596 2.61276E-05 8.04125E-05-2.55688E-06
 -1     17597 3.24254E-05 7.82818E-05-2.63901E-06
 -1     17598 2.65346E-05 8.16651E-05-2.64428E-06
 -1     17603 2.61276E-05 8.04126E-05-2.73199E-06
 -1     17604 3.24254E-05 7.82818E-05-2.81105E-06
 -1     17605 2.65346E-05 8.16652E-05-2.81974E-06
 -1     17610 2.61276E-05 8.04126E-05-2.90796E-06
 -1     17611 3.24254E-05 7.82818E-05-2.98261E-06
 -1     17612 2.65347E-05 8.16653E-05-2.99627E-06
 -1     17617 2.61277E-05 8.04128E-05-3.08536E-06
 -1     17621 1.32267E-05 8.35101E-05-1.33036E-06
 -1     17622 1.97802E-05 8.23904E-05-1.43312E-06
 -1     17623 1.34327E-05 8.48108E-05-1.41946E-06
 -1     17628 1.32267E-05 8.35099E-05-1.50777E-06
 -1     17629 1.97802E-05 8.23905E-05-1.60467E-06
 -1     17630 1.34327E-05 8.48107E-05-1.59599E-06
 -1     17635 1.32267E-05 8.35098E-05-1.68373E-06
 -1     17636 1.97802E-05 8.23905E-05-1.77671E-06
 -1     17637 1.34327E-05 8.48106E-05-1.77145E-06
 -1     17642 1.32267E-05 8.35098E-05-1.85884E-06
 -1     17643 1.97802E-05 8.23905E-05-1.94906E-06
 -1     17644 1.34327E-05 8.48106E-05-1.94625E-06
 -1     17649 1.32267E-05 8.35098E-05-2.03347E-06
 -1     17650 1.97802E-05 8.23905E-05-2.12158E-06
 -1     17651 1.34327E-05 8.48106E-05-2.12070E-06
 -1     17656 1.32267E-05 8.35098E-05-2.20786E-06
 -1     17657 1.97802E-05 8.23905E-05-2.29415E-06
 -1     17658 1.34327E-05 8.48106E-05-2.29503E-06
 -1     17663 1.32267E-05 8.35098E-05-2.38226E-06
 -1     17664 1.97802E-05 8.23905E-05-2.46667E-06
 -1     17665 1.34327E-05 8.48106E-05-2.46948E-06
 -1     17670 1.32267E-05 8.35098E-05-2.55688E-06
 -1     17671 1.97802E-05 8.23905E-05-2.63901E-06
 -1     17672 1.34327E-05 8.48106E-05-2.64428E-06
 -1     17677 1.32267E-05 8.35098E-05-2.73199E-06
 -1     17678 1.97802E-05 8.23905E-05-2.81105E-06
 -1     17679 1.34327E-05 8.48107E-05-2.81974E-06
 -1     17684 1.32267E-05 8.35099E-05-2.90796E-06
 -1     17685 1.97802E-05 8.23904E-05-2.98261E-06
 -1     17686 1.34327E-05 8.48108E-05-2.99627E-06
 -1     17691 1.32267E-05 8.35101E-05-3.08536E-06
 -1     17695 6.64796E-06 8.44704E-05-1.43312E-06
 -1     17699 6.64797E-06 8.44704E-05-1.60467E-06
 -1     17703 6.64797E-06 8.44704E-05-1.77671E-06
 -1     17707 6.64797E-06 8.44704E-05-1.94906E-06
 -1     17711 6.64797E-06 8.44704E-05-2.12158E-06
 -1     17715 6.64797E-06 8.44704E-05-2.29415E-06
 -1     17719 6.64797E-06 8.44704E-05-2.46667E-06
 -1     17723 6.64797E-06 8.44704E-05-2.63901E-06
 -1     17727 6.64797E-06 8.44704E-05-2.81105E-06
 -1     17731 6.64796E-06 8.44704E-05-2.98261E-06
 -1     17737 8.11050E-05 1.28458E-05-1.33084E-06
 -1     17738 8.20320E-05 6.45606E-06-1.43299E-06
 -1     17739 8.22759E-05 1.30312E-05-1.41973E-06
 -1     17744 8.11049E-05 1.28457E-05-1.50795E-06
 -1     17745 8.20321E-05 6.45607E-06-1.60463E-06
 -1     17746 8.22758E-05 1.30312E-05-1.59608E-06
 -1     17751 8.11048E-05 1.28457E-05-1.68378E-06
 -1     17752 8.20321E-05 6.45607E-06-1.77671E-06
 -1     17753 8.22757E-05 1.30312E-05-1.77146E-06
 -1     17758 8.11048E-05 1.28457E-05-1.85884E-06
 -1     17759 8.20321E-05 6.45607E-06-1.94907E-06
 -1     17760 8.22757E-05 1.30312E-05-1.94623E-06
 -1     17765 8.11048E-05 1.28457E-05-2.03346E-06
 -1     17766 8.20321E-05 6.45607E-06-2.12158E-06
 -1     17767 8.22757E-05 1.30312E-05-2.12069E-06
 -1     17772 8.11048E-05 1.28457E-05-2.20786E-06
 -1     17773 8.20321E-05 6.45607E-06-2.29415E-06
 -1     17774 8.22757E-05 1.30312E-05-2.29504E-06
 -1     17779 8.11048E-05 1.28457E-05-2.38227E-06
 -1     17780 8.20321E-05 6.45607E-06-2.46666E-06
 -1     17781 8.22757E-05 1.30312E-05-2.46949E-06
 -1     17786 8.11048E-05 1.28457E-05-2.55688E-06
 -1     17787 8.20321E-05 6.45607E-06-2.63902E-06
 -1     17788 8.22757E-05 1.30312E-05-2.64427E-06
 -1     17793 8.11048E-05 1.28457E-05-2.73194E-06
 -1     17794 8.20321E-05 6.45607E-06-2.81110E-06
 -1     17795 8.22758E-05 1.30312E-05-2.81965E-06
 -1     17800 8.11049E-05 1.28457E-05-2.90777E-06
 -1     17801 8.20320E-05 6.45606E-06-2.98274E-06
 -1     17802 8.22759E-05 1.30312E-05-2.99600E-06
 -1     17807 8.11050E-05 1.28458E-05-3.08489E-06
 -1     17811 7.80970E-05 2.53752E-05-1.33084E-06
 -1     17812 8.00121E-05 1.92092E-05-1.43299E-06
 -1     17813 7.92244E-05 2.57416E-05-1.41973E-06
 -1     17818 7.80968E-05 2.53752E-05-1.50795E-06
 -1     17819 8.00122E-05 1.92092E-05-1.60463E-06
 -1     17820 7.92243E-05 2.57415E-05-1.59608E-06
 -1     17825 7.80967E-05 2.53752E-05-1.68378E-06
 -1     17826 8.00122E-05 1.92092E-05-1.77671E-06
 -1     17827 7.92243E-05 2.57415E-05-1.77146E-06
 -1     17832 7.80967E-05 2.53752E-05-1.85884E-06
 -1     17833 8.00122E-05 1.92092E-05-1.94907E-06
 -1     17834 7.92242E-05 2.57415E-05-1.94623E-06
 -1     17839 7.80967E-05 2.53752E-05-2.03346E-06
 -1     17840 8.00122E-05 1.92092E-05-2.12158E-06
 -1     17841 7.92243E-05 2.57415E-05-2.12069E-06
 -1     17846 7.80967E-05 2.53752E-05-2.20786E-06
 -1     17847 8.00122E-05 1.92092E-05-2.29415E-06
 -1     17848 7.92243E-05 2.57415E-05-2.29504E-06
 -1     17853 7.80967E-05 2.53752E-05-2.38227E-06
 -1     17854 8.00122E-05 1.92092E-05-2.46666E-06
 -1     17855 7.92242E-05 2.57415E-05-2.46949E-06
 -1     17860 7.80967E-05 2.53752E-05-2.55688E-06
 -1     17861 8.00122E-05 1.92092E-05-2.63902E-06
 -1     17862 7.92243E-05 2.57415E-05-2.64427E-06
 -1     17867 7.80967E-05 2.53752E-05-2.73194E-06
 -1     17868 8.00122E-05 1.92092E-05-2.81110E-06
 -1     17869 7.92243E-05 2.57415E-05-2.81965E-06
 -1     17874 7.80968E-05 2.53752E-05-2.90777E-06
 -1     17875 8.00121E-05 1.92092E-05-2.98274E-06
 -1     17876 7.92244E-05 2.57416E-05-2.99600E-06
 -1     17881 7.80970E-05 2.53752E-05-3.08489E-06
 -1     17885 7.31659E-05 3.72799E-05-1.33084E-06
 -1     17886 7.60221E-05 3.14894E-05-1.43299E-06
 -1     17887 7.42221E-05 3.78181E-05-1.41973E-06
 -1     17892 7.31658E-05 3.72798E-05-1.50795E-06
 -1     17893 7.60221E-05 3.14894E-05-1.60463E-06
 -1     17894 7.42220E-05 3.78180E-05-1.59608E-06
 -1     17899 7.31657E-05 3.72798E-05-1.68378E-06
 -1     17900 7.60221E-05 3.14894E-05-1.77671E-06
 -1     17901 7.42220E-05 3.78180E-05-1.77146E-06
 -1     17906 7.31657E-05 3.72798E-05-1.85884E-06
 -1     17907 7.60221E-05 3.14894E-05-1.94907E-06
 -1     17908 7.42220E-05 3.78180E-05-1.94623E-06
 -1     17913 7.31657E-05 3.72798E-05-2.03346E-06
 -1     17914 7.60221E-05 3.14894E-05-2.12158E-06
 -1     17915 7.42220E-05 3.78180E-05-2.12069E-06
 -1     17920 7.31657E-05 3.72798E-05-2.20786E-06
 -1     17921 7.60221E-05 3.14894E-05-2.29415E-06
 -1     17922 7.42220E-05 3.78180E-05-2.29504E-06
 -1     17927 7.31657E-05 3.72798E-05-2.38227E-06
 -1     17928 7.60221E-05 3.14894E-05-2.46666E-06
 -1     17929 7.42220E-05 3.78180E-05-2.46949E-06
 -1     17934 7.31657E-05 3.72798E-05-2.55688E-06
 -1     17935 7.60221E-05 3.14894E-05-2.63902E-06
 -1     17936 7.42220E-05 3.78180E-05-2.64427E-06
 -1     17941 7.31657E-05 3.72798E-05-2.73194E-06
 -1     17942 7.60221E-05 3.14894E-05-2.81110E-06
 -1     17943 7.42220E-05 3.78180E-05-2.81965E-06
 -1     17948 7.31658E-05 3.72798E-05-2.90777E-06
 -1     17949 7.60221E-05 3.14894E-05-2.98274E-06
 -1     17950 7.42221E-05 3.78181E-05-2.99600E-06
 -1     17955 7.31659E-05 3.72799E-05-3.08489E-06
 -1     17959 6.64333E-05 4.82666E-05-1.33084E-06
 -1     17960 7.01601E-05 4.29942E-05-1.43299E-06
 -1     17961 6.73923E-05 4.89634E-05-1.41973E-06
 -1     17966 6.64331E-05 4.82665E-05-1.50795E-06
 -1     17967 7.01601E-05 4.29942E-05-1.60463E-06
 -1     17968 6.73922E-05 4.89633E-05-1.59608E-06
 -1     17973 6.64331E-05 4.82664E-05-1.68378E-06
 -1     17974 7.01602E-05 4.29942E-05-1.77671E-06
 -1     17975 6.73922E-05 4.89633E-05-1.77146E-06
 -1     17980 6.64330E-05 4.82664E-05-1.85884E-06
 -1     17981 7.01602E-05 4.29942E-05-1.94907E-06
 -1     17982 6.73922E-05 4.89633E-05-1.94623E-06
 -1     17987 6.64330E-05 4.82664E-05-2.03346E-06
 -1     17988 7.01602E-05 4.29942E-05-2.12158E-06
 -1     17989 6.73922E-05 4.89633E-05-2.12069E-06
 -1     17994 6.64330E-05 4.82664E-05-2.20786E-06
 -1     17995 7.01602E-05 4.29942E-05-2.29415E-06
 -1     17996 6.73922E-05 4.89633E-05-2.29504E-06
 -1     18001 6.64330E-05 4.82664E-05-2.38227E-06
 -1     18002 7.01602E-05 4.29942E-05-2.46666E-06
 -1     18003 6.73922E-05 4.89633E-05-2.46949E-06
 -1     18008 6.64330E-05 4.82664E-05-2.55688E-06
 -1     18009 7.01602E-05 4.29942E-05-2.63902E-06
 -1     18010 6.73922E-05 4.89633E-05-2.64427E-06
 -1     18015 6.64331E-05 4.82664E-05-2.73194E-06
 -1     18016 7.01601E-05 4.29942E-05-2.81110E-06
 -1     18017 6.73922E-05 4.89633E-05-2.81965E-06
 -1     18022 6.64331E-05 4.82665E-05-2.90777E-06
 -1     18023 7.01601E-05 4.29942E-05-2.98274E-06
 -1     18024 6.73923E-05 4.89634E-05-2.99600E-06
 -1     18029 6.64333E-05 4.82666E-05-3.08489E-06
 -1     18033 5.80648E-05 5.80648E-05-1.33084E-06
 -1     18034 6.25705E-05 5.34403E-05-1.43299E-06
 -1     18035 5.89030E-05 5.89030E-05-1.41973E-06
 -1     18040 5.80647E-05 5.80647E-05-1.50795E-06
 -1     18041 6.25706E-05 5.34403E-05-1.60463E-06
 -1     18042 5.89029E-05 5.89029E-05-1.59608E-06
 -1     18047 5.80646E-05 5.80646E-05-1.68378E-06
 -1     18048 6.25706E-05 5.34403E-05-1.77671E-06
 -1     18049 5.89029E-05 5.89029E-05-1.77146E-06
 -1     18054 5.80646E-05 5.80646E-05-1.85884E-06
 -1     18055 6.25706E-05 5.34403E-05-1.94907E-06
 -1     18056 5.89029E-05 5.89029E-05-1.94623E-06
 -1     18061 5.80646E-05 5.80646E-05-2.03346E-06
 -1     18062 6.25706E-05 5.34403E-05-2.12158E-06
 -1     18063 5.89029E-05 5.89029E-05-2.12069E-06
 -1     18068 5.80646E-05 5.80646E-05-2.20786E-06
 -1     18069 6.25706E-05 5.34403E-05-2.29415E-06
 -1     18070 5.89029E-05 5.89029E-05-2.29504E-06
 -1     18075 5.80646E-05 5.80646E-05-2.38227E-06
 -1     18076 6.25706E-05 5.34403E-05-2.46666E-06
 -1     18077 5.89029E-05 5.89029E-05-2.46949E-06
 -1     18082 5.80646E-05 5.80646E-05-2.55688E-06
 -1     18083 6.25706E-05 5.34403E-05-2.63902E-06
 -1     18084 5.89029E-05 5.89029E-05-2.64427E-06
 -1     18089 5.80646E-05 5.80646E-05-2.73194E-06
 -1     18090 6.25706E-05 5.34403E-05-2.81110E-06
 -1     18091 5.89029E-05 5.89029E-05-2.81965E-06
 -1     18096 5.80647E-05 5.80647E-05-2.90777E-06
 -1     18097 6.25705E-05 5.34403E-05-2.98274E-06
 -1     18098 5.89030E-05 5.89030E-05-2.99600E-06
 -1     18103 5.80648E-05 5.80648E-05-3.08489E-06
 -1     18107 4.82666E-05 6.64333E-05-1.33084E-06
 -1     18108 5.34403E-05 6.25705E-05-1.43299E-06
 -1     18109 4.89634E-05 6.73923E-05-1.41973E-06
 -1     18114 4.82665E-05 6.64331E-05-1.50795E-06
 -1     18115 5.34403E-05 6.25706E-05-1.60463E-06
 -1     18116 4.89633E-05 6.73922E-05-1.59608E-06
 -1     18121 4.82664E-05 6.64331E-05-1.68378E-06
 -1     18122 5.34403E-05 6.25706E-05-1.77671E-06
 -1     18123 4.89633E-05 6.73922E-05-1.77146E-06
 -1     18128 4.82664E-05 6.64330E-05-1.85884E-06
 -1     18129 5.34403E-05 6.25706E-05-1.94907E-06
 -1     18130 4.89633E-05 6.73922E-05-1.94623E-06
 -1     18135 4.82664E-05 6.64330E-05-2.03346E-06
 -1     18136 5.34403E-05 6.25706E-05-2.12158E-06
 -1     18137 4.89633E-05 6.73922E-05-2.12069E-06
 -1     18142 4.82664E-05 6.64330E-05-2.20786E-06
 -1     18143 5.34403E-05 6.25706E-05-2.29415E-06
 -1     18144 4.89633E-05 6.73922E-05-2.29504E-06
 -1     18149 4.82664E-05 6.64330E-05-2.38227E-06
 -1     18150 5.34403E-05 6.25706E-05-2.46666E-06
 -1     18151 4.89633E-05 6.73922E-05-2.46949E-06
 -1     18156 4.82664E-05 6.64330E-05-2.55688E-06
 -1     18157 5.34403E-05 6.25706E-05-2.63902E-06
 -1     18158 4.89633E-05 6.73922E-05-2.64427E-06
 -1     18163 4.82664E-05 6.64331E-05-2.73194E-06
 -1     18164 5.34403E-05 6.25706E-05-2.81110E-06
 -1     18165 4.89633E-05 6.73922E-05-2.81965E-06
 -1     18170 4.82665E-05 6.64331E-05-2.90777E-06
 -1     18171 5.34403E-05 6.25705E-05-2.98274E-06
 -1     18172 4.89634E-05 6.73923E-05-2.99600E-06
 -1     18177 4.82666E-05 6.64333E-05-3.08489E-06
 -1     18181 3.72799E-05 7.31659E-05-1.33084E-06
 -1     18182 4.29942E-05 7.01601E-05-1.43299E-06
 -1     18183 3.78181E-05 7.42221E-05-1.41973E-06
 -1     18188 3.72798E-05 7.31658E-05-1.50795E-06
 -1     18189 4.29942E-05 7.01601E-05-1.60463E-06
 -1     18190 3.78180E-05 7.42220E-05-1.59608E-06
 -1     18195 3.72798E-05 7.31657E-05-1.68378E-06
 -1     18196 4.29942E-05 7.01602E-05-1.77671E-06
 -1     18197 3.78180E-05 7.42220E-05-1.77146E-06
 -1     18202 3.72798E-05 7.31657E-05-1.85884E-06
 -1     18203 4.29942E-05 7.01602E-05-1.94907E-06
 -1     18204 3.78180E-05 7.42220E-05-1.94623E-06
 -1     18209 3.72798E-05 7.31657E-05-2.03346E-06
 -1     18210 4.29942E-05 7.01602E-05-2.12158E-06
 -1     18211 3.78180E-05 7.42220E-05-2.12069E-06
 -1     18216 3.72798E-05 7.31657E-05-2.20786E-06
 -1     18217 4.29942E-05 7.01602E-05-2.29415E-06
 -1     18218 3.78180E-05 7.42220E-05-2.29504E-06
 -1     18223 3.72798E-05 7.31657E-05-2.38227E-06
 -1     18224 4.29942E-05 7.01602E-05-2.46666E-06
 -1     18225 3.78180E-05 7.42220E-05-2.46949E-06
 -1     18230 3.72798E-05 7.31657E-05-2.55688E-06
 -1     18231 4.29942E-05 7.01602E-05-2.63902E-06
 -1     18232 3.78180E-05 7.42220E-05-2.64427E-06
 -1     18237 3.72798E-05 7.31657E-05-2.73194E-06
 -1     18238 4.29942E-05 7.01601E-05-2.81110E-06
 -1     18239 3.78180E-05 7.42220E-05-2.81965E-06
 -1     18244 3.72798E-05 7.31658E-05-2.90777E-06
 -1     18245 4.29942E-05 7.01601E-05-2.98274E-06
 -1     18246 3.78181E-05 7.42221E-05-2.99600E-06
 -1     18251 3.72799E-05 7.31659E-05-3.08489E-06
 -1     18255 2.53752E-05 7.80970E-05-1.33084E-06
 -1     18256 3.14894E-05 7.60221E-05-1.43299E-06
 -1     18257 2.57416E-05 7.92244E-05-1.41973E-06
 -1     18262 2.53752E-05 7.80968E-05-1.50795E-06
 -1     18263 3.14894E-05 7.60221E-05-1.60463E-06
 -1     18264 2.57415E-05 7.92243E-05-1.59608E-06
 -1     18269 2.53752E-05 7.80967E-05-1.68378E-06
 -1     18270 3.14894E-05 7.60221E-05-1.77671E-06
 -1     18271 2.57415E-05 7.92243E-05-1.77146E-06
 -1     18276 2.53752E-05 7.80967E-05-1.85884E-06
 -1     18277 3.14894E-05 7.60221E-05-1.94907E-06
 -1     18278 2.57415E-05 7.92242E-05-1.94623E-06
 -1     18283 2.53752E-05 7.80967E-05-2.03346E-06
 -1     18284 3.14894E-05 7.60221E-05-2.12158E-06
 -1     18285 2.57415E-05 7.92243E-05-2.12069E-06
 -1     18290 2.53752E-05 7.80967E-05-2.20786E-06
 -1     18291 3.14894E-05 7.60221E-05-2.29415E-06
 -1     18292 2.57415E-05 7.92243E-05-2.29504E-06
 -1     18297 2.53752E-05 7.80967E-05-2.38227E-06
 -1     18298 3.14894E-05 7.60221E-05-2.46666E-06
 -1     18299 2.57415E-05 7.92242E-05-2.46949E-06
 -1     18304 2.53752E-05 7.80967E-05-2.55688E-06
 -1     18305 3.14894E-05 7.60221E-05-2.63902E-06
 -1     18306 2.57415E-05 7.92243E-05-2.64427E-06
 -1     18311 2.53752E-05 7.80967E-05-2.73194E-06
 -1     18312 3.14894E-05 7.60221E-05-2.81110E-06
 -1     18313 2.57415E-05 7.92243E-05-2.81965E-06
 -1     18318 2.53752E-05 7.80968E-05-2.90777E-06
 -1     18319 3.14894E-05 7.60221E-05-2.98274E-06
 -1     18320 2.57416E-05 7.92244E-05-2.99600E-06
 -1     18325 2.53752E-05 7.80970E-05-3.08489E-06
 -1     18329 1.28458E-05 8.11050E-05-1.33084E-06
 -1     18330 1.92092E-05 8.00121E-05-1.43299E-06
 -1     18331 1.30312E-05 8.22759E-05-1.41973E-06
 -1     18336 1.28457E-05 8.11049E-05-1.50795E-06
 -1     18337 1.92092E-05 8.00122E-05-1.60463E-06
 -1     18338 1.30312E-05 8.22758E-05-1.59608E-06
 -1     18343 1.28457E-05 8.11048E-05-1.68378E-06
 -1     18344 1.92092E-05 8.00122E-05-1.77671E-06
 -1     18345 1.30312E-05 8.22757E-05-1.77146E-06
 -1     18350 1.28457E-05 8.11048E-05-1.85884E-06
 -1     18351 1.92092E-05 8.00122E-05-1.94907E-06
 -1     18352 1.30312E-05 8.22757E-05-1.94623E-06
 -1     18357 1.28457E-05 8.11048E-05-2.03346E-06
 -1     18358 1.92092E-05 8.00122E-05-2.12158E-06
 -1     18359 1.30312E-05 8.22757E-05-2.12069E-06
 -1     18364 1.28457E-05 8.11048E-05-2.20786E-06
 -1     18365 1.92092E-05 8.00122E-05-2.29415E-06
 -1     18366 1.30312E-05 8.22757E-05-2.29504E-06
 -1     18371 1.28457E-05 8.11048E-05-2.38227E-06
 -1     18372 1.92092E-05 8.00122E-05-2.46666E-06
 -1     18373 1.30312E-05 8.22757E-05-2.46949E-06
 -1     18378 1.28457E-05 8.11048E-05-2.55688E-06
 -1     18379 1.92092E-05 8.00122E-05-2.63902E-06
 -1     18380 1.30312E-05 8.22757E-05-2.64427E-06
 -1     18385 1.28457E-05 8.11048E-05-2.73194E-06
 -1     18386 1.92092E-05 8.00122E-05-2.81110E-06
 -1     18387 1.30312E-05 8.22758E-05-2.81965E-06
 -1     18392 1.28457E-05 8.11049E-05-2.90777E-06
 -1     18393 1.92092E-05 8.00121E-05-2.98274E-06
 -1     18394 1.30312E-05 8.22759E-05-2.99600E-06
 -1     18399 1.28458E-05 8.11050E-05-3.08489E-06
 -1     18403 6.45606E-06 8.20320E-05-1.43299E-06
 -1     18407 6.45607E-06 8.20321E-05-1.60463E-06
 -1     18411 6.45607E-06 8.20321E-05-1.77671E-06
 -1     18415 6.45607E-06 8.20321E-05-1.94907E-06
 -1     18419 6.45607E-06 8.20321E-05-2.12158E-06
 -1     18423 6.45607E-06 8.20321E-05-2.29415E-06
 -1     18427 6.45607E-06 8.20321E-05-2.46666E-06
 -1     18431 6.45607E-06 8.20321E-05-2.63902E-06
 -1     18435 6.45607E-06 8.20321E-05-2.81110E-06
 -1     18439 6.45606E-06 8.20320E-05-2.98274E-06
 -1     18445 7.89363E-05 1.25023E-05-1.33129E-06
 -1     18446 7.98329E-05 6.28299E-06-1.43287E-06
 -1     18447 7.99927E-05 1.26696E-05-1.41999E-06
 -1     18452 7.89362E-05 1.25023E-05-1.50814E-06
 -1     18453 7.98330E-05 6.28299E-06-1.60458E-06
 -1     18454 7.99926E-05 1.26696E-05-1.59617E-06
 -1     18459 7.89361E-05 1.25022E-05-1.68385E-06
 -1     18460 7.98330E-05 6.28299E-06-1.77670E-06
 -1     18461 7.99926E-05 1.26696E-05-1.77147E-06
 -1     18466 7.89361E-05 1.25022E-05-1.85886E-06
 -1     18467 7.98330E-05 6.28300E-06-1.94907E-06
 -1     18468 7.99926E-05 1.26696E-05-1.94623E-06
 -1     18473 7.89360E-05 1.25022E-05-2.03345E-06
 -1     18474 7.98330E-05 6.28300E-06-2.12158E-06
 -1     18475 7.99926E-05 1.26696E-05-2.12068E-06
 -1     18480 7.89360E-05 1.25022E-05-2.20786E-06
 -1     18481 7.98330E-05 6.28300E-06-2.29414E-06
 -1     18482 7.99926E-05 1.26696E-05-2.29504E-06
 -1     18487 7.89360E-05 1.25022E-05-2.38227E-06
 -1     18488 7.98330E-05 6.28300E-06-2.46666E-06
 -1     18489 7.99926E-05 1.26696E-05-2.46950E-06
 -1     18494 7.89361E-05 1.25022E-05-2.55687E-06
 -1     18495 7.98330E-05 6.28299E-06-2.63903E-06
 -1     18496 7.99926E-05 1.26696E-05-2.64425E-06
 -1     18501 7.89361E-05 1.25022E-05-2.73188E-06
 -1     18502 7.98330E-05 6.28299E-06-2.81115E-06
 -1     18503 7.99926E-05 1.26696E-05-2.81956E-06
 -1     18508 7.89362E-05 1.25023E-05-2.90759E-06
 -1     18509 7.98329E-05 6.28299E-06-2.98286E-06
 -1     18510 7.99927E-05 1.26696E-05-2.99574E-06
 -1     18515 7.89363E-05 1.25023E-05-3.08444E-06
 -1     18519 7.60087E-05 2.46967E-05-1.33129E-06
 -1     18520 7.78672E-05 1.86943E-05-1.43287E-06
 -1     18521 7.70259E-05 2.50272E-05-1.41999E-06
 -1     18526 7.60085E-05 2.46967E-05-1.50814E-06
 -1     18527 7.78672E-05 1.86943E-05-1.60458E-06
 -1     18528 7.70258E-05 2.50272E-05-1.59617E-06
 -1     18533 7.60085E-05 2.46966E-05-1.68385E-06
 -1     18534 7.78673E-05 1.86943E-05-1.77670E-06
 -1     18535 7.70258E-05 2.50272E-05-1.77147E-06
 -1     18540 7.60084E-05 2.46966E-05-1.85886E-06
 -1     18541 7.78673E-05 1.86943E-05-1.94907E-06
 -1     18542 7.70258E-05 2.50272E-05-1.94623E-06
 -1     18547 7.60084E-05 2.46966E-05-2.03345E-06
 -1     18548 7.78673E-05 1.86943E-05-2.12158E-06
 -1     18549 7.70258E-05 2.50272E-05-2.12068E-06
 -1     18554 7.60084E-05 2.46966E-05-2.20786E-06
 -1     18555 7.78673E-05 1.86943E-05-2.29414E-06
 -1     18556 7.70258E-05 2.50272E-05-2.29504E-06
 -1     18561 7.60084E-05 2.46966E-05-2.38227E-06
 -1     18562 7.78673E-05 1.86943E-05-2.46666E-06
 -1     18563 7.70258E-05 2.50272E-05-2.46950E-06
 -1     18568 7.60084E-05 2.46966E-05-2.55687E-06
 -1     18569 7.78673E-05 1.86943E-05-2.63903E-06
 -1     18570 7.70258E-05 2.50272E-05-2.64425E-06
 -1     18575 7.60085E-05 2.46966E-05-2.73188E-06
 -1     18576 7.78672E-05 1.86943E-05-2.81115E-06
 -1     18577 7.70258E-05 2.50272E-05-2.81956E-06
 -1     18582 7.60085E-05 2.46967E-05-2.90759E-06
 -1     18583 7.78672E-05 1.86943E-05-2.98286E-06
 -1     18584 7.70259E-05 2.50272E-05-2.99574E-06
 -1     18589 7.60087E-05 2.46967E-05-3.08444E-06
 -1     18593 7.12095E-05 3.62830E-05-1.33129E-06
 -1     18594 7.39841E-05 3.06452E-05-1.43287E-06
 -1     18595 7.21625E-05 3.67686E-05-1.41999E-06
 -1     18600 7.12093E-05 3.62830E-05-1.50814E-06
 -1     18601 7.39841E-05 3.06452E-05-1.60458E-06
 -1     18602 7.21624E-05 3.67686E-05-1.59617E-06
 -1     18607 7.12093E-05 3.62829E-05-1.68385E-06
 -1     18608 7.39842E-05 3.06452E-05-1.77670E-06
 -1     18609 7.21623E-05 3.67686E-05-1.77147E-06
 -1     18614 7.12092E-05 3.62829E-05-1.85886E-06
 -1     18615 7.39842E-05 3.06452E-05-1.94907E-06
 -1     18616 7.21623E-05 3.67685E-05-1.94623E-06
 -1     18621 7.12092E-05 3.62829E-05-2.03345E-06
 -1     18622 7.39842E-05 3.06452E-05-2.12158E-06
 -1     18623 7.21623E-05 3.67685E-05-2.12068E-06
 -1     18628 7.12092E-05 3.62829E-05-2.20786E-06
 -1     18629 7.39842E-05 3.06452E-05-2.29414E-06
 -1     18630 7.21623E-05 3.67685E-05-2.29504E-06
 -1     18635 7.12092E-05 3.62829E-05-2.38227E-06
 -1     18636 7.39842E-05 3.06452E-05-2.46666E-06
 -1     18637 7.21623E-05 3.67685E-05-2.46950E-06
 -1     18642 7.12092E-05 3.62829E-05-2.55687E-06
 -1     18643 7.39842E-05 3.06452E-05-2.63903E-06
 -1     18644 7.21623E-05 3.67686E-05-2.64425E-06
 -1     18649 7.12093E-05 3.62829E-05-2.73188E-06
 -1     18650 7.39841E-05 3.06452E-05-2.81115E-06
 -1     18651 7.21624E-05 3.67686E-05-2.81956E-06
 -1     18656 7.12093E-05 3.62830E-05-2.90759E-06
 -1     18657 7.39841E-05 3.06452E-05-2.98286E-06
 -1     18658 7.21625E-05 3.67686E-05-2.99574E-06
 -1     18663 7.12095E-05 3.62830E-05-3.08444E-06
 -1     18667 6.46569E-05 4.69760E-05-1.33129E-06
 -1     18668 6.82793E-05 4.18416E-05-1.43287E-06
 -1     18669 6.55222E-05 4.76046E-05-1.41999E-06
 -1     18674 6.46567E-05 4.69759E-05-1.50814E-06
 -1     18675 6.82793E-05 4.18416E-05-1.60458E-06
 -1     18676 6.55221E-05 4.76046E-05-1.59617E-06
 -1     18681 6.46567E-05 4.69758E-05-1.68385E-06
 -1     18682 6.82793E-05 4.18416E-05-1.77670E-06
 -1     18683 6.55220E-05 4.76045E-05-1.77147E-06
 -1     18688 6.46566E-05 4.69758E-05-1.85886E-06
 -1     18689 6.82793E-05 4.18416E-05-1.94907E-06
 -1     18690 6.55220E-05 4.76045E-05-1.94623E-06
 -1     18695 6.46566E-05 4.69758E-05-2.03345E-06
 -1     18696 6.82793E-05 4.18416E-05-2.12158E-06
 -1     18697 6.55220E-05 4.76045E-05-2.12068E-06
 -1     18702 6.46566E-05 4.69758E-05-2.20786E-06
 -1     18703 6.82793E-05 4.18416E-05-2.29414E-06
 -1     18704 6.55220E-05 4.76045E-05-2.29504E-06
 -1     18709 6.46566E-05 4.69758E-05-2.38227E-06
 -1     18710 6.82793E-05 4.18416E-05-2.46666E-06
 -1     18711 6.55220E-05 4.76045E-05-2.46950E-06
 -1     18716 6.46566E-05 4.69758E-05-2.55687E-06
 -1     18717 6.82793E-05 4.18416E-05-2.63903E-06
 -1     18718 6.55220E-05 4.76045E-05-2.64425E-06
 -1     18723 6.46567E-05 4.69758E-05-2.73188E-06
 -1     18724 6.82793E-05 4.18416E-05-2.81115E-06
 -1     18725 6.55221E-05 4.76046E-05-2.81956E-06
 -1     18730 6.46567E-05 4.69759E-05-2.90759E-06
 -1     18731 6.82793E-05 4.18416E-05-2.98286E-06
 -1     18732 6.55222E-05 4.76046E-05-2.99574E-06
 -1     18737 6.46569E-05 4.69760E-05-3.08444E-06
 -1     18741 5.65122E-05 5.65122E-05-1.33129E-06
 -1     18742 6.08932E-05 5.20077E-05-1.43287E-06
 -1     18743 5.72685E-05 5.72685E-05-1.41999E-06
 -1     18748 5.65120E-05 5.65120E-05-1.50814E-06
 -1     18749 6.08932E-05 5.20077E-05-1.60458E-06
 -1     18750 5.72684E-05 5.72684E-05-1.59617E-06
 -1     18755 5.65120E-05 5.65120E-05-1.68385E-06
 -1     18756 6.08932E-05 5.20077E-05-1.77670E-06
 -1     18757 5.72684E-05 5.72684E-05-1.77147E-06
 -1     18762 5.65120E-05 5.65120E-05-1.85886E-06
 -1     18763 6.08932E-05 5.20077E-05-1.94907E-06
 -1     18764 5.72684E-05 5.72684E-05-1.94623E-06
 -1     18769 5.65120E-05 5.65120E-05-2.03345E-06
 -1     18770 6.08932E-05 5.20077E-05-2.12158E-06
 -1     18771 5.72684E-05 5.72684E-05-2.12068E-06
 -1     18776 5.65120E-05 5.65120E-05-2.20786E-06
 -1     18777 6.08932E-05 5.20077E-05-2.29414E-06
 -1     18778 5.72684E-05 5.72684E-05-2.29504E-06
 -1     18783 5.65120E-05 5.65120E-05-2.38227E-06
 -1     18784 6.08932E-05 5.20077E-05-2.46666E-06
 -1     18785 5.72684E-05 5.72684E-05-2.46950E-06
 -1     18790 5.65120E-05 5.65120E-05-2.55687E-06
 -1     18791 6.08932E-05 5.20077E-05-2.63903E-06
 -1     18792 5.72684E-05 5.72684E-05-2.64425E-06
 -1     18797 5.65120E-05 5.65120E-05-2.73188E-06
 -1     18798 6.08932E-05 5.20077E-05-2.81115E-06
 -1     18799 5.72684E-05 5.72684E-05-2.81956E-06
 -1     18804 5.65120E-05 5.65120E-05-2.90759E-06
 -1     18805 6.08932E-05 5.20077E-05-2.98286E-06
 -1     18806 5.72685E-05 5.72685E-05-2.99574E-06
 -1     18811 5.65122E-05 5.65122E-05-3.08444E-06
 -1     18815 4.69760E-05 6.46569E-05-1.33129E-06
 -1     18816 5.20077E-05 6.08932E-05-1.43287E-06
 -1     18817 4.76046E-05 6.55222E-05-1.41999E-06
 -1     18822 4.69759E-05 6.46567E-05-1.50814E-06
 -1     18823 5.20077E-05 6.08932E-05-1.60458E-06
 -1     18824 4.76046E-05 6.55221E-05-1.59617E-06
 -1     18829 4.69758E-05 6.46567E-05-1.68385E-06
 -1     18830 5.20077E-05 6.08932E-05-1.77670E-06
 -1     18831 4.76045E-05 6.55220E-05-1.77147E-06
 -1     18836 4.69758E-05 6.46566E-05-1.85886E-06
 -1     18837 5.20077E-05 6.08932E-05-1.94907E-06
 -1     18838 4.76045E-05 6.55220E-05-1.94623E-06
 -1     18843 4.69758E-05 6.46566E-05-2.03345E-06
 -1     18844 5.20077E-05 6.08932E-05-2.12158E-06
 -1     18845 4.76045E-05 6.55220E-05-2.12068E-06
 -1     18850 4.69758E-05 6.46566E-05-2.20786E-06
 -1     18851 5.20077E-05 6.08932E-05-2.29414E-06
 -1     18852 4.76045E-05 6.55220E-05-2.29504E-06
 -1     18857 4.69758E-05 6.46566E-05-2.38227E-06
 -1     18858 5.20077E-05 6.08932E-05-2.46666E-06
 -1     18859 4.76045E-05 6.55220E-05-2.46950E-06
 -1     18864 4.69758E-05 6.46566E-05-2.55687E-06
 -1     18865 5.20077E-05 6.08932E-05-2.63903E-06
 -1     18866 4.76045E-05 6.55220E-05-2.64425E-06
 -1     18871 4.69758E-05 6.46567E-05-2.73188E-06
 -1     18872 5.20077E-05 6.08932E-05-2.81115E-06
 -1     18873 4.76046E-05 6.55221E-05-2.81956E-06
 -1     18878 4.69759E-05 6.46567E-05-2.90759E-06
 -1     18879 5.20077E-05 6.08932E-05-2.98286E-06
 -1     18880 4.76046E-05 6.55222E-05-2.99574E-06
 -1     18885 4.69760E-05 6.46569E-05-3.08444E-06
 -1     18889 3.62830E-05 7.12095E-05-1.33129E-06
 -1     18890 4.18416E-05 6.82793E-05-1.43287E-06
 -1     18891 3.67686E-05 7.21625E-05-1.41999E-06
 -1     18896 3.62830E-05 7.12093E-05-1.50814E-06
 -1     18897 4.18416E-05 6.82793E-05-1.60458E-06
 -1     18898 3.67686E-05 7.21624E-05-1.59617E-06
 -1     18903 3.62829E-05 7.12093E-05-1.68385E-06
 -1     18904 4.18416E-05 6.82793E-05-1.77670E-06
 -1     18905 3.67686E-05 7.21623E-05-1.77147E-06
 -1     18910 3.62829E-05 7.12092E-05-1.85886E-06
 -1     18911 4.18416E-05 6.82793E-05-1.94907E-06
 -1     18912 3.67685E-05 7.21623E-05-1.94623E-06
 -1     18917 3.62829E-05 7.12092E-05-2.03345E-06
 -1     18918 4.18416E-05 6.82793E-05-2.12158E-06
 -1     18919 3.67685E-05 7.21623E-05-2.12068E-06
 -1     18924 3.62829E-05 7.12092E-05-2.20786E-06
 -1     18925 4.18416E-05 6.82793E-05-2.29414E-06
 -1     18926 3.67685E-05 7.21623E-05-2.29504E-06
 -1     18931 3.62829E-05 7.12092E-05-2.38227E-06
 -1     18932 4.18416E-05 6.82793E-05-2.46666E-06
 -1     18933 3.67685E-05 7.21623E-05-2.46950E-06
 -1     18938 3.62829E-05 7.12092E-05-2.55687E-06
 -1     18939 4.18416E-05 6.82793E-05-2.63903E-06
 -1     18940 3.67686E-05 7.21623E-05-2.64425E-06
 -1     18945 3.62829E-05 7.12093E-05-2.73188E-06
 -1     18946 4.18416E-05 6.82793E-05-2.81115E-06
 -1     18947 3.67686E-05 7.21624E-05-2.81956E-06
 -1     18952 3.62830E-05 7.12093E-05-2.90759E-06
 -1     18953 4.18416E-05 6.82793E-05-2.98286E-06
 -1     18954 3.67686E-05 7.21625E-05-2.99574E-06
 -1     18959 3.62830E-05 7.12095E-05-3.08444E-06
 -1     18963 2.46967E-05 7.60087E-05-1.33129E-06
 -1     18964 3.06452E-05 7.39841E-05-1.43287E-06
 -1     18965 2.50272E-05 7.70259E-05-1.41999E-06
 -1     18970 2.46967E-05 7.60085E-05-1.50814E-06
 -1     18971 3.06452E-05 7.39841E-05-1.60458E-06
 -1     18972 2.50272E-05 7.70258E-05-1.59617E-06
 -1     18977 2.46966E-05 7.60085E-05-1.68385E-06
 -1     18978 3.06452E-05 7.39842E-05-1.77670E-06
 -1     18979 2.50272E-05 7.70258E-05-1.77147E-06
 -1     18984 2.46966E-05 7.60084E-05-1.85886E-06
 -1     18985 3.06452E-05 7.39842E-05-1.94907E-06
 -1     18986 2.50272E-05 7.70258E-05-1.94623E-06
 -1     18991 2.46966E-05 7.60084E-05-2.03345E-06
 -1     18992 3.06452E-05 7.39842E-05-2.12158E-06
 -1     18993 2.50272E-05 7.70258E-05-2.12068E-06
 -1     18998 2.46966E-05 7.60084E-05-2.20786E-06
 -1     18999 3.06452E-05 7.39842E-05-2.29414E-06
 -1     19000 2.50272E-05 7.70258E-05-2.29504E-06
 -1     19005 2.46966E-05 7.60084E-05-2.38227E-06
 -1     19006 3.06452E-05 7.39842E-05-2.46666E-06
 -1     19007 2.50272E-05 7.70258E-05-2.46950E-06
 -1     19012 2.46966E-05 7.60084E-05-2.55687E-06
 -1     19013 3.06452E-05 7.39842E-05-2.63903E-06
 -1     19014 2.50272E-05 7.70258E-05-2.64425E-06
 -1     19019 2.46966E-05 7.60085E-05-2.73188E-06
 -1     19020 3.06452E-05 7.39841E-05-2.81115E-06
 -1     19021 2.50272E-05 7.70258E-05-2.81956E-06
 -1     19026 2.46967E-05 7.60085E-05-2.90759E-06
 -1     19027 3.06452E-05 7.39841E-05-2.98286E-06
 -1     19028 2.50272E-05 7.70259E-05-2.99574E-06
 -1     19033 2.46967E-05 7.60087E-05-3.08444E-06
 -1     19037 1.25023E-05 7.89363E-05-1.33129E-06
 -1     19038 1.86943E-05 7.78672E-05-1.43287E-06
 -1     19039 1.26696E-05 7.99927E-05-1.41999E-06
 -1     19044 1.25023E-05 7.89362E-05-1.50814E-06
 -1     19045 1.86943E-05 7.78672E-05-1.60458E-06
 -1     19046 1.26696E-05 7.99926E-05-1.59617E-06
 -1     19051 1.25022E-05 7.89361E-05-1.68385E-06
 -1     19052 1.86943E-05 7.78673E-05-1.77670E-06
 -1     19053 1.26696E-05 7.99926E-05-1.77147E-06
 -1     19058 1.25022E-05 7.89361E-05-1.85886E-06
 -1     19059 1.86943E-05 7.78673E-05-1.94907E-06
 -1     19060 1.26696E-05 7.99926E-05-1.94623E-06
 -1     19065 1.25022E-05 7.89360E-05-2.03345E-06
 -1     19066 1.86943E-05 7.78673E-05-2.12158E-06
 -1     19067 1.26696E-05 7.99926E-05-2.12068E-06
 -1     19072 1.25022E-05 7.89360E-05-2.20786E-06
 -1     19073 1.86943E-05 7.78673E-05-2.29414E-06
 -1     19074 1.26696E-05 7.99926E-05-2.29504E-06
 -1     19079 1.25022E-05 7.89360E-05-2.38227E-06
 -1     19080 1.86943E-05 7.78673E-05-2.46666E-06
 -1     19081 1.26696E-05 7.99926E-05-2.46950E-06
 -1     19086 1.25022E-05 7.89361E-05-2.55687E-06
 -1     19087 1.86943E-05 7.78673E-05-2.63903E-06
 -1     19088 1.26696E-05 7.99926E-05-2.64425E-06
 -1     19093 1.25022E-05 7.89361E-05-2.73188E-06
 -1     19094 1.86943E-05 7.78672E-05-2.81115E-06
 -1     19095 1.26696E-05 7.99926E-05-2.81956E-06
 -1     19100 1.25023E-05 7.89362E-05-2.90759E-06
 -1     19101 1.86943E-05 7.78672E-05-2.98286E-06
 -1     19102 1.26696E-05 7.99927E-05-2.99574E-06
 -1     19107 1.25023E-05 7.89363E-05-3.08444E-06
 -1     19111 6.28299E-06 7.98329E-05-1.43287E-06
 -1     19115 6.28299E-06 7.98330E-05-1.60458E-06
 -1     19119 6.28299E-06 7.98330E-05-1.77670E-06
 -1     19123 6.28300E-06 7.98330E-05-1.94907E-06
 -1     19127 6.28300E-06 7.98330E-05-2.12158E-06
 -1     19131 6.28300E-06 7.98330E-05-2.29414E-06
 -1     19135 6.28300E-06 7.98330E-05-2.46666E-06
 -1     19139 6.28299E-06 7.98330E-05-2.63903E-06
 -1     19143 6.28299E-06 7.98330E-05-2.81115E-06
 -1     19147 6.28299E-06 7.98329E-05-2.98286E-06
 -1     19153 7.69766E-05 1.21919E-05-1.33171E-06
 -1     19154 7.78455E-05 6.12657E-06-1.43274E-06
 -1     19155 7.79317E-05 1.23432E-05-1.42025E-06
 -1     19160 7.69765E-05 1.21919E-05-1.50832E-06
 -1     19161 7.78455E-05 6.12658E-06-1.60453E-06
 -1     19162 7.79316E-05 1.23431E-05-1.59627E-06
 -1     19167 7.69764E-05 1.21919E-05-1.68392E-06
 -1     19168 7.78456E-05 6.12658E-06-1.77668E-06
 -1     19169 7.79315E-05 1.23431E-05-1.77150E-06
 -1     19174 7.69764E-05 1.21919E-05-1.85887E-06
 -1     19175 7.78456E-05 6.12658E-06-1.94907E-06
 -1     19176 7.79315E-05 1.23431E-05-1.94623E-06
 -1     19181 7.69764E-05 1.21919E-05-2.03346E-06
 -1     19182 7.78456E-05 6.12658E-06-2.12158E-06
 -1     19183 7.79315E-05 1.23431E-05-2.12068E-06
 -1     19188 7.69764E-05 1.21919E-05-2.20786E-06
 -1     19189 7.78456E-05 6.12658E-06-2.29414E-06
 -1     19190 7.79315E-05 1.23431E-05-2.29505E-06
 -1     19195 7.69764E-05 1.21919E-05-2.38227E-06
 -1     19196 7.78456E-05 6.12658E-06-2.46666E-06
 -1     19197 7.79315E-05 1.23431E-05-2.46950E-06
 -1     19202 7.69764E-05 1.21919E-05-2.55685E-06
 -1     19203 7.78456E-05 6.12658E-06-2.63905E-06
 -1     19204 7.79315E-05 1.23431E-05-2.64422E-06
 -1     19209 7.69764E-05 1.21919E-05-2.73181E-06
 -1     19210 7.78455E-05 6.12658E-06-2.81120E-06
 -1     19211 7.79316E-05 1.23431E-05-2.81945E-06
 -1     19216 7.69765E-05 1.21919E-05-2.90740E-06
 -1     19217 7.78455E-05 6.12657E-06-2.98298E-06
 -1     19218 7.79317E-05 1.23432E-05-2.99548E-06
 -1     19223 7.69766E-05 1.21919E-05-3.08402E-06
 -1     19227 7.41217E-05 2.40836E-05-1.33171E-06
 -1     19228 7.59287E-05 1.82289E-05-1.43274E-06
 -1     19229 7.50413E-05 2.43824E-05-1.42025E-06
 -1     19234 7.41215E-05 2.40835E-05-1.50832E-06
 -1     19235 7.59287E-05 1.82289E-05-1.60453E-06
 -1     19236 7.50412E-05 2.43824E-05-1.59627E-06
 -1     19241 7.41215E-05 2.40835E-05-1.68392E-06
 -1     19242 7.59287E-05 1.82289E-05-1.77668E-06
 -1     19243 7.50412E-05 2.43824E-05-1.77150E-06
 -1     19248 7.41214E-05 2.40835E-05-1.85887E-06
 -1     19249 7.59288E-05 1.82289E-05-1.94907E-06
 -1     19250 7.50412E-05 2.43824E-05-1.94623E-06
 -1     19255 7.41214E-05 2.40835E-05-2.03346E-06
 -1     19256 7.59288E-05 1.82289E-05-2.12158E-06
 -1     19257 7.50412E-05 2.43823E-05-2.12068E-06
 -1     19262 7.41214E-05 2.40835E-05-2.20786E-06
 -1     19263 7.59288E-05 1.82289E-05-2.29414E-06
 -1     19264 7.50412E-05 2.43823E-05-2.29505E-06
 -1     19269 7.41214E-05 2.40835E-05-2.38227E-06
 -1     19270 7.59288E-05 1.82289E-05-2.46666E-06
 -1     19271 7.50412E-05 2.43824E-05-2.46950E-06
 -1     19276 7.41214E-05 2.40835E-05-2.55685E-06
 -1     19277 7.59287E-05 1.82289E-05-2.63905E-06
 -1     19278 7.50412E-05 2.43824E-05-2.64422E-06
 -1     19283 7.41215E-05 2.40835E-05-2.73181E-06
 -1     19284 7.59287E-05 1.82289E-05-2.81120E-06
 -1     19285 7.50412E-05 2.43824E-05-2.81945E-06
 -1     19290 7.41215E-05 2.40835E-05-2.90740E-06
 -1     19291 7.59287E-05 1.82289E-05-2.98298E-06
 -1     19292 7.50413E-05 2.43824E-05-2.99548E-06
 -1     19297 7.41217E-05 2.40836E-05-3.08402E-06
 -1     19301 6.94416E-05 3.53823E-05-1.33171E-06
 -1     19302 7.21422E-05 2.98823E-05-1.43274E-06
 -1     19303 7.03032E-05 3.58213E-05-1.42025E-06
 -1     19308 6.94415E-05 3.53822E-05-1.50832E-06
 -1     19309 7.21423E-05 2.98823E-05-1.60453E-06
 -1     19310 7.03031E-05 3.58212E-05-1.59627E-06
 -1     19315 6.94414E-05 3.53822E-05-1.68392E-06
 -1     19316 7.21423E-05 2.98823E-05-1.77668E-06
 -1     19317 7.03030E-05 3.58212E-05-1.77150E-06
 -1     19322 6.94414E-05 3.53822E-05-1.85887E-06
 -1     19323 7.21423E-05 2.98823E-05-1.94907E-06
 -1     19324 7.03030E-05 3.58212E-05-1.94623E-06
 -1     19329 6.94414E-05 3.53822E-05-2.03346E-06
 -1     19330 7.21423E-05 2.98823E-05-2.12158E-06
 -1     19331 7.03030E-05 3.58212E-05-2.12068E-06
 -1     19336 6.94414E-05 3.53821E-05-2.20786E-06
 -1     19337 7.21423E-05 2.98823E-05-2.29414E-06
 -1     19338 7.03030E-05 3.58212E-05-2.29505E-06
 -1     19343 6.94414E-05 3.53822E-05-2.38227E-06
 -1     19344 7.21423E-05 2.98823E-05-2.46666E-06
 -1     19345 7.03030E-05 3.58212E-05-2.46950E-06
 -1     19350 6.94414E-05 3.53822E-05-2.55685E-06
 -1     19351 7.21423E-05 2.98823E-05-2.63905E-06
 -1     19352 7.03030E-05 3.58212E-05-2.64422E-06
 -1     19357 6.94414E-05 3.53822E-05-2.73181E-06
 -1     19358 7.21423E-05 2.98823E-05-2.81120E-06
 -1     19359 7.03031E-05 3.58212E-05-2.81945E-06
 -1     19364 6.94415E-05 3.53822E-05-2.90740E-06
 -1     19365 7.21422E-05 2.98823E-05-2.98298E-06
 -1     19366 7.03032E-05 3.58213E-05-2.99548E-06
 -1     19371 6.94416E-05 3.53823E-05-3.08402E-06
 -1     19375 6.30517E-05 4.58097E-05-1.33171E-06
 -1     19376 6.65794E-05 4.07999E-05-1.43274E-06
 -1     19377 6.38339E-05 4.63781E-05-1.42025E-06
 -1     19382 6.30515E-05 4.58096E-05-1.50832E-06
 -1     19383 6.65795E-05 4.08000E-05-1.60453E-06
 -1     19384 6.38339E-05 4.63780E-05-1.59627E-06
 -1     19389 6.30515E-05 4.58096E-05-1.68392E-06
 -1     19390 6.65795E-05 4.08000E-05-1.77668E-06
 -1     19391 6.38338E-05 4.63780E-05-1.77150E-06
 -1     19396 6.30515E-05 4.58096E-05-1.85887E-06
 -1     19397 6.65795E-05 4.08000E-05-1.94907E-06
 -1     19398 6.38338E-05 4.63780E-05-1.94623E-06
 -1     19403 6.30515E-05 4.58096E-05-2.03346E-06
 -1     19404 6.65795E-05 4.08000E-05-2.12158E-06
 -1     19405 6.38338E-05 4.63780E-05-2.12068E-06
 -1     19410 6.30515E-05 4.58096E-05-2.20786E-06
 -1     19411 6.65795E-05 4.08000E-05-2.29414E-06
 -1     19412 6.38338E-05 4.63780E-05-2.29505E-06
 -1     19417 6.30515E-05 4.58096E-05-2.38227E-06
 -1     19418 6.65795E-05 4.08000E-05-2.46666E-06
 -1     19419 6.38338E-05 4.63780E-05-2.46950E-06
 -1     19424 6.30515E-05 4.58096E-05-2.55685E-06
 -1     19425 6.65795E-05 4.08000E-05-2.63905E-06
 -1     19426 6.38338E-05 4.63780E-05-2.64422E-06
 -1     19431 6.30515E-05 4.58096E-05-2.73181E-06
 -1     19432 6.65795E-05 4.08000E-05-2.81120E-06
 -1     19433 6.38339E-05 4.63780E-05-2.81945E-06
 -1     19438 6.30515E-05 4.58096E-05-2.90740E-06
 -1     19439 6.65794E-05 4.07999E-05-2.98298E-06
 -1     19440 6.38339E-05 4.63781E-05-2.99548E-06
 -1     19445 6.30517E-05 4.58097E-05-3.08402E-06
 -1     19449 5.51092E-05 5.51092E-05-1.33171E-06
 -1     19450 5.93772E-05 5.07129E-05-1.43274E-06
 -1     19451 5.57929E-05 5.57929E-05-1.42025E-06
 -1     19456 5.51091E-05 5.51091E-05-1.50832E-06
 -1     19457 5.93773E-05 5.07130E-05-1.60453E-06
 -1     19458 5.57928E-05 5.57928E-05-1.59627E-06
 -1     19463 5.51090E-05 5.51090E-05-1.68392E-06
 -1     19464 5.93773E-05 5.07130E-05-1.77668E-06
 -1     19465 5.57928E-05 5.57928E-05-1.77150E-06
 -1     19470 5.51090E-05 5.51090E-05-1.85887E-06
 -1     19471 5.93773E-05 5.07130E-05-1.94907E-06
 -1     19472 5.57928E-05 5.57928E-05-1.94623E-06
 -1     19477 5.51090E-05 5.51090E-05-2.03346E-06
 -1     19478 5.93773E-05 5.07130E-05-2.12158E-06
 -1     19479 5.57928E-05 5.57928E-05-2.12068E-06
 -1     19484 5.51090E-05 5.51090E-05-2.20786E-06
 -1     19485 5.93773E-05 5.07130E-05-2.29414E-06
 -1     19486 5.57928E-05 5.57928E-05-2.29505E-06
 -1     19491 5.51090E-05 5.51090E-05-2.38227E-06
 -1     19492 5.93773E-05 5.07130E-05-2.46666E-06
 -1     19493 5.57928E-05 5.57928E-05-2.46950E-06
 -1     19498 5.51090E-05 5.51090E-05-2.55685E-06
 -1     19499 5.93773E-05 5.07130E-05-2.63905E-06
 -1     19500 5.57928E-05 5.57928E-05-2.64422E-06
 -1     19505 5.51090E-05 5.51090E-05-2.73181E-06
 -1     19506 5.93773E-05 5.07130E-05-2.81120E-06
 -1     19507 5.57928E-05 5.57928E-05-2.81945E-06
 -1     19512 5.51091E-05 5.51091E-05-2.90740E-06
 -1     19513 5.93772E-05 5.07129E-05-2.98298E-06
 -1     19514 5.57929E-05 5.57929E-05-2.99548E-06
 -1     19519 5.51092E-05 5.51092E-05-3.08402E-06
 -1     19523 4.58097E-05 6.30517E-05-1.33171E-06
 -1     19524 5.07129E-05 5.93772E-05-1.43274E-06
 -1     19525 4.63781E-05 6.38339E-05-1.42025E-06
 -1     19530 4.58096E-05 6.30515E-05-1.50832E-06
 -1     19531 5.07130E-05 5.93773E-05-1.60453E-06
 -1     19532 4.63780E-05 6.38339E-05-1.59627E-06
 -1     19537 4.58096E-05 6.30515E-05-1.68392E-06
 -1     19538 5.07130E-05 5.93773E-05-1.77668E-06
 -1     19539 4.63780E-05 6.38338E-05-1.77150E-06
 -1     19544 4.58096E-05 6.30515E-05-1.85887E-06
 -1     19545 5.07130E-05 5.93773E-05-1.94907E-06
 -1     19546 4.63780E-05 6.38338E-05-1.94623E-06
 -1     19551 4.58096E-05 6.30515E-05-2.03346E-06
 -1     19552 5.07130E-05 5.93773E-05-2.12158E-06
 -1     19553 4.63780E-05 6.38338E-05-2.12068E-06
 -1     19558 4.58096E-05 6.30515E-05-2.20786E-06
 -1     19559 5.07130E-05 5.93773E-05-2.29414E-06
 -1     19560 4.63780E-05 6.38338E-05-2.29505E-06
 -1     19565 4.58096E-05 6.30515E-05-2.38227E-06
 -1     19566 5.07130E-05 5.93773E-05-2.46666E-06
 -1     19567 4.63780E-05 6.38338E-05-2.46950E-06
 -1     19572 4.58096E-05 6.30515E-05-2.55685E-06
 -1     19573 5.07130E-05 5.93773E-05-2.63905E-06
 -1     19574 4.63780E-05 6.38338E-05-2.64422E-06
 -1     19579 4.58096E-05 6.30515E-05-2.73181E-06
 -1     19580 5.07130E-05 5.93773E-05-2.81120E-06
 -1     19581 4.63780E-05 6.38339E-05-2.81945E-06
 -1     19586 4.58096E-05 6.30515E-05-2.90740E-06
 -1     19587 5.07129E-05 5.93772E-05-2.98298E-06
 -1     19588 4.63781E-05 6.38339E-05-2.99548E-06
 -1     19593 4.58097E-05 6.30517E-05-3.08402E-06
 -1     19597 3.53823E-05 6.94416E-05-1.33171E-06
 -1     19598 4.07999E-05 6.65794E-05-1.43274E-06
 -1     19599 3.58213E-05 7.03032E-05-1.42025E-06
 -1     19604 3.53822E-05 6.94415E-05-1.50832E-06
 -1     19605 4.08000E-05 6.65795E-05-1.60453E-06
 -1     19606 3.58212E-05 7.03031E-05-1.59627E-06
 -1     19611 3.53822E-05 6.94414E-05-1.68392E-06
 -1     19612 4.08000E-05 6.65795E-05-1.77668E-06
 -1     19613 3.58212E-05 7.03030E-05-1.77150E-06
 -1     19618 3.53822E-05 6.94414E-05-1.85887E-06
 -1     19619 4.08000E-05 6.65795E-05-1.94907E-06
 -1     19620 3.58212E-05 7.03030E-05-1.94623E-06
 -1     19625 3.53821E-05 6.94414E-05-2.03346E-06
 -1     19626 4.08000E-05 6.65795E-05-2.12158E-06
 -1     19627 3.58212E-05 7.03030E-05-2.12068E-06
 -1     19632 3.53821E-05 6.94414E-05-2.20786E-06
 -1     19633 4.08000E-05 6.65795E-05-2.29414E-06
 -1     19634 3.58212E-05 7.03030E-05-2.29505E-06
 -1     19639 3.53821E-05 6.94414E-05-2.38227E-06
 -1     19640 4.08000E-05 6.65795E-05-2.46666E-06
 -1     19641 3.58212E-05 7.03030E-05-2.46950E-06
 -1     19646 3.53822E-05 6.94414E-05-2.55685E-06
 -1     19647 4.08000E-05 6.65795E-05-2.63905E-06
 -1     19648 3.58212E-05 7.03030E-05-2.64422E-06
 -1     19653 3.53822E-05 6.94414E-05-2.73181E-06
 -1     19654 4.08000E-05 6.65795E-05-2.81120E-06
 -1     19655 3.58212E-05 7.03031E-05-2.81945E-06
 -1     19660 3.53822E-05 6.94415E-05-2.90740E-06
 -1     19661 4.07999E-05 6.65794E-05-2.98298E-06
 -1     19662 3.58213E-05 7.03032E-05-2.99548E-06
 -1     19667 3.53823E-05 6.94416E-05-3.08402E-06
 -1     19671 2.40836E-05 7.41217E-05-1.33171E-06
 -1     19672 2.98823E-05 7.21422E-05-1.43274E-06
 -1     19673 2.43824E-05 7.50413E-05-1.42025E-06
 -1     19678 2.40835E-05 7.41215E-05-1.50832E-06
 -1     19679 2.98823E-05 7.21423E-05-1.60453E-06
 -1     19680 2.43824E-05 7.50412E-05-1.59627E-06
 -1     19685 2.40835E-05 7.41215E-05-1.68392E-06
 -1     19686 2.98823E-05 7.21423E-05-1.77668E-06
 -1     19687 2.43824E-05 7.50412E-05-1.77150E-06
 -1     19692 2.40835E-05 7.41214E-05-1.85887E-06
 -1     19693 2.98823E-05 7.21423E-05-1.94907E-06
 -1     19694 2.43824E-05 7.50412E-05-1.94623E-06
 -1     19699 2.40835E-05 7.41214E-05-2.03346E-06
 -1     19700 2.98823E-05 7.21423E-05-2.12158E-06
 -1     19701 2.43823E-05 7.50412E-05-2.12068E-06
 -1     19706 2.40835E-05 7.41214E-05-2.20786E-06
 -1     19707 2.98823E-05 7.21423E-05-2.29414E-06
 -1     19708 2.43823E-05 7.50412E-05-2.29505E-06
 -1     19713 2.40835E-05 7.41214E-05-2.38227E-06
 -1     19714 2.98823E-05 7.21423E-05-2.46666E-06
 -1     19715 2.43824E-05 7.50412E-05-2.46950E-06
 -1     19720 2.40835E-05 7.41214E-05-2.55685E-06
 -1     19721 2.98823E-05 7.21423E-05-2.63905E-06
 -1     19722 2.43824E-05 7.50412E-05-2.64422E-06
 -1     19727 2.40835E-05 7.41215E-05-2.73181E-06
 -1     19728 2.98823E-05 7.21423E-05-2.81120E-06
 -1     19729 2.43824E-05 7.50412E-05-2.81945E-06
 -1     19734 2.40835E-05 7.41215E-05-2.90740E-06
 -1     19735 2.98823E-05 7.21422E-05-2.98298E-06
 -1     19736 2.43824E-05 7.50413E-05-2.99548E-06
 -1     19741 2.40836E-05 7.41217E-05-3.08402E-06
 -1     19745 1.21919E-05 7.69766E-05-1.33171E-06
 -1     19746 1.82289E-05 7.59287E-05-1.43274E-06
 -1     19747 1.23432E-05 7.79317E-05-1.42025E-06
 -1     19752 1.21919E-05 7.69765E-05-1.50832E-06
 -1     19753 1.82289E-05 7.59287E-05-1.60453E-06
 -1     19754 1.23431E-05 7.79316E-05-1.59627E-06
 -1     19759 1.21919E-05 7.69764E-05-1.68392E-06
 -1     19760 1.82289E-05 7.59287E-05-1.77668E-06
 -1     19761 1.23431E-05 7.79315E-05-1.77150E-06
 -1     19766 1.21919E-05 7.69764E-05-1.85887E-06
 -1     19767 1.82289E-05 7.59288E-05-1.94907E-06
 -1     19768 1.23431E-05 7.79315E-05-1.94623E-06
 -1     19773 1.21919E-05 7.69764E-05-2.03346E-06
 -1     19774 1.82289E-05 7.59288E-05-2.12158E-06
 -1     19775 1.23431E-05 7.79315E-05-2.12068E-06
 -1     19780 1.21919E-05 7.69764E-05-2.20786E-06
 -1     19781 1.82289E-05 7.59288E-05-2.29414E-06
 -1     19782 1.23431E-05 7.79315E-05-2.29505E-06
 -1     19787 1.21919E-05 7.69764E-05-2.38227E-06
 -1     19788 1.82289E-05 7.59288E-05-2.46666E-06
 -1     19789 1.23431E-05 7.79315E-05-2.46950E-06
 -1     19794 1.21919E-05 7.69764E-05-2.55685E-06
 -1     19795 1.82289E-05 7.59287E-05-2.63905E-06
 -1     19796 1.23431E-05 7.79315E-05-2.64422E-06
 -1     19801 1.21919E-05 7.69764E-05-2.73181E-06
 -1     19802 1.82289E-05 7.59287E-05-2.81120E-06
 -1     19803 1.23431E-05 7.79316E-05-2.81945E-06
 -1     19808 1.21919E-05 7.69765E-05-2.90740E-06
 -1     19809 1.82289E-05 7.59287E-05-2.98298E-06
 -1     19810 1.23432E-05 7.79317E-05-2.99548E-06
 -1     19815 1.21919E-05 7.69766E-05-3.08402E-06
 -1     19819 6.12657E-06 7.78455E-05-1.43274E-06
 -1     19823 6.12658E-06 7.78455E-05-1.60453E-06
 -1     19827 6.12658E-06 7.78456E-05-1.77668E-06
 -1     19831 6.12658E-06 7.78456E-05-1.94907E-06
 -1     19835 6.12658E-06 7.78456E-05-2.12158E-06
 -1     19839 6.12658E-06 7.78456E-05-2.29414E-06
 -1     19843 6.12658E-06 7.78456E-05-2.46666E-06
 -1     19847 6.12658E-06 7.78456E-05-2.63905E-06
 -1     19851 6.12658E-06 7.78455E-05-2.81120E-06
 -1     19855 6.12657E-06 7.78455E-05-2.98298E-06
 -1     19861 7.52027E-05 1.19109E-05-1.33211E-06
 -1     19862 7.60461E-05 5.98496E-06-1.43262E-06
 -1     19863 7.60676E-05 1.20479E-05-1.42050E-06
 -1     19868 7.52026E-05 1.19109E-05-1.50851E-06
 -1     19869 7.60462E-05 5.98497E-06-1.60448E-06
 -1     19870 7.60675E-05 1.20479E-05-1.59638E-06
 -1     19875 7.52025E-05 1.19109E-05-1.68399E-06
 -1     19876 7.60462E-05 5.98497E-06-1.77666E-06
 -1     19877 7.60674E-05 1.20479E-05-1.77154E-06
 -1     19882 7.52025E-05 1.19109E-05-1.85890E-06
 -1     19883 7.60462E-05 5.98497E-06-1.94906E-06
 -1     19884 7.60674E-05 1.20479E-05-1.94624E-06
 -1     19889 7.52025E-05 1.19109E-05-2.03346E-06
 -1     19890 7.60462E-05 5.98497E-06-2.12158E-06
 -1     19891 7.60674E-05 1.20479E-05-2.12068E-06
 -1     19896 7.52025E-05 1.19109E-05-2.20786E-06
 -1     19897 7.60462E-05 5.98497E-06-2.29414E-06
 -1     19898 7.60674E-05 1.20479E-05-2.29505E-06
 -1     19903 7.52025E-05 1.19109E-05-2.38226E-06
 -1     19904 7.60462E-05 5.98497E-06-2.46667E-06
 -1     19905 7.60674E-05 1.20479E-05-2.46949E-06
 -1     19910 7.52025E-05 1.19109E-05-2.55683E-06
 -1     19911 7.60462E-05 5.98497E-06-2.63907E-06
 -1     19912 7.60674E-05 1.20479E-05-2.64419E-06
 -1     19917 7.52025E-05 1.19109E-05-2.73173E-06
 -1     19918 7.60462E-05 5.98497E-06-2.81125E-06
 -1     19919 7.60675E-05 1.20479E-05-2.81935E-06
 -1     19924 7.52026E-05 1.19109E-05-2.90722E-06
 -1     19925 7.60461E-05 5.98496E-06-2.98311E-06
 -1     19926 7.60676E-05 1.20479E-05-2.99522E-06
 -1     19931 7.52027E-05 1.19109E-05-3.08362E-06
 -1     19935 7.24136E-05 2.35286E-05-1.33211E-06
 -1     19936 7.41736E-05 1.78075E-05-1.43262E-06
 -1     19937 7.32464E-05 2.37992E-05-1.42050E-06
 -1     19942 7.24134E-05 2.35286E-05-1.50851E-06
 -1     19943 7.41737E-05 1.78075E-05-1.60448E-06
 -1     19944 7.32463E-05 2.37992E-05-1.59638E-06
 -1     19949 7.24134E-05 2.35285E-05-1.68399E-06
 -1     19950 7.41737E-05 1.78075E-05-1.77666E-06
 -1     19951 7.32462E-05 2.37991E-05-1.77154E-06
 -1     19956 7.24133E-05 2.35285E-05-1.85890E-06
 -1     19957 7.41737E-05 1.78075E-05-1.94906E-06
 -1     19958 7.32462E-05 2.37991E-05-1.94624E-06
 -1     19963 7.24133E-05 2.35285E-05-2.03346E-06
 -1     19964 7.41737E-05 1.78075E-05-2.12158E-06
 -1     19965 7.32462E-05 2.37991E-05-2.12068E-06
 -1     19970 7.24133E-05 2.35285E-05-2.20786E-06
 -1     19971 7.41737E-05 1.78075E-05-2.29414E-06
 -1     19972 7.32462E-05 2.37991E-05-2.29505E-06
 -1     19977 7.24133E-05 2.35285E-05-2.38226E-06
 -1     19978 7.41737E-05 1.78075E-05-2.46667E-06
 -1     19979 7.32462E-05 2.37991E-05-2.46949E-06
 -1     19984 7.24133E-05 2.35285E-05-2.55683E-06
 -1     19985 7.41737E-05 1.78075E-05-2.63907E-06
 -1     19986 7.32462E-05 2.37991E-05-2.64419E-06
 -1     19991 7.24134E-05 2.35285E-05-2.73173E-06
 -1     19992 7.41737E-05 1.78075E-05-2.81125E-06
 -1     19993 7.32463E-05 2.37992E-05-2.81935E-06
 -1     19998 7.24134E-05 2.35286E-05-2.90722E-06
 -1     19999 7.41736E-05 1.78075E-05-2.98311E-06
 -1     20000 7.32464E-05 2.37992E-05-2.99522E-06
 -1     20005 7.24136E-05 2.35286E-05-3.08362E-06
 -1     20009 6.78414E-05 3.45669E-05-1.33211E-06
 -1     20010 7.04747E-05 2.91916E-05-1.43262E-06
 -1     20011 6.86216E-05 3.49644E-05-1.42050E-06
 -1     20016 6.78412E-05 3.45668E-05-1.50851E-06
 -1     20017 7.04748E-05 2.91916E-05-1.60448E-06
 -1     20018 6.86215E-05 3.49644E-05-1.59638E-06
 -1     20023 6.78412E-05 3.45668E-05-1.68399E-06
 -1     20024 7.04748E-05 2.91916E-05-1.77666E-06
 -1     20025 6.86214E-05 3.49644E-05-1.77154E-06
 -1     20030 6.78412E-05 3.45668E-05-1.85890E-06
 -1     20031 7.04748E-05 2.91916E-05-1.94906E-06
 -1     20032 6.86214E-05 3.49644E-05-1.94624E-06
 -1     20037 6.78411E-05 3.45668E-05-2.03346E-06
 -1     20038 7.04748E-05 2.91916E-05-2.12158E-06
 -1     20039 6.86214E-05 3.49644E-05-2.12068E-06
 -1     20044 6.78411E-05 3.45668E-05-2.20786E-06
 -1     20045 7.04748E-05 2.91916E-05-2.29414E-06
 -1     20046 6.86214E-05 3.49644E-05-2.29505E-06
 -1     20051 6.78411E-05 3.45668E-05-2.38226E-06
 -1     20052 7.04748E-05 2.91916E-05-2.46667E-06
 -1     20053 6.86214E-05 3.49644E-05-2.46949E-06
 -1     20058 6.78412E-05 3.45668E-05-2.55683E-06
 -1     20059 7.04748E-05 2.91916E-05-2.63907E-06
 -1     20060 6.86214E-05 3.49644E-05-2.64419E-06
 -1     20065 6.78412E-05 3.45668E-05-2.73173E-06
 -1     20066 7.04748E-05 2.91916E-05-2.81125E-06
 -1     20067 6.86215E-05 3.49644E-05-2.81935E-06
 -1     20072 6.78412E-05 3.45668E-05-2.90722E-06
 -1     20073 7.04747E-05 2.91916E-05-2.98311E-06
 -1     20074 6.86216E-05 3.49644E-05-2.99522E-06
 -1     20079 6.78414E-05 3.45669E-05-3.08362E-06
 -1     20083 6.15987E-05 4.47541E-05-1.33211E-06
 -1     20084 6.50405E-05 3.98569E-05-1.43262E-06
 -1     20085 6.23071E-05 4.52687E-05-1.42050E-06
 -1     20090 6.15986E-05 4.47540E-05-1.50851E-06
 -1     20091 6.50405E-05 3.98569E-05-1.60448E-06
 -1     20092 6.23070E-05 4.52687E-05-1.59638E-06
 -1     20097 6.15985E-05 4.47539E-05-1.68399E-06
 -1     20098 6.50406E-05 3.98569E-05-1.77666E-06
 -1     20099 6.23070E-05 4.52687E-05-1.77154E-06
 -1     20104 6.15985E-05 4.47539E-05-1.85890E-06
 -1     20105 6.50406E-05 3.98569E-05-1.94906E-06
 -1     20106 6.23069E-05 4.52686E-05-1.94624E-06
 -1     20111 6.15985E-05 4.47539E-05-2.03346E-06
 -1     20112 6.50406E-05 3.98569E-05-2.12158E-06
 -1     20113 6.23069E-05 4.52686E-05-2.12068E-06
 -1     20118 6.15985E-05 4.47539E-05-2.20786E-06
 -1     20119 6.50406E-05 3.98569E-05-2.29414E-06
 -1     20120 6.23069E-05 4.52686E-05-2.29505E-06
 -1     20125 6.15985E-05 4.47539E-05-2.38226E-06
 -1     20126 6.50406E-05 3.98569E-05-2.46667E-06
 -1     20127 6.23069E-05 4.52686E-05-2.46949E-06
 -1     20132 6.15985E-05 4.47539E-05-2.55683E-06
 -1     20133 6.50406E-05 3.98569E-05-2.63907E-06
 -1     20134 6.23070E-05 4.52687E-05-2.64419E-06
 -1     20139 6.15985E-05 4.47539E-05-2.73173E-06
 -1     20140 6.50405E-05 3.98569E-05-2.81125E-06
 -1     20141 6.23070E-05 4.52687E-05-2.81935E-06
 -1     20146 6.15986E-05 4.47540E-05-2.90722E-06
 -1     20147 6.50405E-05 3.98569E-05-2.98311E-06
 -1     20148 6.23071E-05 4.52687E-05-2.99522E-06
 -1     20153 6.15987E-05 4.47541E-05-3.08362E-06
 -1     20157 5.38392E-05 5.38392E-05-1.33211E-06
 -1     20158 5.80048E-05 4.95407E-05-1.43262E-06
 -1     20159 5.44584E-05 5.44584E-05-1.42050E-06
 -1     20164 5.38391E-05 5.38391E-05-1.50851E-06
 -1     20165 5.80048E-05 4.95408E-05-1.60448E-06
 -1     20166 5.44583E-05 5.44583E-05-1.59638E-06
 -1     20171 5.38391E-05 5.38391E-05-1.68399E-06
 -1     20172 5.80048E-05 4.95408E-05-1.77666E-06
 -1     20173 5.44583E-05 5.44583E-05-1.77154E-06
 -1     20178 5.38390E-05 5.38390E-05-1.85890E-06
 -1     20179 5.80048E-05 4.95408E-05-1.94906E-06
 -1     20180 5.44583E-05 5.44583E-05-1.94624E-06
 -1     20185 5.38390E-05 5.38390E-05-2.03346E-06
 -1     20186 5.80048E-05 4.95408E-05-2.12158E-06
 -1     20187 5.44583E-05 5.44583E-05-2.12068E-06
 -1     20192 5.38390E-05 5.38390E-05-2.20786E-06
 -1     20193 5.80048E-05 4.95408E-05-2.29414E-06
 -1     20194 5.44583E-05 5.44583E-05-2.29505E-06
 -1     20199 5.38390E-05 5.38390E-05-2.38226E-06
 -1     20200 5.80048E-05 4.95408E-05-2.46667E-06
 -1     20201 5.44583E-05 5.44583E-05-2.46949E-06
 -1     20206 5.38390E-05 5.38390E-05-2.55683E-06
 -1     20207 5.80048E-05 4.95408E-05-2.63907E-06
 -1     20208 5.44583E-05 5.44583E-05-2.64419E-06
 -1     20213 5.38391E-05 5.38391E-05-2.73173E-06
 -1     20214 5.80048E-05 4.95408E-05-2.81125E-06
 -1     20215 5.44583E-05 5.44583E-05-2.81935E-06
 -1     20220 5.38391E-05 5.38391E-05-2.90722E-06
 -1     20221 5.80048E-05 4.95407E-05-2.98311E-06
 -1     20222 5.44584E-05 5.44584E-05-2.99522E-06
 -1     20227 5.38392E-05 5.38392E-05-3.08362E-06
 -1     20231 4.47541E-05 6.15987E-05-1.33211E-06
 -1     20232 4.95407E-05 5.80048E-05-1.43262E-06
 -1     20233 4.52687E-05 6.23071E-05-1.42050E-06
 -1     20238 4.47540E-05 6.15986E-05-1.50851E-06
 -1     20239 4.95408E-05 5.80048E-05-1.60448E-06
 -1     20240 4.52687E-05 6.23070E-05-1.59638E-06
 -1     20245 4.47539E-05 6.15985E-05-1.68399E-06
 -1     20246 4.95408E-05 5.80048E-05-1.77666E-06
 -1     20247 4.52687E-05 6.23070E-05-1.77154E-06
 -1     20252 4.47539E-05 6.15985E-05-1.85890E-06
 -1     20253 4.95408E-05 5.80048E-05-1.94906E-06
 -1     20254 4.52686E-05 6.23069E-05-1.94624E-06
 -1     20259 4.47539E-05 6.15985E-05-2.03346E-06
 -1     20260 4.95408E-05 5.80048E-05-2.12158E-06
 -1     20261 4.52686E-05 6.23069E-05-2.12068E-06
 -1     20266 4.47539E-05 6.15985E-05-2.20786E-06
 -1     20267 4.95408E-05 5.80048E-05-2.29414E-06
 -1     20268 4.52686E-05 6.23069E-05-2.29505E-06
 -1     20273 4.47539E-05 6.15985E-05-2.38226E-06
 -1     20274 4.95408E-05 5.80048E-05-2.46667E-06
 -1     20275 4.52686E-05 6.23069E-05-2.46949E-06
 -1     20280 4.47539E-05 6.15985E-05-2.55683E-06
 -1     20281 4.95408E-05 5.80048E-05-2.63907E-06
 -1     20282 4.52687E-05 6.23070E-05-2.64419E-06
 -1     20287 4.47539E-05 6.15985E-05-2.73173E-06
 -1     20288 4.95408E-05 5.80048E-05-2.81125E-06
 -1     20289 4.52687E-05 6.23070E-05-2.81935E-06
 -1     20294 4.47540E-05 6.15986E-05-2.90722E-06
 -1     20295 4.95407E-05 5.80048E-05-2.98311E-06
 -1     20296 4.52687E-05 6.23071E-05-2.99522E-06
 -1     20301 4.47541E-05 6.15987E-05-3.08362E-06
 -1     20305 3.45669E-05 6.78414E-05-1.33211E-06
 -1     20306 3.98569E-05 6.50405E-05-1.43262E-06
 -1     20307 3.49644E-05 6.86216E-05-1.42050E-06
 -1     20312 3.45668E-05 6.78412E-05-1.50851E-06
 -1     20313 3.98569E-05 6.50405E-05-1.60448E-06
 -1     20314 3.49644E-05 6.86215E-05-1.59638E-06
 -1     20319 3.45668E-05 6.78412E-05-1.68399E-06
 -1     20320 3.98569E-05 6.50406E-05-1.77666E-06
 -1     20321 3.49644E-05 6.86214E-05-1.77154E-06
 -1     20326 3.45668E-05 6.78412E-05-1.85890E-06
 -1     20327 3.98569E-05 6.50406E-05-1.94906E-06
 -1     20328 3.49644E-05 6.86214E-05-1.94624E-06
 -1     20333 3.45668E-05 6.78411E-05-2.03346E-06
 -1     20334 3.98569E-05 6.50406E-05-2.12158E-06
 -1     20335 3.49644E-05 6.86214E-05-2.12068E-06
 -1     20340 3.45668E-05 6.78411E-05-2.20786E-06
 -1     20341 3.98569E-05 6.50406E-05-2.29414E-06
 -1     20342 3.49644E-05 6.86214E-05-2.29505E-06
 -1     20347 3.45668E-05 6.78411E-05-2.38226E-06
 -1     20348 3.98569E-05 6.50406E-05-2.46667E-06
 -1     20349 3.49644E-05 6.86214E-05-2.46949E-06
 -1     20354 3.45668E-05 6.78412E-05-2.55683E-06
 -1     20355 3.98569E-05 6.50406E-05-2.63907E-06
 -1     20356 3.49644E-05 6.86214E-05-2.64419E-06
 -1     20361 3.45668E-05 6.78412E-05-2.73173E-06
 -1     20362 3.98569E-05 6.50405E-05-2.81125E-06
 -1     20363 3.49644E-05 6.86215E-05-2.81935E-06
 -1     20368 3.45668E-05 6.78412E-05-2.90722E-06
 -1     20369 3.98569E-05 6.50405E-05-2.98311E-06
 -1     20370 3.49644E-05 6.86216E-05-2.99522E-06
 -1     20375 3.45669E-05 6.78414E-05-3.08362E-06
 -1     20379 2.35286E-05 7.24136E-05-1.33211E-06
 -1     20380 2.91916E-05 7.04747E-05-1.43262E-06
 -1     20381 2.37992E-05 7.32464E-05-1.42050E-06
 -1     20386 2.35286E-05 7.24134E-05-1.50851E-06
 -1     20387 2.91916E-05 7.04748E-05-1.60448E-06
 -1     20388 2.37992E-05 7.32463E-05-1.59638E-06
 -1     20393 2.35285E-05 7.24134E-05-1.68399E-06
 -1     20394 2.91916E-05 7.04748E-05-1.77666E-06
 -1     20395 2.37991E-05 7.32462E-05-1.77154E-06
 -1     20400 2.35285E-05 7.24133E-05-1.85890E-06
 -1     20401 2.91916E-05 7.04748E-05-1.94906E-06
 -1     20402 2.37991E-05 7.32462E-05-1.94624E-06
 -1     20407 2.35285E-05 7.24133E-05-2.03346E-06
 -1     20408 2.91916E-05 7.04748E-05-2.12158E-06
 -1     20409 2.37991E-05 7.32462E-05-2.12068E-06
 -1     20414 2.35285E-05 7.24133E-05-2.20786E-06
 -1     20415 2.91916E-05 7.04748E-05-2.29414E-06
 -1     20416 2.37991E-05 7.32462E-05-2.29505E-06
 -1     20421 2.35285E-05 7.24133E-05-2.38226E-06
 -1     20422 2.91916E-05 7.04748E-05-2.46667E-06
 -1     20423 2.37991E-05 7.32462E-05-2.46949E-06
 -1     20428 2.35285E-05 7.24133E-05-2.55683E-06
 -1     20429 2.91916E-05 7.04748E-05-2.63907E-06
 -1     20430 2.37991E-05 7.32462E-05-2.64419E-06
 -1     20435 2.35285E-05 7.24134E-05-2.73173E-06
 -1     20436 2.91916E-05 7.04748E-05-2.81125E-06
 -1     20437 2.37992E-05 7.32463E-05-2.81935E-06
 -1     20442 2.35286E-05 7.24134E-05-2.90722E-06
 -1     20443 2.91916E-05 7.04747E-05-2.98311E-06
 -1     20444 2.37992E-05 7.32464E-05-2.99522E-06
 -1     20449 2.35286E-05 7.24136E-05-3.08362E-06
 -1     20453 1.19109E-05 7.52027E-05-1.33211E-06
 -1     20454 1.78075E-05 7.41736E-05-1.43262E-06
 -1     20455 1.20479E-05 7.60676E-05-1.42050E-06
 -1     20460 1.19109E-05 7.52026E-05-1.50851E-06
 -1     20461 1.78075E-05 7.41737E-05-1.60448E-06
 -1     20462 1.20479E-05 7.60675E-05-1.59638E-06
 -1     20467 1.19109E-05 7.52025E-05-1.68399E-06
 -1     20468 1.78075E-05 7.41737E-05-1.77666E-06
 -1     20469 1.20479E-05 7.60674E-05-1.77154E-06
 -1     20474 1.19109E-05 7.52025E-05-1.85890E-06
 -1     20475 1.78075E-05 7.41737E-05-1.94906E-06
 -1     20476 1.20479E-05 7.60674E-05-1.94624E-06
 -1     20481 1.19109E-05 7.52025E-05-2.03346E-06
 -1     20482 1.78075E-05 7.41737E-05-2.12158E-06
 -1     20483 1.20479E-05 7.60674E-05-2.12068E-06
 -1     20488 1.19109E-05 7.52025E-05-2.20786E-06
 -1     20489 1.78075E-05 7.41737E-05-2.29414E-06
 -1     20490 1.20479E-05 7.60674E-05-2.29505E-06
 -1     20495 1.19109E-05 7.52025E-05-2.38226E-06
 -1     20496 1.78075E-05 7.41737E-05-2.46667E-06
 -1     20497 1.20479E-05 7.60674E-05-2.46949E-06
 -1     20502 1.19109E-05 7.52025E-05-2.55683E-06
 -1     20503 1.78075E-05 7.41737E-05-2.63907E-06
 -1     20504 1.20479E-05 7.60674E-05-2.64419E-06
 -1     20509 1.19109E-05 7.52025E-05-2.73173E-06
 -1     20510 1.78075E-05 7.41737E-05-2.81125E-06
 -1     20511 1.20479E-05 7.60675E-05-2.81935E-06
 -1     20516 1.19109E-05 7.52026E-05-2.90722E-06
 -1     20517 1.78075E-05 7.41736E-05-2.98311E-06
 -1     20518 1.20479E-05 7.60676E-05-2.99522E-06
 -1     20523 1.19109E-05 7.52027E-05-3.08362E-06
 -1     20527 5.98496E-06 7.60461E-05-1.43262E-06
 -1     20531 5.98497E-06 7.60462E-05-1.60448E-06
 -1     20535 5.98497E-06 7.60462E-05-1.77666E-06
 -1     20539 5.98497E-06 7.60462E-05-1.94906E-06
 -1     20543 5.98497E-06 7.60462E-05-2.12158E-06
 -1     20547 5.98497E-06 7.60462E-05-2.29414E-06
 -1     20551 5.98497E-06 7.60462E-05-2.46667E-06
 -1     20555 5.98497E-06 7.60462E-05-2.63907E-06
 -1     20559 5.98497E-06 7.60462E-05-2.81125E-06
 -1     20563 5.98496E-06 7.60461E-05-2.98311E-06
 -1     20569 7.35948E-05 1.16563E-05-1.33248E-06
 -1     20570 7.44148E-05 5.85657E-06-1.43250E-06
 -1     20571 7.43790E-05 1.17805E-05-1.42075E-06
 -1     20576 7.35946E-05 1.16562E-05-1.50869E-06
 -1     20577 7.44148E-05 5.85657E-06-1.60442E-06
 -1     20578 7.43789E-05 1.17805E-05-1.59649E-06
 -1     20583 7.35946E-05 1.16562E-05-1.68407E-06
 -1     20584 7.44148E-05 5.85658E-06-1.77664E-06
 -1     20585 7.43788E-05 1.17804E-05-1.77158E-06
 -1     20590 7.35945E-05 1.16562E-05-1.85893E-06
 -1     20591 7.44148E-05 5.85658E-06-1.94905E-06
 -1     20592 7.43788E-05 1.17804E-05-1.94625E-06
 -1     20597 7.35945E-05 1.16562E-05-2.03347E-06
 -1     20598 7.44148E-05 5.85658E-06-2.12158E-06
 -1     20599 7.43788E-05 1.17804E-05-2.12068E-06
 -1     20604 7.35945E-05 1.16562E-05-2.20786E-06
 -1     20605 7.44148E-05 5.85658E-06-2.29415E-06
 -1     20606 7.43788E-05 1.17804E-05-2.29504E-06
 -1     20611 7.35945E-05 1.16562E-05-2.38226E-06
 -1     20612 7.44148E-05 5.85658E-06-2.46667E-06
 -1     20613 7.43788E-05 1.17804E-05-2.46948E-06
 -1     20618 7.35945E-05 1.16562E-05-2.55680E-06
 -1     20619 7.44148E-05 5.85658E-06-2.63909E-06
 -1     20620 7.43788E-05 1.17804E-05-2.64415E-06
 -1     20625 7.35946E-05 1.16562E-05-2.73165E-06
 -1     20626 7.44148E-05 5.85657E-06-2.81131E-06
 -1     20627 7.43789E-05 1.17805E-05-2.81923E-06
 -1     20632 7.35946E-05 1.16562E-05-2.90704E-06
 -1     20633 7.44148E-05 5.85657E-06-2.98322E-06
 -1     20634 7.43790E-05 1.17805E-05-2.99497E-06
 -1     20639 7.35948E-05 1.16563E-05-3.08325E-06
 -1     20643 7.08652E-05 2.30255E-05-1.33248E-06
 -1     20644 7.25824E-05 1.74255E-05-1.43250E-06
 -1     20645 7.16204E-05 2.32709E-05-1.42075E-06
 -1     20650 7.08651E-05 2.30255E-05-1.50869E-06
 -1     20651 7.25825E-05 1.74255E-05-1.60442E-06
 -1     20652 7.16203E-05 2.32708E-05-1.59649E-06
 -1     20657 7.08650E-05 2.30254E-05-1.68407E-06
 -1     20658 7.25825E-05 1.74255E-05-1.77664E-06
 -1     20659 7.16202E-05 2.32708E-05-1.77158E-06
 -1     20664 7.08650E-05 2.30254E-05-1.85893E-06
 -1     20665 7.25825E-05 1.74255E-05-1.94905E-06
 -1     20666 7.16202E-05 2.32708E-05-1.94625E-06
 -1     20671 7.08650E-05 2.30254E-05-2.03347E-06
 -1     20672 7.25825E-05 1.74255E-05-2.12158E-06
 -1     20673 7.16202E-05 2.32708E-05-2.12068E-06
 -1     20678 7.08650E-05 2.30254E-05-2.20786E-06
 -1     20679 7.25825E-05 1.74255E-05-2.29415E-06
 -1     20680 7.16202E-05 2.32708E-05-2.29504E-06
 -1     20685 7.08650E-05 2.30254E-05-2.38226E-06
 -1     20686 7.25825E-05 1.74255E-05-2.46667E-06
 -1     20687 7.16202E-05 2.32708E-05-2.46948E-06
 -1     20692 7.08650E-05 2.30254E-05-2.55680E-06
 -1     20693 7.25825E-05 1.74255E-05-2.63909E-06
 -1     20694 7.16202E-05 2.32708E-05-2.64415E-06
 -1     20699 7.08650E-05 2.30254E-05-2.73165E-06
 -1     20700 7.25825E-05 1.74255E-05-2.81131E-06
 -1     20701 7.16203E-05 2.32708E-05-2.81923E-06
 -1     20706 7.08651E-05 2.30255E-05-2.90704E-06
 -1     20707 7.25824E-05 1.74255E-05-2.98322E-06
 -1     20708 7.16204E-05 2.32709E-05-2.99497E-06
 -1     20713 7.08652E-05 2.30255E-05-3.08325E-06
 -1     20717 6.63908E-05 3.38278E-05-1.33248E-06
 -1     20718 6.89629E-05 2.85654E-05-1.43250E-06
 -1     20719 6.70982E-05 3.41883E-05-1.42075E-06
 -1     20724 6.63907E-05 3.38277E-05-1.50869E-06
 -1     20725 6.89629E-05 2.85654E-05-1.60442E-06
 -1     20726 6.70981E-05 3.41882E-05-1.59649E-06
 -1     20731 6.63906E-05 3.38277E-05-1.68407E-06
 -1     20732 6.89629E-05 2.85654E-05-1.77664E-06
 -1     20733 6.70981E-05 3.41882E-05-1.77158E-06
 -1     20738 6.63906E-05 3.38277E-05-1.85893E-06
 -1     20739 6.89629E-05 2.85654E-05-1.94905E-06
 -1     20740 6.70981E-05 3.41882E-05-1.94625E-06
 -1     20745 6.63906E-05 3.38277E-05-2.03347E-06
 -1     20746 6.89629E-05 2.85654E-05-2.12158E-06
 -1     20747 6.70981E-05 3.41882E-05-2.12068E-06
 -1     20752 6.63906E-05 3.38277E-05-2.20786E-06
 -1     20753 6.89629E-05 2.85654E-05-2.29415E-06
 -1     20754 6.70981E-05 3.41882E-05-2.29504E-06
 -1     20759 6.63906E-05 3.38277E-05-2.38226E-06
 -1     20760 6.89629E-05 2.85654E-05-2.46667E-06
 -1     20761 6.70981E-05 3.41882E-05-2.46948E-06
 -1     20766 6.63906E-05 3.38277E-05-2.55680E-06
 -1     20767 6.89629E-05 2.85654E-05-2.63909E-06
 -1     20768 6.70981E-05 3.41882E-05-2.64415E-06
 -1     20773 6.63906E-05 3.38277E-05-2.73165E-06
 -1     20774 6.89629E-05 2.85654E-05-2.81131E-06
 -1     20775 6.70981E-05 3.41882E-05-2.81923E-06
 -1     20780 6.63907E-05 3.38277E-05-2.90704E-06
 -1     20781 6.89629E-05 2.85654E-05-2.98322E-06
 -1     20782 6.70982E-05 3.41883E-05-2.99497E-06
 -1     20787 6.63908E-05 3.38278E-05-3.08325E-06
 -1     20791 6.02816E-05 4.37971E-05-1.33248E-06
 -1     20792 6.36452E-05 3.90018E-05-1.43250E-06
 -1     20793 6.09239E-05 4.42638E-05-1.42075E-06
 -1     20798 6.02815E-05 4.37970E-05-1.50869E-06
 -1     20799 6.36453E-05 3.90019E-05-1.60442E-06
 -1     20800 6.09238E-05 4.42638E-05-1.59649E-06
 -1     20805 6.02814E-05 4.37970E-05-1.68407E-06
 -1     20806 6.36453E-05 3.90019E-05-1.77664E-06
 -1     20807 6.09238E-05 4.42637E-05-1.77158E-06
 -1     20812 6.02814E-05 4.37970E-05-1.85893E-06
 -1     20813 6.36453E-05 3.90019E-05-1.94905E-06
 -1     20814 6.09238E-05 4.42637E-05-1.94625E-06
 -1     20819 6.02814E-05 4.37970E-05-2.03347E-06
 -1     20820 6.36453E-05 3.90019E-05-2.12158E-06
 -1     20821 6.09238E-05 4.42637E-05-2.12068E-06
 -1     20826 6.02814E-05 4.37970E-05-2.20786E-06
 -1     20827 6.36453E-05 3.90019E-05-2.29415E-06
 -1     20828 6.09238E-05 4.42637E-05-2.29504E-06
 -1     20833 6.02814E-05 4.37970E-05-2.38226E-06
 -1     20834 6.36453E-05 3.90019E-05-2.46667E-06
 -1     20835 6.09238E-05 4.42637E-05-2.46948E-06
 -1     20840 6.02814E-05 4.37970E-05-2.55680E-06
 -1     20841 6.36453E-05 3.90019E-05-2.63909E-06
 -1     20842 6.09238E-05 4.42637E-05-2.64415E-06
 -1     20847 6.02814E-05 4.37970E-05-2.73165E-06
 -1     20848 6.36453E-05 3.90019E-05-2.81131E-06
 -1     20849 6.09238E-05 4.42638E-05-2.81923E-06
 -1     20854 6.02815E-05 4.37970E-05-2.90704E-06
 -1     20855 6.36452E-05 3.90018E-05-2.98322E-06
 -1     20856 6.09239E-05 4.42638E-05-2.99497E-06
 -1     20861 6.02816E-05 4.37971E-05-3.08325E-06
 -1     20865 5.26880E-05 5.26880E-05-1.33248E-06
 -1     20866 5.67604E-05 4.84780E-05-1.43250E-06
 -1     20867 5.32495E-05 5.32495E-05-1.42075E-06
 -1     20872 5.26879E-05 5.26879E-05-1.50869E-06
 -1     20873 5.67604E-05 4.84780E-05-1.60442E-06
 -1     20874 5.32494E-05 5.32494E-05-1.59649E-06
 -1     20879 5.26879E-05 5.26879E-05-1.68407E-06
 -1     20880 5.67605E-05 4.84780E-05-1.77664E-06
 -1     20881 5.32494E-05 5.32494E-05-1.77158E-06
 -1     20886 5.26879E-05 5.26879E-05-1.85893E-06
 -1     20887 5.67605E-05 4.84780E-05-1.94905E-06
 -1     20888 5.32494E-05 5.32494E-05-1.94625E-06
 -1     20893 5.26879E-05 5.26879E-05-2.03347E-06
 -1     20894 5.67605E-05 4.84780E-05-2.12158E-06
 -1     20895 5.32493E-05 5.32494E-05-2.12068E-06
 -1     20900 5.26879E-05 5.26879E-05-2.20786E-06
 -1     20901 5.67605E-05 4.84780E-05-2.29415E-06
 -1     20902 5.32493E-05 5.32494E-05-2.29504E-06
 -1     20907 5.26879E-05 5.26879E-05-2.38226E-06
 -1     20908 5.67605E-05 4.84780E-05-2.46667E-06
 -1     20909 5.32494E-05 5.32494E-05-2.46948E-06
 -1     20914 5.26879E-05 5.26879E-05-2.55680E-06
 -1     20915 5.67605E-05 4.84780E-05-2.63909E-06
 -1     20916 5.32494E-05 5.32494E-05-2.64415E-06
 -1     20921 5.26879E-05 5.26879E-05-2.73165E-06
 -1     20922 5.67604E-05 4.84780E-05-2.81131E-06
 -1     20923 5.32494E-05 5.32494E-05-2.81923E-06
 -1     20928 5.26879E-05 5.26879E-05-2.90704E-06
 -1     20929 5.67604E-05 4.84780E-05-2.98322E-06
 -1     20930 5.32495E-05 5.32495E-05-2.99497E-06
 -1     20935 5.26880E-05 5.26880E-05-3.08325E-06
 -1     20939 4.37971E-05 6.02816E-05-1.33248E-06
 -1     20940 4.84780E-05 5.67604E-05-1.43250E-06
 -1     20941 4.42638E-05 6.09239E-05-1.42075E-06
 -1     20946 4.37970E-05 6.02815E-05-1.50869E-06
 -1     20947 4.84780E-05 5.67604E-05-1.60442E-06
 -1     20948 4.42638E-05 6.09238E-05-1.59649E-06
 -1     20953 4.37970E-05 6.02814E-05-1.68407E-06
 -1     20954 4.84780E-05 5.67605E-05-1.77664E-06
 -1     20955 4.42637E-05 6.09238E-05-1.77158E-06
 -1     20960 4.37970E-05 6.02814E-05-1.85893E-06
 -1     20961 4.84780E-05 5.67605E-05-1.94905E-06
 -1     20962 4.42637E-05 6.09238E-05-1.94625E-06
 -1     20967 4.37970E-05 6.02814E-05-2.03347E-06
 -1     20968 4.84780E-05 5.67605E-05-2.12158E-06
 -1     20969 4.42637E-05 6.09238E-05-2.12068E-06
 -1     20974 4.37970E-05 6.02814E-05-2.20786E-06
 -1     20975 4.84780E-05 5.67605E-05-2.29415E-06
 -1     20976 4.42637E-05 6.09238E-05-2.29504E-06
 -1     20981 4.37970E-05 6.02814E-05-2.38226E-06
 -1     20982 4.84780E-05 5.67605E-05-2.46667E-06
 -1     20983 4.42637E-05 6.09238E-05-2.46948E-06
 -1     20988 4.37970E-05 6.02814E-05-2.55680E-06
 -1     20989 4.84780E-05 5.67605E-05-2.63909E-06
 -1     20990 4.42637E-05 6.09238E-05-2.64415E-06
 -1     20995 4.37970E-05 6.02814E-05-2.73165E-06
 -1     20996 4.84780E-05 5.67604E-05-2.81131E-06
 -1     20997 4.42638E-05 6.09238E-05-2.81923E-06
 -1     21002 4.37970E-05 6.02815E-05-2.90704E-06
 -1     21003 4.84780E-05 5.67604E-05-2.98322E-06
 -1     21004 4.42638E-05 6.09239E-05-2.99497E-06
 -1     21009 4.37971E-05 6.02816E-05-3.08325E-06
 -1     21013 3.38278E-05 6.63908E-05-1.33248E-06
 -1     21014 3.90018E-05 6.36452E-05-1.43250E-06
 -1     21015 3.41883E-05 6.70982E-05-1.42075E-06
 -1     21020 3.38277E-05 6.63907E-05-1.50869E-06
 -1     21021 3.90019E-05 6.36453E-05-1.60442E-06
 -1     21022 3.41882E-05 6.70981E-05-1.59649E-06
 -1     21027 3.38277E-05 6.63906E-05-1.68407E-06
 -1     21028 3.90019E-05 6.36453E-05-1.77664E-06
 -1     21029 3.41882E-05 6.70981E-05-1.77158E-06
 -1     21034 3.38277E-05 6.63906E-05-1.85893E-06
 -1     21035 3.90019E-05 6.36453E-05-1.94905E-06
 -1     21036 3.41882E-05 6.70981E-05-1.94625E-06
 -1     21041 3.38277E-05 6.63906E-05-2.03347E-06
 -1     21042 3.90019E-05 6.36453E-05-2.12158E-06
 -1     21043 3.41882E-05 6.70981E-05-2.12068E-06
 -1     21048 3.38277E-05 6.63906E-05-2.20786E-06
 -1     21049 3.90019E-05 6.36453E-05-2.29415E-06
 -1     21050 3.41882E-05 6.70981E-05-2.29504E-06
 -1     21055 3.38277E-05 6.63906E-05-2.38226E-06
 -1     21056 3.90019E-05 6.36453E-05-2.46667E-06
 -1     21057 3.41882E-05 6.70981E-05-2.46948E-06
 -1     21062 3.38277E-05 6.63906E-05-2.55680E-06
 -1     21063 3.90019E-05 6.36453E-05-2.63909E-06
 -1     21064 3.41882E-05 6.70981E-05-2.64415E-06
 -1     21069 3.38277E-05 6.63906E-05-2.73165E-06
 -1     21070 3.90019E-05 6.36453E-05-2.81131E-06
 -1     21071 3.41882E-05 6.70981E-05-2.81923E-06
 -1     21076 3.38277E-05 6.63907E-05-2.90704E-06
 -1     21077 3.90018E-05 6.36452E-05-2.98322E-06
 -1     21078 3.41883E-05 6.70982E-05-2.99497E-06
 -1     21083 3.38278E-05 6.63908E-05-3.08325E-06
 -1     21087 2.30255E-05 7.08652E-05-1.33248E-06
 -1     21088 2.85654E-05 6.89629E-05-1.43250E-06
 -1     21089 2.32709E-05 7.16204E-05-1.42075E-06
 -1     21094 2.30255E-05 7.08651E-05-1.50869E-06
 -1     21095 2.85654E-05 6.89629E-05-1.60442E-06
 -1     21096 2.32708E-05 7.16203E-05-1.59649E-06
 -1     21101 2.30254E-05 7.08650E-05-1.68407E-06
 -1     21102 2.85654E-05 6.89629E-05-1.77664E-06
 -1     21103 2.32708E-05 7.16202E-05-1.77158E-06
 -1     21108 2.30254E-05 7.08650E-05-1.85893E-06
 -1     21109 2.85654E-05 6.89629E-05-1.94905E-06
 -1     21110 2.32708E-05 7.16202E-05-1.94625E-06
 -1     21115 2.30254E-05 7.08650E-05-2.03347E-06
 -1     21116 2.85654E-05 6.89629E-05-2.12158E-06
 -1     21117 2.32708E-05 7.16202E-05-2.12068E-06
 -1     21122 2.30254E-05 7.08650E-05-2.20786E-06
 -1     21123 2.85654E-05 6.89629E-05-2.29415E-06
 -1     21124 2.32708E-05 7.16202E-05-2.29504E-06
 -1     21129 2.30254E-05 7.08650E-05-2.38226E-06
 -1     21130 2.85654E-05 6.89629E-05-2.46667E-06
 -1     21131 2.32708E-05 7.16202E-05-2.46948E-06
 -1     21136 2.30254E-05 7.08650E-05-2.55680E-06
 -1     21137 2.85654E-05 6.89629E-05-2.63909E-06
 -1     21138 2.32708E-05 7.16202E-05-2.64415E-06
 -1     21143 2.30254E-05 7.08650E-05-2.73165E-06
 -1     21144 2.85654E-05 6.89629E-05-2.81131E-06
 -1     21145 2.32708E-05 7.16203E-05-2.81923E-06
 -1     21150 2.30255E-05 7.08651E-05-2.90704E-06
 -1     21151 2.85654E-05 6.89629E-05-2.98322E-06
 -1     21152 2.32709E-05 7.16204E-05-2.99497E-06
 -1     21157 2.30255E-05 7.08652E-05-3.08325E-06
 -1     21161 1.16563E-05 7.35948E-05-1.33248E-06
 -1     21162 1.74255E-05 7.25824E-05-1.43250E-06
 -1     21163 1.17805E-05 7.43790E-05-1.42075E-06
 -1     21168 1.16562E-05 7.35946E-05-1.50869E-06
 -1     21169 1.74255E-05 7.25825E-05-1.60442E-06
 -1     21170 1.17805E-05 7.43789E-05-1.59649E-06
 -1     21175 1.16562E-05 7.35946E-05-1.68407E-06
 -1     21176 1.74255E-05 7.25825E-05-1.77664E-06
 -1     21177 1.17804E-05 7.43788E-05-1.77158E-06
 -1     21182 1.16562E-05 7.35945E-05-1.85893E-06
 -1     21183 1.74255E-05 7.25825E-05-1.94905E-06
 -1     21184 1.17804E-05 7.43788E-05-1.94625E-06
 -1     21189 1.16562E-05 7.35945E-05-2.03347E-06
 -1     21190 1.74255E-05 7.25825E-05-2.12158E-06
 -1     21191 1.17804E-05 7.43788E-05-2.12068E-06
 -1     21196 1.16562E-05 7.35945E-05-2.20786E-06
 -1     21197 1.74255E-05 7.25825E-05-2.29415E-06
 -1     21198 1.17804E-05 7.43788E-05-2.29504E-06
 -1     21203 1.16562E-05 7.35945E-05-2.38226E-06
 -1     21204 1.74255E-05 7.25825E-05-2.46667E-06
 -1     21205 1.17804E-05 7.43788E-05-2.46948E-06
 -1     21210 1.16562E-05 7.35945E-05-2.55680E-06
 -1     21211 1.74255E-05 7.25825E-05-2.63909E-06
 -1     21212 1.17804E-05 7.43788E-05-2.64415E-06
 -1     21217 1.16562E-05 7.35946E-05-2.73165E-06
 -1     21218 1.74255E-05 7.25825E-05-2.81131E-06
 -1     21219 1.17805E-05 7.43789E-05-2.81923E-06
 -1     21224 1.16562E-05 7.35946E-05-2.90704E-06
 -1     21225 1.74255E-05 7.25824E-05-2.98322E-06
 -1     21226 1.17805E-05 7.43790E-05-2.99497E-06
 -1     21231 1.16563E-05 7.35948E-05-3.08325E-06
 -1     21235 5.85657E-06 7.44148E-05-1.43250E-06
 -1     21239 5.85657E-06 7.44148E-05-1.60442E-06
 -1     21243 5.85657E-06 7.44148E-05-1.77664E-06
 -1     21247 5.85658E-06 7.44148E-05-1.94905E-06
 -1     21251 5.85658E-06 7.44148E-05-2.12158E-06
 -1     21255 5.85658E-06 7.44148E-05-2.29415E-06
 -1     21259 5.85658E-06 7.44148E-05-2.46667E-06
 -1     21263 5.85657E-06 7.44148E-05-2.63909E-06
 -1     21267 5.85657E-06 7.44148E-05-2.81131E-06
 -1     21271 5.85657E-06 7.44148E-05-2.98322E-06
 -1     21277 7.21355E-05 1.14251E-05-1.33284E-06
 -1     21278 7.29340E-05 5.74003E-06-1.43239E-06
 -1     21279 7.28474E-05 1.15379E-05-1.42099E-06
 -1     21284 7.21354E-05 1.14251E-05-1.50887E-06
 -1     21285 7.29340E-05 5.74003E-06-1.60436E-06
 -1     21286 7.28473E-05 1.15379E-05-1.59661E-06
 -1     21291 7.21353E-05 1.14251E-05-1.68416E-06
 -1     21292 7.29340E-05 5.74003E-06-1.77661E-06
 -1     21293 7.28472E-05 1.15379E-05-1.77163E-06
 -1     21298 7.21353E-05 1.14251E-05-1.85896E-06
 -1     21299 7.29341E-05 5.74003E-06-1.94904E-06
 -1     21300 7.28472E-05 1.15379E-05-1.94627E-06
 -1     21305 7.21353E-05 1.14251E-05-2.03348E-06
 -1     21306 7.29341E-05 5.74004E-06-2.12158E-06
 -1     21307 7.28472E-05 1.15379E-05-2.12069E-06
 -1     21312 7.21353E-05 1.14251E-05-2.20786E-06
 -1     21313 7.29341E-05 5.74004E-06-2.29415E-06
 -1     21314 7.28472E-05 1.15379E-05-2.29504E-06
 -1     21319 7.21353E-05 1.14251E-05-2.38224E-06
 -1     21320 7.29341E-05 5.74003E-06-2.46668E-06
 -1     21321 7.28472E-05 1.15379E-05-2.46946E-06
 -1     21326 7.21353E-05 1.14251E-05-2.55676E-06
 -1     21327 7.29340E-05 5.74003E-06-2.63911E-06
 -1     21328 7.28472E-05 1.15379E-05-2.64410E-06
 -1     21333 7.21353E-05 1.14251E-05-2.73157E-06
 -1     21334 7.29340E-05 5.74003E-06-2.81136E-06
 -1     21335 7.28473E-05 1.15379E-05-2.81912E-06
 -1     21340 7.21354E-05 1.14251E-05-2.90686E-06
 -1     21341 7.29340E-05 5.74003E-06-2.98334E-06
 -1     21342 7.28474E-05 1.15379E-05-2.99473E-06
 -1     21347 7.21355E-05 1.14251E-05-3.08289E-06
 -1     21351 6.94601E-05 2.25690E-05-1.33284E-06
 -1     21352 7.11381E-05 1.70787E-05-1.43239E-06
 -1     21353 7.01456E-05 2.27917E-05-1.42099E-06
 -1     21358 6.94600E-05 2.25689E-05-1.50887E-06
 -1     21359 7.11382E-05 1.70788E-05-1.60436E-06
 -1     21360 7.01455E-05 2.27916E-05-1.59661E-06
 -1     21365 6.94599E-05 2.25689E-05-1.68416E-06
 -1     21366 7.11382E-05 1.70788E-05-1.77661E-06
 -1     21367 7.01454E-05 2.27916E-05-1.77163E-06
 -1     21372 6.94599E-05 2.25689E-05-1.85896E-06
 -1     21373 7.11382E-05 1.70788E-05-1.94904E-06
 -1     21374 7.01454E-05 2.27916E-05-1.94627E-06
 -1     21379 6.94599E-05 2.25689E-05-2.03348E-06
 -1     21380 7.11382E-05 1.70788E-05-2.12158E-06
 -1     21381 7.01454E-05 2.27916E-05-2.12069E-06
 -1     21386 6.94599E-05 2.25689E-05-2.20786E-06
 -1     21387 7.11382E-05 1.70788E-05-2.29415E-06
 -1     21388 7.01454E-05 2.27916E-05-2.29504E-06
 -1     21393 6.94599E-05 2.25689E-05-2.38224E-06
 -1     21394 7.11382E-05 1.70788E-05-2.46668E-06
 -1     21395 7.01454E-05 2.27916E-05-2.46946E-06
 -1     21400 6.94599E-05 2.25689E-05-2.55676E-06
 -1     21401 7.11382E-05 1.70788E-05-2.63911E-06
 -1     21402 7.01454E-05 2.27916E-05-2.64410E-06
 -1     21407 6.94599E-05 2.25689E-05-2.73157E-06
 -1     21408 7.11382E-05 1.70788E-05-2.81136E-06
 -1     21409 7.01455E-05 2.27916E-05-2.81912E-06
 -1     21414 6.94600E-05 2.25689E-05-2.90686E-06
 -1     21415 7.11381E-05 1.70787E-05-2.98334E-06
 -1     21416 7.01456E-05 2.27917E-05-2.99473E-06
 -1     21421 6.94601E-05 2.25690E-05-3.08289E-06
 -1     21425 6.50744E-05 3.31571E-05-1.33284E-06
 -1     21426 6.75906E-05 2.79969E-05-1.43239E-06
 -1     21427 6.57166E-05 3.34843E-05-1.42099E-06
 -1     21432 6.50743E-05 3.31570E-05-1.50887E-06
 -1     21433 6.75906E-05 2.79969E-05-1.60436E-06
 -1     21434 6.57165E-05 3.34842E-05-1.59661E-06
 -1     21439 6.50742E-05 3.31570E-05-1.68416E-06
 -1     21440 6.75906E-05 2.79970E-05-1.77661E-06
 -1     21441 6.57164E-05 3.34842E-05-1.77163E-06
 -1     21446 6.50742E-05 3.31569E-05-1.85896E-06
 -1     21447 6.75906E-05 2.79970E-05-1.94904E-06
 -1     21448 6.57164E-05 3.34842E-05-1.94627E-06
 -1     21453 6.50742E-05 3.31569E-05-2.03348E-06
 -1     21454 6.75906E-05 2.79970E-05-2.12158E-06
 -1     21455 6.57164E-05 3.34842E-05-2.12069E-06
 -1     21460 6.50742E-05 3.31569E-05-2.20786E-06
 -1     21461 6.75906E-05 2.79970E-05-2.29415E-06
 -1     21462 6.57164E-05 3.34842E-05-2.29504E-06
 -1     21467 6.50742E-05 3.31569E-05-2.38224E-06
 -1     21468 6.75906E-05 2.79970E-05-2.46668E-06
 -1     21469 6.57164E-05 3.34842E-05-2.46946E-06
 -1     21474 6.50742E-05 3.31569E-05-2.55676E-06
 -1     21475 6.75906E-05 2.79970E-05-2.63911E-06
 -1     21476 6.57164E-05 3.34842E-05-2.64410E-06
 -1     21481 6.50742E-05 3.31570E-05-2.73157E-06
 -1     21482 6.75906E-05 2.79969E-05-2.81136E-06
 -1     21483 6.57165E-05 3.34842E-05-2.81912E-06
 -1     21488 6.50743E-05 3.31570E-05-2.90686E-06
 -1     21489 6.75906E-05 2.79969E-05-2.98334E-06
 -1     21490 6.57166E-05 3.34843E-05-2.99473E-06
 -1     21495 6.50744E-05 3.31571E-05-3.08289E-06
 -1     21499 5.90863E-05 4.29287E-05-1.33284E-06
 -1     21500 6.23787E-05 3.82257E-05-1.43239E-06
 -1     21501 5.96694E-05 4.33523E-05-1.42099E-06
 -1     21506 5.90862E-05 4.29286E-05-1.50887E-06
 -1     21507 6.23788E-05 3.82258E-05-1.60436E-06
 -1     21508 5.96693E-05 4.33523E-05-1.59661E-06
 -1     21513 5.90861E-05 4.29286E-05-1.68416E-06
 -1     21514 6.23788E-05 3.82258E-05-1.77661E-06
 -1     21515 5.96693E-05 4.33523E-05-1.77163E-06
 -1     21520 5.90861E-05 4.29286E-05-1.85896E-06
 -1     21521 6.23788E-05 3.82258E-05-1.94904E-06
 -1     21522 5.96693E-05 4.33523E-05-1.94627E-06
 -1     21527 5.90861E-05 4.29286E-05-2.03348E-06
 -1     21528 6.23788E-05 3.82258E-05-2.12158E-06
 -1     21529 5.96693E-05 4.33523E-05-2.12069E-06
 -1     21534 5.90861E-05 4.29286E-05-2.20786E-06
 -1     21535 6.23788E-05 3.82258E-05-2.29415E-06
 -1     21536 5.96693E-05 4.33523E-05-2.29504E-06
 -1     21541 5.90861E-05 4.29286E-05-2.38224E-06
 -1     21542 6.23788E-05 3.82258E-05-2.46668E-06
 -1     21543 5.96693E-05 4.33523E-05-2.46946E-06
 -1     21548 5.90861E-05 4.29286E-05-2.55676E-06
 -1     21549 6.23788E-05 3.82258E-05-2.63911E-06
 -1     21550 5.96693E-05 4.33523E-05-2.64410E-06
 -1     21555 5.90861E-05 4.29286E-05-2.73157E-06
 -1     21556 6.23788E-05 3.82258E-05-2.81136E-06
 -1     21557 5.96693E-05 4.33523E-05-2.81912E-06
 -1     21562 5.90862E-05 4.29286E-05-2.90686E-06
 -1     21563 6.23787E-05 3.82257E-05-2.98334E-06
 -1     21564 5.96694E-05 4.33523E-05-2.99473E-06
 -1     21569 5.90863E-05 4.29287E-05-3.08289E-06
 -1     21573 5.16433E-05 5.16433E-05-1.33284E-06
 -1     21574 5.56309E-05 4.75133E-05-1.43239E-06
 -1     21575 5.21530E-05 5.21530E-05-1.42099E-06
 -1     21580 5.16432E-05 5.16432E-05-1.50887E-06
 -1     21581 5.56310E-05 4.75133E-05-1.60436E-06
 -1     21582 5.21529E-05 5.21529E-05-1.59661E-06
 -1     21587 5.16432E-05 5.16432E-05-1.68416E-06
 -1     21588 5.56310E-05 4.75133E-05-1.77661E-06
 -1     21589 5.21529E-05 5.21529E-05-1.77163E-06
 -1     21594 5.16432E-05 5.16432E-05-1.85896E-06
 -1     21595 5.56310E-05 4.75133E-05-1.94904E-06
 -1     21596 5.21528E-05 5.21528E-05-1.94627E-06
 -1     21601 5.16432E-05 5.16432E-05-2.03348E-06
 -1     21602 5.56310E-05 4.75134E-05-2.12158E-06
 -1     21603 5.21528E-05 5.21528E-05-2.12069E-06
 -1     21608 5.16432E-05 5.16432E-05-2.20786E-06
 -1     21609 5.56310E-05 4.75134E-05-2.29415E-06
 -1     21610 5.21528E-05 5.21528E-05-2.29504E-06
 -1     21615 5.16432E-05 5.16432E-05-2.38224E-06
 -1     21616 5.56310E-05 4.75133E-05-2.46668E-06
 -1     21617 5.21528E-05 5.21528E-05-2.46946E-06
 -1     21622 5.16432E-05 5.16432E-05-2.55676E-06
 -1     21623 5.56310E-05 4.75133E-05-2.63911E-06
 -1     21624 5.21529E-05 5.21529E-05-2.64410E-06
 -1     21629 5.16432E-05 5.16432E-05-2.73157E-06
 -1     21630 5.56310E-05 4.75133E-05-2.81136E-06
 -1     21631 5.21529E-05 5.21529E-05-2.81912E-06
 -1     21636 5.16432E-05 5.16432E-05-2.90686E-06
 -1     21637 5.56309E-05 4.75133E-05-2.98334E-06
 -1     21638 5.21530E-05 5.21530E-05-2.99473E-06
 -1     21643 5.16433E-05 5.16433E-05-3.08289E-06
 -1     21647 4.29287E-05 5.90863E-05-1.33284E-06
 -1     21648 4.75133E-05 5.56309E-05-1.43239E-06
 -1     21649 4.33523E-05 5.96694E-05-1.42099E-06
 -1     21654 4.29286E-05 5.90862E-05-1.50887E-06
 -1     21655 4.75133E-05 5.56310E-05-1.60436E-06
 -1     21656 4.33523E-05 5.96693E-05-1.59661E-06
 -1     21661 4.29286E-05 5.90861E-05-1.68416E-06
 -1     21662 4.75133E-05 5.56310E-05-1.77661E-06
 -1     21663 4.33523E-05 5.96693E-05-1.77163E-06
 -1     21668 4.29286E-05 5.90861E-05-1.85896E-06
 -1     21669 4.75133E-05 5.56310E-05-1.94904E-06
 -1     21670 4.33523E-05 5.96693E-05-1.94627E-06
 -1     21675 4.29286E-05 5.90861E-05-2.03348E-06
 -1     21676 4.75134E-05 5.56310E-05-2.12158E-06
 -1     21677 4.33523E-05 5.96693E-05-2.12069E-06
 -1     21682 4.29286E-05 5.90861E-05-2.20786E-06
 -1     21683 4.75134E-05 5.56310E-05-2.29415E-06
 -1     21684 4.33523E-05 5.96693E-05-2.29504E-06
 -1     21689 4.29286E-05 5.90861E-05-2.38224E-06
 -1     21690 4.75133E-05 5.56310E-05-2.46668E-06
 -1     21691 4.33523E-05 5.96693E-05-2.46946E-06
 -1     21696 4.29286E-05 5.90861E-05-2.55676E-06
 -1     21697 4.75133E-05 5.56310E-05-2.63911E-06
 -1     21698 4.33523E-05 5.96693E-05-2.64410E-06
 -1     21703 4.29286E-05 5.90861E-05-2.73157E-06
 -1     21704 4.75133E-05 5.56310E-05-2.81136E-06
 -1     21705 4.33523E-05 5.96693E-05-2.81912E-06
 -1     21710 4.29286E-05 5.90862E-05-2.90686E-06
 -1     21711 4.75133E-05 5.56309E-05-2.98334E-06
 -1     21712 4.33523E-05 5.96694E-05-2.99473E-06
 -1     21717 4.29287E-05 5.90863E-05-3.08289E-06
 -1     21721 3.31571E-05 6.50744E-05-1.33284E-06
 -1     21722 3.82257E-05 6.23787E-05-1.43239E-06
 -1     21723 3.34843E-05 6.57166E-05-1.42099E-06
 -1     21728 3.31570E-05 6.50743E-05-1.50887E-06
 -1     21729 3.82258E-05 6.23788E-05-1.60436E-06
 -1     21730 3.34842E-05 6.57165E-05-1.59661E-06
 -1     21735 3.31570E-05 6.50742E-05-1.68416E-06
 -1     21736 3.82258E-05 6.23788E-05-1.77661E-06
 -1     21737 3.34842E-05 6.57164E-05-1.77163E-06
 -1     21742 3.31569E-05 6.50742E-05-1.85896E-06
 -1     21743 3.82258E-05 6.23788E-05-1.94904E-06
 -1     21744 3.34842E-05 6.57164E-05-1.94627E-06
 -1     21749 3.31569E-05 6.50742E-05-2.03348E-06
 -1     21750 3.82258E-05 6.23788E-05-2.12158E-06
 -1     21751 3.34842E-05 6.57164E-05-2.12069E-06
 -1     21756 3.31569E-05 6.50742E-05-2.20786E-06
 -1     21757 3.82258E-05 6.23788E-05-2.29415E-06
 -1     21758 3.34842E-05 6.57164E-05-2.29504E-06
 -1     21763 3.31569E-05 6.50742E-05-2.38224E-06
 -1     21764 3.82258E-05 6.23788E-05-2.46668E-06
 -1     21765 3.34842E-05 6.57164E-05-2.46946E-06
 -1     21770 3.31569E-05 6.50742E-05-2.55676E-06
 -1     21771 3.82258E-05 6.23788E-05-2.63911E-06
 -1     21772 3.34842E-05 6.57164E-05-2.64410E-06
 -1     21777 3.31570E-05 6.50742E-05-2.73157E-06
 -1     21778 3.82258E-05 6.23788E-05-2.81136E-06
 -1     21779 3.34842E-05 6.57165E-05-2.81912E-06
 -1     21784 3.31570E-05 6.50743E-05-2.90686E-06
 -1     21785 3.82257E-05 6.23787E-05-2.98334E-06
 -1     21786 3.34843E-05 6.57166E-05-2.99473E-06
 -1     21791 3.31571E-05 6.50744E-05-3.08289E-06
 -1     21795 2.25690E-05 6.94601E-05-1.33284E-06
 -1     21796 2.79969E-05 6.75906E-05-1.43239E-06
 -1     21797 2.27917E-05 7.01456E-05-1.42099E-06
 -1     21802 2.25689E-05 6.94600E-05-1.50887E-06
 -1     21803 2.79969E-05 6.75906E-05-1.60436E-06
 -1     21804 2.27916E-05 7.01455E-05-1.59661E-06
 -1     21809 2.25689E-05 6.94599E-05-1.68416E-06
 -1     21810 2.79970E-05 6.75906E-05-1.77661E-06
 -1     21811 2.27916E-05 7.01454E-05-1.77163E-06
 -1     21816 2.25689E-05 6.94599E-05-1.85896E-06
 -1     21817 2.79970E-05 6.75906E-05-1.94904E-06
 -1     21818 2.27916E-05 7.01454E-05-1.94627E-06
 -1     21823 2.25689E-05 6.94599E-05-2.03348E-06
 -1     21824 2.79970E-05 6.75906E-05-2.12158E-06
 -1     21825 2.27916E-05 7.01454E-05-2.12069E-06
 -1     21830 2.25689E-05 6.94599E-05-2.20786E-06
 -1     21831 2.79970E-05 6.75906E-05-2.29415E-06
 -1     21832 2.27916E-05 7.01454E-05-2.29504E-06
 -1     21837 2.25689E-05 6.94599E-05-2.38224E-06
 -1     21838 2.79970E-05 6.75906E-05-2.46668E-06
 -1     21839 2.27916E-05 7.01454E-05-2.46946E-06
 -1     21844 2.25689E-05 6.94599E-05-2.55676E-06
 -1     21845 2.79970E-05 6.75906E-05-2.63911E-06
 -1     21846 2.27916E-05 7.01454E-05-2.64410E-06
 -1     21851 2.25689E-05 6.94599E-05-2.73157E-06
 -1     21852 2.79969E-05 6.75906E-05-2.81136E-06
 -1     21853 2.27916E-05 7.01455E-05-2.81912E-06
 -1     21858 2.25689E-05 6.94600E-05-2.90686E-06
 -1     21859 2.79969E-05 6.75906E-05-2.98334E-06
 -1     21860 2.27917E-05 7.01456E-05-2.99473E-06
 -1     21865 2.25690E-05 6.94601E-05-3.08289E-06
 -1     21869 1.14251E-05 7.21355E-05-1.33284E-06
 -1     21870 1.70787E-05 7.11381E-05-1.43239E-06
 -1     21871 1.15379E-05 7.28474E-05-1.42099E-06
 -1     21876 1.14251E-05 7.21354E-05-1.50887E-06
 -1     21877 1.70788E-05 7.11382E-05-1.60436E-06
 -1     21878 1.15379E-05 7.28473E-05-1.59661E-06
 -1     21883 1.14251E-05 7.21353E-05-1.68416E-06
 -1     21884 1.70788E-05 7.11382E-05-1.77661E-06
 -1     21885 1.15379E-05 7.28472E-05-1.77163E-06
 -1     21890 1.14251E-05 7.21353E-05-1.85896E-06
 -1     21891 1.70788E-05 7.11382E-05-1.94904E-06
 -1     21892 1.15379E-05 7.28472E-05-1.94627E-06
 -1     21897 1.14251E-05 7.21353E-05-2.03348E-06
 -1     21898 1.70788E-05 7.11382E-05-2.12158E-06
 -1     21899 1.15379E-05 7.28472E-05-2.12069E-06
 -1     21904 1.14251E-05 7.21353E-05-2.20786E-06
 -1     21905 1.70788E-05 7.11382E-05-2.29415E-06
 -1     21906 1.15379E-05 7.28472E-05-2.29504E-06
 -1     21911 1.14251E-05 7.21353E-05-2.38224E-06
 -1     21912 1.70788E-05 7.11382E-05-2.46668E-06
 -1     21913 1.15379E-05 7.28472E-05-2.46946E-06
 -1     21918 1.14251E-05 7.21353E-05-2.55676E-06
 -1     21919 1.70788E-05 7.11382E-05-2.63911E-06
 -1     21920 1.15379E-05 7.28472E-05-2.64410E-06
 -1     21925 1.14251E-05 7.21353E-05-2.73157E-06
 -1     21926 1.70788E-05 7.11382E-05-2.81136E-06
 -1     21927 1.15379E-05 7.28473E-05-2.81912E-06
 -1     21932 1.14251E-05 7.21354E-05-2.90686E-06
 -1     21933 1.70787E-05 7.11381E-05-2.98334E-06
 -1     21934 1.15379E-05 7.28474E-05-2.99473E-06
 -1     21939 1.14251E-05 7.21355E-05-3.08289E-06
 -1     21943 5.74003E-06 7.29340E-05-1.43239E-06
 -1     21947 5.74003E-06 7.29340E-05-1.60436E-06
 -1     21951 5.74003E-06 7.29340E-05-1.77661E-06
 -1     21955 5.74003E-06 7.29341E-05-1.94904E-06
 -1     21959 5.74004E-06 7.29341E-05-2.12158E-06
 -1     21963 5.74004E-06 7.29341E-05-2.29415E-06
 -1     21967 5.74003E-06 7.29341E-05-2.46668E-06
 -1     21971 5.74003E-06 7.29340E-05-2.63911E-06
 -1     21975 5.74003E-06 7.29340E-05-2.81136E-06
 -1     21979 5.74003E-06 7.29340E-05-2.98334E-06
 -1     21985 7.08101E-05 1.12152E-05-1.33317E-06
 -1     21986 7.15887E-05 5.63415E-06-1.43227E-06
 -1     21987 7.14568E-05 1.13176E-05-1.42123E-06
 -1     21992 7.08100E-05 1.12152E-05-1.50905E-06
 -1     21993 7.15888E-05 5.63416E-06-1.60430E-06
 -1     21994 7.14567E-05 1.13176E-05-1.59673E-06
 -1     21999 7.08099E-05 1.12152E-05-1.68424E-06
 -1     22000 7.15888E-05 5.63416E-06-1.77658E-06
 -1     22001 7.14567E-05 1.13176E-05-1.77168E-06
 -1     22006 7.08099E-05 1.12152E-05-1.85900E-06
 -1     22007 7.15888E-05 5.63416E-06-1.94903E-06
 -1     22008 7.14566E-05 1.13176E-05-1.94629E-06
 -1     22013 7.08099E-05 1.12152E-05-2.03350E-06
 -1     22014 7.15888E-05 5.63416E-06-2.12158E-06
 -1     22015 7.14566E-05 1.13176E-05-2.12069E-06
 -1     22020 7.08099E-05 1.12152E-05-2.20786E-06
 -1     22021 7.15888E-05 5.63416E-06-2.29415E-06
 -1     22022 7.14566E-05 1.13176E-05-2.29503E-06
 -1     22027 7.08099E-05 1.12152E-05-2.38223E-06
 -1     22028 7.15888E-05 5.63416E-06-2.46669E-06
 -1     22029 7.14566E-05 1.13176E-05-2.46944E-06
 -1     22034 7.08099E-05 1.12152E-05-2.55672E-06
 -1     22035 7.15888E-05 5.63416E-06-2.63914E-06
 -1     22036 7.14567E-05 1.13176E-05-2.64404E-06
 -1     22041 7.08099E-05 1.12152E-05-2.73148E-06
 -1     22042 7.15888E-05 5.63416E-06-2.81142E-06
 -1     22043 7.14567E-05 1.13176E-05-2.81900E-06
 -1     22048 7.08100E-05 1.12152E-05-2.90668E-06
 -1     22049 7.15887E-05 5.63415E-06-2.98345E-06
 -1     22050 7.14568E-05 1.13176E-05-2.99450E-06
 -1     22055 7.08101E-05 1.12152E-05-3.08255E-06
 -1     22059 6.81839E-05 2.21543E-05-1.33317E-06
 -1     22060 6.98260E-05 1.67637E-05-1.43227E-06
 -1     22061 6.88066E-05 2.23566E-05-1.42123E-06
 -1     22066 6.81838E-05 2.21542E-05-1.50905E-06
 -1     22067 6.98260E-05 1.67637E-05-1.60430E-06
 -1     22068 6.88065E-05 2.23566E-05-1.59673E-06
 -1     22073 6.81837E-05 2.21542E-05-1.68424E-06
 -1     22074 6.98260E-05 1.67637E-05-1.77658E-06
 -1     22075 6.88064E-05 2.23566E-05-1.77168E-06
 -1     22080 6.81837E-05 2.21542E-05-1.85900E-06
 -1     22081 6.98260E-05 1.67637E-05-1.94903E-06
 -1     22082 6.88064E-05 2.23566E-05-1.94629E-06
 -1     22087 6.81837E-05 2.21542E-05-2.03350E-06
 -1     22088 6.98260E-05 1.67637E-05-2.12158E-06
 -1     22089 6.88064E-05 2.23566E-05-2.12069E-06
 -1     22094 6.81837E-05 2.21542E-05-2.20786E-06
 -1     22095 6.98260E-05 1.67637E-05-2.29415E-06
 -1     22096 6.88064E-05 2.23566E-05-2.29503E-06
 -1     22101 6.81837E-05 2.21542E-05-2.38223E-06
 -1     22102 6.98260E-05 1.67637E-05-2.46669E-06
 -1     22103 6.88064E-05 2.23566E-05-2.46944E-06
 -1     22108 6.81837E-05 2.21542E-05-2.55672E-06
 -1     22109 6.98260E-05 1.67637E-05-2.63914E-06
 -1     22110 6.88064E-05 2.23566E-05-2.64404E-06
 -1     22115 6.81837E-05 2.21542E-05-2.73148E-06
 -1     22116 6.98260E-05 1.67637E-05-2.81142E-06
 -1     22117 6.88065E-05 2.23566E-05-2.81900E-06
 -1     22122 6.81838E-05 2.21542E-05-2.90668E-06
 -1     22123 6.98260E-05 1.67637E-05-2.98345E-06
 -1     22124 6.88066E-05 2.23566E-05-2.99450E-06
 -1     22129 6.81839E-05 2.21543E-05-3.08255E-06
 -1     22133 6.38787E-05 3.25478E-05-1.33317E-06
 -1     22134 6.63439E-05 2.74805E-05-1.43227E-06
 -1     22135 6.44621E-05 3.28451E-05-1.42123E-06
 -1     22140 6.38786E-05 3.25478E-05-1.50905E-06
 -1     22141 6.63439E-05 2.74805E-05-1.60430E-06
 -1     22142 6.44620E-05 3.28450E-05-1.59673E-06
 -1     22147 6.38786E-05 3.25478E-05-1.68424E-06
 -1     22148 6.63439E-05 2.74806E-05-1.77658E-06
 -1     22149 6.44620E-05 3.28450E-05-1.77168E-06
 -1     22154 6.38785E-05 3.25477E-05-1.85900E-06
 -1     22155 6.63439E-05 2.74806E-05-1.94903E-06
 -1     22156 6.44620E-05 3.28450E-05-1.94629E-06
 -1     22161 6.38785E-05 3.25477E-05-2.03350E-06
 -1     22162 6.63439E-05 2.74806E-05-2.12158E-06
 -1     22163 6.44620E-05 3.28450E-05-2.12069E-06
 -1     22168 6.38785E-05 3.25477E-05-2.20786E-06
 -1     22169 6.63439E-05 2.74806E-05-2.29415E-06
 -1     22170 6.44620E-05 3.28450E-05-2.29503E-06
 -1     22175 6.38785E-05 3.25477E-05-2.38223E-06
 -1     22176 6.63439E-05 2.74806E-05-2.46669E-06
 -1     22177 6.44620E-05 3.28450E-05-2.46944E-06
 -1     22182 6.38785E-05 3.25477E-05-2.55672E-06
 -1     22183 6.63439E-05 2.74806E-05-2.63914E-06
 -1     22184 6.44620E-05 3.28450E-05-2.64404E-06
 -1     22189 6.38786E-05 3.25478E-05-2.73148E-06
 -1     22190 6.63439E-05 2.74805E-05-2.81142E-06
 -1     22191 6.44620E-05 3.28450E-05-2.81900E-06
 -1     22196 6.38786E-05 3.25478E-05-2.90668E-06
 -1     22197 6.63439E-05 2.74805E-05-2.98345E-06
 -1     22198 6.44621E-05 3.28451E-05-2.99450E-06
 -1     22203 6.38787E-05 3.25478E-05-3.08255E-06
 -1     22207 5.80007E-05 4.21400E-05-1.33317E-06
 -1     22208 6.12282E-05 3.75207E-05-1.43227E-06
 -1     22209 5.85304E-05 4.25248E-05-1.42123E-06
 -1     22214 5.80006E-05 4.21399E-05-1.50905E-06
 -1     22215 6.12282E-05 3.75207E-05-1.60430E-06
 -1     22216 5.85303E-05 4.25247E-05-1.59673E-06
 -1     22221 5.80005E-05 4.21399E-05-1.68424E-06
 -1     22222 6.12282E-05 3.75207E-05-1.77658E-06
 -1     22223 5.85303E-05 4.25247E-05-1.77168E-06
 -1     22228 5.80005E-05 4.21398E-05-1.85900E-06
 -1     22229 6.12282E-05 3.75207E-05-1.94903E-06
 -1     22230 5.85302E-05 4.25247E-05-1.94629E-06
 -1     22235 5.80005E-05 4.21398E-05-2.03350E-06
 -1     22236 6.12282E-05 3.75207E-05-2.12158E-06
 -1     22237 5.85302E-05 4.25247E-05-2.12069E-06
 -1     22242 5.80005E-05 4.21398E-05-2.20786E-06
 -1     22243 6.12282E-05 3.75207E-05-2.29415E-06
 -1     22244 5.85302E-05 4.25247E-05-2.29503E-06
 -1     22249 5.80005E-05 4.21398E-05-2.38223E-06
 -1     22250 6.12282E-05 3.75207E-05-2.46669E-06
 -1     22251 5.85302E-05 4.25247E-05-2.46944E-06
 -1     22256 5.80005E-05 4.21398E-05-2.55672E-06
 -1     22257 6.12282E-05 3.75207E-05-2.63914E-06
 -1     22258 5.85303E-05 4.25247E-05-2.64404E-06
 -1     22263 5.80005E-05 4.21399E-05-2.73148E-06
 -1     22264 6.12282E-05 3.75207E-05-2.81142E-06
 -1     22265 5.85303E-05 4.25247E-05-2.81900E-06
 -1     22270 5.80006E-05 4.21399E-05-2.90668E-06
 -1     22271 6.12282E-05 3.75207E-05-2.98345E-06
 -1     22272 5.85304E-05 4.25248E-05-2.99450E-06
 -1     22277 5.80007E-05 4.21400E-05-3.08255E-06
 -1     22281 5.06945E-05 5.06945E-05-1.33317E-06
 -1     22282 5.46048E-05 4.66369E-05-1.43227E-06
 -1     22283 5.11574E-05 5.11574E-05-1.42123E-06
 -1     22288 5.06944E-05 5.06944E-05-1.50905E-06
 -1     22289 5.46049E-05 4.66369E-05-1.60430E-06
 -1     22290 5.11573E-05 5.11573E-05-1.59673E-06
 -1     22295 5.06943E-05 5.06943E-05-1.68424E-06
 -1     22296 5.46049E-05 4.66370E-05-1.77658E-06
 -1     22297 5.11573E-05 5.11573E-05-1.77168E-06
 -1     22302 5.06943E-05 5.06943E-05-1.85900E-06
 -1     22303 5.46049E-05 4.66370E-05-1.94903E-06
 -1     22304 5.11573E-05 5.11573E-05-1.94629E-06
 -1     22309 5.06943E-05 5.06943E-05-2.03350E-06
 -1     22310 5.46049E-05 4.66370E-05-2.12158E-06
 -1     22311 5.11573E-05 5.11573E-05-2.12069E-06
 -1     22316 5.06943E-05 5.06943E-05-2.20786E-06
 -1     22317 5.46049E-05 4.66370E-05-2.29415E-06
 -1     22318 5.11573E-05 5.11573E-05-2.29503E-06
 -1     22323 5.06943E-05 5.06943E-05-2.38223E-06
 -1     22324 5.46049E-05 4.66370E-05-2.46669E-06
 -1     22325 5.11573E-05 5.11573E-05-2.46944E-06
 -1     22330 5.06943E-05 5.06943E-05-2.55672E-06
 -1     22331 5.46049E-05 4.66370E-05-2.63914E-06
 -1     22332 5.11573E-05 5.11573E-05-2.64404E-06
 -1     22337 5.06943E-05 5.06943E-05-2.73148E-06
 -1     22338 5.46049E-05 4.66369E-05-2.81142E-06
 -1     22339 5.11573E-05 5.11573E-05-2.81900E-06
 -1     22344 5.06944E-05 5.06944E-05-2.90668E-06
 -1     22345 5.46048E-05 4.66369E-05-2.98345E-06
 -1     22346 5.11574E-05 5.11574E-05-2.99450E-06
 -1     22351 5.06945E-05 5.06945E-05-3.08255E-06
 -1     22355 4.21400E-05 5.80007E-05-1.33317E-06
 -1     22356 4.66369E-05 5.46048E-05-1.43227E-06
 -1     22357 4.25248E-05 5.85304E-05-1.42123E-06
 -1     22362 4.21399E-05 5.80006E-05-1.50905E-06
 -1     22363 4.66369E-05 5.46049E-05-1.60430E-06
 -1     22364 4.25247E-05 5.85303E-05-1.59673E-06
 -1     22369 4.21398E-05 5.80005E-05-1.68424E-06
 -1     22370 4.66370E-05 5.46049E-05-1.77658E-06
 -1     22371 4.25247E-05 5.85303E-05-1.77168E-06
 -1     22376 4.21398E-05 5.80005E-05-1.85900E-06
 -1     22377 4.66370E-05 5.46049E-05-1.94903E-06
 -1     22378 4.25247E-05 5.85302E-05-1.94629E-06
 -1     22383 4.21398E-05 5.80005E-05-2.03350E-06
 -1     22384 4.66370E-05 5.46049E-05-2.12158E-06
 -1     22385 4.25247E-05 5.85302E-05-2.12069E-06
 -1     22390 4.21398E-05 5.80005E-05-2.20786E-06
 -1     22391 4.66370E-05 5.46049E-05-2.29415E-06
 -1     22392 4.25247E-05 5.85302E-05-2.29503E-06
 -1     22397 4.21398E-05 5.80005E-05-2.38223E-06
 -1     22398 4.66370E-05 5.46049E-05-2.46669E-06
 -1     22399 4.25247E-05 5.85302E-05-2.46944E-06
 -1     22404 4.21398E-05 5.80005E-05-2.55672E-06
 -1     22405 4.66370E-05 5.46049E-05-2.63914E-06
 -1     22406 4.25247E-05 5.85303E-05-2.64404E-06
 -1     22411 4.21398E-05 5.80005E-05-2.73148E-06
 -1     22412 4.66369E-05 5.46049E-05-2.81142E-06
 -1     22413 4.25247E-05 5.85303E-05-2.81900E-06
 -1     22418 4.21399E-05 5.80006E-05-2.90668E-06
 -1     22419 4.66369E-05 5.46048E-05-2.98345E-06
 -1     22420 4.25248E-05 5.85304E-05-2.99450E-06
 -1     22425 4.21400E-05 5.80007E-05-3.08255E-06
 -1     22429 3.25478E-05 6.38787E-05-1.33317E-06
 -1     22430 3.75207E-05 6.12282E-05-1.43227E-06
 -1     22431 3.28451E-05 6.44621E-05-1.42123E-06
 -1     22436 3.25478E-05 6.38786E-05-1.50905E-06
 -1     22437 3.75207E-05 6.12282E-05-1.60430E-06
 -1     22438 3.28450E-05 6.44620E-05-1.59673E-06
 -1     22443 3.25478E-05 6.38786E-05-1.68424E-06
 -1     22444 3.75207E-05 6.12282E-05-1.77658E-06
 -1     22445 3.28450E-05 6.44620E-05-1.77168E-06
 -1     22450 3.25477E-05 6.38785E-05-1.85900E-06
 -1     22451 3.75207E-05 6.12282E-05-1.94903E-06
 -1     22452 3.28450E-05 6.44620E-05-1.94629E-06
 -1     22457 3.25477E-05 6.38785E-05-2.03350E-06
 -1     22458 3.75207E-05 6.12282E-05-2.12158E-06
 -1     22459 3.28450E-05 6.44620E-05-2.12069E-06
 -1     22464 3.25477E-05 6.38785E-05-2.20786E-06
 -1     22465 3.75207E-05 6.12282E-05-2.29415E-06
 -1     22466 3.28450E-05 6.44620E-05-2.29503E-06
 -1     22471 3.25477E-05 6.38785E-05-2.38223E-06
 -1     22472 3.75207E-05 6.12282E-05-2.46669E-06
 -1     22473 3.28450E-05 6.44620E-05-2.46944E-06
 -1     22478 3.25477E-05 6.38785E-05-2.55672E-06
 -1     22479 3.75207E-05 6.12282E-05-2.63914E-06
 -1     22480 3.28450E-05 6.44620E-05-2.64404E-06
 -1     22485 3.25478E-05 6.38786E-05-2.73148E-06
 -1     22486 3.75207E-05 6.12282E-05-2.81142E-06
 -1     22487 3.28450E-05 6.44620E-05-2.81900E-06
 -1     22492 3.25478E-05 6.38786E-05-2.90668E-06
 -1     22493 3.75207E-05 6.12282E-05-2.98345E-06
 -1     22494 3.28451E-05 6.44621E-05-2.99450E-06
 -1     22499 3.25478E-05 6.38787E-05-3.08255E-06
 -1     22503 2.21543E-05 6.81839E-05-1.33317E-06
 -1     22504 2.74805E-05 6.63439E-05-1.43227E-06
 -1     22505 2.23566E-05 6.88066E-05-1.42123E-06
 -1     22510 2.21542E-05 6.81838E-05-1.50905E-06
 -1     22511 2.74805E-05 6.63439E-05-1.60430E-06
 -1     22512 2.23566E-05 6.88065E-05-1.59673E-06
 -1     22517 2.21542E-05 6.81837E-05-1.68424E-06
 -1     22518 2.74806E-05 6.63439E-05-1.77658E-06
 -1     22519 2.23566E-05 6.88064E-05-1.77168E-06
 -1     22524 2.21542E-05 6.81837E-05-1.85900E-06
 -1     22525 2.74806E-05 6.63439E-05-1.94903E-06
 -1     22526 2.23566E-05 6.88064E-05-1.94629E-06
 -1     22531 2.21542E-05 6.81837E-05-2.03350E-06
 -1     22532 2.74806E-05 6.63439E-05-2.12158E-06
 -1     22533 2.23566E-05 6.88064E-05-2.12069E-06
 -1     22538 2.21542E-05 6.81837E-05-2.20786E-06
 -1     22539 2.74806E-05 6.63439E-05-2.29415E-06
 -1     22540 2.23566E-05 6.88064E-05-2.29503E-06
 -1     22545 2.21542E-05 6.81837E-05-2.38223E-06
 -1     22546 2.74806E-05 6.63439E-05-2.46669E-06
 -1     22547 2.23566E-05 6.88064E-05-2.46944E-06
 -1     22552 2.21542E-05 6.81837E-05-2.55672E-06
 -1     22553 2.74806E-05 6.63439E-05-2.63914E-06
 -1     22554 2.23566E-05 6.88064E-05-2.64404E-06
 -1     22559 2.21542E-05 6.81837E-05-2.73148E-06
 -1     22560 2.74805E-05 6.63439E-05-2.81142E-06
 -1     22561 2.23566E-05 6.88065E-05-2.81900E-06
 -1     22566 2.21542E-05 6.81838E-05-2.90668E-06
 -1     22567 2.74805E-05 6.63439E-05-2.98345E-06
 -1     22568 2.23566E-05 6.88066E-05-2.99450E-06
 -1     22573 2.21543E-05 6.81839E-05-3.08255E-06
 -1     22577 1.12152E-05 7.08101E-05-1.33317E-06
 -1     22578 1.67637E-05 6.98260E-05-1.43227E-06
 -1     22579 1.13176E-05 7.14568E-05-1.42123E-06
 -1     22584 1.12152E-05 7.08100E-05-1.50905E-06
 -1     22585 1.67637E-05 6.98260E-05-1.60430E-06
 -1     22586 1.13176E-05 7.14567E-05-1.59673E-06
 -1     22591 1.12152E-05 7.08099E-05-1.68424E-06
 -1     22592 1.67637E-05 6.98260E-05-1.77658E-06
 -1     22593 1.13176E-05 7.14567E-05-1.77168E-06
 -1     22598 1.12152E-05 7.08099E-05-1.85900E-06
 -1     22599 1.67637E-05 6.98260E-05-1.94903E-06
 -1     22600 1.13176E-05 7.14566E-05-1.94629E-06
 -1     22605 1.12152E-05 7.08099E-05-2.03350E-06
 -1     22606 1.67637E-05 6.98260E-05-2.12158E-06
 -1     22607 1.13176E-05 7.14566E-05-2.12069E-06
 -1     22612 1.12152E-05 7.08099E-05-2.20786E-06
 -1     22613 1.67637E-05 6.98260E-05-2.29415E-06
 -1     22614 1.13176E-05 7.14566E-05-2.29503E-06
 -1     22619 1.12152E-05 7.08099E-05-2.38223E-06
 -1     22620 1.67637E-05 6.98260E-05-2.46669E-06
 -1     22621 1.13176E-05 7.14566E-05-2.46944E-06
 -1     22626 1.12152E-05 7.08099E-05-2.55672E-06
 -1     22627 1.67637E-05 6.98260E-05-2.63914E-06
 -1     22628 1.13176E-05 7.14567E-05-2.64404E-06
 -1     22633 1.12152E-05 7.08099E-05-2.73148E-06
 -1     22634 1.67637E-05 6.98260E-05-2.81142E-06
 -1     22635 1.13176E-05 7.14567E-05-2.81900E-06
 -1     22640 1.12152E-05 7.08100E-05-2.90668E-06
 -1     22641 1.67637E-05 6.98260E-05-2.98345E-06
 -1     22642 1.13176E-05 7.14568E-05-2.99450E-06
 -1     22647 1.12152E-05 7.08101E-05-3.08255E-06
 -1     22651 5.63415E-06 7.15887E-05-1.43227E-06
 -1     22655 5.63416E-06 7.15888E-05-1.60430E-06
 -1     22659 5.63416E-06 7.15888E-05-1.77658E-06
 -1     22663 5.63416E-06 7.15888E-05-1.94903E-06
 -1     22667 5.63416E-06 7.15888E-05-2.12158E-06
 -1     22671 5.63416E-06 7.15888E-05-2.29415E-06
 -1     22675 5.63416E-06 7.15888E-05-2.46669E-06
 -1     22679 5.63416E-06 7.15888E-05-2.63914E-06
 -1     22683 5.63416E-06 7.15888E-05-2.81142E-06
 -1     22687 5.63415E-06 7.15887E-05-2.98345E-06
 -1     22693 6.96057E-05 1.10245E-05-1.33350E-06
 -1     22694 7.03659E-05 5.53791E-06-1.43216E-06
 -1     22695 7.01934E-05 1.11175E-05-1.42146E-06
 -1     22700 6.96055E-05 1.10244E-05-1.50922E-06
 -1     22701 7.03659E-05 5.53792E-06-1.60424E-06
 -1     22702 7.01933E-05 1.11175E-05-1.59684E-06
 -1     22707 6.96055E-05 1.10244E-05-1.68433E-06
 -1     22708 7.03659E-05 5.53792E-06-1.77656E-06
 -1     22709 7.01933E-05 1.11175E-05-1.77174E-06
 -1     22714 6.96054E-05 1.10244E-05-1.85905E-06
 -1     22715 7.03659E-05 5.53792E-06-1.94902E-06
 -1     22716 7.01932E-05 1.11175E-05-1.94631E-06
 -1     22721 6.96054E-05 1.10244E-05-2.03351E-06
 -1     22722 7.03660E-05 5.53792E-06-2.12157E-06
 -1     22723 7.01932E-05 1.11175E-05-2.12070E-06
 -1     22728 6.96054E-05 1.10244E-05-2.20786E-06
 -1     22729 7.03660E-05 5.53792E-06-2.29415E-06
 -1     22730 7.01932E-05 1.11175E-05-2.29503E-06
 -1     22735 6.96054E-05 1.10244E-05-2.38221E-06
 -1     22736 7.03659E-05 5.53792E-06-2.46671E-06
 -1     22737 7.01932E-05 1.11175E-05-2.46942E-06
 -1     22742 6.96054E-05 1.10244E-05-2.55668E-06
 -1     22743 7.03659E-05 5.53792E-06-2.63917E-06
 -1     22744 7.01933E-05 1.11175E-05-2.64399E-06
 -1     22749 6.96055E-05 1.10244E-05-2.73139E-06
 -1     22750 7.03659E-05 5.53792E-06-2.81148E-06
 -1     22751 7.01933E-05 1.11175E-05-2.81888E-06
 -1     22756 6.96055E-05 1.10244E-05-2.90650E-06
 -1     22757 7.03659E-05 5.53791E-06-2.98356E-06
 -1     22758 7.01934E-05 1.11175E-05-2.99427E-06
 -1     22763 6.96057E-05 1.10245E-05-3.08223E-06
 -1     22767 6.70241E-05 2.17774E-05-1.33350E-06
 -1     22768 6.86332E-05 1.64774E-05-1.43216E-06
 -1     22769 6.75900E-05 2.19613E-05-1.42146E-06
 -1     22774 6.70240E-05 2.17774E-05-1.50922E-06
 -1     22775 6.86333E-05 1.64774E-05-1.60424E-06
 -1     22776 6.75899E-05 2.19613E-05-1.59684E-06
 -1     22781 6.70239E-05 2.17774E-05-1.68433E-06
 -1     22782 6.86333E-05 1.64774E-05-1.77656E-06
 -1     22783 6.75899E-05 2.19613E-05-1.77174E-06
 -1     22788 6.70239E-05 2.17774E-05-1.85905E-06
 -1     22789 6.86333E-05 1.64774E-05-1.94902E-06
 -1     22790 6.75899E-05 2.19613E-05-1.94631E-06
 -1     22795 6.70239E-05 2.17774E-05-2.03351E-06
 -1     22796 6.86333E-05 1.64774E-05-2.12157E-06
 -1     22797 6.75899E-05 2.19613E-05-2.12070E-06
 -1     22802 6.70239E-05 2.17774E-05-2.20786E-06
 -1     22803 6.86333E-05 1.64774E-05-2.29415E-06
 -1     22804 6.75899E-05 2.19613E-05-2.29503E-06
 -1     22809 6.70239E-05 2.17774E-05-2.38221E-06
 -1     22810 6.86333E-05 1.64774E-05-2.46671E-06
 -1     22811 6.75899E-05 2.19613E-05-2.46942E-06
 -1     22816 6.70239E-05 2.17774E-05-2.55668E-06
 -1     22817 6.86333E-05 1.64774E-05-2.63917E-06
 -1     22818 6.75899E-05 2.19613E-05-2.64399E-06
 -1     22823 6.70239E-05 2.17774E-05-2.73139E-06
 -1     22824 6.86333E-05 1.64774E-05-2.81148E-06
 -1     22825 6.75899E-05 2.19613E-05-2.81888E-06
 -1     22830 6.70240E-05 2.17774E-05-2.90650E-06
 -1     22831 6.86332E-05 1.64774E-05-2.98356E-06
 -1     22832 6.75900E-05 2.19613E-05-2.99427E-06
 -1     22837 6.70241E-05 2.17774E-05-3.08223E-06
 -1     22841 6.27922E-05 3.19942E-05-1.33350E-06
 -1     22842 6.52106E-05 2.70111E-05-1.43216E-06
 -1     22843 6.33224E-05 3.22644E-05-1.42146E-06
 -1     22848 6.27921E-05 3.19942E-05-1.50922E-06
 -1     22849 6.52107E-05 2.70111E-05-1.60424E-06
 -1     22850 6.33223E-05 3.22643E-05-1.59684E-06
 -1     22855 6.27920E-05 3.19941E-05-1.68433E-06
 -1     22856 6.52107E-05 2.70111E-05-1.77656E-06
 -1     22857 6.33223E-05 3.22643E-05-1.77174E-06
 -1     22862 6.27920E-05 3.19941E-05-1.85905E-06
 -1     22863 6.52107E-05 2.70111E-05-1.94902E-06
 -1     22864 6.33222E-05 3.22643E-05-1.94631E-06
 -1     22869 6.27920E-05 3.19941E-05-2.03351E-06
 -1     22870 6.52107E-05 2.70112E-05-2.12157E-06
 -1     22871 6.33222E-05 3.22643E-05-2.12070E-06
 -1     22876 6.27920E-05 3.19941E-05-2.20786E-06
 -1     22877 6.52107E-05 2.70112E-05-2.29415E-06
 -1     22878 6.33222E-05 3.22643E-05-2.29503E-06
 -1     22883 6.27920E-05 3.19941E-05-2.38221E-06
 -1     22884 6.52107E-05 2.70111E-05-2.46671E-06
 -1     22885 6.33222E-05 3.22643E-05-2.46942E-06
 -1     22890 6.27920E-05 3.19941E-05-2.55668E-06
 -1     22891 6.52107E-05 2.70111E-05-2.63917E-06
 -1     22892 6.33223E-05 3.22643E-05-2.64399E-06
 -1     22897 6.27920E-05 3.19941E-05-2.73139E-06
 -1     22898 6.52107E-05 2.70111E-05-2.81148E-06
 -1     22899 6.33223E-05 3.22643E-05-2.81888E-06
 -1     22904 6.27921E-05 3.19942E-05-2.90650E-06
 -1     22905 6.52106E-05 2.70111E-05-2.98356E-06
 -1     22906 6.33224E-05 3.22644E-05-2.99427E-06
 -1     22911 6.27922E-05 3.19942E-05-3.08223E-06
 -1     22915 5.70141E-05 4.14232E-05-1.33350E-06
 -1     22916 6.01823E-05 3.68798E-05-1.43216E-06
 -1     22917 5.74955E-05 4.17729E-05-1.42146E-06
 -1     22922 5.70140E-05 4.14231E-05-1.50922E-06
 -1     22923 6.01823E-05 3.68798E-05-1.60424E-06
 -1     22924 5.74954E-05 4.17729E-05-1.59684E-06
 -1     22929 5.70139E-05 4.14231E-05-1.68433E-06
 -1     22930 6.01823E-05 3.68798E-05-1.77656E-06
 -1     22931 5.74954E-05 4.17729E-05-1.77174E-06
 -1     22936 5.70139E-05 4.14230E-05-1.85905E-06
 -1     22937 6.01824E-05 3.68798E-05-1.94902E-06
 -1     22938 5.74954E-05 4.17728E-05-1.94631E-06
 -1     22943 5.70139E-05 4.14230E-05-2.03351E-06
 -1     22944 6.01824E-05 3.68798E-05-2.12157E-06
 -1     22945 5.74954E-05 4.17728E-05-2.12070E-06
 -1     22950 5.70139E-05 4.14230E-05-2.20786E-06
 -1     22951 6.01824E-05 3.68798E-05-2.29415E-06
 -1     22952 5.74954E-05 4.17728E-05-2.29503E-06
 -1     22957 5.70139E-05 4.14230E-05-2.38221E-06
 -1     22958 6.01824E-05 3.68798E-05-2.46671E-06
 -1     22959 5.74954E-05 4.17728E-05-2.46942E-06
 -1     22964 5.70139E-05 4.14230E-05-2.55668E-06
 -1     22965 6.01823E-05 3.68798E-05-2.63917E-06
 -1     22966 5.74954E-05 4.17729E-05-2.64399E-06
 -1     22971 5.70139E-05 4.14231E-05-2.73139E-06
 -1     22972 6.01823E-05 3.68798E-05-2.81148E-06
 -1     22973 5.74954E-05 4.17729E-05-2.81888E-06
 -1     22978 5.70140E-05 4.14231E-05-2.90650E-06
 -1     22979 6.01823E-05 3.68798E-05-2.98356E-06
 -1     22980 5.74955E-05 4.17729E-05-2.99427E-06
 -1     22985 5.70141E-05 4.14232E-05-3.08223E-06
 -1     22989 4.98321E-05 4.98321E-05-1.33350E-06
 -1     22990 5.36721E-05 4.58403E-05-1.43216E-06
 -1     22991 5.02529E-05 5.02529E-05-1.42146E-06
 -1     22996 4.98321E-05 4.98321E-05-1.50922E-06
 -1     22997 5.36721E-05 4.58403E-05-1.60424E-06
 -1     22998 5.02529E-05 5.02529E-05-1.59684E-06
 -1     23003 4.98320E-05 4.98320E-05-1.68433E-06
 -1     23004 5.36721E-05 4.58403E-05-1.77656E-06
 -1     23005 5.02528E-05 5.02528E-05-1.77174E-06
 -1     23010 4.98320E-05 4.98320E-05-1.85905E-06
 -1     23011 5.36721E-05 4.58403E-05-1.94902E-06
 -1     23012 5.02528E-05 5.02528E-05-1.94631E-06
 -1     23017 4.98320E-05 4.98320E-05-2.03351E-06
 -1     23018 5.36721E-05 4.58403E-05-2.12157E-06
 -1     23019 5.02528E-05 5.02528E-05-2.12070E-06
 -1     23024 4.98320E-05 4.98320E-05-2.20786E-06
 -1     23025 5.36721E-05 4.58403E-05-2.29415E-06
 -1     23026 5.02528E-05 5.02528E-05-2.29503E-06
 -1     23031 4.98320E-05 4.98320E-05-2.38221E-06
 -1     23032 5.36721E-05 4.58403E-05-2.46671E-06
 -1     23033 5.02528E-05 5.02528E-05-2.46942E-06
 -1     23038 4.98320E-05 4.98320E-05-2.55668E-06
 -1     23039 5.36721E-05 4.58403E-05-2.63917E-06
 -1     23040 5.02528E-05 5.02528E-05-2.64399E-06
 -1     23045 4.98320E-05 4.98320E-05-2.73139E-06
 -1     23046 5.36721E-05 4.58403E-05-2.81148E-06
 -1     23047 5.02529E-05 5.02529E-05-2.81888E-06
 -1     23052 4.98321E-05 4.98321E-05-2.90650E-06
 -1     23053 5.36721E-05 4.58403E-05-2.98356E-06
 -1     23054 5.02529E-05 5.02529E-05-2.99427E-06
 -1     23059 4.98321E-05 4.98321E-05-3.08223E-06
 -1     23063 4.14232E-05 5.70141E-05-1.33350E-06
 -1     23064 4.58403E-05 5.36721E-05-1.43216E-06
 -1     23065 4.17729E-05 5.74955E-05-1.42146E-06
 -1     23070 4.14231E-05 5.70140E-05-1.50922E-06
 -1     23071 4.58403E-05 5.36721E-05-1.60424E-06
 -1     23072 4.17729E-05 5.74954E-05-1.59684E-06
 -1     23077 4.14231E-05 5.70139E-05-1.68433E-06
 -1     23078 4.58403E-05 5.36721E-05-1.77656E-06
 -1     23079 4.17729E-05 5.74954E-05-1.77174E-06
 -1     23084 4.14230E-05 5.70139E-05-1.85905E-06
 -1     23085 4.58403E-05 5.36721E-05-1.94902E-06
 -1     23086 4.17728E-05 5.74954E-05-1.94631E-06
 -1     23091 4.14230E-05 5.70139E-05-2.03351E-06
 -1     23092 4.58403E-05 5.36721E-05-2.12157E-06
 -1     23093 4.17728E-05 5.74954E-05-2.12070E-06
 -1     23098 4.14230E-05 5.70139E-05-2.20786E-06
 -1     23099 4.58403E-05 5.36721E-05-2.29415E-06
 -1     23100 4.17728E-05 5.74954E-05-2.29503E-06
 -1     23105 4.14230E-05 5.70139E-05-2.38221E-06
 -1     23106 4.58403E-05 5.36721E-05-2.46671E-06
 -1     23107 4.17728E-05 5.74954E-05-2.46942E-06
 -1     23112 4.14230E-05 5.70139E-05-2.55668E-06
 -1     23113 4.58403E-05 5.36721E-05-2.63917E-06
 -1     23114 4.17729E-05 5.74954E-05-2.64399E-06
 -1     23119 4.14231E-05 5.70139E-05-2.73139E-06
 -1     23120 4.58403E-05 5.36721E-05-2.81148E-06
 -1     23121 4.17729E-05 5.74954E-05-2.81888E-06
 -1     23126 4.14231E-05 5.70140E-05-2.90650E-06
 -1     23127 4.58403E-05 5.36721E-05-2.98356E-06
 -1     23128 4.17729E-05 5.74955E-05-2.99427E-06
 -1     23133 4.14232E-05 5.70141E-05-3.08223E-06
 -1     23137 3.19942E-05 6.27922E-05-1.33350E-06
 -1     23138 3.68798E-05 6.01823E-05-1.43216E-06
 -1     23139 3.22644E-05 6.33224E-05-1.42146E-06
 -1     23144 3.19942E-05 6.27921E-05-1.50922E-06
 -1     23145 3.68798E-05 6.01823E-05-1.60424E-06
 -1     23146 3.22643E-05 6.33223E-05-1.59684E-06
 -1     23151 3.19941E-05 6.27920E-05-1.68433E-06
 -1     23152 3.68798E-05 6.01823E-05-1.77656E-06
 -1     23153 3.22643E-05 6.33223E-05-1.77174E-06
 -1     23158 3.19941E-05 6.27920E-05-1.85905E-06
 -1     23159 3.68798E-05 6.01824E-05-1.94902E-06
 -1     23160 3.22643E-05 6.33222E-05-1.94631E-06
 -1     23165 3.19941E-05 6.27920E-05-2.03351E-06
 -1     23166 3.68798E-05 6.01824E-05-2.12157E-06
 -1     23167 3.22643E-05 6.33222E-05-2.12070E-06
 -1     23172 3.19941E-05 6.27920E-05-2.20786E-06
 -1     23173 3.68798E-05 6.01824E-05-2.29415E-06
 -1     23174 3.22643E-05 6.33222E-05-2.29503E-06
 -1     23179 3.19941E-05 6.27920E-05-2.38221E-06
 -1     23180 3.68798E-05 6.01824E-05-2.46671E-06
 -1     23181 3.22643E-05 6.33222E-05-2.46942E-06
 -1     23186 3.19941E-05 6.27920E-05-2.55668E-06
 -1     23187 3.68798E-05 6.01823E-05-2.63917E-06
 -1     23188 3.22643E-05 6.33223E-05-2.64399E-06
 -1     23193 3.19941E-05 6.27920E-05-2.73139E-06
 -1     23194 3.68798E-05 6.01823E-05-2.81148E-06
 -1     23195 3.22643E-05 6.33223E-05-2.81888E-06
 -1     23200 3.19942E-05 6.27921E-05-2.90650E-06
 -1     23201 3.68798E-05 6.01823E-05-2.98356E-06
 -1     23202 3.22644E-05 6.33224E-05-2.99427E-06
 -1     23207 3.19942E-05 6.27922E-05-3.08223E-06
 -1     23211 2.17774E-05 6.70241E-05-1.33350E-06
 -1     23212 2.70111E-05 6.52106E-05-1.43216E-06
 -1     23213 2.19613E-05 6.75900E-05-1.42146E-06
 -1     23218 2.17774E-05 6.70240E-05-1.50922E-06
 -1     23219 2.70111E-05 6.52107E-05-1.60424E-06
 -1     23220 2.19613E-05 6.75899E-05-1.59684E-06
 -1     23225 2.17774E-05 6.70239E-05-1.68433E-06
 -1     23226 2.70111E-05 6.52107E-05-1.77656E-06
 -1     23227 2.19613E-05 6.75899E-05-1.77174E-06
 -1     23232 2.17774E-05 6.70239E-05-1.85905E-06
 -1     23233 2.70111E-05 6.52107E-05-1.94902E-06
 -1     23234 2.19613E-05 6.75899E-05-1.94631E-06
 -1     23239 2.17774E-05 6.70239E-05-2.03351E-06
 -1     23240 2.70112E-05 6.52107E-05-2.12157E-06
 -1     23241 2.19613E-05 6.75899E-05-2.12070E-06
 -1     23246 2.17774E-05 6.70239E-05-2.20786E-06
 -1     23247 2.70112E-05 6.52107E-05-2.29415E-06
 -1     23248 2.19613E-05 6.75899E-05-2.29503E-06
 -1     23253 2.17774E-05 6.70239E-05-2.38221E-06
 -1     23254 2.70111E-05 6.52107E-05-2.46671E-06
 -1     23255 2.19613E-05 6.75899E-05-2.46942E-06
 -1     23260 2.17774E-05 6.70239E-05-2.55668E-06
 -1     23261 2.70111E-05 6.52107E-05-2.63917E-06
 -1     23262 2.19613E-05 6.75899E-05-2.64399E-06
 -1     23267 2.17774E-05 6.70239E-05-2.73139E-06
 -1     23268 2.70111E-05 6.52107E-05-2.81148E-06
 -1     23269 2.19613E-05 6.75899E-05-2.81888E-06
 -1     23274 2.17774E-05 6.70240E-05-2.90650E-06
 -1     23275 2.70111E-05 6.52106E-05-2.98356E-06
 -1     23276 2.19613E-05 6.75900E-05-2.99427E-06
 -1     23281 2.17774E-05 6.70241E-05-3.08223E-06
 -1     23285 1.10245E-05 6.96057E-05-1.33350E-06
 -1     23286 1.64774E-05 6.86332E-05-1.43216E-06
 -1     23287 1.11175E-05 7.01934E-05-1.42146E-06
 -1     23292 1.10244E-05 6.96055E-05-1.50922E-06
 -1     23293 1.64774E-05 6.86333E-05-1.60424E-06
 -1     23294 1.11175E-05 7.01933E-05-1.59684E-06
 -1     23299 1.10244E-05 6.96055E-05-1.68433E-06
 -1     23300 1.64774E-05 6.86333E-05-1.77656E-06
 -1     23301 1.11175E-05 7.01933E-05-1.77174E-06
 -1     23306 1.10244E-05 6.96054E-05-1.85905E-06
 -1     23307 1.64774E-05 6.86333E-05-1.94902E-06
 -1     23308 1.11175E-05 7.01932E-05-1.94631E-06
 -1     23313 1.10244E-05 6.96054E-05-2.03351E-06
 -1     23314 1.64774E-05 6.86333E-05-2.12157E-06
 -1     23315 1.11175E-05 7.01932E-05-2.12070E-06
 -1     23320 1.10244E-05 6.96054E-05-2.20786E-06
 -1     23321 1.64774E-05 6.86333E-05-2.29415E-06
 -1     23322 1.11175E-05 7.01932E-05-2.29503E-06
 -1     23327 1.10244E-05 6.96054E-05-2.38221E-06
 -1     23328 1.64774E-05 6.86333E-05-2.46671E-06
 -1     23329 1.11175E-05 7.01932E-05-2.46942E-06
 -1     23334 1.10244E-05 6.96054E-05-2.55668E-06
 -1     23335 1.64774E-05 6.86333E-05-2.63917E-06
 -1     23336 1.11175E-05 7.01933E-05-2.64399E-06
 -1     23341 1.10244E-05 6.96055E-05-2.73139E-06
 -1     23342 1.64774E-05 6.86333E-05-2.81148E-06
 -1     23343 1.11175E-05 7.01933E-05-2.81888E-06
 -1     23348 1.10244E-05 6.96055E-05-2.90650E-06
 -1     23349 1.64774E-05 6.86332E-05-2.98356E-06
 -1     23350 1.11175E-05 7.01934E-05-2.99427E-06
 -1     23355 1.10245E-05 6.96057E-05-3.08223E-06
 -1     23359 5.53791E-06 7.03659E-05-1.43216E-06
 -1     23363 5.53792E-06 7.03659E-05-1.60424E-06
 -1     23367 5.53792E-06 7.03659E-05-1.77656E-06
 -1     23371 5.53792E-06 7.03659E-05-1.94902E-06
 -1     23375 5.53792E-06 7.03660E-05-2.12157E-06
 -1     23379 5.53792E-06 7.03660E-05-2.29415E-06
 -1     23383 5.53792E-06 7.03659E-05-2.46671E-06
 -1     23387 5.53792E-06 7.03659E-05-2.63917E-06
 -1     23391 5.53792E-06 7.03659E-05-2.81148E-06
 -1     23395 5.53791E-06 7.03659E-05-2.98356E-06
 -1     23401 6.85107E-05 1.08510E-05-1.33381E-06
 -1     23402 6.92540E-05 5.45041E-06-1.43205E-06
 -1     23403 6.90450E-05 1.09357E-05-1.42168E-06
 -1     23408 6.85106E-05 1.08510E-05-1.50940E-06
 -1     23409 6.92540E-05 5.45041E-06-1.60418E-06
 -1     23410 6.90449E-05 1.09356E-05-1.59697E-06
 -1     23415 6.85106E-05 1.08510E-05-1.68443E-06
 -1     23416 6.92540E-05 5.45041E-06-1.77652E-06
 -1     23417 6.90449E-05 1.09356E-05-1.77180E-06
 -1     23422 6.85105E-05 1.08510E-05-1.85909E-06
 -1     23423 6.92540E-05 5.45041E-06-1.94901E-06
 -1     23424 6.90449E-05 1.09356E-05-1.94634E-06
 -1     23429 6.85105E-05 1.08510E-05-2.03353E-06
 -1     23430 6.92540E-05 5.45041E-06-2.12157E-06
 -1     23431 6.90449E-05 1.09356E-05-2.12071E-06
 -1     23436 6.85105E-05 1.08510E-05-2.20786E-06
 -1     23437 6.92540E-05 5.45041E-06-2.29416E-06
 -1     23438 6.90449E-05 1.09356E-05-2.29502E-06
 -1     23443 6.85105E-05 1.08510E-05-2.38220E-06
 -1     23444 6.92540E-05 5.45041E-06-2.46672E-06
 -1     23445 6.90449E-05 1.09356E-05-2.46939E-06
 -1     23450 6.85105E-05 1.08510E-05-2.55664E-06
 -1     23451 6.92540E-05 5.45041E-06-2.63920E-06
 -1     23452 6.90449E-05 1.09356E-05-2.64393E-06
 -1     23457 6.85106E-05 1.08510E-05-2.73130E-06
 -1     23458 6.92540E-05 5.45041E-06-2.81154E-06
 -1     23459 6.90449E-05 1.09356E-05-2.81876E-06
 -1     23464 6.85106E-05 1.08510E-05-2.90633E-06
 -1     23465 6.92540E-05 5.45041E-06-2.98367E-06
 -1     23466 6.90450E-05 1.09357E-05-2.99405E-06
 -1     23471 6.85107E-05 1.08510E-05-3.08192E-06
 -1     23475 6.59698E-05 2.14349E-05-1.33381E-06
 -1     23476 6.75487E-05 1.62170E-05-1.43205E-06
 -1     23477 6.64843E-05 2.16020E-05-1.42168E-06
 -1     23482 6.59697E-05 2.14348E-05-1.50940E-06
 -1     23483 6.75487E-05 1.62170E-05-1.60418E-06
 -1     23484 6.64842E-05 2.16020E-05-1.59697E-06
 -1     23489 6.59696E-05 2.14348E-05-1.68443E-06
 -1     23490 6.75488E-05 1.62170E-05-1.77652E-06
 -1     23491 6.64841E-05 2.16020E-05-1.77180E-06
 -1     23496 6.59696E-05 2.14348E-05-1.85909E-06
 -1     23497 6.75488E-05 1.62170E-05-1.94901E-06
 -1     23498 6.64841E-05 2.16020E-05-1.94634E-06
 -1     23503 6.59696E-05 2.14348E-05-2.03353E-06
 -1     23504 6.75488E-05 1.62170E-05-2.12157E-06
 -1     23505 6.64841E-05 2.16020E-05-2.12071E-06
 -1     23510 6.59696E-05 2.14348E-05-2.20786E-06
 -1     23511 6.75488E-05 1.62170E-05-2.29416E-06
 -1     23512 6.64841E-05 2.16020E-05-2.29502E-06
 -1     23517 6.59696E-05 2.14348E-05-2.38220E-06
 -1     23518 6.75488E-05 1.62170E-05-2.46672E-06
 -1     23519 6.64841E-05 2.16020E-05-2.46939E-06
 -1     23524 6.59696E-05 2.14348E-05-2.55664E-06
 -1     23525 6.75488E-05 1.62170E-05-2.63920E-06
 -1     23526 6.64841E-05 2.16020E-05-2.64393E-06
 -1     23531 6.59696E-05 2.14348E-05-2.73130E-06
 -1     23532 6.75487E-05 1.62170E-05-2.81154E-06
 -1     23533 6.64842E-05 2.16020E-05-2.81876E-06
 -1     23538 6.59697E-05 2.14348E-05-2.90633E-06
 -1     23539 6.75487E-05 1.62170E-05-2.98367E-06
 -1     23540 6.64843E-05 2.16020E-05-2.99405E-06
 -1     23545 6.59698E-05 2.14349E-05-3.08192E-06
 -1     23549 6.18044E-05 3.14909E-05-1.33381E-06
 -1     23550 6.41802E-05 2.65843E-05-1.43205E-06
 -1     23551 6.22864E-05 3.17365E-05-1.42168E-06
 -1     23556 6.18043E-05 3.14909E-05-1.50940E-06
 -1     23557 6.41802E-05 2.65843E-05-1.60418E-06
 -1     23558 6.22863E-05 3.17365E-05-1.59697E-06
 -1     23563 6.18043E-05 3.14909E-05-1.68443E-06
 -1     23564 6.41802E-05 2.65843E-05-1.77652E-06
 -1     23565 6.22863E-05 3.17365E-05-1.77180E-06
 -1     23570 6.18042E-05 3.14908E-05-1.85909E-06
 -1     23571 6.41802E-05 2.65843E-05-1.94901E-06
 -1     23572 6.22863E-05 3.17365E-05-1.94634E-06
 -1     23577 6.18042E-05 3.14908E-05-2.03353E-06
 -1     23578 6.41802E-05 2.65843E-05-2.12157E-06
 -1     23579 6.22863E-05 3.17364E-05-2.12071E-06
 -1     23584 6.18042E-05 3.14908E-05-2.20786E-06
 -1     23585 6.41802E-05 2.65843E-05-2.29416E-06
 -1     23586 6.22863E-05 3.17364E-05-2.29502E-06
 -1     23591 6.18042E-05 3.14908E-05-2.38220E-06
 -1     23592 6.41802E-05 2.65843E-05-2.46672E-06
 -1     23593 6.22863E-05 3.17365E-05-2.46939E-06
 -1     23598 6.18042E-05 3.14908E-05-2.55664E-06
 -1     23599 6.41802E-05 2.65843E-05-2.63920E-06
 -1     23600 6.22863E-05 3.17365E-05-2.64393E-06
 -1     23605 6.18043E-05 3.14909E-05-2.73130E-06
 -1     23606 6.41802E-05 2.65843E-05-2.81154E-06
 -1     23607 6.22863E-05 3.17365E-05-2.81876E-06
 -1     23612 6.18043E-05 3.14909E-05-2.90633E-06
 -1     23613 6.41802E-05 2.65843E-05-2.98367E-06
 -1     23614 6.22864E-05 3.17365E-05-2.99405E-06
 -1     23619 6.18044E-05 3.14909E-05-3.08192E-06
 -1     23623 5.61172E-05 4.07716E-05-1.33381E-06
 -1     23624 5.92313E-05 3.62970E-05-1.43205E-06
 -1     23625 5.65549E-05 4.10895E-05-1.42168E-06
 -1     23630 5.61172E-05 4.07715E-05-1.50940E-06
 -1     23631 5.92313E-05 3.62970E-05-1.60418E-06
 -1     23632 5.65548E-05 4.10895E-05-1.59697E-06
 -1     23637 5.61171E-05 4.07715E-05-1.68443E-06
 -1     23638 5.92314E-05 3.62970E-05-1.77652E-06
 -1     23639 5.65548E-05 4.10895E-05-1.77180E-06
 -1     23644 5.61171E-05 4.07715E-05-1.85909E-06
 -1     23645 5.92314E-05 3.62970E-05-1.94901E-06
 -1     23646 5.65548E-05 4.10894E-05-1.94634E-06
 -1     23651 5.61171E-05 4.07714E-05-2.03353E-06
 -1     23652 5.92314E-05 3.62970E-05-2.12157E-06
 -1     23653 5.65548E-05 4.10894E-05-2.12071E-06
 -1     23658 5.61171E-05 4.07714E-05-2.20786E-06
 -1     23659 5.92314E-05 3.62970E-05-2.29416E-06
 -1     23660 5.65548E-05 4.10894E-05-2.29502E-06
 -1     23665 5.61171E-05 4.07714E-05-2.38220E-06
 -1     23666 5.92314E-05 3.62970E-05-2.46672E-06
 -1     23667 5.65548E-05 4.10894E-05-2.46939E-06
 -1     23672 5.61171E-05 4.07715E-05-2.55664E-06
 -1     23673 5.92314E-05 3.62970E-05-2.63920E-06
 -1     23674 5.65548E-05 4.10895E-05-2.64393E-06
 -1     23679 5.61171E-05 4.07715E-05-2.73130E-06
 -1     23680 5.92313E-05 3.62970E-05-2.81154E-06
 -1     23681 5.65548E-05 4.10895E-05-2.81876E-06
 -1     23686 5.61172E-05 4.07715E-05-2.90633E-06
 -1     23687 5.92313E-05 3.62970E-05-2.98367E-06
 -1     23688 5.65549E-05 4.10895E-05-2.99405E-06
 -1     23693 5.61172E-05 4.07716E-05-3.08192E-06
 -1     23697 4.90483E-05 4.90483E-05-1.33381E-06
 -1     23698 5.28240E-05 4.51159E-05-1.43205E-06
 -1     23699 4.94308E-05 4.94308E-05-1.42168E-06
 -1     23704 4.90482E-05 4.90482E-05-1.50940E-06
 -1     23705 5.28240E-05 4.51160E-05-1.60418E-06
 -1     23706 4.94307E-05 4.94307E-05-1.59697E-06
 -1     23711 4.90482E-05 4.90482E-05-1.68443E-06
 -1     23712 5.28240E-05 4.51160E-05-1.77652E-06
 -1     23713 4.94307E-05 4.94307E-05-1.77180E-06
 -1     23718 4.90481E-05 4.90481E-05-1.85909E-06
 -1     23719 5.28240E-05 4.51160E-05-1.94901E-06
 -1     23720 4.94307E-05 4.94307E-05-1.94634E-06
 -1     23725 4.90481E-05 4.90481E-05-2.03353E-06
 -1     23726 5.28240E-05 4.51160E-05-2.12157E-06
 -1     23727 4.94307E-05 4.94307E-05-2.12071E-06
 -1     23732 4.90481E-05 4.90481E-05-2.20786E-06
 -1     23733 5.28240E-05 4.51160E-05-2.29416E-06
 -1     23734 4.94307E-05 4.94307E-05-2.29502E-06
 -1     23739 4.90481E-05 4.90481E-05-2.38220E-06
 -1     23740 5.28240E-05 4.51160E-05-2.46672E-06
 -1     23741 4.94307E-05 4.94307E-05-2.46939E-06
 -1     23746 4.90481E-05 4.90481E-05-2.55664E-06
 -1     23747 5.28240E-05 4.51160E-05-2.63920E-06
 -1     23748 4.94307E-05 4.94307E-05-2.64393E-06
 -1     23753 4.90482E-05 4.90482E-05-2.73130E-06
 -1     23754 5.28240E-05 4.51160E-05-2.81154E-06
 -1     23755 4.94307E-05 4.94307E-05-2.81876E-06
 -1     23760 4.90482E-05 4.90482E-05-2.90633E-06
 -1     23761 5.28240E-05 4.51159E-05-2.98367E-06
 -1     23762 4.94308E-05 4.94308E-05-2.99405E-06
 -1     23767 4.90483E-05 4.90483E-05-3.08192E-06
 -1     23771 4.07716E-05 5.61172E-05-1.33381E-06
 -1     23772 4.51159E-05 5.28240E-05-1.43205E-06
 -1     23773 4.10895E-05 5.65549E-05-1.42168E-06
 -1     23778 4.07715E-05 5.61172E-05-1.50940E-06
 -1     23779 4.51160E-05 5.28240E-05-1.60418E-06
 -1     23780 4.10895E-05 5.65548E-05-1.59697E-06
 -1     23785 4.07715E-05 5.61171E-05-1.68443E-06
 -1     23786 4.51160E-05 5.28240E-05-1.77652E-06
 -1     23787 4.10895E-05 5.65548E-05-1.77180E-06
 -1     23792 4.07715E-05 5.61171E-05-1.85909E-06
 -1     23793 4.51160E-05 5.28240E-05-1.94901E-06
 -1     23794 4.10894E-05 5.65548E-05-1.94634E-06
 -1     23799 4.07714E-05 5.61171E-05-2.03353E-06
 -1     23800 4.51160E-05 5.28240E-05-2.12157E-06
 -1     23801 4.10894E-05 5.65548E-05-2.12071E-06
 -1     23806 4.07714E-05 5.61171E-05-2.20786E-06
 -1     23807 4.51160E-05 5.28240E-05-2.29416E-06
 -1     23808 4.10894E-05 5.65548E-05-2.29502E-06
 -1     23813 4.07714E-05 5.61171E-05-2.38220E-06
 -1     23814 4.51160E-05 5.28240E-05-2.46672E-06
 -1     23815 4.10894E-05 5.65548E-05-2.46939E-06
 -1     23820 4.07715E-05 5.61171E-05-2.55664E-06
 -1     23821 4.51160E-05 5.28240E-05-2.63920E-06
 -1     23822 4.10895E-05 5.65548E-05-2.64393E-06
 -1     23827 4.07715E-05 5.61171E-05-2.73130E-06
 -1     23828 4.51160E-05 5.28240E-05-2.81154E-06
 -1     23829 4.10895E-05 5.65548E-05-2.81876E-06
 -1     23834 4.07715E-05 5.61172E-05-2.90633E-06
 -1     23835 4.51159E-05 5.28240E-05-2.98367E-06
 -1     23836 4.10895E-05 5.65549E-05-2.99405E-06
 -1     23841 4.07716E-05 5.61172E-05-3.08192E-06
 -1     23845 3.14909E-05 6.18044E-05-1.33381E-06
 -1     23846 3.62970E-05 5.92313E-05-1.43205E-06
 -1     23847 3.17365E-05 6.22864E-05-1.42168E-06
 -1     23852 3.14909E-05 6.18043E-05-1.50940E-06
 -1     23853 3.62970E-05 5.92313E-05-1.60418E-06
 -1     23854 3.17365E-05 6.22863E-05-1.59697E-06
 -1     23859 3.14909E-05 6.18043E-05-1.68443E-06
 -1     23860 3.62970E-05 5.92314E-05-1.77652E-06
 -1     23861 3.17365E-05 6.22863E-05-1.77180E-06
 -1     23866 3.14908E-05 6.18042E-05-1.85909E-06
 -1     23867 3.62970E-05 5.92314E-05-1.94901E-06
 -1     23868 3.17365E-05 6.22863E-05-1.94634E-06
 -1     23873 3.14908E-05 6.18042E-05-2.03353E-06
 -1     23874 3.62970E-05 5.92314E-05-2.12157E-06
 -1     23875 3.17364E-05 6.22863E-05-2.12071E-06
 -1     23880 3.14908E-05 6.18042E-05-2.20786E-06
 -1     23881 3.62970E-05 5.92314E-05-2.29416E-06
 -1     23882 3.17364E-05 6.22863E-05-2.29502E-06
 -1     23887 3.14908E-05 6.18042E-05-2.38220E-06
 -1     23888 3.62970E-05 5.92314E-05-2.46672E-06
 -1     23889 3.17365E-05 6.22863E-05-2.46939E-06
 -1     23894 3.14908E-05 6.18042E-05-2.55664E-06
 -1     23895 3.62970E-05 5.92314E-05-2.63920E-06
 -1     23896 3.17365E-05 6.22863E-05-2.64393E-06
 -1     23901 3.14909E-05 6.18043E-05-2.73130E-06
 -1     23902 3.62970E-05 5.92313E-05-2.81154E-06
 -1     23903 3.17365E-05 6.22863E-05-2.81876E-06
 -1     23908 3.14909E-05 6.18043E-05-2.90633E-06
 -1     23909 3.62970E-05 5.92313E-05-2.98367E-06
 -1     23910 3.17365E-05 6.22864E-05-2.99405E-06
 -1     23915 3.14909E-05 6.18044E-05-3.08192E-06
 -1     23919 2.14349E-05 6.59698E-05-1.33381E-06
 -1     23920 2.65843E-05 6.41802E-05-1.43205E-06
 -1     23921 2.16020E-05 6.64843E-05-1.42168E-06
 -1     23926 2.14348E-05 6.59697E-05-1.50940E-06
 -1     23927 2.65843E-05 6.41802E-05-1.60418E-06
 -1     23928 2.16020E-05 6.64842E-05-1.59697E-06
 -1     23933 2.14348E-05 6.59696E-05-1.68443E-06
 -1     23934 2.65843E-05 6.41802E-05-1.77652E-06
 -1     23935 2.16020E-05 6.64841E-05-1.77180E-06
 -1     23940 2.14348E-05 6.59696E-05-1.85909E-06
 -1     23941 2.65843E-05 6.41802E-05-1.94901E-06
 -1     23942 2.16020E-05 6.64841E-05-1.94634E-06
 -1     23947 2.14348E-05 6.59696E-05-2.03353E-06
 -1     23948 2.65843E-05 6.41802E-05-2.12157E-06
 -1     23949 2.16020E-05 6.64841E-05-2.12071E-06
 -1     23954 2.14348E-05 6.59696E-05-2.20786E-06
 -1     23955 2.65843E-05 6.41802E-05-2.29416E-06
 -1     23956 2.16020E-05 6.64841E-05-2.29502E-06
 -1     23961 2.14348E-05 6.59696E-05-2.38220E-06
 -1     23962 2.65843E-05 6.41802E-05-2.46672E-06
 -1     23963 2.16020E-05 6.64841E-05-2.46939E-06
 -1     23968 2.14348E-05 6.59696E-05-2.55664E-06
 -1     23969 2.65843E-05 6.41802E-05-2.63920E-06
 -1     23970 2.16020E-05 6.64841E-05-2.64393E-06
 -1     23975 2.14348E-05 6.59696E-05-2.73130E-06
 -1     23976 2.65843E-05 6.41802E-05-2.81154E-06
 -1     23977 2.16020E-05 6.64842E-05-2.81876E-06
 -1     23982 2.14348E-05 6.59697E-05-2.90633E-06
 -1     23983 2.65843E-05 6.41802E-05-2.98367E-06
 -1     23984 2.16020E-05 6.64843E-05-2.99405E-06
 -1     23989 2.14349E-05 6.59698E-05-3.08192E-06
 -1     23993 1.08510E-05 6.85107E-05-1.33381E-06
 -1     23994 1.62170E-05 6.75487E-05-1.43205E-06
 -1     23995 1.09357E-05 6.90450E-05-1.42168E-06
 -1     24000 1.08510E-05 6.85106E-05-1.50940E-06
 -1     24001 1.62170E-05 6.75487E-05-1.60418E-06
 -1     24002 1.09356E-05 6.90449E-05-1.59697E-06
 -1     24007 1.08510E-05 6.85106E-05-1.68443E-06
 -1     24008 1.62170E-05 6.75488E-05-1.77652E-06
 -1     24009 1.09356E-05 6.90449E-05-1.77180E-06
 -1     24014 1.08510E-05 6.85105E-05-1.85909E-06
 -1     24015 1.62170E-05 6.75488E-05-1.94901E-06
 -1     24016 1.09356E-05 6.90449E-05-1.94634E-06
 -1     24021 1.08510E-05 6.85105E-05-2.03353E-06
 -1     24022 1.62170E-05 6.75488E-05-2.12157E-06
 -1     24023 1.09356E-05 6.90449E-05-2.12071E-06
 -1     24028 1.08510E-05 6.85105E-05-2.20786E-06
 -1     24029 1.62170E-05 6.75488E-05-2.29416E-06
 -1     24030 1.09356E-05 6.90449E-05-2.29502E-06
 -1     24035 1.08510E-05 6.85105E-05-2.38220E-06
 -1     24036 1.62170E-05 6.75488E-05-2.46672E-06
 -1     24037 1.09356E-05 6.90449E-05-2.46939E-06
 -1     24042 1.08510E-05 6.85105E-05-2.55664E-06
 -1     24043 1.62170E-05 6.75488E-05-2.63920E-06
 -1     24044 1.09356E-05 6.90449E-05-2.64393E-06
 -1     24049 1.08510E-05 6.85106E-05-2.73130E-06
 -1     24050 1.62170E-05 6.75487E-05-2.81154E-06
 -1     24051 1.09356E-05 6.90449E-05-2.81876E-06
 -1     24056 1.08510E-05 6.85106E-05-2.90633E-06
 -1     24057 1.62170E-05 6.75487E-05-2.98367E-06
 -1     24058 1.09357E-05 6.90450E-05-2.99405E-06
 -1     24063 1.08510E-05 6.85107E-05-3.08192E-06
 -1     24067 5.45041E-06 6.92540E-05-1.43205E-06
 -1     24071 5.45041E-06 6.92540E-05-1.60418E-06
 -1     24075 5.45041E-06 6.92540E-05-1.77652E-06
 -1     24079 5.45041E-06 6.92540E-05-1.94901E-06
 -1     24083 5.45041E-06 6.92540E-05-2.12157E-06
 -1     24087 5.45041E-06 6.92540E-05-2.29416E-06
 -1     24091 5.45041E-06 6.92540E-05-2.46672E-06
 -1     24095 5.45041E-06 6.92540E-05-2.63920E-06
 -1     24099 5.45041E-06 6.92540E-05-2.81154E-06
 -1     24103 5.45041E-06 6.92540E-05-2.98367E-06
 -1     24109 6.75154E-05 1.06934E-05-1.33411E-06
 -1     24110 6.82429E-05 5.37083E-06-1.43195E-06
 -1     24111 6.80011E-05 1.07703E-05-1.42190E-06
 -1     24116 6.75153E-05 1.06934E-05-1.50957E-06
 -1     24117 6.82430E-05 5.37084E-06-1.60412E-06
 -1     24118 6.80010E-05 1.07703E-05-1.59709E-06
 -1     24123 6.75153E-05 1.06934E-05-1.68452E-06
 -1     24124 6.82430E-05 5.37084E-06-1.77649E-06
 -1     24125 6.80010E-05 1.07703E-05-1.77186E-06
 -1     24130 6.75152E-05 1.06934E-05-1.85914E-06
 -1     24131 6.82430E-05 5.37084E-06-1.94899E-06
 -1     24132 6.80010E-05 1.07703E-05-1.94637E-06
 -1     24137 6.75152E-05 1.06934E-05-2.03355E-06
 -1     24138 6.82430E-05 5.37084E-06-2.12156E-06
 -1     24139 6.80009E-05 1.07703E-05-2.12071E-06
 -1     24144 6.75152E-05 1.06934E-05-2.20786E-06
 -1     24145 6.82430E-05 5.37084E-06-2.29416E-06
 -1     24146 6.80009E-05 1.07703E-05-2.29501E-06
 -1     24151 6.75152E-05 1.06934E-05-2.38218E-06
 -1     24152 6.82430E-05 5.37084E-06-2.46674E-06
 -1     24153 6.80010E-05 1.07703E-05-2.46936E-06
 -1     24158 6.75152E-05 1.06934E-05-2.55659E-06
 -1     24159 6.82430E-05 5.37084E-06-2.63923E-06
 -1     24160 6.80010E-05 1.07703E-05-2.64386E-06
 -1     24165 6.75153E-05 1.06934E-05-2.73120E-06
 -1     24166 6.82430E-05 5.37084E-06-2.81160E-06
 -1     24167 6.80010E-05 1.07703E-05-2.81864E-06
 -1     24172 6.75153E-05 1.06934E-05-2.90616E-06
 -1     24173 6.82429E-05 5.37083E-06-2.98378E-06
 -1     24174 6.80011E-05 1.07703E-05-2.99383E-06
 -1     24179 6.75154E-05 1.06934E-05-3.08162E-06
 -1     24183 6.50114E-05 2.11235E-05-1.33411E-06
 -1     24184 6.65626E-05 1.59803E-05-1.43195E-06
 -1     24185 6.54790E-05 2.12754E-05-1.42190E-06
 -1     24190 6.50113E-05 2.11234E-05-1.50957E-06
 -1     24191 6.65626E-05 1.59803E-05-1.60412E-06
 -1     24192 6.54790E-05 2.12754E-05-1.59709E-06
 -1     24197 6.50112E-05 2.11234E-05-1.68452E-06
 -1     24198 6.65626E-05 1.59803E-05-1.77649E-06
 -1     24199 6.54789E-05 2.12754E-05-1.77186E-06
 -1     24204 6.50112E-05 2.11234E-05-1.85914E-06
 -1     24205 6.65626E-05 1.59803E-05-1.94899E-06
 -1     24206 6.54789E-05 2.12754E-05-1.94637E-06
 -1     24211 6.50112E-05 2.11234E-05-2.03355E-06
 -1     24212 6.65626E-05 1.59803E-05-2.12156E-06
 -1     24213 6.54789E-05 2.12754E-05-2.12071E-06
 -1     24218 6.50112E-05 2.11234E-05-2.20786E-06
 -1     24219 6.65626E-05 1.59803E-05-2.29416E-06
 -1     24220 6.54789E-05 2.12754E-05-2.29501E-06
 -1     24225 6.50112E-05 2.11234E-05-2.38218E-06
 -1     24226 6.65626E-05 1.59803E-05-2.46674E-06
 -1     24227 6.54789E-05 2.12754E-05-2.46936E-06
 -1     24232 6.50112E-05 2.11234E-05-2.55659E-06
 -1     24233 6.65626E-05 1.59803E-05-2.63923E-06
 -1     24234 6.54789E-05 2.12754E-05-2.64386E-06
 -1     24239 6.50112E-05 2.11234E-05-2.73120E-06
 -1     24240 6.65626E-05 1.59803E-05-2.81160E-06
 -1     24241 6.54790E-05 2.12754E-05-2.81864E-06
 -1     24246 6.50113E-05 2.11234E-05-2.90616E-06
 -1     24247 6.65626E-05 1.59803E-05-2.98378E-06
 -1     24248 6.54790E-05 2.12754E-05-2.99383E-06
 -1     24253 6.50114E-05 2.11235E-05-3.08162E-06
 -1     24257 6.09065E-05 3.10334E-05-1.33411E-06
 -1     24258 6.32432E-05 2.61962E-05-1.43195E-06
 -1     24259 6.13447E-05 3.12567E-05-1.42190E-06
 -1     24264 6.09064E-05 3.10334E-05-1.50957E-06
 -1     24265 6.32432E-05 2.61962E-05-1.60412E-06
 -1     24266 6.13446E-05 3.12566E-05-1.59709E-06
 -1     24271 6.09064E-05 3.10334E-05-1.68452E-06
 -1     24272 6.32432E-05 2.61962E-05-1.77649E-06
 -1     24273 6.13446E-05 3.12566E-05-1.77186E-06
 -1     24278 6.09064E-05 3.10333E-05-1.85914E-06
 -1     24279 6.32433E-05 2.61962E-05-1.94899E-06
 -1     24280 6.13445E-05 3.12566E-05-1.94637E-06
 -1     24285 6.09064E-05 3.10333E-05-2.03355E-06
 -1     24286 6.32433E-05 2.61962E-05-2.12156E-06
 -1     24287 6.13445E-05 3.12566E-05-2.12071E-06
 -1     24292 6.09064E-05 3.10333E-05-2.20786E-06
 -1     24293 6.32433E-05 2.61962E-05-2.29416E-06
 -1     24294 6.13445E-05 3.12566E-05-2.29501E-06
 -1     24299 6.09064E-05 3.10333E-05-2.38218E-06
 -1     24300 6.32433E-05 2.61962E-05-2.46674E-06
 -1     24301 6.13445E-05 3.12566E-05-2.46936E-06
 -1     24306 6.09064E-05 3.10333E-05-2.55659E-06
 -1     24307 6.32432E-05 2.61962E-05-2.63923E-06
 -1     24308 6.13446E-05 3.12566E-05-2.64386E-06
 -1     24313 6.09064E-05 3.10334E-05-2.73120E-06
 -1     24314 6.32432E-05 2.61962E-05-2.81160E-06
 -1     24315 6.13446E-05 3.12566E-05-2.81864E-06
 -1     24320 6.09064E-05 3.10334E-05-2.90616E-06
 -1     24321 6.32432E-05 2.61962E-05-2.98378E-06
 -1     24322 6.13447E-05 3.12567E-05-2.99383E-06
 -1     24327 6.09065E-05 3.10334E-05-3.08162E-06
 -1     24331 5.53020E-05 4.01792E-05-1.33411E-06
 -1     24332 5.83666E-05 3.57671E-05-1.43195E-06
 -1     24333 5.56998E-05 4.04683E-05-1.42190E-06
 -1     24338 5.53019E-05 4.01792E-05-1.50957E-06
 -1     24339 5.83666E-05 3.57671E-05-1.60412E-06
 -1     24340 5.56997E-05 4.04682E-05-1.59709E-06
 -1     24345 5.53019E-05 4.01791E-05-1.68452E-06
 -1     24346 5.83666E-05 3.57671E-05-1.77649E-06
 -1     24347 5.56997E-05 4.04682E-05-1.77186E-06
 -1     24352 5.53018E-05 4.01791E-05-1.85914E-06
 -1     24353 5.83666E-05 3.57671E-05-1.94899E-06
 -1     24354 5.56997E-05 4.04682E-05-1.94637E-06
 -1     24359 5.53018E-05 4.01791E-05-2.03355E-06
 -1     24360 5.83666E-05 3.57671E-05-2.12156E-06
 -1     24361 5.56997E-05 4.04682E-05-2.12071E-06
 -1     24366 5.53018E-05 4.01791E-05-2.20786E-06
 -1     24367 5.83666E-05 3.57671E-05-2.29416E-06
 -1     24368 5.56997E-05 4.04682E-05-2.29501E-06
 -1     24373 5.53018E-05 4.01791E-05-2.38218E-06
 -1     24374 5.83666E-05 3.57671E-05-2.46674E-06
 -1     24375 5.56997E-05 4.04682E-05-2.46936E-06
 -1     24380 5.53018E-05 4.01791E-05-2.55659E-06
 -1     24381 5.83666E-05 3.57671E-05-2.63923E-06
 -1     24382 5.56997E-05 4.04682E-05-2.64386E-06
 -1     24387 5.53019E-05 4.01791E-05-2.73120E-06
 -1     24388 5.83666E-05 3.57671E-05-2.81160E-06
 -1     24389 5.56997E-05 4.04682E-05-2.81864E-06
 -1     24394 5.53019E-05 4.01792E-05-2.90616E-06
 -1     24395 5.83666E-05 3.57671E-05-2.98378E-06
 -1     24396 5.56998E-05 4.04683E-05-2.99383E-06
 -1     24401 5.53020E-05 4.01792E-05-3.08162E-06
 -1     24405 4.83357E-05 4.83357E-05-1.33411E-06
 -1     24406 5.20528E-05 4.44573E-05-1.43195E-06
 -1     24407 4.86834E-05 4.86834E-05-1.42190E-06
 -1     24412 4.83356E-05 4.83356E-05-1.50957E-06
 -1     24413 5.20528E-05 4.44573E-05-1.60412E-06
 -1     24414 4.86833E-05 4.86833E-05-1.59709E-06
 -1     24419 4.83356E-05 4.83356E-05-1.68452E-06
 -1     24420 5.20528E-05 4.44573E-05-1.77649E-06
 -1     24421 4.86833E-05 4.86833E-05-1.77186E-06
 -1     24426 4.83356E-05 4.83356E-05-1.85914E-06
 -1     24427 5.20528E-05 4.44573E-05-1.94899E-06
 -1     24428 4.86833E-05 4.86833E-05-1.94637E-06
 -1     24433 4.83356E-05 4.83356E-05-2.03355E-06
 -1     24434 5.20528E-05 4.44573E-05-2.12156E-06
 -1     24435 4.86833E-05 4.86833E-05-2.12071E-06
 -1     24440 4.83356E-05 4.83356E-05-2.20786E-06
 -1     24441 5.20528E-05 4.44573E-05-2.29416E-06
 -1     24442 4.86833E-05 4.86833E-05-2.29501E-06
 -1     24447 4.83356E-05 4.83356E-05-2.38218E-06
 -1     24448 5.20528E-05 4.44573E-05-2.46674E-06
 -1     24449 4.86833E-05 4.86833E-05-2.46936E-06
 -1     24454 4.83356E-05 4.83356E-05-2.55659E-06
 -1     24455 5.20528E-05 4.44573E-05-2.63923E-06
 -1     24456 4.86833E-05 4.86833E-05-2.64386E-06
 -1     24461 4.83356E-05 4.83356E-05-2.73120E-06
 -1     24462 5.20528E-05 4.44573E-05-2.81160E-06
 -1     24463 4.86833E-05 4.86833E-05-2.81864E-06
 -1     24468 4.83356E-05 4.83356E-05-2.90616E-06
 -1     24469 5.20528E-05 4.44573E-05-2.98378E-06
 -1     24470 4.86834E-05 4.86834E-05-2.99383E-06
 -1     24475 4.83357E-05 4.83357E-05-3.08162E-06
 -1     24479 4.01792E-05 5.53020E-05-1.33411E-06
 -1     24480 4.44573E-05 5.20528E-05-1.43195E-06
 -1     24481 4.04683E-05 5.56998E-05-1.42190E-06
 -1     24486 4.01792E-05 5.53019E-05-1.50957E-06
 -1     24487 4.44573E-05 5.20528E-05-1.60412E-06
 -1     24488 4.04682E-05 5.56997E-05-1.59709E-06
 -1     24493 4.01791E-05 5.53019E-05-1.68452E-06
 -1     24494 4.44573E-05 5.20528E-05-1.77649E-06
 -1     24495 4.04682E-05 5.56997E-05-1.77186E-06
 -1     24500 4.01791E-05 5.53018E-05-1.85914E-06
 -1     24501 4.44573E-05 5.20528E-05-1.94899E-06
 -1     24502 4.04682E-05 5.56997E-05-1.94637E-06
 -1     24507 4.01791E-05 5.53018E-05-2.03355E-06
 -1     24508 4.44573E-05 5.20528E-05-2.12156E-06
 -1     24509 4.04682E-05 5.56997E-05-2.12071E-06
 -1     24514 4.01791E-05 5.53018E-05-2.20786E-06
 -1     24515 4.44573E-05 5.20528E-05-2.29416E-06
 -1     24516 4.04682E-05 5.56997E-05-2.29501E-06
 -1     24521 4.01791E-05 5.53018E-05-2.38218E-06
 -1     24522 4.44573E-05 5.20528E-05-2.46674E-06
 -1     24523 4.04682E-05 5.56997E-05-2.46936E-06
 -1     24528 4.01791E-05 5.53018E-05-2.55659E-06
 -1     24529 4.44573E-05 5.20528E-05-2.63923E-06
 -1     24530 4.04682E-05 5.56997E-05-2.64386E-06
 -1     24535 4.01791E-05 5.53019E-05-2.73120E-06
 -1     24536 4.44573E-05 5.20528E-05-2.81160E-06
 -1     24537 4.04682E-05 5.56997E-05-2.81864E-06
 -1     24542 4.01792E-05 5.53019E-05-2.90616E-06
 -1     24543 4.44573E-05 5.20528E-05-2.98378E-06
 -1     24544 4.04683E-05 5.56998E-05-2.99383E-06
 -1     24549 4.01792E-05 5.53020E-05-3.08162E-06
 -1     24553 3.10334E-05 6.09065E-05-1.33411E-06
 -1     24554 3.57671E-05 5.83666E-05-1.43195E-06
 -1     24555 3.12567E-05 6.13447E-05-1.42190E-06
 -1     24560 3.10334E-05 6.09064E-05-1.50957E-06
 -1     24561 3.57671E-05 5.83666E-05-1.60412E-06
 -1     24562 3.12566E-05 6.13446E-05-1.59709E-06
 -1     24567 3.10334E-05 6.09064E-05-1.68452E-06
 -1     24568 3.57671E-05 5.83666E-05-1.77649E-06
 -1     24569 3.12566E-05 6.13446E-05-1.77186E-06
 -1     24574 3.10333E-05 6.09064E-05-1.85914E-06
 -1     24575 3.57671E-05 5.83666E-05-1.94899E-06
 -1     24576 3.12566E-05 6.13445E-05-1.94637E-06
 -1     24581 3.10333E-05 6.09064E-05-2.03355E-06
 -1     24582 3.57671E-05 5.83666E-05-2.12156E-06
 -1     24583 3.12566E-05 6.13445E-05-2.12071E-06
 -1     24588 3.10333E-05 6.09064E-05-2.20786E-06
 -1     24589 3.57671E-05 5.83666E-05-2.29416E-06
 -1     24590 3.12566E-05 6.13445E-05-2.29501E-06
 -1     24595 3.10333E-05 6.09064E-05-2.38218E-06
 -1     24596 3.57671E-05 5.83666E-05-2.46674E-06
 -1     24597 3.12566E-05 6.13445E-05-2.46936E-06
 -1     24602 3.10333E-05 6.09064E-05-2.55659E-06
 -1     24603 3.57671E-05 5.83666E-05-2.63923E-06
 -1     24604 3.12566E-05 6.13446E-05-2.64386E-06
 -1     24609 3.10334E-05 6.09064E-05-2.73120E-06
 -1     24610 3.57671E-05 5.83666E-05-2.81160E-06
 -1     24611 3.12566E-05 6.13446E-05-2.81864E-06
 -1     24616 3.10334E-05 6.09064E-05-2.90616E-06
 -1     24617 3.57671E-05 5.83666E-05-2.98378E-06
 -1     24618 3.12567E-05 6.13447E-05-2.99383E-06
 -1     24623 3.10334E-05 6.09065E-05-3.08162E-06
 -1     24627 2.11235E-05 6.50114E-05-1.33411E-06
 -1     24628 2.61962E-05 6.32432E-05-1.43195E-06
 -1     24629 2.12754E-05 6.54790E-05-1.42190E-06
 -1     24634 2.11234E-05 6.50113E-05-1.50957E-06
 -1     24635 2.61962E-05 6.32432E-05-1.60412E-06
 -1     24636 2.12754E-05 6.54790E-05-1.59709E-06
 -1     24641 2.11234E-05 6.50112E-05-1.68452E-06
 -1     24642 2.61962E-05 6.32432E-05-1.77649E-06
 -1     24643 2.12754E-05 6.54789E-05-1.77186E-06
 -1     24648 2.11234E-05 6.50112E-05-1.85914E-06
 -1     24649 2.61962E-05 6.32433E-05-1.94899E-06
 -1     24650 2.12754E-05 6.54789E-05-1.94637E-06
 -1     24655 2.11234E-05 6.50112E-05-2.03355E-06
 -1     24656 2.61962E-05 6.32433E-05-2.12156E-06
 -1     24657 2.12754E-05 6.54789E-05-2.12071E-06
 -1     24662 2.11234E-05 6.50112E-05-2.20786E-06
 -1     24663 2.61962E-05 6.32433E-05-2.29416E-06
 -1     24664 2.12754E-05 6.54789E-05-2.29501E-06
 -1     24669 2.11234E-05 6.50112E-05-2.38218E-06
 -1     24670 2.61962E-05 6.32433E-05-2.46674E-06
 -1     24671 2.12754E-05 6.54789E-05-2.46936E-06
 -1     24676 2.11234E-05 6.50112E-05-2.55659E-06
 -1     24677 2.61962E-05 6.32432E-05-2.63923E-06
 -1     24678 2.12754E-05 6.54789E-05-2.64386E-06
 -1     24683 2.11234E-05 6.50112E-05-2.73120E-06
 -1     24684 2.61962E-05 6.32432E-05-2.81160E-06
 -1     24685 2.12754E-05 6.54790E-05-2.81864E-06
 -1     24690 2.11234E-05 6.50113E-05-2.90616E-06
 -1     24691 2.61962E-05 6.32432E-05-2.98378E-06
 -1     24692 2.12754E-05 6.54790E-05-2.99383E-06
 -1     24697 2.11235E-05 6.50114E-05-3.08162E-06
 -1     24701 1.06934E-05 6.75154E-05-1.33411E-06
 -1     24702 1.59803E-05 6.65626E-05-1.43195E-06
 -1     24703 1.07703E-05 6.80011E-05-1.42190E-06
 -1     24708 1.06934E-05 6.75153E-05-1.50957E-06
 -1     24709 1.59803E-05 6.65626E-05-1.60412E-06
 -1     24710 1.07703E-05 6.80010E-05-1.59709E-06
 -1     24715 1.06934E-05 6.75153E-05-1.68452E-06
 -1     24716 1.59803E-05 6.65626E-05-1.77649E-06
 -1     24717 1.07703E-05 6.80010E-05-1.77186E-06
 -1     24722 1.06934E-05 6.75152E-05-1.85914E-06
 -1     24723 1.59803E-05 6.65626E-05-1.94899E-06
 -1     24724 1.07703E-05 6.80010E-05-1.94637E-06
 -1     24729 1.06934E-05 6.75152E-05-2.03355E-06
 -1     24730 1.59803E-05 6.65626E-05-2.12156E-06
 -1     24731 1.07703E-05 6.80009E-05-2.12071E-06
 -1     24736 1.06934E-05 6.75152E-05-2.20786E-06
 -1     24737 1.59803E-05 6.65626E-05-2.29416E-06
 -1     24738 1.07703E-05 6.80009E-05-2.29501E-06
 -1     24743 1.06934E-05 6.75152E-05-2.38218E-06
 -1     24744 1.59803E-05 6.65626E-05-2.46674E-06
 -1     24745 1.07703E-05 6.80010E-05-2.46936E-06
 -1     24750 1.06934E-05 6.75152E-05-2.55659E-06
 -1     24751 1.59803E-05 6.65626E-05-2.63923E-06
 -1     24752 1.07703E-05 6.80010E-05-2.64386E-06
 -1     24757 1.06934E-05 6.75153E-05-2.73120E-06
 -1     24758 1.59803E-05 6.65626E-05-2.81160E-06
 -1     24759 1.07703E-05 6.80010E-05-2.81864E-06
 -1     24764 1.06934E-05 6.75153E-05-2.90616E-06
 -1     24765 1.59803E-05 6.65626E-05-2.98378E-06
 -1     24766 1.07703E-05 6.80011E-05-2.99383E-06
 -1     24771 1.06934E-05 6.75154E-05-3.08162E-06
 -1     24775 5.37083E-06 6.82429E-05-1.43195E-06
 -1     24779 5.37084E-06 6.82430E-05-1.60412E-06
 -1     24783 5.37084E-06 6.82430E-05-1.77649E-06
 -1     24787 5.37084E-06 6.82430E-05-1.94899E-06
 -1     24791 5.37084E-06 6.82430E-05-2.12156E-06
 -1     24795 5.37084E-06 6.82430E-05-2.29416E-06
 -1     24799 5.37084E-06 6.82430E-05-2.46674E-06
 -1     24803 5.37084E-06 6.82430E-05-2.63923E-06
 -1     24807 5.37084E-06 6.82430E-05-2.81160E-06
 -1     24811 5.37083E-06 6.82429E-05-2.98378E-06
 -1     24817 6.66109E-05 1.05501E-05-1.33441E-06
 -1     24818 6.73238E-05 5.29850E-06-1.43184E-06
 -1     24819 6.70522E-05 1.06200E-05-1.42212E-06
 -1     24824 6.66108E-05 1.05501E-05-1.50975E-06
 -1     24825 6.73239E-05 5.29850E-06-1.60406E-06
 -1     24826 6.70521E-05 1.06200E-05-1.59722E-06
 -1     24831 6.66107E-05 1.05501E-05-1.68462E-06
 -1     24832 6.73239E-05 5.29851E-06-1.77646E-06
 -1     24833 6.70521E-05 1.06200E-05-1.77193E-06
 -1     24838 6.66107E-05 1.05501E-05-1.85919E-06
 -1     24839 6.73239E-05 5.29851E-06-1.94897E-06
 -1     24840 6.70521E-05 1.06200E-05-1.94640E-06
 -1     24845 6.66107E-05 1.05501E-05-2.03357E-06
 -1     24846 6.73239E-05 5.29851E-06-2.12156E-06
 -1     24847 6.70521E-05 1.06200E-05-2.12072E-06
 -1     24852 6.66107E-05 1.05501E-05-2.20786E-06
 -1     24853 6.73239E-05 5.29851E-06-2.29417E-06
 -1     24854 6.70521E-05 1.06200E-05-2.29500E-06
 -1     24859 6.66107E-05 1.05501E-05-2.38215E-06
 -1     24860 6.73239E-05 5.29851E-06-2.46675E-06
 -1     24861 6.70521E-05 1.06200E-05-2.46933E-06
 -1     24866 6.66107E-05 1.05501E-05-2.55653E-06
 -1     24867 6.73239E-05 5.29851E-06-2.63927E-06
 -1     24868 6.70521E-05 1.06200E-05-2.64379E-06
 -1     24873 6.66107E-05 1.05501E-05-2.73110E-06
 -1     24874 6.73239E-05 5.29850E-06-2.81167E-06
 -1     24875 6.70521E-05 1.06200E-05-2.81851E-06
 -1     24880 6.66108E-05 1.05501E-05-2.90598E-06
 -1     24881 6.73238E-05 5.29850E-06-2.98389E-06
 -1     24882 6.70522E-05 1.06200E-05-2.99361E-06
 -1     24887 6.66109E-05 1.05501E-05-3.08132E-06
 -1     24891 6.41404E-05 2.08405E-05-1.33441E-06
 -1     24892 6.56661E-05 1.57650E-05-1.43184E-06
 -1     24893 6.45653E-05 2.09786E-05-1.42212E-06
 -1     24898 6.41403E-05 2.08404E-05-1.50975E-06
 -1     24899 6.56661E-05 1.57650E-05-1.60406E-06
 -1     24900 6.45653E-05 2.09785E-05-1.59722E-06
 -1     24905 6.41403E-05 2.08404E-05-1.68462E-06
 -1     24906 6.56662E-05 1.57651E-05-1.77646E-06
 -1     24907 6.45652E-05 2.09785E-05-1.77193E-06
 -1     24912 6.41402E-05 2.08404E-05-1.85919E-06
 -1     24913 6.56662E-05 1.57651E-05-1.94897E-06
 -1     24914 6.45652E-05 2.09785E-05-1.94640E-06
 -1     24919 6.41402E-05 2.08404E-05-2.03357E-06
 -1     24920 6.56662E-05 1.57651E-05-2.12156E-06
 -1     24921 6.45652E-05 2.09785E-05-2.12072E-06
 -1     24926 6.41402E-05 2.08404E-05-2.20786E-06
 -1     24927 6.56662E-05 1.57651E-05-2.29417E-06
 -1     24928 6.45652E-05 2.09785E-05-2.29500E-06
 -1     24933 6.41402E-05 2.08404E-05-2.38215E-06
 -1     24934 6.56662E-05 1.57651E-05-2.46675E-06
 -1     24935 6.45652E-05 2.09785E-05-2.46933E-06
 -1     24940 6.41402E-05 2.08404E-05-2.55653E-06
 -1     24941 6.56662E-05 1.57651E-05-2.63927E-06
 -1     24942 6.45652E-05 2.09785E-05-2.64379E-06
 -1     24947 6.41403E-05 2.08404E-05-2.73110E-06
 -1     24948 6.56661E-05 1.57650E-05-2.81167E-06
 -1     24949 6.45653E-05 2.09785E-05-2.81851E-06
 -1     24954 6.41403E-05 2.08404E-05-2.90598E-06
 -1     24955 6.56661E-05 1.57650E-05-2.98389E-06
 -1     24956 6.45653E-05 2.09786E-05-2.99361E-06
 -1     24961 6.41404E-05 2.08405E-05-3.08132E-06
 -1     24965 6.00905E-05 3.06177E-05-1.33441E-06
 -1     24966 6.23915E-05 2.58434E-05-1.43184E-06
 -1     24967 6.04887E-05 3.08205E-05-1.42212E-06
 -1     24972 6.00905E-05 3.06176E-05-1.50975E-06
 -1     24973 6.23915E-05 2.58434E-05-1.60406E-06
 -1     24974 6.04886E-05 3.08205E-05-1.59722E-06
 -1     24979 6.00904E-05 3.06176E-05-1.68462E-06
 -1     24980 6.23915E-05 2.58434E-05-1.77646E-06
 -1     24981 6.04886E-05 3.08205E-05-1.77193E-06
 -1     24986 6.00904E-05 3.06176E-05-1.85919E-06
 -1     24987 6.23915E-05 2.58434E-05-1.94897E-06
 -1     24988 6.04886E-05 3.08205E-05-1.94640E-06
 -1     24993 6.00904E-05 3.06176E-05-2.03357E-06
 -1     24994 6.23915E-05 2.58434E-05-2.12156E-06
 -1     24995 6.04885E-05 3.08205E-05-2.12072E-06
 -1     25000 6.00904E-05 3.06176E-05-2.20786E-06
 -1     25001 6.23915E-05 2.58434E-05-2.29417E-06
 -1     25002 6.04885E-05 3.08205E-05-2.29500E-06
 -1     25007 6.00904E-05 3.06176E-05-2.38215E-06
 -1     25008 6.23915E-05 2.58434E-05-2.46675E-06
 -1     25009 6.04886E-05 3.08205E-05-2.46933E-06
 -1     25014 6.00904E-05 3.06176E-05-2.55653E-06
 -1     25015 6.23915E-05 2.58434E-05-2.63927E-06
 -1     25016 6.04886E-05 3.08205E-05-2.64379E-06
 -1     25021 6.00904E-05 3.06176E-05-2.73110E-06
 -1     25022 6.23915E-05 2.58434E-05-2.81167E-06
 -1     25023 6.04886E-05 3.08205E-05-2.81851E-06
 -1     25028 6.00905E-05 3.06176E-05-2.90598E-06
 -1     25029 6.23915E-05 2.58434E-05-2.98389E-06
 -1     25030 6.04887E-05 3.08205E-05-2.99361E-06
 -1     25035 6.00905E-05 3.06177E-05-3.08132E-06
 -1     25039 5.45611E-05 3.96409E-05-1.33441E-06
 -1     25040 5.75805E-05 3.52854E-05-1.43184E-06
 -1     25041 5.49226E-05 3.99036E-05-1.42212E-06
 -1     25046 5.45610E-05 3.96409E-05-1.50975E-06
 -1     25047 5.75805E-05 3.52854E-05-1.60406E-06
 -1     25048 5.49225E-05 3.99035E-05-1.59722E-06
 -1     25053 5.45610E-05 3.96409E-05-1.68462E-06
 -1     25054 5.75806E-05 3.52854E-05-1.77646E-06
 -1     25055 5.49225E-05 3.99035E-05-1.77193E-06
 -1     25060 5.45609E-05 3.96408E-05-1.85919E-06
 -1     25061 5.75806E-05 3.52854E-05-1.94897E-06
 -1     25062 5.49225E-05 3.99035E-05-1.94640E-06
 -1     25067 5.45609E-05 3.96408E-05-2.03357E-06
 -1     25068 5.75806E-05 3.52854E-05-2.12156E-06
 -1     25069 5.49224E-05 3.99035E-05-2.12072E-06
 -1     25074 5.45609E-05 3.96408E-05-2.20786E-06
 -1     25075 5.75806E-05 3.52854E-05-2.29417E-06
 -1     25076 5.49224E-05 3.99035E-05-2.29500E-06
 -1     25081 5.45609E-05 3.96408E-05-2.38215E-06
 -1     25082 5.75806E-05 3.52854E-05-2.46675E-06
 -1     25083 5.49225E-05 3.99035E-05-2.46933E-06
 -1     25088 5.45609E-05 3.96408E-05-2.55653E-06
 -1     25089 5.75806E-05 3.52854E-05-2.63927E-06
 -1     25090 5.49225E-05 3.99035E-05-2.64379E-06
 -1     25095 5.45610E-05 3.96409E-05-2.73110E-06
 -1     25096 5.75805E-05 3.52854E-05-2.81167E-06
 -1     25097 5.49225E-05 3.99035E-05-2.81851E-06
 -1     25102 5.45610E-05 3.96409E-05-2.90598E-06
 -1     25103 5.75805E-05 3.52854E-05-2.98389E-06
 -1     25104 5.49226E-05 3.99036E-05-2.99361E-06
 -1     25109 5.45611E-05 3.96409E-05-3.08132E-06
 -1     25113 4.76881E-05 4.76881E-05-1.33441E-06
 -1     25114 5.13518E-05 4.38585E-05-1.43184E-06
 -1     25115 4.80041E-05 4.80041E-05-1.42212E-06
 -1     25120 4.76881E-05 4.76881E-05-1.50975E-06
 -1     25121 5.13518E-05 4.38586E-05-1.60406E-06
 -1     25122 4.80040E-05 4.80040E-05-1.59722E-06
 -1     25127 4.76880E-05 4.76880E-05-1.68462E-06
 -1     25128 5.13518E-05 4.38586E-05-1.77646E-06
 -1     25129 4.80040E-05 4.80040E-05-1.77193E-06
 -1     25134 4.76880E-05 4.76880E-05-1.85919E-06
 -1     25135 5.13518E-05 4.38586E-05-1.94897E-06
 -1     25136 4.80040E-05 4.80040E-05-1.94640E-06
 -1     25141 4.76880E-05 4.76880E-05-2.03357E-06
 -1     25142 5.13518E-05 4.38586E-05-2.12156E-06
 -1     25143 4.80040E-05 4.80040E-05-2.12072E-06
 -1     25148 4.76880E-05 4.76880E-05-2.20786E-06
 -1     25149 5.13518E-05 4.38586E-05-2.29417E-06
 -1     25150 4.80040E-05 4.80040E-05-2.29500E-06
 -1     25155 4.76880E-05 4.76880E-05-2.38215E-06
 -1     25156 5.13518E-05 4.38586E-05-2.46675E-06
 -1     25157 4.80040E-05 4.80040E-05-2.46933E-06
 -1     25162 4.76880E-05 4.76880E-05-2.55653E-06
 -1     25163 5.13518E-05 4.38586E-05-2.63927E-06
 -1     25164 4.80040E-05 4.80040E-05-2.64379E-06
 -1     25169 4.76880E-05 4.76880E-05-2.73110E-06
 -1     25170 5.13518E-05 4.38586E-05-2.81167E-06
 -1     25171 4.80040E-05 4.80040E-05-2.81851E-06
 -1     25176 4.76881E-05 4.76881E-05-2.90598E-06
 -1     25177 5.13518E-05 4.38585E-05-2.98389E-06
 -1     25178 4.80041E-05 4.80041E-05-2.99361E-06
 -1     25183 4.76881E-05 4.76881E-05-3.08132E-06
 -1     25187 3.96409E-05 5.45611E-05-1.33441E-06
 -1     25188 4.38585E-05 5.13518E-05-1.43184E-06
 -1     25189 3.99036E-05 5.49226E-05-1.42212E-06
 -1     25194 3.96409E-05 5.45610E-05-1.50975E-06
 -1     25195 4.38586E-05 5.13518E-05-1.60406E-06
 -1     25196 3.99035E-05 5.49225E-05-1.59722E-06
 -1     25201 3.96409E-05 5.45610E-05-1.68462E-06
 -1     25202 4.38586E-05 5.13518E-05-1.77646E-06
 -1     25203 3.99035E-05 5.49225E-05-1.77193E-06
 -1     25208 3.96408E-05 5.45609E-05-1.85919E-06
 -1     25209 4.38586E-05 5.13518E-05-1.94897E-06
 -1     25210 3.99035E-05 5.49225E-05-1.94640E-06
 -1     25215 3.96408E-05 5.45609E-05-2.03357E-06
 -1     25216 4.38586E-05 5.13518E-05-2.12156E-06
 -1     25217 3.99035E-05 5.49224E-05-2.12072E-06
 -1     25222 3.96408E-05 5.45609E-05-2.20786E-06
 -1     25223 4.38586E-05 5.13518E-05-2.29417E-06
 -1     25224 3.99035E-05 5.49224E-05-2.29500E-06
 -1     25229 3.96408E-05 5.45609E-05-2.38215E-06
 -1     25230 4.38586E-05 5.13518E-05-2.46675E-06
 -1     25231 3.99035E-05 5.49225E-05-2.46933E-06
 -1     25236 3.96408E-05 5.45609E-05-2.55653E-06
 -1     25237 4.38586E-05 5.13518E-05-2.63927E-06
 -1     25238 3.99035E-05 5.49225E-05-2.64379E-06
 -1     25243 3.96409E-05 5.45610E-05-2.73110E-06
 -1     25244 4.38586E-05 5.13518E-05-2.81167E-06
 -1     25245 3.99035E-05 5.49225E-05-2.81851E-06
 -1     25250 3.96409E-05 5.45610E-05-2.90598E-06
 -1     25251 4.38585E-05 5.13518E-05-2.98389E-06
 -1     25252 3.99036E-05 5.49226E-05-2.99361E-06
 -1     25257 3.96409E-05 5.45611E-05-3.08132E-06
 -1     25261 3.06177E-05 6.00905E-05-1.33441E-06
 -1     25262 3.52854E-05 5.75805E-05-1.43184E-06
 -1     25263 3.08205E-05 6.04887E-05-1.42212E-06
 -1     25268 3.06176E-05 6.00905E-05-1.50975E-06
 -1     25269 3.52854E-05 5.75805E-05-1.60406E-06
 -1     25270 3.08205E-05 6.04886E-05-1.59722E-06
 -1     25275 3.06176E-05 6.00904E-05-1.68462E-06
 -1     25276 3.52854E-05 5.75806E-05-1.77646E-06
 -1     25277 3.08205E-05 6.04886E-05-1.77193E-06
 -1     25282 3.06176E-05 6.00904E-05-1.85919E-06
 -1     25283 3.52854E-05 5.75806E-05-1.94897E-06
 -1     25284 3.08205E-05 6.04886E-05-1.94640E-06
 -1     25289 3.06176E-05 6.00904E-05-2.03357E-06
 -1     25290 3.52854E-05 5.75806E-05-2.12156E-06
 -1     25291 3.08205E-05 6.04885E-05-2.12072E-06
 -1     25296 3.06176E-05 6.00904E-05-2.20786E-06
 -1     25297 3.52854E-05 5.75806E-05-2.29417E-06
 -1     25298 3.08205E-05 6.04885E-05-2.29500E-06
 -1     25303 3.06176E-05 6.00904E-05-2.38215E-06
 -1     25304 3.52854E-05 5.75806E-05-2.46675E-06
 -1     25305 3.08205E-05 6.04886E-05-2.46933E-06
 -1     25310 3.06176E-05 6.00904E-05-2.55653E-06
 -1     25311 3.52854E-05 5.75806E-05-2.63927E-06
 -1     25312 3.08205E-05 6.04886E-05-2.64379E-06
 -1     25317 3.06176E-05 6.00904E-05-2.73110E-06
 -1     25318 3.52854E-05 5.75805E-05-2.81167E-06
 -1     25319 3.08205E-05 6.04886E-05-2.81851E-06
 -1     25324 3.06176E-05 6.00905E-05-2.90598E-06
 -1     25325 3.52854E-05 5.75805E-05-2.98389E-06
 -1     25326 3.08205E-05 6.04887E-05-2.99361E-06
 -1     25331 3.06177E-05 6.00905E-05-3.08132E-06
 -1     25335 2.08405E-05 6.41404E-05-1.33441E-06
 -1     25336 2.58434E-05 6.23915E-05-1.43184E-06
 -1     25337 2.09786E-05 6.45653E-05-1.42212E-06
 -1     25342 2.08404E-05 6.41403E-05-1.50975E-06
 -1     25343 2.58434E-05 6.23915E-05-1.60406E-06
 -1     25344 2.09785E-05 6.45653E-05-1.59722E-06
 -1     25349 2.08404E-05 6.41403E-05-1.68462E-06
 -1     25350 2.58434E-05 6.23915E-05-1.77646E-06
 -1     25351 2.09785E-05 6.45652E-05-1.77193E-06
 -1     25356 2.08404E-05 6.41402E-05-1.85919E-06
 -1     25357 2.58434E-05 6.23915E-05-1.94897E-06
 -1     25358 2.09785E-05 6.45652E-05-1.94640E-06
 -1     25363 2.08404E-05 6.41402E-05-2.03357E-06
 -1     25364 2.58434E-05 6.23915E-05-2.12156E-06
 -1     25365 2.09785E-05 6.45652E-05-2.12072E-06
 -1     25370 2.08404E-05 6.41402E-05-2.20786E-06
 -1     25371 2.58434E-05 6.23915E-05-2.29417E-06
 -1     25372 2.09785E-05 6.45652E-05-2.29500E-06
 -1     25377 2.08404E-05 6.41402E-05-2.38215E-06
 -1     25378 2.58434E-05 6.23915E-05-2.46675E-06
 -1     25379 2.09785E-05 6.45652E-05-2.46933E-06
 -1     25384 2.08404E-05 6.41402E-05-2.55653E-06
 -1     25385 2.58434E-05 6.23915E-05-2.63927E-06
 -1     25386 2.09785E-05 6.45652E-05-2.64379E-06
 -1     25391 2.08404E-05 6.41403E-05-2.73110E-06
 -1     25392 2.58434E-05 6.23915E-05-2.81167E-06
 -1     25393 2.09785E-05 6.45653E-05-2.81851E-06
 -1     25398 2.08404E-05 6.41403E-05-2.90598E-06
 -1     25399 2.58434E-05 6.23915E-05-2.98389E-06
 -1     25400 2.09786E-05 6.45653E-05-2.99361E-06
 -1     25405 2.08405E-05 6.41404E-05-3.08132E-06
 -1     25409 1.05501E-05 6.66109E-05-1.33441E-06
 -1     25410 1.57650E-05 6.56661E-05-1.43184E-06
 -1     25411 1.06200E-05 6.70522E-05-1.42212E-06
 -1     25416 1.05501E-05 6.66108E-05-1.50975E-06
 -1     25417 1.57650E-05 6.56661E-05-1.60406E-06
 -1     25418 1.06200E-05 6.70521E-05-1.59722E-06
 -1     25423 1.05501E-05 6.66107E-05-1.68462E-06
 -1     25424 1.57651E-05 6.56662E-05-1.77646E-06
 -1     25425 1.06200E-05 6.70521E-05-1.77193E-06
 -1     25430 1.05501E-05 6.66107E-05-1.85919E-06
 -1     25431 1.57651E-05 6.56662E-05-1.94897E-06
 -1     25432 1.06200E-05 6.70521E-05-1.94640E-06
 -1     25437 1.05501E-05 6.66107E-05-2.03357E-06
 -1     25438 1.57651E-05 6.56662E-05-2.12156E-06
 -1     25439 1.06200E-05 6.70521E-05-2.12072E-06
 -1     25444 1.05501E-05 6.66107E-05-2.20786E-06
 -1     25445 1.57651E-05 6.56662E-05-2.29417E-06
 -1     25446 1.06200E-05 6.70521E-05-2.29500E-06
 -1     25451 1.05501E-05 6.66107E-05-2.38215E-06
 -1     25452 1.57651E-05 6.56662E-05-2.46675E-06
 -1     25453 1.06200E-05 6.70521E-05-2.46933E-06
 -1     25458 1.05501E-05 6.66107E-05-2.55653E-06
 -1     25459 1.57651E-05 6.56662E-05-2.63927E-06
 -1     25460 1.06200E-05 6.70521E-05-2.64379E-06
 -1     25465 1.05501E-05 6.66107E-05-2.73110E-06
 -1     25466 1.57650E-05 6.56661E-05-2.81167E-06
 -1     25467 1.06200E-05 6.70521E-05-2.81851E-06
 -1     25472 1.05501E-05 6.66108E-05-2.90598E-06
 -1     25473 1.57650E-05 6.56661E-05-2.98389E-06
 -1     25474 1.06200E-05 6.70522E-05-2.99361E-06
 -1     25479 1.05501E-05 6.66109E-05-3.08132E-06
 -1     25483 5.29850E-06 6.73238E-05-1.43184E-06
 -1     25487 5.29850E-06 6.73239E-05-1.60406E-06
 -1     25491 5.29851E-06 6.73239E-05-1.77646E-06
 -1     25495 5.29851E-06 6.73239E-05-1.94897E-06
 -1     25499 5.29851E-06 6.73239E-05-2.12156E-06
 -1     25503 5.29851E-06 6.73239E-05-2.29417E-06
 -1     25507 5.29851E-06 6.73239E-05-2.46675E-06
 -1     25511 5.29851E-06 6.73239E-05-2.63927E-06
 -1     25515 5.29850E-06 6.73239E-05-2.81167E-06
 -1     25519 5.29850E-06 6.73238E-05-2.98389E-06
 -1     25525 6.57893E-05 1.04200E-05-1.33473E-06
 -1     25526 6.64889E-05 5.23279E-06-1.43172E-06
 -1     25527 6.61901E-05 1.04835E-05-1.42235E-06
 -1     25532 6.57892E-05 1.04200E-05-1.50994E-06
 -1     25533 6.64889E-05 5.23279E-06-1.60399E-06
 -1     25534 6.61900E-05 1.04835E-05-1.59736E-06
 -1     25539 6.57892E-05 1.04200E-05-1.68474E-06
 -1     25540 6.64889E-05 5.23279E-06-1.77641E-06
 -1     25541 6.61900E-05 1.04835E-05-1.77201E-06
 -1     25546 6.57892E-05 1.04200E-05-1.85926E-06
 -1     25547 6.64889E-05 5.23279E-06-1.94895E-06
 -1     25548 6.61900E-05 1.04835E-05-1.94644E-06
 -1     25553 6.57891E-05 1.04200E-05-2.03360E-06
 -1     25554 6.64889E-05 5.23279E-06-2.12155E-06
 -1     25555 6.61899E-05 1.04835E-05-2.12074E-06
 -1     25560 6.57891E-05 1.04200E-05-2.20786E-06
 -1     25561 6.64889E-05 5.23279E-06-2.29417E-06
 -1     25562 6.61899E-05 1.04835E-05-2.29499E-06
 -1     25567 6.57891E-05 1.04200E-05-2.38212E-06
 -1     25568 6.64889E-05 5.23279E-06-2.46677E-06
 -1     25569 6.61900E-05 1.04835E-05-2.46929E-06
 -1     25574 6.57892E-05 1.04200E-05-2.55647E-06
 -1     25575 6.64889E-05 5.23279E-06-2.63931E-06
 -1     25576 6.61900E-05 1.04835E-05-2.64371E-06
 -1     25581 6.57892E-05 1.04200E-05-2.73099E-06
 -1     25582 6.64889E-05 5.23279E-06-2.81174E-06
 -1     25583 6.61900E-05 1.04835E-05-2.81837E-06
 -1     25588 6.57892E-05 1.04200E-05-2.90578E-06
 -1     25589 6.64889E-05 5.23279E-06-2.98401E-06
 -1     25590 6.61901E-05 1.04835E-05-2.99337E-06
 -1     25595 6.57893E-05 1.04200E-05-3.08100E-06
 -1     25599 6.33493E-05 2.05834E-05-1.33473E-06
 -1     25600 6.48517E-05 1.55695E-05-1.43172E-06
 -1     25601 6.37352E-05 2.07088E-05-1.42235E-06
 -1     25606 6.33492E-05 2.05834E-05-1.50994E-06
 -1     25607 6.48517E-05 1.55695E-05-1.60399E-06
 -1     25608 6.37351E-05 2.07088E-05-1.59736E-06
 -1     25613 6.33492E-05 2.05834E-05-1.68474E-06
 -1     25614 6.48518E-05 1.55695E-05-1.77641E-06
 -1     25615 6.37351E-05 2.07088E-05-1.77201E-06
 -1     25620 6.33491E-05 2.05834E-05-1.85926E-06
 -1     25621 6.48518E-05 1.55695E-05-1.94895E-06
 -1     25622 6.37351E-05 2.07088E-05-1.94644E-06
 -1     25627 6.33491E-05 2.05834E-05-2.03360E-06
 -1     25628 6.48518E-05 1.55695E-05-2.12155E-06
 -1     25629 6.37351E-05 2.07088E-05-2.12074E-06
 -1     25634 6.33491E-05 2.05834E-05-2.20786E-06
 -1     25635 6.48518E-05 1.55695E-05-2.29417E-06
 -1     25636 6.37351E-05 2.07088E-05-2.29499E-06
 -1     25641 6.33491E-05 2.05834E-05-2.38212E-06
 -1     25642 6.48518E-05 1.55695E-05-2.46677E-06
 -1     25643 6.37351E-05 2.07088E-05-2.46929E-06
 -1     25648 6.33491E-05 2.05834E-05-2.55647E-06
 -1     25649 6.48518E-05 1.55695E-05-2.63931E-06
 -1     25650 6.37351E-05 2.07088E-05-2.64371E-06
 -1     25655 6.33492E-05 2.05834E-05-2.73099E-06
 -1     25656 6.48517E-05 1.55695E-05-2.81174E-06
 -1     25657 6.37351E-05 2.07088E-05-2.81837E-06
 -1     25662 6.33492E-05 2.05834E-05-2.90578E-06
 -1     25663 6.48517E-05 1.55695E-05-2.98401E-06
 -1     25664 6.37352E-05 2.07088E-05-2.99337E-06
 -1     25669 6.33493E-05 2.05834E-05-3.08100E-06
 -1     25673 5.93494E-05 3.02400E-05-1.33473E-06
 -1     25674 6.16177E-05 2.55229E-05-1.43172E-06
 -1     25675 5.97109E-05 3.04242E-05-1.42235E-06
 -1     25680 5.93493E-05 3.02400E-05-1.50994E-06
 -1     25681 6.16177E-05 2.55229E-05-1.60399E-06
 -1     25682 5.97109E-05 3.04242E-05-1.59736E-06
 -1     25687 5.93493E-05 3.02400E-05-1.68474E-06
 -1     25688 6.16177E-05 2.55229E-05-1.77641E-06
 -1     25689 5.97108E-05 3.04242E-05-1.77201E-06
 -1     25694 5.93492E-05 3.02400E-05-1.85926E-06
 -1     25695 6.16177E-05 2.55229E-05-1.94895E-06
 -1     25696 5.97108E-05 3.04242E-05-1.94644E-06
 -1     25701 5.93492E-05 3.02399E-05-2.03360E-06
 -1     25702 6.16177E-05 2.55229E-05-2.12155E-06
 -1     25703 5.97108E-05 3.04242E-05-2.12074E-06
 -1     25708 5.93492E-05 3.02399E-05-2.20786E-06
 -1     25709 6.16177E-05 2.55229E-05-2.29417E-06
 -1     25710 5.97108E-05 3.04242E-05-2.29499E-06
 -1     25715 5.93492E-05 3.02399E-05-2.38212E-06
 -1     25716 6.16177E-05 2.55229E-05-2.46677E-06
 -1     25717 5.97108E-05 3.04242E-05-2.46929E-06
 -1     25722 5.93492E-05 3.02400E-05-2.55647E-06
 -1     25723 6.16177E-05 2.55229E-05-2.63931E-06
 -1     25724 5.97108E-05 3.04242E-05-2.64371E-06
 -1     25729 5.93493E-05 3.02400E-05-2.73099E-06
 -1     25730 6.16177E-05 2.55229E-05-2.81174E-06
 -1     25731 5.97109E-05 3.04242E-05-2.81837E-06
 -1     25736 5.93493E-05 3.02400E-05-2.90578E-06
 -1     25737 6.16177E-05 2.55229E-05-2.98401E-06
 -1     25738 5.97109E-05 3.04242E-05-2.99337E-06
 -1     25743 5.93494E-05 3.02400E-05-3.08100E-06
 -1     25747 5.38881E-05 3.91520E-05-1.33473E-06
 -1     25748 5.68664E-05 3.48478E-05-1.43172E-06
 -1     25749 5.42164E-05 3.93905E-05-1.42235E-06
 -1     25754 5.38880E-05 3.91520E-05-1.50994E-06
 -1     25755 5.68664E-05 3.48478E-05-1.60399E-06
 -1     25756 5.42163E-05 3.93905E-05-1.59736E-06
 -1     25761 5.38880E-05 3.91519E-05-1.68474E-06
 -1     25762 5.68664E-05 3.48478E-05-1.77641E-06
 -1     25763 5.42163E-05 3.93905E-05-1.77201E-06
 -1     25768 5.38880E-05 3.91519E-05-1.85926E-06
 -1     25769 5.68664E-05 3.48478E-05-1.94895E-06
 -1     25770 5.42163E-05 3.93904E-05-1.94644E-06
 -1     25775 5.38880E-05 3.91519E-05-2.03360E-06
 -1     25776 5.68664E-05 3.48478E-05-2.12155E-06
 -1     25777 5.42163E-05 3.93904E-05-2.12074E-06
 -1     25782 5.38880E-05 3.91519E-05-2.20786E-06
 -1     25783 5.68664E-05 3.48478E-05-2.29417E-06
 -1     25784 5.42163E-05 3.93904E-05-2.29499E-06
 -1     25789 5.38880E-05 3.91519E-05-2.38212E-06
 -1     25790 5.68664E-05 3.48478E-05-2.46677E-06
 -1     25791 5.42163E-05 3.93904E-05-2.46929E-06
 -1     25796 5.38880E-05 3.91519E-05-2.55647E-06
 -1     25797 5.68664E-05 3.48478E-05-2.63931E-06
 -1     25798 5.42163E-05 3.93905E-05-2.64371E-06
 -1     25803 5.38880E-05 3.91519E-05-2.73099E-06
 -1     25804 5.68664E-05 3.48478E-05-2.81174E-06
 -1     25805 5.42163E-05 3.93905E-05-2.81837E-06
 -1     25810 5.38880E-05 3.91520E-05-2.90578E-06
 -1     25811 5.68664E-05 3.48478E-05-2.98401E-06
 -1     25812 5.42164E-05 3.93905E-05-2.99337E-06
 -1     25817 5.38881E-05 3.91520E-05-3.08100E-06
 -1     25821 4.70999E-05 4.70999E-05-1.33473E-06
 -1     25822 5.07149E-05 4.33146E-05-1.43172E-06
 -1     25823 4.73869E-05 4.73869E-05-1.42235E-06
 -1     25828 4.70999E-05 4.70999E-05-1.50994E-06
 -1     25829 5.07149E-05 4.33146E-05-1.60399E-06
 -1     25830 4.73868E-05 4.73868E-05-1.59736E-06
 -1     25835 4.70998E-05 4.70998E-05-1.68474E-06
 -1     25836 5.07149E-05 4.33146E-05-1.77641E-06
 -1     25837 4.73868E-05 4.73868E-05-1.77201E-06
 -1     25842 4.70998E-05 4.70998E-05-1.85926E-06
 -1     25843 5.07149E-05 4.33146E-05-1.94895E-06
 -1     25844 4.73868E-05 4.73868E-05-1.94644E-06
 -1     25849 4.70998E-05 4.70998E-05-2.03360E-06
 -1     25850 5.07149E-05 4.33146E-05-2.12155E-06
 -1     25851 4.73868E-05 4.73868E-05-2.12074E-06
 -1     25856 4.70998E-05 4.70998E-05-2.20786E-06
 -1     25857 5.07149E-05 4.33146E-05-2.29417E-06
 -1     25858 4.73868E-05 4.73868E-05-2.29499E-06
 -1     25863 4.70998E-05 4.70998E-05-2.38212E-06
 -1     25864 5.07149E-05 4.33146E-05-2.46677E-06
 -1     25865 4.73868E-05 4.73868E-05-2.46929E-06
 -1     25870 4.70998E-05 4.70998E-05-2.55647E-06
 -1     25871 5.07149E-05 4.33146E-05-2.63931E-06
 -1     25872 4.73868E-05 4.73868E-05-2.64371E-06
 -1     25877 4.70998E-05 4.70998E-05-2.73099E-06
 -1     25878 5.07149E-05 4.33146E-05-2.81174E-06
 -1     25879 4.73868E-05 4.73868E-05-2.81837E-06
 -1     25884 4.70999E-05 4.70999E-05-2.90578E-06
 -1     25885 5.07149E-05 4.33146E-05-2.98401E-06
 -1     25886 4.73869E-05 4.73869E-05-2.99337E-06
 -1     25891 4.70999E-05 4.70999E-05-3.08100E-06
 -1     25895 3.91520E-05 5.38881E-05-1.33473E-06
 -1     25896 4.33146E-05 5.07149E-05-1.43172E-06
 -1     25897 3.93905E-05 5.42164E-05-1.42235E-06
 -1     25902 3.91520E-05 5.38880E-05-1.50994E-06
 -1     25903 4.33146E-05 5.07149E-05-1.60399E-06
 -1     25904 3.93905E-05 5.42163E-05-1.59736E-06
 -1     25909 3.91519E-05 5.38880E-05-1.68474E-06
 -1     25910 4.33146E-05 5.07149E-05-1.77641E-06
 -1     25911 3.93905E-05 5.42163E-05-1.77201E-06
 -1     25916 3.91519E-05 5.38880E-05-1.85926E-06
 -1     25917 4.33146E-05 5.07149E-05-1.94895E-06
 -1     25918 3.93904E-05 5.42163E-05-1.94644E-06
 -1     25923 3.91519E-05 5.38880E-05-2.03360E-06
 -1     25924 4.33146E-05 5.07149E-05-2.12155E-06
 -1     25925 3.93904E-05 5.42163E-05-2.12074E-06
 -1     25930 3.91519E-05 5.38880E-05-2.20786E-06
 -1     25931 4.33146E-05 5.07149E-05-2.29417E-06
 -1     25932 3.93904E-05 5.42163E-05-2.29499E-06
 -1     25937 3.91519E-05 5.38880E-05-2.38212E-06
 -1     25938 4.33146E-05 5.07149E-05-2.46677E-06
 -1     25939 3.93904E-05 5.42163E-05-2.46929E-06
 -1     25944 3.91519E-05 5.38880E-05-2.55647E-06
 -1     25945 4.33146E-05 5.07149E-05-2.63931E-06
 -1     25946 3.93905E-05 5.42163E-05-2.64371E-06
 -1     25951 3.91519E-05 5.38880E-05-2.73099E-06
 -1     25952 4.33146E-05 5.07149E-05-2.81174E-06
 -1     25953 3.93905E-05 5.42163E-05-2.81837E-06
 -1     25958 3.91520E-05 5.38880E-05-2.90578E-06
 -1     25959 4.33146E-05 5.07149E-05-2.98401E-06
 -1     25960 3.93905E-05 5.42164E-05-2.99337E-06
 -1     25965 3.91520E-05 5.38881E-05-3.08100E-06
 -1     25969 3.02400E-05 5.93494E-05-1.33473E-06
 -1     25970 3.48478E-05 5.68664E-05-1.43172E-06
 -1     25971 3.04242E-05 5.97109E-05-1.42235E-06
 -1     25976 3.02400E-05 5.93493E-05-1.50994E-06
 -1     25977 3.48478E-05 5.68664E-05-1.60399E-06
 -1     25978 3.04242E-05 5.97109E-05-1.59736E-06
 -1     25983 3.02400E-05 5.93493E-05-1.68474E-06
 -1     25984 3.48478E-05 5.68664E-05-1.77641E-06
 -1     25985 3.04242E-05 5.97108E-05-1.77201E-06
 -1     25990 3.02400E-05 5.93492E-05-1.85926E-06
 -1     25991 3.48478E-05 5.68664E-05-1.94895E-06
 -1     25992 3.04242E-05 5.97108E-05-1.94644E-06
 -1     25997 3.02399E-05 5.93492E-05-2.03360E-06
 -1     25998 3.48478E-05 5.68664E-05-2.12155E-06
 -1     25999 3.04242E-05 5.97108E-05-2.12074E-06
 -1     26004 3.02399E-05 5.93492E-05-2.20786E-06
 -1     26005 3.48478E-05 5.68664E-05-2.29417E-06
 -1     26006 3.04242E-05 5.97108E-05-2.29499E-06
 -1     26011 3.02399E-05 5.93492E-05-2.38212E-06
 -1     26012 3.48478E-05 5.68664E-05-2.46677E-06
 -1     26013 3.04242E-05 5.97108E-05-2.46929E-06
 -1     26018 3.02400E-05 5.93492E-05-2.55647E-06
 -1     26019 3.48478E-05 5.68664E-05-2.63931E-06
 -1     26020 3.04242E-05 5.97108E-05-2.64371E-06
 -1     26025 3.02400E-05 5.93493E-05-2.73099E-06
 -1     26026 3.48478E-05 5.68664E-05-2.81174E-06
 -1     26027 3.04242E-05 5.97109E-05-2.81837E-06
 -1     26032 3.02400E-05 5.93493E-05-2.90578E-06
 -1     26033 3.48478E-05 5.68664E-05-2.98401E-06
 -1     26034 3.04242E-05 5.97109E-05-2.99337E-06
 -1     26039 3.02400E-05 5.93494E-05-3.08100E-06
 -1     26043 2.05834E-05 6.33493E-05-1.33473E-06
 -1     26044 2.55229E-05 6.16177E-05-1.43172E-06
 -1     26045 2.07088E-05 6.37352E-05-1.42235E-06
 -1     26050 2.05834E-05 6.33492E-05-1.50994E-06
 -1     26051 2.55229E-05 6.16177E-05-1.60399E-06
 -1     26052 2.07088E-05 6.37351E-05-1.59736E-06
 -1     26057 2.05834E-05 6.33492E-05-1.68474E-06
 -1     26058 2.55229E-05 6.16177E-05-1.77641E-06
 -1     26059 2.07088E-05 6.37351E-05-1.77201E-06
 -1     26064 2.05834E-05 6.33491E-05-1.85926E-06
 -1     26065 2.55229E-05 6.16177E-05-1.94895E-06
 -1     26066 2.07088E-05 6.37351E-05-1.94644E-06
 -1     26071 2.05834E-05 6.33491E-05-2.03360E-06
 -1     26072 2.55229E-05 6.16177E-05-2.12155E-06
 -1     26073 2.07088E-05 6.37351E-05-2.12074E-06
 -1     26078 2.05834E-05 6.33491E-05-2.20786E-06
 -1     26079 2.55229E-05 6.16177E-05-2.29417E-06
 -1     26080 2.07088E-05 6.37351E-05-2.29499E-06
 -1     26085 2.05834E-05 6.33491E-05-2.38212E-06
 -1     26086 2.55229E-05 6.16177E-05-2.46677E-06
 -1     26087 2.07088E-05 6.37351E-05-2.46929E-06
 -1     26092 2.05834E-05 6.33491E-05-2.55647E-06
 -1     26093 2.55229E-05 6.16177E-05-2.63931E-06
 -1     26094 2.07088E-05 6.37351E-05-2.64371E-06
 -1     26099 2.05834E-05 6.33492E-05-2.73099E-06
 -1     26100 2.55229E-05 6.16177E-05-2.81174E-06
 -1     26101 2.07088E-05 6.37351E-05-2.81837E-06
 -1     26106 2.05834E-05 6.33492E-05-2.90578E-06
 -1     26107 2.55229E-05 6.16177E-05-2.98401E-06
 -1     26108 2.07088E-05 6.37352E-05-2.99337E-06
 -1     26113 2.05834E-05 6.33493E-05-3.08100E-06
 -1     26117 1.04200E-05 6.57893E-05-1.33473E-06
 -1     26118 1.55695E-05 6.48517E-05-1.43172E-06
 -1     26119 1.04835E-05 6.61901E-05-1.42235E-06
 -1     26124 1.04200E-05 6.57892E-05-1.50994E-06
 -1     26125 1.55695E-05 6.48517E-05-1.60399E-06
 -1     26126 1.04835E-05 6.61900E-05-1.59736E-06
 -1     26131 1.04200E-05 6.57892E-05-1.68474E-06
 -1     26132 1.55695E-05 6.48518E-05-1.77641E-06
 -1     26133 1.04835E-05 6.61900E-05-1.77201E-06
 -1     26138 1.04200E-05 6.57892E-05-1.85926E-06
 -1     26139 1.55695E-05 6.48518E-05-1.94895E-06
 -1     26140 1.04835E-05 6.61900E-05-1.94644E-06
 -1     26145 1.04200E-05 6.57891E-05-2.03360E-06
 -1     26146 1.55695E-05 6.48518E-05-2.12155E-06
 -1     26147 1.04835E-05 6.61899E-05-2.12074E-06
 -1     26152 1.04200E-05 6.57891E-05-2.20786E-06
 -1     26153 1.55695E-05 6.48518E-05-2.29417E-06
 -1     26154 1.04835E-05 6.61899E-05-2.29499E-06
 -1     26159 1.04200E-05 6.57891E-05-2.38212E-06
 -1     26160 1.55695E-05 6.48518E-05-2.46677E-06
 -1     26161 1.04835E-05 6.61900E-05-2.46929E-06
 -1     26166 1.04200E-05 6.57892E-05-2.55647E-06
 -1     26167 1.55695E-05 6.48518E-05-2.63931E-06
 -1     26168 1.04835E-05 6.61900E-05-2.64371E-06
 -1     26173 1.04200E-05 6.57892E-05-2.73099E-06
 -1     26174 1.55695E-05 6.48517E-05-2.81174E-06
 -1     26175 1.04835E-05 6.61900E-05-2.81837E-06
 -1     26180 1.04200E-05 6.57892E-05-2.90578E-06
 -1     26181 1.55695E-05 6.48517E-05-2.98401E-06
 -1     26182 1.04835E-05 6.61901E-05-2.99337E-06
 -1     26187 1.04200E-05 6.57893E-05-3.08100E-06
 -1     26191 5.23279E-06 6.64889E-05-1.43172E-06
 -1     26195 5.23279E-06 6.64889E-05-1.60399E-06
 -1     26199 5.23279E-06 6.64889E-05-1.77641E-06
 -1     26203 5.23279E-06 6.64889E-05-1.94895E-06
 -1     26207 5.23279E-06 6.64889E-05-2.12155E-06
 -1     26211 5.23279E-06 6.64889E-05-2.29417E-06
 -1     26215 5.23279E-06 6.64889E-05-2.46677E-06
 -1     26219 5.23279E-06 6.64889E-05-2.63931E-06
 -1     26223 5.23279E-06 6.64889E-05-2.81174E-06
 -1     26227 5.23279E-06 6.64889E-05-2.98401E-06
 -1     26233 6.50436E-05 1.03019E-05-1.33510E-06
 -1     26234 6.57311E-05 5.17315E-06-1.43157E-06
 -1     26235 6.54073E-05 1.03595E-05-1.42262E-06
 -1     26240 6.50435E-05 1.03019E-05-1.51018E-06
 -1     26241 6.57311E-05 5.17315E-06-1.60389E-06
 -1     26242 6.54072E-05 1.03595E-05-1.59752E-06
 -1     26247 6.50435E-05 1.03019E-05-1.68489E-06
 -1     26248 6.57311E-05 5.17315E-06-1.77636E-06
 -1     26249 6.54072E-05 1.03595E-05-1.77211E-06
 -1     26254 6.50435E-05 1.03019E-05-1.85935E-06
 -1     26255 6.57311E-05 5.17315E-06-1.94892E-06
 -1     26256 6.54072E-05 1.03595E-05-1.94649E-06
 -1     26261 6.50435E-05 1.03019E-05-2.03364E-06
 -1     26262 6.57311E-05 5.17315E-06-2.12154E-06
 -1     26263 6.54072E-05 1.03595E-05-2.12075E-06
 -1     26268 6.50435E-05 1.03019E-05-2.20786E-06
 -1     26269 6.57311E-05 5.17315E-06-2.29418E-06
 -1     26270 6.54072E-05 1.03595E-05-2.29497E-06
 -1     26275 6.50435E-05 1.03019E-05-2.38208E-06
 -1     26276 6.57311E-05 5.17315E-06-2.46680E-06
 -1     26277 6.54072E-05 1.03595E-05-2.46923E-06
 -1     26282 6.50435E-05 1.03019E-05-2.55638E-06
 -1     26283 6.57311E-05 5.17315E-06-2.63937E-06
 -1     26284 6.54072E-05 1.03595E-05-2.64361E-06
 -1     26289 6.50435E-05 1.03019E-05-2.73084E-06
 -1     26290 6.57311E-05 5.17315E-06-2.81183E-06
 -1     26291 6.54072E-05 1.03595E-05-2.81820E-06
 -1     26296 6.50435E-05 1.03019E-05-2.90554E-06
 -1     26297 6.57311E-05 5.17315E-06-2.98415E-06
 -1     26298 6.54073E-05 1.03595E-05-2.99310E-06
 -1     26303 6.50436E-05 1.03019E-05-3.08062E-06
 -1     26307 6.26312E-05 2.03501E-05-1.33510E-06
 -1     26308 6.41126E-05 1.53921E-05-1.43157E-06
 -1     26309 6.29814E-05 2.04639E-05-1.42262E-06
 -1     26314 6.26312E-05 2.03501E-05-1.51018E-06
 -1     26315 6.41126E-05 1.53921E-05-1.60389E-06
 -1     26316 6.29814E-05 2.04639E-05-1.59752E-06
 -1     26321 6.26312E-05 2.03501E-05-1.68489E-06
 -1     26322 6.41126E-05 1.53921E-05-1.77636E-06
 -1     26323 6.29813E-05 2.04639E-05-1.77211E-06
 -1     26328 6.26312E-05 2.03501E-05-1.85935E-06
 -1     26329 6.41126E-05 1.53921E-05-1.94892E-06
 -1     26330 6.29813E-05 2.04639E-05-1.94649E-06
 -1     26335 6.26312E-05 2.03501E-05-2.03364E-06
 -1     26336 6.41126E-05 1.53921E-05-2.12154E-06
 -1     26337 6.29813E-05 2.04639E-05-2.12075E-06
 -1     26342 6.26312E-05 2.03501E-05-2.20786E-06
 -1     26343 6.41126E-05 1.53921E-05-2.29418E-06
 -1     26344 6.29813E-05 2.04639E-05-2.29497E-06
 -1     26349 6.26312E-05 2.03501E-05-2.38208E-06
 -1     26350 6.41126E-05 1.53921E-05-2.46680E-06
 -1     26351 6.29813E-05 2.04639E-05-2.46923E-06
 -1     26356 6.26312E-05 2.03501E-05-2.55638E-06
 -1     26357 6.41126E-05 1.53921E-05-2.63937E-06
 -1     26358 6.29813E-05 2.04639E-05-2.64361E-06
 -1     26363 6.26312E-05 2.03501E-05-2.73084E-06
 -1     26364 6.41126E-05 1.53921E-05-2.81183E-06
 -1     26365 6.29814E-05 2.04639E-05-2.81820E-06
 -1     26370 6.26312E-05 2.03501E-05-2.90554E-06
 -1     26371 6.41126E-05 1.53921E-05-2.98415E-06
 -1     26372 6.29814E-05 2.04639E-05-2.99310E-06
 -1     26377 6.26312E-05 2.03501E-05-3.08062E-06
 -1     26381 5.86767E-05 2.98973E-05-1.33510E-06
 -1     26382 6.09154E-05 2.52320E-05-1.43157E-06
 -1     26383 5.90047E-05 3.00644E-05-1.42262E-06
 -1     26388 5.86766E-05 2.98972E-05-1.51018E-06
 -1     26389 6.09154E-05 2.52320E-05-1.60389E-06
 -1     26390 5.90047E-05 3.00644E-05-1.59752E-06
 -1     26395 5.86766E-05 2.98972E-05-1.68489E-06
 -1     26396 6.09154E-05 2.52320E-05-1.77636E-06
 -1     26397 5.90047E-05 3.00644E-05-1.77211E-06
 -1     26402 5.86766E-05 2.98972E-05-1.85935E-06
 -1     26403 6.09154E-05 2.52320E-05-1.94892E-06
 -1     26404 5.90047E-05 3.00644E-05-1.94649E-06
 -1     26409 5.86766E-05 2.98972E-05-2.03364E-06
 -1     26410 6.09154E-05 2.52320E-05-2.12154E-06
 -1     26411 5.90047E-05 3.00644E-05-2.12075E-06
 -1     26416 5.86766E-05 2.98972E-05-2.20786E-06
 -1     26417 6.09154E-05 2.52320E-05-2.29418E-06
 -1     26418 5.90047E-05 3.00644E-05-2.29497E-06
 -1     26423 5.86766E-05 2.98972E-05-2.38208E-06
 -1     26424 6.09154E-05 2.52320E-05-2.46680E-06
 -1     26425 5.90047E-05 3.00644E-05-2.46923E-06
 -1     26430 5.86766E-05 2.98972E-05-2.55638E-06
 -1     26431 6.09154E-05 2.52320E-05-2.63937E-06
 -1     26432 5.90047E-05 3.00644E-05-2.64361E-06
 -1     26437 5.86766E-05 2.98972E-05-2.73084E-06
 -1     26438 6.09154E-05 2.52320E-05-2.81183E-06
 -1     26439 5.90047E-05 3.00644E-05-2.81820E-06
 -1     26444 5.86766E-05 2.98972E-05-2.90554E-06
 -1     26445 6.09154E-05 2.52320E-05-2.98415E-06
 -1     26446 5.90047E-05 3.00644E-05-2.99310E-06
 -1     26451 5.86767E-05 2.98973E-05-3.08062E-06
 -1     26455 5.32773E-05 3.87082E-05-1.33510E-06
 -1     26456 5.62183E-05 3.44506E-05-1.43157E-06
 -1     26457 5.35752E-05 3.89246E-05-1.42262E-06
 -1     26462 5.32773E-05 3.87082E-05-1.51018E-06
 -1     26463 5.62183E-05 3.44506E-05-1.60389E-06
 -1     26464 5.35751E-05 3.89246E-05-1.59752E-06
 -1     26469 5.32773E-05 3.87082E-05-1.68489E-06
 -1     26470 5.62183E-05 3.44506E-05-1.77636E-06
 -1     26471 5.35751E-05 3.89246E-05-1.77211E-06
 -1     26476 5.32772E-05 3.87082E-05-1.85935E-06
 -1     26477 5.62183E-05 3.44506E-05-1.94892E-06
 -1     26478 5.35751E-05 3.89246E-05-1.94649E-06
 -1     26483 5.32772E-05 3.87082E-05-2.03364E-06
 -1     26484 5.62183E-05 3.44506E-05-2.12154E-06
 -1     26485 5.35751E-05 3.89246E-05-2.12075E-06
 -1     26490 5.32772E-05 3.87082E-05-2.20786E-06
 -1     26491 5.62183E-05 3.44506E-05-2.29418E-06
 -1     26492 5.35751E-05 3.89246E-05-2.29497E-06
 -1     26497 5.32772E-05 3.87082E-05-2.38208E-06
 -1     26498 5.62183E-05 3.44506E-05-2.46680E-06
 -1     26499 5.35751E-05 3.89246E-05-2.46923E-06
 -1     26504 5.32772E-05 3.87082E-05-2.55638E-06
 -1     26505 5.62183E-05 3.44506E-05-2.63937E-06
 -1     26506 5.35751E-05 3.89246E-05-2.64361E-06
 -1     26511 5.32773E-05 3.87082E-05-2.73084E-06
 -1     26512 5.62183E-05 3.44506E-05-2.81183E-06
 -1     26513 5.35751E-05 3.89246E-05-2.81820E-06
 -1     26518 5.32773E-05 3.87082E-05-2.90554E-06
 -1     26519 5.62183E-05 3.44506E-05-2.98415E-06
 -1     26520 5.35752E-05 3.89246E-05-2.99310E-06
 -1     26525 5.32773E-05 3.87082E-05-3.08062E-06
 -1     26529 4.65661E-05 4.65661E-05-1.33510E-06
 -1     26530 5.01369E-05 4.28209E-05-1.43157E-06
 -1     26531 4.68264E-05 4.68264E-05-1.42262E-06
 -1     26536 4.65660E-05 4.65660E-05-1.51018E-06
 -1     26537 5.01369E-05 4.28209E-05-1.60389E-06
 -1     26538 4.68264E-05 4.68264E-05-1.59752E-06
 -1     26543 4.65660E-05 4.65660E-05-1.68489E-06
 -1     26544 5.01369E-05 4.28210E-05-1.77636E-06
 -1     26545 4.68264E-05 4.68264E-05-1.77211E-06
 -1     26550 4.65660E-05 4.65660E-05-1.85935E-06
 -1     26551 5.01369E-05 4.28210E-05-1.94892E-06
 -1     26552 4.68264E-05 4.68264E-05-1.94649E-06
 -1     26557 4.65660E-05 4.65660E-05-2.03364E-06
 -1     26558 5.01369E-05 4.28210E-05-2.12154E-06
 -1     26559 4.68264E-05 4.68264E-05-2.12075E-06
 -1     26564 4.65660E-05 4.65660E-05-2.20786E-06
 -1     26565 5.01369E-05 4.28210E-05-2.29418E-06
 -1     26566 4.68264E-05 4.68264E-05-2.29497E-06
 -1     26571 4.65660E-05 4.65660E-05-2.38208E-06
 -1     26572 5.01369E-05 4.28210E-05-2.46680E-06
 -1     26573 4.68264E-05 4.68264E-05-2.46923E-06
 -1     26578 4.65660E-05 4.65660E-05-2.55638E-06
 -1     26579 5.01369E-05 4.28210E-05-2.63937E-06
 -1     26580 4.68264E-05 4.68264E-05-2.64361E-06
 -1     26585 4.65660E-05 4.65660E-05-2.73084E-06
 -1     26586 5.01369E-05 4.28209E-05-2.81183E-06
 -1     26587 4.68264E-05 4.68264E-05-2.81820E-06
 -1     26592 4.65660E-05 4.65660E-05-2.90554E-06
 -1     26593 5.01369E-05 4.28209E-05-2.98415E-06
 -1     26594 4.68264E-05 4.68264E-05-2.99310E-06
 -1     26599 4.65661E-05 4.65661E-05-3.08062E-06
 -1     26603 3.87082E-05 5.32773E-05-1.33510E-06
 -1     26604 4.28209E-05 5.01369E-05-1.43157E-06
 -1     26605 3.89246E-05 5.35752E-05-1.42262E-06
 -1     26610 3.87082E-05 5.32773E-05-1.51018E-06
 -1     26611 4.28209E-05 5.01369E-05-1.60389E-06
 -1     26612 3.89246E-05 5.35751E-05-1.59752E-06
 -1     26617 3.87082E-05 5.32773E-05-1.68489E-06
 -1     26618 4.28210E-05 5.01369E-05-1.77636E-06
 -1     26619 3.89246E-05 5.35751E-05-1.77211E-06
 -1     26624 3.87082E-05 5.32772E-05-1.85935E-06
 -1     26625 4.28210E-05 5.01369E-05-1.94892E-06
 -1     26626 3.89246E-05 5.35751E-05-1.94649E-06
 -1     26631 3.87082E-05 5.32772E-05-2.03364E-06
 -1     26632 4.28210E-05 5.01369E-05-2.12154E-06
 -1     26633 3.89246E-05 5.35751E-05-2.12075E-06
 -1     26638 3.87082E-05 5.32772E-05-2.20786E-06
 -1     26639 4.28210E-05 5.01369E-05-2.29418E-06
 -1     26640 3.89246E-05 5.35751E-05-2.29497E-06
 -1     26645 3.87082E-05 5.32772E-05-2.38208E-06
 -1     26646 4.28210E-05 5.01369E-05-2.46680E-06
 -1     26647 3.89246E-05 5.35751E-05-2.46923E-06
 -1     26652 3.87082E-05 5.32772E-05-2.55638E-06
 -1     26653 4.28210E-05 5.01369E-05-2.63937E-06
 -1     26654 3.89246E-05 5.35751E-05-2.64361E-06
 -1     26659 3.87082E-05 5.32773E-05-2.73084E-06
 -1     26660 4.28209E-05 5.01369E-05-2.81183E-06
 -1     26661 3.89246E-05 5.35751E-05-2.81820E-06
 -1     26666 3.87082E-05 5.32773E-05-2.90554E-06
 -1     26667 4.28209E-05 5.01369E-05-2.98415E-06
 -1     26668 3.89246E-05 5.35752E-05-2.99310E-06
 -1     26673 3.87082E-05 5.32773E-05-3.08062E-06
 -1     26677 2.98973E-05 5.86767E-05-1.33510E-06
 -1     26678 3.44506E-05 5.62183E-05-1.43157E-06
 -1     26679 3.00644E-05 5.90047E-05-1.42262E-06
 -1     26684 2.98972E-05 5.86766E-05-1.51018E-06
 -1     26685 3.44506E-05 5.62183E-05-1.60389E-06
 -1     26686 3.00644E-05 5.90047E-05-1.59752E-06
 -1     26691 2.98972E-05 5.86766E-05-1.68489E-06
 -1     26692 3.44506E-05 5.62183E-05-1.77636E-06
 -1     26693 3.00644E-05 5.90047E-05-1.77211E-06
 -1     26698 2.98972E-05 5.86766E-05-1.85935E-06
 -1     26699 3.44506E-05 5.62183E-05-1.94892E-06
 -1     26700 3.00644E-05 5.90047E-05-1.94649E-06
 -1     26705 2.98972E-05 5.86766E-05-2.03364E-06
 -1     26706 3.44506E-05 5.62183E-05-2.12154E-06
 -1     26707 3.00644E-05 5.90047E-05-2.12075E-06
 -1     26712 2.98972E-05 5.86766E-05-2.20786E-06
 -1     26713 3.44506E-05 5.62183E-05-2.29418E-06
 -1     26714 3.00644E-05 5.90047E-05-2.29497E-06
 -1     26719 2.98972E-05 5.86766E-05-2.38208E-06
 -1     26720 3.44506E-05 5.62183E-05-2.46680E-06
 -1     26721 3.00644E-05 5.90047E-05-2.46923E-06
 -1     26726 2.98972E-05 5.86766E-05-2.55638E-06
 -1     26727 3.44506E-05 5.62183E-05-2.63937E-06
 -1     26728 3.00644E-05 5.90047E-05-2.64361E-06
 -1     26733 2.98972E-05 5.86766E-05-2.73084E-06
 -1     26734 3.44506E-05 5.62183E-05-2.81183E-06
 -1     26735 3.00644E-05 5.90047E-05-2.81820E-06
 -1     26740 2.98972E-05 5.86766E-05-2.90554E-06
 -1     26741 3.44506E-05 5.62183E-05-2.98415E-06
 -1     26742 3.00644E-05 5.90047E-05-2.99310E-06
 -1     26747 2.98973E-05 5.86767E-05-3.08062E-06
 -1     26751 2.03501E-05 6.26312E-05-1.33510E-06
 -1     26752 2.52320E-05 6.09154E-05-1.43157E-06
 -1     26753 2.04639E-05 6.29814E-05-1.42262E-06
 -1     26758 2.03501E-05 6.26312E-05-1.51018E-06
 -1     26759 2.52320E-05 6.09154E-05-1.60389E-06
 -1     26760 2.04639E-05 6.29814E-05-1.59752E-06
 -1     26765 2.03501E-05 6.26312E-05-1.68489E-06
 -1     26766 2.52320E-05 6.09154E-05-1.77636E-06
 -1     26767 2.04639E-05 6.29813E-05-1.77211E-06
 -1     26772 2.03501E-05 6.26312E-05-1.85935E-06
 -1     26773 2.52320E-05 6.09154E-05-1.94892E-06
 -1     26774 2.04639E-05 6.29813E-05-1.94649E-06
 -1     26779 2.03501E-05 6.26312E-05-2.03364E-06
 -1     26780 2.52320E-05 6.09154E-05-2.12154E-06
 -1     26781 2.04639E-05 6.29813E-05-2.12075E-06
 -1     26786 2.03501E-05 6.26312E-05-2.20786E-06
 -1     26787 2.52320E-05 6.09154E-05-2.29418E-06
 -1     26788 2.04639E-05 6.29813E-05-2.29497E-06
 -1     26793 2.03501E-05 6.26312E-05-2.38208E-06
 -1     26794 2.52320E-05 6.09154E-05-2.46680E-06
 -1     26795 2.04639E-05 6.29813E-05-2.46923E-06
 -1     26800 2.03501E-05 6.26312E-05-2.55638E-06
 -1     26801 2.52320E-05 6.09154E-05-2.63937E-06
 -1     26802 2.04639E-05 6.29813E-05-2.64361E-06
 -1     26807 2.03501E-05 6.26312E-05-2.73084E-06
 -1     26808 2.52320E-05 6.09154E-05-2.81183E-06
 -1     26809 2.04639E-05 6.29814E-05-2.81820E-06
 -1     26814 2.03501E-05 6.26312E-05-2.90554E-06
 -1     26815 2.52320E-05 6.09154E-05-2.98415E-06
 -1     26816 2.04639E-05 6.29814E-05-2.99310E-06
 -1     26821 2.03501E-05 6.26312E-05-3.08062E-06
 -1     26825 1.03019E-05 6.50436E-05-1.33510E-06
 -1     26826 1.53921E-05 6.41126E-05-1.43157E-06
 -1     26827 1.03595E-05 6.54073E-05-1.42262E-06
 -1     26832 1.03019E-05 6.50435E-05-1.51018E-06
 -1     26833 1.53921E-05 6.41126E-05-1.60389E-06
 -1     26834 1.03595E-05 6.54072E-05-1.59752E-06
 -1     26839 1.03019E-05 6.50435E-05-1.68489E-06
 -1     26840 1.53921E-05 6.41126E-05-1.77636E-06
 -1     26841 1.03595E-05 6.54072E-05-1.77211E-06
 -1     26846 1.03019E-05 6.50435E-05-1.85935E-06
 -1     26847 1.53921E-05 6.41126E-05-1.94892E-06
 -1     26848 1.03595E-05 6.54072E-05-1.94649E-06
 -1     26853 1.03019E-05 6.50435E-05-2.03364E-06
 -1     26854 1.53921E-05 6.41126E-05-2.12154E-06
 -1     26855 1.03595E-05 6.54072E-05-2.12075E-06
 -1     26860 1.03019E-05 6.50435E-05-2.20786E-06
 -1     26861 1.53921E-05 6.41126E-05-2.29418E-06
 -1     26862 1.03595E-05 6.54072E-05-2.29497E-06
 -1     26867 1.03019E-05 6.50435E-05-2.38208E-06
 -1     26868 1.53921E-05 6.41126E-05-2.46680E-06
 -1     26869 1.03595E-05 6.54072E-05-2.46923E-06
 -1     26874 1.03019E-05 6.50435E-05-2.55638E-06
 -1     26875 1.53921E-05 6.41126E-05-2.63937E-06
 -1     26876 1.03595E-05 6.54072E-05-2.64361E-06
 -1     26881 1.03019E-05 6.50435E-05-2.73084E-06
 -1     26882 1.53921E-05 6.41126E-05-2.81183E-06
 -1     26883 1.03595E-05 6.54072E-05-2.81820E-06
 -1     26888 1.03019E-05 6.50435E-05-2.90554E-06
 -1     26889 1.53921E-05 6.41126E-05-2.98415E-06
 -1     26890 1.03595E-05 6.54073E-05-2.99310E-06
 -1     26895 1.03019E-05 6.50436E-05-3.08062E-06
 -1     26899 5.17315E-06 6.57311E-05-1.43157E-06
 -1     26903 5.17315E-06 6.57311E-05-1.60389E-06
 -1     26907 5.17315E-06 6.57311E-05-1.77636E-06
 -1     26911 5.17315E-06 6.57311E-05-1.94892E-06
 -1     26915 5.17315E-06 6.57311E-05-2.12154E-06
 -1     26919 5.17315E-06 6.57311E-05-2.29418E-06
 -1     26923 5.17315E-06 6.57311E-05-2.46680E-06
 -1     26927 5.17315E-06 6.57311E-05-2.63937E-06
 -1     26931 5.17315E-06 6.57311E-05-2.81183E-06
 -1     26935 5.17315E-06 6.57311E-05-2.98415E-06
 -1     26941 6.43674E-05 1.01948E-05-1.33562E-06
 -1     26942 6.50443E-05 5.11910E-06-1.43137E-06
 -1     26943 6.46971E-05 1.02470E-05-1.42297E-06
 -1     26948 6.43674E-05 1.01948E-05-1.51053E-06
 -1     26949 6.50443E-05 5.11910E-06-1.60376E-06
 -1     26950 6.46971E-05 1.02470E-05-1.59775E-06
 -1     26955 6.43674E-05 1.01948E-05-1.68512E-06
 -1     26956 6.50443E-05 5.11910E-06-1.77627E-06
 -1     26957 6.46971E-05 1.02470E-05-1.77226E-06
 -1     26962 6.43674E-05 1.01948E-05-1.85949E-06
 -1     26963 6.50443E-05 5.11910E-06-1.94887E-06
 -1     26964 6.46971E-05 1.02470E-05-1.94657E-06
 -1     26969 6.43674E-05 1.01948E-05-2.03371E-06
 -1     26970 6.50443E-05 5.11910E-06-2.12153E-06
 -1     26971 6.46971E-05 1.02470E-05-2.12078E-06
 -1     26976 6.43674E-05 1.01948E-05-2.20786E-06
 -1     26977 6.50443E-05 5.11910E-06-2.29420E-06
 -1     26978 6.46971E-05 1.02470E-05-2.29495E-06
 -1     26983 6.43674E-05 1.01948E-05-2.38202E-06
 -1     26984 6.50443E-05 5.11910E-06-2.46685E-06
 -1     26985 6.46971E-05 1.02470E-05-2.46915E-06
 -1     26990 6.43674E-05 1.01948E-05-2.55624E-06
 -1     26991 6.50443E-05 5.11910E-06-2.63946E-06
 -1     26992 6.46971E-05 1.02470E-05-2.64347E-06
 -1     26997 6.43674E-05 1.01948E-05-2.73061E-06
 -1     26998 6.50443E-05 5.11910E-06-2.81197E-06
 -1     26999 6.46971E-05 1.02470E-05-2.81797E-06
 -1     27004 6.43674E-05 1.01948E-05-2.90520E-06
 -1     27005 6.50443E-05 5.11910E-06-2.98435E-06
 -1     27006 6.46971E-05 1.02470E-05-2.99275E-06
 -1     27011 6.43674E-05 1.01948E-05-3.08011E-06
 -1     27015 6.19801E-05 2.01386E-05-1.33562E-06
 -1     27016 6.34427E-05 1.52313E-05-1.43137E-06
 -1     27017 6.22975E-05 2.02417E-05-1.42297E-06
 -1     27022 6.19801E-05 2.01386E-05-1.51053E-06
 -1     27023 6.34427E-05 1.52312E-05-1.60376E-06
 -1     27024 6.22975E-05 2.02417E-05-1.59775E-06
 -1     27029 6.19801E-05 2.01386E-05-1.68512E-06
 -1     27030 6.34427E-05 1.52312E-05-1.77627E-06
 -1     27031 6.22975E-05 2.02417E-05-1.77226E-06
 -1     27036 6.19802E-05 2.01386E-05-1.85949E-06
 -1     27037 6.34427E-05 1.52312E-05-1.94887E-06
 -1     27038 6.22975E-05 2.02417E-05-1.94657E-06
 -1     27043 6.19802E-05 2.01386E-05-2.03371E-06
 -1     27044 6.34427E-05 1.52312E-05-2.12153E-06
 -1     27045 6.22975E-05 2.02417E-05-2.12078E-06
 -1     27050 6.19802E-05 2.01386E-05-2.20786E-06
 -1     27051 6.34427E-05 1.52312E-05-2.29420E-06
 -1     27052 6.22975E-05 2.02417E-05-2.29495E-06
 -1     27057 6.19802E-05 2.01386E-05-2.38202E-06
 -1     27058 6.34427E-05 1.52312E-05-2.46685E-06
 -1     27059 6.22975E-05 2.02417E-05-2.46915E-06
 -1     27064 6.19802E-05 2.01386E-05-2.55624E-06
 -1     27065 6.34427E-05 1.52312E-05-2.63946E-06
 -1     27066 6.22975E-05 2.02417E-05-2.64347E-06
 -1     27071 6.19801E-05 2.01386E-05-2.73061E-06
 -1     27072 6.34427E-05 1.52312E-05-2.81197E-06
 -1     27073 6.22975E-05 2.02417E-05-2.81797E-06
 -1     27078 6.19801E-05 2.01386E-05-2.90520E-06
 -1     27079 6.34427E-05 1.52313E-05-2.98435E-06
 -1     27080 6.22975E-05 2.02417E-05-2.99275E-06
 -1     27085 6.19801E-05 2.01386E-05-3.08011E-06
 -1     27089 5.80666E-05 2.95864E-05-1.33562E-06
 -1     27090 6.02790E-05 2.49684E-05-1.43137E-06
 -1     27091 5.83641E-05 2.97380E-05-1.42297E-06
 -1     27096 5.80667E-05 2.95865E-05-1.51053E-06
 -1     27097 6.02789E-05 2.49684E-05-1.60376E-06
 -1     27098 5.83641E-05 2.97380E-05-1.59775E-06
 -1     27103 5.80667E-05 2.95865E-05-1.68512E-06
 -1     27104 6.02789E-05 2.49684E-05-1.77627E-06
 -1     27105 5.83641E-05 2.97380E-05-1.77226E-06
 -1     27110 5.80667E-05 2.95865E-05-1.85949E-06
 -1     27111 6.02789E-05 2.49684E-05-1.94887E-06
 -1     27112 5.83641E-05 2.97380E-05-1.94657E-06
 -1     27117 5.80667E-05 2.95865E-05-2.03371E-06
 -1     27118 6.02789E-05 2.49684E-05-2.12153E-06
 -1     27119 5.83641E-05 2.97380E-05-2.12078E-06
 -1     27124 5.80667E-05 2.95865E-05-2.20786E-06
 -1     27125 6.02789E-05 2.49684E-05-2.29420E-06
 -1     27126 5.83641E-05 2.97380E-05-2.29495E-06
 -1     27131 5.80667E-05 2.95865E-05-2.38202E-06
 -1     27132 6.02789E-05 2.49684E-05-2.46685E-06
 -1     27133 5.83641E-05 2.97380E-05-2.46915E-06
 -1     27138 5.80667E-05 2.95865E-05-2.55624E-06
 -1     27139 6.02789E-05 2.49684E-05-2.63946E-06
 -1     27140 5.83641E-05 2.97380E-05-2.64347E-06
 -1     27145 5.80667E-05 2.95865E-05-2.73061E-06
 -1     27146 6.02789E-05 2.49684E-05-2.81197E-06
 -1     27147 5.83641E-05 2.97380E-05-2.81797E-06
 -1     27152 5.80667E-05 2.95865E-05-2.90520E-06
 -1     27153 6.02790E-05 2.49684E-05-2.98435E-06
 -1     27154 5.83641E-05 2.97380E-05-2.99275E-06
 -1     27159 5.80666E-05 2.95864E-05-3.08011E-06
 -1     27163 5.27234E-05 3.83058E-05-1.33562E-06
 -1     27164 5.56309E-05 3.40907E-05-1.43137E-06
 -1     27165 5.29935E-05 3.85020E-05-1.42297E-06
 -1     27170 5.27234E-05 3.83058E-05-1.51053E-06
 -1     27171 5.56309E-05 3.40907E-05-1.60376E-06
 -1     27172 5.29935E-05 3.85020E-05-1.59775E-06
 -1     27177 5.27235E-05 3.83058E-05-1.68512E-06
 -1     27178 5.56309E-05 3.40907E-05-1.77627E-06
 -1     27179 5.29935E-05 3.85020E-05-1.77226E-06
 -1     27184 5.27235E-05 3.83058E-05-1.85949E-06
 -1     27185 5.56309E-05 3.40907E-05-1.94887E-06
 -1     27186 5.29935E-05 3.85020E-05-1.94657E-06
 -1     27191 5.27235E-05 3.83058E-05-2.03371E-06
 -1     27192 5.56309E-05 3.40907E-05-2.12153E-06
 -1     27193 5.29935E-05 3.85020E-05-2.12078E-06
 -1     27198 5.27235E-05 3.83058E-05-2.20786E-06
 -1     27199 5.56309E-05 3.40907E-05-2.29420E-06
 -1     27200 5.29935E-05 3.85020E-05-2.29495E-06
 -1     27205 5.27235E-05 3.83058E-05-2.38202E-06
 -1     27206 5.56309E-05 3.40907E-05-2.46685E-06
 -1     27207 5.29935E-05 3.85020E-05-2.46915E-06
 -1     27212 5.27235E-05 3.83058E-05-2.55624E-06
 -1     27213 5.56309E-05 3.40907E-05-2.63946E-06
 -1     27214 5.29935E-05 3.85020E-05-2.64347E-06
 -1     27219 5.27235E-05 3.83058E-05-2.73061E-06
 -1     27220 5.56309E-05 3.40907E-05-2.81197E-06
 -1     27221 5.29935E-05 3.85020E-05-2.81797E-06
 -1     27226 5.27234E-05 3.83058E-05-2.90520E-06
 -1     27227 5.56309E-05 3.40907E-05-2.98435E-06
 -1     27228 5.29935E-05 3.85020E-05-2.99275E-06
 -1     27233 5.27234E-05 3.83058E-05-3.08011E-06
 -1     27237 4.60820E-05 4.60820E-05-1.33562E-06
 -1     27238 4.96130E-05 4.23735E-05-1.43137E-06
 -1     27239 4.63180E-05 4.63180E-05-1.42297E-06
 -1     27244 4.60820E-05 4.60820E-05-1.51053E-06
 -1     27245 4.96130E-05 4.23735E-05-1.60376E-06
 -1     27246 4.63180E-05 4.63180E-05-1.59775E-06
 -1     27251 4.60820E-05 4.60820E-05-1.68512E-06
 -1     27252 4.96130E-05 4.23735E-05-1.77627E-06
 -1     27253 4.63180E-05 4.63180E-05-1.77226E-06
 -1     27258 4.60820E-05 4.60820E-05-1.85949E-06
 -1     27259 4.96130E-05 4.23735E-05-1.94887E-06
 -1     27260 4.63180E-05 4.63180E-05-1.94657E-06
 -1     27265 4.60820E-05 4.60820E-05-2.03371E-06
 -1     27266 4.96130E-05 4.23735E-05-2.12153E-06
 -1     27267 4.63180E-05 4.63180E-05-2.12078E-06
 -1     27272 4.60820E-05 4.60820E-05-2.20786E-06
 -1     27273 4.96130E-05 4.23735E-05-2.29420E-06
 -1     27274 4.63180E-05 4.63180E-05-2.29495E-06
 -1     27279 4.60820E-05 4.60820E-05-2.38202E-06
 -1     27280 4.96130E-05 4.23735E-05-2.46685E-06
 -1     27281 4.63180E-05 4.63180E-05-2.46915E-06
 -1     27286 4.60820E-05 4.60820E-05-2.55624E-06
 -1     27287 4.96130E-05 4.23735E-05-2.63946E-06
 -1     27288 4.63180E-05 4.63180E-05-2.64347E-06
 -1     27293 4.60820E-05 4.60820E-05-2.73061E-06
 -1     27294 4.96130E-05 4.23735E-05-2.81197E-06
 -1     27295 4.63180E-05 4.63180E-05-2.81797E-06
 -1     27300 4.60820E-05 4.60820E-05-2.90520E-06
 -1     27301 4.96130E-05 4.23735E-05-2.98435E-06
 -1     27302 4.63180E-05 4.63180E-05-2.99275E-06
 -1     27307 4.60820E-05 4.60820E-05-3.08011E-06
 -1     27311 3.83058E-05 5.27234E-05-1.33562E-06
 -1     27312 4.23735E-05 4.96130E-05-1.43137E-06
 -1     27313 3.85020E-05 5.29935E-05-1.42297E-06
 -1     27318 3.83058E-05 5.27234E-05-1.51053E-06
 -1     27319 4.23735E-05 4.96130E-05-1.60376E-06
 -1     27320 3.85020E-05 5.29935E-05-1.59775E-06
 -1     27325 3.83058E-05 5.27235E-05-1.68512E-06
 -1     27326 4.23735E-05 4.96130E-05-1.77627E-06
 -1     27327 3.85020E-05 5.29935E-05-1.77226E-06
 -1     27332 3.83058E-05 5.27235E-05-1.85949E-06
 -1     27333 4.23735E-05 4.96130E-05-1.94887E-06
 -1     27334 3.85020E-05 5.29935E-05-1.94657E-06
 -1     27339 3.83058E-05 5.27235E-05-2.03371E-06
 -1     27340 4.23735E-05 4.96130E-05-2.12153E-06
 -1     27341 3.85020E-05 5.29935E-05-2.12078E-06
 -1     27346 3.83058E-05 5.27235E-05-2.20786E-06
 -1     27347 4.23735E-05 4.96130E-05-2.29420E-06
 -1     27348 3.85020E-05 5.29935E-05-2.29495E-06
 -1     27353 3.83058E-05 5.27235E-05-2.38202E-06
 -1     27354 4.23735E-05 4.96130E-05-2.46685E-06
 -1     27355 3.85020E-05 5.29935E-05-2.46915E-06
 -1     27360 3.83058E-05 5.27235E-05-2.55624E-06
 -1     27361 4.23735E-05 4.96130E-05-2.63946E-06
 -1     27362 3.85020E-05 5.29935E-05-2.64347E-06
 -1     27367 3.83058E-05 5.27235E-05-2.73061E-06
 -1     27368 4.23735E-05 4.96130E-05-2.81197E-06
 -1     27369 3.85020E-05 5.29935E-05-2.81797E-06
 -1     27374 3.83058E-05 5.27234E-05-2.90520E-06
 -1     27375 4.23735E-05 4.96130E-05-2.98435E-06
 -1     27376 3.85020E-05 5.29935E-05-2.99275E-06
 -1     27381 3.83058E-05 5.27234E-05-3.08011E-06
 -1     27385 2.95864E-05 5.80666E-05-1.33562E-06
 -1     27386 3.40907E-05 5.56309E-05-1.43137E-06
 -1     27387 2.97380E-05 5.83641E-05-1.42297E-06
 -1     27392 2.95865E-05 5.80667E-05-1.51053E-06
 -1     27393 3.40907E-05 5.56309E-05-1.60376E-06
 -1     27394 2.97380E-05 5.83641E-05-1.59775E-06
 -1     27399 2.95865E-05 5.80667E-05-1.68512E-06
 -1     27400 3.40907E-05 5.56309E-05-1.77627E-06
 -1     27401 2.97380E-05 5.83641E-05-1.77226E-06
 -1     27406 2.95865E-05 5.80667E-05-1.85949E-06
 -1     27407 3.40907E-05 5.56309E-05-1.94887E-06
 -1     27408 2.97380E-05 5.83641E-05-1.94657E-06
 -1     27413 2.95865E-05 5.80667E-05-2.03371E-06
 -1     27414 3.40907E-05 5.56309E-05-2.12153E-06
 -1     27415 2.97380E-05 5.83641E-05-2.12078E-06
 -1     27420 2.95865E-05 5.80667E-05-2.20786E-06
 -1     27421 3.40907E-05 5.56309E-05-2.29420E-06
 -1     27422 2.97380E-05 5.83641E-05-2.29495E-06
 -1     27427 2.95865E-05 5.80667E-05-2.38202E-06
 -1     27428 3.40907E-05 5.56309E-05-2.46685E-06
 -1     27429 2.97380E-05 5.83641E-05-2.46915E-06
 -1     27434 2.95865E-05 5.80667E-05-2.55624E-06
 -1     27435 3.40907E-05 5.56309E-05-2.63946E-06
 -1     27436 2.97380E-05 5.83641E-05-2.64347E-06
 -1     27441 2.95865E-05 5.80667E-05-2.73061E-06
 -1     27442 3.40907E-05 5.56309E-05-2.81197E-06
 -1     27443 2.97380E-05 5.83641E-05-2.81797E-06
 -1     27448 2.95865E-05 5.80667E-05-2.90520E-06
 -1     27449 3.40907E-05 5.56309E-05-2.98435E-06
 -1     27450 2.97380E-05 5.83641E-05-2.99275E-06
 -1     27455 2.95864E-05 5.80666E-05-3.08011E-06
 -1     27459 2.01386E-05 6.19801E-05-1.33562E-06
 -1     27460 2.49684E-05 6.02790E-05-1.43137E-06
 -1     27461 2.02417E-05 6.22975E-05-1.42297E-06
 -1     27466 2.01386E-05 6.19801E-05-1.51053E-06
 -1     27467 2.49684E-05 6.02789E-05-1.60376E-06
 -1     27468 2.02417E-05 6.22975E-05-1.59775E-06
 -1     27473 2.01386E-05 6.19801E-05-1.68512E-06
 -1     27474 2.49684E-05 6.02789E-05-1.77627E-06
 -1     27475 2.02417E-05 6.22975E-05-1.77226E-06
 -1     27480 2.01386E-05 6.19802E-05-1.85949E-06
 -1     27481 2.49684E-05 6.02789E-05-1.94887E-06
 -1     27482 2.02417E-05 6.22975E-05-1.94657E-06
 -1     27487 2.01386E-05 6.19802E-05-2.03371E-06
 -1     27488 2.49684E-05 6.02789E-05-2.12153E-06
 -1     27489 2.02417E-05 6.22975E-05-2.12078E-06
 -1     27494 2.01386E-05 6.19802E-05-2.20786E-06
 -1     27495 2.49684E-05 6.02789E-05-2.29420E-06
 -1     27496 2.02417E-05 6.22975E-05-2.29495E-06
 -1     27501 2.01386E-05 6.19802E-05-2.38202E-06
 -1     27502 2.49684E-05 6.02789E-05-2.46685E-06
 -1     27503 2.02417E-05 6.22975E-05-2.46915E-06
 -1     27508 2.01386E-05 6.19802E-05-2.55624E-06
 -1     27509 2.49684E-05 6.02789E-05-2.63946E-06
 -1     27510 2.02417E-05 6.22975E-05-2.64347E-06
 -1     27515 2.01386E-05 6.19801E-05-2.73061E-06
 -1     27516 2.49684E-05 6.02789E-05-2.81197E-06
 -1     27517 2.02417E-05 6.22975E-05-2.81797E-06
 -1     27522 2.01386E-05 6.19801E-05-2.90520E-06
 -1     27523 2.49684E-05 6.02790E-05-2.98435E-06
 -1     27524 2.02417E-05 6.22975E-05-2.99275E-06
 -1     27529 2.01386E-05 6.19801E-05-3.08011E-06
 -1     27533 1.01948E-05 6.43674E-05-1.33562E-06
 -1     27534 1.52313E-05 6.34427E-05-1.43137E-06
 -1     27535 1.02470E-05 6.46971E-05-1.42297E-06
 -1     27540 1.01948E-05 6.43674E-05-1.51053E-06
 -1     27541 1.52312E-05 6.34427E-05-1.60376E-06
 -1     27542 1.02470E-05 6.46971E-05-1.59775E-06
 -1     27547 1.01948E-05 6.43674E-05-1.68512E-06
 -1     27548 1.52312E-05 6.34427E-05-1.77627E-06
 -1     27549 1.02470E-05 6.46971E-05-1.77226E-06
 -1     27554 1.01948E-05 6.43674E-05-1.85949E-06
 -1     27555 1.52312E-05 6.34427E-05-1.94887E-06
 -1     27556 1.02470E-05 6.46971E-05-1.94657E-06
 -1     27561 1.01948E-05 6.43674E-05-2.03371E-06
 -1     27562 1.52312E-05 6.34427E-05-2.12153E-06
 -1     27563 1.02470E-05 6.46971E-05-2.12078E-06
 -1     27568 1.01948E-05 6.43674E-05-2.20786E-06
 -1     27569 1.52312E-05 6.34427E-05-2.29420E-06
 -1     27570 1.02470E-05 6.46971E-05-2.29495E-06
 -1     27575 1.01948E-05 6.43674E-05-2.38202E-06
 -1     27576 1.52312E-05 6.34427E-05-2.46685E-06
 -1     27577 1.02470E-05 6.46971E-05-2.46915E-06
 -1     27582 1.01948E-05 6.43674E-05-2.55624E-06
 -1     27583 1.52312E-05 6.34427E-05-2.63946E-06
 -1     27584 1.02470E-05 6.46971E-05-2.64347E-06
 -1     27589 1.01948E-05 6.43674E-05-2.73061E-06
 -1     27590 1.52312E-05 6.34427E-05-2.81197E-06
 -1     27591 1.02470E-05 6.46971E-05-2.81797E-06
 -1     27596 1.01948E-05 6.43674E-05-2.90520E-06
 -1     27597 1.52313E-05 6.34427E-05-2.98435E-06
 -1     27598 1.02470E-05 6.46971E-05-2.99275E-06
 -1     27603 1.01948E-05 6.43674E-05-3.08011E-06
 -1     27607 5.11910E-06 6.50443E-05-1.43137E-06
 -1     27611 5.11910E-06 6.50443E-05-1.60376E-06
 -1     27615 5.11910E-06 6.50443E-05-1.77627E-06
 -1     27619 5.11910E-06 6.50443E-05-1.94887E-06
 -1     27623 5.11910E-06 6.50443E-05-2.12153E-06
 -1     27627 5.11910E-06 6.50443E-05-2.29420E-06
 -1     27631 5.11910E-06 6.50443E-05-2.46685E-06
 -1     27635 5.11910E-06 6.50443E-05-2.63946E-06
 -1     27639 5.11910E-06 6.50443E-05-2.81197E-06
 -1     27643 5.11910E-06 6.50443E-05-2.98435E-06
 -1     27649 6.37547E-05 1.00977E-05-1.33646E-06
 -1     27650 6.44232E-05 5.07022E-06-1.43102E-06
 -1     27651 6.40533E-05 1.01451E-05-1.42354E-06
 -1     27656 6.37549E-05 1.00978E-05-1.51116E-06
 -1     27657 6.44232E-05 5.07021E-06-1.60350E-06
 -1     27658 6.40534E-05 1.01451E-05-1.59816E-06
 -1     27663 6.37549E-05 1.00978E-05-1.68557E-06
 -1     27664 6.44232E-05 5.07021E-06-1.77610E-06
 -1     27665 6.40534E-05 1.01451E-05-1.77253E-06
 -1     27670 6.37549E-05 1.00978E-05-1.85977E-06
 -1     27671 6.44232E-05 5.07021E-06-1.94877E-06
 -1     27672 6.40534E-05 1.01451E-05-1.94673E-06
 -1     27677 6.37549E-05 1.00978E-05-2.03385E-06
 -1     27678 6.44232E-05 5.07021E-06-2.12149E-06
 -1     27679 6.40534E-05 1.01451E-05-2.12083E-06
 -1     27684 6.37549E-05 1.00978E-05-2.20786E-06
 -1     27685 6.44232E-05 5.07021E-06-2.29423E-06
 -1     27686 6.40534E-05 1.01451E-05-2.29490E-06
 -1     27691 6.37549E-05 1.00978E-05-2.38188E-06
 -1     27692 6.44232E-05 5.07021E-06-2.46696E-06
 -1     27693 6.40534E-05 1.01451E-05-2.46900E-06
 -1     27698 6.37549E-05 1.00978E-05-2.55595E-06
 -1     27699 6.44232E-05 5.07021E-06-2.63963E-06
 -1     27700 6.40534E-05 1.01451E-05-2.64320E-06
 -1     27705 6.37549E-05 1.00978E-05-2.73016E-06
 -1     27706 6.44232E-05 5.07021E-06-2.81222E-06
 -1     27707 6.40534E-05 1.01451E-05-2.81757E-06
 -1     27712 6.37549E-05 1.00978E-05-2.90457E-06
 -1     27713 6.44232E-05 5.07022E-06-2.98470E-06
 -1     27714 6.40533E-05 1.01451E-05-2.99219E-06
 -1     27719 6.37547E-05 1.00977E-05-3.07926E-06
 -1     27723 6.13901E-05 1.99469E-05-1.33646E-06
 -1     27724 6.28369E-05 1.50858E-05-1.43102E-06
 -1     27725 6.16777E-05 2.00403E-05-1.42354E-06
 -1     27730 6.13903E-05 1.99469E-05-1.51116E-06
 -1     27731 6.28369E-05 1.50858E-05-1.60350E-06
 -1     27732 6.16778E-05 2.00403E-05-1.59816E-06
 -1     27737 6.13903E-05 1.99469E-05-1.68557E-06
 -1     27738 6.28368E-05 1.50858E-05-1.77610E-06
 -1     27739 6.16778E-05 2.00403E-05-1.77253E-06
 -1     27744 6.13904E-05 1.99469E-05-1.85977E-06
 -1     27745 6.28368E-05 1.50858E-05-1.94877E-06
 -1     27746 6.16778E-05 2.00403E-05-1.94673E-06
 -1     27751 6.13904E-05 1.99469E-05-2.03385E-06
 -1     27752 6.28369E-05 1.50858E-05-2.12149E-06
 -1     27753 6.16778E-05 2.00403E-05-2.12083E-06
 -1     27758 6.13904E-05 1.99469E-05-2.20786E-06
 -1     27759 6.28369E-05 1.50858E-05-2.29423E-06
 -1     27760 6.16778E-05 2.00403E-05-2.29490E-06
 -1     27765 6.13904E-05 1.99469E-05-2.38188E-06
 -1     27766 6.28368E-05 1.50858E-05-2.46696E-06
 -1     27767 6.16778E-05 2.00403E-05-2.46900E-06
 -1     27772 6.13904E-05 1.99469E-05-2.55595E-06
 -1     27773 6.28368E-05 1.50858E-05-2.63963E-06
 -1     27774 6.16778E-05 2.00403E-05-2.64320E-06
 -1     27779 6.13903E-05 1.99469E-05-2.73016E-06
 -1     27780 6.28369E-05 1.50858E-05-2.81222E-06
 -1     27781 6.16778E-05 2.00403E-05-2.81757E-06
 -1     27786 6.13903E-05 1.99469E-05-2.90457E-06
 -1     27787 6.28369E-05 1.50858E-05-2.98470E-06
 -1     27788 6.16777E-05 2.00403E-05-2.99219E-06
 -1     27793 6.13901E-05 1.99469E-05-3.07926E-06
 -1     27797 5.75139E-05 2.93048E-05-1.33646E-06
 -1     27798 5.97033E-05 2.47299E-05-1.43102E-06
 -1     27799 5.77833E-05 2.94421E-05-1.42354E-06
 -1     27804 5.75141E-05 2.93049E-05-1.51116E-06
 -1     27805 5.97033E-05 2.47299E-05-1.60350E-06
 -1     27806 5.77834E-05 2.94421E-05-1.59816E-06
 -1     27811 5.75141E-05 2.93049E-05-1.68557E-06
 -1     27812 5.97033E-05 2.47299E-05-1.77610E-06
 -1     27813 5.77834E-05 2.94421E-05-1.77253E-06
 -1     27818 5.75142E-05 2.93049E-05-1.85977E-06
 -1     27819 5.97033E-05 2.47299E-05-1.94877E-06
 -1     27820 5.77834E-05 2.94421E-05-1.94673E-06
 -1     27825 5.75142E-05 2.93049E-05-2.03385E-06
 -1     27826 5.97033E-05 2.47299E-05-2.12149E-06
 -1     27827 5.77834E-05 2.94421E-05-2.12083E-06
 -1     27832 5.75141E-05 2.93049E-05-2.20786E-06
 -1     27833 5.97033E-05 2.47299E-05-2.29423E-06
 -1     27834 5.77834E-05 2.94421E-05-2.29490E-06
 -1     27839 5.75142E-05 2.93049E-05-2.38188E-06
 -1     27840 5.97033E-05 2.47299E-05-2.46696E-06
 -1     27841 5.77834E-05 2.94421E-05-2.46900E-06
 -1     27846 5.75142E-05 2.93049E-05-2.55595E-06
 -1     27847 5.97033E-05 2.47299E-05-2.63963E-06
 -1     27848 5.77834E-05 2.94421E-05-2.64320E-06
 -1     27853 5.75141E-05 2.93049E-05-2.73016E-06
 -1     27854 5.97033E-05 2.47299E-05-2.81222E-06
 -1     27855 5.77834E-05 2.94421E-05-2.81757E-06
 -1     27860 5.75141E-05 2.93049E-05-2.90457E-06
 -1     27861 5.97033E-05 2.47299E-05-2.98470E-06
 -1     27862 5.77833E-05 2.94421E-05-2.99219E-06
 -1     27867 5.75139E-05 2.93048E-05-3.07926E-06
 -1     27871 5.22215E-05 3.79412E-05-1.33646E-06
 -1     27872 5.50997E-05 3.37651E-05-1.43102E-06
 -1     27873 5.24662E-05 3.81189E-05-1.42354E-06
 -1     27878 5.22217E-05 3.79413E-05-1.51116E-06
 -1     27879 5.50996E-05 3.37651E-05-1.60350E-06
 -1     27880 5.24662E-05 3.81190E-05-1.59816E-06
 -1     27885 5.22217E-05 3.79413E-05-1.68557E-06
 -1     27886 5.50996E-05 3.37651E-05-1.77610E-06
 -1     27887 5.24663E-05 3.81190E-05-1.77253E-06
 -1     27892 5.22218E-05 3.79413E-05-1.85977E-06
 -1     27893 5.50996E-05 3.37651E-05-1.94877E-06
 -1     27894 5.24663E-05 3.81190E-05-1.94673E-06
 -1     27899 5.22218E-05 3.79413E-05-2.03385E-06
 -1     27900 5.50996E-05 3.37651E-05-2.12149E-06
 -1     27901 5.24663E-05 3.81190E-05-2.12083E-06
 -1     27906 5.22218E-05 3.79413E-05-2.20786E-06
 -1     27907 5.50996E-05 3.37651E-05-2.29423E-06
 -1     27908 5.24663E-05 3.81190E-05-2.29490E-06
 -1     27913 5.22218E-05 3.79413E-05-2.38188E-06
 -1     27914 5.50996E-05 3.37651E-05-2.46696E-06
 -1     27915 5.24663E-05 3.81190E-05-2.46900E-06
 -1     27920 5.22218E-05 3.79413E-05-2.55595E-06
 -1     27921 5.50996E-05 3.37651E-05-2.63963E-06
 -1     27922 5.24663E-05 3.81190E-05-2.64320E-06
 -1     27927 5.22217E-05 3.79413E-05-2.73016E-06
 -1     27928 5.50996E-05 3.37651E-05-2.81222E-06
 -1     27929 5.24662E-05 3.81190E-05-2.81757E-06
 -1     27934 5.22217E-05 3.79413E-05-2.90457E-06
 -1     27935 5.50997E-05 3.37651E-05-2.98470E-06
 -1     27936 5.24662E-05 3.81189E-05-2.99219E-06
 -1     27941 5.22215E-05 3.79412E-05-3.07926E-06
 -1     27945 4.56433E-05 4.56433E-05-1.33646E-06
 -1     27946 4.91393E-05 4.19689E-05-1.43102E-06
 -1     27947 4.58571E-05 4.58571E-05-1.42354E-06
 -1     27952 4.56434E-05 4.56434E-05-1.51116E-06
 -1     27953 4.91392E-05 4.19689E-05-1.60350E-06
 -1     27954 4.58572E-05 4.58572E-05-1.59816E-06
 -1     27959 4.56435E-05 4.56435E-05-1.68557E-06
 -1     27960 4.91392E-05 4.19689E-05-1.77610E-06
 -1     27961 4.58572E-05 4.58572E-05-1.77253E-06
 -1     27966 4.56435E-05 4.56435E-05-1.85977E-06
 -1     27967 4.91392E-05 4.19689E-05-1.94877E-06
 -1     27968 4.58572E-05 4.58572E-05-1.94673E-06
 -1     27973 4.56435E-05 4.56435E-05-2.03385E-06
 -1     27974 4.91392E-05 4.19689E-05-2.12149E-06
 -1     27975 4.58572E-05 4.58572E-05-2.12083E-06
 -1     27980 4.56435E-05 4.56435E-05-2.20786E-06
 -1     27981 4.91392E-05 4.19689E-05-2.29423E-06
 -1     27982 4.58572E-05 4.58572E-05-2.29490E-06
 -1     27987 4.56435E-05 4.56435E-05-2.38188E-06
 -1     27988 4.91392E-05 4.19689E-05-2.46696E-06
 -1     27989 4.58572E-05 4.58572E-05-2.46900E-06
 -1     27994 4.56435E-05 4.56435E-05-2.55595E-06
 -1     27995 4.91392E-05 4.19689E-05-2.63963E-06
 -1     27996 4.58572E-05 4.58572E-05-2.64320E-06
 -1     28001 4.56435E-05 4.56435E-05-2.73016E-06
 -1     28002 4.91392E-05 4.19689E-05-2.81222E-06
 -1     28003 4.58572E-05 4.58572E-05-2.81757E-06
 -1     28008 4.56434E-05 4.56434E-05-2.90457E-06
 -1     28009 4.91393E-05 4.19689E-05-2.98470E-06
 -1     28010 4.58571E-05 4.58571E-05-2.99219E-06
 -1     28015 4.56433E-05 4.56433E-05-3.07926E-06
 -1     28019 3.79412E-05 5.22215E-05-1.33646E-06
 -1     28020 4.19689E-05 4.91393E-05-1.43102E-06
 -1     28021 3.81189E-05 5.24662E-05-1.42354E-06
 -1     28026 3.79413E-05 5.22217E-05-1.51116E-06
 -1     28027 4.19689E-05 4.91392E-05-1.60350E-06
 -1     28028 3.81190E-05 5.24662E-05-1.59816E-06
 -1     28033 3.79413E-05 5.22217E-05-1.68557E-06
 -1     28034 4.19689E-05 4.91392E-05-1.77610E-06
 -1     28035 3.81190E-05 5.24663E-05-1.77253E-06
 -1     28040 3.79413E-05 5.22218E-05-1.85977E-06
 -1     28041 4.19689E-05 4.91392E-05-1.94877E-06
 -1     28042 3.81190E-05 5.24663E-05-1.94673E-06
 -1     28047 3.79413E-05 5.22218E-05-2.03385E-06
 -1     28048 4.19689E-05 4.91392E-05-2.12149E-06
 -1     28049 3.81190E-05 5.24663E-05-2.12083E-06
 -1     28054 3.79413E-05 5.22218E-05-2.20786E-06
 -1     28055 4.19689E-05 4.91392E-05-2.29423E-06
 -1     28056 3.81190E-05 5.24663E-05-2.29490E-06
 -1     28061 3.79413E-05 5.22218E-05-2.38188E-06
 -1     28062 4.19689E-05 4.91392E-05-2.46696E-06
 -1     28063 3.81190E-05 5.24663E-05-2.46900E-06
 -1     28068 3.79413E-05 5.22218E-05-2.55595E-06
 -1     28069 4.19689E-05 4.91392E-05-2.63963E-06
 -1     28070 3.81190E-05 5.24663E-05-2.64320E-06
 -1     28075 3.79413E-05 5.22217E-05-2.73016E-06
 -1     28076 4.19689E-05 4.91392E-05-2.81222E-06
 -1     28077 3.81190E-05 5.24662E-05-2.81757E-06
 -1     28082 3.79413E-05 5.22217E-05-2.90457E-06
 -1     28083 4.19689E-05 4.91393E-05-2.98470E-06
 -1     28084 3.81189E-05 5.24662E-05-2.99219E-06
 -1     28089 3.79412E-05 5.22215E-05-3.07926E-06
 -1     28093 2.93048E-05 5.75139E-05-1.33646E-06
 -1     28094 3.37651E-05 5.50997E-05-1.43102E-06
 -1     28095 2.94421E-05 5.77833E-05-1.42354E-06
 -1     28100 2.93049E-05 5.75141E-05-1.51116E-06
 -1     28101 3.37651E-05 5.50996E-05-1.60350E-06
 -1     28102 2.94421E-05 5.77834E-05-1.59816E-06
 -1     28107 2.93049E-05 5.75141E-05-1.68557E-06
 -1     28108 3.37651E-05 5.50996E-05-1.77610E-06
 -1     28109 2.94421E-05 5.77834E-05-1.77253E-06
 -1     28114 2.93049E-05 5.75142E-05-1.85977E-06
 -1     28115 3.37651E-05 5.50996E-05-1.94877E-06
 -1     28116 2.94421E-05 5.77834E-05-1.94673E-06
 -1     28121 2.93049E-05 5.75142E-05-2.03385E-06
 -1     28122 3.37651E-05 5.50996E-05-2.12149E-06
 -1     28123 2.94421E-05 5.77834E-05-2.12083E-06
 -1     28128 2.93049E-05 5.75141E-05-2.20786E-06
 -1     28129 3.37651E-05 5.50996E-05-2.29423E-06
 -1     28130 2.94421E-05 5.77834E-05-2.29490E-06
 -1     28135 2.93049E-05 5.75142E-05-2.38188E-06
 -1     28136 3.37651E-05 5.50996E-05-2.46696E-06
 -1     28137 2.94421E-05 5.77834E-05-2.46900E-06
 -1     28142 2.93049E-05 5.75142E-05-2.55595E-06
 -1     28143 3.37651E-05 5.50996E-05-2.63963E-06
 -1     28144 2.94421E-05 5.77834E-05-2.64320E-06
 -1     28149 2.93049E-05 5.75141E-05-2.73016E-06
 -1     28150 3.37651E-05 5.50996E-05-2.81222E-06
 -1     28151 2.94421E-05 5.77834E-05-2.81757E-06
 -1     28156 2.93049E-05 5.75141E-05-2.90457E-06
 -1     28157 3.37651E-05 5.50997E-05-2.98470E-06
 -1     28158 2.94421E-05 5.77833E-05-2.99219E-06
 -1     28163 2.93048E-05 5.75139E-05-3.07926E-06
 -1     28167 1.99469E-05 6.13901E-05-1.33646E-06
 -1     28168 2.47299E-05 5.97033E-05-1.43102E-06
 -1     28169 2.00403E-05 6.16777E-05-1.42354E-06
 -1     28174 1.99469E-05 6.13903E-05-1.51116E-06
 -1     28175 2.47299E-05 5.97033E-05-1.60350E-06
 -1     28176 2.00403E-05 6.16778E-05-1.59816E-06
 -1     28181 1.99469E-05 6.13903E-05-1.68557E-06
 -1     28182 2.47299E-05 5.97033E-05-1.77610E-06
 -1     28183 2.00403E-05 6.16778E-05-1.77253E-06
 -1     28188 1.99469E-05 6.13904E-05-1.85977E-06
 -1     28189 2.47299E-05 5.97033E-05-1.94877E-06
 -1     28190 2.00403E-05 6.16778E-05-1.94673E-06
 -1     28195 1.99469E-05 6.13904E-05-2.03385E-06
 -1     28196 2.47299E-05 5.97033E-05-2.12149E-06
 -1     28197 2.00403E-05 6.16778E-05-2.12083E-06
 -1     28202 1.99469E-05 6.13904E-05-2.20786E-06
 -1     28203 2.47299E-05 5.97033E-05-2.29423E-06
 -1     28204 2.00403E-05 6.16778E-05-2.29490E-06
 -1     28209 1.99469E-05 6.13904E-05-2.38188E-06
 -1     28210 2.47299E-05 5.97033E-05-2.46696E-06
 -1     28211 2.00403E-05 6.16778E-05-2.46900E-06
 -1     28216 1.99469E-05 6.13904E-05-2.55595E-06
 -1     28217 2.47299E-05 5.97033E-05-2.63963E-06
 -1     28218 2.00403E-05 6.16778E-05-2.64320E-06
 -1     28223 1.99469E-05 6.13903E-05-2.73016E-06
 -1     28224 2.47299E-05 5.97033E-05-2.81222E-06
 -1     28225 2.00403E-05 6.16778E-05-2.81757E-06
 -1     28230 1.99469E-05 6.13903E-05-2.90457E-06
 -1     28231 2.47299E-05 5.97033E-05-2.98470E-06
 -1     28232 2.00403E-05 6.16777E-05-2.99219E-06
 -1     28237 1.99469E-05 6.13901E-05-3.07926E-06
 -1     28241 1.00977E-05 6.37547E-05-1.33646E-06
 -1     28242 1.50858E-05 6.28369E-05-1.43102E-06
 -1     28243 1.01451E-05 6.40533E-05-1.42354E-06
 -1     28248 1.00978E-05 6.37549E-05-1.51116E-06
 -1     28249 1.50858E-05 6.28369E-05-1.60350E-06
 -1     28250 1.01451E-05 6.40534E-05-1.59816E-06
 -1     28255 1.00978E-05 6.37549E-05-1.68557E-06
 -1     28256 1.50858E-05 6.28368E-05-1.77610E-06
 -1     28257 1.01451E-05 6.40534E-05-1.77253E-06
 -1     28262 1.00978E-05 6.37549E-05-1.85977E-06
 -1     28263 1.50858E-05 6.28368E-05-1.94877E-06
 -1     28264 1.01451E-05 6.40534E-05-1.94673E-06
 -1     28269 1.00978E-05 6.37549E-05-2.03385E-06
 -1     28270 1.50858E-05 6.28369E-05-2.12149E-06
 -1     28271 1.01451E-05 6.40534E-05-2.12083E-06
 -1     28276 1.00978E-05 6.37549E-05-2.20786E-06
 -1     28277 1.50858E-05 6.28369E-05-2.29423E-06
 -1     28278 1.01451E-05 6.40534E-05-2.29490E-06
 -1     28283 1.00978E-05 6.37549E-05-2.38188E-06
 -1     28284 1.50858E-05 6.28368E-05-2.46696E-06
 -1     28285 1.01451E-05 6.40534E-05-2.46900E-06
 -1     28290 1.00978E-05 6.37549E-05-2.55595E-06
 -1     28291 1.50858E-05 6.28368E-05-2.63963E-06
 -1     28292 1.01451E-05 6.40534E-05-2.64320E-06
 -1     28297 1.00978E-05 6.37549E-05-2.73016E-06
 -1     28298 1.50858E-05 6.28369E-05-2.81222E-06
 -1     28299 1.01451E-05 6.40534E-05-2.81757E-06
 -1     28304 1.00978E-05 6.37549E-05-2.90457E-06
 -1     28305 1.50858E-05 6.28369E-05-2.98470E-06
 -1     28306 1.01451E-05 6.40533E-05-2.99219E-06
 -1     28311 1.00977E-05 6.37547E-05-3.07926E-06
 -1     28315 5.07022E-06 6.44232E-05-1.43102E-06
 -1     28319 5.07021E-06 6.44232E-05-1.60350E-06
 -1     28323 5.07021E-06 6.44232E-05-1.77610E-06
 -1     28327 5.07021E-06 6.44232E-05-1.94877E-06
 -1     28331 5.07021E-06 6.44232E-05-2.12149E-06
 -1     28335 5.07021E-06 6.44232E-05-2.29423E-06
 -1     28339 5.07021E-06 6.44232E-05-2.46696E-06
 -1     28343 5.07021E-06 6.44232E-05-2.63963E-06
 -1     28347 5.07021E-06 6.44232E-05-2.81222E-06
 -1     28351 5.07022E-06 6.44232E-05-2.98470E-06
 -1     28357 6.31997E-05 1.00098E-05-1.33818E-06
 -1     28358 6.38632E-05 5.02614E-06-1.43033E-06
 -1     28359 6.34702E-05 1.00527E-05-1.42463E-06
 -1     28364 6.32000E-05 1.00099E-05-1.51240E-06
 -1     28365 6.38631E-05 5.02613E-06-1.60301E-06
 -1     28366 6.34703E-05 1.00527E-05-1.59894E-06
 -1     28371 6.32001E-05 1.00099E-05-1.68643E-06
 -1     28372 6.38631E-05 5.02613E-06-1.77577E-06
 -1     28373 6.34703E-05 1.00527E-05-1.77306E-06
 -1     28378 6.32001E-05 1.00099E-05-1.86031E-06
 -1     28379 6.38631E-05 5.02613E-06-1.94858E-06
 -1     28380 6.34703E-05 1.00527E-05-1.94703E-06
 -1     28385 6.32000E-05 1.00099E-05-2.03411E-06
 -1     28386 6.38631E-05 5.02614E-06-2.12143E-06
 -1     28387 6.34703E-05 1.00527E-05-2.12093E-06
 -1     28392 6.32000E-05 1.00099E-05-2.20786E-06
 -1     28393 6.38631E-05 5.02614E-06-2.29429E-06
 -1     28394 6.34703E-05 1.00527E-05-2.29480E-06
 -1     28399 6.32000E-05 1.00099E-05-2.38162E-06
 -1     28400 6.38631E-05 5.02613E-06-2.46714E-06
 -1     28401 6.34703E-05 1.00527E-05-2.46869E-06
 -1     28406 6.32001E-05 1.00099E-05-2.55541E-06
 -1     28407 6.38631E-05 5.02613E-06-2.63996E-06
 -1     28408 6.34703E-05 1.00527E-05-2.64267E-06
 -1     28413 6.32001E-05 1.00099E-05-2.72930E-06
 -1     28414 6.38631E-05 5.02613E-06-2.81272E-06
 -1     28415 6.34703E-05 1.00527E-05-2.81679E-06
 -1     28420 6.32000E-05 1.00099E-05-2.90332E-06
 -1     28421 6.38632E-05 5.02614E-06-2.98540E-06
 -1     28422 6.34702E-05 1.00527E-05-2.99110E-06
 -1     28427 6.31997E-05 1.00098E-05-3.07755E-06
 -1     28431 6.08557E-05 1.97732E-05-1.33818E-06
 -1     28432 6.22906E-05 1.49547E-05-1.43033E-06
 -1     28433 6.11162E-05 1.98578E-05-1.42463E-06
 -1     28438 6.08560E-05 1.97733E-05-1.51240E-06
 -1     28439 6.22906E-05 1.49546E-05-1.60301E-06
 -1     28440 6.11163E-05 1.98579E-05-1.59894E-06
 -1     28445 6.08561E-05 1.97733E-05-1.68643E-06
 -1     28446 6.22906E-05 1.49546E-05-1.77577E-06
 -1     28447 6.11163E-05 1.98579E-05-1.77306E-06
 -1     28452 6.08561E-05 1.97733E-05-1.86031E-06
 -1     28453 6.22906E-05 1.49546E-05-1.94858E-06
 -1     28454 6.11163E-05 1.98579E-05-1.94703E-06
 -1     28459 6.08560E-05 1.97733E-05-2.03411E-06
 -1     28460 6.22906E-05 1.49546E-05-2.12143E-06
 -1     28461 6.11163E-05 1.98579E-05-2.12093E-06
 -1     28466 6.08560E-05 1.97733E-05-2.20786E-06
 -1     28467 6.22906E-05 1.49546E-05-2.29429E-06
 -1     28468 6.11163E-05 1.98579E-05-2.29480E-06
 -1     28473 6.08560E-05 1.97733E-05-2.38162E-06
 -1     28474 6.22906E-05 1.49546E-05-2.46714E-06
 -1     28475 6.11163E-05 1.98579E-05-2.46869E-06
 -1     28480 6.08561E-05 1.97733E-05-2.55541E-06
 -1     28481 6.22906E-05 1.49546E-05-2.63996E-06
 -1     28482 6.11163E-05 1.98579E-05-2.64267E-06
 -1     28487 6.08561E-05 1.97733E-05-2.72930E-06
 -1     28488 6.22906E-05 1.49546E-05-2.81272E-06
 -1     28489 6.11163E-05 1.98579E-05-2.81679E-06
 -1     28494 6.08560E-05 1.97733E-05-2.90332E-06
 -1     28495 6.22906E-05 1.49547E-05-2.98540E-06
 -1     28496 6.11162E-05 1.98578E-05-2.99110E-06
 -1     28501 6.08557E-05 1.97732E-05-3.07755E-06
 -1     28505 5.70133E-05 2.90497E-05-1.33818E-06
 -1     28506 5.91843E-05 2.45149E-05-1.43033E-06
 -1     28507 5.72573E-05 2.91740E-05-1.42463E-06
 -1     28512 5.70135E-05 2.90498E-05-1.51240E-06
 -1     28513 5.91842E-05 2.45149E-05-1.60301E-06
 -1     28514 5.72574E-05 2.91741E-05-1.59894E-06
 -1     28519 5.70136E-05 2.90499E-05-1.68643E-06
 -1     28520 5.91842E-05 2.45149E-05-1.77577E-06
 -1     28521 5.72574E-05 2.91741E-05-1.77306E-06
 -1     28526 5.70136E-05 2.90499E-05-1.86031E-06
 -1     28527 5.91843E-05 2.45149E-05-1.94858E-06
 -1     28528 5.72574E-05 2.91741E-05-1.94703E-06
 -1     28533 5.70136E-05 2.90499E-05-2.03411E-06
 -1     28534 5.91843E-05 2.45149E-05-2.12143E-06
 -1     28535 5.72574E-05 2.91741E-05-2.12093E-06
 -1     28540 5.70136E-05 2.90499E-05-2.20786E-06
 -1     28541 5.91843E-05 2.45149E-05-2.29429E-06
 -1     28542 5.72574E-05 2.91741E-05-2.29480E-06
 -1     28547 5.70136E-05 2.90499E-05-2.38162E-06
 -1     28548 5.91843E-05 2.45149E-05-2.46714E-06
 -1     28549 5.72574E-05 2.91741E-05-2.46869E-06
 -1     28554 5.70136E-05 2.90499E-05-2.55541E-06
 -1     28555 5.91842E-05 2.45149E-05-2.63996E-06
 -1     28556 5.72574E-05 2.91741E-05-2.64267E-06
 -1     28561 5.70136E-05 2.90499E-05-2.72930E-06
 -1     28562 5.91842E-05 2.45149E-05-2.81272E-06
 -1     28563 5.72574E-05 2.91741E-05-2.81679E-06
 -1     28568 5.70135E-05 2.90498E-05-2.90332E-06
 -1     28569 5.91843E-05 2.45149E-05-2.98540E-06
 -1     28570 5.72573E-05 2.91740E-05-2.99110E-06
 -1     28575 5.70133E-05 2.90497E-05-3.07755E-06
 -1     28579 5.17670E-05 3.76109E-05-1.33818E-06
 -1     28580 5.46207E-05 3.34716E-05-1.43033E-06
 -1     28581 5.19885E-05 3.77719E-05-1.42463E-06
 -1     28586 5.17672E-05 3.76111E-05-1.51240E-06
 -1     28587 5.46206E-05 3.34716E-05-1.60301E-06
 -1     28588 5.19886E-05 3.77720E-05-1.59894E-06
 -1     28593 5.17673E-05 3.76111E-05-1.68643E-06
 -1     28594 5.46206E-05 3.34716E-05-1.77577E-06
 -1     28595 5.19886E-05 3.77720E-05-1.77306E-06
 -1     28600 5.17673E-05 3.76111E-05-1.86031E-06
 -1     28601 5.46206E-05 3.34716E-05-1.94858E-06
 -1     28602 5.19886E-05 3.77720E-05-1.94703E-06
 -1     28607 5.17672E-05 3.76111E-05-2.03411E-06
 -1     28608 5.46206E-05 3.34716E-05-2.12143E-06
 -1     28609 5.19886E-05 3.77719E-05-2.12093E-06
 -1     28614 5.17672E-05 3.76111E-05-2.20786E-06
 -1     28615 5.46206E-05 3.34716E-05-2.29429E-06
 -1     28616 5.19886E-05 3.77719E-05-2.29480E-06
 -1     28621 5.17672E-05 3.76111E-05-2.38162E-06
 -1     28622 5.46206E-05 3.34716E-05-2.46714E-06
 -1     28623 5.19886E-05 3.77720E-05-2.46869E-06
 -1     28628 5.17673E-05 3.76111E-05-2.55541E-06
 -1     28629 5.46206E-05 3.34716E-05-2.63996E-06
 -1     28630 5.19886E-05 3.77720E-05-2.64267E-06
 -1     28635 5.17673E-05 3.76111E-05-2.72930E-06
 -1     28636 5.46206E-05 3.34716E-05-2.81272E-06
 -1     28637 5.19886E-05 3.77720E-05-2.81679E-06
 -1     28642 5.17672E-05 3.76111E-05-2.90332E-06
 -1     28643 5.46207E-05 3.34716E-05-2.98540E-06
 -1     28644 5.19885E-05 3.77719E-05-2.99110E-06
 -1     28649 5.17670E-05 3.76109E-05-3.07755E-06
 -1     28653 4.52460E-05 4.52460E-05-1.33818E-06
 -1     28654 4.87121E-05 4.16041E-05-1.43033E-06
 -1     28655 4.54396E-05 4.54396E-05-1.42463E-06
 -1     28660 4.52462E-05 4.52462E-05-1.51240E-06
 -1     28661 4.87120E-05 4.16040E-05-1.60301E-06
 -1     28662 4.54397E-05 4.54397E-05-1.59894E-06
 -1     28667 4.52463E-05 4.52463E-05-1.68643E-06
 -1     28668 4.87120E-05 4.16040E-05-1.77577E-06
 -1     28669 4.54397E-05 4.54397E-05-1.77306E-06
 -1     28674 4.52462E-05 4.52463E-05-1.86031E-06
 -1     28675 4.87120E-05 4.16040E-05-1.94858E-06
 -1     28676 4.54397E-05 4.54397E-05-1.94703E-06
 -1     28681 4.52462E-05 4.52462E-05-2.03411E-06
 -1     28682 4.87121E-05 4.16040E-05-2.12143E-06
 -1     28683 4.54397E-05 4.54397E-05-2.12093E-06
 -1     28688 4.52462E-05 4.52462E-05-2.20786E-06
 -1     28689 4.87121E-05 4.16040E-05-2.29429E-06
 -1     28690 4.54397E-05 4.54397E-05-2.29480E-06
 -1     28695 4.52462E-05 4.52462E-05-2.38162E-06
 -1     28696 4.87120E-05 4.16040E-05-2.46714E-06
 -1     28697 4.54397E-05 4.54397E-05-2.46869E-06
 -1     28702 4.52462E-05 4.52463E-05-2.55541E-06
 -1     28703 4.87120E-05 4.16040E-05-2.63996E-06
 -1     28704 4.54397E-05 4.54397E-05-2.64267E-06
 -1     28709 4.52463E-05 4.52463E-05-2.72930E-06
 -1     28710 4.87120E-05 4.16040E-05-2.81272E-06
 -1     28711 4.54397E-05 4.54397E-05-2.81679E-06
 -1     28716 4.52462E-05 4.52462E-05-2.90332E-06
 -1     28717 4.87121E-05 4.16041E-05-2.98540E-06
 -1     28718 4.54396E-05 4.54396E-05-2.99110E-06
 -1     28723 4.52460E-05 4.52460E-05-3.07755E-06
 -1     28727 3.76109E-05 5.17670E-05-1.33818E-06
 -1     28728 4.16041E-05 4.87121E-05-1.43033E-06
 -1     28729 3.77719E-05 5.19885E-05-1.42463E-06
 -1     28734 3.76111E-05 5.17672E-05-1.51240E-06
 -1     28735 4.16040E-05 4.87120E-05-1.60301E-06
 -1     28736 3.77720E-05 5.19886E-05-1.59894E-06
 -1     28741 3.76111E-05 5.17673E-05-1.68643E-06
 -1     28742 4.16040E-05 4.87120E-05-1.77577E-06
 -1     28743 3.77720E-05 5.19886E-05-1.77306E-06
 -1     28748 3.76111E-05 5.17673E-05-1.86031E-06
 -1     28749 4.16040E-05 4.87120E-05-1.94858E-06
 -1     28750 3.77720E-05 5.19886E-05-1.94703E-06
 -1     28755 3.76111E-05 5.17672E-05-2.03411E-06
 -1     28756 4.16040E-05 4.87121E-05-2.12143E-06
 -1     28757 3.77719E-05 5.19886E-05-2.12093E-06
 -1     28762 3.76111E-05 5.17672E-05-2.20786E-06
 -1     28763 4.16040E-05 4.87121E-05-2.29429E-06
 -1     28764 3.77719E-05 5.19886E-05-2.29480E-06
 -1     28769 3.76111E-05 5.17672E-05-2.38162E-06
 -1     28770 4.16040E-05 4.87120E-05-2.46714E-06
 -1     28771 3.77720E-05 5.19886E-05-2.46869E-06
 -1     28776 3.76111E-05 5.17673E-05-2.55541E-06
 -1     28777 4.16040E-05 4.87120E-05-2.63996E-06
 -1     28778 3.77720E-05 5.19886E-05-2.64267E-06
 -1     28783 3.76111E-05 5.17673E-05-2.72930E-06
 -1     28784 4.16040E-05 4.87120E-05-2.81272E-06
 -1     28785 3.77720E-05 5.19886E-05-2.81679E-06
 -1     28790 3.76111E-05 5.17672E-05-2.90332E-06
 -1     28791 4.16041E-05 4.87121E-05-2.98540E-06
 -1     28792 3.77719E-05 5.19885E-05-2.99110E-06
 -1     28797 3.76109E-05 5.17670E-05-3.07755E-06
 -1     28801 2.90497E-05 5.70133E-05-1.33818E-06
 -1     28802 3.34716E-05 5.46207E-05-1.43033E-06
 -1     28803 2.91740E-05 5.72573E-05-1.42463E-06
 -1     28808 2.90498E-05 5.70135E-05-1.51240E-06
 -1     28809 3.34716E-05 5.46206E-05-1.60301E-06
 -1     28810 2.91741E-05 5.72574E-05-1.59894E-06
 -1     28815 2.90499E-05 5.70136E-05-1.68643E-06
 -1     28816 3.34715E-05 5.46206E-05-1.77577E-06
 -1     28817 2.91741E-05 5.72574E-05-1.77306E-06
 -1     28822 2.90499E-05 5.70136E-05-1.86031E-06
 -1     28823 3.34716E-05 5.46206E-05-1.94858E-06
 -1     28824 2.91741E-05 5.72574E-05-1.94703E-06
 -1     28829 2.90499E-05 5.70136E-05-2.03411E-06
 -1     28830 3.34716E-05 5.46206E-05-2.12143E-06
 -1     28831 2.91741E-05 5.72574E-05-2.12093E-06
 -1     28836 2.90499E-05 5.70136E-05-2.20786E-06
 -1     28837 3.34716E-05 5.46206E-05-2.29429E-06
 -1     28838 2.91741E-05 5.72574E-05-2.29480E-06
 -1     28843 2.90499E-05 5.70136E-05-2.38162E-06
 -1     28844 3.34716E-05 5.46206E-05-2.46714E-06
 -1     28845 2.91741E-05 5.72574E-05-2.46869E-06
 -1     28850 2.90499E-05 5.70136E-05-2.55541E-06
 -1     28851 3.34715E-05 5.46206E-05-2.63996E-06
 -1     28852 2.91741E-05 5.72574E-05-2.64267E-06
 -1     28857 2.90499E-05 5.70136E-05-2.72930E-06
 -1     28858 3.34716E-05 5.46206E-05-2.81272E-06
 -1     28859 2.91741E-05 5.72574E-05-2.81679E-06
 -1     28864 2.90498E-05 5.70135E-05-2.90332E-06
 -1     28865 3.34716E-05 5.46207E-05-2.98540E-06
 -1     28866 2.91740E-05 5.72573E-05-2.99110E-06
 -1     28871 2.90497E-05 5.70133E-05-3.07755E-06
 -1     28875 1.97732E-05 6.08557E-05-1.33818E-06
 -1     28876 2.45149E-05 5.91843E-05-1.43033E-06
 -1     28877 1.98578E-05 6.11162E-05-1.42463E-06
 -1     28882 1.97733E-05 6.08560E-05-1.51240E-06
 -1     28883 2.45149E-05 5.91842E-05-1.60301E-06
 -1     28884 1.98579E-05 6.11163E-05-1.59894E-06
 -1     28889 1.97733E-05 6.08561E-05-1.68643E-06
 -1     28890 2.45149E-05 5.91842E-05-1.77577E-06
 -1     28891 1.98579E-05 6.11163E-05-1.77306E-06
 -1     28896 1.97733E-05 6.08561E-05-1.86031E-06
 -1     28897 2.45149E-05 5.91843E-05-1.94858E-06
 -1     28898 1.98579E-05 6.11163E-05-1.94703E-06
 -1     28903 1.97733E-05 6.08560E-05-2.03411E-06
 -1     28904 2.45149E-05 5.91843E-05-2.12143E-06
 -1     28905 1.98579E-05 6.11163E-05-2.12093E-06
 -1     28910 1.97733E-05 6.08560E-05-2.20786E-06
 -1     28911 2.45149E-05 5.91843E-05-2.29429E-06
 -1     28912 1.98579E-05 6.11163E-05-2.29480E-06
 -1     28917 1.97733E-05 6.08560E-05-2.38162E-06
 -1     28918 2.45149E-05 5.91843E-05-2.46714E-06
 -1     28919 1.98579E-05 6.11163E-05-2.46869E-06
 -1     28924 1.97733E-05 6.08561E-05-2.55541E-06
 -1     28925 2.45149E-05 5.91842E-05-2.63996E-06
 -1     28926 1.98579E-05 6.11163E-05-2.64267E-06
 -1     28931 1.97733E-05 6.08561E-05-2.72930E-06
 -1     28932 2.45149E-05 5.91842E-05-2.81272E-06
 -1     28933 1.98579E-05 6.11163E-05-2.81679E-06
 -1     28938 1.97733E-05 6.08560E-05-2.90332E-06
 -1     28939 2.45149E-05 5.91843E-05-2.98540E-06
 -1     28940 1.98578E-05 6.11162E-05-2.99110E-06
 -1     28945 1.97732E-05 6.08557E-05-3.07755E-06
 -1     28949 1.00098E-05 6.31997E-05-1.33818E-06
 -1     28950 1.49547E-05 6.22906E-05-1.43033E-06
 -1     28951 1.00527E-05 6.34702E-05-1.42463E-06
 -1     28956 1.00099E-05 6.32000E-05-1.51240E-06
 -1     28957 1.49546E-05 6.22906E-05-1.60301E-06
 -1     28958 1.00527E-05 6.34703E-05-1.59894E-06
 -1     28963 1.00099E-05 6.32001E-05-1.68643E-06
 -1     28964 1.49546E-05 6.22906E-05-1.77577E-06
 -1     28965 1.00527E-05 6.34703E-05-1.77306E-06
 -1     28970 1.00099E-05 6.32001E-05-1.86031E-06
 -1     28971 1.49546E-05 6.22906E-05-1.94858E-06
 -1     28972 1.00527E-05 6.34703E-05-1.94703E-06
 -1     28977 1.00099E-05 6.32000E-05-2.03411E-06
 -1     28978 1.49546E-05 6.22906E-05-2.12143E-06
 -1     28979 1.00527E-05 6.34703E-05-2.12093E-06
 -1     28984 1.00099E-05 6.32000E-05-2.20786E-06
 -1     28985 1.49546E-05 6.22906E-05-2.29429E-06
 -1     28986 1.00527E-05 6.34703E-05-2.29480E-06
 -1     28991 1.00099E-05 6.32000E-05-2.38162E-06
 -1     28992 1.49546E-05 6.22906E-05-2.46714E-06
 -1     28993 1.00527E-05 6.34703E-05-2.46869E-06
 -1     28998 1.00099E-05 6.32001E-05-2.55541E-06
 -1     28999 1.49546E-05 6.22906E-05-2.63996E-06
 -1     29000 1.00527E-05 6.34703E-05-2.64267E-06
 -1     29005 1.00099E-05 6.32001E-05-2.72930E-06
 -1     29006 1.49546E-05 6.22906E-05-2.81272E-06
 -1     29007 1.00527E-05 6.34703E-05-2.81679E-06
 -1     29012 1.00099E-05 6.32000E-05-2.90332E-06
 -1     29013 1.49547E-05 6.22906E-05-2.98540E-06
 -1     29014 1.00527E-05 6.34702E-05-2.99110E-06
 -1     29019 1.00098E-05 6.31997E-05-3.07755E-06
 -1     29023 5.02614E-06 6.38632E-05-1.43033E-06
 -1     29027 5.02614E-06 6.38631E-05-1.60301E-06
 -1     29031 5.02613E-06 6.38631E-05-1.77577E-06
 -1     29035 5.02614E-06 6.38631E-05-1.94858E-06
 -1     29039 5.02614E-06 6.38631E-05-2.12143E-06
 -1     29043 5.02614E-06 6.38631E-05-2.29429E-06
 -1     29047 5.02614E-06 6.38631E-05-2.46714E-06
 -1     29051 5.02613E-06 6.38631E-05-2.63996E-06
 -1     29055 5.02614E-06 6.38631E-05-2.81272E-06
 -1     29059 5.02614E-06 6.38632E-05-2.98540E-06
 -1     29065 6.29429E-05 9.96918E-06-1.42627E-06
 -1     29069 6.29431E-05 9.96921E-06-1.60003E-06
 -1     29073 6.29431E-05 9.96921E-06-1.77373E-06
 -1     29077 6.29431E-05 9.96920E-06-1.94740E-06
 -1     29081 6.29430E-05 9.96920E-06-2.12104E-06
 -1     29085 6.29430E-05 9.96920E-06-2.29468E-06
 -1     29089 6.29431E-05 9.96920E-06-2.46833E-06
 -1     29093 6.29431E-05 9.96921E-06-2.64199E-06
 -1     29097 6.29431E-05 9.96921E-06-2.81570E-06
 -1     29101 6.29429E-05 9.96918E-06-2.98946E-06
 -1     29107 6.06085E-05 1.96929E-05-1.42627E-06
 -1     29111 6.06086E-05 1.96929E-05-1.60003E-06
 -1     29115 6.06087E-05 1.96929E-05-1.77373E-06
 -1     29119 6.06086E-05 1.96929E-05-1.94740E-06
 -1     29123 6.06086E-05 1.96929E-05-2.12104E-06
 -1     29127 6.06086E-05 1.96929E-05-2.29468E-06
 -1     29131 6.06086E-05 1.96929E-05-2.46833E-06
 -1     29135 6.06087E-05 1.96929E-05-2.64199E-06
 -1     29139 6.06086E-05 1.96929E-05-2.81570E-06
 -1     29143 6.06085E-05 1.96929E-05-2.98946E-06
 -1     29149 5.67816E-05 2.89317E-05-1.42627E-06
 -1     29153 5.67818E-05 2.89318E-05-1.60003E-06
 -1     29157 5.67818E-05 2.89318E-05-1.77373E-06
 -1     29161 5.67818E-05 2.89318E-05-1.94740E-06
 -1     29165 5.67817E-05 2.89317E-05-2.12104E-06
 -1     29169 5.67817E-05 2.89317E-05-2.29468E-06
 -1     29173 5.67818E-05 2.89318E-05-2.46833E-06
 -1     29177 5.67818E-05 2.89318E-05-2.64199E-06
 -1     29181 5.67818E-05 2.89318E-05-2.81570E-06
 -1     29185 5.67816E-05 2.89317E-05-2.98946E-06
 -1     29191 5.15567E-05 3.74581E-05-1.42627E-06
 -1     29195 5.15568E-05 3.74582E-05-1.60003E-06
 -1     29199 5.15568E-05 3.74582E-05-1.77373E-06
 -1     29203 5.15568E-05 3.74582E-05-1.94740E-06
 -1     29207 5.15567E-05 3.74582E-05-2.12104E-06
 -1     29211 5.15567E-05 3.74582E-05-2.29468E-06
 -1     29215 5.15568E-05 3.74582E-05-2.46833E-06
 -1     29219 5.15568E-05 3.74582E-05-2.64199E-06
 -1     29223 5.15568E-05 3.74582E-05-2.81570E-06
 -1     29227 5.15567E-05 3.74581E-05-2.98946E-06
 -1     29233 4.50622E-05 4.50622E-05-1.42627E-06
 -1     29237 4.50623E-05 4.50623E-05-1.60003E-06
 -1     29241 4.50623E-05 4.50623E-05-1.77373E-06
 -1     29245 4.50623E-05 4.50623E-05-1.94740E-06
 -1     29249 4.50622E-05 4.50622E-05-2.12104E-06
 -1     29253 4.50622E-05 4.50622E-05-2.29468E-06
 -1     29257 4.50623E-05 4.50623E-05-2.46833E-06
 -1     29261 4.50623E-05 4.50623E-05-2.64199E-06
 -1     29265 4.50623E-05 4.50623E-05-2.81570E-06
 -1     29269 4.50622E-05 4.50622E-05-2.98946E-06
 -1     29275 3.74581E-05 5.15567E-05-1.42627E-06
 -1     29279 3.74582E-05 5.15568E-05-1.60003E-06
 -1     29283 3.74582E-05 5.15568E-05-1.77373E-06
 -1     29287 3.74582E-05 5.15568E-05-1.94740E-06
 -1     29291 3.74582E-05 5.15567E-05-2.12104E-06
 -1     29295 3.74582E-05 5.15567E-05-2.29468E-06
 -1     29299 3.74582E-05 5.15568E-05-2.46833E-06
 -1     29303 3.74582E-05 5.15568E-05-2.64199E-06
 -1     29307 3.74582E-05 5.15568E-05-2.81570E-06
 -1     29311 3.74581E-05 5.15567E-05-2.98946E-06
 -1     29317 2.89317E-05 5.67816E-05-1.42627E-06
 -1     29321 2.89318E-05 5.67818E-05-1.60003E-06
 -1     29325 2.89318E-05 5.67818E-05-1.77373E-06
 -1     29329 2.89318E-05 5.67818E-05-1.94740E-06
 -1     29333 2.89317E-05 5.67817E-05-2.12104E-06
 -1     29337 2.89317E-05 5.67817E-05-2.29468E-06
 -1     29341 2.89318E-05 5.67818E-05-2.46833E-06
 -1     29345 2.89318E-05 5.67818E-05-2.64199E-06
 -1     29349 2.89318E-05 5.67818E-05-2.81570E-06
 -1     29353 2.89317E-05 5.67816E-05-2.98946E-06
 -1     29359 1.96929E-05 6.06085E-05-1.42627E-06
 -1     29363 1.96929E-05 6.06086E-05-1.60003E-06
 -1     29367 1.96929E-05 6.06087E-05-1.77373E-06
 -1     29371 1.96929E-05 6.06086E-05-1.94740E-06
 -1     29375 1.96929E-05 6.06086E-05-2.12104E-06
 -1     29379 1.96929E-05 6.06086E-05-2.29468E-06
 -1     29383 1.96929E-05 6.06086E-05-2.46833E-06
 -1     29387 1.96929E-05 6.06087E-05-2.64199E-06
 -1     29391 1.96929E-05 6.06086E-05-2.81570E-06
 -1     29395 1.96929E-05 6.06085E-05-2.98946E-06
 -1     29401 9.96918E-06 6.29429E-05-1.42627E-06
 -1     29405 9.96921E-06 6.29431E-05-1.60003E-06
 -1     29409 9.96921E-06 6.29431E-05-1.77373E-06
 -1     29413 9.96920E-06 6.29431E-05-1.94740E-06
 -1     29417 9.96920E-06 6.29430E-05-2.12104E-06
 -1     29421 9.96920E-06 6.29430E-05-2.29468E-06
 -1     29425 9.96920E-06 6.29431E-05-2.46833E-06
 -1     29429 9.96921E-06 6.29431E-05-2.64199E-06
 -1     29433 9.96921E-06 6.29431E-05-2.81570E-06
 -1     29437 9.96918E-06 6.29429E-05-2.98946E-06
 -3
    1PSTEP                         2           1           1          
  100CL  101 1.000000000       15523                     0    1           1
 -4  STRESS      6    1
 -5  SXX         1    4    1    1
 -5  SYY         1    4    2    2
 -5  SZZ         1    4    3    3
 -5  SXY         1    4    1    2
 -5  SYZ         1    4    2    3
 -5  SZX         1    4    3    1
 -1         1-9.86114E-01 1.13829E+00 2.71175E-03-5.49239E-05-9.62069E-04-1.41785E-04
 -1         2 2.70751E-04 1.33454E-01 4.70946E-05 4.11872E-05-5.80002E-05-2.51926E-05
 -1         3 1.33454E-01 2.70745E-04 4.70550E-05 4.11687E-05-2.50844E-05-5.80207E-05
 -1         4 1.13829E+00-9.86114E-01 2.71175E-03-5.49237E-05-1.41785E-04-9.62069E-04
 -1         5-9.86114E-01 1.13829E+00 2.71175E-03-5.49239E-05 9.62069E-04 1.41785E-04
 -1         6 2.70751E-04 1.33454E-01 4.70946E-05 4.11872E-05 5.80002E-05 2.51926E-05
 -1         7 1.33454E-01 2.70745E-04 4.70550E-05 4.11687E-05 2.50844E-05 5.80207E-05
 -1         8 1.13829E+00-9.86114E-01 2.71175E-03-5.49237E-05 1.41785E-04 9.62069E-04
 -1         9-8.06555E-01 9.66036E-01 3.49568E-03-4.87946E-04-2.58085E-03 1.47245E-04
 -1        10-6.65370E-01 8.22721E-01 2.91652E-03-2.71202E-04-2.82462E-03 2.90698E-05
 -1        11-5.57377E-01 7.10786E-01 2.47065E-03-2.14457E-04-2.35679E-03-8.08897E-05
 -1        12-4.71818E-01 6.21872E-01 1.93293E-03-1.92106E-04-2.04773E-03-7.33210E-05
 -1        13-4.02695E-01 5.50190E-01 1.55966E-03-1.69027E-04-1.78672E-03-7.30307E-05
 -1        14-3.46063E-01 4.91547E-01 1.27269E-03-1.50149E-04-1.57271E-03-6.95103E-05
 -1        15-2.99087E-01 4.42962E-01 1.05232E-03-1.34001E-04-1.39411E-03-6.57480E-05
 -1        16-2.59692E-01 4.02261E-01 8.79542E-04-1.20123E-04-1.24358E-03-6.16778E-05
 -1        17-2.26330E-01 3.67824E-01 7.42270E-04-1.08137E-04-1.11546E-03-5.76803E-05
 -1        18-1.97832E-01 3.38429E-01 6.31787E-04-9.77219E-05-1.00549E-03-5.38354E-05
 -1        19-1.73296E-01 3.13137E-01 5.41856E-04-8.86245E-05-9.10365E-04-5.02117E-05
 -1        20-1.52020E-01 2.91219E-01 4.67905E-04-8.06396E-05-8.27508E-04-4.68287E-05
 -1        21-1.33452E-01 2.72100E-01 4.06538E-04-7.35999E-05-7.54882E-04-4.36897E-05
 -1        22-1.17152E-01 2.55323E-01 3.55189E-04-6.73680E-05-6.90862E-04-4.07867E-05
 -1        23-1.02764E-01 2.40521E-01 3.11901E-04-6.18303E-05-6.34137E-04-3.81065E-05
 -1        24-9.00012E-02 2.27395E-01 2.75157E-04-5.68916E-05-5.83639E-04-3.56338E-05
 -1        25-7.86276E-02 2.15701E-01 2.43773E-04-5.24707E-05-5.38491E-04-3.33528E-05
 -1        26-6.84486E-02 2.05239E-01 2.16810E-04-4.84957E-05-4.97969E-04-3.12482E-05
 -1        27-5.93028E-02 1.95841E-01 1.93519E-04-4.48966E-05-4.61461E-04-2.93063E-05
 -1        28-5.10551E-02 1.87367E-01 1.73290E-04-4.15935E-05-4.28449E-04-2.75159E-05
 -1        29-4.35919E-02 1.79701E-01 1.55612E-04-3.84699E-05-3.98479E-04-2.58698E-05
 -1        30-3.68173E-02 1.72742E-01 1.40038E-04-3.53194E-05-3.71124E-04-2.43683E-05
 -1        31-3.06504E-02 1.66406E-01 1.26139E-04-3.17317E-05-3.45941E-04-2.30237E-05
 -1        32-2.50232E-02 1.60620E-01 1.13401E-04-2.68569E-05-3.22379E-04-2.18793E-05
 -1        33-1.98800E-02 1.55321E-01 1.01231E-04-1.89144E-05-2.99605E-04-2.10157E-05
 -1        34-1.51784E-02 1.50452E-01 8.81891E-05-4.23731E-06-2.76179E-04-2.06896E-05
 -1        35-1.08904E-02 1.45962E-01 7.43767E-05 2.45414E-05-2.49107E-04-2.15200E-05
 -1        36-7.00674E-03 1.41802E-01 4.86082E-05 8.18997E-05-2.13170E-04-2.52986E-05
 -1        37-3.50134E-03 1.37919E-01 5.53817E-05 6.04972E-05-1.47970E-04-2.90676E-05
 -1        38-9.00753E-01 1.04202E+00 6.64480E-04-1.80437E-03-1.81542E-03 4.82772E-04
 -1        39-7.37413E-01 8.87498E-01 1.98224E-03-6.22325E-04-2.72401E-03-9.89841E-05
 -1        40-6.13358E-01 7.61552E-01 1.47187E-03-2.92811E-04-2.59436E-03-1.75767E-04
 -1        41-5.16147E-01 6.62479E-01 1.26214E-03-2.43458E-04-2.20143E-03-1.27303E-04
 -1        42-4.38424E-01 5.83148E-01 1.04045E-03-2.11621E-04-1.91665E-03-1.14633E-04
 -1        43-3.75273E-01 5.18669E-01 8.76479E-04-1.84059E-04-1.67899E-03-9.99388E-05
 -1        44-3.23271E-01 4.65549E-01 7.42717E-04-1.61728E-04-1.48270E-03-8.86275E-05
 -1        45-2.79940E-01 4.21269E-01 6.34452E-04-1.43104E-04-1.31818E-03-7.93071E-05
 -1        46-2.43453E-01 3.83972E-01 5.45710E-04-1.27412E-04-1.17891E-03-7.14611E-05
 -1        47-2.12440E-01 3.52263E-01 4.72328E-04-1.14068E-04-1.05993E-03-6.47924E-05
 -1        48-1.85858E-01 3.25080E-01 4.11148E-04-1.02620E-04-9.57437E-04-5.90458E-05
 -1        49-1.62902E-01 3.01600E-01 3.59752E-04-9.27274E-05-8.68500E-04-5.40451E-05
 -1        50-1.42940E-01 2.81181E-01 3.16276E-04-8.41209E-05-7.90808E-04-4.96546E-05
 -1        51-1.25473E-01 2.63312E-01 2.79266E-04-7.65894E-05-7.22528E-04-4.57704E-05
 -1        52-1.10103E-01 2.47586E-01 2.47575E-04-6.99640E-05-6.62194E-04-4.23114E-05
 -1        53-9.65065E-02 2.33673E-01 2.20294E-04-6.41076E-05-6.08617E-04-3.92134E-05
 -1        54-8.44207E-02 2.21306E-01 1.96692E-04-5.89073E-05-5.60824E-04-3.64247E-05
 -1        55-7.36297E-02 2.10263E-01 1.76179E-04-5.42675E-05-5.18015E-04-3.39035E-05
 -1        56-6.39551E-02 2.00362E-01 1.58273E-04-5.01025E-05-4.79522E-04-3.16155E-05
 -1        57-5.52480E-02 1.91450E-01 1.42580E-04-4.63253E-05-4.44783E-04-2.95327E-05
 -1        58-4.73837E-02 1.83401E-01 1.28767E-04-4.28276E-05-4.13309E-04-2.76326E-05
 -1        59-4.02571E-02 1.76106E-01 1.16554E-04-3.94389E-05-3.84660E-04-2.58979E-05
 -1        60-3.37796E-02 1.69474E-01 1.05687E-04-3.58407E-05-3.58400E-04-2.43181E-05
 -1        61-2.78761E-02 1.63426E-01 9.59132E-05-3.13891E-05-3.34028E-04-2.28900E-05
 -1        62-2.24844E-02 1.57895E-01 8.69708E-05-2.47477E-05-3.10848E-04-2.16256E-05
 -1        63-1.75541E-02 1.52822E-01 7.83123E-05-1.31561E-05-2.87706E-04-2.05252E-05
 -1        64-1.30486E-02 1.48154E-01 6.99493E-05 8.96389E-06-2.62369E-04-1.99588E-05
 -1        65-8.95102E-03 1.43840E-01 5.56934E-05 5.25393E-05-2.30512E-04-1.85687E-05
 -1        66-5.24235E-03 1.39846E-01 5.76367E-05 1.35964E-04-1.80406E-04-3.05743E-05
 -1        67-1.73263E-03 1.35585E-01-4.60932E-06 2.09929E-05-1.02582E-04-3.43705E-05
 -1        68 3.52997E-03 1.30194E-01 4.70946E-05-2.05779E-02-3.94128E-06-2.48826E-05
 -1        69 1.29886E-02 1.20736E-01 4.70953E-05-3.91414E-02-7.78619E-06-2.39612E-05
 -1        70 2.77207E-02 1.06004E-01 4.70991E-05-5.38736E-02-1.14454E-05-2.24571E-05
 -1        71 4.62843E-02 8.74400E-02 4.71051E-05-6.33322E-02-1.48213E-05-2.04084E-05
 -1        72 6.68621E-02 6.68622E-02 4.70992E-05-6.65914E-02-1.77990E-05-1.78451E-05
 -1        73 8.74400E-02 4.62843E-02 4.70853E-05-6.33322E-02-2.03503E-05-1.48096E-05
 -1        74 1.06004E-01 2.77207E-02 4.70985E-05-5.38736E-02-2.24619E-05-1.14310E-05
 -1        75 1.20736E-01 1.29886E-02 4.71112E-05-3.91414E-02-2.39942E-05-7.82425E-06
 -1        76 1.30194E-01 3.52997E-03 4.70826E-05-2.05779E-02-2.48375E-05-4.00176E-06
 -1        77 7.53577E-04 1.32481E-01-1.15550E-05-1.04318E-02 1.29043E-06 1.63965E-05
 -1        78 7.20076E-03 1.26034E-01-1.15550E-05-3.02742E-02 3.83979E-06 1.59929E-05
 -1        79 1.94640E-02 1.13770E-01-1.15556E-05-4.71531E-02 6.29499E-06 1.51966E-05
 -1        80 3.63430E-02 9.68913E-02-1.15591E-05-5.94164E-02 8.60086E-06 1.40319E-05
 -1        81 5.61854E-02 7.70489E-02-1.15613E-05-6.58636E-02 1.06887E-05 1.25238E-05
 -1        82 7.70489E-02 5.61854E-02-1.15522E-05-6.58636E-02 1.24871E-05 1.06929E-05
 -1        83 9.68913E-02 3.63430E-02-1.15500E-05-5.94164E-02 1.40137E-05 8.58192E-06
 -1        84 1.13770E-01 1.94640E-02-1.15640E-05-4.71531E-02 1.52204E-05 6.29835E-06
 -1        85 1.26034E-01 7.20075E-03-1.15609E-05-3.02741E-02 1.60029E-05 3.87033E-06
 -1        86 1.32481E-01 7.53575E-04-1.15365E-05-1.04317E-02 1.63434E-05 1.31452E-06
 -1        87 1.37919E-01-3.50133E-03 5.53704E-05 6.04758E-05-2.90658E-05-1.47976E-04
 -1        88 1.41802E-01-7.00672E-03 4.86070E-05 8.18841E-05-2.52963E-05-2.13176E-04
 -1        89 1.45962E-01-1.08904E-02 7.43777E-05 2.45326E-05-2.15195E-05-2.49110E-04
 -1        90 1.50452E-01-1.51784E-02 8.81904E-05-4.24202E-06-2.06894E-05-2.76180E-04
 -1        91 1.55321E-01-1.98800E-02 1.01231E-04-1.89170E-05-2.10156E-05-2.99605E-04
 -1        92 1.60620E-01-2.50232E-02 1.13402E-04-2.68582E-05-2.18793E-05-3.22379E-04
 -1        93 1.66406E-01-3.06504E-02 1.26139E-04-3.17324E-05-2.30237E-05-3.45941E-04
 -1        94 1.72742E-01-3.68173E-02 1.40038E-04-3.53198E-05-2.43683E-05-3.71124E-04
 -1        95 1.79701E-01-4.35919E-02 1.55612E-04-3.84701E-05-2.58698E-05-3.98479E-04
 -1        96 1.87367E-01-5.10551E-02 1.73290E-04-4.15937E-05-2.75159E-05-4.28449E-04
 -1        97 1.95841E-01-5.93028E-02 1.93519E-04-4.48967E-05-2.93063E-05-4.61461E-04
 -1        98 2.05239E-01-6.84486E-02 2.16810E-04-4.84957E-05-3.12482E-05-4.97969E-04
 -1        99 2.15701E-01-7.86276E-02 2.43773E-04-5.24708E-05-3.33528E-05-5.38491E-04
 -1       100 2.27395E-01-9.00012E-02 2.75157E-04-5.68916E-05-3.56338E-05-5.83639E-04
 -1       101 2.40521E-01-1.02764E-01 3.11901E-04-6.18303E-05-3.81065E-05-6.34137E-04
 -1       102 2.55323E-01-1.17152E-01 3.55189E-04-6.73680E-05-4.07867E-05-6.90862E-04
 -1       103 2.72100E-01-1.33452E-01 4.06538E-04-7.35999E-05-4.36897E-05-7.54882E-04
 -1       104 2.91219E-01-1.52020E-01 4.67905E-04-8.06396E-05-4.68287E-05-8.27508E-04
 -1       105 3.13137E-01-1.73296E-01 5.41856E-04-8.86245E-05-5.02117E-05-9.10365E-04
 -1       106 3.38429E-01-1.97832E-01 6.31787E-04-9.77219E-05-5.38354E-05-1.00549E-03
 -1       107 3.67824E-01-2.26330E-01 7.42270E-04-1.08137E-04-5.76803E-05-1.11546E-03
 -1       108 4.02261E-01-2.59692E-01 8.79542E-04-1.20123E-04-6.16778E-05-1.24358E-03
 -1       109 4.42962E-01-2.99087E-01 1.05232E-03-1.34001E-04-6.57480E-05-1.39411E-03
 -1       110 4.91547E-01-3.46063E-01 1.27269E-03-1.50149E-04-6.95103E-05-1.57271E-03
 -1       111 5.50190E-01-4.02695E-01 1.55966E-03-1.69027E-04-7.30307E-05-1.78672E-03
 -1       112 6.21872E-01-4.71818E-01 1.93293E-03-1.92106E-04-7.33210E-05-2.04774E-03
 -1       113 7.10786E-01-5.57377E-01 2.47065E-03-2.14457E-04-8.08897E-05-2.35679E-03
 -1       114 8.22721E-01-6.65370E-01 2.91652E-03-2.71202E-04 2.90698E-05-2.82462E-03
 -1       115 9.66036E-01-8.06555E-01 3.49568E-03-4.87946E-04 1.47245E-04-2.58085E-03
 -1       116 1.35585E-01-1.73263E-03-4.63577E-06 2.09729E-05-3.43112E-05-1.02623E-04
 -1       117 1.39846E-01-5.24233E-03 5.76336E-05 1.35945E-04-3.05729E-05-1.80416E-04
 -1       118 1.43840E-01-8.95099E-03 5.56952E-05 5.25272E-05-1.85687E-05-2.30516E-04
 -1       119 1.48154E-01-1.30486E-02 6.99501E-05 8.95712E-06-1.99587E-05-2.62371E-04
 -1       120 1.52822E-01-1.75541E-02 7.83128E-05-1.31597E-05-2.05252E-05-2.87707E-04
 -1       121 1.57895E-01-2.24844E-02 8.69710E-05-2.47497E-05-2.16255E-05-3.10849E-04
 -1       122 1.63426E-01-2.78761E-02 9.59134E-05-3.13901E-05-2.28900E-05-3.34029E-04
 -1       123 1.69474E-01-3.37796E-02 1.05687E-04-3.58412E-05-2.43181E-05-3.58400E-04
 -1       124 1.76106E-01-4.02571E-02 1.16554E-04-3.94393E-05-2.58979E-05-3.84660E-04
 -1       125 1.83401E-01-4.73837E-02 1.28767E-04-4.28278E-05-2.76326E-05-4.13309E-04
 -1       126 1.91450E-01-5.52480E-02 1.42580E-04-4.63254E-05-2.95327E-05-4.44783E-04
 -1       127 2.00362E-01-6.39551E-02 1.58273E-04-5.01025E-05-3.16155E-05-4.79522E-04
 -1       128 2.10263E-01-7.36297E-02 1.76179E-04-5.42675E-05-3.39035E-05-5.18015E-04
 -1       129 2.21306E-01-8.44207E-02 1.96692E-04-5.89073E-05-3.64247E-05-5.60824E-04
 -1       130 2.33673E-01-9.65065E-02 2.20294E-04-6.41076E-05-3.92134E-05-6.08616E-04
 -1       131 2.47586E-01-1.10103E-01 2.47575E-04-6.99640E-05-4.23114E-05-6.62194E-04
 -1       132 2.63312E-01-1.25473E-01 2.79266E-04-7.65895E-05-4.57704E-05-7.22528E-04
 -1       133 2.81181E-01-1.42940E-01 3.16276E-04-8.41209E-05-4.96546E-05-7.90808E-04
 -1       134 3.01600E-01-1.62902E-01 3.59752E-04-9.27274E-05-5.40451E-05-8.68500E-04
 -1       135 3.25080E-01-1.85858E-01 4.11148E-04-1.02620E-04-5.90458E-05-9.57437E-04
 -1       136 3.52263E-01-2.12440E-01 4.72328E-04-1.14068E-04-6.47924E-05-1.05993E-03
 -1       137 3.83972E-01-2.43453E-01 5.45710E-04-1.27412E-04-7.14611E-05-1.17891E-03
 -1       138 4.21269E-01-2.79940E-01 6.34452E-04-1.43104E-04-7.93071E-05-1.31818E-03
 -1       139 4.65549E-01-3.23271E-01 7.42717E-04-1.61728E-04-8.86275E-05-1.48270E-03
 -1       140 5.18669E-01-3.75273E-01 8.76479E-04-1.84059E-04-9.99388E-05-1.67899E-03
 -1       141 5.83148E-01-4.38424E-01 1.04045E-03-2.11621E-04-1.14633E-04-1.91665E-03
 -1       142 6.62479E-01-5.16147E-01 1.26214E-03-2.43458E-04-1.27303E-04-2.20143E-03
 -1       143 7.61552E-01-6.13358E-01 1.47187E-03-2.92811E-04-1.75767E-04-2.59436E-03
 -1       144 8.87498E-01-7.37413E-01 1.98224E-03-6.22325E-04-9.89840E-05-2.72401E-03
 -1       145 1.04202E+00-9.00753E-01 6.64480E-04-1.80437E-03 4.82772E-04-1.81542E-03
 -1       146 1.08631E+00-9.34126E-01 2.71175E-03-3.28239E-01-1.40039E-04-2.21803E-05
 -1       147 9.35431E-01-7.83251E-01 2.71175E-03-6.24348E-01-1.34847E-04-4.38105E-05
 -1       148 7.00437E-01-5.48258E-01 2.71175E-03-8.59341E-01-1.26333E-04-6.43660E-05
 -1       149 4.04329E-01-2.52149E-01 2.71175E-03-1.01022E+00-1.14707E-04-8.33403E-05
 -1       150 7.60898E-02 7.60898E-02 2.71175E-03-1.06220E+00-1.00258E-04-1.00257E-04
 -1       151-2.52149E-01 4.04329E-01 2.71175E-03-1.01022E+00-8.33393E-05-1.14707E-04
 -1       152-5.48258E-01 7.00437E-01 2.71175E-03-8.59341E-01-6.43692E-05-1.26332E-04
 -1       153-7.83251E-01 9.35431E-01 2.71175E-03-6.24348E-01-4.38141E-05-1.34846E-04
 -1       154-9.34126E-01 1.08631E+00 2.71175E-03-3.28239E-01-2.21801E-05-1.40040E-04
 -1       155 1.12157E+00-9.81820E-01 6.32247E-04-1.66572E-01-6.93225E-04-5.45584E-05
 -1       156 1.01862E+00-8.78873E-01 6.32246E-04-4.83411E-01-6.76157E-04-1.62329E-04
 -1       157 8.22805E-01-6.83056E-01 6.32247E-04-7.52930E-01-6.42434E-04-2.66111E-04
 -1       158 5.53285E-01-4.13537E-01 6.32248E-04-9.48748E-01-5.92899E-04-3.63327E-04
 -1       159 2.36446E-01-9.66977E-02 6.32247E-04-1.05169E+00-5.28762E-04-4.51606E-04
 -1       160-9.66977E-02 2.36446E-01 6.32247E-04-1.05169E+00-4.51606E-04-5.28762E-04
 -1       161-4.13537E-01 5.53285E-01 6.32247E-04-9.48748E-01-3.63329E-04-5.92899E-04
 -1       162-6.83056E-01 8.22805E-01 6.32247E-04-7.52930E-01-2.66106E-04-6.42436E-04
 -1       163-8.78873E-01 1.01862E+00 6.32247E-04-4.83411E-01-1.62330E-04-6.76155E-04
 -1       164-9.81820E-01 1.12157E+00 6.32247E-04-1.66572E-01-5.45580E-05-6.93225E-04
 -1       165-8.06555E-01 9.66036E-01 3.49568E-03-4.87946E-04 2.58085E-03-1.47245E-04
 -1       166-6.65370E-01 8.22721E-01 2.91652E-03-2.71202E-04 2.82462E-03-2.90698E-05
 -1       167-5.57377E-01 7.10786E-01 2.47065E-03-2.14457E-04 2.35679E-03 8.08897E-05
 -1       168-4.71818E-01 6.21872E-01 1.93293E-03-1.92106E-04 2.04773E-03 7.33210E-05
 -1       169-4.02695E-01 5.50190E-01 1.55966E-03-1.69027E-04 1.78672E-03 7.30307E-05
 -1       170-3.46063E-01 4.91547E-01 1.27269E-03-1.50149E-04 1.57271E-03 6.95103E-05
 -1       171-2.99087E-01 4.42962E-01 1.05232E-03-1.34001E-04 1.39411E-03 6.57480E-05
 -1       172-2.59692E-01 4.02261E-01 8.79542E-04-1.20123E-04 1.24358E-03 6.16778E-05
 -1       173-2.26330E-01 3.67824E-01 7.42270E-04-1.08137E-04 1.11546E-03 5.76803E-05
 -1       174-1.97832E-01 3.38429E-01 6.31787E-04-9.77219E-05 1.00549E-03 5.38354E-05
 -1       175-1.73296E-01 3.13137E-01 5.41856E-04-8.86245E-05 9.10365E-04 5.02117E-05
 -1       176-1.52020E-01 2.91219E-01 4.67905E-04-8.06396E-05 8.27508E-04 4.68287E-05
 -1       177-1.33452E-01 2.72100E-01 4.06538E-04-7.35999E-05 7.54882E-04 4.36897E-05
 -1       178-1.17152E-01 2.55323E-01 3.55189E-04-6.73680E-05 6.90862E-04 4.07867E-05
 -1       179-1.02764E-01 2.40521E-01 3.11901E-04-6.18303E-05 6.34137E-04 3.81065E-05
 -1       180-9.00012E-02 2.27395E-01 2.75157E-04-5.68916E-05 5.83639E-04 3.56338E-05
 -1       181-7.86276E-02 2.15701E-01 2.43773E-04-5.24707E-05 5.38491E-04 3.33528E-05
 -1       182-6.84486E-02 2.05239E-01 2.16810E-04-4.84957E-05 4.97969E-04 3.12482E-05
 -1       183-5.93028E-02 1.95841E-01 1.93519E-04-4.48966E-05 4.61461E-04 2.93063E-05
 -1       184-5.10551E-02 1.87367E-01 1.73290E-04-4.15935E-05 4.28449E-04 2.75159E-05
 -1       185-4.35919E-02 1.79701E-01 1.55612E-04-3.84699E-05 3.98479E-04 2.58698E-05
 -1       186-3.68173E-02 1.72742E-01 1.40038E-04-3.53194E-05 3.71124E-04 2.43683E-05
 -1       187-3.06504E-02 1.66406E-01 1.26139E-04-3.17317E-05 3.45941E-04 2.30237E-05
 -1       188-2.50232E-02 1.60620E-01 1.13401E-04-2.68569E-05 3.22379E-04 2.18793E-05
 -1       189-1.98800E-02 1.55321E-01 1.01231E-04-1.89144E-05 2.99605E-04 2.10157E-05
 -1       190-1.51784E-02 1.50452E-01 8.81891E-05-4.23731E-06 2.76179E-04 2.06896E-05
 -1       191-1.08904E-02 1.45962E-01 7.43767E-05 2.45414E-05 2.49107E-04 2.15200E-05
 -1       192-7.00674E-03 1.41802E-01 4.86082E-05 8.18997E-05 2.13170E-04 2.52986E-05
 -1       193-3.50134E-03 1.37919E-01 5.53817E-05 6.04972E-05 1.47970E-04 2.90676E-05
 -1       194-9.00753E-01 1.04202E+00 6.64480E-04-1.80437E-03 1.81542E-03-4.82772E-04
 -1       195-7.37413E-01 8.87498E-01 1.98224E-03-6.22325E-04 2.72401E-03 9.89841E-05
 -1       196-6.13358E-01 7.61552E-01 1.47187E-03-2.92811E-04 2.59436E-03 1.75767E-04
 -1       197-5.16147E-01 6.62479E-01 1.26214E-03-2.43458E-04 2.20143E-03 1.27303E-04
 -1       198-4.38424E-01 5.83148E-01 1.04045E-03-2.11621E-04 1.91665E-03 1.14633E-04
 -1       199-3.75273E-01 5.18669E-01 8.76479E-04-1.84059E-04 1.67899E-03 9.99388E-05
 -1       200-3.23271E-01 4.65549E-01 7.42717E-04-1.61728E-04 1.48270E-03 8.86275E-05
 -1       201-2.79940E-01 4.21269E-01 6.34452E-04-1.43104E-04 1.31818E-03 7.93071E-05
 -1       202-2.43453E-01 3.83972E-01 5.45710E-04-1.27412E-04 1.17891E-03 7.14611E-05
 -1       203-2.12440E-01 3.52263E-01 4.72328E-04-1.14068E-04 1.05993E-03 6.47924E-05
 -1       204-1.85858E-01 3.25080E-01 4.11148E-04-1.02620E-04 9.57437E-04 5.90458E-05
 -1       205-1.62902E-01 3.01600E-01 3.59752E-04-9.27274E-05 8.68500E-04 5.40451E-05
 -1       206-1.42940E-01 2.81181E-01 3.16276E-04-8.41209E-05 7.90808E-04 4.96546E-05
 -1       207-1.25473E-01 2.63312E-01 2.79266E-04-7.65894E-05 7.22528E-04 4.57704E-05
 -1       208-1.10103E-01 2.47586E-01 2.47575E-04-6.99640E-05 6.62194E-04 4.23114E-05
 -1       209-9.65065E-02 2.33673E-01 2.20294E-04-6.41076E-05 6.08617E-04 3.92134E-05
 -1       210-8.44207E-02 2.21306E-01 1.96692E-04-5.89073E-05 5.60824E-04 3.64247E-05
 -1       211-7.36297E-02 2.10263E-01 1.76179E-04-5.42675E-05 5.18015E-04 3.39035E-05
 -1       212-6.39551E-02 2.00362E-01 1.58273E-04-5.01025E-05 4.79522E-04 3.16155E-05
 -1       213-5.52480E-02 1.91450E-01 1.42580E-04-4.63253E-05 4.44783E-04 2.95327E-05
 -1       214-4.73837E-02 1.83401E-01 1.28767E-04-4.28276E-05 4.13309E-04 2.76326E-05
 -1       215-4.02571E-02 1.76106E-01 1.16554E-04-3.94389E-05 3.84660E-04 2.58979E-05
 -1       216-3.37796E-02 1.69474E-01 1.05687E-04-3.58407E-05 3.58400E-04 2.43181E-05
 -1       217-2.78761E-02 1.63426E-01 9.59132E-05-3.13891E-05 3.34028E-04 2.28900E-05
 -1       218-2.24844E-02 1.57895E-01 8.69708E-05-2.47477E-05 3.10848E-04 2.16256E-05
 -1       219-1.75541E-02 1.52822E-01 7.83123E-05-1.31561E-05 2.87706E-04 2.05252E-05
 -1       220-1.30486E-02 1.48154E-01 6.99493E-05 8.96389E-06 2.62369E-04 1.99588E-05
 -1       221-8.95102E-03 1.43840E-01 5.56934E-05 5.25393E-05 2.30512E-04 1.85687E-05
 -1       222-5.24235E-03 1.39846E-01 5.76367E-05 1.35964E-04 1.80406E-04 3.05743E-05
 -1       223-1.73263E-03 1.35585E-01-4.60932E-06 2.09929E-05 1.02582E-04 3.43705E-05
 -1       224 3.52997E-03 1.30194E-01 4.70946E-05-2.05779E-02 3.94128E-06 2.48826E-05
 -1       225 1.29886E-02 1.20736E-01 4.70953E-05-3.91414E-02 7.78619E-06 2.39612E-05
 -1       226 2.77207E-02 1.06004E-01 4.70991E-05-5.38736E-02 1.14454E-05 2.24571E-05
 -1       227 4.62843E-02 8.74400E-02 4.71051E-05-6.33322E-02 1.48213E-05 2.04084E-05
 -1       228 6.68621E-02 6.68622E-02 4.70992E-05-6.65914E-02 1.77990E-05 1.78451E-05
 -1       229 8.74400E-02 4.62843E-02 4.70853E-05-6.33322E-02 2.03503E-05 1.48096E-05
 -1       230 1.06004E-01 2.77207E-02 4.70985E-05-5.38736E-02 2.24619E-05 1.14310E-05
 -1       231 1.20736E-01 1.29886E-02 4.71112E-05-3.91414E-02 2.39942E-05 7.82425E-06
 -1       232 1.30194E-01 3.52997E-03 4.70826E-05-2.05779E-02 2.48375E-05 4.00176E-06
 -1       233 7.53577E-04 1.32481E-01-1.15550E-05-1.04318E-02-1.29043E-06-1.63965E-05
 -1       234 7.20076E-03 1.26034E-01-1.15550E-05-3.02742E-02-3.83979E-06-1.59929E-05
 -1       235 1.94640E-02 1.13770E-01-1.15556E-05-4.71531E-02-6.29499E-06-1.51966E-05
 -1       236 3.63430E-02 9.68913E-02-1.15591E-05-5.94164E-02-8.60086E-06-1.40319E-05
 -1       237 5.61854E-02 7.70489E-02-1.15613E-05-6.58636E-02-1.06887E-05-1.25238E-05
 -1       238 7.70489E-02 5.61854E-02-1.15522E-05-6.58636E-02-1.24871E-05-1.06929E-05
 -1       239 9.68913E-02 3.63430E-02-1.15500E-05-5.94164E-02-1.40137E-05-8.58192E-06
 -1       240 1.13770E-01 1.94640E-02-1.15640E-05-4.71531E-02-1.52204E-05-6.29835E-06
 -1       241 1.26034E-01 7.20075E-03-1.15609E-05-3.02741E-02-1.60029E-05-3.87033E-06
 -1       242 1.32481E-01 7.53575E-04-1.15365E-05-1.04317E-02-1.63434E-05-1.31452E-06
 -1       243 1.37919E-01-3.50133E-03 5.53704E-05 6.04758E-05 2.90658E-05 1.47976E-04
 -1       244 1.41802E-01-7.00672E-03 4.86070E-05 8.18841E-05 2.52963E-05 2.13176E-04
 -1       245 1.45962E-01-1.08904E-02 7.43777E-05 2.45326E-05 2.15195E-05 2.49110E-04
 -1       246 1.50452E-01-1.51784E-02 8.81904E-05-4.24202E-06 2.06894E-05 2.76180E-04
 -1       247 1.55321E-01-1.98800E-02 1.01231E-04-1.89170E-05 2.10156E-05 2.99605E-04
 -1       248 1.60620E-01-2.50232E-02 1.13402E-04-2.68582E-05 2.18793E-05 3.22379E-04
 -1       249 1.66406E-01-3.06504E-02 1.26139E-04-3.17324E-05 2.30237E-05 3.45941E-04
 -1       250 1.72742E-01-3.68173E-02 1.40038E-04-3.53198E-05 2.43683E-05 3.71124E-04
 -1       251 1.79701E-01-4.35919E-02 1.55612E-04-3.84701E-05 2.58698E-05 3.98479E-04
 -1       252 1.87367E-01-5.10551E-02 1.73290E-04-4.15937E-05 2.75159E-05 4.28449E-04
 -1       253 1.95841E-01-5.93028E-02 1.93519E-04-4.48967E-05 2.93063E-05 4.61461E-04
 -1       254 2.05239E-01-6.84486E-02 2.16810E-04-4.84957E-05 3.12482E-05 4.97969E-04
 -1       255 2.15701E-01-7.86276E-02 2.43773E-04-5.24708E-05 3.33528E-05 5.38491E-04
 -1       256 2.27395E-01-9.00012E-02 2.75157E-04-5.68916E-05 3.56338E-05 5.83639E-04
 -1       257 2.40521E-01-1.02764E-01 3.11901E-04-6.18303E-05 3.81065E-05 6.34137E-04
 -1       258 2.55323E-01-1.17152E-01 3.55189E-04-6.73680E-05 4.07867E-05 6.90862E-04
 -1       259 2.72100E-01-1.33452E-01 4.06538E-04-7.35999E-05 4.36897E-05 7.54882E-04
 -1       260 2.91219E-01-1.52020E-01 4.67905E-04-8.06396E-05 4.68287E-05 8.27508E-04
 -1       261 3.13137E-01-1.73296E-01 5.41856E-04-8.86245E-05 5.02117E-05 9.10365E-04
 -1       262 3.38429E-01-1.97832E-01 6.31787E-04-9.77219E-05 5.38354E-05 1.00549E-03
 -1       263 3.67824E-01-2.26330E-01 7.42270E-04-1.08137E-04 5.76803E-05 1.11546E-03
 -1       264 4.02261E-01-2.59692E-01 8.79542E-04-1.20123E-04 6.16778E-05 1.24358E-03
 -1       265 4.42962E-01-2.99087E-01 1.05232E-03-1.34001E-04 6.57480E-05 1.39411E-03
 -1       266 4.91547E-01-3.46063E-01 1.27269E-03-1.50149E-04 6.95103E-05 1.57271E-03
 -1       267 5.50190E-01-4.02695E-01 1.55966E-03-1.69027E-04 7.30307E-05 1.78672E-03
 -1       268 6.21872E-01-4.71818E-01 1.93293E-03-1.92106E-04 7.33210E-05 2.04774E-03
 -1       269 7.10786E-01-5.57377E-01 2.47065E-03-2.14457E-04 8.08897E-05 2.35679E-03
 -1       270 8.22721E-01-6.65370E-01 2.91652E-03-2.71202E-04-2.90698E-05 2.82462E-03
 -1       271 9.66036E-01-8.06555E-01 3.49568E-03-4.87946E-04-1.47245E-04 2.58085E-03
 -1       272 1.35585E-01-1.73263E-03-4.63577E-06 2.09729E-05 3.43112E-05 1.02623E-04
 -1       273 1.39846E-01-5.24233E-03 5.76336E-05 1.35945E-04 3.05729E-05 1.80416E-04
 -1       274 1.43840E-01-8.95099E-03 5.56952E-05 5.25272E-05 1.85687E-05 2.30516E-04
 -1       275 1.48154E-01-1.30486E-02 6.99501E-05 8.95712E-06 1.99587E-05 2.62371E-04
 -1       276 1.52822E-01-1.75541E-02 7.83128E-05-1.31597E-05 2.05252E-05 2.87707E-04
 -1       277 1.57895E-01-2.24844E-02 8.69710E-05-2.47497E-05 2.16255E-05 3.10849E-04
 -1       278 1.63426E-01-2.78761E-02 9.59134E-05-3.13901E-05 2.28900E-05 3.34029E-04
 -1       279 1.69474E-01-3.37796E-02 1.05687E-04-3.58412E-05 2.43181E-05 3.58400E-04
 -1       280 1.76106E-01-4.02571E-02 1.16554E-04-3.94393E-05 2.58979E-05 3.84660E-04
 -1       281 1.83401E-01-4.73837E-02 1.28767E-04-4.28278E-05 2.76326E-05 4.13309E-04
 -1       282 1.91450E-01-5.52480E-02 1.42580E-04-4.63254E-05 2.95327E-05 4.44783E-04
 -1       283 2.00362E-01-6.39551E-02 1.58273E-04-5.01025E-05 3.16155E-05 4.79522E-04
 -1       284 2.10263E-01-7.36297E-02 1.76179E-04-5.42675E-05 3.39035E-05 5.18015E-04
 -1       285 2.21306E-01-8.44207E-02 1.96692E-04-5.89073E-05 3.64247E-05 5.60824E-04
 -1       286 2.33673E-01-9.65065E-02 2.20294E-04-6.41076E-05 3.92134E-05 6.08616E-04
 -1       287 2.47586E-01-1.10103E-01 2.47575E-04-6.99640E-05 4.23114E-05 6.62194E-04
 -1       288 2.63312E-01-1.25473E-01 2.79266E-04-7.65895E-05 4.57704E-05 7.22528E-04
 -1       289 2.81181E-01-1.42940E-01 3.16276E-04-8.41209E-05 4.96546E-05 7.90808E-04
 -1       290 3.01600E-01-1.62902E-01 3.59752E-04-9.27274E-05 5.40451E-05 8.68500E-04
 -1       291 3.25080E-01-1.85858E-01 4.11148E-04-1.02620E-04 5.90458E-05 9.57437E-04
 -1       292 3.52263E-01-2.12440E-01 4.72328E-04-1.14068E-04 6.47924E-05 1.05993E-03
 -1       293 3.83972E-01-2.43453E-01 5.45710E-04-1.27412E-04 7.14611E-05 1.17891E-03
 -1       294 4.21269E-01-2.79940E-01 6.34452E-04-1.43104E-04 7.93071E-05 1.31818E-03
 -1       295 4.65549E-01-3.23271E-01 7.42717E-04-1.61728E-04 8.86275E-05 1.48270E-03
 -1       296 5.18669E-01-3.75273E-01 8.76479E-04-1.84059E-04 9.99388E-05 1.67899E-03
 -1       297 5.83148E-01-4.38424E-01 1.04045E-03-2.11621E-04 1.14633E-04 1.91665E-03
 -1       298 6.62479E-01-5.16147E-01 1.26214E-03-2.43458E-04 1.27303E-04 2.20143E-03
 -1       299 7.61552E-01-6.13358E-01 1.47187E-03-2.92811E-04 1.75767E-04 2.59436E-03
 -1       300 8.87498E-01-7.37413E-01 1.98224E-03-6.22325E-04 9.89840E-05 2.72401E-03
 -1       301 1.04202E+00-9.00753E-01 6.64480E-04-1.80437E-03-4.82772E-04 1.81542E-03
 -1       302 1.08631E+00-9.34126E-01 2.71175E-03-3.28239E-01 1.40039E-04 2.21803E-05
 -1       303 9.35431E-01-7.83251E-01 2.71175E-03-6.24348E-01 1.34847E-04 4.38105E-05
 -1       304 7.00437E-01-5.48258E-01 2.71175E-03-8.59341E-01 1.26333E-04 6.43660E-05
 -1       305 4.04329E-01-2.52149E-01 2.71175E-03-1.01022E+00 1.14707E-04 8.33403E-05
 -1       306 7.60898E-02 7.60898E-02 2.71175E-03-1.06220E+00 1.00258E-04 1.00257E-04
 -1       307-2.52149E-01 4.04329E-01 2.71175E-03-1.01022E+00 8.33393E-05 1.14707E-04
 -1       308-5.48258E-01 7.00437E-01 2.71175E-03-8.59341E-01 6.43692E-05 1.26332E-04
 -1       309-7.83251E-01 9.35431E-01 2.71175E-03-6.24348E-01 4.38141E-05 1.34846E-04
 -1       310-9.34126E-01 1.08631E+00 2.71175E-03-3.28239E-01 2.21801E-05 1.40040E-04
 -1       311 1.12157E+00-9.81820E-01 6.32247E-04-1.66572E-01 6.93225E-04 5.45584E-05
 -1       312 1.01862E+00-8.78873E-01 6.32246E-04-4.83411E-01 6.76157E-04 1.62329E-04
 -1       313 8.22805E-01-6.83056E-01 6.32247E-04-7.52930E-01 6.42434E-04 2.66111E-04
 -1       314 5.53285E-01-4.13537E-01 6.32248E-04-9.48748E-01 5.92899E-04 3.63327E-04
 -1       315 2.36446E-01-9.66977E-02 6.32247E-04-1.05169E+00 5.28762E-04 4.51606E-04
 -1       316-9.66977E-02 2.36446E-01 6.32247E-04-1.05169E+00 4.51606E-04 5.28762E-04
 -1       317-4.13537E-01 5.53285E-01 6.32247E-04-9.48748E-01 3.63329E-04 5.92899E-04
 -1       318-6.83056E-01 8.22805E-01 6.32247E-04-7.52930E-01 2.66106E-04 6.42436E-04
 -1       319-8.78873E-01 1.01862E+00 6.32247E-04-4.83411E-01 1.62330E-04 6.76155E-04
 -1       320-9.81820E-01 1.12157E+00 6.32247E-04-1.66572E-01 5.45580E-05 6.93225E-04
 -1       321-9.87031E-01 1.13842E+00 3.72421E-03 1.84026E-04-3.87532E-04-1.52745E-04
 -1       322-9.86264E-01 1.13906E+00 5.18685E-03-2.67915E-05-1.69067E-04 4.11333E-05
 -1       323-9.86088E-01 1.13925E+00 5.69530E-03-1.35440E-04-7.35652E-05 4.10450E-05
 -1       324-9.86024E-01 1.13932E+00 5.87469E-03-1.79459E-04-2.97834E-05 1.76459E-05
 -1       325-9.86005E-01 1.13934E+00 5.93377E-03-1.94444E-04-7.92121E-06 4.81154E-06
 -1       326-9.86005E-01 1.13934E+00 5.93377E-03-1.94444E-04 7.92121E-06-4.81154E-06
 -1       327-9.86024E-01 1.13932E+00 5.87469E-03-1.79459E-04 2.97834E-05-1.76459E-05
 -1       328-9.86088E-01 1.13925E+00 5.69530E-03-1.35440E-04 7.35652E-05-4.10450E-05
 -1       329-9.86264E-01 1.13906E+00 5.18685E-03-2.67915E-05 1.69067E-04-4.11333E-05
 -1       330-9.87031E-01 1.13842E+00 3.72421E-03 1.84026E-04 3.87532E-04 1.52745E-04
 -1       331-9.87089E-01 1.13814E+00 2.57930E-03 5.04631E-05-6.74791E-04-1.94077E-04
 -1       332-9.86583E-01 1.13898E+00 4.82133E-03 6.49082E-05-2.78299E-04-9.35315E-09
 -1       333-9.86199E-01 1.13930E+00 5.56873E-03-9.47399E-05-1.21316E-04 5.01001E-05
 -1       334-9.86116E-01 1.13939E+00 5.82614E-03-1.71064E-04-5.16730E-05 2.35543E-05
 -1       335-9.86087E-01 1.13942E+00 5.91968E-03-2.00566E-04-1.88516E-05 9.05610E-06
 -1       336-9.86080E-01 1.13943E+00 5.94360E-03-2.08060E-04 6.20937E-15 8.43200E-15
 -1       337-9.86087E-01 1.13942E+00 5.91968E-03-2.00566E-04 1.88516E-05-9.05610E-06
 -1       338-9.86116E-01 1.13939E+00 5.82614E-03-1.71064E-04 5.16730E-05-2.35543E-05
 -1       339-9.86199E-01 1.13930E+00 5.56873E-03-9.47399E-05 1.21316E-04-5.01001E-05
 -1       340-9.86583E-01 1.13898E+00 4.82133E-03 6.49082E-05 2.78299E-04 9.35318E-09
 -1       341-9.87089E-01 1.13814E+00 2.57930E-03 5.04631E-05 6.74791E-04 1.94077E-04
 -1       342 2.71070E-04 1.33452E-01 5.10628E-05 2.33369E-05-4.85897E-05-1.71482E-05
 -1       343 2.74409E-04 1.33452E-01 4.99936E-05 1.77299E-05-3.91378E-05-2.40496E-05
 -1       344 2.70406E-04 1.33448E-01 4.06946E-05 1.74318E-05-2.88117E-05-2.08926E-05
 -1       345 2.66262E-04 1.33445E-01 3.23782E-05 1.87370E-05-1.76453E-05-1.34268E-05
 -1       346 2.63888E-04 1.33443E-01 2.78864E-05 1.97759E-05-5.94175E-06-4.57705E-06
 -1       347 2.63888E-04 1.33443E-01 2.78864E-05 1.97759E-05 5.94175E-06 4.57705E-06
 -1       348 2.66262E-04 1.33445E-01 3.23782E-05 1.87370E-05 1.76453E-05 1.34268E-05
 -1       349 2.70406E-04 1.33448E-01 4.06946E-05 1.74318E-05 2.88117E-05 2.08926E-05
 -1       350 2.74409E-04 1.33452E-01 4.99936E-05 1.77299E-05 3.91378E-05 2.40496E-05
 -1       351 2.71070E-04 1.33452E-01 5.10628E-05 2.33369E-05 4.85897E-05 1.71482E-05
 -1       352 2.68844E-04 1.33464E-01 4.71535E-05 3.13033E-05-5.32949E-05-1.23507E-05
 -1       353 2.73958E-04 1.33466E-01 5.38782E-05 1.95741E-05-4.38638E-05-2.54330E-05
 -1       354 2.72445E-04 1.33462E-01 4.55993E-05 1.66209E-05-3.39748E-05-2.53236E-05
 -1       355 2.67950E-04 1.33458E-01 3.57444E-05 1.71243E-05-2.32285E-05-1.85506E-05
 -1       356 2.64584E-04 1.33455E-01 2.90857E-05 1.82964E-05-1.17935E-05-9.57727E-06
 -1       357 2.63385E-04 1.33454E-01 2.68126E-05 1.88158E-05-8.51062E-15-2.92765E-14
 -1       358 2.64584E-04 1.33455E-01 2.90857E-05 1.82964E-05 1.17935E-05 9.57727E-06
 -1       359 2.67950E-04 1.33458E-01 3.57444E-05 1.71243E-05 2.32285E-05 1.85506E-05
 -1       360 2.72445E-04 1.33462E-01 4.55993E-05 1.66209E-05 3.39748E-05 2.53236E-05
 -1       361 2.73958E-04 1.33466E-01 5.38782E-05 1.95741E-05 4.38638E-05 2.54330E-05
 -1       362 2.68844E-04 1.33464E-01 4.71535E-05 3.13033E-05 5.32949E-05 1.23507E-05
 -1       363 1.33452E-01 2.71205E-04 5.10900E-05 2.30926E-05-1.70932E-05-4.86092E-05
 -1       364 1.33452E-01 2.74545E-04 5.00271E-05 1.74891E-05-2.40452E-05-3.91583E-05
 -1       365 1.33448E-01 2.70544E-04 4.07333E-05 1.71930E-05-2.08892E-05-2.88257E-05
 -1       366 1.33445E-01 2.66400E-04 3.24234E-05 1.84993E-05-1.34246E-05-1.76534E-05
 -1       367 1.33443E-01 2.64027E-04 2.79355E-05 1.95387E-05-4.57631E-06-5.94441E-06
 -1       368 1.33443E-01 2.64027E-04 2.79355E-05 1.95387E-05 4.57631E-06 5.94441E-06
 -1       369 1.33445E-01 2.66400E-04 3.24234E-05 1.84993E-05 1.34246E-05 1.76534E-05
 -1       370 1.33448E-01 2.70544E-04 4.07333E-05 1.71930E-05 2.08892E-05 2.88257E-05
 -1       371 1.33452E-01 2.74545E-04 5.00271E-05 1.74891E-05 2.40452E-05 3.91583E-05
 -1       372 1.33452E-01 2.71205E-04 5.10900E-05 2.30926E-05 1.70932E-05 4.86092E-05
 -1       373 1.33464E-01 2.68909E-04 4.71473E-05 3.11719E-05-1.22447E-05-5.33112E-05
 -1       374 1.33466E-01 2.74093E-04 5.39084E-05 1.93315E-05-2.54286E-05-4.38875E-05
 -1       375 1.33463E-01 2.72582E-04 4.56337E-05 1.63811E-05-2.53195E-05-3.39920E-05
 -1       376 1.33458E-01 2.68088E-04 3.57866E-05 1.68861E-05-1.85476E-05-2.32396E-05
 -1       377 1.33456E-01 2.64723E-04 2.91337E-05 1.80590E-05-9.57571E-06-1.17989E-05
 -1       378 1.33455E-01 2.63524E-04 2.68625E-05 1.85787E-05 4.62740E-14 9.10290E-15
 -1       379 1.33456E-01 2.64723E-04 2.91337E-05 1.80590E-05 9.57571E-06 1.17989E-05
 -1       380 1.33458E-01 2.68088E-04 3.57866E-05 1.68861E-05 1.85476E-05 2.32396E-05
 -1       381 1.33463E-01 2.72582E-04 4.56337E-05 1.63811E-05 2.53195E-05 3.39920E-05
 -1       382 1.33466E-01 2.74093E-04 5.39084E-05 1.93315E-05 2.54286E-05 4.38875E-05
 -1       383 1.33464E-01 2.68909E-04 4.71473E-05 3.11719E-05 1.22447E-05 5.33112E-05
 -1       384 1.13842E+00-9.87031E-01 3.72421E-03 1.84026E-04-1.52745E-04-3.87532E-04
 -1       385 1.13906E+00-9.86264E-01 5.18685E-03-2.67914E-05 4.11333E-05-1.69067E-04
 -1       386 1.13925E+00-9.86088E-01 5.69530E-03-1.35440E-04 4.10450E-05-7.35652E-05
 -1       387 1.13932E+00-9.86024E-01 5.87469E-03-1.79458E-04 1.76459E-05-2.97834E-05
 -1       388 1.13934E+00-9.86005E-01 5.93377E-03-1.94444E-04 4.81154E-06-7.92122E-06
 -1       389 1.13934E+00-9.86005E-01 5.93377E-03-1.94444E-04-4.81154E-06 7.92122E-06
 -1       390 1.13932E+00-9.86024E-01 5.87469E-03-1.79458E-04-1.76459E-05 2.97834E-05
 -1       391 1.13925E+00-9.86088E-01 5.69530E-03-1.35440E-04-4.10450E-05 7.35652E-05
 -1       392 1.13906E+00-9.86264E-01 5.18685E-03-2.67914E-05-4.11333E-05 1.69067E-04
 -1       393 1.13842E+00-9.87031E-01 3.72421E-03 1.84026E-04 1.52745E-04 3.87532E-04
 -1       394 1.13814E+00-9.87089E-01 2.57930E-03 5.04632E-05-1.94077E-04-6.74791E-04
 -1       395 1.13898E+00-9.86583E-01 4.82133E-03 6.49082E-05-9.35684E-09-2.78299E-04
 -1       396 1.13930E+00-9.86199E-01 5.56873E-03-9.47399E-05 5.01001E-05-1.21316E-04
 -1       397 1.13939E+00-9.86116E-01 5.82614E-03-1.71064E-04 2.35543E-05-5.16730E-05
 -1       398 1.13942E+00-9.86087E-01 5.91968E-03-2.00566E-04 9.05610E-06-1.88516E-05
 -1       399 1.13943E+00-9.86080E-01 5.94360E-03-2.08060E-04 4.56214E-14-3.77894E-15
 -1       400 1.13942E+00-9.86087E-01 5.91968E-03-2.00566E-04-9.05610E-06 1.88516E-05
 -1       401 1.13939E+00-9.86116E-01 5.82614E-03-1.71064E-04-2.35543E-05 5.16730E-05
 -1       402 1.13930E+00-9.86199E-01 5.56873E-03-9.47399E-05-5.01001E-05 1.21316E-04
 -1       403 1.13898E+00-9.86583E-01 4.82133E-03 6.49082E-05 9.35685E-09 2.78299E-04
 -1       404 1.13814E+00-9.87089E-01 2.57930E-03 5.04632E-05 1.94077E-04 6.74791E-04
 -1       405-7.63177E-01 9.22658E-01 3.49568E-03-2.73880E-01 2.30342E-05 1.45432E-04
 -1       406-6.37288E-01 7.96769E-01 3.49568E-03-5.20952E-01 4.55012E-05 1.40038E-04
 -1       407-4.41211E-01 6.00692E-01 3.49568E-03-7.17028E-01 6.68478E-05 1.31196E-04
 -1       408-1.94140E-01 3.53621E-01 3.49568E-03-8.42917E-01 8.65483E-05 1.19124E-04
 -1       409 7.97406E-02 7.97406E-02 3.49568E-03-8.86296E-01 1.04118E-04 1.04118E-04
 -1       410 3.53621E-01-1.94140E-01 3.49568E-03-8.42917E-01 1.19124E-04 8.65482E-05
 -1       411 6.00692E-01-4.41211E-01 3.49568E-03-7.17028E-01 1.31196E-04 6.68479E-05
 -1       412 7.96769E-01-6.37288E-01 3.49568E-03-5.20952E-01 1.40038E-04 4.55013E-05
 -1       413 9.22658E-01-7.63177E-01 3.49568E-03-2.73880E-01 1.45432E-04 2.30341E-05
 -1       414-6.28954E-01 7.86304E-01 2.91652E-03-2.29923E-01 4.54752E-06 2.87119E-05
 -1       415-5.23270E-01 6.80620E-01 2.91652E-03-4.37339E-01 8.98307E-06 2.76470E-05
 -1       416-3.58664E-01 5.16014E-01 2.91652E-03-6.01945E-01 1.31974E-05 2.59014E-05
 -1       417-1.51248E-01 3.08598E-01 2.91652E-03-7.07629E-01 1.70868E-05 2.35180E-05
 -1       418 7.86751E-02 7.86751E-02 2.91652E-03-7.44045E-01 2.05555E-05 2.05555E-05
 -1       419 3.08598E-01-1.51248E-01 2.91652E-03-7.07629E-01 2.35179E-05 1.70868E-05
 -1       420 5.16014E-01-3.58664E-01 2.91652E-03-6.01945E-01 2.59014E-05 1.31971E-05
 -1       421 6.80620E-01-5.23270E-01 2.91652E-03-4.37339E-01 2.76472E-05 8.98286E-06
 -1       422 7.86304E-01-6.28954E-01 2.91652E-03-2.29923E-01 2.87120E-05 4.54753E-06
 -1       423-5.26343E-01 6.79752E-01 2.47065E-03-1.95942E-01-1.26539E-05-7.98938E-05
 -1       424-4.36278E-01 5.89687E-01 2.47065E-03-3.72704E-01-2.49963E-05-7.69307E-05
 -1       425-2.95999E-01 4.49408E-01 2.47065E-03-5.12983E-01-3.67232E-05-7.20733E-05
 -1       426-1.19237E-01 2.72647E-01 2.47065E-03-6.03047E-01-4.75458E-05-6.54412E-05
 -1       427 7.67046E-02 7.67046E-02 2.47065E-03-6.34081E-01-5.71977E-05-5.71977E-05
 -1       428 2.72646E-01-1.19237E-01 2.47065E-03-6.03047E-01-6.54411E-05-4.75458E-05
 -1       429 4.49408E-01-2.95999E-01 2.47065E-03-5.12983E-01-7.20733E-05-3.67231E-05
 -1       430 5.89687E-01-4.36278E-01 2.47065E-03-3.72704E-01-7.69307E-05-2.49962E-05
 -1       431 6.79752E-01-5.26343E-01 2.47065E-03-1.95942E-01-7.98939E-05-1.26539E-05
 -1       432-4.45053E-01 5.95108E-01 1.93293E-03-1.68984E-01-1.14699E-05-7.24183E-05
 -1       433-3.67379E-01 5.17434E-01 1.93293E-03-3.21427E-01-2.26574E-05-6.97324E-05
 -1       434-2.46400E-01 3.96455E-01 1.93293E-03-4.42407E-01-3.32870E-05-6.53294E-05
 -1       435-9.39570E-02 2.44012E-01 1.93293E-03-5.20080E-01-4.30970E-05-5.93179E-05
 -1       436 7.50273E-02 7.50273E-02 1.93293E-03-5.46845E-01-5.18457E-05-5.18457E-05
 -1       437 2.44012E-01-9.39570E-02 1.93293E-03-5.20080E-01-5.93179E-05-4.30970E-05
 -1       438 3.96455E-01-2.46400E-01 1.93293E-03-4.42407E-01-6.53294E-05-3.32870E-05
 -1       439 5.17434E-01-3.67379E-01 1.93293E-03-3.21427E-01-6.97324E-05-2.26574E-05
 -1       440 5.95108E-01-4.45053E-01 1.93293E-03-1.68984E-01-7.24182E-05-1.14699E-05
 -1       441-3.79376E-01 5.26871E-01 1.55966E-03-1.47229E-01-1.14245E-05-7.21316E-05
 -1       442-3.11702E-01 4.59197E-01 1.55966E-03-2.80046E-01-2.25677E-05-6.94563E-05
 -1       443-2.06298E-01 3.53793E-01 1.55966E-03-3.85450E-01-3.31552E-05-6.50708E-05
 -1       444-7.34813E-02 2.20976E-01 1.55966E-03-4.53124E-01-4.29264E-05-5.90831E-05
 -1       445 7.37475E-02 7.37475E-02 1.55966E-03-4.76442E-01-5.16405E-05-5.16405E-05
 -1       446 2.20976E-01-7.34813E-02 1.55966E-03-4.53124E-01-5.90831E-05-4.29264E-05
 -1       447 3.53793E-01-2.06298E-01 1.55966E-03-3.85450E-01-6.50708E-05-3.31552E-05
 -1       448 4.59197E-01-3.11702E-01 1.55966E-03-2.80046E-01-6.94563E-05-2.25677E-05
 -1       449 5.26871E-01-3.79376E-01 1.55966E-03-1.47229E-01-7.21316E-05-1.14245E-05
 -1       450-3.25565E-01 4.71049E-01 1.27269E-03-1.29418E-01-1.08738E-05-6.86546E-05
 -1       451-2.66079E-01 4.11562E-01 1.27269E-03-2.46167E-01-2.14799E-05-6.61083E-05
 -1       452-1.73426E-01 3.18909E-01 1.27269E-03-3.38820E-01-3.15570E-05-6.19342E-05
 -1       453-5.66762E-02 2.02160E-01 1.27269E-03-3.98307E-01-4.08572E-05-5.62351E-05
 -1       454 7.27417E-02 7.27417E-02 1.27269E-03-4.18805E-01-4.91512E-05-4.91512E-05
 -1       455 2.02160E-01-5.66762E-02 1.27269E-03-3.98307E-01-5.62351E-05-4.08572E-05
 -1       456 3.18909E-01-1.73426E-01 1.27269E-03-3.38820E-01-6.19342E-05-3.15570E-05
 -1       457 4.11562E-01-2.66079E-01 1.27269E-03-2.46167E-01-6.61083E-05-2.14799E-05
 -1       458 4.71049E-01-3.25565E-01 1.27269E-03-1.29418E-01-6.86546E-05-1.08738E-05
 -1       459-2.80928E-01 4.24803E-01 1.05232E-03-1.14653E-01-1.02853E-05-6.49385E-05
 -1       460-2.28228E-01 3.72103E-01 1.05232E-03-2.18083E-01-2.03172E-05-6.25301E-05
 -1       461-1.46145E-01 2.90021E-01 1.05232E-03-3.00165E-01-2.98490E-05-5.85819E-05
 -1       462-4.27152E-02 1.86591E-01 1.05232E-03-3.52865E-01-3.86457E-05-5.31913E-05
 -1       463 7.19377E-02 7.19377E-02 1.05232E-03-3.71025E-01-4.64909E-05-4.64909E-05
 -1       464 1.86591E-01-4.27152E-02 1.05232E-03-3.52865E-01-5.31913E-05-3.86457E-05
 -1       465 2.90021E-01-1.46145E-01 1.05232E-03-3.00165E-01-5.85819E-05-2.98490E-05
 -1       466 3.72103E-01-2.28228E-01 1.05232E-03-2.18083E-01-6.25301E-05-2.03172E-05
 -1       467 4.24803E-01-2.80928E-01 1.05232E-03-1.14653E-01-6.49385E-05-1.02853E-05
 -1       468-2.43492E-01 3.86062E-01 8.79542E-04-1.02277E-01-9.64854E-06-6.09185E-05
 -1       469-1.96481E-01 3.39050E-01 8.79542E-04-1.94543E-01-1.90595E-05-5.86591E-05
 -1       470-1.23258E-01 2.65828E-01 8.79542E-04-2.67765E-01-2.80011E-05-5.49553E-05
 -1       471-3.09926E-02 1.73562E-01 8.79542E-04-3.14777E-01-3.62533E-05-4.98984E-05
 -1       472 7.12846E-02 7.12846E-02 8.79542E-04-3.30976E-01-4.36128E-05-4.36128E-05
 -1       473 1.73562E-01-3.09926E-02 8.79542E-04-3.14777E-01-4.98984E-05-3.62533E-05
 -1       474 2.65828E-01-1.23258E-01 8.79542E-04-2.67765E-01-5.49553E-05-2.80011E-05
 -1       475 3.39050E-01-1.96481E-01 8.79542E-04-1.94543E-01-5.86591E-05-1.90595E-05
 -1       476 3.86062E-01-2.43492E-01 8.79542E-04-1.02277E-01-6.09185E-05-9.64854E-06
 -1       477-2.11790E-01 3.53284E-01 7.42270E-04-9.18019E-02-9.02318E-06-5.69701E-05
 -1       478-1.69594E-01 3.11087E-01 7.42270E-04-1.74618E-01-1.78242E-05-5.48572E-05
 -1       479-1.03871E-01 2.45364E-01 7.42270E-04-2.40340E-01-2.61863E-05-5.13935E-05
 -1       480-2.10551E-02 1.62549E-01 7.42270E-04-2.82537E-01-3.39036E-05-4.66643E-05
 -1       481 7.07468E-02 7.07468E-02 7.42270E-04-2.97077E-01-4.07861E-05-4.07861E-05
 -1       482 1.62549E-01-2.10551E-02 7.42270E-04-2.82537E-01-4.66643E-05-3.39036E-05
 -1       483 2.45364E-01-1.03871E-01 7.42270E-04-2.40340E-01-5.13935E-05-2.61863E-05
 -1       484 3.11087E-01-1.69594E-01 7.42270E-04-1.74618E-01-5.48572E-05-1.78242E-05
 -1       485 3.53284E-01-2.11790E-01 7.42270E-04-9.18019E-02-5.69701E-05-9.02318E-06
 -1       486-1.84709E-01 3.25306E-01 6.31787E-04-8.28568E-02-8.42172E-06-5.31726E-05
 -1       487-1.46624E-01 2.87220E-01 6.31787E-04-1.57603E-01-1.66361E-05-5.12005E-05
 -1       488-8.73046E-02 2.27902E-01 6.31787E-04-2.16922E-01-2.44408E-05-4.79677E-05
 -1       489-1.25584E-02 1.53155E-01 6.31787E-04-2.55007E-01-3.16437E-05-4.35538E-05
 -1       490 7.02984E-02 7.02984E-02 6.31787E-04-2.68130E-01-3.80674E-05-3.80674E-05
 -1       491 1.53155E-01-1.25584E-02 6.31787E-04-2.55007E-01-4.35538E-05-3.16437E-05
 -1       492 2.27902E-01-8.73046E-02 6.31787E-04-2.16922E-01-4.79677E-05-2.44408E-05
 -1       493 2.87220E-01-1.46624E-01 6.31787E-04-1.57603E-01-5.12005E-05-1.66361E-05
 -1       494 3.25306E-01-1.84709E-01 6.31787E-04-8.28568E-02-5.31726E-05-8.42172E-06
 -1       495-1.61392E-01 3.01233E-01 5.41856E-04-7.51580E-02-7.85483E-06-4.95935E-05
 -1       496-1.26845E-01 2.66687E-01 5.41856E-04-1.42959E-01-1.55163E-05-4.77541E-05
 -1       497-7.30383E-02 2.12880E-01 5.41856E-04-1.96766E-01-2.27956E-05-4.47389E-05
 -1       498-5.23727E-03 1.45079E-01 5.41856E-04-2.31313E-01-2.95137E-05-4.06221E-05
 -1       499 6.99207E-02 6.99207E-02 5.41856E-04-2.43216E-01-3.55050E-05-3.55050E-05
 -1       500 1.45079E-01-5.23727E-03 5.41856E-04-2.31313E-01-4.06221E-05-2.95137E-05
 -1       501 2.12880E-01-7.30383E-02 5.41856E-04-1.96766E-01-4.47389E-05-2.27956E-05
 -1       502 2.66687E-01-1.26845E-01 5.41856E-04-1.42959E-01-4.77541E-05-1.55163E-05
 -1       503 3.01233E-01-1.61392E-01 5.41856E-04-7.51580E-02-4.95935E-05-7.85483E-06
 -1       504-1.41173E-01 2.80372E-01 4.67905E-04-6.84842E-02-7.32562E-06-4.62521E-05
 -1       505-1.09695E-01 2.48894E-01 4.67905E-04-1.30265E-01-1.44709E-05-4.45367E-05
 -1       506-6.06653E-02 1.99864E-01 4.67905E-04-1.79294E-01-2.12598E-05-4.17247E-05
 -1       507 1.11525E-03 1.38084E-01 4.67905E-04-2.10773E-01-2.75252E-05-3.78852E-05
 -1       508 6.95995E-02 6.95995E-02 4.67905E-04-2.21620E-01-3.31129E-05-3.31129E-05
 -1       509 1.38084E-01 1.11525E-03 4.67905E-04-2.10773E-01-3.78852E-05-2.75252E-05
 -1       510 1.99864E-01-6.06653E-02 4.67905E-04-1.79294E-01-4.17247E-05-2.12598E-05
 -1       511 2.48894E-01-1.09695E-01 4.67906E-04-1.30265E-01-4.45367E-05-1.44709E-05
 -1       512 2.80372E-01-1.41173E-01 4.67905E-04-6.84842E-02-4.62521E-05-7.32562E-06
 -1       513-1.23528E-01 2.62176E-01 4.06538E-04-6.26613E-02-6.83457E-06-4.31518E-05
 -1       514-9.47256E-02 2.33373E-01 4.06538E-04-1.19189E-01-1.35009E-05-4.15514E-05
 -1       515-4.98650E-02 1.88513E-01 4.06538E-04-1.64050E-01-1.98347E-05-3.89278E-05
 -1       516 6.66258E-03 1.31985E-01 4.06538E-04-1.92852E-01-2.56802E-05-3.53457E-05
 -1       517 6.93239E-02 6.93239E-02 4.06538E-04-2.02776E-01-3.08933E-05-3.08933E-05
 -1       518 1.31985E-01 6.66258E-03 4.06538E-04-1.92852E-01-3.53457E-05-2.56802E-05
 -1       519 1.88513E-01-4.98650E-02 4.06538E-04-1.64050E-01-3.89278E-05-1.98347E-05
 -1       520 2.33373E-01-9.47256E-02 4.06538E-04-1.19189E-01-4.15514E-05-1.35009E-05
 -1       521 2.62176E-01-1.23528E-01 4.06538E-04-6.26613E-02-4.31518E-05-6.83458E-06
 -1       522-1.08037E-01 2.46208E-01 3.55189E-04-5.75506E-02-6.38045E-06-4.02845E-05
 -1       523-8.15837E-02 2.19755E-01 3.55189E-04-1.09468E-01-1.26038E-05-3.87905E-05
 -1       524-4.03820E-02 1.78553E-01 3.55189E-04-1.50669E-01-1.85168E-05-3.63412E-05
 -1       525 1.15351E-02 1.26636E-01 3.55189E-04-1.77123E-01-2.39738E-05-3.29971E-05
 -1       526 6.90857E-02 6.90857E-02 3.55189E-04-1.86238E-01-2.88406E-05-2.88405E-05
 -1       527 1.26636E-01 1.15351E-02 3.55189E-04-1.77123E-01-3.29971E-05-2.39738E-05
 -1       528 1.78553E-01-4.03820E-02 3.55189E-04-1.50669E-01-3.63412E-05-1.85168E-05
 -1       529 2.19755E-01-8.15837E-02 3.55189E-04-1.09468E-01-3.87905E-05-1.26038E-05
 -1       530 2.46208E-01-1.08037E-01 3.55189E-04-5.75506E-02-4.02845E-05-6.38045E-06
 -1       531-9.43634E-02 2.32120E-01 3.11901E-04-5.30404E-02-5.96118E-06-3.76374E-05
 -1       532-6.99833E-02 2.07740E-01 3.11901E-04-1.00889E-01-1.17756E-05-3.62415E-05
 -1       533-3.20106E-02 1.69767E-01 3.11901E-04-1.38862E-01-1.73000E-05-3.39532E-05
 -1       534 1.58379E-02 1.21919E-01 3.11901E-04-1.63242E-01-2.23985E-05-3.08288E-05
 -1       535 6.88784E-02 6.88784E-02 3.11901E-04-1.71642E-01-2.69454E-05-2.69454E-05
 -1       536 1.21919E-01 1.58379E-02 3.11901E-04-1.63242E-01-3.08288E-05-2.23985E-05
 -1       537 1.69767E-01-3.20106E-02 3.11901E-04-1.38862E-01-3.39532E-05-1.73000E-05
 -1       538 2.07740E-01-6.99833E-02 3.11901E-04-1.00889E-01-3.62415E-05-1.17756E-05
 -1       539 2.32120E-01-9.43634E-02 3.11901E-04-5.30404E-02-3.76374E-05-5.96118E-06
 -1       540-8.22340E-02 2.19627E-01 2.75157E-04-4.90404E-02-5.57436E-06-3.51951E-05
 -1       541-5.96926E-02 1.97086E-01 2.75157E-04-9.32803E-02-1.10115E-05-3.38898E-05
 -1       542-2.45836E-02 1.61977E-01 2.75157E-04-1.28389E-01-1.61774E-05-3.17500E-05
 -1       543 1.96564E-02 1.17737E-01 2.75157E-04-1.50931E-01-2.09450E-05-2.88284E-05
 -1       544 6.86967E-02 6.86967E-02 2.75157E-04-1.58698E-01-2.51969E-05-2.51969E-05
 -1       545 1.17737E-01 1.96564E-02 2.75157E-04-1.50931E-01-2.88284E-05-2.09450E-05
 -1       546 1.61977E-01-2.45836E-02 2.75157E-04-1.28389E-01-3.17500E-05-1.61774E-05
 -1       547 1.97086E-01-5.96926E-02 2.75157E-04-9.32803E-02-3.38898E-05-1.10115E-05
 -1       548 2.19627E-01-8.22340E-02 2.75157E-04-4.90404E-02-3.51951E-05-5.57436E-06
 -1       549-7.14248E-02 2.08498E-01 2.43773E-04-4.54763E-02-5.21752E-06-3.29422E-05
 -1       550-5.05217E-02 1.87595E-01 2.43773E-04-8.65010E-02-1.03066E-05-3.17204E-05
 -1       551-1.79643E-02 1.55038E-01 2.43773E-04-1.19058E-01-1.51418E-05-2.97175E-05
 -1       552 2.30605E-02 1.14013E-01 2.43773E-04-1.39962E-01-1.96043E-05-2.69830E-05
 -1       553 6.85367E-02 6.85367E-02 2.43773E-04-1.47164E-01-2.35840E-05-2.35840E-05
 -1       554 1.14013E-01 2.30605E-02 2.43773E-04-1.39962E-01-2.69830E-05-1.96043E-05
 -1       555 1.55038E-01-1.79643E-02 2.43773E-04-1.19058E-01-2.97175E-05-1.51418E-05
 -1       556 1.87595E-01-5.05217E-02 2.43773E-04-8.65010E-02-3.17204E-05-1.03066E-05
 -1       557 2.08498E-01-7.14248E-02 2.43773E-04-4.54763E-02-3.29422E-05-5.21753E-06
 -1       558-6.17510E-02 1.98541E-01 2.16810E-04-4.22870E-02-4.88829E-06-3.08635E-05
 -1       559-4.23138E-02 1.79104E-01 2.16810E-04-8.04347E-02-9.65622E-06-2.97188E-05
 -1       560-1.20397E-02 1.48830E-01 2.16810E-04-1.10709E-01-1.41864E-05-2.78423E-05
 -1       561 2.61080E-02 1.10682E-01 2.16810E-04-1.30146E-01-1.83672E-05-2.52803E-05
 -1       562 6.83950E-02 6.83950E-02 2.16810E-04-1.36844E-01-2.20958E-05-2.20958E-05
 -1       563 1.10682E-01 2.61080E-02 2.16810E-04-1.30146E-01-2.52803E-05-1.83672E-05
 -1       564 1.48830E-01-1.20397E-02 2.16810E-04-1.10709E-01-2.78423E-05-1.41864E-05
 -1       565 1.79104E-01-4.23138E-02 2.16810E-04-8.04347E-02-2.97188E-05-9.65622E-06
 -1       566 1.98541E-01-6.17510E-02 2.16810E-04-4.22870E-02-3.08635E-05-4.88829E-06
 -1       567-5.30590E-02 1.89597E-01 1.93519E-04-3.94218E-02-4.58452E-06-2.89455E-05
 -1       568-3.49388E-02 1.71476E-01 1.93519E-04-7.49847E-02-9.05615E-06-2.78720E-05
 -1       569-6.71590E-03 1.43254E-01 1.93519E-04-1.03208E-01-1.33048E-05-2.61121E-05
 -1       570 2.88470E-02 1.07691E-01 1.93519E-04-1.21328E-01-1.72258E-05-2.37093E-05
 -1       571 6.82688E-02 6.82688E-02 1.93519E-04-1.27572E-01-2.07227E-05-2.07227E-05
 -1       572 1.07691E-01 2.88470E-02 1.93519E-04-1.21328E-01-2.37093E-05-1.72258E-05
 -1       573 1.43254E-01-6.71590E-03 1.93519E-04-1.03208E-01-2.61121E-05-1.33048E-05
 -1       574 1.71476E-01-3.49388E-02 1.93519E-04-7.49847E-02-2.78720E-05-9.05615E-06
 -1       575 1.89597E-01-5.30590E-02 1.93519E-04-3.94218E-02-2.89455E-05-4.58452E-06
 -1       576-4.52205E-02 1.81532E-01 1.73290E-04-3.68382E-02-4.30444E-06-2.71772E-05
 -1       577-2.82878E-02 1.64600E-01 1.73290E-04-7.00705E-02-8.50289E-06-2.61692E-05
 -1       578-1.91455E-03 1.38226E-01 1.73290E-04-9.64438E-02-1.24920E-05-2.45169E-05
 -1       579 3.13177E-02 1.04994E-01 1.73290E-04-1.13376E-01-1.61735E-05-2.22609E-05
 -1       580 6.81560E-02 6.81560E-02 1.73290E-04-1.19211E-01-1.94567E-05-1.94567E-05
 -1       581 1.04994E-01 3.13177E-02 1.73290E-04-1.13376E-01-2.22609E-05-1.61735E-05
 -1       582 1.38226E-01-1.91455E-03 1.73290E-04-9.64438E-02-2.45169E-05-1.24920E-05
 -1       583 1.64600E-01-2.82878E-02 1.73290E-04-7.00705E-02-2.61692E-05-8.50289E-06
 -1       584 1.81532E-01-4.52205E-02 1.73290E-04-3.68382E-02-2.71772E-05-4.30444E-06
 -1       585-3.81275E-02 1.74236E-01 1.55612E-04-3.45006E-02-4.04693E-06-2.55513E-05
 -1       586-2.22693E-02 1.58378E-01 1.55612E-04-6.56241E-02-7.99421E-06-2.46037E-05
 -1       587 2.43036E-03 1.33678E-01 1.55612E-04-9.03238E-02-1.17447E-05-2.30502E-05
 -1       588 3.35538E-02 1.02555E-01 1.55612E-04-1.06182E-01-1.52059E-05-2.09291E-05
 -1       589 6.80544E-02 6.80544E-02 1.55612E-04-1.11646E-01-1.82927E-05-1.82927E-05
 -1       590 1.02555E-01 3.35538E-02 1.55612E-04-1.06182E-01-2.09291E-05-1.52059E-05
 -1       591 1.33678E-01 2.43036E-03 1.55612E-04-9.03238E-02-2.30502E-05-1.17446E-05
 -1       592 1.58378E-01-2.22693E-02 1.55612E-04-6.56241E-02-2.46037E-05-7.99422E-06
 -1       593 1.74236E-01-3.81275E-02 1.55612E-04-3.45006E-02-2.55513E-05-4.04694E-06
 -1       594-3.16890E-02 1.67614E-01 1.40038E-04-3.23787E-02-3.81205E-06-2.40683E-05
 -1       595-1.68062E-02 1.52731E-01 1.40038E-04-6.15879E-02-7.53023E-06-2.31757E-05
 -1       596 6.37441E-03 1.29550E-01 1.40038E-04-8.47685E-02-1.10630E-05-2.17124E-05
 -1       597 3.55837E-02 1.00341E-01 1.40038E-04-9.96514E-02-1.43234E-05-1.97144E-05
 -1       598 6.79623E-02 6.79623E-02 1.40038E-04-1.04780E-01-1.72310E-05-1.72310E-05
 -1       599 1.00341E-01 3.55837E-02 1.40038E-04-9.96514E-02-1.97144E-05-1.43234E-05
 -1       600 1.29550E-01 6.37441E-03 1.40038E-04-8.47685E-02-2.17124E-05-1.10630E-05
 -1       601 1.52731E-01-1.68062E-02 1.40038E-04-6.15879E-02-2.31757E-05-7.53024E-06
 -1       602 1.67614E-01-3.16890E-02 1.40038E-04-3.23787E-02-2.40683E-05-3.81206E-06
 -1       603-2.58281E-02 1.61584E-01 1.26139E-04-3.04469E-02-3.60171E-06-2.27403E-05
 -1       604-1.18332E-02 1.47589E-01 1.26139E-04-5.79135E-02-7.11473E-06-2.18969E-05
 -1       605 9.96441E-03 1.25791E-01 1.26139E-04-7.97110E-02-1.04526E-05-2.05143E-05
 -1       606 3.74310E-02 9.83248E-02 1.26139E-04-9.37059E-02-1.35330E-05-1.86266E-05
 -1       607 6.78779E-02 6.78779E-02 1.26139E-04-9.85283E-02-1.62802E-05-1.62803E-05
 -1       608 9.83248E-02 3.74310E-02 1.26139E-04-9.37059E-02-1.86266E-05-1.35330E-05
 -1       609 1.25791E-01 9.96441E-03 1.26139E-04-7.97110E-02-2.05143E-05-1.04525E-05
 -1       610 1.47589E-01-1.18332E-02 1.26139E-04-5.79135E-02-2.18969E-05-7.11474E-06
 -1       611 1.61584E-01-2.58281E-02 1.26139E-04-3.04469E-02-2.27403E-05-3.60173E-06
 -1       612-2.04802E-02 1.56077E-01 1.13401E-04-2.86835E-02-3.42268E-06-2.16100E-05
 -1       613-7.29584E-03 1.42893E-01 1.13401E-04-5.45592E-02-6.76109E-06-2.08085E-05
 -1       614 1.32393E-02 1.22358E-01 1.13401E-04-7.50943E-02-9.93302E-06-1.94946E-05
 -1       615 3.91150E-02 9.64819E-02 1.13401E-04-8.82787E-02-1.28604E-05-1.77008E-05
 -1       616 6.77985E-02 6.77985E-02 1.13401E-04-9.28217E-02-1.54710E-05-1.54710E-05
 -1       617 9.64819E-02 3.91150E-02 1.13401E-04-8.82787E-02-1.77007E-05-1.28603E-05
 -1       618 1.22358E-01 1.32393E-02 1.13401E-04-7.50943E-02-1.94947E-05-9.93299E-06
 -1       619 1.42893E-01-7.29584E-03 1.13401E-04-5.45592E-02-2.08085E-05-6.76110E-06
 -1       620 1.56077E-01-2.04802E-02 1.13401E-04-2.86835E-02-2.16100E-05-3.42272E-06
 -1       621-1.55926E-02 1.51033E-01 1.01231E-04-2.70700E-02-3.28758E-06-2.07570E-05
 -1       622-3.14985E-03 1.38591E-01 1.01231E-04-5.14902E-02-6.49421E-06-1.99871E-05
 -1       623 1.62301E-02 1.19211E-01 1.01231E-04-7.08702E-02-9.54094E-06-1.87251E-05
 -1       624 4.06503E-02 9.47904E-02 1.01230E-04-8.33129E-02-1.23527E-05-1.70021E-05
 -1       625 6.77204E-02 6.77204E-02 1.01231E-04-8.76004E-02-1.48603E-05-1.48604E-05
 -1       626 9.47904E-02 4.06503E-02 1.01231E-04-8.33129E-02-1.70020E-05-1.23527E-05
 -1       627 1.19211E-01 1.62301E-02 1.01231E-04-7.08702E-02-1.87251E-05-9.54088E-06
 -1       628 1.38591E-01-3.14986E-03 1.01230E-04-5.14902E-02-1.99872E-05-6.49425E-06
 -1       629 1.51033E-01-1.55926E-02 1.01231E-04-2.70700E-02-2.07569E-05-3.28770E-06
 -1       630-1.11251E-02 1.46398E-01 8.81891E-05-2.55912E-02-3.23657E-06-2.04349E-05
 -1       631 6.37891E-04 1.34635E-01 8.81892E-05-4.86774E-02-6.39344E-06-1.96770E-05
 -1       632 1.89592E-02 1.16314E-01 8.81891E-05-6.69987E-02-9.39291E-06-1.84345E-05
 -1       633 4.20454E-02 9.32279E-02 8.81888E-05-7.87618E-02-1.21611E-05-1.67382E-05
 -1       634 6.76366E-02 6.76366E-02 8.81890E-05-8.28150E-02-1.46298E-05-1.46298E-05
 -1       635 9.32279E-02 4.20454E-02 8.81896E-05-7.87617E-02-1.67382E-05-1.21609E-05
 -1       636 1.16314E-01 1.89592E-02 8.81891E-05-6.69987E-02-1.84346E-05-9.39277E-06
 -1       637 1.34635E-01 6.37882E-04 8.81884E-05-4.86774E-02-1.96771E-05-6.39341E-06
 -1       638 1.46398E-01-1.11251E-02 8.81893E-05-2.55912E-02-2.04348E-05-3.23659E-06
 -1       639-7.05194E-03 1.42124E-01 7.43767E-05-2.42351E-02-3.36646E-06-2.12550E-05
 -1       640 4.08770E-03 1.30984E-01 7.43767E-05-4.60979E-02-6.65002E-06-2.04667E-05
 -1       641 2.14381E-02 1.13634E-01 7.43766E-05-6.34483E-02-9.76988E-06-1.91744E-05
 -1       642 4.33009E-02 9.17711E-02 7.43764E-05-7.45879E-02-1.26491E-05-1.74102E-05
 -1       643 6.75360E-02 6.75360E-02 7.43767E-05-7.84264E-02-1.52165E-05-1.52174E-05
 -1       644 9.17711E-02 4.33009E-02 7.43770E-05-7.45879E-02-1.74097E-05-1.26493E-05
 -1       645 1.13634E-01 2.14381E-02 7.43766E-05-6.34483E-02-1.91745E-05-9.76971E-06
 -1       646 1.30984E-01 4.08769E-03 7.43761E-05-4.60979E-02-2.04668E-05-6.65056E-06
 -1       647 1.42124E-01-7.05194E-03 7.43770E-05-2.42351E-02-2.12548E-05-3.36759E-06
 -1       648-3.36513E-03 1.38161E-01 4.86082E-05-2.29922E-02-3.95759E-06-2.49872E-05
 -1       649 7.20325E-03 1.27592E-01 4.86082E-05-4.37339E-02-7.81782E-06-2.40604E-05
 -1       650 2.36639E-02 1.11132E-01 4.86083E-05-6.01945E-02-1.14857E-05-2.25412E-05
 -1       651 4.44055E-02 9.03900E-02 4.86085E-05-7.07629E-02-1.48712E-05-2.04671E-05
 -1       652 6.73977E-02 6.73977E-02 4.86082E-05-7.44045E-02-1.78902E-05-1.78878E-05
 -1       653 9.03900E-02 4.44055E-02 4.86079E-05-7.07629E-02-2.04674E-05-1.48685E-05
 -1       654 1.11132E-01 2.36639E-02 4.86083E-05-6.01945E-02-2.25418E-05-1.14845E-05
 -1       655 1.27592E-01 7.20324E-03 4.86087E-05-4.37339E-02-2.40621E-05-7.81629E-06
 -1       656 1.38161E-01-3.36512E-03 4.86077E-05-2.29923E-02-2.49869E-05-3.95511E-06
 -1       657-4.05254E-05 1.34459E-01 5.53818E-05-2.18507E-02-4.54715E-06-2.87098E-05
 -1       658 1.00031E-02 1.24415E-01 5.53821E-05-4.15625E-02-8.98214E-06-2.76450E-05
 -1       659 2.56465E-02 1.08772E-01 5.53831E-05-5.72059E-02-1.31960E-05-2.58999E-05
 -1       660 4.53583E-02 8.90597E-02 5.53847E-05-6.72495E-02-1.70839E-05-2.35182E-05
 -1       661 6.72090E-02 6.72090E-02 5.53832E-05-7.07104E-02-2.05483E-05-2.05596E-05
 -1       662 8.90597E-02 4.53583E-02 5.53794E-05-6.72496E-02-2.35122E-05-1.70904E-05
 -1       663 1.08772E-01 2.56465E-02 5.53826E-05-5.72059E-02-2.58992E-05-1.31974E-05
 -1       664 1.24415E-01 1.00031E-02 5.53857E-05-4.15625E-02-2.76435E-05-8.98995E-06
 -1       665 1.34459E-01-4.05202E-05 5.53778E-05-2.18507E-02-2.87070E-05-4.56057E-06
 -1       666-8.04914E-01 9.37138E-01 2.38102E-04-1.37957E-01-1.52990E-06-1.94392E-05
 -1       667-8.53210E-01 9.94474E-01 6.64480E-04-3.00174E-01 7.55222E-05 4.76828E-04
 -1       669-7.19652E-01 8.51876E-01 2.38102E-04-4.00367E-01-4.55204E-06-1.89606E-05
 -1       670-7.15235E-01 8.56499E-01 6.64480E-04-5.70966E-01 1.49185E-04 4.59143E-04
 -1       672-5.57474E-01 6.89698E-01 2.38102E-04-6.23586E-01-7.46208E-06-1.80151E-05
 -1       673-5.00334E-01 6.41598E-01 6.64480E-04-7.85867E-01 2.19174E-04 4.30153E-04
 -1       675-3.34255E-01 4.66479E-01 2.38102E-04-7.85764E-01-1.01884E-05-1.66259E-05
 -1       676-2.29543E-01 3.70806E-01 6.64480E-04-9.23842E-01 2.83766E-04 3.90571E-04
 -1       678-7.18452E-02 2.04069E-01 2.38102E-04-8.71026E-01-1.26638E-05-1.48274E-05
 -1       679 7.06318E-02 7.06318E-02 6.64480E-04-9.71385E-01 3.41371E-04 3.41371E-04
 -1       681 2.04069E-01-7.18452E-02 2.38102E-04-8.71026E-01-1.48274E-05-1.26639E-05
 -1       682 3.70806E-01-2.29543E-01 6.64480E-04-9.23842E-01 3.90570E-04 2.83766E-04
 -1       684 4.66479E-01-3.34255E-01 2.38102E-04-7.85764E-01-1.66262E-05-1.01882E-05
 -1       685 6.41598E-01-5.00334E-01 6.64479E-04-7.85867E-01 4.30152E-04 2.19174E-04
 -1       687 6.89698E-01-5.57474E-01 2.38102E-04-6.23586E-01-1.80149E-05-7.46244E-06
 -1       688 8.56499E-01-7.15235E-01 6.64481E-04-5.70966E-01 4.59144E-04 1.49185E-04
 -1       690 8.51876E-01-7.19652E-01 2.38101E-04-4.00367E-01-1.89605E-05-4.55167E-06
 -1       691 9.94474E-01-8.53210E-01 6.64480E-04-3.00174E-01 4.76829E-04 7.55227E-05
 -1       693 9.37138E-01-8.04914E-01 2.38102E-04-1.37957E-01-1.94392E-05-1.52998E-06
 -1       695-6.67624E-01 7.97545E-01 2.73143E-05-1.16030E-01 1.03299E-05 1.31254E-04
 -1       696-6.97649E-01 8.47734E-01 1.98224E-03-2.51063E-01-1.54845E-05-9.77654E-05
 -1       698-5.95913E-01 7.25834E-01 2.73143E-05-3.36732E-01 3.07354E-05 1.28022E-04
 -1       699-5.82248E-01 7.32333E-01 1.98224E-03-4.77550E-01-3.05878E-05-9.41395E-05
 -1       701-4.59512E-01 5.89433E-01 2.73143E-05-5.24472E-01 5.03841E-05 1.21638E-04
 -1       702-4.02507E-01 5.52592E-01 1.98224E-03-6.57291E-01-4.49378E-05-8.81955E-05
 -1       704-2.71772E-01 4.01692E-01 2.73143E-05-6.60874E-01 6.87921E-05 1.12259E-04
 -1       705-1.76020E-01 3.26105E-01 1.98224E-03-7.72691E-01-5.81814E-05-8.00798E-05
 -1       707-5.10696E-02 1.80990E-01 2.73143E-05-7.32584E-01 8.55063E-05 1.00115E-04
 -1       708 7.50423E-02 7.50423E-02 1.98224E-03-8.12456E-01-6.99923E-05-6.99923E-05
 -1       710 1.80990E-01-5.10696E-02 2.73144E-05-7.32584E-01 1.00115E-04 8.55063E-05
 -1       711 3.26105E-01-1.76020E-01 1.98224E-03-7.72691E-01-8.00797E-05-5.81814E-05
 -1       713 4.01692E-01-2.71772E-01 2.73143E-05-6.60874E-01 1.12259E-04 6.87921E-05
 -1       714 5.52592E-01-4.02507E-01 1.98224E-03-6.57291E-01-8.81956E-05-4.49374E-05
 -1       716 5.89433E-01-4.59512E-01 2.73143E-05-5.24472E-01 1.21638E-04 5.03844E-05
 -1       717 7.32333E-01-5.82248E-01 1.98224E-03-4.77550E-01-9.41397E-05-3.05874E-05
 -1       719 7.25834E-01-5.95913E-01 2.73144E-05-3.36732E-01 1.28022E-04 3.07353E-05
 -1       720 8.47734E-01-6.97649E-01 1.98224E-03-2.51063E-01-9.77655E-05-1.54846E-05
 -1       722 7.97545E-01-6.67624E-01 2.73143E-05-1.16030E-01 1.31254E-04 1.03299E-05
 -1       724-5.59650E-01 6.89168E-01-1.67179E-04-9.88967E-02 7.91664E-06 1.00590E-04
 -1       725-5.79711E-01 7.27905E-01 1.47187E-03-2.12435E-01-2.74960E-05-1.73603E-04
 -1       727-4.98529E-01 6.28046E-01-1.67179E-04-2.87009E-01 2.35550E-05 9.81136E-05
 -1       728-4.82066E-01 6.30260E-01 1.47187E-03-4.04076E-01-5.43149E-05-1.67164E-04
 -1       730-3.82269E-01 5.11786E-01-1.67179E-04-4.47027E-01 3.86133E-05 9.32209E-05
 -1       731-3.29979E-01 4.78173E-01 1.47187E-03-5.56163E-01-7.97964E-05-1.56609E-04
 -1       733-2.22250E-01 3.51768E-01-1.67179E-04-5.63287E-01 5.27209E-05 8.60327E-05
 -1       734-1.38338E-01 2.86532E-01 1.47187E-03-6.53808E-01-1.03313E-04-1.42198E-04
 -1       736-3.41379E-02 1.63655E-01-1.67179E-04-6.24409E-01 6.55303E-05 7.67261E-05
 -1       737 7.40970E-02 7.40970E-02 1.47187E-03-6.87455E-01-1.24286E-04-1.24286E-04
 -1       739 1.63655E-01-3.41379E-02-1.67180E-04-6.24409E-01 7.67261E-05 6.55303E-05
 -1       740 2.86532E-01-1.38338E-01 1.47187E-03-6.53808E-01-1.42198E-04-1.03313E-04
 -1       742 3.51768E-01-2.22250E-01-1.67179E-04-5.63287E-01 8.60327E-05 5.27209E-05
 -1       743 4.78173E-01-3.29979E-01 1.47187E-03-5.56163E-01-1.56609E-04-7.97965E-05
 -1       745 5.11786E-01-3.82269E-01-1.67179E-04-4.47027E-01 9.32209E-05 3.86133E-05
 -1       746 6.30260E-01-4.82066E-01 1.47187E-03-4.04076E-01-1.67164E-04-5.43150E-05
 -1       748 6.28046E-01-4.98529E-01-1.67180E-04-2.87009E-01 9.81136E-05 2.35550E-05
 -1       749 7.27905E-01-5.79711E-01 1.47187E-03-2.12435E-01-1.73603E-04-2.74960E-05
 -1       751 6.89168E-01-5.59650E-01-1.67179E-04-9.88967E-02 1.00590E-04 7.91664E-06
 -1       753-4.73713E-01 6.03301E-01-1.70149E-04-8.52912E-02 6.81619E-06 8.66079E-05
 -1       754-4.87304E-01 6.33636E-01 1.26214E-03-1.82108E-01-1.99145E-05-1.25735E-04
 -1       756-4.21001E-01 5.50588E-01-1.70149E-04-2.47525E-01 2.02807E-05 8.44753E-05
 -1       757-4.03598E-01 5.49930E-01 1.26214E-03-3.46389E-01-3.93387E-05-1.21072E-04
 -1       759-3.20735E-01 4.50322E-01-1.70149E-04-3.85529E-01 3.32459E-05 8.02627E-05
 -1       760-2.73223E-01 4.19556E-01 1.26214E-03-4.76764E-01-5.77943E-05-1.13428E-04
 -1       762-1.82731E-01 3.12318E-01-1.70149E-04-4.85794E-01 4.53924E-05 7.40737E-05
 -1       763-1.08942E-01 2.55274E-01 1.26214E-03-5.60470E-01-7.48267E-05-1.02990E-04
 -1       765-2.04973E-02 1.50085E-01-1.70149E-04-5.38507E-01 5.64213E-05 6.60608E-05
 -1       766 7.31662E-02 7.31662E-02 1.26214E-03-5.89313E-01-9.00167E-05-9.00167E-05
 -1       768 1.50085E-01-2.04973E-02-1.70149E-04-5.38507E-01 6.60608E-05 5.64213E-05
 -1       769 2.55274E-01-1.08942E-01 1.26214E-03-5.60470E-01-1.02990E-04-7.48267E-05
 -1       771 3.12318E-01-1.82731E-01-1.70149E-04-4.85794E-01 7.40737E-05 4.53924E-05
 -1       772 4.19556E-01-2.73223E-01 1.26214E-03-4.76764E-01-1.13428E-04-5.77942E-05
 -1       774 4.50322E-01-3.20735E-01-1.70149E-04-3.85529E-01 8.02627E-05 3.32459E-05
 -1       775 5.49930E-01-4.03598E-01 1.26214E-03-3.46389E-01-1.21072E-04-3.93387E-05
 -1       777 5.50588E-01-4.21001E-01-1.70149E-04-2.47525E-01 8.44753E-05 2.02807E-05
 -1       778 6.33636E-01-4.87304E-01 1.26214E-03-1.82108E-01-1.25735E-04-1.99145E-05
 -1       780 6.03301E-01-4.73713E-01-1.70149E-04-8.52912E-02 8.66079E-05 6.81619E-06
 -1       782-4.04301E-01 5.34053E-01-1.77096E-04-7.43103E-02 5.49334E-06 6.97995E-05
 -1       783-4.13424E-01 5.58148E-01 1.04045E-03-1.57841E-01-1.79326E-05-1.13222E-04
 -1       785-3.58375E-01 4.88126E-01-1.77096E-04-2.15657E-01 1.63448E-05 6.80809E-05
 -1       786-3.40873E-01 4.85596E-01 1.04045E-03-3.00232E-01-3.54236E-05-1.09023E-04
 -1       788-2.71018E-01 4.00769E-01-1.77096E-04-3.35894E-01 2.67937E-05 6.46858E-05
 -1       789-2.27871E-01 3.72594E-01 1.04045E-03-4.13234E-01-5.20424E-05-1.02139E-04
 -1       791-1.50781E-01 2.80533E-01-1.77096E-04-4.23251E-01 3.65829E-05 5.96979E-05
 -1       792-8.54797E-02 2.30203E-01 1.04045E-03-4.85786E-01-6.73798E-05-9.27403E-05
 -1       794-9.43459E-03 1.39186E-01-1.77096E-04-4.69177E-01 4.54714E-05 5.32401E-05
 -1       795 7.23618E-02 7.23618E-02 1.04045E-03-5.10786E-01-8.10580E-05-8.10580E-05
 -1       797 1.39186E-01-9.43459E-03-1.77096E-04-4.69177E-01 5.32401E-05 4.54714E-05
 -1       798 2.30203E-01-8.54797E-02 1.04045E-03-4.85786E-01-9.27403E-05-6.73798E-05
 -1       800 2.80533E-01-1.50781E-01-1.77096E-04-4.23251E-01 5.96979E-05 3.65829E-05
 -1       801 3.72594E-01-2.27871E-01 1.04045E-03-4.13234E-01-1.02139E-04-5.20424E-05
 -1       803 4.00769E-01-2.71018E-01-1.77096E-04-3.35894E-01 6.46858E-05 2.67937E-05
 -1       804 4.85596E-01-3.40873E-01 1.04045E-03-3.00232E-01-1.09023E-04-3.54236E-05
 -1       806 4.88126E-01-3.58375E-01-1.77096E-04-2.15657E-01 6.80809E-05 1.63448E-05
 -1       807 5.58148E-01-4.13424E-01 1.04045E-03-1.57841E-01-1.13222E-04-1.79326E-05
 -1       809 5.34053E-01-4.04301E-01-1.77096E-04-7.43103E-02 6.97995E-05 5.49334E-06
 -1       811-3.47439E-01 4.77398E-01-1.70700E-04-6.53207E-02 4.66502E-06 5.92747E-05
 -1       812-3.53396E-01 4.96792E-01 8.76479E-04-1.38122E-01-1.56339E-05-9.87084E-05
 -1       814-3.07068E-01 4.37028E-01-1.70700E-04-1.89568E-01 1.38802E-05 5.78151E-05
 -1       815-2.89909E-01 4.33305E-01 8.76479E-04-2.62723E-01-3.08828E-05-9.50474E-05
 -1       817-2.30279E-01 3.60239E-01-1.70700E-04-2.95259E-01 2.27536E-05 5.49320E-05
 -1       818-1.91025E-01 3.34421E-01 8.76479E-04-3.61607E-01-4.53713E-05-8.90461E-05
 -1       820-1.24588E-01 2.54548E-01-1.70700E-04-3.72048E-01 3.10667E-05 5.06962E-05
 -1       821-6.64234E-02 2.09820E-01 8.76479E-04-4.25094E-01-5.87425E-05-8.08522E-05
 -1       823-3.40898E-04 1.30300E-01-1.70700E-04-4.12419E-01 3.86149E-05 4.52122E-05
 -1       824 7.16981E-02 7.16981E-02 8.76479E-04-4.46971E-01-7.06674E-05-7.06674E-05
 -1       826 1.30300E-01-3.40897E-04-1.70700E-04-4.12419E-01 4.52122E-05 3.86149E-05
 -1       827 2.09820E-01-6.64234E-02 8.76479E-04-4.25094E-01-8.08522E-05-5.87425E-05
 -1       829 2.54548E-01-1.24588E-01-1.70700E-04-3.72048E-01 5.06962E-05 3.10667E-05
 -1       830 3.34421E-01-1.91025E-01 8.76479E-04-3.61607E-01-8.90461E-05-4.53713E-05
 -1       832 3.60239E-01-2.30279E-01-1.70700E-04-2.95259E-01 5.49320E-05 2.27536E-05
 -1       833 4.33305E-01-2.89909E-01 8.76479E-04-2.62723E-01-9.50474E-05-3.08828E-05
 -1       835 4.37028E-01-3.07068E-01-1.70700E-04-1.89568E-01 5.78151E-05 1.38802E-05
 -1       836 4.96792E-01-3.53396E-01 8.76479E-04-1.38122E-01-9.87084E-05-1.56339E-05
 -1       838 4.77398E-01-3.47439E-01-1.70700E-04-6.53207E-02 5.92747E-05 4.66502E-06
 -1       840-3.00276E-01 4.30457E-01-1.61101E-04-5.78684E-02 4.00118E-06 5.08398E-05
 -1       841-3.03968E-01 4.46245E-01 7.42717E-04-1.21879E-01-1.38644E-05-8.75364E-05
 -1       843-2.64512E-01 3.94693E-01-1.61101E-04-1.67941E-01 1.19050E-05 4.95879E-05
 -1       844-2.47946E-01 3.90223E-01 7.42717E-04-2.31828E-01-2.73874E-05-8.42898E-05
 -1       846-1.96483E-01 3.26664E-01-1.61101E-04-2.61574E-01 1.95157E-05 4.71151E-05
 -1       847-1.60690E-01 3.02967E-01 7.42717E-04-3.19084E-01-4.02361E-05-7.89677E-05
 -1       849-1.02850E-01 2.33031E-01-1.61101E-04-3.29602E-01 2.66458E-05 4.34821E-05
 -1       850-5.07408E-02 1.93018E-01 7.42717E-04-3.75106E-01-5.20940E-05-7.17012E-05
 -1       852 7.22209E-03 1.22959E-01-1.61101E-04-3.65367E-01 3.31199E-05 3.87784E-05
 -1       853 7.11385E-02 7.11385E-02 7.42717E-04-3.94410E-01-6.26691E-05-6.26691E-05
 -1       855 1.22959E-01 7.22209E-03-1.61101E-04-3.65367E-01 3.87784E-05 3.31199E-05
 -1       856 1.93018E-01-5.07408E-02 7.42717E-04-3.75106E-01-7.17012E-05-5.20940E-05
 -1       858 2.33031E-01-1.02850E-01-1.61101E-04-3.29602E-01 4.34821E-05 2.66458E-05
 -1       859 3.02967E-01-1.60690E-01 7.42717E-04-3.19084E-01-7.89677E-05-4.02361E-05
 -1       861 3.26664E-01-1.96483E-01-1.61101E-04-2.61574E-01 4.71151E-05 1.95157E-05
 -1       862 3.90223E-01-2.47946E-01 7.42717E-04-2.31828E-01-8.42898E-05-2.73874E-05
 -1       864 3.94693E-01-2.64512E-01-1.61101E-04-1.67941E-01 4.95879E-05 1.19050E-05
 -1       865 4.46245E-01-3.03968E-01 7.42717E-04-1.21879E-01-8.75364E-05-1.38644E-05
 -1       867 4.30457E-01-3.00276E-01-1.61101E-04-5.78684E-02 5.08398E-05 4.00118E-06
 -1       869-2.60729E-01 3.91129E-01-1.49430E-04-5.16221E-02 3.48955E-06 4.43389E-05
 -1       870-2.62780E-01 4.04109E-01 6.34452E-04-1.08343E-01-1.24064E-05-7.83307E-05
 -1       872-2.28824E-01 3.59225E-01-1.49430E-04-1.49813E-01 1.03827E-05 4.32471E-05
 -1       873-2.12981E-01 3.54309E-01 6.34452E-04-2.06080E-01-2.45072E-05-7.54255E-05
 -1       875-1.68139E-01 2.98540E-01-1.49430E-04-2.33339E-01 1.70202E-05 4.10905E-05
 -1       876-1.35416E-01 2.76745E-01 6.34452E-04-2.83645E-01-3.60047E-05-7.06632E-05
 -1       878-8.46127E-02 2.15013E-01-1.49430E-04-2.94025E-01 2.32387E-05 3.79220E-05
 -1       879-3.76784E-02 1.79007E-01 6.34452E-04-3.33445E-01-4.66156E-05-6.41608E-05
 -1       881 1.35783E-02 1.16822E-01-1.49430E-04-3.25929E-01 2.88849E-05 3.38198E-05
 -1       882 7.06643E-02 7.06643E-02 6.34452E-04-3.50605E-01-5.60786E-05-5.60786E-05
 -1       884 1.16822E-01 1.35783E-02-1.49430E-04-3.25929E-01 3.38198E-05 2.88849E-05
 -1       885 1.79007E-01-3.76784E-02 6.34452E-04-3.33445E-01-6.41608E-05-4.66156E-05
 -1       887 2.15013E-01-8.46127E-02-1.49430E-04-2.94025E-01 3.79220E-05 2.32387E-05
 -1       888 2.76745E-01-1.35416E-01 6.34452E-04-2.83645E-01-7.06632E-05-3.60047E-05
 -1       890 2.98540E-01-1.68139E-01-1.49430E-04-2.33339E-01 4.10905E-05 1.70202E-05
 -1       891 3.54309E-01-2.12981E-01 6.34452E-04-2.06080E-01-7.54255E-05-2.45072E-05
 -1       893 3.59225E-01-2.28824E-01-1.49430E-04-1.49813E-01 4.32471E-05 1.03827E-05
 -1       894 4.04109E-01-2.62780E-01 6.34452E-04-1.08343E-01-7.83307E-05-1.24064E-05
 -1       896 3.91129E-01-2.60729E-01-1.49430E-04-5.16221E-02 4.43389E-05 3.48955E-06
 -1       898-2.27241E-01 3.57852E-01-1.37367E-04-4.63349E-02 3.07873E-06 3.91189E-05
 -1       899-2.28099E-01 3.68618E-01 5.45710E-04-9.69425E-02-1.11790E-05-7.05813E-05
 -1       901-1.98605E-01 3.29216E-01-1.37367E-04-1.34469E-01 9.16037E-06 3.81557E-05
 -1       902-1.83539E-01 3.24058E-01 5.45710E-04-1.84396E-01-2.20827E-05-6.79635E-05
 -1       904-1.44135E-01 2.74746E-01-1.37367E-04-2.09440E-01 1.50165E-05 3.62529E-05
 -1       905-1.14136E-01 2.54655E-01 5.45710E-04-2.53799E-01-3.24426E-05-6.36723E-05
 -1       907-6.91636E-02 1.99774E-01-1.37367E-04-2.63910E-01 2.05028E-05 3.34575E-05
 -1       908-2.66829E-02 1.67202E-01 5.45710E-04-2.98358E-01-4.20038E-05-5.78132E-05
 -1       910 1.89705E-02 1.11640E-01-1.37367E-04-2.92547E-01 2.54843E-05 2.98382E-05
 -1       911 7.02596E-02 7.02596E-02 5.45710E-04-3.13712E-01-5.05306E-05-5.05306E-05
 -1       913 1.11640E-01 1.89705E-02-1.37367E-04-2.92547E-01 2.98382E-05 2.54843E-05
 -1       914 1.67202E-01-2.66829E-02 5.45710E-04-2.98358E-01-5.78132E-05-4.20038E-05
 -1       916 1.99774E-01-6.91636E-02-1.37367E-04-2.63910E-01 3.34575E-05 2.05028E-05
 -1       917 2.54655E-01-1.14136E-01 5.45710E-04-2.53799E-01-6.36723E-05-3.24426E-05
 -1       919 2.74746E-01-1.44135E-01-1.37367E-04-2.09440E-01 3.62529E-05 1.50165E-05
 -1       920 3.24058E-01-1.83539E-01 5.45710E-04-1.84396E-01-6.79635E-05-2.20827E-05
 -1       922 3.29216E-01-1.98605E-01-1.37367E-04-1.34469E-01 3.81557E-05 9.16037E-06
 -1       923 3.68618E-01-2.28099E-01 5.45710E-04-9.69425E-02-7.05813E-05-1.11790E-05
 -1       925 3.57852E-01-2.27241E-01-1.37367E-04-4.63349E-02 3.91189E-05 3.07873E-06
 -1       927-1.98638E-01 3.29445E-01-1.25553E-04-4.18200E-02 2.74356E-06 3.48603E-05
 -1       928-1.98621E-01 3.38444E-01 4.72328E-04-8.72514E-02-1.01358E-05-6.39947E-05
 -1       930-1.72791E-01 3.03599E-01-1.25553E-04-1.21367E-01 8.16314E-06 3.40019E-05
 -1       931-1.58515E-01 2.98339E-01 4.72328E-04-1.65962E-01-2.00220E-05-6.16213E-05
 -1       933-1.23629E-01 2.54436E-01-1.25553E-04-1.89033E-01 1.33817E-05 3.23063E-05
 -1       934-9.60503E-02 2.35874E-01 4.72328E-04-2.28427E-01-2.94151E-05-5.77305E-05
 -1       936-5.59628E-02 1.86770E-01-1.25553E-04-2.38195E-01 1.82708E-05 2.98152E-05
 -1       937-1.73397E-02 1.57163E-01 4.72328E-04-2.68532E-01-3.80840E-05-5.24182E-05
 -1       939 2.35837E-02 1.07224E-01-1.25553E-04-2.64041E-01 2.27100E-05 2.65899E-05
 -1       940 6.99118E-02 6.99118E-02 4.72328E-04-2.82352E-01-4.58152E-05-4.58152E-05
 -1       942 1.07224E-01 2.35837E-02-1.25553E-04-2.64041E-01 2.65899E-05 2.27100E-05
 -1       943 1.57163E-01-1.73397E-02 4.72328E-04-2.68532E-01-5.24182E-05-3.80840E-05
 -1       945 1.86770E-01-5.59628E-02-1.25553E-04-2.38195E-01 2.98152E-05 1.82708E-05
 -1       946 2.35874E-01-9.60503E-02 4.72328E-04-2.28427E-01-5.77305E-05-2.94151E-05
 -1       948 2.54436E-01-1.23629E-01-1.25553E-04-1.89033E-01 3.23063E-05 1.33817E-05
 -1       949 2.98339E-01-1.58515E-01 4.72328E-04-1.65962E-01-6.16213E-05-2.00220E-05
 -1       951 3.03599E-01-1.72791E-01-1.25553E-04-1.21367E-01 3.40019E-05 8.16314E-06
 -1       952 3.38444E-01-1.98621E-01 4.72328E-04-8.72514E-02-6.39947E-05-1.01358E-05
 -1       954 3.29445E-01-1.98638E-01-1.25553E-04-4.18200E-02 3.48603E-05 2.74356E-06
 -1       956-1.74013E-01 3.05002E-01-1.14383E-04-3.79342E-02 2.46497E-06 3.13204E-05
 -1       957-1.73354E-01 3.12576E-01 4.11148E-04-7.89443E-02-9.23679E-06-5.83188E-05
 -1       959-1.50568E-01 2.81557E-01-1.14383E-04-1.10089E-01 7.33421E-06 3.05492E-05
 -1       960-1.37068E-01 2.76290E-01 4.11148E-04-1.50161E-01-1.82461E-05-5.61559E-05
 -1       962-1.05974E-01 2.36963E-01-1.14383E-04-1.71468E-01 1.20229E-05 2.90257E-05
 -1       963-8.05499E-02 2.19772E-01 4.11148E-04-2.06679E-01-2.68062E-05-5.26102E-05
 -1       965-4.45947E-02 1.75584E-01-1.14383E-04-2.16063E-01 1.64155E-05 2.67876E-05
 -1       966-9.33327E-03 1.48555E-01 4.11148E-04-2.42965E-01-3.47062E-05-4.77690E-05
 -1       968 2.75605E-02 1.03429E-01-1.14383E-04-2.39507E-01 2.04039E-05 2.38899E-05
 -1       969 6.96110E-02 6.96110E-02 4.11148E-04-2.55469E-01-4.17517E-05-4.17517E-05
 -1       971 1.03429E-01 2.75605E-02-1.14383E-04-2.39507E-01 2.38899E-05 2.04039E-05
 -1       972 1.48555E-01-9.33327E-03 4.11148E-04-2.42965E-01-4.77690E-05-3.47062E-05
 -1       974 1.75584E-01-4.45947E-02-1.14383E-04-2.16063E-01 2.67876E-05 1.64155E-05
 -1       975 2.19772E-01-8.05499E-02 4.11148E-04-2.06679E-01-5.26102E-05-2.68062E-05
 -1       977 2.36963E-01-1.05974E-01-1.14383E-04-1.71468E-01 2.90257E-05 1.20229E-05
 -1       978 2.76290E-01-1.37068E-01 4.11148E-04-1.50161E-01-5.61559E-05-1.82461E-05
 -1       980 2.81557E-01-1.50568E-01-1.14383E-04-1.10089E-01 3.05492E-05 7.33421E-06
 -1       981 3.12576E-01-1.73354E-01 4.11148E-04-7.89443E-02-5.83188E-05-9.23680E-06
 -1       983 3.05002E-01-1.74013E-01-1.14383E-04-3.79342E-02 3.13204E-05 2.46497E-06
 -1       985-1.52662E-01 2.83818E-01-1.04023E-04-3.45658E-02 2.22989E-06 2.83335E-05
 -1       986-1.51534E-01 2.90233E-01 3.59752E-04-7.17695E-02-8.45452E-06-5.33797E-05
 -1       988-1.31299E-01 2.62455E-01-1.04023E-04-1.00314E-01 6.63478E-06 2.76358E-05
 -1       989-1.18546E-01 2.57244E-01 3.59752E-04-1.36514E-01-1.67009E-05-5.14000E-05
 -1       991-9.06642E-02 2.21821E-01-1.04023E-04-1.56242E-01 1.08763E-05 2.62577E-05
 -1       992-6.71643E-02 2.05863E-01 3.59752E-04-1.87895E-01-2.45360E-05-4.81546E-05
 -1       994-3.47356E-02 1.65892E-01-1.04023E-04-1.96877E-01 1.48500E-05 2.42330E-05
 -1       995-2.42014E-03 1.41119E-01 3.59752E-04-2.20884E-01-3.17669E-05-4.37234E-05
 -1       997 3.10125E-02 1.00144E-01-1.04023E-04-2.18240E-01 1.84580E-05 2.16116E-05
 -1       998 6.93493E-02 6.93493E-02 3.59752E-04-2.32251E-01-3.82157E-05-3.82157E-05
 -1      1000 1.00144E-01 3.10125E-02-1.04023E-04-2.18240E-01 2.16116E-05 1.84580E-05
 -1      1001 1.41119E-01-2.42014E-03 3.59752E-04-2.20884E-01-4.37234E-05-3.17669E-05
 -1      1003 1.65892E-01-3.47356E-02-1.04023E-04-1.96877E-01 2.42330E-05 1.48500E-05
 -1      1004 2.05863E-01-6.71643E-02 3.59752E-04-1.87895E-01-4.81546E-05-2.45360E-05
 -1      1006 2.21821E-01-9.06642E-02-1.04023E-04-1.56242E-01 2.62577E-05 1.08763E-05
 -1      1007 2.57244E-01-1.18546E-01 3.59752E-04-1.36514E-01-5.14000E-05-1.67009E-05
 -1      1009 2.62455E-01-1.31299E-01-1.04023E-04-1.00314E-01 2.76358E-05 6.63478E-06
 -1      1010 2.90233E-01-1.51534E-01 3.59752E-04-7.17695E-02-5.33797E-05-8.45452E-06
 -1      1012 2.83818E-01-1.52662E-01-1.04023E-04-3.45658E-02 2.83335E-05 2.22990E-06
 -1      1014-1.34029E-01 2.65338E-01-9.45297E-05-3.16268E-02 2.02890E-06 2.57796E-05
 -1      1015-1.32561E-01 2.70802E-01 3.16276E-04-6.55302E-02-7.76769E-06-4.90432E-05
 -1      1017-1.14483E-01 2.45792E-01-9.45297E-05-9.17846E-02 6.03675E-06 2.51449E-05
 -1      1018-1.02440E-01 2.40681E-01 3.16276E-04-1.24646E-01-1.53441E-05-4.72243E-05
 -1      1020-7.73031E-02 2.08612E-01-9.45297E-05-1.42958E-01 9.89595E-06 2.38909E-05
 -1      1021-5.55254E-02 1.93766E-01 3.16276E-04-1.71560E-01-2.25427E-05-4.42425E-05
 -1      1023-2.61299E-02 1.57439E-01-9.45297E-05-1.80137E-01 1.35115E-05 2.20487E-05
 -1      1024 3.59021E-03 1.34651E-01 3.16276E-04-2.01681E-01-2.91862E-05-4.01714E-05
 -1      1026 3.40279E-02 9.72815E-02-9.45297E-05-1.99684E-01 1.67943E-05 1.96636E-05
 -1      1027 6.91204E-02 6.91204E-02 3.16276E-04-2.12060E-01-3.51111E-05-3.51111E-05
 -1      1029 9.72815E-02 3.40279E-02-9.45297E-05-1.99684E-01 1.96636E-05 1.67943E-05
 -1      1030 1.34651E-01 3.59021E-03 3.16276E-04-2.01681E-01-4.01714E-05-2.91862E-05
 -1      1032 1.57439E-01-2.61299E-02-9.45297E-05-1.80137E-01 2.20487E-05 1.35115E-05
 -1      1033 1.93766E-01-5.55254E-02 3.16276E-04-1.71560E-01-4.42425E-05-2.25427E-05
 -1      1035 2.08612E-01-7.73031E-02-9.45297E-05-1.42958E-01 2.38909E-05 9.89595E-06
 -1      1036 2.40681E-01-1.02440E-01 3.16276E-04-1.24646E-01-4.72243E-05-1.53441E-05
 -1      1038 2.45792E-01-1.14483E-01-9.45297E-05-9.17846E-02 2.51449E-05 6.03675E-06
 -1      1039 2.70802E-01-1.32561E-01 3.16276E-04-6.55302E-02-4.90432E-05-7.76769E-06
 -1      1041 2.65338E-01-1.34029E-01-9.45297E-05-3.16268E-02 2.57796E-05 2.02890E-06
 -1      1043-1.17673E-01 2.49122E-01-8.58961E-05-2.90473E-02 1.85508E-06 2.35711E-05
 -1      1044-1.15959E-01 2.53797E-01 2.79266E-04-6.00706E-02-7.16007E-06-4.52069E-05
 -1      1046-9.97206E-02 2.31169E-01-8.58961E-05-8.42985E-02 5.51958E-06 2.29907E-05
 -1      1047-8.83478E-02 2.26186E-01 2.79266E-04-1.14261E-01-1.41438E-05-4.35302E-05
 -1      1049-6.55735E-02 1.97022E-01-8.58961E-05-1.31298E-01 9.04816E-06 2.18442E-05
 -1      1050-4.53420E-02 1.83180E-01 2.79266E-04-1.57267E-01-2.07793E-05-4.07817E-05
 -1      1052-1.85740E-02 1.50023E-01-8.58961E-05-1.65445E-01 1.23539E-05 2.01598E-05
 -1      1053 8.84851E-03 1.28990E-01 2.79266E-04-1.84878E-01-2.69032E-05-3.70290E-05
 -1      1055 3.66772E-02 9.47717E-02-8.58961E-05-1.83397E-01 1.53555E-05 1.79790E-05
 -1      1056 6.89191E-02 6.89191E-02 2.79266E-04-1.94393E-01-3.23646E-05-3.23646E-05
 -1      1058 9.47717E-02 3.66772E-02-8.58961E-05-1.83397E-01 1.79790E-05 1.53555E-05
 -1      1059 1.28990E-01 8.84851E-03 2.79266E-04-1.84878E-01-3.70290E-05-2.69032E-05
 -1      1061 1.50023E-01-1.85740E-02-8.58961E-05-1.65445E-01 2.01598E-05 1.23539E-05
 -1      1062 1.83180E-01-4.53420E-02 2.79266E-04-1.57267E-01-4.07817E-05-2.07793E-05
 -1      1064 1.97022E-01-6.55735E-02-8.58961E-05-1.31298E-01 2.18442E-05 9.04816E-06
 -1      1065 2.26186E-01-8.83478E-02 2.79266E-04-1.14261E-01-4.35302E-05-1.41438E-05
 -1      1067 2.31169E-01-9.97206E-02-8.58961E-05-8.42985E-02 2.29907E-05 5.51958E-06
 -1      1068 2.53797E-01-1.15959E-01 2.79266E-04-6.00706E-02-4.52069E-05-7.16007E-06
 -1      1070 2.49122E-01-1.17673E-01-8.58961E-05-2.90473E-02 2.35711E-05 1.85508E-06
 -1      1072-1.03237E-01 2.34813E-01-7.80809E-05-2.67709E-02 1.70328E-06 2.16423E-05
 -1      1073-1.01350E-01 2.38832E-01 2.47575E-04-5.52660E-02-6.61896E-06-4.17905E-05
 -1      1075-8.66912E-02 2.18267E-01-7.80809E-05-7.76921E-02 5.06791E-06 2.11094E-05
 -1      1076-7.59470E-02 2.13429E-01 2.47575E-04-1.05122E-01-1.30749E-05-4.02406E-05
 -1      1078-5.52202E-02 1.86796E-01-7.80809E-05-1.21008E-01 8.30775E-06 2.00567E-05
 -1      1079-3.63809E-02 1.73863E-01 2.47575E-04-1.44688E-01-1.92090E-05-3.76998E-05
 -1      1081-1.19040E-02 1.43480E-01-7.80809E-05-1.52479E-01 1.13430E-05 1.85101E-05
 -1      1082 1.34753E-02 1.24007E-01 2.47575E-04-1.70091E-01-2.48700E-05-3.42307E-05
 -1      1084 3.90172E-02 9.25590E-02-7.80809E-05-1.69025E-01 1.40990E-05 1.65078E-05
 -1      1085 6.87412E-02 6.87412E-02 2.47575E-04-1.78844E-01-2.99187E-05-2.99187E-05
 -1      1087 9.25590E-02 3.90172E-02-7.80809E-05-1.69025E-01 1.65078E-05 1.40990E-05
 -1      1088 1.24007E-01 1.34753E-02 2.47575E-04-1.70091E-01-3.42307E-05-2.48700E-05
 -1      1090 1.43480E-01-1.19040E-02-7.80809E-05-1.52479E-01 1.85101E-05 1.13430E-05
 -1      1091 1.73863E-01-3.63809E-02 2.47575E-04-1.44688E-01-3.76998E-05-1.92090E-05
 -1      1093 1.86796E-01-5.52202E-02-7.80809E-05-1.21008E-01 2.00567E-05 8.30775E-06
 -1      1094 2.13429E-01-7.59470E-02 2.47575E-04-1.05122E-01-4.02405E-05-1.30749E-05
 -1      1096 2.18267E-01-8.66912E-02-7.80809E-05-7.76921E-02 2.11094E-05 5.06791E-06
 -1      1097 2.38832E-01-1.01350E-01 2.47575E-04-5.52660E-02-4.17905E-05-6.61897E-06
 -1      1099 2.34813E-01-1.03237E-01-7.80809E-05-2.67709E-02 2.16423E-05 1.70328E-06
 -1      1101-9.04313E-02 2.22124E-01-7.10263E-05-2.47519E-02 1.56958E-06 1.99434E-05
 -1      1102-8.84265E-02 2.25593E-01 2.20294E-04-5.10156E-02-6.13433E-06-3.87306E-05
 -1      1104-7.51338E-02 2.06826E-01-7.10263E-05-7.18329E-02 4.67009E-06 1.94523E-05
 -1      1105-6.49772E-02 2.02144E-01 2.20294E-04-9.70374E-02-1.21176E-05-3.72942E-05
 -1      1107-4.60362E-02 1.77729E-01-7.10263E-05-1.11882E-01 7.65561E-06 1.84823E-05
 -1      1108-2.84541E-02 1.65621E-01 2.20294E-04-1.33561E-01-1.78025E-05-3.49394E-05
 -1      1110-5.98671E-03 1.37679E-01-7.10263E-05-1.40980E-01 1.04526E-05 1.70571E-05
 -1      1111 1.75678E-02 1.19599E-01 2.20294E-04-1.57010E-01-2.30491E-05-3.17243E-05
 -1      1113 4.10942E-02 9.05981E-02-7.10263E-05-1.56278E-01 1.29923E-05 1.52120E-05
 -1      1114 6.85833E-02 6.85833E-02 2.20294E-04-1.65090E-01-2.77281E-05-2.77281E-05
 -1      1116 9.05981E-02 4.10942E-02-7.10263E-05-1.56278E-01 1.52120E-05 1.29923E-05
 -1      1117 1.19599E-01 1.75678E-02 2.20294E-04-1.57010E-01-3.17243E-05-2.30491E-05
 -1      1119 1.37679E-01-5.98672E-03-7.10263E-05-1.40980E-01 1.70571E-05 1.04526E-05
 -1      1120 1.65621E-01-2.84541E-02 2.20294E-04-1.33561E-01-3.49394E-05-1.78025E-05
 -1      1122 1.77729E-01-4.60362E-02-7.10263E-05-1.11882E-01 1.84823E-05 7.65561E-06
 -1      1123 2.02144E-01-6.49772E-02 2.20294E-04-9.70374E-02-3.72942E-05-1.21176E-05
 -1      1125 2.06826E-01-7.51338E-02-7.10263E-05-7.18329E-02 1.94523E-05 4.67009E-06
 -1      1126 2.25593E-01-8.84265E-02 2.20294E-04-5.10156E-02-3.87306E-05-6.13433E-06
 -1      1128 2.22124E-01-9.04313E-02-7.10263E-05-2.47519E-02 1.99434E-05 1.56958E-06
 -1      1130-7.90205E-02 2.10819E-01-6.46678E-05-2.29530E-02 1.45095E-06 1.84361E-05
 -1      1131-7.69390E-02 2.13824E-01 1.96692E-04-4.72373E-02-5.69808E-06-3.59763E-05
 -1      1133-6.48348E-02 1.96633E-01-6.46678E-05-6.66123E-02 4.31713E-06 1.79821E-05
 -1      1134-5.52264E-02 1.92112E-01 1.96692E-04-8.98507E-02-1.12559E-05-3.46420E-05
 -1      1136-3.78519E-02 1.69650E-01-6.46678E-05-1.03751E-01 7.07700E-06 1.70854E-05
 -1      1137-2.14082E-02 1.58293E-01 1.96692E-04-1.23669E-01-1.65365E-05-3.24547E-05
 -1      1139-7.13089E-04 1.32511E-01-6.46678E-05-1.30734E-01 9.66262E-06 1.57680E-05
 -1      1140 2.12052E-02 1.15680E-01 1.96692E-04-1.45382E-01-2.14099E-05-2.94682E-05
 -1      1142 4.29462E-02 8.88522E-02-6.46678E-05-1.44920E-01 1.20103E-05 1.40623E-05
 -1      1143 6.84426E-02 6.84426E-02 1.96692E-04-1.52863E-01-2.57562E-05-2.57562E-05
 -1      1145 8.88522E-02 4.29462E-02-6.46678E-05-1.44920E-01 1.40623E-05 1.20103E-05
 -1      1146 1.15680E-01 2.12052E-02 1.96692E-04-1.45382E-01-2.94682E-05-2.14099E-05
 -1      1148 1.32511E-01-7.13090E-04-6.46678E-05-1.30734E-01 1.57680E-05 9.66262E-06
 -1      1149 1.58293E-01-2.14082E-02 1.96692E-04-1.23669E-01-3.24547E-05-1.65365E-05
 -1      1151 1.69650E-01-3.78519E-02-6.46678E-05-1.03751E-01 1.70854E-05 7.07700E-06
 -1      1152 1.92112E-01-5.52264E-02 1.96692E-04-8.98507E-02-3.46420E-05-1.12559E-05
 -1      1154 1.96633E-01-6.48348E-02-6.46678E-05-6.66123E-02 1.79821E-05 4.31713E-06
 -1      1155 2.13824E-01-7.69390E-02 1.96692E-04-4.72373E-02-3.59763E-05-5.69808E-06
 -1      1157 2.10819E-01-7.90205E-02-6.46678E-05-2.29530E-02 1.84361E-05 1.45095E-06
 -1      1159-6.88087E-02 2.00704E-01-5.89396E-05-2.13433E-02 1.34504E-06 1.70904E-05
 -1      1160-6.66824E-02 2.03315E-01 1.76179E-04-4.38638E-02-5.30368E-06-3.34861E-05
 -1      1162-5.56179E-02 1.87513E-01-5.89396E-05-6.19407E-02 4.00201E-06 1.66696E-05
 -1      1163-4.65204E-02 1.83154E-01 1.76179E-04-8.34339E-02-1.04768E-05-3.22441E-05
 -1      1165-3.05273E-02 1.62423E-01-5.89396E-05-9.64749E-02 6.56044E-06 1.58383E-05
 -1      1166-1.51174E-02 1.51750E-01 1.76179E-04-1.14837E-01-1.53919E-05-3.02082E-05
 -1      1168 4.00691E-03 1.27888E-01-5.89396E-05-1.21565E-01 8.95732E-06 1.46170E-05
 -1      1169 2.44528E-02 1.12180E-01 1.76179E-04-1.34999E-01-1.99280E-05-2.74285E-05
 -1      1171 4.46043E-02 8.72909E-02-5.89396E-05-1.34756E-01 1.11336E-05 1.30358E-05
 -1      1172 6.83166E-02 6.83166E-02 1.76179E-04-1.41946E-01-2.39734E-05-2.39734E-05
 -1      1174 8.72909E-02 4.46043E-02-5.89396E-05-1.34756E-01 1.30358E-05 1.11336E-05
 -1      1175 1.12180E-01 2.44528E-02 1.76179E-04-1.34999E-01-2.74285E-05-1.99280E-05
 -1      1177 1.27888E-01 4.00691E-03-5.89396E-05-1.21565E-01 1.46170E-05 8.95732E-06
 -1      1178 1.51750E-01-1.51174E-02 1.76179E-04-1.14837E-01-3.02082E-05-1.53919E-05
 -1      1180 1.62423E-01-3.05273E-02-5.89396E-05-9.64749E-02 1.58383E-05 6.56044E-06
 -1      1181 1.83154E-01-4.65204E-02 1.76179E-04-8.34339E-02-3.22441E-05-1.04768E-05
 -1      1183 1.87513E-01-5.56179E-02-5.89396E-05-6.19407E-02 1.66696E-05 4.00201E-06
 -1      1184 2.03315E-01-6.66824E-02 1.76179E-04-4.38638E-02-3.34861E-05-5.30368E-06
 -1      1186 2.00704E-01-6.88087E-02-5.89396E-05-2.13433E-02 1.70904E-05 1.34504E-06
 -1      1188-5.96338E-02 1.91618E-01-5.37772E-05-1.98972E-02 1.25001E-06 1.58829E-05
 -1      1189-5.74868E-02 1.93893E-01 1.58273E-04-4.08392E-02-4.94575E-06-3.12263E-05
 -1      1191-4.73367E-02 1.79321E-01-5.37772E-05-5.77438E-02 3.71925E-06 1.54918E-05
 -1      1192-3.87151E-02 1.75122E-01 1.58273E-04-7.76808E-02-9.76973E-06-3.00681E-05
 -1      1194-2.39462E-02 1.55930E-01-5.37772E-05-8.99381E-02 6.09691E-06 1.47192E-05
 -1      1195-9.47742E-03 1.45884E-01 1.58273E-04-1.06918E-01-1.43531E-05-2.81696E-05
 -1      1197 8.24811E-03 1.23736E-01-5.37772E-05-1.13329E-01 8.32444E-06 1.35843E-05
 -1      1198 2.73642E-02 1.09043E-01 1.58273E-04-1.25690E-01-1.85831E-05-2.55775E-05
 -1      1200 4.60948E-02 8.58891E-02-5.37772E-05-1.25626E-01 1.03470E-05 1.21148E-05
 -1      1201 6.82034E-02 6.82034E-02 1.58273E-04-1.32158E-01-2.23555E-05-2.23555E-05
 -1      1203 8.58891E-02 4.60948E-02-5.37772E-05-1.25626E-01 1.21148E-05 1.03470E-05
 -1      1204 1.09043E-01 2.73642E-02 1.58273E-04-1.25690E-01-2.55775E-05-1.85831E-05
 -1      1206 1.23736E-01 8.24811E-03-5.37772E-05-1.13329E-01 1.35843E-05 8.32444E-06
 -1      1207 1.45884E-01-9.47742E-03 1.58273E-04-1.06918E-01-2.81696E-05-1.43531E-05
 -1      1209 1.55930E-01-2.39462E-02-5.37772E-05-8.99381E-02 1.47192E-05 6.09691E-06
 -1      1210 1.75122E-01-3.87151E-02 1.58273E-04-7.76808E-02-3.00681E-05-9.76973E-06
 -1      1212 1.79321E-01-4.73367E-02-5.37772E-05-5.77438E-02 1.54918E-05 3.71925E-06
 -1      1213 1.93893E-01-5.74868E-02 1.58273E-04-4.08392E-02-3.12263E-05-4.94576E-06
 -1      1215 1.91618E-01-5.96338E-02-5.37772E-05-1.98972E-02 1.58829E-05 1.25001E-06
 -1      1217-5.13599E-02 1.83425E-01-4.91171E-05-1.85931E-02 1.16443E-06 1.47955E-05
 -1      1218-4.92108E-02 1.85413E-01 1.42580E-04-3.81170E-02-4.61993E-06-2.91691E-05
 -1      1220-3.98687E-02 1.71934E-01-4.91171E-05-5.39594E-02 3.46462E-06 1.44312E-05
 -1      1221-3.16904E-02 1.67893E-01 1.42580E-04-7.25028E-02-9.12611E-06-2.80873E-05
 -1      1223-1.80112E-02 1.50076E-01-4.91171E-05-8.40438E-02 5.67949E-06 1.37115E-05
 -1      1224-4.40161E-03 1.40604E-01 1.42580E-04-9.97916E-02-1.34076E-05-2.63138E-05
 -1      1226 1.20732E-02 1.19992E-01-4.91171E-05-1.05901E-01 7.75452E-06 1.26542E-05
 -1      1227 2.99842E-02 1.06218E-01 1.42580E-04-1.17312E-01-1.73589E-05-2.38925E-05
 -1      1229 4.74394E-02 8.46257E-02-4.91171E-05-1.17393E-01 9.63860E-06 1.12854E-05
 -1      1230 6.81012E-02 6.81012E-02 1.42580E-04-1.23349E-01-2.08828E-05-2.08828E-05
 -1      1232 8.46257E-02 4.74394E-02-4.91171E-05-1.17393E-01 1.12854E-05 9.63860E-06
 -1      1233 1.06218E-01 2.99842E-02 1.42580E-04-1.17312E-01-2.38925E-05-1.73589E-05
 -1      1235 1.19992E-01 1.20732E-02-4.91171E-05-1.05901E-01 1.26542E-05 7.75452E-06
 -1      1236 1.40604E-01-4.40161E-03 1.42580E-04-9.97916E-02-2.63138E-05-1.34076E-05
 -1      1238 1.50076E-01-1.80112E-02-4.91171E-05-8.40438E-02 1.37115E-05 5.67949E-06
 -1      1239 1.67893E-01-3.16904E-02 1.42580E-04-7.25028E-02-2.80873E-05-9.12611E-06
 -1      1241 1.71934E-01-3.98687E-02-4.91171E-05-5.39594E-02 1.44312E-05 3.46462E-06
 -1      1242 1.85413E-01-4.92108E-02 1.42580E-04-3.81170E-02-2.91691E-05-4.61994E-06
 -1      1244 1.83425E-01-5.13599E-02-4.91171E-05-1.85931E-02 1.47955E-05 1.16443E-06
 -1      1246-4.38728E-02 1.76013E-01-4.48946E-05-1.74132E-02 1.08728E-06 1.38152E-05
 -1      1247-4.17360E-02 1.77753E-01 1.28767E-04-3.56582E-02-4.32268E-06-2.72924E-05
 -1      1249-3.31108E-02 1.65251E-01-4.48946E-05-5.05352E-02 3.23506E-06 1.34750E-05
 -1      1250-2.53457E-02 1.61363E-01 1.28767E-04-6.78260E-02-8.53893E-06-2.62801E-05
 -1      1252-1.26403E-02 1.44780E-01-4.48946E-05-7.87104E-02 5.30319E-06 1.28030E-05
 -1      1253 1.82772E-04 1.35835E-01 1.28767E-04-9.33544E-02-1.25449E-05-2.46208E-05
 -1      1255 1.55348E-02 1.16605E-01-4.48946E-05-9.91808E-02 7.24073E-06 1.18158E-05
 -1      1256 3.23505E-02 1.03667E-01 1.28767E-04-1.09745E-01-1.62420E-05-2.23552E-05
 -1      1258 4.86568E-02 8.34832E-02-4.48946E-05-1.09943E-01 8.99999E-06 1.05376E-05
 -1      1259 6.80087E-02 6.80087E-02 1.28767E-04-1.15392E-01-1.95392E-05-1.95392E-05
 -1      1261 8.34832E-02 4.86568E-02-4.48946E-05-1.09943E-01 1.05376E-05 8.99999E-06
 -1      1262 1.03667E-01 3.23505E-02 1.28767E-04-1.09745E-01-2.23552E-05-1.62420E-05
 -1      1264 1.16605E-01 1.55348E-02-4.48946E-05-9.91808E-02 1.18158E-05 7.24073E-06
 -1      1265 1.35835E-01 1.82771E-04 1.28767E-04-9.33544E-02-2.46208E-05-1.25449E-05
 -1      1267 1.44780E-01-1.26404E-02-4.48946E-05-7.87104E-02 1.28030E-05 5.30319E-06
 -1      1268 1.61363E-01-2.53457E-02 1.28767E-04-6.78260E-02-2.62801E-05-8.53893E-06
 -1      1270 1.65251E-01-3.31108E-02-4.48946E-05-5.05352E-02 1.34750E-05 3.23507E-06
 -1      1271 1.77753E-01-4.17360E-02 1.28767E-04-3.56582E-02-2.72923E-05-4.32269E-06
 -1      1273 1.76013E-01-4.38728E-02-4.48946E-05-1.74132E-02 1.38152E-05 1.08728E-06
 -1      1275-3.70755E-02 1.69285E-01-4.10352E-05-1.63421E-02 1.01799E-06 1.29348E-05
 -1      1276-3.49624E-02 1.70811E-01 1.16554E-04-3.34300E-02-4.05132E-06-2.55791E-05
 -1      1278-2.69755E-02 1.59185E-01-4.10352E-05-4.74267E-02 3.02892E-06 1.26163E-05
 -1      1279-1.95963E-02 1.55445E-01 1.16554E-04-6.35876E-02-8.00289E-06-2.46304E-05
 -1      1281-7.76416E-03 1.39973E-01-4.10352E-05-7.38688E-02 4.96526E-06 1.19872E-05
 -1      1282 4.33692E-03 1.31512E-01 1.16554E-04-8.75208E-02-1.17574E-05-2.30752E-05
 -1      1284 1.86780E-02 1.13531E-01-4.10352E-05-9.30801E-02 6.77934E-06 1.10629E-05
 -1      1285 3.44945E-02 1.01354E-01 1.16554E-04-1.02887E-01-1.52224E-05-2.09518E-05
 -1      1287 4.97625E-02 8.24468E-02-4.10352E-05-1.03180E-01 8.42649E-06 9.86615E-06
 -1      1288 6.79245E-02 6.79245E-02 1.16554E-04-1.08182E-01-1.83126E-05-1.83126E-05
 -1      1290 8.24468E-02 4.97625E-02-4.10352E-05-1.03180E-01 9.86615E-06 8.42649E-06
 -1      1291 1.01354E-01 3.44945E-02 1.16554E-04-1.02887E-01-2.09518E-05-1.52224E-05
 -1      1293 1.13531E-01 1.86780E-02-4.10352E-05-9.30801E-02 1.10629E-05 6.77933E-06
 -1      1294 1.31512E-01 4.33692E-03 1.16554E-04-8.75208E-02-2.30752E-05-1.17574E-05
 -1      1296 1.39973E-01-7.76417E-03-4.10352E-05-7.38688E-02 1.19872E-05 4.96526E-06
 -1      1297 1.55445E-01-1.95963E-02 1.16554E-04-6.35876E-02-2.46304E-05-8.00289E-06
 -1      1299 1.59185E-01-2.69755E-02-4.10352E-05-4.74267E-02 1.26164E-05 3.02892E-06
 -1      1300 1.70811E-01-3.49624E-02 1.16554E-04-3.34300E-02-2.55791E-05-4.05133E-06
 -1      1302 1.69285E-01-3.70755E-02-4.10353E-05-1.63421E-02 1.29348E-05 1.01800E-06
 -1      1304-3.08852E-02 1.63160E-01-3.74447E-05-1.53668E-02 9.56659E-07 1.21555E-05
 -1      1305-2.88056E-02 1.64500E-01 1.05687E-04-3.14044E-02-3.80420E-06-2.40188E-05
 -1      1307-2.13880E-02 1.53662E-01-3.74447E-05-4.45963E-02 2.84642E-06 1.18562E-05
 -1      1308-1.43706E-02 1.50065E-01 1.05687E-04-5.97347E-02-7.51472E-06-2.31279E-05
 -1      1310-3.32320E-03 1.35598E-01-3.74447E-05-6.94604E-02 4.66610E-06 1.12650E-05
 -1      1311 8.11244E-03 1.27582E-01 1.05687E-04-8.22177E-02-1.10402E-05-2.16676E-05
 -1      1313 2.15409E-02 1.10733E-01-3.74447E-05-8.75252E-02 6.37088E-06 1.03963E-05
 -1      1314 3.64427E-02 9.92515E-02 1.05687E-04-9.66527E-02-1.42939E-05-1.96738E-05
 -1      1316 5.07703E-02 8.15040E-02-3.74446E-05-9.70224E-02 7.91879E-06 9.27171E-06
 -1      1317 6.78471E-02 6.78471E-02 1.05687E-04-1.01627E-01-1.71955E-05-1.71955E-05
 -1      1319 8.15040E-02 5.07703E-02-3.74447E-05-9.70224E-02 9.27170E-06 7.91879E-06
 -1      1320 9.92515E-02 3.64427E-02 1.05687E-04-9.66527E-02-1.96738E-05-1.42938E-05
 -1      1322 1.10733E-01 2.15409E-02-3.74447E-05-8.75252E-02 1.03963E-05 6.37087E-06
 -1      1323 1.27582E-01 8.11244E-03 1.05687E-04-8.22177E-02-2.16676E-05-1.10402E-05
 -1      1325 1.35598E-01-3.32320E-03-3.74446E-05-6.94604E-02 1.12650E-05 4.66609E-06
 -1      1326 1.50065E-01-1.43706E-02 1.05687E-04-5.97347E-02-2.31279E-05-7.51472E-06
 -1      1328 1.53662E-01-2.13880E-02-3.74446E-05-4.45963E-02 1.18562E-05 2.84643E-06
 -1      1329 1.64500E-01-2.88056E-02 1.05687E-04-3.14044E-02-2.40187E-05-3.80421E-06
 -1      1331 1.63160E-01-3.08852E-02-3.74447E-05-1.53668E-02 1.21555E-05 9.56671E-07
 -1      1333-2.52306E-02 1.57567E-01-3.39603E-05-1.44762E-02 9.04469E-07 1.14924E-05
 -1      1334-2.31947E-02 1.58744E-01 9.59132E-05-2.95578E-02-3.58079E-06-2.26082E-05
 -1      1336-1.62838E-02 1.48621E-01-3.39603E-05-4.20115E-02 2.69114E-06 1.12094E-05
 -1      1337-9.60842E-03 1.45158E-01 9.59133E-05-5.62223E-02-7.07341E-06-2.17697E-05
 -1      1339 7.33968E-04 1.31603E-01-3.39604E-05-6.54345E-02 4.41154E-06 1.06504E-05
 -1      1340 1.15526E-02 1.23997E-01 9.59133E-05-7.73833E-02-1.03919E-05-2.03952E-05
 -1      1342 2.41569E-02 1.08180E-01-3.39603E-05-8.24523E-02 6.02332E-06 9.82915E-06
 -1      1343 3.82171E-02 9.73327E-02 9.59132E-05-9.09695E-02-1.34544E-05-1.85184E-05
 -1      1345 5.16923E-02 8.06446E-02-3.39603E-05-9.13990E-02 7.48679E-06 8.76590E-06
 -1      1346 6.77749E-02 6.77749E-02 9.59132E-05-9.56510E-02-1.61857E-05-1.61857E-05
 -1      1348 8.06446E-02 5.16923E-02-3.39604E-05-9.13990E-02 8.76588E-06 7.48678E-06
 -1      1349 9.73327E-02 3.82171E-02 9.59133E-05-9.09695E-02-1.85184E-05-1.34544E-05
 -1      1351 1.08180E-01 2.41569E-02-3.39604E-05-8.24523E-02 9.82915E-06 6.02330E-06
 -1      1352 1.23997E-01 1.15526E-02 9.59133E-05-7.73833E-02-2.03952E-05-1.03918E-05
 -1      1354 1.31603E-01 7.33966E-04-3.39602E-05-6.54345E-02 1.06504E-05 4.41153E-06
 -1      1355 1.45158E-01-9.60843E-03 9.59132E-05-5.62223E-02-2.17697E-05-7.07342E-06
 -1      1357 1.48621E-01-1.62838E-02-3.39602E-05-4.20115E-02 1.12094E-05 2.69115E-06
 -1      1358 1.58744E-01-2.31947E-02 9.59133E-05-2.95578E-02-2.26082E-05-3.58082E-06
 -1      1360 1.57567E-01-2.52306E-02-3.39605E-05-1.44762E-02 1.14923E-05 9.04484E-07
 -1      1362-2.00489E-02 1.52449E-01-3.03695E-05-1.36605E-02 8.65016E-07 1.09911E-05
 -1      1363-1.80702E-02 1.53481E-01 8.69708E-05-2.78701E-02-3.38299E-06-2.13593E-05
 -1      1365-1.16062E-02 1.44007E-01-3.03695E-05-3.96443E-02 2.57375E-06 1.07204E-05
 -1      1366-5.25968E-03 1.40670E-01 8.69708E-05-5.30121E-02-6.68267E-06-2.05671E-05
 -1      1368 4.45267E-03 1.27948E-01-3.03695E-05-6.17475E-02 4.21911E-06 1.01858E-05
 -1      1369 1.46931E-02 1.20717E-01 8.69708E-05-7.29650E-02-9.81781E-06-1.92685E-05
 -1      1371 2.65558E-02 1.05844E-01-3.03695E-05-7.78064E-02 5.76058E-06 9.40040E-06
 -1      1372 3.98351E-02 9.55754E-02 8.69707E-05-8.57754E-02-1.27112E-05-1.74955E-05
 -1      1374 5.25396E-02 7.98607E-02-3.03694E-05-8.62490E-02 7.16021E-06 8.38354E-06
 -1      1375 6.77053E-02 6.77053E-02 8.69708E-05-9.01896E-02-1.52916E-05-1.52916E-05
 -1      1377 7.98607E-02 5.25397E-02-3.03696E-05-8.62490E-02 8.38348E-06 7.16023E-06
 -1      1378 9.55754E-02 3.98351E-02 8.69709E-05-8.57754E-02-1.74954E-05-1.27112E-05
 -1      1380 1.05844E-01 2.65558E-02-3.03697E-05-7.78064E-02 9.40039E-06 5.76055E-06
 -1      1381 1.20717E-01 1.46931E-02 8.69708E-05-7.29650E-02-1.92685E-05-9.81778E-06
 -1      1383 1.27948E-01 4.45267E-03-3.03693E-05-6.17475E-02 1.01859E-05 4.21909E-06
 -1      1384 1.40670E-01-5.25968E-03 8.69706E-05-5.30121E-02-2.05672E-05-6.68269E-06
 -1      1386 1.44007E-01-1.16062E-02-3.03693E-05-3.96443E-02 1.07205E-05 2.57381E-06
 -1      1387 1.53481E-01-1.80702E-02 8.69708E-05-2.78701E-02-2.13593E-05-3.38306E-06
 -1      1389 1.52449E-01-2.00489E-02-3.03698E-05-1.36605E-02 1.09910E-05 8.65074E-07
 -1      1391-1.52833E-02 1.47754E-01-2.59971E-05-1.29113E-02 8.45367E-07 1.07414E-05
 -1      1392-1.33847E-02 1.48652E-01 7.83123E-05-2.63245E-02-3.21085E-06-2.02725E-05
 -1      1394-7.30367E-03 1.39775E-01-2.59971E-05-3.74700E-02 2.51528E-06 1.04769E-05
 -1      1395-1.28466E-03 1.36552E-01 7.83123E-05-5.00722E-02-6.34265E-06-1.95207E-05
 -1      1397 7.87447E-03 1.24596E-01-2.59972E-05-5.83610E-02 4.12327E-06 9.95444E-06
 -1      1398 1.75616E-02 1.17706E-01 7.83123E-05-6.89184E-02-9.31828E-06-1.82881E-05
 -1      1400 2.87654E-02 1.03705E-01-2.59971E-05-7.35391E-02 5.62974E-06 9.18686E-06
 -1      1401 4.13093E-02 9.39583E-02 7.83122E-05-8.10185E-02-1.20645E-05-1.66053E-05
 -1      1403 5.33241E-02 7.91467E-02-2.59969E-05-8.15187E-02 6.99761E-06 8.19310E-06
 -1      1404 6.76338E-02 6.76338E-02 7.83122E-05-8.51879E-02-1.45135E-05-1.45135E-05
 -1      1406 7.91467E-02 5.33241E-02-2.59973E-05-8.15187E-02 8.19308E-06 6.99752E-06
 -1      1407 9.39583E-02 4.13093E-02 7.83125E-05-8.10185E-02-1.66053E-05-1.20644E-05
 -1      1409 1.03705E-01 2.87654E-02-2.59974E-05-7.35391E-02 9.18684E-06 5.62965E-06
 -1      1410 1.17706E-01 1.75616E-02 7.83123E-05-6.89184E-02-1.82881E-05-9.31819E-06
 -1      1412 1.24596E-01 7.87447E-03-2.59968E-05-5.83610E-02 9.95453E-06 4.12324E-06
 -1      1413 1.36552E-01-1.28467E-03 7.83119E-05-5.00722E-02-1.95207E-05-6.34263E-06
 -1      1415 1.39775E-01-7.30367E-03-2.59968E-05-3.74700E-02 1.04770E-05 2.51528E-06
 -1      1416 1.48652E-01-1.33847E-02 7.83123E-05-2.63245E-02-2.02725E-05-3.21091E-06
 -1      1418 1.47754E-01-1.52833E-02-2.59977E-05-1.29113E-02 1.07413E-05 8.45356E-07
 -1      1420-1.08802E-02 1.43440E-01-2.10008E-05-1.22209E-02 8.81152E-07 1.11961E-05
 -1      1421-9.10370E-03 1.44209E-01 6.99493E-05-2.49071E-02-3.12224E-06-1.97131E-05
 -1      1423-3.32726E-03 1.35887E-01-2.10008E-05-3.54665E-02 2.62176E-06 1.09204E-05
 -1      1424 2.34484E-03 1.32760E-01 6.99493E-05-4.73761E-02-6.16761E-06-1.89819E-05
 -1      1426 1.10393E-02 1.21520E-01-2.10008E-05-5.52404E-02 4.29781E-06 1.03758E-05
 -1      1427 2.01764E-02 1.14929E-01 6.99493E-05-6.52077E-02-9.06112E-06-1.77834E-05
 -1      1429 3.08132E-02 1.01746E-01-2.10007E-05-6.96069E-02 5.86807E-06 9.57577E-06
 -1      1430 4.26454E-02 9.24596E-02 6.99490E-05-7.66562E-02-1.17315E-05-1.61470E-05
 -1      1432 5.40587E-02 7.85006E-02-2.10006E-05-7.71599E-02 7.29373E-06 8.54008E-06
 -1      1433 6.75525E-02 6.75525E-02 6.99492E-05-8.06011E-02-1.41128E-05-1.41132E-05
 -1      1435 7.85006E-02 5.40587E-02-2.10009E-05-7.71599E-02 8.53958E-06 7.29411E-06
 -1      1436 9.24596E-02 4.26454E-02 6.99497E-05-7.66562E-02-1.61469E-05-1.17316E-05
 -1      1438 1.01746E-01 3.08132E-02-2.10010E-05-6.96069E-02 9.57571E-06 5.86793E-06
 -1      1439 1.14929E-01 2.01764E-02 6.99493E-05-6.52077E-02-1.77835E-05-9.06098E-06
 -1      1441 1.21520E-01 1.10393E-02-2.10004E-05-5.52404E-02 1.03760E-05 4.29778E-06
 -1      1442 1.32760E-01 2.34483E-03 6.99486E-05-4.73761E-02-1.89819E-05-6.16780E-06
 -1      1444 1.35887E-01-3.32726E-03-2.10004E-05-3.54665E-02 1.09204E-05 2.62237E-06
 -1      1445 1.44209E-01-9.10370E-03 6.99494E-05-2.49071E-02-1.97130E-05-3.12279E-06
 -1      1447 1.43440E-01-1.08802E-02-2.10014E-05-1.22209E-02 1.11959E-05 8.81720E-07
 -1      1449-6.78603E-03 1.39471E-01-9.83855E-06-1.15824E-02 9.94602E-07 1.26376E-05
 -1      1450-5.21197E-03 1.40101E-01 5.56934E-05-2.36075E-02-2.90478E-06-1.83400E-05
 -1      1452 3.72304E-04 1.32313E-01-9.83856E-06-3.36135E-02 2.95932E-06 1.23264E-05
 -1      1453 5.63920E-03 1.29249E-01 5.56934E-05-4.49041E-02-5.73807E-06-1.76598E-05
 -1      1455 1.39883E-02 1.18697E-01-9.83856E-06-5.23543E-02 4.85125E-06 1.17117E-05
 -1      1456 2.25403E-02 1.12348E-01 5.56933E-05-6.18052E-02-8.43012E-06-1.65446E-05
 -1      1458 3.27290E-02 9.99561E-02-9.83863E-06-6.59703E-02 6.62379E-06 1.08086E-05
 -1      1459 4.38369E-02 9.10518E-02 5.56930E-05-7.26563E-02-1.09147E-05-1.50222E-05
 -1      1461 5.47602E-02 7.79250E-02-9.83883E-06-7.31286E-02 8.23357E-06 9.63935E-06
 -1      1462 6.74443E-02 6.74443E-02 5.56931E-05-7.63954E-02-1.31304E-05-1.31296E-05
 -1      1464 7.79250E-02 5.47601E-02-9.83846E-06-7.31286E-02 9.64021E-06 8.23163E-06
 -1      1465 9.10518E-02 4.38369E-02 5.56939E-05-7.26563E-02-1.50226E-05-1.09138E-05
 -1      1467 9.99561E-02 3.27290E-02-9.83827E-06-6.59703E-02 1.08084E-05 6.62299E-06
 -1      1468 1.12348E-01 2.25403E-02 5.56933E-05-6.18052E-02-1.65450E-05-8.42951E-06
 -1      1470 1.18697E-01 1.39883E-02-9.83891E-06-5.23543E-02 1.17124E-05 4.85099E-06
 -1      1471 1.29249E-01 5.63918E-03 5.56927E-05-4.49041E-02-1.76603E-05-5.73743E-06
 -1      1473 1.32313E-01 3.72303E-04-9.83890E-06-3.36135E-02 1.23273E-05 2.95779E-06
 -1      1474 1.40101E-01-5.21196E-03 5.56939E-05-2.36075E-02-1.83403E-05-2.90407E-06
 -1      1476 1.39471E-01-6.78604E-03-9.83788E-06-1.15824E-02 1.26366E-05 9.93069E-07
 -1      1478-2.95222E-03 1.35814E-01-1.49650E-05-1.09892E-02 1.16059E-06 1.47470E-05
 -1      1479-1.69178E-03 1.36296E-01 5.76367E-05-2.24174E-02-4.78286E-06-3.01978E-05
 -1      1481 3.83946E-03 1.29022E-01-1.49651E-05-3.18918E-02 3.45324E-06 1.43838E-05
 -1      1482 8.61236E-03 1.25991E-01 5.76369E-05-4.26404E-02-9.44792E-06-2.90779E-05
 -1      1484 1.67580E-02 1.16103E-01-1.49653E-05-4.96727E-02 5.66064E-06 1.36666E-05
 -1      1485 2.46614E-02 1.09942E-01 5.76372E-05-5.86895E-02-1.38804E-05-2.72421E-05
 -1      1487 3.45389E-02 9.83226E-02-1.49662E-05-6.25913E-02 7.72890E-06 1.26130E-05
 -1      1488 4.48845E-02 8.97193E-02 5.76374E-05-6.89937E-02-1.79700E-05-2.47362E-05
 -1      1490 5.54415E-02 7.74199E-02-1.49668E-05-6.93829E-02 9.60622E-06 1.12493E-05
 -1      1491 6.73019E-02 6.73019E-02 5.76373E-05-7.25442E-02-2.16158E-05-2.16231E-05
 -1      1493 7.74199E-02 5.54415E-02-1.49644E-05-6.93829E-02 1.12455E-05 9.61004E-06
 -1      1494 8.97193E-02 4.48845E-02 5.76363E-05-6.89937E-02-2.47326E-05-1.79740E-05
 -1      1496 9.83226E-02 3.45389E-02-1.49637E-05-6.25913E-02 1.26124E-05 7.72915E-06
 -1      1497 1.09942E-01 2.46615E-02 5.76370E-05-5.86895E-02-2.72419E-05-1.38806E-05
 -1      1499 1.16103E-01 1.67580E-02-1.49673E-05-4.96727E-02 1.36668E-05 5.66128E-06
 -1      1500 1.25991E-01 8.61236E-03 5.76373E-05-4.26404E-02-2.90767E-05-9.45284E-06
 -1      1502 1.29022E-01 3.83945E-03-1.49663E-05-3.18918E-02 1.43831E-05 3.45781E-06
 -1      1503 1.36296E-01-1.69178E-03 5.76355E-05-2.24174E-02-3.01960E-05-4.79203E-06
 -1      1505 1.35814E-01-2.95223E-03-1.49597E-05-1.09892E-02 1.47460E-05 1.16510E-06
 -1      1507 1.62777E-03 1.32224E-01-4.60922E-06-2.12167E-02-5.37681E-06-3.39475E-05
 -1      1509 1.13800E-02 1.22472E-01-4.60877E-06-4.03566E-02-1.06218E-05-3.26890E-05
 -1      1511 2.65695E-02 1.07283E-01-4.60592E-06-5.55461E-02-1.56071E-05-3.06303E-05
 -1      1513 4.57094E-02 8.81428E-02-4.60160E-06-6.52983E-02-2.02080E-05-2.78227E-05
 -1      1515 6.69260E-02 6.69261E-02-4.60690E-06-6.86587E-02-2.43004E-05-2.43156E-05
 -1      1517 8.81428E-02 4.57094E-02-4.61457E-06-6.52983E-02-2.77913E-05-2.02002E-05
 -1      1519 1.07283E-01 2.65695E-02-4.60665E-06-5.55461E-02-3.06281E-05-1.56090E-05
 -1      1521 1.22472E-01 1.13800E-02-4.59866E-06-4.03566E-02-3.27087E-05-1.06415E-05
 -1      1523 1.32224E-01 1.62778E-03-4.61876E-06-2.12167E-02-3.39259E-05-5.39244E-06
 -1      1526-8.05614E-01 9.66960E-01 5.52304E-03-2.43067E-04-1.00393E-03 2.19951E-04
 -1      1527-8.04790E-01 9.67940E-01 7.98673E-03-3.18893E-04-3.79019E-04 1.43430E-04
 -1      1528-8.04443E-01 9.68293E-01 8.83606E-03-3.78060E-04-1.42895E-04 5.88343E-05
 -1      1529-8.04316E-01 9.68410E-01 9.10958E-03-4.05539E-04-5.21672E-05 1.76037E-05
 -1      1530-8.04271E-01 9.68447E-01 9.19375E-03-4.15618E-04-1.31388E-05 3.58648E-06
 -1      1531-8.04271E-01 9.68447E-01 9.19375E-03-4.15618E-04 1.31388E-05-3.58648E-06
 -1      1532-8.04316E-01 9.68410E-01 9.10958E-03-4.05539E-04 5.21672E-05-1.76037E-05
 -1      1533-8.04443E-01 9.68293E-01 8.83606E-03-3.78060E-04 1.42895E-04-5.88343E-05
 -1      1534-8.04790E-01 9.67940E-01 7.98673E-03-3.18893E-04 3.79019E-04-1.43430E-04
 -1      1535-8.05614E-01 9.66960E-01 5.52304E-03-2.43067E-04 1.00393E-03-2.19951E-04
 -1      1536-6.64539E-01 8.23514E-01 4.68651E-03-1.62823E-04-1.23566E-03 9.82822E-06
 -1      1537-6.63537E-01 8.24538E-01 7.09253E-03-1.68518E-04-5.32097E-04 6.50647E-05
 -1      1538-6.63165E-01 8.24929E-01 8.03307E-03-1.90256E-04-2.25226E-04 4.95029E-05
 -1      1539-6.63025E-01 8.25081E-01 8.40405E-03-2.06026E-04-9.00829E-05 2.78802E-05
 -1      1540-6.62975E-01 8.25135E-01 8.53666E-03-2.13321E-04-2.39259E-05 8.71010E-06
 -1      1541-6.62975E-01 8.25135E-01 8.53666E-03-2.13321E-04 2.39259E-05-8.71010E-06
 -1      1542-6.63025E-01 8.25081E-01 8.40405E-03-2.06026E-04 9.00829E-05-2.78802E-05
 -1      1543-6.63165E-01 8.24929E-01 8.03307E-03-1.90256E-04 2.25226E-04-4.95029E-05
 -1      1544-6.63537E-01 8.24538E-01 7.09253E-03-1.68518E-04 5.32097E-04-6.50647E-05
 -1      1545-6.64539E-01 8.23514E-01 4.68651E-03-1.62823E-04 1.23566E-03-9.82822E-06
 -1      1546-5.56774E-01 7.11387E-01 3.84789E-03-1.58992E-04-1.10862E-03-2.40948E-05
 -1      1547-5.55948E-01 7.12213E-01 5.77269E-03-1.53078E-04-5.17673E-04 1.72477E-05
 -1      1548-5.55615E-01 7.12551E-01 6.56930E-03-1.60301E-04-2.37533E-04 1.94287E-05
 -1      1549-5.55473E-01 7.12697E-01 6.91656E-03-1.67649E-04-1.01693E-04 1.37759E-05
 -1      1550-5.55419E-01 7.12752E-01 7.04859E-03-1.71648E-04-2.81314E-05 4.74869E-06
 -1      1551-5.55419E-01 7.12752E-01 7.04859E-03-1.71648E-04 2.81314E-05-4.74869E-06
 -1      1552-5.55473E-01 7.12697E-01 6.91656E-03-1.67649E-04 1.01693E-04-1.37759E-05
 -1      1553-5.55615E-01 7.12551E-01 6.56930E-03-1.60301E-04 2.37533E-04-1.94287E-05
 -1      1554-5.55948E-01 7.12213E-01 5.77269E-03-1.53078E-04 5.17673E-04-1.72477E-05
 -1      1555-5.56774E-01 7.11387E-01 3.84789E-03-1.58992E-04 1.10862E-03 2.40948E-05
 -1      1556-4.71335E-01 6.22362E-01 3.06017E-03-1.35911E-04-1.01461E-03-3.08145E-05
 -1      1557-4.70637E-01 6.23058E-01 4.67781E-03-1.32260E-04-4.99854E-04 1.15268E-05
 -1      1558-4.70334E-01 6.23362E-01 5.39083E-03-1.38764E-04-2.41791E-04 1.41257E-05
 -1      1559-4.70195E-01 6.23500E-01 5.71573E-03-1.44928E-04-1.08315E-04 1.00659E-05
 -1      1560-4.70141E-01 6.23554E-01 5.84320E-03-1.48240E-04-3.07935E-05 3.45237E-06
 -1      1561-4.70141E-01 6.23554E-01 5.84320E-03-1.48240E-04 3.07935E-05-3.45237E-06
 -1      1562-4.70195E-01 6.23500E-01 5.71573E-03-1.44928E-04 1.08315E-04-1.00659E-05
 -1      1563-4.70334E-01 6.23362E-01 5.39083E-03-1.38764E-04 2.41791E-04-1.41257E-05
 -1      1564-4.70637E-01 6.23058E-01 4.67781E-03-1.32260E-04 4.99854E-04-1.15268E-05
 -1      1565-4.71335E-01 6.22362E-01 3.06017E-03-1.35911E-04 1.01461E-03 3.08145E-05
 -1      1566-4.02290E-01 5.50597E-01 2.49367E-03-1.23056E-04-9.29588E-04-3.13879E-05
 -1      1567-4.01707E-01 5.51181E-01 3.85175E-03-1.16694E-04-4.79650E-04 5.67813E-06
 -1      1568-4.01437E-01 5.51451E-01 4.48525E-03-1.21003E-04-2.42131E-04 1.08757E-05
 -1      1569-4.01309E-01 5.51580E-01 4.78740E-03-1.25957E-04-1.12326E-04 8.34274E-06
 -1      1570-4.01257E-01 5.51632E-01 4.90966E-03-1.28758E-04-3.25945E-05 2.92702E-06
 -1      1571-4.01257E-01 5.51632E-01 4.90966E-03-1.28758E-04 3.25945E-05-2.92702E-06
 -1      1572-4.01309E-01 5.51580E-01 4.78740E-03-1.25957E-04 1.12326E-04-8.34274E-06
 -1      1573-4.01437E-01 5.51451E-01 4.48525E-03-1.21003E-04 2.42131E-04-1.08757E-05
 -1      1574-4.01707E-01 5.51181E-01 3.85175E-03-1.16694E-04 4.79650E-04-5.67813E-06
 -1      1575-4.02290E-01 5.50597E-01 2.49367E-03-1.23056E-04 9.29588E-04 3.13879E-05
 -1      1576-3.45724E-01 4.91888E-01 2.05571E-03-1.10576E-04-8.52330E-04-3.18836E-05
 -1      1577-3.45227E-01 4.92385E-01 3.21183E-03-1.03839E-04-4.57870E-04 2.07784E-06
 -1      1578-3.44987E-01 4.92626E-01 3.77606E-03-1.06410E-04-2.39804E-04 8.37864E-06
 -1      1579-3.44868E-01 4.92745E-01 4.05529E-03-1.10172E-04-1.14571E-04 7.01154E-06
 -1      1580-3.44819E-01 4.92794E-01 4.17123E-03-1.12431E-04-3.38105E-05 2.53846E-06
 -1      1581-3.44819E-01 4.92794E-01 4.17123E-03-1.12431E-04 3.38105E-05-2.53846E-06
 -1      1582-3.44868E-01 4.92745E-01 4.05529E-03-1.10172E-04 1.14571E-04-7.01154E-06
 -1      1583-3.44987E-01 4.92626E-01 3.77606E-03-1.06410E-04 2.39804E-04-8.37864E-06
 -1      1584-3.45227E-01 4.92385E-01 3.21183E-03-1.03839E-04 4.57870E-04-2.07784E-06
 -1      1585-3.45724E-01 4.91888E-01 2.05571E-03-1.10576E-04 8.52330E-04 3.18836E-05
 -1      1586-2.98799E-01 4.43252E-01 1.71516E-03-9.99522E-05-7.83131E-04-3.15137E-05
 -1      1587-2.98373E-01 4.43678E-01 2.70671E-03-9.28177E-05-4.35446E-04-7.78849E-07
 -1      1588-2.98159E-01 4.43894E-01 3.21057E-03-9.41644E-05-2.35314E-04 6.29482E-06
 -1      1589-2.98050E-01 4.44003E-01 3.46778E-03-9.69666E-05-1.15247E-04 5.80548E-06
 -1      1590-2.98003E-01 4.44050E-01 3.57685E-03-9.87519E-05-3.44898E-05 2.16698E-06
 -1      1591-2.98003E-01 4.44050E-01 3.57685E-03-9.87519E-05 3.44898E-05-2.16698E-06
 -1      1592-2.98050E-01 4.44003E-01 3.46778E-03-9.69666E-05 1.15247E-04-5.80548E-06
 -1      1593-2.98159E-01 4.43894E-01 3.21057E-03-9.41644E-05 2.35314E-04-6.29482E-06
 -1      1594-2.98373E-01 4.43678E-01 2.70671E-03-9.28177E-05 4.35446E-04 7.78849E-07
 -1      1595-2.98799E-01 4.43252E-01 1.71516E-03-9.99522E-05 7.83131E-04 3.15137E-05
 -1      1596-2.59445E-01 4.02508E-01 1.44553E-03-9.06522E-05-7.20847E-04-3.08778E-05
 -1      1597-2.59077E-01 4.02877E-01 2.30235E-03-8.34597E-05-4.13051E-04-3.03541E-06
 -1      1598-2.58885E-01 4.03070E-01 2.75303E-03-8.38311E-05-2.29293E-04 4.42007E-06
 -1      1599-2.58785E-01 4.03170E-01 2.98933E-03-8.58416E-05-1.14678E-04 4.67743E-06
 -1      1600-2.58742E-01 4.03214E-01 3.09133E-03-8.72233E-05-3.47237E-05 1.80820E-06
 -1      1601-2.58742E-01 4.03214E-01 3.09133E-03-8.72233E-05 3.47237E-05-1.80820E-06
 -1      1602-2.58785E-01 4.03170E-01 2.98933E-03-8.58416E-05 1.14678E-04-4.67743E-06
 -1      1603-2.58885E-01 4.03070E-01 2.75303E-03-8.38311E-05 2.29293E-04-4.42007E-06
 -1      1604-2.59077E-01 4.02877E-01 2.30235E-03-8.34597E-05 4.13051E-04 3.03541E-06
 -1      1605-2.59445E-01 4.02508E-01 1.44553E-03-9.06522E-05 7.20847E-04 3.08778E-05
 -1      1606-2.26118E-01 3.68037E-01 1.22921E-03-8.25021E-05-6.64752E-04-3.00216E-05
 -1      1607-2.25798E-01 3.68358E-01 1.97432E-03-7.54119E-05-3.91055E-04-4.82411E-06
 -1      1608-2.25626E-01 3.68530E-01 2.37822E-03-7.50608E-05-2.22197E-04 2.77648E-06
 -1      1609-2.25534E-01 3.68623E-01 2.59488E-03-7.64222E-05-1.13138E-04 3.63280E-06
 -1      1610-2.25494E-01 3.68663E-01 2.68982E-03-7.74607E-05-3.45984E-05 1.46600E-06
 -1      1611-2.25494E-01 3.68663E-01 2.68982E-03-7.74607E-05 3.45984E-05-1.46600E-06
 -1      1612-2.25534E-01 3.68623E-01 2.59488E-03-7.64222E-05 1.13138E-04-3.63280E-06
 -1      1613-2.25626E-01 3.68530E-01 2.37822E-03-7.50608E-05 2.22197E-04-2.77648E-06
 -1      1614-2.25798E-01 3.68358E-01 1.97432E-03-7.54119E-05 3.91055E-04 4.82411E-06
 -1      1615-2.26118E-01 3.68037E-01 1.22921E-03-8.25021E-05 6.64752E-04 3.00216E-05
 -1      1616-1.97648E-01 3.38614E-01 1.05354E-03-7.53251E-05-6.14128E-04-2.90350E-05
 -1      1617-1.97368E-01 3.38894E-01 1.70517E-03-6.84518E-05-3.69732E-04-6.22567E-06
 -1      1618-1.97213E-01 3.39049E-01 2.06783E-03-6.75635E-05-2.14382E-04 1.35165E-06
 -1      1619-1.97129E-01 3.39134E-01 2.26624E-03-6.84024E-05-1.10856E-04 2.68964E-06
 -1      1620-1.97092E-01 3.39172E-01 2.35431E-03-6.91542E-05-3.41883E-05 1.14939E-06
 -1      1621-1.97092E-01 3.39172E-01 2.35431E-03-6.91542E-05 3.41883E-05-1.14939E-06
 -1      1622-1.97129E-01 3.39134E-01 2.26624E-03-6.84024E-05 1.10856E-04-2.68964E-06
 -1      1623-1.97213E-01 3.39049E-01 2.06783E-03-6.75635E-05 2.14382E-04-1.35165E-06
 -1      1624-1.97368E-01 3.38894E-01 1.70517E-03-6.84518E-05 3.69732E-04 6.22567E-06
 -1      1625-1.97648E-01 3.38614E-01 1.05354E-03-7.53251E-05 6.14128E-04 2.90350E-05
 -1      1626-1.73135E-01 3.13298E-01 9.09332E-04-6.89782E-05-5.68345E-04-2.79695E-05
 -1      1627-1.72889E-01 3.13545E-01 1.48210E-03-6.23928E-05-3.49241E-04-7.30871E-06
 -1      1628-1.72750E-01 3.13685E-01 1.80833E-03-6.11156E-05-2.06128E-04 1.33760E-07
 -1      1629-1.72673E-01 3.13762E-01 1.98991E-03-6.15370E-05-1.08024E-04 1.85168E-06
 -1      1630-1.72638E-01 3.13797E-01 2.07139E-03-6.20522E-05-3.35577E-05 8.62640E-07
 -1      1631-1.72638E-01 3.13797E-01 2.07139E-03-6.20522E-05 3.35577E-05-8.62640E-07
 -1      1632-1.72673E-01 3.13762E-01 1.98991E-03-6.15370E-05 1.08024E-04-1.85168E-06
 -1      1633-1.72750E-01 3.13685E-01 1.80833E-03-6.11156E-05 2.06128E-04-1.33760E-07
 -1      1634-1.72889E-01 3.13545E-01 1.48210E-03-6.23928E-05 3.49241E-04 7.30871E-06
 -1      1635-1.73135E-01 3.13298E-01 9.09332E-04-6.89782E-05 5.68345E-04 2.79695E-05
 -1      1636-1.51880E-01 2.91360E-01 7.89816E-04-6.33430E-05-5.26848E-04-2.68635E-05
 -1      1637-1.51662E-01 2.91578E-01 1.29555E-03-5.70874E-05-3.29680E-04-8.13023E-06
 -1      1638-1.51537E-01 2.91704E-01 1.58956E-03-5.55369E-05-1.97646E-04-8.96233E-07
 -1      1639-1.51466E-01 2.91775E-01 1.75567E-03-5.56290E-05-1.04795E-04 1.11696E-06
 -1      1640-1.51434E-01 2.91807E-01 1.83093E-03-5.59510E-05-3.27602E-05 6.06815E-07
 -1      1641-1.51434E-01 2.91807E-01 1.83093E-03-5.59510E-05 3.27602E-05-6.06815E-07
 -1      1642-1.51466E-01 2.91775E-01 1.75567E-03-5.56290E-05 1.04795E-04-1.11696E-06
 -1      1643-1.51537E-01 2.91704E-01 1.58956E-03-5.55369E-05 1.97646E-04 8.96233E-07
 -1      1644-1.51662E-01 2.91578E-01 1.29555E-03-5.70874E-05 3.29680E-04 8.13023E-06
 -1      1645-1.51880E-01 2.91360E-01 7.89816E-04-6.33430E-05 5.26848E-04 2.68635E-05
 -1      1646-1.33328E-01 2.72224E-01 6.89903E-04-5.83210E-05-4.89152E-04-2.57437E-05
 -1      1647-1.33136E-01 2.72418E-01 1.13829E-03-5.24169E-05-3.11094E-04-8.73742E-06
 -1      1648-1.33022E-01 2.72532E-01 1.40374E-03-5.06833E-05-1.89100E-04-1.75845E-06
 -1      1649-1.32957E-01 2.72597E-01 1.55571E-03-5.05190E-05-1.01295E-04 4.79526E-07
 -1      1650-1.32928E-01 2.72626E-01 1.62514E-03-5.06847E-05-3.18406E-05 3.81357E-07
 -1      1651-1.32928E-01 2.72626E-01 1.62514E-03-5.06847E-05 3.18406E-05-3.81356E-07
 -1      1652-1.32957E-01 2.72597E-01 1.55571E-03-5.05190E-05 1.01295E-04-4.79526E-07
 -1      1653-1.33022E-01 2.72532E-01 1.40374E-03-5.06833E-05 1.89100E-04 1.75845E-06
 -1      1654-1.33136E-01 2.72418E-01 1.13829E-03-5.24169E-05 3.11094E-04 8.73742E-06
 -1      1655-1.33328E-01 2.72224E-01 6.89903E-04-5.83210E-05 4.89152E-04 2.57437E-05
 -1      1656-1.17042E-01 2.55433E-01 6.05727E-04-5.38300E-05-4.54837E-04-2.46287E-05
 -1      1657-1.16871E-01 2.55605E-01 1.00477E-03-4.82848E-05-2.93500E-04-9.16896E-06
 -1      1658-1.16768E-01 2.55708E-01 1.24486E-03-4.64380E-05-1.80610E-04-2.47266E-06
 -1      1659-1.16709E-01 2.55768E-01 1.38392E-03-4.60770E-05-9.76250E-05-6.82374E-08
 -1      1660-1.16681E-01 2.55795E-01 1.44792E-03-4.61180E-05-3.08350E-05 1.84687E-07
 -1      1661-1.16681E-01 2.55795E-01 1.44792E-03-4.61180E-05 3.08350E-05-1.84687E-07
 -1      1662-1.16709E-01 2.55768E-01 1.38392E-03-4.60770E-05 9.76250E-05 6.82374E-08
 -1      1663-1.16768E-01 2.55708E-01 1.24486E-03-4.64380E-05 1.80610E-04 2.47266E-06
 -1      1664-1.16871E-01 2.55605E-01 1.00477E-03-4.82848E-05 2.93500E-04 9.16896E-06
 -1      1665-1.17042E-01 2.55433E-01 6.05727E-04-5.38300E-05 4.54837E-04 2.46287E-05
 -1      1666-1.02667E-01 2.40618E-01 5.34309E-04-4.98006E-05-4.23534E-04-2.35313E-05
 -1      1667-1.02513E-01 2.40772E-01 8.90659E-04-4.46121E-05-2.76890E-04-9.45662E-06
 -1      1668-1.02420E-01 2.40865E-01 1.10819E-03-4.27057E-05-1.72266E-04-3.05729E-06
 -1      1669-1.02366E-01 2.40920E-01 1.23549E-03-4.21971E-05-9.38629E-05-5.34591E-07
 -1      1670-1.02341E-01 2.40945E-01 1.29446E-03-4.21397E-05-2.97730E-05 1.47487E-08
 -1      1671-1.02341E-01 2.40945E-01 1.29446E-03-4.21397E-05 2.97730E-05-1.47486E-08
 -1      1672-1.02366E-01 2.40920E-01 1.23549E-03-4.21971E-05 9.38629E-05 5.34591E-07
 -1      1673-1.02420E-01 2.40865E-01 1.10819E-03-4.27057E-05 1.72266E-04 3.05729E-06
 -1      1674-1.02513E-01 2.40772E-01 8.90659E-04-4.46121E-05 2.76890E-04 9.45662E-06
 -1      1675-1.02667E-01 2.40618E-01 5.34309E-04-4.98006E-05 4.23534E-04 2.35313E-05
 -1      1676-8.99144E-02 2.27482E-01 4.73325E-04-4.61739E-05-3.94922E-04-2.24603E-05
 -1      1677-8.97770E-02 2.27619E-01 7.92565E-04-4.13333E-05-2.61239E-04-9.62663E-06
 -1      1678-8.96924E-02 2.27704E-01 9.89995E-04-3.94084E-05-1.64132E-04-3.52924E-06
 -1      1679-8.96426E-02 2.27754E-01 1.10660E-03-3.87917E-05-9.00704E-05-9.27889E-07
 -1      1680-8.96195E-02 2.27777E-01 1.16092E-03-3.86578E-05-2.86778E-05-1.30765E-07
 -1      1681-8.96195E-02 2.27777E-01 1.16092E-03-3.86578E-05 2.86778E-05 1.30765E-07
 -1      1682-8.96426E-02 2.27754E-01 1.10660E-03-3.87917E-05 9.00704E-05 9.27889E-07
 -1      1683-8.96924E-02 2.27704E-01 9.89995E-04-3.94084E-05 1.64132E-04 3.52924E-06
 -1      1684-8.97770E-02 2.27619E-01 7.92565E-04-4.13333E-05 2.61239E-04 9.62663E-06
 -1      1685-8.99144E-02 2.27482E-01 4.73325E-04-4.61739E-05 3.94922E-04 2.24603E-05
 -1      1686-7.85499E-02 2.15779E-01 4.20947E-04-4.28985E-05-3.68721E-04-2.14216E-05
 -1      1687-7.84263E-02 2.15902E-01 7.07784E-04-3.83929E-05-2.46515E-04-9.70084E-06
 -1      1688-7.83494E-02 2.15980E-01 8.87266E-04-3.64802E-05-1.56254E-04-3.90386E-06
 -1      1689-7.83037E-02 2.16026E-01 9.94149E-04-3.57875E-05-8.62952E-05-1.25628E-06
 -1      1690-7.82824E-02 2.16047E-01 1.04420E-03-3.55953E-05-2.75681E-05-2.54243E-07
 -1      1691-7.82824E-02 2.16047E-01 1.04420E-03-3.55953E-05 2.75681E-05 2.54244E-07
 -1      1692-7.83037E-02 2.16026E-01 9.94149E-04-3.57875E-05 8.62952E-05 1.25628E-06
 -1      1693-7.83494E-02 2.15980E-01 8.87266E-04-3.64802E-05 1.56254E-04 3.90386E-06
 -1      1694-7.84263E-02 2.15902E-01 7.07784E-04-3.83929E-05 2.46515E-04 9.70084E-06
 -1      1695-7.85499E-02 2.15779E-01 4.20947E-04-4.28985E-05 3.68721E-04 2.14216E-05
 -1      1696-6.83789E-02 2.05308E-01 3.75716E-04-3.99275E-05-3.44683E-04-2.04194E-05
 -1      1697-6.82675E-02 2.05420E-01 6.34147E-04-3.57413E-05-2.32679E-04-9.69764E-06
 -1      1698-6.81975E-02 2.05490E-01 7.97575E-04-3.38641E-05-1.48662E-04-4.19505E-06
 -1      1699-6.81555E-02 2.05532E-01 8.95623E-04-3.31209E-05-8.25732E-05-1.52760E-06
 -1      1700-6.81359E-02 2.05552E-01 9.41741E-04-3.28852E-05-2.64583E-05-3.58088E-07
 -1      1701-6.81359E-02 2.05552E-01 9.41741E-04-3.28852E-05 2.64583E-05 3.58088E-07
 -1      1702-6.81555E-02 2.05532E-01 8.95623E-04-3.31209E-05 8.25732E-05 1.52760E-06
 -1      1703-6.81975E-02 2.05490E-01 7.97575E-04-3.38641E-05 1.48662E-04 4.19505E-06
 -1      1704-6.82675E-02 2.05420E-01 6.34147E-04-3.57413E-05 2.32679E-04 9.69764E-06
 -1      1705-6.83789E-02 2.05308E-01 3.75716E-04-3.99275E-05 3.44683E-04 2.04194E-05
 -1      1706-5.92401E-02 1.95903E-01 3.36460E-04-3.72127E-05-3.22589E-04-1.94567E-05
 -1      1707-5.91394E-02 1.96004E-01 5.69893E-04-3.33298E-05-2.19685E-04-9.63290E-06
 -1      1708-5.90755E-02 1.96068E-01 7.18936E-04-3.15050E-05-1.41374E-04-4.41565E-06
 -1      1709-5.90370E-02 1.96107E-01 8.08954E-04-3.07318E-05-7.89306E-05-1.74941E-06
 -1      1710-5.90188E-02 1.96125E-01 8.51468E-04-3.04649E-05-2.53593E-05-4.44704E-07
 -1      1711-5.90188E-02 1.96125E-01 8.51468E-04-3.04649E-05 2.53593E-05 4.44704E-07
 -1      1712-5.90370E-02 1.96107E-01 8.08954E-04-3.07318E-05 7.89306E-05 1.74941E-06
 -1      1713-5.90755E-02 1.96068E-01 7.18936E-04-3.15050E-05 1.41374E-04 4.41565E-06
 -1      1714-5.91394E-02 1.96004E-01 5.69893E-04-3.33298E-05 2.19685E-04 9.63290E-06
 -1      1715-5.92401E-02 1.95903E-01 3.36460E-04-3.72127E-05 3.22589E-04 1.94567E-05
 -1      1716-5.09984E-02 1.87424E-01 3.02222E-04-3.46942E-05-3.02242E-04-1.85358E-05
 -1      1717-5.09073E-02 1.87515E-01 5.13574E-04-3.10991E-05-2.07482E-04-9.52106E-06
 -1      1718-5.08489E-02 1.87574E-01 6.49703E-04-2.93398E-05-1.34397E-04-4.57801E-06
 -1      1719-5.08134E-02 1.87609E-01 7.32419E-04-2.85533E-05-7.53854E-05-1.92936E-06
 -1      1720-5.07967E-02 1.87626E-01 7.71629E-04-2.82652E-05-2.42792E-05-5.16584E-07
 -1      1721-5.07967E-02 1.87626E-01 7.71629E-04-2.82652E-05 2.42792E-05 5.16584E-07
 -1      1722-5.08134E-02 1.87609E-01 7.32419E-04-2.85533E-05 7.53854E-05 1.92936E-06
 -1      1723-5.08489E-02 1.87574E-01 6.49703E-04-2.93398E-05 1.34397E-04 4.57801E-06
 -1      1724-5.09073E-02 1.87515E-01 5.13574E-04-3.10991E-05 2.07482E-04 9.52106E-06
 -1      1725-5.09984E-02 1.87424E-01 3.02222E-04-3.46942E-05 3.02242E-04 1.85358E-05
 -1      1726-4.35406E-02 1.79752E-01 2.72206E-04-3.22771E-05-2.83453E-04-1.76602E-05
 -1      1727-4.34578E-02 1.79835E-01 4.63979E-04-2.89584E-05-1.96014E-04-9.37665E-06
 -1      1728-4.34043E-02 1.79888E-01 5.88485E-04-2.72757E-05-1.27727E-04-4.69530E-06
 -1      1729-4.33717E-02 1.79921E-01 6.64555E-04-2.64900E-05-7.19468E-05-2.07587E-06
 -1      1730-4.33562E-02 1.79937E-01 7.00736E-04-2.61893E-05-2.32226E-05-5.76568E-07
 -1      1731-4.33562E-02 1.79937E-01 7.00736E-04-2.61893E-05 2.32226E-05 5.76568E-07
 -1      1732-4.33717E-02 1.79921E-01 6.64555E-04-2.64900E-05 7.19468E-05 2.07587E-06
 -1      1733-4.34043E-02 1.79888E-01 5.88485E-04-2.72757E-05 1.27727E-04 4.69530E-06
 -1      1734-4.34578E-02 1.79835E-01 4.63979E-04-2.89584E-05 1.96014E-04 9.37665E-06
 -1      1735-4.35406E-02 1.79752E-01 2.72206E-04-3.22771E-05 2.83453E-04 1.76602E-05
 -1      1736-3.67706E-02 1.72788E-01 2.45723E-04-2.97826E-05-2.66031E-04-1.68350E-05
 -1      1737-3.66953E-02 1.72864E-01 4.20056E-04-2.67378E-05-1.85207E-04-9.21679E-06
 -1      1738-3.66463E-02 1.72913E-01 5.34066E-04-2.51450E-05-1.21342E-04-4.78334E-06
 -1      1739-3.66162E-02 1.72943E-01 6.04073E-04-2.43736E-05-6.86134E-05-2.19950E-06
 -1      1740-3.66019E-02 1.72957E-01 6.37471E-04-2.40681E-05-2.21908E-05-6.28230E-07
 -1      1741-3.66019E-02 1.72957E-01 6.37471E-04-2.40681E-05 2.21908E-05 6.28230E-07
 -1      1742-3.66162E-02 1.72943E-01 6.04073E-04-2.43736E-05 6.86134E-05 2.19950E-06
 -1      1743-3.66463E-02 1.72913E-01 5.34066E-04-2.51450E-05 1.21342E-04 4.78334E-06
 -1      1744-3.66953E-02 1.72864E-01 4.20056E-04-2.67378E-05 1.85207E-04 9.21679E-06
 -1      1745-3.67706E-02 1.72788E-01 2.45723E-04-2.97826E-05 2.66031E-04 1.68350E-05
 -1      1746-3.06077E-02 1.66448E-01 2.22137E-04-2.68445E-05-2.49750E-04-1.60695E-05
 -1      1747-3.05389E-02 1.66517E-01 3.80824E-04-2.40914E-05-1.74952E-04-9.06403E-06
 -1      1748-3.04939E-02 1.66562E-01 4.85302E-04-2.26097E-05-1.15196E-04-4.86404E-06
 -1      1749-3.04661E-02 1.66590E-01 5.49750E-04-2.18699E-05-6.53668E-05-2.31455E-06
 -1      1750-3.04529E-02 1.66603E-01 5.80581E-04-2.15688E-05-2.11792E-05-6.76646E-07
 -1      1751-3.04529E-02 1.66603E-01 5.80581E-04-2.15688E-05 2.11792E-05 6.76646E-07
 -1      1752-3.04661E-02 1.66590E-01 5.49750E-04-2.18699E-05 6.53668E-05 2.31455E-06
 -1      1753-3.04939E-02 1.66562E-01 4.85302E-04-2.26097E-05 1.15196E-04 4.86404E-06
 -1      1754-3.05389E-02 1.66517E-01 3.80824E-04-2.40914E-05 1.74952E-04 9.06403E-06
 -1      1755-3.06077E-02 1.66448E-01 2.22137E-04-2.68445E-05 2.49750E-04 1.60695E-05
 -1      1756-2.49837E-02 1.60659E-01 2.00767E-04-2.26921E-05-2.34290E-04-1.53799E-05
 -1      1757-2.49207E-02 1.60721E-01 3.45258E-04-2.02908E-05-1.65069E-04-8.95311E-06
 -1      1758-2.48791E-02 1.60763E-01 4.40967E-04-1.89676E-05-1.09189E-04-4.96810E-06
 -1      1759-2.48535E-02 1.60788E-01 5.00268E-04-1.82881E-05-6.21585E-05-2.44392E-06
 -1      1760-2.48412E-02 1.60801E-01 5.28712E-04-1.80049E-05-2.01733E-05-7.29772E-07
 -1      1761-2.48412E-02 1.60801E-01 5.28712E-04-1.80049E-05 2.01733E-05 7.29772E-07
 -1      1762-2.48535E-02 1.60788E-01 5.00268E-04-1.82881E-05 6.21585E-05 2.44392E-06
 -1      1763-2.48791E-02 1.60763E-01 4.40967E-04-1.89676E-05 1.09189E-04 4.96810E-06
 -1      1764-2.49207E-02 1.60721E-01 3.45258E-04-2.02908E-05 1.65069E-04 8.95311E-06
 -1      1765-2.49837E-02 1.60659E-01 2.00767E-04-2.26921E-05 2.34290E-04 1.53799E-05
 -1      1766-1.98426E-02 1.55356E-01 1.80797E-04-1.57019E-05-2.19127E-04-1.48086E-05
 -1      1767-1.97845E-02 1.55413E-01 3.12043E-04-1.38193E-05-1.55220E-04-8.94778E-06
 -1      1768-1.97460E-02 1.55451E-01 3.99547E-04-1.27505E-05-1.03120E-04-5.16802E-06
 -1      1769-1.97222E-02 1.55475E-01 4.53954E-04-1.21934E-05-5.88824E-05-2.62981E-06
 -1      1770-1.97107E-02 1.55486E-01 4.80103E-04-1.19597E-05-1.91401E-05-8.01473E-07
 -1      1771-1.97107E-02 1.55486E-01 4.80103E-04-1.19597E-05 1.91401E-05 8.01473E-07
 -1      1772-1.97222E-02 1.55475E-01 4.53954E-04-1.21934E-05 5.88824E-05 2.62981E-06
 -1      1773-1.97460E-02 1.55451E-01 3.99547E-04-1.27505E-05 1.03120E-04 5.16802E-06
 -1      1774-1.97845E-02 1.55413E-01 3.12043E-04-1.38193E-05 1.55220E-04 8.94778E-06
 -1      1775-1.98426E-02 1.55356E-01 1.80797E-04-1.57019E-05 2.19127E-04 1.48086E-05
 -1      1776-1.51412E-02 1.50485E-01 1.60886E-04-2.55465E-06-2.03220E-04-1.44829E-05
 -1      1777-1.50867E-02 1.50537E-01 2.79553E-04-1.50051E-06-1.44727E-04-9.33310E-06
 -1      1778-1.50507E-02 1.50572E-01 3.58803E-04-9.29707E-07-9.65498E-05-5.71529E-06
 -1      1779-1.50287E-02 1.50593E-01 4.08261E-04-6.42063E-07-5.52852E-05-3.08545E-06
 -1      1780-1.50182E-02 1.50603E-01 4.32102E-04-5.22612E-07-1.79959E-05-9.76577E-07
 -1      1781-1.50182E-02 1.50603E-01 4.32102E-04-5.22612E-07 1.79959E-05 9.76577E-07
 -1      1782-1.50287E-02 1.50593E-01 4.08261E-04-6.42063E-07 5.52852E-05 3.08545E-06
 -1      1783-1.50507E-02 1.50572E-01 3.58803E-04-9.29707E-07 9.65498E-05 5.71529E-06
 -1      1784-1.50867E-02 1.50537E-01 2.79553E-04-1.50051E-06 1.44727E-04 9.33310E-06
 -1      1785-1.51412E-02 1.50485E-01 1.60886E-04-2.55465E-06 2.03220E-04 1.44829E-05
 -1      1786-1.08488E-02 1.45994E-01 1.40402E-04 2.36271E-05-1.84579E-04-1.52562E-05
 -1      1787-1.07981E-02 1.46041E-01 2.44177E-04 2.28985E-05-1.32013E-04-1.11964E-05
 -1      1788-1.07658E-02 1.46071E-01 3.14690E-04 2.25531E-05-8.82759E-05-8.05467E-06
 -1      1789-1.07464E-02 1.46091E-01 3.59283E-04 2.24590E-05-5.06057E-05-4.92209E-06
 -1      1790-1.07373E-02 1.46100E-01 3.80942E-04 2.24587E-05-1.64801E-05-1.66178E-06
 -1      1791-1.07373E-02 1.46100E-01 3.80942E-04 2.24587E-05 1.64801E-05 1.66178E-06
 -1      1792-1.07464E-02 1.46091E-01 3.59283E-04 2.24590E-05 5.06057E-05 4.92209E-06
 -1      1793-1.07658E-02 1.46071E-01 3.14690E-04 2.25531E-05 8.82759E-05 8.05467E-06
 -1      1794-1.07981E-02 1.46041E-01 2.44177E-04 2.28985E-05 1.32013E-04 1.11964E-05
 -1      1795-1.08488E-02 1.45994E-01 1.40402E-04 2.36271E-05 1.84579E-04 1.52562E-05
 -1      1796-6.96035E-03 1.41833E-01 1.09349E-04 7.45526E-05-1.57803E-04-1.91683E-05
 -1      1797-6.91535E-03 1.41874E-01 2.00339E-04 7.12772E-05-1.12485E-04-1.90689E-05
 -1      1798-6.88863E-03 1.41900E-01 2.63067E-04 7.02773E-05-7.49326E-05-1.56938E-05
 -1      1799-6.87340E-03 1.41917E-01 3.02884E-04 7.02717E-05-4.28237E-05-1.01685E-05
 -1      1800-6.86644E-03 1.41925E-01 3.22252E-04 7.04588E-05-1.39220E-05-3.50692E-06
 -1      1801-6.86644E-03 1.41925E-01 3.22252E-04 7.04588E-05 1.39220E-05 3.50692E-06
 -1      1802-6.87340E-03 1.41917E-01 3.02884E-04 7.02717E-05 4.28237E-05 1.01685E-05
 -1      1803-6.88863E-03 1.41900E-01 2.63067E-04 7.02773E-05 7.49326E-05 1.56938E-05
 -1      1804-6.91535E-03 1.41874E-01 2.00339E-04 7.12772E-05 1.12485E-04 1.90689E-05
 -1      1805-6.96035E-03 1.41833E-01 1.09349E-04 7.45526E-05 1.57803E-04 1.91683E-05
 -1      1806-3.46889E-03 1.37940E-01 9.71972E-05 4.56838E-05-1.09514E-04-2.33483E-05
 -1      1807-3.43992E-03 1.37966E-01 1.59550E-04 4.07900E-05-7.78890E-05-2.66836E-05
 -1      1808-3.42245E-03 1.37984E-01 2.02555E-04 4.04059E-05-5.17951E-05-2.22262E-05
 -1      1809-3.41262E-03 1.37996E-01 2.29480E-04 4.14398E-05-2.95766E-05-1.42167E-05
 -1      1810-3.40819E-03 1.38001E-01 2.42420E-04 4.22929E-05-9.61323E-06-4.85397E-06
 -1      1811-3.40819E-03 1.38001E-01 2.42420E-04 4.22929E-05 9.61323E-06 4.85397E-06
 -1      1812-3.41262E-03 1.37996E-01 2.29480E-04 4.14398E-05 2.95766E-05 1.42167E-05
 -1      1813-3.42245E-03 1.37984E-01 2.02555E-04 4.04059E-05 5.17951E-05 2.22262E-05
 -1      1814-3.43992E-03 1.37966E-01 1.59550E-04 4.07900E-05 7.78890E-05 2.66836E-05
 -1      1815-3.46889E-03 1.37940E-01 9.71972E-05 4.56838E-05 1.09514E-04 2.33483E-05
 -1      1816-8.06633E-01 9.66148E-01 3.54507E-03-3.79629E-04-1.79208E-03 1.47525E-04
 -1      1817-9.01225E-01 1.04208E+00 1.19777E-03-1.57304E-03-7.13819E-04 1.11376E-04
 -1      1819-8.05032E-01 9.67783E-01 7.34008E-03-2.93713E-04-6.91520E-04 2.21354E-04
 -1      1820-9.00988E-01 1.04236E+00 1.92018E-03-1.71110E-03-2.80587E-04 1.25618E-04
 -1      1822-8.04592E-01 9.68299E-01 8.63927E-03-3.61007E-04-2.60947E-04 1.07416E-04
 -1      1823-9.00849E-01 1.04249E+00 2.26541E-03-1.79372E-03-1.10293E-04 4.03521E-05
 -1      1825-8.04419E-01 9.68469E-01 9.04791E-03-4.04283E-04-9.75209E-05 3.50210E-05
 -1      1826-9.00780E-01 1.04255E+00 2.41874E-03-1.82918E-03-4.15666E-05 1.15474E-05
 -1      1828-8.04353E-01 9.68527E-01 9.18112E-03-4.23057E-04-3.26467E-05 9.42747E-06
 -1      1829-9.00753E-01 1.04258E+00 2.47630E-03-1.84168E-03-1.06489E-05 2.17944E-06
 -1      1831-8.04335E-01 9.68541E-01 9.21266E-03-4.28096E-04 5.01962E-15 2.08722E-14
 -1      1832-9.00753E-01 1.04258E+00 2.47630E-03-1.84168E-03 1.06489E-05-2.17944E-06
 -1      1834-8.04353E-01 9.68527E-01 9.18112E-03-4.23057E-04 3.26467E-05-9.42747E-06
 -1      1835-9.00780E-01 1.04255E+00 2.41874E-03-1.82918E-03 4.15666E-05-1.15474E-05
 -1      1837-8.04419E-01 9.68469E-01 9.04791E-03-4.04283E-04 9.75209E-05-3.50210E-05
 -1      1838-9.00849E-01 1.04249E+00 2.26541E-03-1.79372E-03 1.10293E-04-4.03521E-05
 -1      1840-8.04592E-01 9.68299E-01 8.63927E-03-3.61007E-04 2.60947E-04-1.07416E-04
 -1      1841-9.00988E-01 1.04236E+00 1.92018E-03-1.71110E-03 2.80587E-04-1.25618E-04
 -1      1843-8.05032E-01 9.67783E-01 7.34008E-03-2.93713E-04 6.91520E-04-2.21354E-04
 -1      1844-9.01225E-01 1.04208E+00 1.19777E-03-1.57304E-03 7.13819E-04-1.11376E-04
 -1      1846-8.06633E-01 9.66148E-01 3.54507E-03-3.79629E-04 1.79208E-03-1.47525E-04
 -1      1848-6.65368E-01 8.22825E-01 2.93603E-03-2.27040E-04-2.03008E-03-1.75763E-05
 -1      1849-7.36785E-01 8.88075E-01 3.19729E-03-4.47756E-04-1.12759E-03 7.56986E-05
 -1      1851-6.63868E-01 8.24330E-01 6.43036E-03-1.76201E-04-8.83859E-04 7.60770E-05
 -1      1852-7.36166E-01 8.88742E-01 4.81689E-03-4.85506E-04-4.57819E-04 1.04548E-04
 -1      1854-6.63327E-01 8.24891E-01 7.76375E-03-1.89925E-04-3.78686E-04 5.83619E-05
 -1      1855-7.35905E-01 8.89035E-01 5.54586E-03-5.25848E-04-1.84928E-04 6.67735E-05
 -1      1857-6.63122E-01 8.25111E-01 8.29780E-03-2.08657E-04-1.57672E-04 3.82210E-05
 -1      1858-7.35785E-01 8.89161E-01 5.85196E-03-5.47409E-04-7.15193E-05 3.08633E-05
 -1      1860-6.63044E-01 8.25197E-01 8.50892E-03-2.20177E-04-5.70126E-05 1.78435E-05
 -1      1861-7.35741E-01 8.89205E-01 5.95807E-03-5.56075E-04-1.86503E-05 8.51928E-06
 -1      1863-6.63024E-01 8.25219E-01 8.56441E-03-2.23821E-04 6.81808E-15-1.96324E-14
 -1      1864-7.35741E-01 8.89205E-01 5.95807E-03-5.56075E-04 1.86503E-05-8.51928E-06
 -1      1866-6.63044E-01 8.25197E-01 8.50892E-03-2.20177E-04 5.70126E-05-1.78435E-05
 -1      1867-7.35785E-01 8.89161E-01 5.85196E-03-5.47409E-04 7.15193E-05-3.08633E-05
 -1      1869-6.63122E-01 8.25111E-01 8.29780E-03-2.08657E-04 1.57672E-04-3.82210E-05
 -1      1870-7.35905E-01 8.89035E-01 5.54586E-03-5.25848E-04 1.84928E-04-6.67735E-05
 -1      1872-6.63327E-01 8.24891E-01 7.76375E-03-1.89925E-04 3.78686E-04-5.83619E-05
 -1      1873-7.36166E-01 8.88742E-01 4.81689E-03-4.85506E-04 4.57819E-04-1.04548E-04
 -1      1875-6.63868E-01 8.24330E-01 6.43036E-03-1.76201E-04 8.83859E-04-7.60770E-05
 -1      1876-7.36785E-01 8.88075E-01 3.19729E-03-4.47756E-04 1.12759E-03-7.56986E-05
 -1      1878-6.65368E-01 8.22825E-01 2.93603E-03-2.27040E-04 2.03008E-03 1.75763E-05
 -1      1880-5.57422E-01 7.10855E-01 2.47614E-03-1.95742E-04-1.73272E-03-6.67877E-05
 -1      1881-6.12860E-01 7.62028E-01 2.52530E-03-2.11874E-04-1.17330E-03-5.41597E-05
 -1      1883-5.56238E-01 7.12035E-01 5.21366E-03-1.64960E-04-8.13147E-04 9.65528E-06
 -1      1884-6.12219E-01 7.62685E-01 4.07397E-03-2.11725E-04-5.25737E-04 1.83267E-05
 -1      1886-5.55765E-01 7.12511E-01 6.32640E-03-1.65616E-04-3.77591E-04 1.92508E-05
 -1      1887-6.11910E-01 7.63005E-01 4.83793E-03-2.25907E-04-2.32074E-04 2.80169E-05
 -1      1889-5.55564E-01 7.12717E-01 6.81400E-03-1.72913E-04-1.69607E-04 1.78683E-05
 -1      1890-6.11775E-01 7.63147E-01 5.17905E-03-2.37255E-04-9.62712E-05 1.83671E-05
 -1      1892-5.55480E-01 7.12803E-01 7.02024E-03-1.78590E-04-6.49105E-05 9.44263E-06
 -1      1893-6.11726E-01 7.63200E-01 5.30753E-03-2.42842E-04-2.61469E-05 6.15566E-06
 -1      1895-5.55457E-01 7.12827E-01 7.07705E-03-1.80590E-04-1.31643E-14 6.97846E-14
 -1      1896-6.11726E-01 7.63200E-01 5.30753E-03-2.42842E-04 2.61469E-05-6.15566E-06
 -1      1898-5.55480E-01 7.12803E-01 7.02024E-03-1.78590E-04 6.49105E-05-9.44263E-06
 -1      1899-6.11775E-01 7.63147E-01 5.17905E-03-2.37255E-04 9.62712E-05-1.83671E-05
 -1      1901-5.55564E-01 7.12717E-01 6.81400E-03-1.72913E-04 1.69607E-04-1.78683E-05
 -1      1902-6.11910E-01 7.63005E-01 4.83793E-03-2.25907E-04 2.32074E-04-2.80169E-05
 -1      1904-5.55765E-01 7.12511E-01 6.32640E-03-1.65616E-04 3.77591E-04-1.92508E-05
 -1      1905-6.12219E-01 7.62685E-01 4.07397E-03-2.11725E-04 5.25737E-04-1.83267E-05
 -1      1907-5.56238E-01 7.12035E-01 5.21366E-03-1.64960E-04 8.13147E-04-9.65528E-06
 -1      1908-6.12860E-01 7.62028E-01 2.52530E-03-2.11874E-04 1.17330E-03 5.41597E-05
 -1      1910-5.57422E-01 7.10855E-01 2.47614E-03-1.95742E-04 1.73272E-03 6.67877E-05
 -1      1912-4.71859E-01 6.21931E-01 1.93270E-03-1.71681E-04-1.53117E-03-6.87388E-05
 -1      1913-5.15771E-01 6.62861E-01 2.13238E-03-1.87748E-04-1.06067E-03-3.64448E-05
 -1      1915-4.70891E-01 6.22902E-01 4.18983E-03-1.41779E-04-7.57230E-04 5.92822E-06
 -1      1916-5.15204E-01 6.63428E-01 3.45641E-03-1.83058E-04-5.08602E-04 7.44956E-06
 -1      1918-4.70472E-01 6.23321E-01 5.16534E-03-1.43210E-04-3.70823E-04 1.39758E-05
 -1      1919-5.14914E-01 6.63718E-01 4.13563E-03-1.89805E-04-2.39792E-04 1.58908E-05
 -1      1921-4.70280E-01 6.23513E-01 5.61631E-03-1.49544E-04-1.75052E-04 1.28880E-05
 -1      1922-5.14778E-01 6.63855E-01 4.45771E-03-1.96496E-04-1.05138E-04 1.13484E-05
 -1      1924-4.70196E-01 6.23597E-01 5.81508E-03-1.54283E-04-6.95535E-05 6.81887E-06
 -1      1925-5.14725E-01 6.63908E-01 4.58514E-03-2.00128E-04-2.95144E-05 3.97746E-06
 -1      1927-4.70172E-01 6.23621E-01 5.87137E-03-1.55939E-04 1.23415E-14-2.39809E-14
 -1      1928-5.14725E-01 6.63908E-01 4.58514E-03-2.00128E-04 2.95144E-05-3.97746E-06
 -1      1930-4.70196E-01 6.23597E-01 5.81508E-03-1.54283E-04 6.95535E-05-6.81887E-06
 -1      1931-5.14778E-01 6.63855E-01 4.45771E-03-1.96496E-04 1.05138E-04-1.13484E-05
 -1      1933-4.70280E-01 6.23513E-01 5.61631E-03-1.49544E-04 1.75052E-04-1.28880E-05
 -1      1934-5.14914E-01 6.63718E-01 4.13563E-03-1.89805E-04 2.39792E-04-1.58908E-05
 -1      1936-4.70472E-01 6.23321E-01 5.16534E-03-1.43210E-04 3.70823E-04-1.39758E-05
 -1      1937-5.15204E-01 6.63428E-01 3.45641E-03-1.83058E-04 5.08602E-04-7.44956E-06
 -1      1939-4.70891E-01 6.22902E-01 4.18983E-03-1.41779E-04 7.57230E-04-5.92822E-06
 -1      1940-5.15771E-01 6.62861E-01 2.13238E-03-1.87748E-04 1.06067E-03 3.64448E-05
 -1      1942-4.71859E-01 6.21931E-01 1.93270E-03-1.71681E-04 1.53117E-03 6.87388E-05
 -1      1944-4.02728E-01 5.50243E-01 1.56162E-03-1.52748E-04-1.35816E-03-6.48944E-05
 -1      1945-4.38090E-01 5.83480E-01 1.79136E-03-1.60461E-04-9.71306E-04-3.87980E-05
 -1      1947-4.01927E-01 5.51045E-01 3.42410E-03-1.26576E-04-7.04620E-04-2.07181E-06
 -1      1948-4.37602E-01 5.83972E-01 2.94111E-03-1.55590E-04-4.89529E-04 3.80057E-06
 -1      1950-4.01561E-01 5.51411E-01 4.27820E-03-1.25549E-04-3.60890E-04 9.88084E-06
 -1      1951-4.37341E-01 5.84234E-01 3.55590E-03-1.60969E-04-2.41991E-04 1.21818E-05
 -1      1953-4.01385E-01 5.51588E-01 4.69275E-03-1.30181E-04-1.77228E-04 1.04998E-05
 -1      1954-4.37212E-01 5.84362E-01 3.85825E-03-1.66513E-04-1.10396E-04 8.96204E-06
 -1      1956-4.01305E-01 5.51668E-01 4.88237E-03-1.34058E-04-7.24599E-05 5.78236E-06
 -1      1957-4.37160E-01 5.84415E-01 3.98122E-03-1.69559E-04-3.17267E-05 3.15553E-06
 -1      1959-4.01281E-01 5.51692E-01 4.93721E-03-1.35459E-04 1.31144E-16-4.68929E-14
 -1      1960-4.37160E-01 5.84415E-01 3.98122E-03-1.69559E-04 3.17267E-05-3.15553E-06
 -1      1962-4.01305E-01 5.51668E-01 4.88237E-03-1.34058E-04 7.24599E-05-5.78236E-06
 -1      1963-4.37212E-01 5.84362E-01 3.85825E-03-1.66513E-04 1.10396E-04-8.96204E-06
 -1      1965-4.01385E-01 5.51588E-01 4.69275E-03-1.30181E-04 1.77228E-04-1.04998E-05
 -1      1966-4.37341E-01 5.84234E-01 3.55590E-03-1.60969E-04 2.41991E-04-1.21818E-05
 -1      1968-4.01561E-01 5.51411E-01 4.27820E-03-1.25549E-04 3.60890E-04-9.88084E-06
 -1      1969-4.37602E-01 5.83972E-01 2.94111E-03-1.55590E-04 4.89529E-04-3.80057E-06
 -1      1971-4.01927E-01 5.51045E-01 3.42410E-03-1.26576E-04 7.04620E-04 2.07181E-06
 -1      1972-4.38090E-01 5.83480E-01 1.79136E-03-1.60461E-04 9.71306E-04 3.87980E-05
 -1      1974-4.02728E-01 5.50243E-01 1.56162E-03-1.52748E-04 1.35816E-03 6.48944E-05
 -1      1976-3.46092E-01 4.91594E-01 1.27414E-03-1.36248E-04-1.21252E-03-6.16795E-05
 -1      1977-3.74989E-01 5.18953E-01 1.51952E-03-1.41305E-04-8.90207E-04-3.72943E-05
 -1      1979-3.45420E-01 4.92267E-01 2.83634E-03-1.13093E-04-6.55101E-04-5.88234E-06
 -1      1980-3.74562E-01 5.19382E-01 2.52004E-03-1.34812E-04-4.68503E-04 4.29557E-07
 -1      1982-3.45099E-01 4.92589E-01 3.58650E-03-1.11011E-04-3.48838E-04 6.77615E-06
 -1      1983-3.74326E-01 5.19618E-01 3.07427E-03-1.38221E-04-2.40945E-04 9.47739E-06
 -1      1985-3.44937E-01 4.92750E-01 3.96583E-03-1.14177E-04-1.77188E-04 8.55484E-06
 -1      1986-3.74206E-01 5.19738E-01 3.35645E-03-1.42564E-04-1.13485E-04 7.57760E-06
 -1      1988-3.44861E-01 4.92827E-01 4.14498E-03-1.17188E-04-7.41908E-05 4.96586E-06
 -1      1989-3.74157E-01 5.19788E-01 3.47411E-03-1.45087E-04-3.32217E-05 2.73931E-06
 -1      1991-3.44839E-01 4.92849E-01 4.19772E-03-1.18317E-04-1.26279E-14-6.39033E-14
 -1      1992-3.74157E-01 5.19788E-01 3.47411E-03-1.45087E-04 3.32217E-05-2.73931E-06
 -1      1994-3.44861E-01 4.92827E-01 4.14498E-03-1.17188E-04 7.41908E-05-4.96586E-06
 -1      1995-3.74206E-01 5.19738E-01 3.35645E-03-1.42564E-04 1.13485E-04-7.57760E-06
 -1      1997-3.44937E-01 4.92750E-01 3.96583E-03-1.14177E-04 1.77188E-04-8.55484E-06
 -1      1998-3.74326E-01 5.19618E-01 3.07427E-03-1.38221E-04 2.40945E-04-9.47739E-06
 -1      2000-3.45099E-01 4.92589E-01 3.58650E-03-1.11011E-04 3.48838E-04-6.77615E-06
 -1      2001-3.74562E-01 5.19382E-01 2.52004E-03-1.34812E-04 4.68503E-04-4.29557E-07
 -1      2003-3.45420E-01 4.92267E-01 2.83634E-03-1.13093E-04 6.55101E-04 5.88234E-06
 -1      2004-3.74989E-01 5.18953E-01 1.51952E-03-1.41305E-04 8.90207E-04 3.72943E-05
 -1      2006-3.46092E-01 4.91594E-01 1.27414E-03-1.36248E-04 1.21252E-03 6.16795E-05
 -1      2008-2.99111E-01 4.43005E-01 1.05386E-03-1.22189E-04-1.08862E-03-5.79567E-05
 -1      2009-3.23027E-01 4.65794E-01 1.29844E-03-1.24928E-04-8.17037E-04-3.57391E-05
 -1      2011-2.98543E-01 4.43575E-01 2.37530E-03-1.01597E-04-6.09289E-04-8.88639E-06
 -1      2012-3.22653E-01 4.66169E-01 2.17269E-03-1.18045E-04-4.46389E-04-1.88641E-06
 -1      2014-2.98259E-01 4.43859E-01 3.03741E-03-9.87028E-05-3.35380E-04 4.32009E-06
 -1      2015-3.22441E-01 4.66382E-01 2.67193E-03-1.19981E-04-2.37504E-04 7.19604E-06
 -1      2017-2.98112E-01 4.44007E-01 3.38388E-03-1.00777E-04-1.75281E-04 6.86704E-06
 -1      2018-3.22330E-01 4.66494E-01 2.93360E-03-1.23251E-04-1.14921E-04 6.32237E-06
 -1      2020-2.98041E-01 4.44078E-01 3.55188E-03-1.03071E-04-7.48685E-05 4.20172E-06
 -1      2021-3.22282E-01 4.66541E-01 3.04500E-03-1.25266E-04-3.41606E-05 2.35423E-06
 -1      2023-2.98019E-01 4.44099E-01 3.60205E-03-1.03963E-04-2.00707E-14-5.53210E-15
 -1      2024-3.22282E-01 4.66541E-01 3.04500E-03-1.25266E-04 3.41606E-05-2.35423E-06
 -1      2026-2.98041E-01 4.44078E-01 3.55188E-03-1.03071E-04 7.48685E-05-4.20172E-06
 -1      2027-3.22330E-01 4.66494E-01 2.93360E-03-1.23251E-04 1.14921E-04-6.32237E-06
 -1      2029-2.98112E-01 4.44007E-01 3.38388E-03-1.00777E-04 1.75281E-04-6.86704E-06
 -1      2030-3.22441E-01 4.66382E-01 2.67193E-03-1.19981E-04 2.37504E-04-7.19604E-06
 -1      2032-2.98259E-01 4.43859E-01 3.03741E-03-9.87028E-05 3.35380E-04-4.32009E-06
 -1      2033-3.22653E-01 4.66169E-01 2.17269E-03-1.18045E-04 4.46389E-04 1.88641E-06
 -1      2035-2.98543E-01 4.43575E-01 2.37530E-03-1.01597E-04 6.09289E-04 8.88639E-06
 -1      2036-3.23027E-01 4.65794E-01 1.29844E-03-1.24928E-04 8.17037E-04 3.57391E-05
 -1      2038-2.99111E-01 4.43005E-01 1.05386E-03-1.22189E-04 1.08862E-03 5.79567E-05
 -1      2040-2.59712E-01 4.02299E-01 8.80970E-04-1.10035E-04-9.82211E-04-5.43112E-05
 -1      2041-2.79728E-01 4.21482E-01 1.11689E-03-1.11360E-04-7.51367E-04-3.42524E-05
 -1      2043-2.59227E-01 4.02786E-01 2.00903E-03-9.17029E-05-5.66949E-04-1.09746E-05
 -1      2044-2.79400E-01 4.21811E-01 1.88384E-03-1.04233E-04-4.23981E-04-3.79689E-06
 -1      2046-2.58976E-01 4.03037E-01 2.59508E-03-8.82923E-05-3.21172E-04 2.17060E-06
 -1      2047-2.79208E-01 4.22003E-01 2.33352E-03-1.05076E-04-2.32228E-04 5.24529E-06
 -1      2049-2.58841E-01 4.03172E-01 2.91108E-03-8.94832E-05-1.71986E-04 5.32713E-06
 -1      2050-2.79106E-01 4.22106E-01 2.57510E-03-1.07473E-04-1.14956E-04 5.17147E-06
 -1      2052-2.58775E-01 4.03239E-01 3.06775E-03-9.11793E-05-7.47007E-05 3.47154E-06
 -1      2053-2.79061E-01 4.22151E-01 2.67976E-03-1.09050E-04-3.46103E-05 1.98633E-06
 -1      2055-2.58755E-01 4.03259E-01 3.11510E-03-9.18702E-05-5.85931E-15-3.34966E-14
 -1      2056-2.79061E-01 4.22151E-01 2.67976E-03-1.09050E-04 3.46103E-05-1.98633E-06
 -1      2058-2.58775E-01 4.03239E-01 3.06775E-03-9.11793E-05 7.47007E-05-3.47154E-06
 -1      2059-2.79106E-01 4.22106E-01 2.57510E-03-1.07473E-04 1.14956E-04-5.17147E-06
 -1      2061-2.58841E-01 4.03172E-01 2.91108E-03-8.94832E-05 1.71986E-04-5.32713E-06
 -1      2062-2.79208E-01 4.22003E-01 2.33352E-03-1.05076E-04 2.32228E-04-5.24529E-06
 -1      2064-2.58976E-01 4.03037E-01 2.59508E-03-8.82923E-05 3.21172E-04-2.17060E-06
 -1      2065-2.79400E-01 4.21811E-01 1.88384E-03-1.04233E-04 4.23981E-04 3.79689E-06
 -1      2067-2.59227E-01 4.02786E-01 2.00903E-03-9.17029E-05 5.66949E-04 1.09746E-05
 -1      2068-2.79728E-01 4.21482E-01 1.11689E-03-1.11360E-04 7.51367E-04 3.42524E-05
 -1      2070-2.59712E-01 4.02299E-01 8.80970E-04-1.10035E-04 9.82211E-04 5.43112E-05
 -1      2072-2.26348E-01 3.67859E-01 7.43605E-04-9.94890E-05-8.90106E-04-5.08067E-05
 -1      2073-2.43267E-01 3.84158E-01 9.66631E-04-9.98755E-05-6.92244E-04-3.27652E-05
 -1      2075-2.25931E-01 3.68278E-01 1.71383E-03-8.31263E-05-5.27904E-04-1.24660E-05
 -1      2076-2.42979E-01 3.84448E-01 1.64195E-03-9.27627E-05-4.01796E-04-5.37243E-06
 -1      2078-2.25708E-01 3.68501E-01 2.23429E-03-7.94056E-05-3.06626E-04 3.57274E-07
 -1      2079-2.42806E-01 3.84621E-01 2.04712E-03-9.27614E-05-2.25657E-04 3.50289E-06
 -1      2081-2.25585E-01 3.68624E-01 2.52221E-03-7.99108E-05-1.67667E-04 3.93247E-06
 -1      2082-2.42711E-01 3.84716E-01 2.26946E-03-9.44397E-05-1.13889E-04 4.09695E-06
 -1      2084-2.25523E-01 3.68686E-01 2.66770E-03-8.11107E-05-7.38682E-05 2.78237E-06
 -1      2085-2.42670E-01 3.84758E-01 2.36723E-03-9.56452E-05-3.46596E-05 1.63429E-06
 -1      2087-2.25504E-01 3.68705E-01 2.71212E-03-8.16300E-05-2.13538E-15 1.41149E-14
 -1      2088-2.42670E-01 3.84758E-01 2.36723E-03-9.56452E-05 3.46596E-05-1.63429E-06
 -1      2090-2.25523E-01 3.68686E-01 2.66770E-03-8.11107E-05 7.38682E-05-2.78237E-06
 -1      2091-2.42711E-01 3.84716E-01 2.26946E-03-9.44397E-05 1.13889E-04-4.09695E-06
 -1      2093-2.25585E-01 3.68624E-01 2.52221E-03-7.99108E-05 1.67667E-04-3.93247E-06
 -1      2094-2.42806E-01 3.84621E-01 2.04712E-03-9.27614E-05 2.25657E-04-3.50289E-06
 -1      2096-2.25708E-01 3.68501E-01 2.23429E-03-7.94056E-05 3.06626E-04-3.57274E-07
 -1      2097-2.42979E-01 3.84448E-01 1.64195E-03-9.27627E-05 4.01796E-04 5.37243E-06
 -1      2099-2.25931E-01 3.68278E-01 1.71383E-03-8.31263E-05 5.27904E-04 1.24660E-05
 -1      2100-2.43267E-01 3.84158E-01 9.66631E-04-9.98755E-05 6.92244E-04 3.27652E-05
 -1      2102-2.26348E-01 3.67859E-01 7.43605E-04-9.94890E-05 8.90106E-04 5.08067E-05
 -1      2104-1.97848E-01 3.38461E-01 6.33014E-04-9.02852E-05-8.09809E-04-4.74928E-05
 -1      2105-2.12277E-01 3.52426E-01 8.41262E-04-9.00675E-05-6.38948E-04-3.13133E-05
 -1      2107-1.97486E-01 3.38824E-01 1.47317E-03-7.56502E-05-4.91930E-04-1.34896E-05
 -1      2108-2.12022E-01 3.52683E-01 1.43803E-03-8.31082E-05-3.80151E-04-6.63712E-06
 -1      2110-1.97287E-01 3.39023E-01 1.93673E-03-7.17694E-05-2.92057E-04-1.16682E-06
 -1      2111-2.11866E-01 3.52839E-01 1.80336E-03-8.24804E-05-2.18196E-04 1.98356E-06
 -1      2113-1.97175E-01 3.39135E-01 2.19896E-03-7.17446E-05-1.62619E-04 2.69719E-06
 -1      2114-2.11779E-01 3.52926E-01 2.00755E-03-8.35746E-05-1.11970E-04 3.11210E-06
 -1      2116-1.97118E-01 3.39193E-01 2.33364E-03-7.25400E-05-7.25224E-05 2.14945E-06
 -1      2117-2.11741E-01 3.52965E-01 2.09849E-03-8.44661E-05-3.43884E-05 1.30392E-06
 -1      2119-1.97100E-01 3.39210E-01 2.37513E-03-7.29160E-05-3.81717E-15-1.46126E-14
 -1      2120-2.11741E-01 3.52965E-01 2.09849E-03-8.44661E-05 3.43884E-05-1.30392E-06
 -1      2122-1.97118E-01 3.39193E-01 2.33364E-03-7.25400E-05 7.25224E-05-2.14945E-06
 -1      2123-2.11779E-01 3.52926E-01 2.00755E-03-8.35746E-05 1.11970E-04-3.11210E-06
 -1      2125-1.97175E-01 3.39135E-01 2.19896E-03-7.17446E-05 1.62619E-04-2.69719E-06
 -1      2126-2.11866E-01 3.52839E-01 1.80336E-03-8.24804E-05 2.18196E-04-1.98356E-06
 -1      2128-1.97287E-01 3.39023E-01 1.93673E-03-7.17694E-05 2.92057E-04 1.16682E-06
 -1      2129-2.12022E-01 3.52683E-01 1.43803E-03-8.31082E-05 3.80151E-04 6.63712E-06
 -1      2131-1.97486E-01 3.38824E-01 1.47317E-03-7.56502E-05 4.91930E-04 1.34896E-05
 -1      2132-2.12277E-01 3.52426E-01 8.41262E-04-9.00675E-05 6.38948E-04 3.13133E-05
 -1      2134-1.97848E-01 3.38461E-01 6.33014E-04-9.02852E-05 8.09809E-04 4.74928E-05
 -1      2136-1.73309E-01 3.13167E-01 5.42979E-04-8.22125E-05-7.39355E-04-4.43902E-05
 -1      2137-1.85715E-01 3.25223E-01 7.35896E-04-8.16134E-05-5.90800E-04-2.98950E-05
 -1      2139-1.72994E-01 3.13483E-01 1.27488E-03-6.90967E-05-4.58793E-04-1.41585E-05
 -1      2140-1.85488E-01 3.25451E-01 1.26504E-03-7.49021E-05-3.59261E-04-7.63706E-06
 -1      2142-1.72816E-01 3.13661E-01 1.68892E-03-6.51654E-05-2.77685E-04-2.42992E-06
 -1      2143-1.85347E-01 3.25592E-01 1.59477E-03-7.38137E-05-2.10160E-04 6.75035E-07
 -1      2145-1.72715E-01 3.13763E-01 1.92775E-03-6.47374E-05-1.57076E-04 1.61663E-06
 -1      2146-1.85268E-01 3.25672E-01 1.78203E-03-7.44393E-05-1.09407E-04 2.22923E-06
 -1      2148-1.72662E-01 3.13816E-01 2.05216E-03-6.52058E-05-7.07906E-05 1.57974E-06
 -1      2149-1.85232E-01 3.25708E-01 1.86634E-03-7.50700E-05-3.38656E-05 1.00187E-06
 -1      2151-1.72645E-01 3.13833E-01 2.09076E-03-6.54634E-05-3.60898E-15 1.26275E-15
 -1      2152-1.85232E-01 3.25708E-01 1.86634E-03-7.50700E-05 3.38656E-05-1.00187E-06
 -1      2154-1.72662E-01 3.13816E-01 2.05216E-03-6.52058E-05 7.07906E-05-1.57974E-06
 -1      2155-1.85268E-01 3.25672E-01 1.78203E-03-7.44393E-05 1.09407E-04-2.22923E-06
 -1      2157-1.72715E-01 3.13763E-01 1.92775E-03-6.47374E-05 1.57076E-04-1.61663E-06
 -1      2158-1.85347E-01 3.25592E-01 1.59477E-03-7.38137E-05 2.10160E-04-6.75035E-07
 -1      2160-1.72816E-01 3.13661E-01 1.68892E-03-6.51654E-05 2.77685E-04 2.42992E-06
 -1      2161-1.85488E-01 3.25451E-01 1.26504E-03-7.49021E-05 3.59261E-04 7.63706E-06
 -1      2163-1.72994E-01 3.13483E-01 1.27488E-03-6.90967E-05 4.58793E-04 1.41585E-05
 -1      2164-1.85715E-01 3.25223E-01 7.35896E-04-8.16134E-05 5.90800E-04 2.98950E-05
 -1      2166-1.73309E-01 3.13167E-01 5.42979E-04-8.22125E-05 7.39355E-04 4.43902E-05
 -1      2168-1.52032E-01 2.91247E-01 4.68930E-04-7.50988E-05-6.77178E-04-4.15017E-05
 -1      2169-1.62775E-01 3.01727E-01 6.46743E-04-7.42691E-05-5.47210E-04-2.85162E-05
 -1      2171-1.51756E-01 2.91524E-01 1.10999E-03-6.33227E-05-4.28264E-04-1.45549E-05
 -1      2172-1.62573E-01 3.01929E-01 1.11743E-03-6.78632E-05-3.39253E-04-8.40755E-06
 -1      2174-1.51597E-01 2.91683E-01 1.48077E-03-5.94197E-05-2.63663E-04-3.46543E-06
 -1      2175-1.62446E-01 3.02057E-01 1.41538E-03-6.64455E-05-2.01793E-04-4.38438E-07
 -1      2177-1.51504E-01 2.91776E-01 1.69835E-03-5.86905E-05-1.51221E-04 6.82629E-07
 -1      2178-1.62373E-01 3.02131E-01 1.58697E-03-6.66989E-05-1.06373E-04 1.44920E-06
 -1      2180-1.51455E-01 2.91825E-01 1.81307E-03-5.88975E-05-6.87775E-05 1.07404E-06
 -1      2181-1.62340E-01 3.02164E-01 1.66495E-03-6.71152E-05-3.31500E-05 7.30536E-07
 -1      2183-1.51440E-01 2.91841E-01 1.84890E-03-5.90585E-05 5.83765E-15 4.73720E-15
 -1      2184-1.62340E-01 3.02164E-01 1.66495E-03-6.71152E-05 3.31500E-05-7.30536E-07
 -1      2186-1.51455E-01 2.91825E-01 1.81307E-03-5.88975E-05 6.87775E-05-1.07404E-06
 -1      2187-1.62373E-01 3.02131E-01 1.58697E-03-6.66989E-05 1.06373E-04-1.44920E-06
 -1      2189-1.51504E-01 2.91776E-01 1.69835E-03-5.86905E-05 1.51221E-04-6.82629E-07
 -1      2190-1.62446E-01 3.02057E-01 1.41538E-03-6.64455E-05 2.01793E-04 4.38438E-07
 -1      2192-1.51597E-01 2.91683E-01 1.48077E-03-5.94197E-05 2.63663E-04 3.46543E-06
 -1      2193-1.62573E-01 3.01929E-01 1.11743E-03-6.78632E-05 3.39253E-04 8.40755E-06
 -1      2195-1.51756E-01 2.91524E-01 1.10999E-03-6.33227E-05 4.28264E-04 1.45549E-05
 -1      2196-1.62775E-01 3.01727E-01 6.46743E-04-7.42691E-05 5.47210E-04 2.85162E-05
 -1      2198-1.52032E-01 2.91247E-01 4.68930E-04-7.50988E-05 6.77178E-04 4.15017E-05
 -1      2200-1.33463E-01 2.72126E-01 4.07471E-04-6.88031E-05-6.22017E-04-3.88213E-05
 -1      2201-1.42828E-01 2.81293E-01 5.70838E-04-6.78448E-05-5.07658E-04-2.71812E-05
 -1      2203-1.33219E-01 2.72370E-01 9.71702E-04-5.82116E-05-4.00124E-04-1.47417E-05
 -1      2204-1.42647E-01 2.81474E-01 9.90803E-04-6.17770E-05-3.20197E-04-8.98409E-06
 -1      2206-1.33077E-01 2.72513E-01 1.30457E-03-5.43927E-05-2.50097E-04-4.30400E-06
 -1      2207-1.42532E-01 2.81589E-01 1.26037E-03-6.01325E-05-1.93282E-04-1.37587E-06
 -1      2209-1.32992E-01 2.72598E-01 1.50289E-03-5.34438E-05-1.45198E-04-1.16976E-07
 -1      2210-1.42465E-01 2.81657E-01 1.41753E-03-6.00937E-05-1.03007E-04 7.68289E-07
 -1      2212-1.32947E-01 2.72643E-01 1.60859E-03-5.34445E-05-6.65679E-05 6.30385E-07
 -1      2213-1.42435E-01 2.81687E-01 1.48956E-03-6.03359E-05-3.22905E-05 4.90007E-07
 -1      2215-1.32933E-01 2.72657E-01 1.64178E-03-5.35274E-05 7.18686E-15 4.90280E-14
 -1      2216-1.42435E-01 2.81687E-01 1.48956E-03-6.03359E-05 3.22905E-05-4.90007E-07
 -1      2218-1.32947E-01 2.72643E-01 1.60859E-03-5.34445E-05 6.65679E-05-6.30385E-07
 -1      2219-1.42465E-01 2.81657E-01 1.41753E-03-6.00937E-05 1.03007E-04-7.68289E-07
 -1      2221-1.32992E-01 2.72598E-01 1.50289E-03-5.34438E-05 1.45198E-04 1.16976E-07
 -1      2222-1.42532E-01 2.81589E-01 1.26037E-03-6.01325E-05 1.93282E-04 1.37587E-06
 -1      2224-1.33077E-01 2.72513E-01 1.30457E-03-5.43927E-05 2.50097E-04 4.30400E-06
 -1      2225-1.42647E-01 2.81474E-01 9.90803E-04-6.17770E-05 3.20197E-04 8.98409E-06
 -1      2227-1.33219E-01 2.72370E-01 9.71702E-04-5.82116E-05 4.00124E-04 1.47417E-05
 -1      2228-1.42828E-01 2.81293E-01 5.70838E-04-6.78448E-05 5.07658E-04 2.71812E-05
 -1      2230-1.33463E-01 2.72126E-01 4.07471E-04-6.88031E-05 6.22017E-04 3.88213E-05
 -1      2232-1.17161E-01 2.55347E-01 3.56038E-04-6.32093E-05-5.72850E-04-3.63385E-05
 -1      2233-1.25374E-01 2.63412E-01 5.05840E-04-6.21912E-05-4.71692E-04-2.58936E-05
 -1      2235-1.16946E-01 2.55563E-01 8.54856E-04-5.36677E-05-3.74169E-04-1.47672E-05
 -1      2236-1.25212E-01 2.63574E-01 8.81623E-04-5.64767E-05-3.02123E-04-9.39759E-06
 -1      2238-1.16817E-01 2.55692E-01 1.15441E-03-4.99716E-05-2.37055E-04-4.97338E-06
 -1      2239-1.25108E-01 2.63678E-01 1.12585E-03-5.46848E-05-1.84768E-04-2.15692E-06
 -1      2241-1.16740E-01 2.55769E-01 1.33528E-03-4.88678E-05-1.39118E-04-7.95138E-07
 -1      2242-1.25046E-01 2.63740E-01 1.26978E-03-5.44203E-05-9.94221E-05 1.79971E-07
 -1      2244-1.16698E-01 2.55811E-01 1.43260E-03-4.87078E-05-6.42301E-05 2.44998E-07
 -1      2245-1.25018E-01 2.63768E-01 1.33622E-03-5.45224E-05-3.13274E-05 2.79150E-07
 -1      2247-1.16685E-01 2.55824E-01 1.46331E-03-4.87283E-05 9.55402E-15 6.35245E-15
 -1      2248-1.25018E-01 2.63768E-01 1.33622E-03-5.45224E-05 3.13274E-05-2.79150E-07
 -1      2250-1.16698E-01 2.55811E-01 1.43260E-03-4.87078E-05 6.42301E-05-2.44998E-07
 -1      2251-1.25046E-01 2.63740E-01 1.26978E-03-5.44203E-05 9.94221E-05-1.79971E-07
 -1      2253-1.16740E-01 2.55769E-01 1.33528E-03-4.88678E-05 1.39118E-04 7.95138E-07
 -1      2254-1.25108E-01 2.63678E-01 1.12585E-03-5.46848E-05 1.84768E-04 2.15692E-06
 -1      2256-1.16817E-01 2.55692E-01 1.15441E-03-4.99716E-05 2.37055E-04 4.97338E-06
 -1      2257-1.25212E-01 2.63574E-01 8.81623E-04-5.64767E-05 3.02123E-04 9.39759E-06
 -1      2259-1.16946E-01 2.55563E-01 8.54856E-04-5.36677E-05 3.74169E-04 1.47672E-05
 -1      2260-1.25374E-01 2.63412E-01 5.05840E-04-6.21912E-05 4.71692E-04 2.58936E-05
 -1      2262-1.17161E-01 2.55347E-01 3.56038E-04-6.32093E-05 5.72850E-04 3.63385E-05
 -1      2264-1.02772E-01 2.40544E-01 3.12672E-04-5.82207E-05-5.28835E-04-3.40401E-05
 -1      2265-1.10014E-01 2.47675E-01 4.49888E-04-5.71891E-05-4.38917E-04-2.46552E-05
 -1      2267-1.02581E-01 2.40735E-01 7.55450E-04-4.96116E-05-3.50212E-04-1.46684E-05
 -1      2268-1.09869E-01 2.47820E-01 7.87046E-04-5.18308E-05-2.85036E-04-9.67492E-06
 -1      2270-1.02465E-01 2.40851E-01 1.02562E-03-4.60642E-05-2.24578E-04-5.49807E-06
 -1      2271-1.09774E-01 2.47915E-01 1.00862E-03-4.99532E-05-1.76356E-04-2.80037E-06
 -1      2273-1.02394E-01 2.40922E-01 1.19073E-03-4.48567E-05-1.33064E-04-1.36482E-06
 -1      2274-1.09718E-01 2.47972E-01 1.14047E-03-4.95171E-05-9.57065E-05-3.23509E-07
 -1      2276-1.02356E-01 2.40960E-01 1.28030E-03-4.45737E-05-6.18179E-05-8.66589E-08
 -1      2277-1.09692E-01 2.47998E-01 1.20172E-03-4.95079E-05-3.02934E-05 9.61044E-08
 -1      2279-1.02344E-01 2.40973E-01 1.30869E-03-4.45450E-05-6.51928E-16 1.17332E-15
 -1      2280-1.09692E-01 2.47998E-01 1.20172E-03-4.95079E-05 3.02934E-05-9.61044E-08
 -1      2282-1.02356E-01 2.40960E-01 1.28030E-03-4.45737E-05 6.18179E-05 8.66590E-08
 -1      2283-1.09718E-01 2.47972E-01 1.14047E-03-4.95171E-05 9.57065E-05 3.23509E-07
 -1      2285-1.02394E-01 2.40922E-01 1.19073E-03-4.48567E-05 1.33064E-04 1.36482E-06
 -1      2286-1.09774E-01 2.47915E-01 1.00862E-03-4.99532E-05 1.76356E-04 2.80037E-06
 -1      2288-1.02465E-01 2.40851E-01 1.02562E-03-4.60642E-05 2.24578E-04 5.49807E-06
 -1      2289-1.09869E-01 2.47820E-01 7.87046E-04-5.18308E-05 2.85036E-04 9.67492E-06
 -1      2291-1.02581E-01 2.40735E-01 7.55450E-04-4.96116E-05 3.50212E-04 1.46684E-05
 -1      2292-1.10014E-01 2.47675E-01 4.49888E-04-5.71891E-05 4.38917E-04 2.46552E-05
 -1      2294-1.02772E-01 2.40544E-01 3.12672E-04-5.82207E-05 5.28835E-04 3.40401E-05
 -1      2296-9.00080E-02 2.27416E-01 2.75859E-04-5.37563E-05-4.89281E-04-3.19129E-05
 -1      2297-9.64267E-02 2.33753E-01 4.01486E-04-5.27417E-05-4.08989E-04-2.34674E-05
 -1      2299-8.98377E-02 2.27587E-01 6.70354E-04-4.59771E-05-3.28081E-04-1.44746E-05
 -1      2300-9.62962E-02 2.33884E-01 7.04765E-04-4.77344E-05-2.68920E-04-9.83911E-06
 -1      2302-8.97327E-02 2.27692E-01 9.14556E-04-4.25944E-05-2.12685E-04-5.89956E-06
 -1      2303-9.62100E-02 2.33970E-01 9.06074E-04-4.58183E-05-1.68121E-04-3.32364E-06
 -1      2305-8.96682E-02 2.27757E-01 1.06539E-03-4.13236E-05-1.27101E-04-1.83846E-06
 -1      2306-9.61585E-02 2.34022E-01 1.02689E-03-4.52547E-05-9.19303E-05-7.50310E-07
 -1      2308-8.96330E-02 2.27792E-01 1.14783E-03-4.09483E-05-5.93741E-05-3.69486E-07
 -1      2309-9.61344E-02 2.34046E-01 1.08334E-03-4.51583E-05-2.92149E-05-6.13368E-08
 -1      2311-8.96219E-02 2.27803E-01 1.17406E-03-4.08814E-05 4.16429E-17 2.80812E-14
 -1      2312-9.61344E-02 2.34046E-01 1.08334E-03-4.51583E-05 2.92149E-05 6.13368E-08
 -1      2314-8.96330E-02 2.27792E-01 1.14783E-03-4.09483E-05 5.93741E-05 3.69486E-07
 -1      2315-9.61585E-02 2.34022E-01 1.02689E-03-4.52547E-05 9.19303E-05 7.50310E-07
 -1      2317-8.96682E-02 2.27757E-01 1.06539E-03-4.13236E-05 1.27101E-04 1.83846E-06
 -1      2318-9.62100E-02 2.33970E-01 9.06074E-04-4.58183E-05 1.68121E-04 3.32364E-06
 -1      2320-8.97327E-02 2.27692E-01 9.14556E-04-4.25944E-05 2.12685E-04 5.89956E-06
 -1      2321-9.62962E-02 2.33884E-01 7.04765E-04-4.77344E-05 2.68920E-04 9.83911E-06
 -1      2323-8.98377E-02 2.27587E-01 6.70354E-04-4.59771E-05 3.28081E-04 1.44746E-05
 -1      2324-9.64267E-02 2.33753E-01 4.01486E-04-5.27417E-05 4.08989E-04 2.34674E-05
 -1      2326-9.00080E-02 2.27416E-01 2.75859E-04-5.37563E-05 4.89281E-04 3.19129E-05
 -1      2328-7.86334E-02 2.15721E-01 2.44411E-04-4.97463E-05-4.53606E-04-2.99434E-05
 -1      2329-8.43489E-02 2.21378E-01 3.59427E-04-4.87691E-05-3.81609E-04-2.23304E-05
 -1      2331-7.84811E-02 2.15874E-01 5.97096E-04-4.27073E-05-3.07618E-04-1.42086E-05
 -1      2332-8.42312E-02 2.21495E-01 6.32891E-04-4.41022E-05-2.53746E-04-9.90987E-06
 -1      2334-7.83860E-02 2.15969E-01 8.18276E-04-3.94982E-05-2.01385E-04-6.19672E-06
 -1      2335-8.41528E-02 2.21574E-01 8.16052E-04-4.21833E-05-1.60121E-04-3.74264E-06
 -1      2337-7.83269E-02 2.16028E-01 9.56214E-04-3.81955E-05-1.21275E-04-2.22774E-06
 -1      2338-8.41054E-02 2.21622E-01 9.26824E-04-4.15280E-05-8.81480E-05-1.10856E-06
 -1      2340-7.82945E-02 2.16061E-01 1.03210E-03-3.77530E-05-5.69317E-05-6.08460E-07
 -1      2341-8.40833E-02 2.21644E-01 9.78839E-04-4.13644E-05-2.81127E-05-1.95533E-07
 -1      2343-7.82842E-02 2.16071E-01 1.05633E-03-3.76569E-05-1.42273E-15 1.75695E-14
 -1      2344-8.40833E-02 2.21644E-01 9.78839E-04-4.13644E-05 2.81127E-05 1.95533E-07
 -1      2346-7.82945E-02 2.16061E-01 1.03210E-03-3.77530E-05 5.69317E-05 6.08460E-07
 -1      2347-8.41054E-02 2.21622E-01 9.26824E-04-4.15280E-05 8.81480E-05 1.10856E-06
 -1      2349-7.83269E-02 2.16028E-01 9.56214E-04-3.81955E-05 1.21275E-04 2.22774E-06
 -1      2350-8.41528E-02 2.21574E-01 8.16052E-04-4.21833E-05 1.60121E-04 3.74264E-06
 -1      2352-7.83860E-02 2.15969E-01 8.18276E-04-3.94982E-05 2.01385E-04 6.19672E-06
 -1      2353-8.42312E-02 2.21495E-01 6.32891E-04-4.41022E-05 2.53746E-04 9.90987E-06
 -1      2355-7.84811E-02 2.15874E-01 5.97096E-04-4.27073E-05 3.07618E-04 1.42086E-05
 -1      2356-8.43489E-02 2.21378E-01 3.59427E-04-4.87691E-05 3.81609E-04 2.23304E-05
 -1      2358-7.86334E-02 2.15721E-01 2.44411E-04-4.97463E-05 4.53606E-04 2.99434E-05
 -1      2360-6.84536E-02 2.05258E-01 2.17392E-04-4.61284E-05-4.21326E-04-2.81191E-05
 -1      2361-7.35651E-02 2.10327E-01 3.22724E-04-4.52032E-05-3.56512E-04-2.12441E-05
 -1      2363-6.83170E-02 2.05395E-01 5.33697E-04-3.97512E-05-2.88681E-04-1.38890E-05
 -1      2364-7.34586E-02 2.10434E-01 5.69872E-04-4.08627E-05-2.39478E-04-9.90407E-06
 -1      2366-6.82306E-02 2.05481E-01 7.34420E-04-3.67195E-05-1.90671E-04-6.40618E-06
 -1      2367-7.33871E-02 2.10506E-01 7.36759E-04-3.89679E-05-1.52391E-04-4.07179E-06
 -1      2369-6.81765E-02 2.05535E-01 8.60688E-04-3.54093E-05-1.15618E-04-2.54363E-06
 -1      2370-7.33437E-02 2.10549E-01 8.38386E-04-3.82495E-05-8.44010E-05-1.40613E-06
 -1      2372-6.81467E-02 2.05565E-01 9.30569E-04-3.49198E-05-5.45157E-05-8.08513E-07
 -1      2373-7.33232E-02 2.10570E-01 8.86323E-04-3.80351E-05-2.70033E-05-3.08879E-07
 -1      2375-6.81371E-02 2.05575E-01 9.52947E-04-3.48020E-05-4.89913E-15 3.46082E-14
 -1      2376-7.33232E-02 2.10570E-01 8.86323E-04-3.80351E-05 2.70033E-05 3.08879E-07
 -1      2378-6.81467E-02 2.05565E-01 9.30569E-04-3.49198E-05 5.45157E-05 8.08513E-07
 -1      2379-7.33437E-02 2.10549E-01 8.38386E-04-3.82495E-05 8.44010E-05 1.40613E-06
 -1      2381-6.81765E-02 2.05535E-01 8.60688E-04-3.54093E-05 1.15618E-04 2.54363E-06
 -1      2382-7.33871E-02 2.10506E-01 7.36759E-04-3.89679E-05 1.52391E-04 4.07179E-06
 -1      2384-6.82306E-02 2.05481E-01 7.34420E-04-3.67195E-05 1.90671E-04 6.40618E-06
 -1      2385-7.34586E-02 2.10434E-01 5.69872E-04-4.08627E-05 2.39478E-04 9.90407E-06
 -1      2387-6.83170E-02 2.05395E-01 5.33697E-04-3.97512E-05 2.88681E-04 1.38890E-05
 -1      2388-7.35651E-02 2.10327E-01 3.22724E-04-4.52032E-05 3.56512E-04 2.12441E-05
 -1      2390-6.84536E-02 2.05258E-01 2.17392E-04-4.61284E-05 4.21326E-04 2.81191E-05
 -1      2392-5.93071E-02 1.95859E-01 1.94052E-04-4.28414E-05-3.92025E-04-2.64287E-05
 -1      2393-6.38967E-02 2.00420E-01 2.90568E-04-4.19816E-05-3.33466E-04-2.02078E-05
 -1      2395-5.91841E-02 1.95982E-01 4.78564E-04-3.70580E-05-2.71137E-04-1.35311E-05
 -1      2396-6.38003E-02 2.00517E-01 5.14419E-04-3.79517E-05-2.26073E-04-9.83628E-06
 -1      2398-5.91056E-02 1.96060E-01 6.61063E-04-3.42041E-05-1.80529E-04-6.54291E-06
 -1      2399-6.37349E-02 2.00582E-01 6.66693E-04-3.61010E-05-1.44956E-04-4.32417E-06
 -1      2401-5.90560E-02 1.96110E-01 7.76768E-04-3.29052E-05-1.10152E-04-2.79649E-06
 -1      2402-6.36951E-02 2.00622E-01 7.59999E-04-3.53426E-05-8.07205E-05-1.65056E-06
 -1      2404-5.90285E-02 1.96138E-01 8.41146E-04-3.23851E-05-5.21450E-05-9.74537E-07
 -1      2405-6.36762E-02 2.00641E-01 8.04190E-04-3.50910E-05-2.58993E-05-4.03753E-07
 -1      2407-5.90197E-02 1.96147E-01 8.61818E-04-3.22517E-05-4.34157E-16-1.05985E-14
 -1      2408-6.36762E-02 2.00641E-01 8.04190E-04-3.50910E-05 2.58993E-05 4.03753E-07
 -1      2410-5.90285E-02 1.96138E-01 8.41146E-04-3.23851E-05 5.21450E-05 9.74537E-07
 -1      2411-6.36951E-02 2.00622E-01 7.59999E-04-3.53426E-05 8.07205E-05 1.65056E-06
 -1      2413-5.90560E-02 1.96110E-01 7.76768E-04-3.29052E-05 1.10152E-04 2.79649E-06
 -1      2414-6.37349E-02 2.00582E-01 6.66693E-04-3.61010E-05 1.44956E-04 4.32417E-06
 -1      2416-5.91056E-02 1.96060E-01 6.61063E-04-3.42041E-05 1.80529E-04 6.54291E-06
 -1      2417-6.38003E-02 2.00517E-01 5.14419E-04-3.79517E-05 2.26073E-04 9.83628E-06
 -1      2419-5.91841E-02 1.95982E-01 4.78564E-04-3.70580E-05 2.71137E-04 1.35311E-05
 -1      2420-6.38967E-02 2.00420E-01 2.90568E-04-4.19816E-05 3.33466E-04 2.02078E-05
 -1      2422-5.93071E-02 1.95859E-01 1.94052E-04-4.28414E-05 3.92025E-04 2.64287E-05
 -1      2424-5.10587E-02 1.87384E-01 1.73781E-04-3.98133E-05-3.65345E-04-2.48623E-05
 -1      2425-5.51951E-02 1.91503E-01 2.62291E-04-3.90383E-05-3.12263E-04-1.92207E-05
 -1      2427-5.09478E-02 1.87495E-01 4.30391E-04-3.45662E-05-2.54862E-04-1.31484E-05
 -1      2428-5.51076E-02 1.91591E-01 4.65457E-04-3.53034E-05-2.13484E-04-9.71932E-06
 -1      2430-5.08762E-02 1.87567E-01 5.96613E-04-3.18890E-05-1.70940E-04-6.62113E-06
 -1      2431-5.50478E-02 1.91651E-01 6.04590E-04-3.35118E-05-1.37828E-04-4.51192E-06
 -1      2433-5.08307E-02 1.87613E-01 7.02750E-04-3.06161E-05-1.04891E-04-2.99662E-06
 -1      2434-5.50111E-02 1.91688E-01 6.90323E-04-3.27320E-05-7.71284E-05-1.84919E-06
 -1      2436-5.08053E-02 1.87638E-01 7.62089E-04-3.00788E-05-4.98323E-05-1.11158E-06
 -1      2437-5.49937E-02 1.91705E-01 7.31076E-04-3.24542E-05-2.48102E-05-4.82537E-07
 -1      2439-5.07971E-02 1.87647E-01 7.81190E-04-2.99347E-05 3.66139E-15 2.72266E-14
 -1      2440-5.49937E-02 1.91705E-01 7.31076E-04-3.24542E-05 2.48102E-05 4.82537E-07
 -1      2442-5.08053E-02 1.87638E-01 7.62089E-04-3.00788E-05 4.98323E-05 1.11158E-06
 -1      2443-5.50111E-02 1.91688E-01 6.90323E-04-3.27320E-05 7.71284E-05 1.84919E-06
 -1      2445-5.08307E-02 1.87613E-01 7.02750E-04-3.06161E-05 1.04891E-04 2.99662E-06
 -1      2446-5.50478E-02 1.91651E-01 6.04590E-04-3.35118E-05 1.37828E-04 4.51192E-06
 -1      2448-5.08762E-02 1.87567E-01 5.96613E-04-3.18890E-05 1.70940E-04 6.62113E-06
 -1      2449-5.51076E-02 1.91591E-01 4.65457E-04-3.53034E-05 2.13484E-04 9.71932E-06
 -1      2451-5.09478E-02 1.87495E-01 4.30391E-04-3.45662E-05 2.54862E-04 1.31484E-05
 -1      2452-5.51951E-02 1.91503E-01 2.62291E-04-3.90383E-05 3.12263E-04 1.92207E-05
 -1      2454-5.10587E-02 1.87384E-01 1.73781E-04-3.98133E-05 3.65345E-04 2.48623E-05
 -1      2456-4.35949E-02 1.79717E-01 1.56074E-04-3.69369E-05-3.40966E-04-2.34117E-05
 -1      2457-4.73357E-02 1.83449E-01 2.37331E-04-3.62859E-05-2.92709E-04-1.82817E-05
 -1      2459-4.34945E-02 1.79818E-01 3.88090E-04-3.21811E-05-2.39734E-04-1.27543E-05
 -1      2460-4.72560E-02 1.83529E-01 4.22073E-04-3.28328E-05-2.01658E-04-9.56513E-06
 -1      2462-4.34291E-02 1.79883E-01 5.39735E-04-2.96804E-05-1.61871E-04-6.65579E-06
 -1      2463-4.72014E-02 1.83584E-01 5.49366E-04-3.11124E-05-1.31008E-04-4.64687E-06
 -1      2465-4.33873E-02 1.79925E-01 6.37192E-04-2.84463E-05-9.98368E-05-3.15524E-06
 -1      2466-4.71676E-02 1.83618E-01 6.28204E-04-3.03264E-05-7.36382E-05-2.00954E-06
 -1      2468-4.33639E-02 1.79949E-01 6.91916E-04-2.79031E-05-4.75847E-05-1.22541E-06
 -1      2469-4.71515E-02 1.83634E-01 6.65803E-04-3.00319E-05-2.37423E-05-5.47752E-07
 -1      2471-4.33563E-02 1.79956E-01 7.09570E-04-2.77527E-05 1.58420E-15-9.57654E-15
 -1      2472-4.71515E-02 1.83634E-01 6.65803E-04-3.00319E-05 2.37423E-05 5.47752E-07
 -1      2474-4.33639E-02 1.79949E-01 6.91916E-04-2.79031E-05 4.75847E-05 1.22541E-06
 -1      2475-4.71676E-02 1.83618E-01 6.28204E-04-3.03264E-05 7.36382E-05 2.00954E-06
 -1      2477-4.33873E-02 1.79925E-01 6.37192E-04-2.84463E-05 9.98368E-05 3.15524E-06
 -1      2478-4.72014E-02 1.83584E-01 5.49366E-04-3.11124E-05 1.31008E-04 4.64687E-06
 -1      2480-4.34291E-02 1.79883E-01 5.39735E-04-2.96804E-05 1.61871E-04 6.65579E-06
 -1      2481-4.72560E-02 1.83529E-01 4.22073E-04-3.28328E-05 2.01658E-04 9.56513E-06
 -1      2483-4.34945E-02 1.79818E-01 3.88090E-04-3.21811E-05 2.39734E-04 1.27543E-05
 -1      2484-4.73357E-02 1.83449E-01 2.37331E-04-3.62859E-05 2.92709E-04 1.82817E-05
 -1      2486-4.35949E-02 1.79717E-01 1.56074E-04-3.69369E-05 3.40966E-04 2.34117E-05
 -1      2488-3.68197E-02 1.72758E-01 1.40492E-04-3.40181E-05-3.18578E-04-2.20719E-05
 -1      2489-4.02135E-02 1.76150E-01 2.15208E-04-3.35786E-05-2.74616E-04-1.73896E-05
 -1      2491-3.67286E-02 1.72849E-01 3.50722E-04-2.97273E-05-2.25619E-04-1.23651E-05
 -1      2492-4.01408E-02 1.76222E-01 3.83478E-04-3.04005E-05-1.90527E-04-9.38581E-06
 -1      2494-3.66688E-02 1.72909E-01 4.89261E-04-2.74085E-05-1.53274E-04-6.66487E-06
 -1      2495-4.00907E-02 1.76273E-01 5.00074E-04-2.87636E-05-1.24484E-04-4.74181E-06
 -1      2497-3.66303E-02 1.72947E-01 5.78823E-04-2.62264E-05-9.49777E-05-3.28656E-06
 -1      2498-4.00596E-02 1.76304E-01 5.72624E-04-2.79853E-05-7.02536E-05-2.14009E-06
 -1      2500-3.66087E-02 1.72969E-01 6.29315E-04-2.56880E-05-4.54021E-05-1.32328E-06
 -1      2501-4.00447E-02 1.76319E-01 6.07328E-04-2.76822E-05-2.26985E-05-6.02278E-07
 -1      2503-3.66017E-02 1.72976E-01 6.45636E-04-2.55352E-05 5.59352E-15-1.39919E-14
 -1      2504-4.00447E-02 1.76319E-01 6.07328E-04-2.76822E-05 2.26985E-05 6.02278E-07
 -1      2506-3.66087E-02 1.72969E-01 6.29315E-04-2.56880E-05 4.54021E-05 1.32328E-06
 -1      2507-4.00596E-02 1.76304E-01 5.72624E-04-2.79853E-05 7.02536E-05 2.14009E-06
 -1      2509-3.66303E-02 1.72947E-01 5.78823E-04-2.62264E-05 9.49777E-05 3.28656E-06
 -1      2510-4.00907E-02 1.76273E-01 5.00074E-04-2.87636E-05 1.24484E-04 4.74181E-06
 -1      2512-3.66688E-02 1.72909E-01 4.89261E-04-2.74085E-05 1.53274E-04 6.66487E-06
 -1      2513-4.01408E-02 1.76222E-01 3.83478E-04-3.04005E-05 1.90527E-04 9.38581E-06
 -1      2515-3.67286E-02 1.72849E-01 3.50722E-04-2.97273E-05 2.25619E-04 1.23651E-05
 -1      2516-4.02135E-02 1.76150E-01 2.15208E-04-3.35786E-05 2.74616E-04 1.73896E-05
 -1      2518-3.68197E-02 1.72758E-01 1.40492E-04-3.40181E-05 3.18578E-04 2.20719E-05
 -1      2520-3.06521E-02 1.66422E-01 1.26625E-04-3.06675E-05-2.97846E-04-2.08414E-05
 -1      2521-3.37396E-02 1.69513E-01 1.95497E-04-3.06340E-05-2.57774E-04-1.65424E-05
 -1      2523-3.05692E-02 1.66504E-01 3.17412E-04-2.68474E-05-2.12351E-04-1.20024E-05
 -1      2524-3.36733E-02 1.69580E-01 3.48955E-04-2.77390E-05-1.80000E-04-9.19548E-06
 -1      2526-3.05144E-02 1.66559E-01 4.44103E-04-2.47300E-05-1.45074E-04-6.67426E-06
 -1      2527-3.36272E-02 1.69626E-01 4.55842E-04-2.62031E-05-1.18221E-04-4.81184E-06
 -1      2529-3.04789E-02 1.66594E-01 5.26445E-04-2.36193E-05-9.02813E-05-3.40951E-06
 -1      2530-3.35985E-02 1.69655E-01 5.22636E-04-2.54481E-05-6.69645E-05-2.25121E-06
 -1      2532-3.04588E-02 1.66615E-01 5.73037E-04-2.30988E-05-4.32730E-05-1.41567E-06
 -1      2533-3.35848E-02 1.69668E-01 5.54674E-04-2.51449E-05-2.16770E-05-6.49815E-07
 -1      2535-3.04524E-02 1.66621E-01 5.88126E-04-2.29483E-05 5.86644E-15-4.25403E-14
 -1      2536-3.35848E-02 1.69668E-01 5.54674E-04-2.51449E-05 2.16770E-05 6.49815E-07
 -1      2538-3.04588E-02 1.66615E-01 5.73037E-04-2.30988E-05 4.32730E-05 1.41567E-06
 -1      2539-3.35985E-02 1.69655E-01 5.22636E-04-2.54481E-05 6.69645E-05 2.25121E-06
 -1      2541-3.04789E-02 1.66594E-01 5.26445E-04-2.36193E-05 9.02813E-05 3.40951E-06
 -1      2542-3.36272E-02 1.69626E-01 4.55842E-04-2.62031E-05 1.18221E-04 4.81184E-06
 -1      2544-3.05144E-02 1.66559E-01 4.44103E-04-2.47300E-05 1.45074E-04 6.67426E-06
 -1      2545-3.36733E-02 1.69580E-01 3.48955E-04-2.77390E-05 1.80000E-04 9.19548E-06
 -1      2547-3.05692E-02 1.66504E-01 3.17412E-04-2.68474E-05 2.12351E-04 1.20024E-05
 -1      2548-3.37396E-02 1.69513E-01 1.95497E-04-3.06340E-05 2.57774E-04 1.65424E-05
 -1      2550-3.06521E-02 1.66422E-01 1.26625E-04-3.06675E-05 2.97846E-04 2.08414E-05
 -1      2552-2.50241E-02 1.60635E-01 1.14000E-04-2.60739E-05-2.78335E-04-1.97269E-05
 -1      2553-2.78393E-02 1.63462E-01 1.77789E-04-2.68708E-05-2.41907E-04-1.57359E-05
 -1      2555-2.49483E-02 1.60710E-01 2.87264E-04-2.27909E-05-1.99680E-04-1.17043E-05
 -1      2556-2.77785E-02 1.63523E-01 3.17794E-04-2.42991E-05-1.69933E-04-9.00752E-06
 -1      2558-2.48978E-02 1.60761E-01 4.03090E-04-2.09286E-05-1.37129E-04-6.71739E-06
 -1      2559-2.77361E-02 1.63565E-01 4.15788E-04-2.28989E-05-1.12144E-04-4.87503E-06
 -1      2561-2.48650E-02 1.60793E-01 4.78768E-04-1.99273E-05-8.56739E-05-3.55564E-06
 -1      2562-2.77096E-02 1.63592E-01 4.77269E-04-2.21904E-05-6.37368E-05-2.35726E-06
 -1      2564-2.48464E-02 1.60812E-01 5.21734E-04-1.94460E-05-4.11659E-05-1.51929E-06
 -1      2565-2.76969E-02 1.63604E-01 5.06834E-04-2.18988E-05-2.06681E-05-6.95524E-07
 -1      2567-2.48404E-02 1.60818E-01 5.35673E-04-1.93044E-05-3.94519E-15-1.66514E-14
 -1      2568-2.76969E-02 1.63604E-01 5.06834E-04-2.18988E-05 2.06681E-05 6.95524E-07
 -1      2570-2.48464E-02 1.60812E-01 5.21734E-04-1.94460E-05 4.11659E-05 1.51929E-06
 -1      2571-2.77096E-02 1.63592E-01 4.77269E-04-2.21904E-05 6.37368E-05 2.35726E-06
 -1      2573-2.48650E-02 1.60793E-01 4.78768E-04-1.99273E-05 8.56739E-05 3.55564E-06
 -1      2574-2.77361E-02 1.63565E-01 4.15788E-04-2.28989E-05 1.12144E-04 4.87503E-06
 -1      2576-2.48978E-02 1.60761E-01 4.03090E-04-2.09286E-05 1.37129E-04 6.71739E-06
 -1      2577-2.77785E-02 1.63523E-01 3.17794E-04-2.42991E-05 1.69933E-04 9.00752E-06
 -1      2579-2.49483E-02 1.60710E-01 2.87264E-04-2.27909E-05 1.99680E-04 1.17043E-05
 -1      2580-2.78393E-02 1.63462E-01 1.77789E-04-2.68708E-05 2.41907E-04 1.57359E-05
 -1      2582-2.50241E-02 1.60635E-01 1.14000E-04-2.60739E-05 2.78335E-04 1.97269E-05
 -1      2584-1.98797E-02 1.55336E-01 1.02130E-04-1.85344E-05-2.59366E-04-1.87549E-05
 -1      2585-2.24499E-02 1.57928E-01 1.61638E-04-2.10725E-05-2.26587E-04-1.49458E-05
 -1      2587-1.98099E-02 1.55404E-01 2.59067E-04-1.59867E-05-1.87173E-04-1.15207E-05
 -1      2588-2.23939E-02 1.57983E-01 2.89183E-04-1.89384E-05-1.60061E-04-8.84311E-06
 -1      2590-1.97631E-02 1.55450E-01 3.64800E-04-1.45111E-05-1.29170E-04-6.88838E-06
 -1      2591-2.23548E-02 1.58022E-01 3.78885E-04-1.77473E-05-1.06102E-04-4.95883E-06
 -1      2593-1.97326E-02 1.55480E-01 4.34171E-04-1.36981E-05-8.10012E-05-3.78250E-06
 -1      2594-2.23303E-02 1.58047E-01 4.35371E-04-1.71315E-05-6.04913E-05-2.47244E-06
 -1      2596-1.97153E-02 1.55497E-01 4.73664E-04-1.33028E-05-3.90112E-05-1.66140E-06
 -1      2597-2.23185E-02 1.58058E-01 4.62597E-04-1.68741E-05-1.96474E-05-7.43470E-07
 -1      2599-1.97097E-02 1.55503E-01 4.86494E-04-1.31859E-05-5.60582E-16-4.41343E-15
 -1      2600-2.23185E-02 1.58058E-01 4.62597E-04-1.68741E-05 1.96474E-05 7.43470E-07
 -1      2602-1.97153E-02 1.55497E-01 4.73664E-04-1.33028E-05 3.90112E-05 1.66140E-06
 -1      2603-2.23303E-02 1.58047E-01 4.35371E-04-1.71315E-05 6.04913E-05 2.47244E-06
 -1      2605-1.97326E-02 1.55480E-01 4.34171E-04-1.36981E-05 8.10012E-05 3.78250E-06
 -1      2606-2.23548E-02 1.58022E-01 3.78885E-04-1.77473E-05 1.06102E-04 4.95883E-06
 -1      2608-1.97631E-02 1.55450E-01 3.64800E-04-1.45111E-05 1.29170E-04 6.88838E-06
 -1      2609-2.23939E-02 1.57983E-01 2.89183E-04-1.89384E-05 1.60061E-04 8.84311E-06
 -1      2611-1.98099E-02 1.55404E-01 2.59067E-04-1.59867E-05 1.87173E-04 1.15207E-05
 -1      2612-2.24499E-02 1.57928E-01 1.61638E-04-2.10725E-05 2.26587E-04 1.49458E-05
 -1      2614-1.98797E-02 1.55336E-01 1.02130E-04-1.85344E-05 2.59366E-04 1.87549E-05
 -1      2616-1.51760E-02 1.50467E-01 8.97144E-05-4.55465E-06-2.39700E-04-1.79758E-05
 -1      2617-1.75207E-02 1.52852E-01 1.46484E-04-1.07311E-05-2.11025E-04-1.41949E-05
 -1      2619-1.51104E-02 1.50529E-01 2.31511E-04-3.18649E-06-1.73973E-04-1.17889E-05
 -1      2620-1.74688E-02 1.52903E-01 2.62048E-04-9.28198E-06-1.49866E-04-8.76133E-06
 -1      2622-1.50666E-02 1.50571E-01 3.27153E-04-2.37406E-06-1.20638E-04-7.41935E-06
 -1      2623-1.74324E-02 1.52938E-01 3.43718E-04-8.46894E-06-9.97621E-05-5.11550E-06
 -1      2625-1.50382E-02 1.50598E-01 3.90177E-04-1.94484E-06-7.59175E-05-4.33314E-06
 -1      2626-1.74096E-02 1.52961E-01 3.95367E-04-8.04760E-06-5.70416E-05-2.65198E-06
 -1      2628-1.50221E-02 1.50614E-01 4.26202E-04-1.74130E-06-3.66406E-05-2.00438E-06
 -1      2629-1.73986E-02 1.52972E-01 4.20334E-04-7.87056E-06-1.85542E-05-8.18146E-07
 -1      2631-1.50170E-02 1.50619E-01 4.37932E-04-1.68157E-06-8.19750E-15 3.93215E-15
 -1      2632-1.73986E-02 1.52972E-01 4.20334E-04-7.87056E-06 1.85542E-05 8.18146E-07
 -1      2634-1.50221E-02 1.50614E-01 4.26202E-04-1.74130E-06 3.66406E-05 2.00438E-06
 -1      2635-1.74096E-02 1.52961E-01 3.95367E-04-8.04760E-06 5.70416E-05 2.65198E-06
 -1      2637-1.50382E-02 1.50598E-01 3.90177E-04-1.94484E-06 7.59175E-05 4.33314E-06
 -1      2638-1.74324E-02 1.52938E-01 3.43718E-04-8.46894E-06 9.97621E-05 5.11550E-06
 -1      2640-1.50666E-02 1.50571E-01 3.27153E-04-2.37406E-06 1.20638E-04 7.41935E-06
 -1      2641-1.74688E-02 1.52903E-01 2.62048E-04-9.28198E-06 1.49866E-04 8.76133E-06
 -1      2643-1.51104E-02 1.50529E-01 2.31511E-04-3.18649E-06 1.73973E-04 1.17889E-05
 -1      2644-1.75207E-02 1.52852E-01 1.46484E-04-1.07311E-05 2.11025E-04 1.41949E-05
 -1      2646-1.51760E-02 1.50467E-01 8.97144E-05-4.55465E-06 2.39700E-04 1.79758E-05
 -1      2648-1.08833E-02 1.45979E-01 7.77334E-05 2.29866E-05-2.16843E-04-1.81679E-05
 -1      2649-1.30145E-02 1.48182E-01 1.31387E-04 9.27669E-06-1.93657E-04-1.34473E-05
 -1      2651-1.08206E-02 1.46034E-01 2.01218E-04 2.21660E-05-1.58296E-04-1.31018E-05
 -1      2652-1.29653E-02 1.48228E-01 2.34501E-04 9.43048E-06-1.38183E-04-9.06600E-06
 -1      2654-1.07800E-02 1.46072E-01 2.86095E-04 2.16289E-05-1.10144E-04-9.76858E-06
 -1      2655-1.29312E-02 1.48260E-01 3.08165E-04 9.55049E-06-9.22833E-05-5.98627E-06
 -1      2657-1.07545E-02 1.46097E-01 3.42864E-04 2.14089E-05-6.94409E-05-6.62146E-06
 -1      2658-1.29100E-02 1.48281E-01 3.55138E-04 9.65628E-06-5.28699E-05-3.46781E-06
 -1      2660-1.07404E-02 1.46111E-01 3.75620E-04 2.13617E-05-3.35429E-05-3.36795E-06
 -1      2661-1.29000E-02 1.48291E-01 3.77959E-04 9.72133E-06-1.72132E-05-1.14131E-06
 -1      2663-1.07359E-02 1.46115E-01 3.86332E-04 2.13616E-05-2.16822E-15 2.82844E-14
 -1      2664-1.29000E-02 1.48291E-01 3.77959E-04 9.72133E-06 1.72132E-05 1.14131E-06
 -1      2666-1.07404E-02 1.46111E-01 3.75620E-04 2.13617E-05 3.35429E-05 3.36795E-06
 -1      2667-1.29100E-02 1.48281E-01 3.55138E-04 9.65628E-06 5.28699E-05 3.46781E-06
 -1      2669-1.07545E-02 1.46097E-01 3.42864E-04 2.14089E-05 6.94409E-05 6.62146E-06
 -1      2670-1.29312E-02 1.48260E-01 3.08165E-04 9.55049E-06 9.22833E-05 5.98627E-06
 -1      2672-1.07800E-02 1.46072E-01 2.86095E-04 2.16289E-05 1.10144E-04 9.76858E-06
 -1      2673-1.29653E-02 1.48228E-01 2.34501E-04 9.43048E-06 1.38183E-04 9.06600E-06
 -1      2675-1.08206E-02 1.46034E-01 2.01218E-04 2.21660E-05 1.58296E-04 1.31018E-05
 -1      2676-1.30145E-02 1.48182E-01 1.31387E-04 9.27669E-06 1.93657E-04 1.34473E-05
 -1      2678-1.08833E-02 1.45979E-01 7.77334E-05 2.29866E-05 2.16843E-04 1.81679E-05
 -1      2680-6.99486E-03 1.41819E-01 5.35448E-05 7.71901E-05-1.85487E-04-1.91446E-05
 -1      2681-8.90722E-03 1.43870E-01 1.13882E-04 4.84207E-05-1.70745E-04-1.39202E-05
 -1      2683-6.93541E-03 1.41869E-01 1.61842E-04 7.18748E-05-1.35144E-04-2.05440E-05
 -1      2684-8.86118E-03 1.43910E-01 2.04469E-04 4.64325E-05-1.21952E-04-1.31218E-05
 -1      2686-6.90011E-03 1.41902E-01 2.37431E-04 6.97369E-05-9.37082E-05-1.83357E-05
 -1      2687-8.83137E-03 1.43939E-01 2.70127E-04 4.57749E-05-8.14206E-05-1.07153E-05
 -1      2689-6.87932E-03 1.41923E-01 2.88247E-04 6.92342E-05-5.88779E-05-1.35062E-05
 -1      2690-8.81375E-03 1.43957E-01 3.12254E-04 4.57354E-05-4.66160E-05-6.97461E-06
 -1      2692-6.86832E-03 1.41936E-01 3.17608E-04 6.93251E-05-2.83727E-05-7.10920E-06
 -1      2693-8.80560E-03 1.43965E-01 3.32776E-04 4.58334E-05-1.51701E-05-2.41457E-06
 -1      2695-6.86488E-03 1.41939E-01 3.27207E-04 6.94186E-05 3.98757E-15 3.20401E-14
 -1      2696-8.80560E-03 1.43965E-01 3.32776E-04 4.58334E-05 1.51701E-05 2.41457E-06
 -1      2698-6.86832E-03 1.41936E-01 3.17608E-04 6.93251E-05 2.83727E-05 7.10920E-06
 -1      2699-8.81375E-03 1.43957E-01 3.12254E-04 4.57354E-05 4.66160E-05 6.97461E-06
 -1      2701-6.87932E-03 1.41923E-01 2.88247E-04 6.92342E-05 5.88779E-05 1.35062E-05
 -1      2702-8.83137E-03 1.43939E-01 2.70127E-04 4.57749E-05 8.14206E-05 1.07153E-05
 -1      2704-6.90011E-03 1.41902E-01 2.37431E-04 6.97369E-05 9.37082E-05 1.83357E-05
 -1      2705-8.86118E-03 1.43910E-01 2.04469E-04 4.64325E-05 1.21952E-04 1.31218E-05
 -1      2707-6.93541E-03 1.41869E-01 1.61842E-04 7.18748E-05 1.35144E-04 2.05440E-05
 -1      2708-8.90722E-03 1.43870E-01 1.13882E-04 4.84207E-05 1.70745E-04 1.39202E-05
 -1      2710-6.99486E-03 1.41819E-01 5.35448E-05 7.71901E-05 1.85487E-04 1.91446E-05
 -1      2712-3.49346E-03 1.37934E-01 5.82843E-05 5.20929E-05-1.28744E-04-1.91753E-05
 -1      2713-5.20000E-03 1.39872E-01 1.05480E-04 1.24958E-04-1.33640E-04-2.50413E-05
 -1      2715-3.45279E-03 1.37967E-01 1.32877E-04 4.22483E-05-9.37012E-05-2.87938E-05
 -1      2716-5.16570E-03 1.39902E-01 1.75472E-04 1.20869E-04-9.52648E-05-2.67233E-05
 -1      2718-3.42963E-03 1.37989E-01 1.85269E-04 3.96109E-05-6.48418E-05-2.67111E-05
 -1      2719-5.14589E-03 1.39923E-01 2.26464E-04 1.20140E-04-6.34641E-05-2.21635E-05
 -1      2721-3.41613E-03 1.38004E-01 2.19828E-04 3.99364E-05-4.06857E-05-1.93689E-05
 -1      2722-5.13499E-03 1.39937E-01 2.59104E-04 1.20625E-04-3.62763E-05-1.42815E-05
 -1      2724-3.40911E-03 1.38012E-01 2.39467E-04 4.08801E-05-1.95949E-05-1.00210E-05
 -1      2725-5.13016E-03 1.39943E-01 2.74913E-04 1.21129E-04-1.17955E-05-4.89929E-06
 -1      2727-3.40694E-03 1.38015E-01 2.45826E-04 4.13068E-05-1.06475E-15-7.24184E-15
 -1      2728-5.13016E-03 1.39943E-01 2.74913E-04 1.21129E-04 1.17955E-05 4.89929E-06
 -1      2730-3.40911E-03 1.38012E-01 2.39467E-04 4.08801E-05 1.95949E-05 1.00210E-05
 -1      2731-5.13499E-03 1.39937E-01 2.59104E-04 1.20625E-04 3.62763E-05 1.42815E-05
 -1      2733-3.41613E-03 1.38004E-01 2.19828E-04 3.99364E-05 4.06857E-05 1.93689E-05
 -1      2734-5.14589E-03 1.39923E-01 2.26464E-04 1.20140E-04 6.34641E-05 2.21635E-05
 -1      2736-3.42963E-03 1.37989E-01 1.85269E-04 3.96109E-05 6.48418E-05 2.67111E-05
 -1      2737-5.16570E-03 1.39902E-01 1.75472E-04 1.20869E-04 9.52648E-05 2.67233E-05
 -1      2739-3.45279E-03 1.37967E-01 1.32877E-04 4.22483E-05 9.37012E-05 2.87938E-05
 -1      2740-5.20000E-03 1.39872E-01 1.05480E-04 1.24958E-04 1.33640E-04 2.50413E-05
 -1      2742-3.49346E-03 1.37934E-01 5.82843E-05 5.20929E-05 1.28744E-04 1.91753E-05
 -1      2744-1.72312E-03 1.35590E-01 1.02397E-05 4.48677E-06-7.87007E-05-2.25958E-05
 -1      2746-1.71158E-03 1.35599E-01 3.21548E-05-7.71129E-07-5.82229E-05-2.58395E-05
 -1      2748-1.70522E-03 1.35605E-01 4.67230E-05-1.09689E-06-4.00851E-05-2.09732E-05
 -1      2750-1.70192E-03 1.35609E-01 5.56269E-05 9.09546E-08-2.34750E-05-1.31935E-05
 -1      2752-1.70051E-03 1.35611E-01 5.98656E-05 1.04808E-06-7.73131E-06-4.46149E-06
 -1      2754-1.70051E-03 1.35611E-01 5.98656E-05 1.04808E-06 7.73131E-06 4.46149E-06
 -1      2756-1.70192E-03 1.35609E-01 5.56269E-05 9.09546E-08 2.34750E-05 1.31935E-05
 -1      2758-1.70522E-03 1.35605E-01 4.67230E-05-1.09689E-06 4.00851E-05 2.09732E-05
 -1      2760-1.71158E-03 1.35599E-01 3.21548E-05-7.71129E-07 5.82229E-05 2.58395E-05
 -1      2762-1.72312E-03 1.35590E-01 1.02397E-05 4.48677E-06 7.87007E-05 2.25958E-05
 -1      2765 3.53025E-03 1.30193E-01 5.10627E-05-2.05776E-02-2.68269E-06-1.69371E-05
 -1      2766 3.53350E-03 1.30193E-01 4.99935E-05-2.05771E-02-3.76216E-06-2.37535E-05
 -1      2767 3.52950E-03 1.30189E-01 4.06945E-05-2.05771E-02-3.26832E-06-2.06354E-05
 -1      2768 3.52537E-03 1.30186E-01 3.23782E-05-2.05772E-02-2.10041E-06-1.32615E-05
 -1      2769 3.52301E-03 1.30184E-01 2.78864E-05-2.05773E-02-7.16006E-07-4.52070E-06
 -1      2770 3.52301E-03 1.30184E-01 2.78864E-05-2.05773E-02 7.16006E-07 4.52070E-06
 -1      2771 3.52537E-03 1.30186E-01 3.23782E-05-2.05772E-02 2.10041E-06 1.32615E-05
 -1      2772 3.52950E-03 1.30189E-01 4.06945E-05-2.05771E-02 3.26832E-06 2.06354E-05
 -1      2773 3.53350E-03 1.30193E-01 4.99935E-05-2.05771E-02 3.76216E-06 2.37535E-05
 -1      2774 3.53025E-03 1.30193E-01 5.10627E-05-2.05776E-02 2.68269E-06 1.69371E-05
 -1      2775 1.29887E-02 1.20735E-01 5.10626E-05-3.91410E-02-5.29965E-06-1.63097E-05
 -1      2776 1.29918E-02 1.20735E-01 4.99933E-05-3.91400E-02-7.43159E-06-2.28725E-05
 -1      2777 1.29878E-02 1.20731E-01 4.06943E-05-3.91400E-02-6.45610E-06-1.98701E-05
 -1      2778 1.29837E-02 1.20727E-01 3.23779E-05-3.91401E-02-4.14905E-06-1.27696E-05
 -1      2779 1.29813E-02 1.20725E-01 2.78861E-05-3.91403E-02-1.41437E-06-4.35304E-06
 -1      2780 1.29813E-02 1.20725E-01 2.78861E-05-3.91403E-02 1.41437E-06 4.35304E-06
 -1      2781 1.29837E-02 1.20727E-01 3.23779E-05-3.91401E-02 4.14905E-06 1.27696E-05
 -1      2782 1.29878E-02 1.20731E-01 4.06943E-05-3.91400E-02 6.45610E-06 1.98701E-05
 -1      2783 1.29918E-02 1.20735E-01 4.99933E-05-3.91400E-02 7.43159E-06 2.28725E-05
 -1      2784 1.29887E-02 1.20735E-01 5.10626E-05-3.91410E-02 5.29965E-06 1.63097E-05
 -1      2785 2.77207E-02 1.06003E-01 5.10611E-05-5.38729E-02-7.78849E-06-1.52844E-05
 -1      2786 2.77233E-02 1.06003E-01 4.99914E-05-5.38716E-02-1.09172E-05-2.14290E-05
 -1      2787 2.77193E-02 1.05999E-01 4.06923E-05-5.38715E-02-9.48449E-06-1.86159E-05
 -1      2788 2.77153E-02 1.05996E-01 3.23754E-05-5.38718E-02-6.09532E-06-1.19636E-05
 -1      2789 2.77130E-02 1.05994E-01 2.78834E-05-5.38720E-02-2.07784E-06-4.07828E-06
 -1      2790 2.77130E-02 1.05994E-01 2.78834E-05-5.38720E-02 2.07784E-06 4.07828E-06
 -1      2791 2.77153E-02 1.05996E-01 3.23754E-05-5.38718E-02 6.09532E-06 1.19636E-05
 -1      2792 2.77193E-02 1.05999E-01 4.06923E-05-5.38715E-02 9.48449E-06 1.86159E-05
 -1      2793 2.77233E-02 1.06003E-01 4.99914E-05-5.38716E-02 1.09172E-05 2.14290E-05
 -1      2794 2.77207E-02 1.06003E-01 5.10611E-05-5.38729E-02 7.78849E-06 1.52844E-05
 -1      2795 4.62840E-02 8.74393E-02 5.10561E-05-6.33314E-02-1.00827E-05-1.38891E-05
 -1      2796 4.62861E-02 8.74404E-02 4.99854E-05-6.33298E-02-1.41316E-05-1.94608E-05
 -1      2797 4.62821E-02 8.74364E-02 4.06855E-05-6.33298E-02-1.22789E-05-1.69045E-05
 -1      2798 4.62782E-02 8.74326E-02 3.23676E-05-6.33301E-02-7.89160E-06-1.08635E-05
 -1      2799 4.62760E-02 8.74306E-02 2.78750E-05-6.33303E-02-2.69022E-06-3.70321E-06
 -1      2800 4.62760E-02 8.74306E-02 2.78750E-05-6.33303E-02 2.69022E-06 3.70321E-06
 -1      2801 4.62782E-02 8.74326E-02 3.23676E-05-6.33301E-02 7.89160E-06 1.08635E-05
 -1      2802 4.62821E-02 8.74364E-02 4.06855E-05-6.33298E-02 1.22789E-05 1.69045E-05
 -1      2803 4.62861E-02 8.74404E-02 4.99854E-05-6.33298E-02 1.41316E-05 1.94608E-05
 -1      2804 4.62840E-02 8.74393E-02 5.10561E-05-6.33314E-02 1.00827E-05 1.38891E-05
 -1      2805 6.68615E-02 6.68618E-02 5.10588E-05-6.65906E-02-1.21125E-05-1.21475E-05
 -1      2806 6.68631E-02 6.68634E-02 4.99886E-05-6.65889E-02-1.69976E-05-1.70148E-05
 -1      2807 6.68591E-02 6.68594E-02 4.06885E-05-6.65889E-02-1.47711E-05-1.47763E-05
 -1      2808 6.68553E-02 6.68556E-02 3.23710E-05-6.65892E-02-9.49380E-06-9.49500E-06
 -1      2809 6.68531E-02 6.68534E-02 2.78787E-05-6.65894E-02-3.23646E-06-3.23661E-06
 -1      2810 6.68531E-02 6.68534E-02 2.78787E-05-6.65894E-02 3.23646E-06 3.23661E-06
 -1      2811 6.68553E-02 6.68556E-02 3.23710E-05-6.65892E-02 9.49380E-06 9.49500E-06
 -1      2812 6.68591E-02 6.68594E-02 4.06885E-05-6.65889E-02 1.47711E-05 1.47763E-05
 -1      2813 6.68631E-02 6.68634E-02 4.99886E-05-6.65889E-02 1.69976E-05 1.70148E-05
 -1      2814 6.68615E-02 6.68618E-02 5.10588E-05-6.65906E-02 1.21125E-05 1.21475E-05
 -1      2815 8.74393E-02 4.62842E-02 5.10710E-05-6.33315E-02-1.38533E-05-1.00852E-05
 -1      2816 8.74404E-02 4.62864E-02 5.00036E-05-6.33299E-02-1.94494E-05-1.41428E-05
 -1      2817 8.74364E-02 4.62824E-02 4.07067E-05-6.33299E-02-1.68996E-05-1.22824E-05
 -1      2818 8.74326E-02 4.62784E-02 3.23923E-05-6.33301E-02-1.08613E-05-7.89249E-06
 -1      2819 8.74305E-02 4.62762E-02 2.79016E-05-6.33304E-02-3.70259E-06-2.69036E-06
 -1      2820 8.74305E-02 4.62762E-02 2.79016E-05-6.33304E-02 3.70259E-06 2.69036E-06
 -1      2821 8.74326E-02 4.62784E-02 3.23923E-05-6.33301E-02 1.08613E-05 7.89249E-06
 -1      2822 8.74364E-02 4.62824E-02 4.07067E-05-6.33299E-02 1.68996E-05 1.22824E-05
 -1      2823 8.74404E-02 4.62864E-02 5.00036E-05-6.33299E-02 1.94494E-05 1.41428E-05
 -1      2824 8.74393E-02 4.62842E-02 5.10710E-05-6.33315E-02 1.38533E-05 1.00852E-05
 -1      2825 1.06003E-01 2.77207E-02 5.10615E-05-5.38729E-02-1.52850E-05-7.78531E-06
 -1      2826 1.06003E-01 2.77233E-02 4.99920E-05-5.38716E-02-2.14258E-05-1.09235E-05
 -1      2827 1.05999E-01 2.77193E-02 4.06927E-05-5.38715E-02-1.86141E-05-9.48803E-06
 -1      2828 1.05996E-01 2.77153E-02 3.23759E-05-5.38718E-02-1.19626E-05-6.09731E-06
 -1      2829 1.05994E-01 2.77130E-02 2.78838E-05-5.38720E-02-4.07795E-06-2.07849E-06
 -1      2830 1.05994E-01 2.77130E-02 2.78838E-05-5.38720E-02 4.07795E-06 2.07849E-06
 -1      2831 1.05996E-01 2.77153E-02 3.23759E-05-5.38718E-02 1.19626E-05 6.09731E-06
 -1      2832 1.05999E-01 2.77193E-02 4.06927E-05-5.38715E-02 1.86141E-05 9.48803E-06
 -1      2833 1.06003E-01 2.77233E-02 4.99920E-05-5.38716E-02 2.14258E-05 1.09235E-05
 -1      2834 1.06003E-01 2.77207E-02 5.10615E-05-5.38729E-02 1.52850E-05 7.78531E-06
 -1      2835 1.20734E-01 1.29888E-02 5.10492E-05-3.91411E-02-1.63236E-05-5.32850E-06
 -1      2836 1.20735E-01 1.29918E-02 4.99772E-05-3.91401E-02-2.28704E-05-7.44641E-06
 -1      2837 1.20731E-01 1.29878E-02 4.06753E-05-3.91401E-02-1.98703E-05-6.46158E-06
 -1      2838 1.20727E-01 1.29837E-02 3.23558E-05-3.91403E-02-1.27702E-05-4.15101E-06
 -1      2839 1.20725E-01 1.29814E-02 2.78622E-05-3.91404E-02-4.35329E-06-1.41485E-06
 -1      2840 1.20725E-01 1.29814E-02 2.78622E-05-3.91404E-02 4.35329E-06 1.41485E-06
 -1      2841 1.20727E-01 1.29837E-02 3.23558E-05-3.91403E-02 1.27702E-05 4.15101E-06
 -1      2842 1.20731E-01 1.29878E-02 4.06753E-05-3.91401E-02 1.98703E-05 6.46158E-06
 -1      2843 1.20735E-01 1.29918E-02 4.99772E-05-3.91401E-02 2.28704E-05 7.44641E-06
 -1      2844 1.20734E-01 1.29888E-02 5.10492E-05-3.91411E-02 1.63236E-05 5.32850E-06
 -1      2845 1.30193E-01 3.53037E-03 5.10688E-05-2.05779E-02-1.69129E-05-2.72631E-06
 -1      2846 1.30193E-01 3.53363E-03 5.00012E-05-2.05774E-02-2.37500E-05-3.78102E-06
 -1      2847 1.30189E-01 3.52963E-03 4.07025E-05-2.05774E-02-2.06341E-05-3.27312E-06
 -1      2848 1.30185E-01 3.52550E-03 3.23875E-05-2.05775E-02-1.32610E-05-2.10088E-06
 -1      2849 1.30184E-01 3.52313E-03 2.78966E-05-2.05775E-02-4.52057E-06-7.15846E-07
 -1      2850 1.30184E-01 3.52313E-03 2.78966E-05-2.05775E-02 4.52057E-06 7.15846E-07
 -1      2851 1.30185E-01 3.52550E-03 3.23875E-05-2.05775E-02 1.32610E-05 2.10088E-06
 -1      2852 1.30189E-01 3.52963E-03 4.07025E-05-2.05774E-02 2.06341E-05 3.27312E-06
 -1      2853 1.30193E-01 3.53363E-03 5.00012E-05-2.05774E-02 2.37500E-05 3.78102E-06
 -1      2854 1.30193E-01 3.53037E-03 5.10688E-05-2.05779E-02 1.69129E-05 2.72631E-06
 -1      2855 3.52836E-03 1.30204E-01 4.71535E-05-2.05798E-02-1.93235E-06-1.21988E-05
 -1      2856 7.41974E-04 1.32479E-01-9.52629E-06-1.04325E-02 9.75185E-07 1.23909E-05
 -1      2858 3.53339E-03 1.30206E-01 5.38781E-05-2.05793E-02-3.97856E-06-2.51199E-05
 -1      2859 7.46204E-04 1.32483E-01-7.49538E-07-1.04325E-02 1.09957E-06 1.39714E-05
 -1      2861 3.53183E-03 1.30203E-01 4.55992E-05-2.05790E-02-3.96147E-06-2.50118E-05
 -1      2862 7.49580E-04 1.32486E-01 6.67161E-06-1.04325E-02 8.78248E-07 1.11592E-05
 -1      2864 3.52735E-03 1.30199E-01 3.57444E-05-2.05790E-02-2.90195E-06-1.83222E-05
 -1      2865 7.52149E-04 1.32489E-01 1.16629E-05-1.04325E-02 5.51599E-07 7.00873E-06
 -1      2867 3.52399E-03 1.30196E-01 2.90857E-05-2.05791E-02-1.49821E-06-9.45936E-06
 -1      2868 7.53459E-04 1.32490E-01 1.41071E-05-1.04325E-02 1.86506E-07 2.36979E-06
 -1      2870 3.52280E-03 1.30195E-01 2.68125E-05-2.05791E-02-3.82370E-15-4.09084E-14
 -1      2871 7.53459E-04 1.32490E-01 1.41071E-05-1.04325E-02-1.86506E-07-2.36979E-06
 -1      2873 3.52399E-03 1.30196E-01 2.90857E-05-2.05791E-02 1.49821E-06 9.45936E-06
 -1      2874 7.52149E-04 1.32489E-01 1.16629E-05-1.04325E-02-5.51599E-07-7.00873E-06
 -1      2876 3.52735E-03 1.30199E-01 3.57444E-05-2.05790E-02 2.90195E-06 1.83222E-05
 -1      2877 7.49580E-04 1.32486E-01 6.67161E-06-1.04325E-02-8.78248E-07-1.11592E-05
 -1      2879 3.53183E-03 1.30203E-01 4.55992E-05-2.05790E-02 3.96147E-06 2.50118E-05
 -1      2880 7.46204E-04 1.32483E-01-7.49538E-07-1.04325E-02-1.09957E-06-1.39714E-05
 -1      2882 3.53339E-03 1.30206E-01 5.38781E-05-2.05793E-02 3.97856E-06 2.51199E-05
 -1      2883 7.41974E-04 1.32479E-01-9.52629E-06-1.04325E-02-9.75185E-07-1.23909E-05
 -1      2885 3.52836E-03 1.30204E-01 4.71535E-05-2.05798E-02 1.93235E-06 1.21988E-05
 -1      2887 1.29878E-02 1.20745E-01 4.71538E-05-3.91450E-02-3.81785E-06-1.17478E-05
 -1      2888 7.18964E-03 1.26031E-01-9.52620E-06-3.02764E-02 2.90164E-06 1.20858E-05
 -1      2890 1.29926E-02 1.20747E-01 5.38778E-05-3.91441E-02-7.85906E-06-2.41882E-05
 -1      2891 7.19387E-03 1.26035E-01-7.49419E-07-3.02764E-02 3.27162E-06 1.36274E-05
 -1      2893 1.29910E-02 1.20744E-01 4.55990E-05-3.91435E-02-7.82531E-06-2.40842E-05
 -1      2894 7.19724E-03 1.26039E-01 6.67170E-06-3.02764E-02 2.61310E-06 1.08844E-05
 -1      2896 1.29865E-02 1.20740E-01 3.57441E-05-3.91436E-02-5.73238E-06-1.76427E-05
 -1      2897 7.19979E-03 1.26041E-01 1.16630E-05-3.02763E-02 1.64121E-06 6.83615E-06
 -1      2899 1.29832E-02 1.20737E-01 2.90854E-05-3.91438E-02-2.95950E-06-9.10854E-06
 -1      2900 7.20109E-03 1.26042E-01 1.41072E-05-3.02762E-02 5.54924E-07 2.31144E-06
 -1      2902 1.29820E-02 1.20736E-01 2.68122E-05-3.91438E-02 1.22118E-14-3.81013E-14
 -1      2903 7.20109E-03 1.26042E-01 1.41072E-05-3.02762E-02-5.54924E-07-2.31144E-06
 -1      2905 1.29832E-02 1.20737E-01 2.90854E-05-3.91438E-02 2.95950E-06 9.10854E-06
 -1      2906 7.19979E-03 1.26041E-01 1.16630E-05-3.02763E-02-1.64121E-06-6.83615E-06
 -1      2908 1.29865E-02 1.20740E-01 3.57441E-05-3.91436E-02 5.73238E-06 1.76427E-05
 -1      2909 7.19724E-03 1.26039E-01 6.67170E-06-3.02764E-02-2.61310E-06-1.08844E-05
 -1      2911 1.29910E-02 1.20744E-01 4.55990E-05-3.91435E-02 7.82531E-06 2.40842E-05
 -1      2912 7.19387E-03 1.26035E-01-7.49419E-07-3.02764E-02-3.27162E-06-1.36274E-05
 -1      2914 1.29926E-02 1.20747E-01 5.38778E-05-3.91441E-02 7.85906E-06 2.41882E-05
 -1      2915 7.18964E-03 1.26031E-01-9.52620E-06-3.02764E-02-2.90164E-06-1.20858E-05
 -1      2917 1.29878E-02 1.20745E-01 4.71538E-05-3.91450E-02 3.81785E-06 1.17478E-05
 -1      2919 2.77213E-02 1.06011E-01 4.71551E-05-5.38785E-02-5.61528E-06-1.10145E-05
 -1      2920 1.94538E-02 1.13767E-01-9.52627E-06-4.71566E-02 4.75684E-06 1.14838E-05
 -1      2922 2.77258E-02 1.06014E-01 5.38760E-05-5.38772E-02-1.15450E-05-2.26617E-05
 -1      2923 1.94581E-02 1.13771E-01-7.49423E-07-4.71566E-02 5.36301E-06 1.29479E-05
 -1      2925 2.77239E-02 1.06011E-01 4.55972E-05-5.38765E-02-1.14959E-05-2.25640E-05
 -1      2926 1.94614E-02 1.13775E-01 6.67174E-06-4.71566E-02 4.28354E-06 1.03417E-05
 -1      2928 2.77194E-02 1.06007E-01 3.57419E-05-5.38766E-02-8.42138E-06-1.65291E-05
 -1      2929 1.94639E-02 1.13777E-01 1.16631E-05-4.71564E-02 2.69035E-06 6.49528E-06
 -1      2931 2.77162E-02 1.06004E-01 2.90827E-05-5.38768E-02-4.34779E-06-8.53362E-06
 -1      2932 1.94652E-02 1.13778E-01 1.41074E-05-4.71564E-02 9.09658E-07 2.19618E-06
 -1      2934 2.77150E-02 1.06003E-01 2.68094E-05-5.38769E-02-3.24259E-15 1.62073E-14
 -1      2935 1.94652E-02 1.13778E-01 1.41074E-05-4.71564E-02-9.09658E-07-2.19618E-06
 -1      2937 2.77162E-02 1.06004E-01 2.90827E-05-5.38768E-02 4.34779E-06 8.53362E-06
 -1      2938 1.94639E-02 1.13777E-01 1.16631E-05-4.71564E-02-2.69035E-06-6.49528E-06
 -1      2940 2.77194E-02 1.06007E-01 3.57419E-05-5.38766E-02 8.42138E-06 1.65291E-05
 -1      2941 1.94614E-02 1.13775E-01 6.67174E-06-4.71566E-02-4.28354E-06-1.03417E-05
 -1      2943 2.77239E-02 1.06011E-01 4.55972E-05-5.38765E-02 1.14959E-05 2.25640E-05
 -1      2944 1.94581E-02 1.13771E-01-7.49423E-07-4.71566E-02-5.36301E-06-1.29479E-05
 -1      2946 2.77258E-02 1.06014E-01 5.38760E-05-5.38772E-02 1.15450E-05 2.26617E-05
 -1      2947 1.94538E-02 1.13767E-01-9.52627E-06-4.71566E-02-4.75684E-06-1.14838E-05
 -1      2949 2.77213E-02 1.06011E-01 4.71551E-05-5.38785E-02 5.61528E-06 1.10145E-05
 -1      2951 4.62865E-02 8.74461E-02 4.71554E-05-6.33379E-02-7.27268E-06-1.00183E-05
 -1      2952 3.63340E-02 9.68868E-02-9.52499E-06-5.94208E-02 6.49761E-06 1.06022E-05
 -1      2954 4.62905E-02 8.74491E-02 5.38705E-05-6.33364E-02-1.49426E-05-2.05815E-05
 -1      2955 3.63383E-02 9.68911E-02-7.47610E-07-5.94208E-02 7.32210E-06 1.19500E-05
 -1      2957 4.62884E-02 8.74464E-02 4.55912E-05-6.33356E-02-1.48826E-05-2.04899E-05
 -1      2958 3.63416E-02 9.68944E-02 6.67403E-06-5.94208E-02 5.84848E-06 9.54459E-06
 -1      2960 4.62839E-02 8.74421E-02 3.57346E-05-6.33357E-02-1.09031E-05-1.50091E-05
 -1      2961 3.63441E-02 9.68967E-02 1.16659E-05-5.94206E-02 3.67328E-06 5.99464E-06
 -1      2963 4.62808E-02 8.74390E-02 2.90745E-05-6.33359E-02-5.62919E-06-7.74879E-06
 -1      2964 3.63453E-02 9.68978E-02 1.41105E-05-5.94205E-02 1.24201E-06 2.02691E-06
 -1      2966 4.62796E-02 8.74380E-02 2.68008E-05-6.33360E-02-1.86156E-14-2.10231E-14
 -1      2967 3.63453E-02 9.68978E-02 1.41105E-05-5.94205E-02-1.24201E-06-2.02691E-06
 -1      2969 4.62808E-02 8.74390E-02 2.90745E-05-6.33359E-02 5.62919E-06 7.74879E-06
 -1      2970 3.63441E-02 9.68967E-02 1.16659E-05-5.94206E-02-3.67328E-06-5.99464E-06
 -1      2972 4.62839E-02 8.74421E-02 3.57346E-05-6.33357E-02 1.09031E-05 1.50091E-05
 -1      2973 3.63416E-02 9.68944E-02 6.67403E-06-5.94208E-02-5.84848E-06-9.54459E-06
 -1      2975 4.62884E-02 8.74464E-02 4.55912E-05-6.33356E-02 1.48826E-05 2.04899E-05
 -1      2976 3.63383E-02 9.68911E-02-7.47610E-07-5.94208E-02-7.32210E-06-1.19500E-05
 -1      2978 4.62905E-02 8.74491E-02 5.38705E-05-6.33364E-02 1.49426E-05 2.05815E-05
 -1      2979 3.63340E-02 9.68868E-02-9.52499E-06-5.94208E-02-6.49761E-06-1.06022E-05
 -1      2981 4.62865E-02 8.74461E-02 4.71554E-05-6.33379E-02 7.27268E-06 1.00183E-05
 -1      2983 6.68662E-02 6.68664E-02 4.71538E-05-6.65975E-02-8.71871E-06-8.76399E-06
 -1      2984 5.61779E-02 7.70430E-02-9.52218E-06-6.58684E-02 8.07277E-06 9.46254E-06
 -1      2986 6.68696E-02 6.68700E-02 5.38738E-05-6.65959E-02-1.79714E-05-1.79976E-05
 -1      2987 5.61822E-02 7.70473E-02-7.44254E-07-6.58685E-02 9.09828E-06 1.06604E-05
 -1      2989 6.68672E-02 6.68675E-02 4.55938E-05-6.65950E-02-1.79028E-05-1.79111E-05
 -1      2990 5.61855E-02 7.70506E-02 6.67738E-06-6.58684E-02 7.26867E-06 8.51321E-06
 -1      2992 6.68629E-02 6.68632E-02 3.57377E-05-6.65951E-02-1.31165E-05-1.31186E-05
 -1      2993 5.61879E-02 7.70529E-02 1.16695E-05-6.58682E-02 4.56564E-06 5.34656E-06
 -1      2995 6.68597E-02 6.68601E-02 2.90782E-05-6.65953E-02-6.77217E-06-6.77246E-06
 -1      2996 5.61891E-02 7.70541E-02 1.41142E-05-6.58681E-02 1.54378E-06 1.80774E-06
 -1      2998 6.68587E-02 6.68590E-02 2.68047E-05-6.65955E-02-1.82396E-15-1.87376E-14
 -1      2999 5.61891E-02 7.70541E-02 1.41142E-05-6.58681E-02-1.54378E-06-1.80774E-06
 -1      3001 6.68597E-02 6.68601E-02 2.90782E-05-6.65953E-02 6.77217E-06 6.77246E-06
 -1      3002 5.61879E-02 7.70529E-02 1.16695E-05-6.58682E-02-4.56564E-06-5.34656E-06
 -1      3004 6.68629E-02 6.68632E-02 3.57377E-05-6.65951E-02 1.31165E-05 1.31186E-05
 -1      3005 5.61855E-02 7.70506E-02 6.67738E-06-6.58684E-02-7.26867E-06-8.51321E-06
 -1      3007 6.68672E-02 6.68675E-02 4.55938E-05-6.65950E-02 1.79028E-05 1.79111E-05
 -1      3008 5.61822E-02 7.70473E-02-7.44254E-07-6.58685E-02-9.09828E-06-1.06604E-05
 -1      3010 6.68696E-02 6.68700E-02 5.38738E-05-6.65959E-02 1.79714E-05 1.79976E-05
 -1      3011 5.61779E-02 7.70430E-02-9.52218E-06-6.58684E-02-8.07277E-06-9.46254E-06
 -1      3013 6.68662E-02 6.68664E-02 4.71538E-05-6.65975E-02 8.71871E-06 8.76399E-06
 -1      3015 8.74460E-02 4.62867E-02 4.71533E-05-6.33380E-02-9.96169E-06-7.26116E-06
 -1      3016 7.70429E-02 5.61779E-02-9.52782E-06-6.58685E-02 9.43667E-06 8.08325E-06
 -1      3018 8.74491E-02 4.62907E-02 5.38867E-05-6.33365E-02-2.05658E-05-1.49598E-05
 -1      3019 7.70472E-02 5.61821E-02-7.51505E-07-6.58685E-02 1.06508E-05 9.10841E-06
 -1      3021 8.74463E-02 4.62886E-02 4.56100E-05-6.33356E-02-2.04831E-05-1.48880E-05
 -1      3022 7.70505E-02 5.61855E-02 6.66930E-06-6.58684E-02 8.50957E-06 7.27197E-06
 -1      3024 8.74420E-02 4.62842E-02 3.57576E-05-6.33358E-02-1.50060E-05-1.09045E-05
 -1      3025 7.70529E-02 5.61879E-02 1.16602E-05-6.58682E-02 5.34520E-06 4.56655E-06
 -1      3027 8.74390E-02 4.62810E-02 2.91005E-05-6.33360E-02-7.74752E-06-5.62945E-06
 -1      3028 7.70540E-02 5.61891E-02 1.41042E-05-6.58681E-02 1.80739E-06 1.54395E-06
 -1      3030 8.74380E-02 4.62799E-02 2.68280E-05-6.33361E-02-1.67521E-14 4.22749E-15
 -1      3031 7.70540E-02 5.61891E-02 1.41042E-05-6.58681E-02-1.80739E-06-1.54395E-06
 -1      3033 8.74390E-02 4.62810E-02 2.91005E-05-6.33360E-02 7.74752E-06 5.62945E-06
 -1      3034 7.70529E-02 5.61879E-02 1.16602E-05-6.58682E-02-5.34520E-06-4.56655E-06
 -1      3036 8.74420E-02 4.62842E-02 3.57576E-05-6.33358E-02 1.50060E-05 1.09045E-05
 -1      3037 7.70505E-02 5.61855E-02 6.66930E-06-6.58684E-02-8.50957E-06-7.27197E-06
 -1      3039 8.74463E-02 4.62886E-02 4.56100E-05-6.33356E-02 2.04831E-05 1.48880E-05
 -1      3040 7.70472E-02 5.61821E-02-7.51505E-07-6.58685E-02-1.06508E-05-9.10841E-06
 -1      3042 8.74491E-02 4.62907E-02 5.38867E-05-6.33365E-02 2.05658E-05 1.49598E-05
 -1      3043 7.70429E-02 5.61779E-02-9.52782E-06-6.58685E-02-9.43667E-06-8.08325E-06
 -1      3045 8.74460E-02 4.62867E-02 4.71533E-05-6.33380E-02 9.96169E-06 7.26116E-06
 -1      3047 1.06011E-01 2.77213E-02 4.71548E-05-5.38785E-02-1.10196E-05-5.60058E-06
 -1      3048 9.68868E-02 3.63340E-02-9.53064E-06-5.94208E-02 1.05921E-05 6.48916E-06
 -1      3050 1.06014E-01 2.77257E-02 5.38766E-05-5.38772E-02-2.26577E-05-1.15530E-05
 -1      3051 9.68911E-02 3.63382E-02-7.54895E-07-5.94208E-02 1.19482E-05 7.32378E-06
 -1      3053 1.06011E-01 2.77239E-02 4.55976E-05-5.38765E-02-2.25618E-05-1.15003E-05
 -1      3054 9.68944E-02 3.63416E-02 6.66591E-06-5.94208E-02 9.54342E-06 5.84920E-06
 -1      3056 1.06007E-01 2.77194E-02 3.57423E-05-5.38766E-02-1.65277E-05-8.42405E-06
 -1      3057 9.68967E-02 3.63441E-02 1.16566E-05-5.94206E-02 5.99393E-06 3.67360E-06
 -1      3059 1.06004E-01 2.77162E-02 2.90831E-05-5.38768E-02-8.53295E-06-4.34911E-06
 -1      3060 9.68978E-02 3.63453E-02 1.41004E-05-5.94205E-02 2.02666E-06 1.24211E-06
 -1      3062 1.06003E-01 2.77150E-02 2.68098E-05-5.38769E-02 2.34431E-14-2.25031E-14
 -1      3063 9.68978E-02 3.63453E-02 1.41004E-05-5.94205E-02-2.02666E-06-1.24211E-06
 -1      3065 1.06004E-01 2.77162E-02 2.90831E-05-5.38768E-02 8.53295E-06 4.34911E-06
 -1      3066 9.68967E-02 3.63441E-02 1.16566E-05-5.94206E-02-5.99393E-06-3.67360E-06
 -1      3068 1.06007E-01 2.77194E-02 3.57423E-05-5.38766E-02 1.65277E-05 8.42405E-06
 -1      3069 9.68944E-02 3.63416E-02 6.66591E-06-5.94208E-02-9.54342E-06-5.84920E-06
 -1      3071 1.06011E-01 2.77239E-02 4.55976E-05-5.38765E-02 2.25618E-05 1.15003E-05
 -1      3072 9.68911E-02 3.63382E-02-7.54895E-07-5.94208E-02-1.19482E-05-7.32378E-06
 -1      3074 1.06014E-01 2.77257E-02 5.38766E-05-5.38772E-02 2.26577E-05 1.15530E-05
 -1      3075 9.68868E-02 3.63340E-02-9.53064E-06-5.94208E-02-1.05921E-05-6.48916E-06
 -1      3077 1.06011E-01 2.77213E-02 4.71548E-05-5.38785E-02 1.10196E-05 5.60058E-06
 -1      3079 1.20745E-01 1.29878E-02 4.71544E-05-3.91451E-02-1.17798E-05-3.85500E-06
 -1      3080 1.13767E-01 1.94538E-02-9.52100E-06-4.71566E-02 1.14955E-05 4.75983E-06
 -1      3082 1.20747E-01 1.29927E-02 5.38637E-05-3.91442E-02-2.41841E-05-7.88055E-06
 -1      3083 1.13771E-01 1.94581E-02-7.42700E-07-4.71566E-02 1.29477E-05 5.36539E-06
 -1      3085 1.20744E-01 1.29910E-02 4.55822E-05-3.91436E-02-2.40840E-05-7.83330E-06
 -1      3086 1.13775E-01 1.94614E-02 6.67936E-06-4.71566E-02 1.03418E-05 4.28484E-06
 -1      3088 1.20739E-01 1.29865E-02 3.57235E-05-3.91437E-02-1.76434E-05-5.73534E-06
 -1      3089 1.13777E-01 1.94640E-02 1.16719E-05-4.71564E-02 6.49545E-06 2.69107E-06
 -1      3091 1.20737E-01 1.29832E-02 2.90620E-05-3.91439E-02-9.10908E-06-2.96048E-06
 -1      3092 1.13778E-01 1.94652E-02 1.41169E-05-4.71564E-02 2.19625E-06 9.09896E-07
 -1      3094 1.20736E-01 1.29820E-02 2.67878E-05-3.91439E-02 1.86935E-14 7.50003E-15
 -1      3095 1.13778E-01 1.94652E-02 1.41169E-05-4.71564E-02-2.19625E-06-9.09896E-07
 -1      3097 1.20737E-01 1.29832E-02 2.90620E-05-3.91439E-02 9.10908E-06 2.96048E-06
 -1      3098 1.13777E-01 1.94640E-02 1.16719E-05-4.71564E-02-6.49545E-06-2.69107E-06
 -1      3100 1.20739E-01 1.29865E-02 3.57235E-05-3.91437E-02 1.76434E-05 5.73534E-06
 -1      3101 1.13775E-01 1.94614E-02 6.67936E-06-4.71566E-02-1.03418E-05-4.28484E-06
 -1      3103 1.20744E-01 1.29910E-02 4.55822E-05-3.91436E-02 2.40840E-05 7.83330E-06
 -1      3104 1.13771E-01 1.94581E-02-7.42700E-07-4.71566E-02-1.29477E-05-5.36539E-06
 -1      3106 1.20747E-01 1.29927E-02 5.38637E-05-3.91442E-02 2.41841E-05 7.88055E-06
 -1      3107 1.13767E-01 1.94538E-02-9.52100E-06-4.71566E-02-1.14955E-05-4.75983E-06
 -1      3109 1.20745E-01 1.29878E-02 4.71544E-05-3.91451E-02 1.17798E-05 3.85500E-06
 -1      3111 1.30204E-01 3.52842E-03 4.71501E-05-2.05799E-02-1.21546E-05-1.99222E-06
 -1      3112 1.26031E-01 7.18967E-03-9.52115E-06-3.02764E-02 1.20885E-05 2.92744E-06
 -1      3114 1.30206E-01 3.53352E-03 5.38857E-05-2.05795E-02-2.51150E-05-4.00804E-06
 -1      3115 1.26036E-01 7.19390E-03-7.43276E-07-3.02764E-02 1.36250E-05 3.28446E-06
 -1      3117 1.30203E-01 3.53196E-03 4.56064E-05-2.05793E-02-2.50099E-05-3.96978E-06
 -1      3118 1.26039E-01 7.19727E-03 6.67838E-06-3.02764E-02 1.08839E-05 2.61751E-06
 -1      3120 1.30199E-01 3.52747E-03 3.57531E-05-2.05793E-02-1.83214E-05-2.90317E-06
 -1      3121 1.26041E-01 7.19982E-03 1.16705E-05-3.02763E-02 6.83620E-06 1.64258E-06
 -1      3123 1.30196E-01 3.52412E-03 2.90957E-05-2.05794E-02-9.45909E-06-1.49786E-06
 -1      3124 1.26042E-01 7.20112E-03 1.41152E-05-3.02763E-02 2.31150E-06 5.55214E-07
 -1      3126 1.30195E-01 3.52293E-03 2.68230E-05-2.05794E-02 2.96130E-14 1.95178E-14
 -1      3127 1.26042E-01 7.20112E-03 1.41152E-05-3.02763E-02-2.31150E-06-5.55214E-07
 -1      3129 1.30196E-01 3.52412E-03 2.90957E-05-2.05794E-02 9.45909E-06 1.49787E-06
 -1      3130 1.26041E-01 7.19982E-03 1.16705E-05-3.02763E-02-6.83620E-06-1.64258E-06
 -1      3132 1.30199E-01 3.52747E-03 3.57531E-05-2.05793E-02 1.83214E-05 2.90317E-06
 -1      3133 1.26039E-01 7.19727E-03 6.67838E-06-3.02764E-02-1.08839E-05-2.61751E-06
 -1      3135 1.30203E-01 3.53196E-03 4.56064E-05-2.05793E-02 2.50099E-05 3.96978E-06
 -1      3136 1.26036E-01 7.19390E-03-7.43276E-07-3.02764E-02-1.36250E-05-3.28446E-06
 -1      3138 1.30206E-01 3.53352E-03 5.38857E-05-2.05795E-02 2.51150E-05 4.00804E-06
 -1      3139 1.26031E-01 7.18967E-03-9.52115E-06-3.02764E-02-1.20885E-05-2.92744E-06
 -1      3141 1.30204E-01 3.52842E-03 4.71501E-05-2.05799E-02 1.21546E-05 1.99222E-06
 -1      3143 1.32479E-01 7.41920E-04-9.53642E-06-1.04326E-02 1.23630E-05 9.95698E-07
 -1      3145 1.32483E-01 7.46147E-04-7.62944E-07-1.04325E-02 1.39694E-05 1.10963E-06
 -1      3147 1.32486E-01 7.49522E-04 6.65656E-06-1.04325E-02 1.11578E-05 8.81511E-07
 -1      3149 1.32489E-01 7.52091E-04 1.16455E-05-1.04325E-02 7.00786E-06 5.52483E-07
 -1      3151 1.32490E-01 7.53401E-04 1.40881E-05-1.04325E-02 2.36949E-06 1.86658E-07
 -1      3153 1.32490E-01 7.53401E-04 1.40881E-05-1.04325E-02-2.36949E-06-1.86658E-07
 -1      3155 1.32489E-01 7.52091E-04 1.16455E-05-1.04325E-02-7.00786E-06-5.52483E-07
 -1      3157 1.32486E-01 7.49522E-04 6.65656E-06-1.04325E-02-1.11578E-05-8.81511E-07
 -1      3159 1.32483E-01 7.46147E-04-7.62944E-07-1.04325E-02-1.39694E-05-1.10963E-06
 -1      3161 1.32479E-01 7.41920E-04-9.53642E-06-1.04326E-02-1.23630E-05-9.95698E-07
 -1      3164 1.37940E-01-3.46882E-03 9.72163E-05 4.56627E-05-2.33451E-05-1.09522E-04
 -1      3165 1.37966E-01-3.43986E-03 1.59568E-04 4.07711E-05-2.66777E-05-7.78984E-05
 -1      3166 1.37984E-01-3.42239E-03 2.02571E-04 4.03879E-05-2.22208E-05-5.18020E-05
 -1      3167 1.37996E-01-3.41255E-03 2.29494E-04 4.14222E-05-1.42132E-05-2.95808E-05
 -1      3168 1.38001E-01-3.40812E-03 2.42434E-04 4.22755E-05-4.85278E-06-9.61464E-06
 -1      3169 1.38001E-01-3.40812E-03 2.42434E-04 4.22755E-05 4.85278E-06 9.61464E-06
 -1      3170 1.37996E-01-3.41255E-03 2.29494E-04 4.14222E-05 1.42132E-05 2.95808E-05
 -1      3171 1.37984E-01-3.42239E-03 2.02571E-04 4.03879E-05 2.22208E-05 5.18020E-05
 -1      3172 1.37966E-01-3.43986E-03 1.59568E-04 4.07711E-05 2.66777E-05 7.78984E-05
 -1      3173 1.37940E-01-3.46882E-03 9.72163E-05 4.56627E-05 2.33451E-05 1.09522E-04
 -1      3174 1.41833E-01-6.96033E-03 1.09345E-04 7.45384E-05-1.91661E-05-1.57807E-04
 -1      3175 1.41874E-01-6.91534E-03 2.00336E-04 7.12642E-05-1.90664E-05-1.12488E-04
 -1      3176 1.41900E-01-6.88861E-03 2.63063E-04 7.02649E-05-1.56915E-05-7.49350E-05
 -1      3177 1.41917E-01-6.87339E-03 3.02879E-04 7.02597E-05-1.01669E-05-4.28252E-05
 -1      3178 1.41925E-01-6.86643E-03 3.22247E-04 7.04470E-05-3.50634E-06-1.39225E-05
 -1      3179 1.41925E-01-6.86643E-03 3.22247E-04 7.04470E-05 3.50634E-06 1.39225E-05
 -1      3180 1.41917E-01-6.87339E-03 3.02879E-04 7.02597E-05 1.01669E-05 4.28252E-05
 -1      3181 1.41900E-01-6.88861E-03 2.63063E-04 7.02649E-05 1.56915E-05 7.49350E-05
 -1      3182 1.41874E-01-6.91534E-03 2.00336E-04 7.12642E-05 1.90664E-05 1.12488E-04
 -1      3183 1.41833E-01-6.96033E-03 1.09345E-04 7.45384E-05 1.91661E-05 1.57807E-04
 -1      3184 1.45994E-01-1.08488E-02 1.40403E-04 2.36190E-05-1.52559E-05-1.84581E-04
 -1      3185 1.46041E-01-1.07981E-02 2.44178E-04 2.28908E-05-1.11961E-05-1.32014E-04
 -1      3186 1.46071E-01-1.07658E-02 3.14691E-04 2.25458E-05-8.05429E-06-8.82768E-05
 -1      3187 1.46091E-01-1.07464E-02 3.59284E-04 2.24519E-05-4.92180E-06-5.06062E-05
 -1      3188 1.46100E-01-1.07373E-02 3.80944E-04 2.24518E-05-1.66167E-06-1.64802E-05
 -1      3189 1.46100E-01-1.07373E-02 3.80944E-04 2.24518E-05 1.66167E-06 1.64802E-05
 -1      3190 1.46091E-01-1.07464E-02 3.59284E-04 2.24519E-05 4.92180E-06 5.06062E-05
 -1      3191 1.46071E-01-1.07658E-02 3.14691E-04 2.25458E-05 8.05429E-06 8.82768E-05
 -1      3192 1.46041E-01-1.07981E-02 2.44178E-04 2.28908E-05 1.11961E-05 1.32014E-04
 -1      3193 1.45994E-01-1.08488E-02 1.40403E-04 2.36190E-05 1.52559E-05 1.84581E-04
 -1      3194 1.50485E-01-1.51412E-02 1.60887E-04-2.55910E-06-1.44828E-05-2.03221E-04
 -1      3195 1.50537E-01-1.50867E-02 2.79555E-04-1.50475E-06-9.33306E-06-1.44727E-04
 -1      3196 1.50572E-01-1.50507E-02 3.58805E-04-9.33796E-07-5.71527E-06-9.65502E-05
 -1      3197 1.50593E-01-1.50287E-02 4.08262E-04-6.46045E-07-3.08544E-06-5.52854E-05
 -1      3198 1.50603E-01-1.50181E-02 4.32103E-04-5.26539E-07-9.76573E-07-1.79960E-05
 -1      3199 1.50603E-01-1.50181E-02 4.32103E-04-5.26539E-07 9.76573E-07 1.79960E-05
 -1      3200 1.50593E-01-1.50287E-02 4.08262E-04-6.46045E-07 3.08544E-06 5.52854E-05
 -1      3201 1.50572E-01-1.50507E-02 3.58805E-04-9.33796E-07 5.71527E-06 9.65502E-05
 -1      3202 1.50537E-01-1.50867E-02 2.79555E-04-1.50475E-06 9.33306E-06 1.44727E-04
 -1      3203 1.50485E-01-1.51412E-02 1.60887E-04-2.55910E-06 1.44828E-05 2.03221E-04
 -1      3204 1.55356E-01-1.98426E-02 1.80798E-04-1.57043E-05-1.48086E-05-2.19127E-04
 -1      3205 1.55413E-01-1.97845E-02 3.12043E-04-1.38216E-05-8.94775E-06-1.55220E-04
 -1      3206 1.55451E-01-1.97460E-02 3.99548E-04-1.27527E-05-5.16801E-06-1.03120E-04
 -1      3207 1.55475E-01-1.97222E-02 4.53955E-04-1.21956E-05-2.62980E-06-5.88825E-05
 -1      3208 1.55486E-01-1.97107E-02 4.80104E-04-1.19619E-05-8.01472E-07-1.91401E-05
 -1      3209 1.55486E-01-1.97107E-02 4.80104E-04-1.19619E-05 8.01472E-07 1.91401E-05
 -1      3210 1.55475E-01-1.97222E-02 4.53955E-04-1.21956E-05 2.62980E-06 5.88825E-05
 -1      3211 1.55451E-01-1.97460E-02 3.99548E-04-1.27527E-05 5.16801E-06 1.03120E-04
 -1      3212 1.55413E-01-1.97845E-02 3.12043E-04-1.38216E-05 8.94775E-06 1.55220E-04
 -1      3213 1.55356E-01-1.98426E-02 1.80798E-04-1.57043E-05 1.48086E-05 2.19127E-04
 -1      3214 1.60659E-01-2.49837E-02 2.00767E-04-2.26934E-05-1.53799E-05-2.34291E-04
 -1      3215 1.60721E-01-2.49207E-02 3.45259E-04-2.02920E-05-8.95308E-06-1.65069E-04
 -1      3216 1.60763E-01-2.48791E-02 4.40967E-04-1.89688E-05-4.96808E-06-1.09189E-04
 -1      3217 1.60788E-01-2.48535E-02 5.00269E-04-1.82893E-05-2.44391E-06-6.21586E-05
 -1      3218 1.60801E-01-2.48412E-02 5.28712E-04-1.80061E-05-7.29768E-07-2.01733E-05
 -1      3219 1.60801E-01-2.48412E-02 5.28712E-04-1.80061E-05 7.29768E-07 2.01733E-05
 -1      3220 1.60788E-01-2.48535E-02 5.00269E-04-1.82893E-05 2.44391E-06 6.21586E-05
 -1      3221 1.60763E-01-2.48791E-02 4.40967E-04-1.89688E-05 4.96808E-06 1.09189E-04
 -1      3222 1.60721E-01-2.49207E-02 3.45259E-04-2.02920E-05 8.95308E-06 1.65069E-04
 -1      3223 1.60659E-01-2.49837E-02 2.00767E-04-2.26934E-05 1.53799E-05 2.34291E-04
 -1      3224 1.66448E-01-3.06077E-02 2.22137E-04-2.68452E-05-1.60695E-05-2.49750E-04
 -1      3225 1.66517E-01-3.05389E-02 3.80824E-04-2.40921E-05-9.06401E-06-1.74952E-04
 -1      3226 1.66562E-01-3.04939E-02 4.85302E-04-2.26103E-05-4.86403E-06-1.15196E-04
 -1      3227 1.66590E-01-3.04661E-02 5.49750E-04-2.18706E-05-2.31454E-06-6.53669E-05
 -1      3228 1.66603E-01-3.04529E-02 5.80582E-04-2.15695E-05-6.76643E-07-2.11792E-05
 -1      3229 1.66603E-01-3.04529E-02 5.80582E-04-2.15695E-05 6.76643E-07 2.11792E-05
 -1      3230 1.66590E-01-3.04661E-02 5.49750E-04-2.18706E-05 2.31454E-06 6.53669E-05
 -1      3231 1.66562E-01-3.04939E-02 4.85302E-04-2.26103E-05 4.86403E-06 1.15196E-04
 -1      3232 1.66517E-01-3.05389E-02 3.80824E-04-2.40921E-05 9.06401E-06 1.74952E-04
 -1      3233 1.66448E-01-3.06077E-02 2.22137E-04-2.68452E-05 1.60695E-05 2.49750E-04
 -1      3234 1.72788E-01-3.67706E-02 2.45723E-04-2.97830E-05-1.68349E-05-2.66031E-04
 -1      3235 1.72864E-01-3.66953E-02 4.20056E-04-2.67382E-05-9.21678E-06-1.85207E-04
 -1      3236 1.72913E-01-3.66463E-02 5.34066E-04-2.51454E-05-4.78334E-06-1.21342E-04
 -1      3237 1.72943E-01-3.66162E-02 6.04073E-04-2.43740E-05-2.19949E-06-6.86134E-05
 -1      3238 1.72957E-01-3.66019E-02 6.37471E-04-2.40685E-05-6.28228E-07-2.21908E-05
 -1      3239 1.72957E-01-3.66019E-02 6.37471E-04-2.40685E-05 6.28228E-07 2.21908E-05
 -1      3240 1.72943E-01-3.66162E-02 6.04073E-04-2.43740E-05 2.19949E-06 6.86134E-05
 -1      3241 1.72913E-01-3.66463E-02 5.34066E-04-2.51454E-05 4.78334E-06 1.21342E-04
 -1      3242 1.72864E-01-3.66953E-02 4.20056E-04-2.67382E-05 9.21678E-06 1.85207E-04
 -1      3243 1.72788E-01-3.67706E-02 2.45723E-04-2.97830E-05 1.68349E-05 2.66031E-04
 -1      3244 1.79752E-01-4.35406E-02 2.72206E-04-3.22773E-05-1.76602E-05-2.83453E-04
 -1      3245 1.79835E-01-4.34578E-02 4.63979E-04-2.89586E-05-9.37665E-06-1.96014E-04
 -1      3246 1.79888E-01-4.34043E-02 5.88485E-04-2.72759E-05-4.69529E-06-1.27727E-04
 -1      3247 1.79921E-01-4.33717E-02 6.64555E-04-2.64903E-05-2.07587E-06-7.19468E-05
 -1      3248 1.79937E-01-4.33562E-02 7.00736E-04-2.61895E-05-5.76567E-07-2.32226E-05
 -1      3249 1.79937E-01-4.33562E-02 7.00736E-04-2.61895E-05 5.76567E-07 2.32226E-05
 -1      3250 1.79921E-01-4.33717E-02 6.64555E-04-2.64903E-05 2.07587E-06 7.19468E-05
 -1      3251 1.79888E-01-4.34043E-02 5.88485E-04-2.72759E-05 4.69529E-06 1.27727E-04
 -1      3252 1.79835E-01-4.34578E-02 4.63979E-04-2.89586E-05 9.37665E-06 1.96014E-04
 -1      3253 1.79752E-01-4.35406E-02 2.72206E-04-3.22773E-05 1.76602E-05 2.83453E-04
 -1      3254 1.87424E-01-5.09984E-02 3.02222E-04-3.46943E-05-1.85358E-05-3.02242E-04
 -1      3255 1.87515E-01-5.09073E-02 5.13574E-04-3.10993E-05-9.52105E-06-2.07482E-04
 -1      3256 1.87574E-01-5.08489E-02 6.49703E-04-2.93399E-05-4.57801E-06-1.34397E-04
 -1      3257 1.87609E-01-5.08134E-02 7.32419E-04-2.85535E-05-1.92936E-06-7.53854E-05
 -1      3258 1.87626E-01-5.07967E-02 7.71629E-04-2.82654E-05-5.16583E-07-2.42792E-05
 -1      3259 1.87626E-01-5.07967E-02 7.71629E-04-2.82654E-05 5.16583E-07 2.42792E-05
 -1      3260 1.87609E-01-5.08134E-02 7.32419E-04-2.85535E-05 1.92936E-06 7.53854E-05
 -1      3261 1.87574E-01-5.08489E-02 6.49703E-04-2.93399E-05 4.57801E-06 1.34397E-04
 -1      3262 1.87515E-01-5.09073E-02 5.13574E-04-3.10993E-05 9.52105E-06 2.07482E-04
 -1      3263 1.87424E-01-5.09984E-02 3.02222E-04-3.46943E-05 1.85358E-05 3.02242E-04
 -1      3264 1.95903E-01-5.92401E-02 3.36460E-04-3.72128E-05-1.94567E-05-3.22589E-04
 -1      3265 1.96004E-01-5.91394E-02 5.69893E-04-3.33299E-05-9.63290E-06-2.19685E-04
 -1      3266 1.96068E-01-5.90755E-02 7.18936E-04-3.15050E-05-4.41565E-06-1.41374E-04
 -1      3267 1.96107E-01-5.90370E-02 8.08954E-04-3.07319E-05-1.74941E-06-7.89306E-05
 -1      3268 1.96125E-01-5.90188E-02 8.51468E-04-3.04650E-05-4.44704E-07-2.53593E-05
 -1      3269 1.96125E-01-5.90188E-02 8.51468E-04-3.04650E-05 4.44704E-07 2.53593E-05
 -1      3270 1.96107E-01-5.90370E-02 8.08954E-04-3.07319E-05 1.74941E-06 7.89306E-05
 -1      3271 1.96068E-01-5.90755E-02 7.18936E-04-3.15050E-05 4.41565E-06 1.41374E-04
 -1      3272 1.96004E-01-5.91394E-02 5.69893E-04-3.33299E-05 9.63290E-06 2.19685E-04
 -1      3273 1.95903E-01-5.92401E-02 3.36460E-04-3.72128E-05 1.94567E-05 3.22589E-04
 -1      3274 2.05308E-01-6.83789E-02 3.75716E-04-3.99275E-05-2.04194E-05-3.44683E-04
 -1      3275 2.05420E-01-6.82675E-02 6.34147E-04-3.57414E-05-9.69764E-06-2.32679E-04
 -1      3276 2.05490E-01-6.81975E-02 7.97575E-04-3.38641E-05-4.19505E-06-1.48662E-04
 -1      3277 2.05532E-01-6.81555E-02 8.95623E-04-3.31209E-05-1.52760E-06-8.25732E-05
 -1      3278 2.05552E-01-6.81359E-02 9.41741E-04-3.28852E-05-3.58088E-07-2.64583E-05
 -1      3279 2.05552E-01-6.81359E-02 9.41741E-04-3.28852E-05 3.58088E-07 2.64583E-05
 -1      3280 2.05532E-01-6.81555E-02 8.95623E-04-3.31209E-05 1.52760E-06 8.25732E-05
 -1      3281 2.05490E-01-6.81975E-02 7.97575E-04-3.38641E-05 4.19505E-06 1.48662E-04
 -1      3282 2.05420E-01-6.82675E-02 6.34147E-04-3.57414E-05 9.69764E-06 2.32679E-04
 -1      3283 2.05308E-01-6.83789E-02 3.75716E-04-3.99275E-05 2.04194E-05 3.44683E-04
 -1      3284 2.15779E-01-7.85499E-02 4.20947E-04-4.28985E-05-2.14216E-05-3.68721E-04
 -1      3285 2.15902E-01-7.84263E-02 7.07784E-04-3.83929E-05-9.70084E-06-2.46515E-04
 -1      3286 2.15980E-01-7.83494E-02 8.87266E-04-3.64803E-05-3.90386E-06-1.56254E-04
 -1      3287 2.16026E-01-7.83037E-02 9.94149E-04-3.57875E-05-1.25628E-06-8.62952E-05
 -1      3288 2.16047E-01-7.82824E-02 1.04420E-03-3.55953E-05-2.54244E-07-2.75681E-05
 -1      3289 2.16047E-01-7.82824E-02 1.04420E-03-3.55953E-05 2.54244E-07 2.75681E-05
 -1      3290 2.16026E-01-7.83037E-02 9.94149E-04-3.57875E-05 1.25628E-06 8.62952E-05
 -1      3291 2.15980E-01-7.83494E-02 8.87266E-04-3.64803E-05 3.90386E-06 1.56254E-04
 -1      3292 2.15902E-01-7.84263E-02 7.07784E-04-3.83929E-05 9.70084E-06 2.46515E-04
 -1      3293 2.15779E-01-7.85499E-02 4.20947E-04-4.28985E-05 2.14216E-05 3.68721E-04
 -1      3294 2.27482E-01-8.99144E-02 4.73325E-04-4.61739E-05-2.24603E-05-3.94922E-04
 -1      3295 2.27619E-01-8.97770E-02 7.92565E-04-4.13334E-05-9.62663E-06-2.61239E-04
 -1      3296 2.27704E-01-8.96924E-02 9.89995E-04-3.94084E-05-3.52924E-06-1.64132E-04
 -1      3297 2.27754E-01-8.96426E-02 1.10660E-03-3.87917E-05-9.27890E-07-9.00704E-05
 -1      3298 2.27777E-01-8.96195E-02 1.16092E-03-3.86579E-05-1.30765E-07-2.86778E-05
 -1      3299 2.27777E-01-8.96195E-02 1.16092E-03-3.86579E-05 1.30765E-07 2.86778E-05
 -1      3300 2.27754E-01-8.96426E-02 1.10660E-03-3.87917E-05 9.27890E-07 9.00704E-05
 -1      3301 2.27704E-01-8.96924E-02 9.89995E-04-3.94084E-05 3.52924E-06 1.64132E-04
 -1      3302 2.27619E-01-8.97770E-02 7.92565E-04-4.13334E-05 9.62663E-06 2.61239E-04
 -1      3303 2.27482E-01-8.99144E-02 4.73325E-04-4.61739E-05 2.24603E-05 3.94922E-04
 -1      3304 2.40618E-01-1.02667E-01 5.34309E-04-4.98006E-05-2.35313E-05-4.23534E-04
 -1      3305 2.40772E-01-1.02513E-01 8.90659E-04-4.46121E-05-9.45662E-06-2.76890E-04
 -1      3306 2.40865E-01-1.02420E-01 1.10819E-03-4.27058E-05-3.05729E-06-1.72266E-04
 -1      3307 2.40920E-01-1.02366E-01 1.23549E-03-4.21971E-05-5.34592E-07-9.38629E-05
 -1      3308 2.40945E-01-1.02341E-01 1.29446E-03-4.21397E-05 1.47485E-08-2.97730E-05
 -1      3309 2.40945E-01-1.02341E-01 1.29446E-03-4.21397E-05-1.47485E-08 2.97730E-05
 -1      3310 2.40920E-01-1.02366E-01 1.23549E-03-4.21971E-05 5.34592E-07 9.38629E-05
 -1      3311 2.40865E-01-1.02420E-01 1.10819E-03-4.27058E-05 3.05729E-06 1.72266E-04
 -1      3312 2.40772E-01-1.02513E-01 8.90659E-04-4.46121E-05 9.45662E-06 2.76890E-04
 -1      3313 2.40618E-01-1.02667E-01 5.34309E-04-4.98006E-05 2.35313E-05 4.23534E-04
 -1      3314 2.55433E-01-1.17042E-01 6.05727E-04-5.38300E-05-2.46287E-05-4.54837E-04
 -1      3315 2.55605E-01-1.16871E-01 1.00477E-03-4.82848E-05-9.16896E-06-2.93500E-04
 -1      3316 2.55708E-01-1.16768E-01 1.24486E-03-4.64380E-05-2.47266E-06-1.80610E-04
 -1      3317 2.55768E-01-1.16709E-01 1.38392E-03-4.60770E-05-6.82378E-08-9.76250E-05
 -1      3318 2.55795E-01-1.16681E-01 1.44792E-03-4.61181E-05 1.84687E-07-3.08350E-05
 -1      3319 2.55795E-01-1.16681E-01 1.44792E-03-4.61181E-05-1.84687E-07 3.08350E-05
 -1      3320 2.55768E-01-1.16709E-01 1.38392E-03-4.60770E-05 6.82378E-08 9.76250E-05
 -1      3321 2.55708E-01-1.16768E-01 1.24486E-03-4.64380E-05 2.47266E-06 1.80610E-04
 -1      3322 2.55605E-01-1.16871E-01 1.00477E-03-4.82848E-05 9.16896E-06 2.93500E-04
 -1      3323 2.55433E-01-1.17042E-01 6.05727E-04-5.38300E-05 2.46287E-05 4.54837E-04
 -1      3324 2.72224E-01-1.33328E-01 6.89903E-04-5.83210E-05-2.57437E-05-4.89152E-04
 -1      3325 2.72418E-01-1.33136E-01 1.13829E-03-5.24169E-05-8.73743E-06-3.11094E-04
 -1      3326 2.72532E-01-1.33022E-01 1.40374E-03-5.06833E-05-1.75846E-06-1.89100E-04
 -1      3327 2.72597E-01-1.32957E-01 1.55571E-03-5.05190E-05 4.79525E-07-1.01295E-04
 -1      3328 2.72626E-01-1.32928E-01 1.62514E-03-5.06847E-05 3.81356E-07-3.18406E-05
 -1      3329 2.72626E-01-1.32928E-01 1.62514E-03-5.06847E-05-3.81356E-07 3.18406E-05
 -1      3330 2.72597E-01-1.32957E-01 1.55571E-03-5.05190E-05-4.79525E-07 1.01295E-04
 -1      3331 2.72532E-01-1.33022E-01 1.40374E-03-5.06833E-05 1.75846E-06 1.89100E-04
 -1      3332 2.72418E-01-1.33136E-01 1.13829E-03-5.24169E-05 8.73743E-06 3.11094E-04
 -1      3333 2.72224E-01-1.33328E-01 6.89903E-04-5.83210E-05 2.57437E-05 4.89152E-04
 -1      3334 2.91360E-01-1.51880E-01 7.89816E-04-6.33430E-05-2.68635E-05-5.26848E-04
 -1      3335 2.91578E-01-1.51662E-01 1.29555E-03-5.70874E-05-8.13023E-06-3.29680E-04
 -1      3336 2.91704E-01-1.51537E-01 1.58956E-03-5.55369E-05-8.96234E-07-1.97646E-04
 -1      3337 2.91775E-01-1.51466E-01 1.75567E-03-5.56290E-05 1.11696E-06-1.04795E-04
 -1      3338 2.91807E-01-1.51434E-01 1.83093E-03-5.59510E-05 6.06815E-07-3.27602E-05
 -1      3339 2.91807E-01-1.51434E-01 1.83093E-03-5.59510E-05-6.06815E-07 3.27602E-05
 -1      3340 2.91775E-01-1.51466E-01 1.75567E-03-5.56290E-05-1.11696E-06 1.04795E-04
 -1      3341 2.91704E-01-1.51537E-01 1.58956E-03-5.55369E-05 8.96234E-07 1.97646E-04
 -1      3342 2.91578E-01-1.51662E-01 1.29555E-03-5.70874E-05 8.13023E-06 3.29680E-04
 -1      3343 2.91360E-01-1.51880E-01 7.89816E-04-6.33430E-05 2.68635E-05 5.26848E-04
 -1      3344 3.13298E-01-1.73135E-01 9.09332E-04-6.89782E-05-2.79695E-05-5.68345E-04
 -1      3345 3.13545E-01-1.72889E-01 1.48210E-03-6.23928E-05-7.30871E-06-3.49241E-04
 -1      3346 3.13685E-01-1.72750E-01 1.80833E-03-6.11156E-05 1.33760E-07-2.06128E-04
 -1      3347 3.13762E-01-1.72673E-01 1.98991E-03-6.15370E-05 1.85168E-06-1.08024E-04
 -1      3348 3.13797E-01-1.72638E-01 2.07139E-03-6.20522E-05 8.62640E-07-3.35577E-05
 -1      3349 3.13797E-01-1.72638E-01 2.07139E-03-6.20522E-05-8.62640E-07 3.35577E-05
 -1      3350 3.13762E-01-1.72673E-01 1.98991E-03-6.15370E-05-1.85168E-06 1.08024E-04
 -1      3351 3.13685E-01-1.72750E-01 1.80833E-03-6.11156E-05-1.33760E-07 2.06128E-04
 -1      3352 3.13545E-01-1.72889E-01 1.48210E-03-6.23928E-05 7.30871E-06 3.49241E-04
 -1      3353 3.13298E-01-1.73135E-01 9.09332E-04-6.89782E-05 2.79695E-05 5.68345E-04
 -1      3354 3.38614E-01-1.97648E-01 1.05354E-03-7.53251E-05-2.90350E-05-6.14128E-04
 -1      3355 3.38894E-01-1.97368E-01 1.70517E-03-6.84518E-05-6.22567E-06-3.69732E-04
 -1      3356 3.39049E-01-1.97213E-01 2.06783E-03-6.75635E-05 1.35165E-06-2.14382E-04
 -1      3357 3.39134E-01-1.97129E-01 2.26624E-03-6.84024E-05 2.68964E-06-1.10856E-04
 -1      3358 3.39172E-01-1.97092E-01 2.35431E-03-6.91542E-05 1.14939E-06-3.41883E-05
 -1      3359 3.39172E-01-1.97092E-01 2.35431E-03-6.91542E-05-1.14939E-06 3.41883E-05
 -1      3360 3.39134E-01-1.97129E-01 2.26624E-03-6.84024E-05-2.68964E-06 1.10856E-04
 -1      3361 3.39049E-01-1.97213E-01 2.06783E-03-6.75635E-05-1.35165E-06 2.14382E-04
 -1      3362 3.38894E-01-1.97368E-01 1.70517E-03-6.84518E-05 6.22567E-06 3.69732E-04
 -1      3363 3.38614E-01-1.97648E-01 1.05354E-03-7.53251E-05 2.90350E-05 6.14128E-04
 -1      3364 3.68037E-01-2.26118E-01 1.22921E-03-8.25021E-05-3.00216E-05-6.64752E-04
 -1      3365 3.68358E-01-2.25798E-01 1.97432E-03-7.54119E-05-4.82411E-06-3.91055E-04
 -1      3366 3.68530E-01-2.25626E-01 2.37822E-03-7.50608E-05 2.77648E-06-2.22197E-04
 -1      3367 3.68623E-01-2.25534E-01 2.59488E-03-7.64222E-05 3.63280E-06-1.13138E-04
 -1      3368 3.68663E-01-2.25494E-01 2.68982E-03-7.74607E-05 1.46600E-06-3.45984E-05
 -1      3369 3.68663E-01-2.25494E-01 2.68982E-03-7.74607E-05-1.46600E-06 3.45984E-05
 -1      3370 3.68623E-01-2.25534E-01 2.59488E-03-7.64222E-05-3.63280E-06 1.13138E-04
 -1      3371 3.68530E-01-2.25626E-01 2.37822E-03-7.50608E-05-2.77648E-06 2.22197E-04
 -1      3372 3.68358E-01-2.25798E-01 1.97432E-03-7.54119E-05 4.82411E-06 3.91055E-04
 -1      3373 3.68037E-01-2.26118E-01 1.22921E-03-8.25021E-05 3.00216E-05 6.64752E-04
 -1      3374 4.02508E-01-2.59445E-01 1.44553E-03-9.06522E-05-3.08778E-05-7.20847E-04
 -1      3375 4.02877E-01-2.59077E-01 2.30235E-03-8.34597E-05-3.03541E-06-4.13051E-04
 -1      3376 4.03070E-01-2.58885E-01 2.75303E-03-8.38311E-05 4.42007E-06-2.29293E-04
 -1      3377 4.03170E-01-2.58785E-01 2.98933E-03-8.58416E-05 4.67743E-06-1.14678E-04
 -1      3378 4.03214E-01-2.58742E-01 3.09133E-03-8.72233E-05 1.80820E-06-3.47237E-05
 -1      3379 4.03214E-01-2.58742E-01 3.09133E-03-8.72233E-05-1.80820E-06 3.47237E-05
 -1      3380 4.03170E-01-2.58785E-01 2.98933E-03-8.58416E-05-4.67743E-06 1.14678E-04
 -1      3381 4.03070E-01-2.58885E-01 2.75303E-03-8.38311E-05-4.42007E-06 2.29293E-04
 -1      3382 4.02877E-01-2.59077E-01 2.30235E-03-8.34597E-05 3.03541E-06 4.13051E-04
 -1      3383 4.02508E-01-2.59445E-01 1.44553E-03-9.06522E-05 3.08778E-05 7.20847E-04
 -1      3384 4.43252E-01-2.98799E-01 1.71516E-03-9.99522E-05-3.15137E-05-7.83131E-04
 -1      3385 4.43678E-01-2.98373E-01 2.70671E-03-9.28177E-05-7.78849E-07-4.35446E-04
 -1      3386 4.43894E-01-2.98159E-01 3.21057E-03-9.41644E-05 6.29482E-06-2.35314E-04
 -1      3387 4.44003E-01-2.98050E-01 3.46778E-03-9.69666E-05 5.80548E-06-1.15247E-04
 -1      3388 4.44050E-01-2.98003E-01 3.57685E-03-9.87519E-05 2.16698E-06-3.44898E-05
 -1      3389 4.44050E-01-2.98003E-01 3.57685E-03-9.87519E-05-2.16698E-06 3.44898E-05
 -1      3390 4.44003E-01-2.98050E-01 3.46778E-03-9.69666E-05-5.80548E-06 1.15247E-04
 -1      3391 4.43894E-01-2.98159E-01 3.21057E-03-9.41644E-05-6.29482E-06 2.35314E-04
 -1      3392 4.43678E-01-2.98373E-01 2.70671E-03-9.28177E-05 7.78849E-07 4.35446E-04
 -1      3393 4.43252E-01-2.98799E-01 1.71516E-03-9.99522E-05 3.15137E-05 7.83131E-04
 -1      3394 4.91888E-01-3.45724E-01 2.05571E-03-1.10576E-04-3.18836E-05-8.52330E-04
 -1      3395 4.92385E-01-3.45227E-01 3.21183E-03-1.03839E-04 2.07784E-06-4.57870E-04
 -1      3396 4.92626E-01-3.44987E-01 3.77606E-03-1.06410E-04 8.37864E-06-2.39804E-04
 -1      3397 4.92745E-01-3.44868E-01 4.05529E-03-1.10172E-04 7.01154E-06-1.14571E-04
 -1      3398 4.92794E-01-3.44819E-01 4.17123E-03-1.12431E-04 2.53846E-06-3.38105E-05
 -1      3399 4.92794E-01-3.44819E-01 4.17123E-03-1.12431E-04-2.53846E-06 3.38105E-05
 -1      3400 4.92745E-01-3.44868E-01 4.05529E-03-1.10172E-04-7.01154E-06 1.14571E-04
 -1      3401 4.92626E-01-3.44987E-01 3.77606E-03-1.06410E-04-8.37864E-06 2.39804E-04
 -1      3402 4.92385E-01-3.45227E-01 3.21183E-03-1.03839E-04-2.07784E-06 4.57870E-04
 -1      3403 4.91888E-01-3.45724E-01 2.05571E-03-1.10576E-04 3.18836E-05 8.52330E-04
 -1      3404 5.50597E-01-4.02290E-01 2.49367E-03-1.23056E-04-3.13879E-05-9.29588E-04
 -1      3405 5.51181E-01-4.01707E-01 3.85175E-03-1.16694E-04 5.67813E-06-4.79650E-04
 -1      3406 5.51451E-01-4.01437E-01 4.48525E-03-1.21003E-04 1.08757E-05-2.42131E-04
 -1      3407 5.51580E-01-4.01309E-01 4.78740E-03-1.25957E-04 8.34274E-06-1.12326E-04
 -1      3408 5.51632E-01-4.01257E-01 4.90966E-03-1.28758E-04 2.92702E-06-3.25945E-05
 -1      3409 5.51632E-01-4.01257E-01 4.90966E-03-1.28758E-04-2.92702E-06 3.25945E-05
 -1      3410 5.51580E-01-4.01309E-01 4.78740E-03-1.25957E-04-8.34274E-06 1.12326E-04
 -1      3411 5.51451E-01-4.01437E-01 4.48525E-03-1.21003E-04-1.08757E-05 2.42131E-04
 -1      3412 5.51181E-01-4.01707E-01 3.85175E-03-1.16694E-04-5.67813E-06 4.79650E-04
 -1      3413 5.50597E-01-4.02290E-01 2.49367E-03-1.23056E-04 3.13879E-05 9.29588E-04
 -1      3414 6.22362E-01-4.71335E-01 3.06017E-03-1.35911E-04-3.08145E-05-1.01461E-03
 -1      3415 6.23058E-01-4.70637E-01 4.67781E-03-1.32260E-04 1.15268E-05-4.99854E-04
 -1      3416 6.23362E-01-4.70334E-01 5.39083E-03-1.38764E-04 1.41257E-05-2.41791E-04
 -1      3417 6.23500E-01-4.70195E-01 5.71573E-03-1.44928E-04 1.00659E-05-1.08315E-04
 -1      3418 6.23554E-01-4.70141E-01 5.84320E-03-1.48240E-04 3.45237E-06-3.07935E-05
 -1      3419 6.23554E-01-4.70141E-01 5.84320E-03-1.48240E-04-3.45237E-06 3.07935E-05
 -1      3420 6.23500E-01-4.70195E-01 5.71573E-03-1.44928E-04-1.00659E-05 1.08315E-04
 -1      3421 6.23362E-01-4.70334E-01 5.39083E-03-1.38764E-04-1.41257E-05 2.41791E-04
 -1      3422 6.23058E-01-4.70637E-01 4.67781E-03-1.32260E-04-1.15268E-05 4.99854E-04
 -1      3423 6.22362E-01-4.71335E-01 3.06017E-03-1.35911E-04 3.08145E-05 1.01461E-03
 -1      3424 7.11387E-01-5.56774E-01 3.84789E-03-1.58992E-04-2.40948E-05-1.10862E-03
 -1      3425 7.12213E-01-5.55948E-01 5.77269E-03-1.53078E-04 1.72477E-05-5.17673E-04
 -1      3426 7.12551E-01-5.55615E-01 6.56930E-03-1.60301E-04 1.94287E-05-2.37533E-04
 -1      3427 7.12697E-01-5.55473E-01 6.91656E-03-1.67649E-04 1.37759E-05-1.01693E-04
 -1      3428 7.12752E-01-5.55419E-01 7.04859E-03-1.71648E-04 4.74869E-06-2.81314E-05
 -1      3429 7.12752E-01-5.55419E-01 7.04859E-03-1.71648E-04-4.74869E-06 2.81314E-05
 -1      3430 7.12697E-01-5.55473E-01 6.91656E-03-1.67649E-04-1.37759E-05 1.01693E-04
 -1      3431 7.12551E-01-5.55615E-01 6.56930E-03-1.60301E-04-1.94287E-05 2.37533E-04
 -1      3432 7.12213E-01-5.55948E-01 5.77269E-03-1.53078E-04-1.72477E-05 5.17673E-04
 -1      3433 7.11387E-01-5.56774E-01 3.84789E-03-1.58992E-04 2.40948E-05 1.10862E-03
 -1      3434 8.23514E-01-6.64539E-01 4.68651E-03-1.62823E-04 9.82824E-06-1.23566E-03
 -1      3435 8.24538E-01-6.63537E-01 7.09253E-03-1.68518E-04 6.50647E-05-5.32097E-04
 -1      3436 8.24929E-01-6.63165E-01 8.03307E-03-1.90256E-04 4.95029E-05-2.25226E-04
 -1      3437 8.25081E-01-6.63025E-01 8.40405E-03-2.06026E-04 2.78802E-05-9.00829E-05
 -1      3438 8.25135E-01-6.62975E-01 8.53666E-03-2.13321E-04 8.71010E-06-2.39259E-05
 -1      3439 8.25135E-01-6.62975E-01 8.53666E-03-2.13321E-04-8.71010E-06 2.39259E-05
 -1      3440 8.25081E-01-6.63025E-01 8.40405E-03-2.06026E-04-2.78802E-05 9.00829E-05
 -1      3441 8.24929E-01-6.63165E-01 8.03307E-03-1.90256E-04-4.95029E-05 2.25226E-04
 -1      3442 8.24538E-01-6.63537E-01 7.09253E-03-1.68518E-04-6.50647E-05 5.32097E-04
 -1      3443 8.23514E-01-6.64539E-01 4.68651E-03-1.62823E-04-9.82824E-06 1.23566E-03
 -1      3444 9.66960E-01-8.05614E-01 5.52304E-03-2.43067E-04 2.19951E-04-1.00393E-03
 -1      3445 9.67940E-01-8.04790E-01 7.98673E-03-3.18893E-04 1.43430E-04-3.79019E-04
 -1      3446 9.68293E-01-8.04443E-01 8.83606E-03-3.78060E-04 5.88343E-05-1.42895E-04
 -1      3447 9.68410E-01-8.04316E-01 9.10958E-03-4.05539E-04 1.76037E-05-5.21672E-05
 -1      3448 9.68447E-01-8.04271E-01 9.19375E-03-4.15618E-04 3.58648E-06-1.31388E-05
 -1      3449 9.68447E-01-8.04271E-01 9.19375E-03-4.15618E-04-3.58648E-06 1.31388E-05
 -1      3450 9.68410E-01-8.04316E-01 9.10958E-03-4.05539E-04-1.76037E-05 5.21672E-05
 -1      3451 9.68293E-01-8.04443E-01 8.83606E-03-3.78060E-04-5.88343E-05 1.42895E-04
 -1      3452 9.67940E-01-8.04790E-01 7.98673E-03-3.18893E-04-1.43430E-04 3.79019E-04
 -1      3453 9.66960E-01-8.05614E-01 5.52304E-03-2.43067E-04-2.19951E-04 1.00393E-03
 -1      3454 1.37934E-01-3.49342E-03 5.82881E-05 5.20716E-05-1.91746E-05-1.28748E-04
 -1      3455 1.35590E-01-1.72301E-03 1.02581E-05 4.35186E-06-2.25636E-05-7.87279E-05
 -1      3457 1.37967E-01-3.45272E-03 1.32896E-04 4.22283E-05-2.87883E-05-9.37117E-05
 -1      3458 1.35599E-01-1.71147E-03 3.21756E-05-9.03182E-07-2.58326E-05-5.82377E-05
 -1      3460 1.37989E-01-3.42956E-03 1.85285E-04 3.95925E-05-2.67049E-05-6.48500E-05
 -1      3461 1.35605E-01-1.70512E-03 4.67443E-05-1.22743E-06-2.09678E-05-4.00955E-05
 -1      3463 1.38004E-01-3.41606E-03 2.19843E-04 3.99186E-05-1.93643E-05-4.06913E-05
 -1      3464 1.35609E-01-1.70181E-03 5.56503E-05-3.88359E-08-1.31902E-05-2.34811E-05
 -1      3466 1.38012E-01-3.40905E-03 2.39481E-04 4.08626E-05-1.00186E-05-1.95977E-05
 -1      3467 1.35611E-01-1.70040E-03 5.98905E-05 9.18593E-07-4.46039E-06-7.73333E-06
 -1      3469 1.38015E-01-3.40688E-03 2.45840E-04 4.12893E-05 4.19144E-14 8.44094E-15
 -1      3470 1.35611E-01-1.70040E-03 5.98905E-05 9.18593E-07 4.46039E-06 7.73333E-06
 -1      3472 1.38012E-01-3.40905E-03 2.39481E-04 4.08626E-05 1.00186E-05 1.95977E-05
 -1      3473 1.35609E-01-1.70181E-03 5.56503E-05-3.88359E-08 1.31902E-05 2.34811E-05
 -1      3475 1.38004E-01-3.41606E-03 2.19843E-04 3.99186E-05 1.93643E-05 4.06913E-05
 -1      3476 1.35605E-01-1.70512E-03 4.67443E-05-1.22743E-06 2.09678E-05 4.00955E-05
 -1      3478 1.37989E-01-3.42956E-03 1.85285E-04 3.95925E-05 2.67049E-05 6.48500E-05
 -1      3479 1.35599E-01-1.71147E-03 3.21756E-05-9.03182E-07 2.58326E-05 5.82377E-05
 -1      3481 1.37967E-01-3.45272E-03 1.32896E-04 4.22283E-05 2.87883E-05 9.37117E-05
 -1      3482 1.35590E-01-1.72301E-03 1.02581E-05 4.35186E-06 2.25636E-05 7.87279E-05
 -1      3484 1.37934E-01-3.49342E-03 5.82881E-05 5.20716E-05 1.91746E-05 1.28748E-04
 -1      3486 1.41819E-01-6.99484E-03 5.35418E-05 7.71753E-05-1.91427E-05-1.85491E-04
 -1      3487 1.39872E-01-5.19999E-03 1.05475E-04 1.24942E-04-2.50391E-05-1.33648E-04
 -1      3489 1.41869E-01-6.93539E-03 1.61839E-04 7.18612E-05-2.05416E-05-1.35147E-04
 -1      3490 1.39902E-01-5.16568E-03 1.75468E-04 1.20855E-04-2.67194E-05-9.52712E-05
 -1      3492 1.41902E-01-6.90009E-03 2.37427E-04 6.97241E-05-1.83333E-05-9.37111E-05
 -1      3493 1.39924E-01-5.14588E-03 2.26458E-04 1.20127E-04-2.21596E-05-6.34687E-05
 -1      3495 1.41923E-01-6.87931E-03 2.88243E-04 6.92220E-05-1.35041E-05-5.88798E-05
 -1      3496 1.39937E-01-5.13498E-03 2.59098E-04 1.20611E-04-1.42788E-05-3.62791E-05
 -1      3498 1.41936E-01-6.86831E-03 3.17603E-04 6.93131E-05-7.10805E-06-2.83737E-05
 -1      3499 1.39943E-01-5.13015E-03 2.74907E-04 1.21116E-04-4.89835E-06-1.17964E-05
 -1      3501 1.41939E-01-6.86487E-03 3.27202E-04 6.94068E-05 4.41404E-14 1.04088E-14
 -1      3502 1.39943E-01-5.13015E-03 2.74907E-04 1.21116E-04 4.89835E-06 1.17964E-05
 -1      3504 1.41936E-01-6.86831E-03 3.17603E-04 6.93131E-05 7.10805E-06 2.83737E-05
 -1      3505 1.39937E-01-5.13498E-03 2.59098E-04 1.20611E-04 1.42788E-05 3.62791E-05
 -1      3507 1.41923E-01-6.87931E-03 2.88243E-04 6.92220E-05 1.35041E-05 5.88798E-05
 -1      3508 1.39924E-01-5.14588E-03 2.26458E-04 1.20127E-04 2.21596E-05 6.34687E-05
 -1      3510 1.41902E-01-6.90009E-03 2.37427E-04 6.97241E-05 1.83333E-05 9.37111E-05
 -1      3511 1.39902E-01-5.16568E-03 1.75468E-04 1.20855E-04 2.67194E-05 9.52712E-05
 -1      3513 1.41869E-01-6.93539E-03 1.61839E-04 7.18612E-05 2.05416E-05 1.35147E-04
 -1      3514 1.39872E-01-5.19999E-03 1.05475E-04 1.24942E-04 2.50391E-05 1.33648E-04
 -1      3516 1.41819E-01-6.99484E-03 5.35418E-05 7.71753E-05 1.91427E-05 1.85491E-04
 -1      3518 1.45979E-01-1.08832E-02 7.77342E-05 2.29782E-05-1.81677E-05-2.16845E-04
 -1      3519 1.43870E-01-8.90719E-03 1.13883E-04 4.84096E-05-1.39201E-05-1.70748E-04
 -1      3521 1.46034E-01-1.08205E-02 2.01219E-04 2.21581E-05-1.31015E-05-1.58297E-04
 -1      3522 1.43910E-01-8.86116E-03 2.04471E-04 4.64222E-05-1.31213E-05-1.21955E-04
 -1      3524 1.46072E-01-1.07800E-02 2.86096E-04 2.16214E-05-9.76821E-06-1.10146E-04
 -1      3525 1.43939E-01-8.83135E-03 2.70128E-04 4.57652E-05-1.07146E-05-8.14223E-05
 -1      3527 1.46097E-01-1.07545E-02 3.42865E-04 2.14018E-05-6.62112E-06-6.94417E-05
 -1      3528 1.43957E-01-8.81373E-03 3.12255E-04 4.57259E-05-6.97398E-06-4.66170E-05
 -1      3530 1.46111E-01-1.07404E-02 3.75621E-04 2.13547E-05-3.36774E-06-3.35433E-05
 -1      3531 1.43965E-01-8.80558E-03 3.32776E-04 4.58241E-05-2.41433E-06-1.51704E-05
 -1      3533 1.46115E-01-1.07359E-02 3.86334E-04 2.13546E-05-2.72032E-14 1.22869E-14
 -1      3534 1.43965E-01-8.80558E-03 3.32776E-04 4.58241E-05 2.41433E-06 1.51704E-05
 -1      3536 1.46111E-01-1.07404E-02 3.75621E-04 2.13547E-05 3.36774E-06 3.35433E-05
 -1      3537 1.43957E-01-8.81373E-03 3.12255E-04 4.57259E-05 6.97398E-06 4.66170E-05
 -1      3539 1.46097E-01-1.07545E-02 3.42865E-04 2.14018E-05 6.62112E-06 6.94417E-05
 -1      3540 1.43939E-01-8.83135E-03 2.70128E-04 4.57652E-05 1.07146E-05 8.14223E-05
 -1      3542 1.46072E-01-1.07800E-02 2.86096E-04 2.16214E-05 9.76821E-06 1.10146E-04
 -1      3543 1.43910E-01-8.86116E-03 2.04471E-04 4.64222E-05 1.31213E-05 1.21955E-04
 -1      3545 1.46034E-01-1.08205E-02 2.01219E-04 2.21581E-05 1.31015E-05 1.58297E-04
 -1      3546 1.43870E-01-8.90719E-03 1.13883E-04 4.84096E-05 1.39201E-05 1.70748E-04
 -1      3548 1.45979E-01-1.08832E-02 7.77342E-05 2.29782E-05 1.81677E-05 2.16845E-04
 -1      3550 1.50467E-01-1.51760E-02 8.97154E-05-4.55923E-06-1.79757E-05-2.39701E-04
 -1      3551 1.48182E-01-1.30145E-02 1.31388E-04 9.27035E-06-1.34474E-05-1.93658E-04
 -1      3553 1.50529E-01-1.51104E-02 2.31512E-04-3.19084E-06-1.17888E-05-1.73974E-04
 -1      3554 1.48228E-01-1.29652E-02 2.34503E-04 9.42450E-06-9.06608E-06-1.38184E-04
 -1      3556 1.50571E-01-1.50666E-02 3.27154E-04-2.37823E-06-7.41932E-06-1.20639E-04
 -1      3557 1.48260E-01-1.29311E-02 3.08166E-04 9.54478E-06-5.98630E-06-9.22840E-05
 -1      3559 1.50598E-01-1.50382E-02 3.90178E-04-1.94888E-06-4.33312E-06-7.59178E-05
 -1      3560 1.48281E-01-1.29100E-02 3.55140E-04 9.65074E-06-3.46781E-06-5.28703E-05
 -1      3562 1.50614E-01-1.50221E-02 4.26204E-04-1.74525E-06-2.00437E-06-3.66407E-05
 -1      3563 1.48291E-01-1.28999E-02 3.77961E-04 9.71587E-06-1.14130E-06-1.72133E-05
 -1      3565 1.50619E-01-1.50170E-02 4.37934E-04-1.68550E-06 1.88318E-14 1.19512E-14
 -1      3566 1.48291E-01-1.28999E-02 3.77961E-04 9.71587E-06 1.14130E-06 1.72133E-05
 -1      3568 1.50614E-01-1.50221E-02 4.26204E-04-1.74525E-06 2.00437E-06 3.66407E-05
 -1      3569 1.48281E-01-1.29100E-02 3.55140E-04 9.65074E-06 3.46781E-06 5.28703E-05
 -1      3571 1.50598E-01-1.50382E-02 3.90178E-04-1.94888E-06 4.33312E-06 7.59178E-05
 -1      3572 1.48260E-01-1.29311E-02 3.08166E-04 9.54478E-06 5.98630E-06 9.22840E-05
 -1      3574 1.50571E-01-1.50666E-02 3.27154E-04-2.37823E-06 7.41932E-06 1.20639E-04
 -1      3575 1.48228E-01-1.29652E-02 2.34503E-04 9.42450E-06 9.06608E-06 1.38184E-04
 -1      3577 1.50529E-01-1.51104E-02 2.31512E-04-3.19084E-06 1.17888E-05 1.73974E-04
 -1      3578 1.48182E-01-1.30145E-02 1.31388E-04 9.27035E-06 1.34474E-05 1.93658E-04
 -1      3580 1.50467E-01-1.51760E-02 8.97154E-05-4.55923E-06 1.79757E-05 2.39701E-04
 -1      3582 1.55336E-01-1.98797E-02 1.02131E-04-1.85368E-05-1.87549E-05-2.59366E-04
 -1      3583 1.52852E-01-1.75206E-02 1.46484E-04-1.07345E-05-1.41949E-05-2.11026E-04
 -1      3585 1.55404E-01-1.98099E-02 2.59068E-04-1.59891E-05-1.15206E-05-1.87174E-04
 -1      3586 1.52903E-01-1.74688E-02 2.62049E-04-9.28527E-06-8.76137E-06-1.49866E-04
 -1      3588 1.55450E-01-1.97631E-02 3.64801E-04-1.45133E-05-6.88836E-06-1.29170E-04
 -1      3589 1.52938E-01-1.74324E-02 3.43718E-04-8.47212E-06-5.11554E-06-9.97624E-05
 -1      3591 1.55480E-01-1.97326E-02 4.34172E-04-1.37004E-05-3.78249E-06-8.10013E-05
 -1      3592 1.52961E-01-1.74096E-02 3.95368E-04-8.05071E-06-2.65201E-06-5.70418E-05
 -1      3594 1.55497E-01-1.97153E-02 4.73665E-04-1.33049E-05-1.66139E-06-3.90113E-05
 -1      3595 1.52972E-01-1.73986E-02 4.20335E-04-7.87363E-06-8.18156E-07-1.85543E-05
 -1      3597 1.55503E-01-1.97097E-02 4.86495E-04-1.31881E-05 1.44213E-14 6.74159E-15
 -1      3598 1.52972E-01-1.73986E-02 4.20335E-04-7.87363E-06 8.18156E-07 1.85543E-05
 -1      3600 1.55497E-01-1.97153E-02 4.73665E-04-1.33049E-05 1.66139E-06 3.90113E-05
 -1      3601 1.52961E-01-1.74096E-02 3.95368E-04-8.05071E-06 2.65201E-06 5.70418E-05
 -1      3603 1.55480E-01-1.97326E-02 4.34172E-04-1.37004E-05 3.78249E-06 8.10013E-05
 -1      3604 1.52938E-01-1.74324E-02 3.43718E-04-8.47212E-06 5.11554E-06 9.97624E-05
 -1      3606 1.55450E-01-1.97631E-02 3.64801E-04-1.45133E-05 6.88836E-06 1.29170E-04
 -1      3607 1.52903E-01-1.74688E-02 2.62049E-04-9.28527E-06 8.76137E-06 1.49866E-04
 -1      3609 1.55404E-01-1.98099E-02 2.59068E-04-1.59891E-05 1.15206E-05 1.87174E-04
 -1      3610 1.52852E-01-1.75206E-02 1.46484E-04-1.07345E-05 1.41949E-05 2.11026E-04
 -1      3612 1.55336E-01-1.98797E-02 1.02131E-04-1.85368E-05 1.87549E-05 2.59366E-04
 -1      3614 1.60635E-01-2.50241E-02 1.14001E-04-2.60752E-05-1.97269E-05-2.78335E-04
 -1      3615 1.57928E-01-2.24499E-02 1.61638E-04-2.10744E-05-1.49458E-05-2.26588E-04
 -1      3617 1.60710E-01-2.49483E-02 2.87264E-04-2.27922E-05-1.17043E-05-1.99680E-04
 -1      3618 1.57984E-01-2.23939E-02 2.89184E-04-1.89401E-05-8.84311E-06-1.60061E-04
 -1      3620 1.60761E-01-2.48978E-02 4.03091E-04-2.09299E-05-6.71736E-06-1.37129E-04
 -1      3621 1.58022E-01-2.23548E-02 3.78885E-04-1.77490E-05-4.95882E-06-1.06102E-04
 -1      3623 1.60793E-01-2.48650E-02 4.78768E-04-1.99285E-05-3.55562E-06-8.56740E-05
 -1      3624 1.58047E-01-2.23303E-02 4.35371E-04-1.71332E-05-2.47244E-06-6.04914E-05
 -1      3626 1.60812E-01-2.48464E-02 5.21735E-04-1.94472E-05-1.51928E-06-4.11660E-05
 -1      3627 1.58058E-01-2.23185E-02 4.62597E-04-1.68758E-05-7.43470E-07-1.96474E-05
 -1      3629 1.60818E-01-2.48404E-02 5.35673E-04-1.93056E-05 2.67156E-14 5.77492E-15
 -1      3630 1.58058E-01-2.23185E-02 4.62597E-04-1.68758E-05 7.43470E-07 1.96474E-05
 -1      3632 1.60812E-01-2.48464E-02 5.21735E-04-1.94472E-05 1.51928E-06 4.11660E-05
 -1      3633 1.58047E-01-2.23303E-02 4.35371E-04-1.71332E-05 2.47244E-06 6.04914E-05
 -1      3635 1.60793E-01-2.48650E-02 4.78768E-04-1.99285E-05 3.55562E-06 8.56740E-05
 -1      3636 1.58022E-01-2.23548E-02 3.78885E-04-1.77490E-05 4.95882E-06 1.06102E-04
 -1      3638 1.60761E-01-2.48978E-02 4.03091E-04-2.09299E-05 6.71736E-06 1.37129E-04
 -1      3639 1.57984E-01-2.23939E-02 2.89184E-04-1.89401E-05 8.84311E-06 1.60061E-04
 -1      3641 1.60710E-01-2.49483E-02 2.87264E-04-2.27922E-05 1.17043E-05 1.99680E-04
 -1      3642 1.57928E-01-2.24499E-02 1.61638E-04-2.10744E-05 1.49458E-05 2.26588E-04
 -1      3644 1.60635E-01-2.50241E-02 1.14001E-04-2.60752E-05 1.97269E-05 2.78335E-04
 -1      3646 1.66422E-01-3.06521E-02 1.26625E-04-3.06683E-05-2.08414E-05-2.97846E-04
 -1      3647 1.63462E-01-2.78393E-02 1.77789E-04-2.68718E-05-1.57358E-05-2.41907E-04
 -1      3649 1.66504E-01-3.05692E-02 3.17412E-04-2.68481E-05-1.20023E-05-2.12351E-04
 -1      3650 1.63523E-01-2.77785E-02 3.17794E-04-2.43001E-05-9.00751E-06-1.69933E-04
 -1      3652 1.66559E-01-3.05144E-02 4.44103E-04-2.47307E-05-6.67424E-06-1.45074E-04
 -1      3653 1.63565E-01-2.77361E-02 4.15788E-04-2.28998E-05-4.87502E-06-1.12144E-04
 -1      3655 1.66594E-01-3.04789E-02 5.26446E-04-2.36199E-05-3.40950E-06-9.02813E-05
 -1      3656 1.63592E-01-2.77096E-02 4.77270E-04-2.21914E-05-2.35725E-06-6.37368E-05
 -1      3658 1.66615E-01-3.04588E-02 5.73037E-04-2.30995E-05-1.41567E-06-4.32731E-05
 -1      3659 1.63604E-01-2.76969E-02 5.06834E-04-2.18997E-05-6.95521E-07-2.06681E-05
 -1      3661 1.66621E-01-3.04524E-02 5.88126E-04-2.29489E-05 4.30155E-14 5.96077E-15
 -1      3662 1.63604E-01-2.76969E-02 5.06834E-04-2.18997E-05 6.95521E-07 2.06681E-05
 -1      3664 1.66615E-01-3.04588E-02 5.73037E-04-2.30995E-05 1.41567E-06 4.32731E-05
 -1      3665 1.63592E-01-2.77096E-02 4.77270E-04-2.21914E-05 2.35725E-06 6.37368E-05
 -1      3667 1.66594E-01-3.04789E-02 5.26446E-04-2.36199E-05 3.40950E-06 9.02813E-05
 -1      3668 1.63565E-01-2.77361E-02 4.15788E-04-2.28998E-05 4.87502E-06 1.12144E-04
 -1      3670 1.66559E-01-3.05144E-02 4.44103E-04-2.47307E-05 6.67424E-06 1.45074E-04
 -1      3671 1.63523E-01-2.77785E-02 3.17794E-04-2.43001E-05 9.00751E-06 1.69933E-04
 -1      3673 1.66504E-01-3.05692E-02 3.17412E-04-2.68481E-05 1.20023E-05 2.12351E-04
 -1      3674 1.63462E-01-2.78393E-02 1.77789E-04-2.68718E-05 1.57358E-05 2.41907E-04
 -1      3676 1.66422E-01-3.06521E-02 1.26625E-04-3.06683E-05 2.08414E-05 2.97846E-04
 -1      3678 1.72758E-01-3.68197E-02 1.40492E-04-3.40186E-05-2.20719E-05-3.18578E-04
 -1      3679 1.69513E-01-3.37396E-02 1.95497E-04-3.06345E-05-1.65424E-05-2.57774E-04
 -1      3681 1.72849E-01-3.67286E-02 3.50722E-04-2.97277E-05-1.23651E-05-2.25619E-04
 -1      3682 1.69580E-01-3.36732E-02 3.48955E-04-2.77396E-05-9.19547E-06-1.80000E-04
 -1      3684 1.72909E-01-3.66688E-02 4.89261E-04-2.74089E-05-6.66486E-06-1.53275E-04
 -1      3685 1.69626E-01-3.36272E-02 4.55843E-04-2.62036E-05-4.81183E-06-1.18221E-04
 -1      3687 1.72947E-01-3.66303E-02 5.78823E-04-2.62268E-05-3.28656E-06-9.49777E-05
 -1      3688 1.69655E-01-3.35985E-02 5.22636E-04-2.54486E-05-2.25121E-06-6.69645E-05
 -1      3690 1.72969E-01-3.66086E-02 6.29315E-04-2.56884E-05-1.32328E-06-4.54021E-05
 -1      3691 1.69668E-01-3.35848E-02 5.54674E-04-2.51454E-05-6.49813E-07-2.16770E-05
 -1      3693 1.72976E-01-3.66017E-02 6.45636E-04-2.55356E-05-7.76910E-15-3.69744E-16
 -1      3694 1.69668E-01-3.35848E-02 5.54674E-04-2.51454E-05 6.49813E-07 2.16770E-05
 -1      3696 1.72969E-01-3.66086E-02 6.29315E-04-2.56884E-05 1.32328E-06 4.54021E-05
 -1      3697 1.69655E-01-3.35985E-02 5.22636E-04-2.54486E-05 2.25121E-06 6.69645E-05
 -1      3699 1.72947E-01-3.66303E-02 5.78823E-04-2.62268E-05 3.28656E-06 9.49777E-05
 -1      3700 1.69626E-01-3.36272E-02 4.55843E-04-2.62036E-05 4.81183E-06 1.18221E-04
 -1      3702 1.72909E-01-3.66688E-02 4.89261E-04-2.74089E-05 6.66486E-06 1.53275E-04
 -1      3703 1.69580E-01-3.36732E-02 3.48955E-04-2.77396E-05 9.19547E-06 1.80000E-04
 -1      3705 1.72849E-01-3.67286E-02 3.50722E-04-2.97277E-05 1.23651E-05 2.25619E-04
 -1      3706 1.69513E-01-3.37396E-02 1.95497E-04-3.06345E-05 1.65424E-05 2.57774E-04
 -1      3708 1.72758E-01-3.68197E-02 1.40492E-04-3.40186E-05 2.20719E-05 3.18578E-04
 -1      3710 1.79717E-01-4.35949E-02 1.56074E-04-3.69371E-05-2.34117E-05-3.40966E-04
 -1      3711 1.76150E-01-4.02135E-02 2.15208E-04-3.35789E-05-1.73896E-05-2.74616E-04
 -1      3713 1.79818E-01-4.34945E-02 3.88090E-04-3.21813E-05-1.27543E-05-2.39734E-04
 -1      3714 1.76222E-01-4.01408E-02 3.83478E-04-3.04008E-05-9.38581E-06-1.90527E-04
 -1      3716 1.79883E-01-4.34291E-02 5.39735E-04-2.96807E-05-6.65578E-06-1.61871E-04
 -1      3717 1.76273E-01-4.00907E-02 5.00074E-04-2.87639E-05-4.74180E-06-1.24484E-04
 -1      3719 1.79925E-01-4.33873E-02 6.37192E-04-2.84465E-05-3.15524E-06-9.98368E-05
 -1      3720 1.76304E-01-4.00596E-02 5.72624E-04-2.79856E-05-2.14009E-06-7.02536E-05
 -1      3722 1.79949E-01-4.33639E-02 6.91916E-04-2.79033E-05-1.22541E-06-4.75847E-05
 -1      3723 1.76319E-01-4.00447E-02 6.07328E-04-2.76824E-05-6.02277E-07-2.26985E-05
 -1      3725 1.79956E-01-4.33563E-02 7.09570E-04-2.77529E-05-2.02571E-14 8.50641E-16
 -1      3726 1.76319E-01-4.00447E-02 6.07328E-04-2.76824E-05 6.02277E-07 2.26985E-05
 -1      3728 1.79949E-01-4.33639E-02 6.91916E-04-2.79033E-05 1.22541E-06 4.75847E-05
 -1      3729 1.76304E-01-4.00596E-02 5.72624E-04-2.79856E-05 2.14009E-06 7.02536E-05
 -1      3731 1.79925E-01-4.33873E-02 6.37192E-04-2.84465E-05 3.15524E-06 9.98368E-05
 -1      3732 1.76273E-01-4.00907E-02 5.00074E-04-2.87639E-05 4.74180E-06 1.24484E-04
 -1      3734 1.79883E-01-4.34291E-02 5.39735E-04-2.96807E-05 6.65578E-06 1.61871E-04
 -1      3735 1.76222E-01-4.01408E-02 3.83478E-04-3.04008E-05 9.38581E-06 1.90527E-04
 -1      3737 1.79818E-01-4.34945E-02 3.88090E-04-3.21813E-05 1.27543E-05 2.39734E-04
 -1      3738 1.76150E-01-4.02135E-02 2.15208E-04-3.35789E-05 1.73896E-05 2.74616E-04
 -1      3740 1.79717E-01-4.35949E-02 1.56074E-04-3.69371E-05 2.34117E-05 3.40966E-04
 -1      3742 1.87384E-01-5.10587E-02 1.73781E-04-3.98135E-05-2.48623E-05-3.65346E-04
 -1      3743 1.83449E-01-4.73357E-02 2.37331E-04-3.62861E-05-1.82817E-05-2.92709E-04
 -1      3745 1.87495E-01-5.09478E-02 4.30391E-04-3.45663E-05-1.31484E-05-2.54862E-04
 -1      3746 1.83529E-01-4.72560E-02 4.22073E-04-3.28330E-05-9.56513E-06-2.01658E-04
 -1      3748 1.87567E-01-5.08762E-02 5.96613E-04-3.18891E-05-6.62112E-06-1.70940E-04
 -1      3749 1.83584E-01-4.72014E-02 5.49366E-04-3.11126E-05-4.64686E-06-1.31008E-04
 -1      3751 1.87613E-01-5.08307E-02 7.02750E-04-3.06162E-05-2.99662E-06-1.04891E-04
 -1      3752 1.83618E-01-4.71676E-02 6.28204E-04-3.03266E-05-2.00954E-06-7.36382E-05
 -1      3754 1.87638E-01-5.08053E-02 7.62089E-04-3.00789E-05-1.11158E-06-4.98323E-05
 -1      3755 1.83634E-01-4.71515E-02 6.65803E-04-3.00321E-05-5.47751E-07-2.37423E-05
 -1      3757 1.87647E-01-5.07971E-02 7.81190E-04-2.99349E-05-7.08914E-15-3.34264E-15
 -1      3758 1.83634E-01-4.71515E-02 6.65803E-04-3.00321E-05 5.47751E-07 2.37423E-05
 -1      3760 1.87638E-01-5.08053E-02 7.62089E-04-3.00789E-05 1.11158E-06 4.98323E-05
 -1      3761 1.83618E-01-4.71676E-02 6.28204E-04-3.03266E-05 2.00954E-06 7.36382E-05
 -1      3763 1.87613E-01-5.08307E-02 7.02750E-04-3.06162E-05 2.99662E-06 1.04891E-04
 -1      3764 1.83584E-01-4.72014E-02 5.49366E-04-3.11126E-05 4.64686E-06 1.31008E-04
 -1      3766 1.87567E-01-5.08762E-02 5.96613E-04-3.18891E-05 6.62112E-06 1.70940E-04
 -1      3767 1.83529E-01-4.72560E-02 4.22073E-04-3.28330E-05 9.56513E-06 2.01658E-04
 -1      3769 1.87495E-01-5.09478E-02 4.30391E-04-3.45663E-05 1.31484E-05 2.54862E-04
 -1      3770 1.83449E-01-4.73357E-02 2.37331E-04-3.62861E-05 1.82817E-05 2.92709E-04
 -1      3772 1.87384E-01-5.10587E-02 1.73781E-04-3.98135E-05 2.48623E-05 3.65346E-04
 -1      3774 1.95859E-01-5.93071E-02 1.94052E-04-4.28415E-05-2.64287E-05-3.92025E-04
 -1      3775 1.91503E-01-5.51951E-02 2.62291E-04-3.90384E-05-1.92207E-05-3.12263E-04
 -1      3777 1.95982E-01-5.91841E-02 4.78564E-04-3.70581E-05-1.35311E-05-2.71137E-04
 -1      3778 1.91591E-01-5.51076E-02 4.65457E-04-3.53035E-05-9.71932E-06-2.13484E-04
 -1      3780 1.96060E-01-5.91056E-02 6.61063E-04-3.42042E-05-6.54291E-06-1.80529E-04
 -1      3781 1.91651E-01-5.50478E-02 6.04590E-04-3.35119E-05-4.51192E-06-1.37828E-04
 -1      3783 1.96110E-01-5.90560E-02 7.76768E-04-3.29052E-05-2.79649E-06-1.10152E-04
 -1      3784 1.91688E-01-5.50111E-02 6.90323E-04-3.27321E-05-1.84919E-06-7.71284E-05
 -1      3786 1.96138E-01-5.90285E-02 8.41146E-04-3.23852E-05-9.74537E-07-5.21450E-05
 -1      3787 1.91705E-01-5.49937E-02 7.31076E-04-3.24544E-05-4.82536E-07-2.48102E-05
 -1      3789 1.96147E-01-5.90197E-02 8.61818E-04-3.22517E-05 4.59154E-14 4.75553E-16
 -1      3790 1.91705E-01-5.49937E-02 7.31076E-04-3.24544E-05 4.82536E-07 2.48102E-05
 -1      3792 1.96138E-01-5.90285E-02 8.41146E-04-3.23852E-05 9.74537E-07 5.21450E-05
 -1      3793 1.91688E-01-5.50111E-02 6.90323E-04-3.27321E-05 1.84919E-06 7.71284E-05
 -1      3795 1.96110E-01-5.90560E-02 7.76768E-04-3.29052E-05 2.79649E-06 1.10152E-04
 -1      3796 1.91651E-01-5.50478E-02 6.04590E-04-3.35119E-05 4.51192E-06 1.37828E-04
 -1      3798 1.96060E-01-5.91056E-02 6.61063E-04-3.42042E-05 6.54291E-06 1.80529E-04
 -1      3799 1.91591E-01-5.51076E-02 4.65457E-04-3.53035E-05 9.71932E-06 2.13484E-04
 -1      3801 1.95982E-01-5.91841E-02 4.78564E-04-3.70581E-05 1.35311E-05 2.71137E-04
 -1      3802 1.91503E-01-5.51951E-02 2.62291E-04-3.90384E-05 1.92207E-05 3.12263E-04
 -1      3804 1.95859E-01-5.93071E-02 1.94052E-04-4.28415E-05 2.64287E-05 3.92025E-04
 -1      3806 2.05258E-01-6.84536E-02 2.17392E-04-4.61284E-05-2.81191E-05-4.21326E-04
 -1      3807 2.00420E-01-6.38967E-02 2.90568E-04-4.19817E-05-2.02078E-05-3.33466E-04
 -1      3809 2.05395E-01-6.83170E-02 5.33697E-04-3.97513E-05-1.38890E-05-2.88681E-04
 -1      3810 2.00517E-01-6.38003E-02 5.14419E-04-3.79518E-05-9.83628E-06-2.26073E-04
 -1      3812 2.05481E-01-6.82306E-02 7.34420E-04-3.67196E-05-6.40618E-06-1.90671E-04
 -1      3813 2.00582E-01-6.37349E-02 6.66693E-04-3.61011E-05-4.32417E-06-1.44956E-04
 -1      3815 2.05535E-01-6.81765E-02 8.60688E-04-3.54093E-05-2.54363E-06-1.15618E-04
 -1      3816 2.00622E-01-6.36950E-02 7.59999E-04-3.53427E-05-1.65056E-06-8.07205E-05
 -1      3818 2.05565E-01-6.81467E-02 9.30569E-04-3.49199E-05-8.08513E-07-5.45157E-05
 -1      3819 2.00641E-01-6.36762E-02 8.04190E-04-3.50911E-05-4.03753E-07-2.58993E-05
 -1      3821 2.05575E-01-6.81371E-02 9.52947E-04-3.48021E-05 3.86490E-14 5.51149E-15
 -1      3822 2.00641E-01-6.36762E-02 8.04190E-04-3.50911E-05 4.03753E-07 2.58993E-05
 -1      3824 2.05565E-01-6.81467E-02 9.30569E-04-3.49199E-05 8.08513E-07 5.45157E-05
 -1      3825 2.00622E-01-6.36950E-02 7.59999E-04-3.53427E-05 1.65056E-06 8.07205E-05
 -1      3827 2.05535E-01-6.81765E-02 8.60688E-04-3.54093E-05 2.54363E-06 1.15618E-04
 -1      3828 2.00582E-01-6.37349E-02 6.66693E-04-3.61011E-05 4.32417E-06 1.44956E-04
 -1      3830 2.05481E-01-6.82306E-02 7.34420E-04-3.67196E-05 6.40618E-06 1.90671E-04
 -1      3831 2.00517E-01-6.38003E-02 5.14419E-04-3.79518E-05 9.83628E-06 2.26073E-04
 -1      3833 2.05395E-01-6.83170E-02 5.33697E-04-3.97513E-05 1.38890E-05 2.88681E-04
 -1      3834 2.00420E-01-6.38967E-02 2.90568E-04-4.19817E-05 2.02078E-05 3.33466E-04
 -1      3836 2.05258E-01-6.84536E-02 2.17392E-04-4.61284E-05 2.81191E-05 4.21326E-04
 -1      3838 2.15721E-01-7.86334E-02 2.44411E-04-4.97463E-05-2.99434E-05-4.53606E-04
 -1      3839 2.10327E-01-7.35651E-02 3.22724E-04-4.52033E-05-2.12441E-05-3.56512E-04
 -1      3841 2.15874E-01-7.84811E-02 5.97096E-04-4.27074E-05-1.42086E-05-3.07618E-04
 -1      3842 2.10434E-01-7.34586E-02 5.69872E-04-4.08627E-05-9.90407E-06-2.39478E-04
 -1      3844 2.15969E-01-7.83860E-02 8.18276E-04-3.94982E-05-6.19672E-06-2.01385E-04
 -1      3845 2.10506E-01-7.33871E-02 7.36759E-04-3.89679E-05-4.07179E-06-1.52391E-04
 -1      3847 2.16028E-01-7.83269E-02 9.56214E-04-3.81956E-05-2.22774E-06-1.21275E-04
 -1      3848 2.10549E-01-7.33437E-02 8.38386E-04-3.82495E-05-1.40613E-06-8.44010E-05
 -1      3850 2.16061E-01-7.82945E-02 1.03210E-03-3.77531E-05-6.08461E-07-5.69317E-05
 -1      3851 2.10570E-01-7.33232E-02 8.86323E-04-3.80352E-05-3.08879E-07-2.70033E-05
 -1      3853 2.16071E-01-7.82842E-02 1.05633E-03-3.76569E-05 1.46178E-14 4.78261E-15
 -1      3854 2.10570E-01-7.33232E-02 8.86323E-04-3.80352E-05 3.08879E-07 2.70033E-05
 -1      3856 2.16061E-01-7.82945E-02 1.03210E-03-3.77531E-05 6.08461E-07 5.69317E-05
 -1      3857 2.10549E-01-7.33437E-02 8.38386E-04-3.82495E-05 1.40613E-06 8.44010E-05
 -1      3859 2.16028E-01-7.83269E-02 9.56214E-04-3.81956E-05 2.22774E-06 1.21275E-04
 -1      3860 2.10506E-01-7.33871E-02 7.36759E-04-3.89679E-05 4.07179E-06 1.52391E-04
 -1      3862 2.15969E-01-7.83860E-02 8.18276E-04-3.94982E-05 6.19672E-06 2.01385E-04
 -1      3863 2.10434E-01-7.34586E-02 5.69872E-04-4.08627E-05 9.90407E-06 2.39478E-04
 -1      3865 2.15874E-01-7.84811E-02 5.97096E-04-4.27074E-05 1.42086E-05 3.07618E-04
 -1      3866 2.10327E-01-7.35651E-02 3.22724E-04-4.52033E-05 2.12441E-05 3.56512E-04
 -1      3868 2.15721E-01-7.86334E-02 2.44411E-04-4.97463E-05 2.99434E-05 4.53606E-04
 -1      3870 2.27416E-01-9.00080E-02 2.75859E-04-5.37563E-05-3.19129E-05-4.89281E-04
 -1      3871 2.21378E-01-8.43489E-02 3.59427E-04-4.87691E-05-2.23304E-05-3.81609E-04
 -1      3873 2.27587E-01-8.98377E-02 6.70354E-04-4.59772E-05-1.44746E-05-3.28081E-04
 -1      3874 2.21495E-01-8.42312E-02 6.32891E-04-4.41022E-05-9.90987E-06-2.53746E-04
 -1      3876 2.27692E-01-8.97327E-02 9.14556E-04-4.25944E-05-5.89956E-06-2.12685E-04
 -1      3877 2.21574E-01-8.41527E-02 8.16052E-04-4.21834E-05-3.74264E-06-1.60121E-04
 -1      3879 2.27757E-01-8.96682E-02 1.06539E-03-4.13236E-05-1.83846E-06-1.27101E-04
 -1      3880 2.21622E-01-8.41054E-02 9.26824E-04-4.15280E-05-1.10856E-06-8.81480E-05
 -1      3882 2.27792E-01-8.96330E-02 1.14783E-03-4.09483E-05-3.69486E-07-5.93741E-05
 -1      3883 2.21644E-01-8.40833E-02 9.78839E-04-4.13644E-05-1.95533E-07-2.81127E-05
 -1      3885 2.27803E-01-8.96219E-02 1.17406E-03-4.08814E-05-3.61338E-14 1.30132E-14
 -1      3886 2.21644E-01-8.40833E-02 9.78839E-04-4.13644E-05 1.95533E-07 2.81127E-05
 -1      3888 2.27792E-01-8.96330E-02 1.14783E-03-4.09483E-05 3.69486E-07 5.93741E-05
 -1      3889 2.21622E-01-8.41054E-02 9.26824E-04-4.15280E-05 1.10856E-06 8.81480E-05
 -1      3891 2.27757E-01-8.96682E-02 1.06539E-03-4.13236E-05 1.83846E-06 1.27101E-04
 -1      3892 2.21574E-01-8.41527E-02 8.16052E-04-4.21834E-05 3.74264E-06 1.60121E-04
 -1      3894 2.27692E-01-8.97327E-02 9.14556E-04-4.25944E-05 5.89956E-06 2.12685E-04
 -1      3895 2.21495E-01-8.42312E-02 6.32891E-04-4.41022E-05 9.90987E-06 2.53746E-04
 -1      3897 2.27587E-01-8.98377E-02 6.70354E-04-4.59772E-05 1.44746E-05 3.28081E-04
 -1      3898 2.21378E-01-8.43489E-02 3.59427E-04-4.87691E-05 2.23304E-05 3.81609E-04
 -1      3900 2.27416E-01-9.00080E-02 2.75859E-04-5.37563E-05 3.19129E-05 4.89281E-04
 -1      3902 2.40544E-01-1.02772E-01 3.12672E-04-5.82208E-05-3.40401E-05-5.28835E-04
 -1      3903 2.33753E-01-9.64267E-02 4.01486E-04-5.27417E-05-2.34674E-05-4.08989E-04
 -1      3905 2.40735E-01-1.02581E-01 7.55450E-04-4.96117E-05-1.46684E-05-3.50212E-04
 -1      3906 2.33884E-01-9.62962E-02 7.04765E-04-4.77344E-05-9.83911E-06-2.68920E-04
 -1      3908 2.40851E-01-1.02465E-01 1.02562E-03-4.60642E-05-5.49807E-06-2.24578E-04
 -1      3909 2.33970E-01-9.62100E-02 9.06074E-04-4.58183E-05-3.32364E-06-1.68121E-04
 -1      3911 2.40922E-01-1.02394E-01 1.19073E-03-4.48567E-05-1.36482E-06-1.33064E-04
 -1      3912 2.34022E-01-9.61585E-02 1.02689E-03-4.52547E-05-7.50311E-07-9.19303E-05
 -1      3914 2.40960E-01-1.02356E-01 1.28030E-03-4.45737E-05-8.66593E-08-6.18179E-05
 -1      3915 2.34046E-01-9.61344E-02 1.08334E-03-4.51583E-05-6.13369E-08-2.92149E-05
 -1      3917 2.40973E-01-1.02344E-01 1.30869E-03-4.45450E-05 7.81715E-15-5.94998E-16
 -1      3918 2.34046E-01-9.61344E-02 1.08334E-03-4.51583E-05 6.13369E-08 2.92149E-05
 -1      3920 2.40960E-01-1.02356E-01 1.28030E-03-4.45737E-05 8.66593E-08 6.18179E-05
 -1      3921 2.34022E-01-9.61585E-02 1.02689E-03-4.52547E-05 7.50310E-07 9.19303E-05
 -1      3923 2.40922E-01-1.02394E-01 1.19073E-03-4.48567E-05 1.36482E-06 1.33064E-04
 -1      3924 2.33970E-01-9.62100E-02 9.06074E-04-4.58183E-05 3.32364E-06 1.68121E-04
 -1      3926 2.40851E-01-1.02465E-01 1.02562E-03-4.60642E-05 5.49807E-06 2.24578E-04
 -1      3927 2.33884E-01-9.62962E-02 7.04765E-04-4.77344E-05 9.83911E-06 2.68920E-04
 -1      3929 2.40735E-01-1.02581E-01 7.55450E-04-4.96117E-05 1.46684E-05 3.50212E-04
 -1      3930 2.33753E-01-9.64267E-02 4.01486E-04-5.27417E-05 2.34674E-05 4.08989E-04
 -1      3932 2.40544E-01-1.02772E-01 3.12672E-04-5.82208E-05 3.40401E-05 5.28835E-04
 -1      3934 2.55347E-01-1.17161E-01 3.56038E-04-6.32093E-05-3.63385E-05-5.72850E-04
 -1      3935 2.47675E-01-1.10014E-01 4.49888E-04-5.71891E-05-2.46552E-05-4.38917E-04
 -1      3937 2.55563E-01-1.16946E-01 8.54856E-04-5.36677E-05-1.47672E-05-3.74169E-04
 -1      3938 2.47820E-01-1.09869E-01 7.87046E-04-5.18308E-05-9.67492E-06-2.85036E-04
 -1      3940 2.55692E-01-1.16817E-01 1.15441E-03-4.99717E-05-4.97338E-06-2.37055E-04
 -1      3941 2.47915E-01-1.09774E-01 1.00862E-03-4.99532E-05-2.80037E-06-1.76356E-04
 -1      3943 2.55769E-01-1.16740E-01 1.33528E-03-4.88678E-05-7.95138E-07-1.39118E-04
 -1      3944 2.47972E-01-1.09718E-01 1.14047E-03-4.95171E-05-3.23509E-07-9.57065E-05
 -1      3946 2.55811E-01-1.16698E-01 1.43260E-03-4.87078E-05 2.44998E-07-6.42301E-05
 -1      3947 2.47998E-01-1.09692E-01 1.20172E-03-4.95079E-05 9.61043E-08-3.02934E-05
 -1      3949 2.55824E-01-1.16685E-01 1.46331E-03-4.87283E-05 1.77976E-14 1.81066E-15
 -1      3950 2.47998E-01-1.09692E-01 1.20172E-03-4.95079E-05-9.61043E-08 3.02934E-05
 -1      3952 2.55811E-01-1.16698E-01 1.43260E-03-4.87078E-05-2.44998E-07 6.42301E-05
 -1      3953 2.47972E-01-1.09718E-01 1.14047E-03-4.95171E-05 3.23509E-07 9.57065E-05
 -1      3955 2.55769E-01-1.16740E-01 1.33528E-03-4.88678E-05 7.95138E-07 1.39118E-04
 -1      3956 2.47915E-01-1.09774E-01 1.00862E-03-4.99532E-05 2.80037E-06 1.76356E-04
 -1      3958 2.55692E-01-1.16817E-01 1.15441E-03-4.99717E-05 4.97338E-06 2.37055E-04
 -1      3959 2.47820E-01-1.09869E-01 7.87046E-04-5.18308E-05 9.67492E-06 2.85036E-04
 -1      3961 2.55563E-01-1.16946E-01 8.54856E-04-5.36677E-05 1.47672E-05 3.74169E-04
 -1      3962 2.47675E-01-1.10014E-01 4.49888E-04-5.71891E-05 2.46552E-05 4.38917E-04
 -1      3964 2.55347E-01-1.17161E-01 3.56038E-04-6.32093E-05 3.63385E-05 5.72850E-04
 -1      3966 2.72126E-01-1.33463E-01 4.07471E-04-6.88031E-05-3.88213E-05-6.22017E-04
 -1      3967 2.63412E-01-1.25374E-01 5.05840E-04-6.21912E-05-2.58936E-05-4.71692E-04
 -1      3969 2.72370E-01-1.33219E-01 9.71702E-04-5.82116E-05-1.47417E-05-4.00124E-04
 -1      3970 2.63574E-01-1.25212E-01 8.81623E-04-5.64767E-05-9.39759E-06-3.02123E-04
 -1      3972 2.72513E-01-1.33077E-01 1.30457E-03-5.43927E-05-4.30401E-06-2.50097E-04
 -1      3973 2.63678E-01-1.25108E-01 1.12585E-03-5.46849E-05-2.15692E-06-1.84768E-04
 -1      3975 2.72598E-01-1.32992E-01 1.50289E-03-5.34438E-05-1.16977E-07-1.45198E-04
 -1      3976 2.63740E-01-1.25046E-01 1.26978E-03-5.44203E-05 1.79971E-07-9.94221E-05
 -1      3978 2.72643E-01-1.32947E-01 1.60859E-03-5.34445E-05 6.30385E-07-6.65679E-05
 -1      3979 2.63768E-01-1.25018E-01 1.33622E-03-5.45224E-05 2.79150E-07-3.13274E-05
 -1      3981 2.72657E-01-1.32933E-01 1.64178E-03-5.35274E-05-7.35243E-15 4.27237E-15
 -1      3982 2.63768E-01-1.25018E-01 1.33622E-03-5.45224E-05-2.79150E-07 3.13274E-05
 -1      3984 2.72643E-01-1.32947E-01 1.60859E-03-5.34445E-05-6.30385E-07 6.65679E-05
 -1      3985 2.63740E-01-1.25046E-01 1.26978E-03-5.44203E-05-1.79971E-07 9.94221E-05
 -1      3987 2.72598E-01-1.32992E-01 1.50289E-03-5.34438E-05 1.16977E-07 1.45198E-04
 -1      3988 2.63678E-01-1.25108E-01 1.12585E-03-5.46849E-05 2.15692E-06 1.84768E-04
 -1      3990 2.72513E-01-1.33077E-01 1.30457E-03-5.43927E-05 4.30401E-06 2.50097E-04
 -1      3991 2.63574E-01-1.25212E-01 8.81623E-04-5.64767E-05 9.39759E-06 3.02123E-04
 -1      3993 2.72370E-01-1.33219E-01 9.71702E-04-5.82116E-05 1.47417E-05 4.00124E-04
 -1      3994 2.63412E-01-1.25374E-01 5.05840E-04-6.21912E-05 2.58936E-05 4.71692E-04
 -1      3996 2.72126E-01-1.33463E-01 4.07471E-04-6.88031E-05 3.88213E-05 6.22017E-04
 -1      3998 2.91247E-01-1.52032E-01 4.68930E-04-7.50988E-05-4.15017E-05-6.77178E-04
 -1      3999 2.81293E-01-1.42828E-01 5.70838E-04-6.78448E-05-2.71812E-05-5.07658E-04
 -1      4001 2.91524E-01-1.51756E-01 1.10999E-03-6.33227E-05-1.45549E-05-4.28264E-04
 -1      4002 2.81474E-01-1.42647E-01 9.90803E-04-6.17770E-05-8.98409E-06-3.20197E-04
 -1      4004 2.91683E-01-1.51597E-01 1.48077E-03-5.94197E-05-3.46543E-06-2.63663E-04
 -1      4005 2.81589E-01-1.42532E-01 1.26037E-03-6.01325E-05-1.37587E-06-1.93282E-04
 -1      4007 2.91776E-01-1.51504E-01 1.69835E-03-5.86905E-05 6.82628E-07-1.51221E-04
 -1      4008 2.81657E-01-1.42465E-01 1.41753E-03-6.00938E-05 7.68288E-07-1.03007E-04
 -1      4010 2.91825E-01-1.51455E-01 1.81307E-03-5.88975E-05 1.07404E-06-6.87775E-05
 -1      4011 2.81687E-01-1.42435E-01 1.48956E-03-6.03359E-05 4.90007E-07-3.22905E-05
 -1      4013 2.91841E-01-1.51440E-01 1.84890E-03-5.90585E-05-9.89558E-15 8.99580E-15
 -1      4014 2.81687E-01-1.42435E-01 1.48956E-03-6.03359E-05-4.90007E-07 3.22905E-05
 -1      4016 2.91825E-01-1.51455E-01 1.81307E-03-5.88975E-05-1.07404E-06 6.87775E-05
 -1      4017 2.81657E-01-1.42465E-01 1.41753E-03-6.00938E-05-7.68288E-07 1.03007E-04
 -1      4019 2.91776E-01-1.51504E-01 1.69835E-03-5.86905E-05-6.82628E-07 1.51221E-04
 -1      4020 2.81589E-01-1.42532E-01 1.26037E-03-6.01325E-05 1.37587E-06 1.93282E-04
 -1      4022 2.91683E-01-1.51597E-01 1.48077E-03-5.94197E-05 3.46543E-06 2.63663E-04
 -1      4023 2.81474E-01-1.42647E-01 9.90803E-04-6.17770E-05 8.98409E-06 3.20197E-04
 -1      4025 2.91524E-01-1.51756E-01 1.10999E-03-6.33227E-05 1.45549E-05 4.28264E-04
 -1      4026 2.81293E-01-1.42828E-01 5.70838E-04-6.78448E-05 2.71812E-05 5.07658E-04
 -1      4028 2.91247E-01-1.52032E-01 4.68930E-04-7.50988E-05 4.15017E-05 6.77178E-04
 -1      4030 3.13167E-01-1.73309E-01 5.42979E-04-8.22125E-05-4.43902E-05-7.39355E-04
 -1      4031 3.01727E-01-1.62775E-01 6.46743E-04-7.42691E-05-2.85162E-05-5.47210E-04
 -1      4033 3.13483E-01-1.72994E-01 1.27488E-03-6.90967E-05-1.41585E-05-4.58793E-04
 -1      4034 3.01929E-01-1.62573E-01 1.11743E-03-6.78632E-05-8.40755E-06-3.39253E-04
 -1      4036 3.13661E-01-1.72816E-01 1.68892E-03-6.51654E-05-2.42992E-06-2.77685E-04
 -1      4037 3.02057E-01-1.62446E-01 1.41538E-03-6.64455E-05-4.38438E-07-2.01793E-04
 -1      4039 3.13763E-01-1.72715E-01 1.92775E-03-6.47374E-05 1.61663E-06-1.57076E-04
 -1      4040 3.02131E-01-1.62373E-01 1.58697E-03-6.66989E-05 1.44920E-06-1.06373E-04
 -1      4042 3.13816E-01-1.72662E-01 2.05216E-03-6.52058E-05 1.57974E-06-7.07906E-05
 -1      4043 3.02164E-01-1.62340E-01 1.66495E-03-6.71152E-05 7.30536E-07-3.31500E-05
 -1      4045 3.13833E-01-1.72645E-01 2.09076E-03-6.54634E-05-5.96659E-14-2.81216E-15
 -1      4046 3.02164E-01-1.62340E-01 1.66495E-03-6.71152E-05-7.30536E-07 3.31500E-05
 -1      4048 3.13816E-01-1.72662E-01 2.05216E-03-6.52058E-05-1.57974E-06 7.07906E-05
 -1      4049 3.02131E-01-1.62373E-01 1.58697E-03-6.66989E-05-1.44920E-06 1.06373E-04
 -1      4051 3.13763E-01-1.72715E-01 1.92775E-03-6.47374E-05-1.61663E-06 1.57076E-04
 -1      4052 3.02057E-01-1.62446E-01 1.41538E-03-6.64455E-05 4.38438E-07 2.01793E-04
 -1      4054 3.13661E-01-1.72816E-01 1.68892E-03-6.51654E-05 2.42992E-06 2.77685E-04
 -1      4055 3.01929E-01-1.62573E-01 1.11743E-03-6.78632E-05 8.40755E-06 3.39253E-04
 -1      4057 3.13483E-01-1.72994E-01 1.27488E-03-6.90967E-05 1.41585E-05 4.58793E-04
 -1      4058 3.01727E-01-1.62775E-01 6.46743E-04-7.42691E-05 2.85162E-05 5.47210E-04
 -1      4060 3.13167E-01-1.73309E-01 5.42979E-04-8.22125E-05 4.43902E-05 7.39355E-04
 -1      4062 3.38461E-01-1.97848E-01 6.33014E-04-9.02852E-05-4.74928E-05-8.09809E-04
 -1      4063 3.25223E-01-1.85715E-01 7.35896E-04-8.16134E-05-2.98950E-05-5.90800E-04
 -1      4065 3.38824E-01-1.97486E-01 1.47317E-03-7.56502E-05-1.34896E-05-4.91930E-04
 -1      4066 3.25451E-01-1.85488E-01 1.26504E-03-7.49021E-05-7.63706E-06-3.59261E-04
 -1      4068 3.39023E-01-1.97287E-01 1.93673E-03-7.17694E-05-1.16682E-06-2.92057E-04
 -1      4069 3.25592E-01-1.85347E-01 1.59477E-03-7.38137E-05 6.75035E-07-2.10160E-04
 -1      4071 3.39135E-01-1.97175E-01 2.19896E-03-7.17446E-05 2.69719E-06-1.62619E-04
 -1      4072 3.25672E-01-1.85268E-01 1.78203E-03-7.44393E-05 2.22923E-06-1.09407E-04
 -1      4074 3.39193E-01-1.97118E-01 2.33364E-03-7.25400E-05 2.14945E-06-7.25224E-05
 -1      4075 3.25708E-01-1.85232E-01 1.86634E-03-7.50700E-05 1.00187E-06-3.38656E-05
 -1      4077 3.39210E-01-1.97100E-01 2.37513E-03-7.29160E-05-6.99652E-15-9.08587E-16
 -1      4078 3.25708E-01-1.85232E-01 1.86634E-03-7.50700E-05-1.00187E-06 3.38656E-05
 -1      4080 3.39193E-01-1.97118E-01 2.33364E-03-7.25400E-05-2.14945E-06 7.25224E-05
 -1      4081 3.25672E-01-1.85268E-01 1.78203E-03-7.44393E-05-2.22923E-06 1.09407E-04
 -1      4083 3.39135E-01-1.97175E-01 2.19896E-03-7.17446E-05-2.69719E-06 1.62619E-04
 -1      4084 3.25592E-01-1.85347E-01 1.59477E-03-7.38137E-05-6.75035E-07 2.10160E-04
 -1      4086 3.39023E-01-1.97287E-01 1.93673E-03-7.17694E-05 1.16682E-06 2.92057E-04
 -1      4087 3.25451E-01-1.85488E-01 1.26504E-03-7.49021E-05 7.63706E-06 3.59261E-04
 -1      4089 3.38824E-01-1.97486E-01 1.47317E-03-7.56502E-05 1.34896E-05 4.91930E-04
 -1      4090 3.25223E-01-1.85715E-01 7.35896E-04-8.16134E-05 2.98950E-05 5.90800E-04
 -1      4092 3.38461E-01-1.97848E-01 6.33014E-04-9.02852E-05 4.74928E-05 8.09809E-04
 -1      4094 3.67859E-01-2.26348E-01 7.43605E-04-9.94890E-05-5.08067E-05-8.90106E-04
 -1      4095 3.52426E-01-2.12277E-01 8.41262E-04-9.00675E-05-3.13133E-05-6.38948E-04
 -1      4097 3.68278E-01-2.25931E-01 1.71383E-03-8.31263E-05-1.24660E-05-5.27904E-04
 -1      4098 3.52683E-01-2.12022E-01 1.43803E-03-8.31082E-05-6.63712E-06-3.80151E-04
 -1      4100 3.68501E-01-2.25708E-01 2.23429E-03-7.94056E-05 3.57274E-07-3.06626E-04
 -1      4101 3.52839E-01-2.11866E-01 1.80336E-03-8.24804E-05 1.98356E-06-2.18196E-04
 -1      4103 3.68624E-01-2.25585E-01 2.52221E-03-7.99108E-05 3.93247E-06-1.67667E-04
 -1      4104 3.52926E-01-2.11779E-01 2.00755E-03-8.35746E-05 3.11210E-06-1.11970E-04
 -1      4106 3.68686E-01-2.25523E-01 2.66770E-03-8.11107E-05 2.78237E-06-7.38682E-05
 -1      4107 3.52965E-01-2.11741E-01 2.09849E-03-8.44661E-05 1.30392E-06-3.43884E-05
 -1      4109 3.68705E-01-2.25504E-01 2.71212E-03-8.16300E-05-1.92373E-14 3.41661E-15
 -1      4110 3.52965E-01-2.11741E-01 2.09849E-03-8.44661E-05-1.30392E-06 3.43884E-05
 -1      4112 3.68686E-01-2.25523E-01 2.66770E-03-8.11107E-05-2.78237E-06 7.38682E-05
 -1      4113 3.52926E-01-2.11779E-01 2.00755E-03-8.35746E-05-3.11210E-06 1.11970E-04
 -1      4115 3.68624E-01-2.25585E-01 2.52221E-03-7.99108E-05-3.93247E-06 1.67667E-04
 -1      4116 3.52839E-01-2.11866E-01 1.80336E-03-8.24804E-05-1.98356E-06 2.18196E-04
 -1      4118 3.68501E-01-2.25708E-01 2.23429E-03-7.94056E-05-3.57274E-07 3.06626E-04
 -1      4119 3.52683E-01-2.12022E-01 1.43803E-03-8.31082E-05 6.63712E-06 3.80151E-04
 -1      4121 3.68278E-01-2.25931E-01 1.71383E-03-8.31263E-05 1.24660E-05 5.27904E-04
 -1      4122 3.52426E-01-2.12277E-01 8.41262E-04-9.00675E-05 3.13133E-05 6.38948E-04
 -1      4124 3.67859E-01-2.26348E-01 7.43605E-04-9.94890E-05 5.08067E-05 8.90106E-04
 -1      4126 4.02299E-01-2.59712E-01 8.80970E-04-1.10035E-04-5.43112E-05-9.82211E-04
 -1      4127 3.84158E-01-2.43267E-01 9.66631E-04-9.98755E-05-3.27652E-05-6.92244E-04
 -1      4129 4.02786E-01-2.59227E-01 2.00903E-03-9.17029E-05-1.09746E-05-5.66949E-04
 -1      4130 3.84448E-01-2.42979E-01 1.64195E-03-9.27627E-05-5.37243E-06-4.01796E-04
 -1      4132 4.03037E-01-2.58976E-01 2.59508E-03-8.82923E-05 2.17060E-06-3.21172E-04
 -1      4133 3.84621E-01-2.42806E-01 2.04712E-03-9.27614E-05 3.50289E-06-2.25657E-04
 -1      4135 4.03172E-01-2.58841E-01 2.91108E-03-8.94832E-05 5.32713E-06-1.71986E-04
 -1      4136 3.84716E-01-2.42711E-01 2.26946E-03-9.44397E-05 4.09695E-06-1.13889E-04
 -1      4138 4.03239E-01-2.58775E-01 3.06775E-03-9.11793E-05 3.47154E-06-7.47007E-05
 -1      4139 3.84758E-01-2.42670E-01 2.36723E-03-9.56452E-05 1.63429E-06-3.46596E-05
 -1      4141 4.03259E-01-2.58755E-01 3.11510E-03-9.18702E-05-1.66802E-14-1.61541E-15
 -1      4142 3.84758E-01-2.42670E-01 2.36723E-03-9.56452E-05-1.63429E-06 3.46596E-05
 -1      4144 4.03239E-01-2.58775E-01 3.06775E-03-9.11793E-05-3.47154E-06 7.47007E-05
 -1      4145 3.84716E-01-2.42711E-01 2.26946E-03-9.44397E-05-4.09695E-06 1.13889E-04
 -1      4147 4.03172E-01-2.58841E-01 2.91108E-03-8.94832E-05-5.32713E-06 1.71986E-04
 -1      4148 3.84621E-01-2.42806E-01 2.04712E-03-9.27614E-05-3.50289E-06 2.25657E-04
 -1      4150 4.03037E-01-2.58976E-01 2.59508E-03-8.82923E-05-2.17060E-06 3.21172E-04
 -1      4151 3.84448E-01-2.42979E-01 1.64195E-03-9.27627E-05 5.37243E-06 4.01796E-04
 -1      4153 4.02786E-01-2.59227E-01 2.00903E-03-9.17029E-05 1.09746E-05 5.66949E-04
 -1      4154 3.84158E-01-2.43267E-01 9.66631E-04-9.98755E-05 3.27652E-05 6.92244E-04
 -1      4156 4.02299E-01-2.59712E-01 8.80970E-04-1.10035E-04 5.43112E-05 9.82211E-04
 -1      4158 4.43005E-01-2.99111E-01 1.05386E-03-1.22189E-04-5.79567E-05-1.08862E-03
 -1      4159 4.21482E-01-2.79728E-01 1.11689E-03-1.11360E-04-3.42524E-05-7.51367E-04
 -1      4161 4.43575E-01-2.98543E-01 2.37530E-03-1.01597E-04-8.88639E-06-6.09289E-04
 -1      4162 4.21811E-01-2.79400E-01 1.88384E-03-1.04233E-04-3.79689E-06-4.23981E-04
 -1      4164 4.43859E-01-2.98259E-01 3.03741E-03-9.87028E-05 4.32009E-06-3.35380E-04
 -1      4165 4.22003E-01-2.79208E-01 2.33352E-03-1.05076E-04 5.24529E-06-2.32228E-04
 -1      4167 4.44007E-01-2.98112E-01 3.38388E-03-1.00777E-04 6.86704E-06-1.75281E-04
 -1      4168 4.22106E-01-2.79106E-01 2.57510E-03-1.07473E-04 5.17147E-06-1.14956E-04
 -1      4170 4.44078E-01-2.98041E-01 3.55188E-03-1.03071E-04 4.20172E-06-7.48685E-05
 -1      4171 4.22151E-01-2.79061E-01 2.67976E-03-1.09050E-04 1.98633E-06-3.46103E-05
 -1      4173 4.44099E-01-2.98019E-01 3.60205E-03-1.03963E-04 9.02249E-15 2.68230E-15
 -1      4174 4.22151E-01-2.79061E-01 2.67976E-03-1.09050E-04-1.98633E-06 3.46103E-05
 -1      4176 4.44078E-01-2.98041E-01 3.55188E-03-1.03071E-04-4.20172E-06 7.48685E-05
 -1      4177 4.22106E-01-2.79106E-01 2.57510E-03-1.07473E-04-5.17147E-06 1.14956E-04
 -1      4179 4.44007E-01-2.98112E-01 3.38388E-03-1.00777E-04-6.86704E-06 1.75281E-04
 -1      4180 4.22003E-01-2.79208E-01 2.33352E-03-1.05076E-04-5.24529E-06 2.32228E-04
 -1      4182 4.43859E-01-2.98259E-01 3.03741E-03-9.87028E-05-4.32009E-06 3.35380E-04
 -1      4183 4.21811E-01-2.79400E-01 1.88384E-03-1.04233E-04 3.79689E-06 4.23981E-04
 -1      4185 4.43575E-01-2.98543E-01 2.37530E-03-1.01597E-04 8.88639E-06 6.09289E-04
 -1      4186 4.21482E-01-2.79728E-01 1.11689E-03-1.11360E-04 3.42524E-05 7.51367E-04
 -1      4188 4.43005E-01-2.99111E-01 1.05386E-03-1.22189E-04 5.79567E-05 1.08862E-03
 -1      4190 4.91594E-01-3.46092E-01 1.27414E-03-1.36248E-04-6.16795E-05-1.21252E-03
 -1      4191 4.65794E-01-3.23027E-01 1.29844E-03-1.24928E-04-3.57391E-05-8.17037E-04
 -1      4193 4.92267E-01-3.45420E-01 2.83634E-03-1.13093E-04-5.88234E-06-6.55101E-04
 -1      4194 4.66169E-01-3.22653E-01 2.17269E-03-1.18045E-04-1.88641E-06-4.46389E-04
 -1      4196 4.92589E-01-3.45099E-01 3.58650E-03-1.11011E-04 6.77615E-06-3.48838E-04
 -1      4197 4.66382E-01-3.22441E-01 2.67193E-03-1.19981E-04 7.19604E-06-2.37504E-04
 -1      4199 4.92750E-01-3.44937E-01 3.96583E-03-1.14177E-04 8.55484E-06-1.77188E-04
 -1      4200 4.66494E-01-3.22330E-01 2.93360E-03-1.23251E-04 6.32237E-06-1.14921E-04
 -1      4202 4.92827E-01-3.44861E-01 4.14498E-03-1.17188E-04 4.96586E-06-7.41908E-05
 -1      4203 4.66541E-01-3.22282E-01 3.04500E-03-1.25266E-04 2.35423E-06-3.41606E-05
 -1      4205 4.92849E-01-3.44839E-01 4.19772E-03-1.18317E-04-6.85577E-14 1.45957E-15
 -1      4206 4.66541E-01-3.22282E-01 3.04500E-03-1.25266E-04-2.35423E-06 3.41606E-05
 -1      4208 4.92827E-01-3.44861E-01 4.14498E-03-1.17188E-04-4.96586E-06 7.41908E-05
 -1      4209 4.66494E-01-3.22330E-01 2.93360E-03-1.23251E-04-6.32237E-06 1.14921E-04
 -1      4211 4.92750E-01-3.44937E-01 3.96583E-03-1.14177E-04-8.55484E-06 1.77188E-04
 -1      4212 4.66382E-01-3.22441E-01 2.67193E-03-1.19981E-04-7.19604E-06 2.37504E-04
 -1      4214 4.92589E-01-3.45099E-01 3.58650E-03-1.11011E-04-6.77615E-06 3.48838E-04
 -1      4215 4.66169E-01-3.22653E-01 2.17269E-03-1.18045E-04 1.88641E-06 4.46389E-04
 -1      4217 4.92267E-01-3.45420E-01 2.83634E-03-1.13093E-04 5.88234E-06 6.55101E-04
 -1      4218 4.65794E-01-3.23027E-01 1.29844E-03-1.24928E-04 3.57391E-05 8.17037E-04
 -1      4220 4.91594E-01-3.46092E-01 1.27414E-03-1.36248E-04 6.16795E-05 1.21252E-03
 -1      4222 5.50243E-01-4.02728E-01 1.56162E-03-1.52748E-04-6.48944E-05-1.35816E-03
 -1      4223 5.18953E-01-3.74989E-01 1.51952E-03-1.41305E-04-3.72943E-05-8.90207E-04
 -1      4225 5.51045E-01-4.01927E-01 3.42410E-03-1.26576E-04-2.07181E-06-7.04620E-04
 -1      4226 5.19382E-01-3.74562E-01 2.52004E-03-1.34812E-04 4.29557E-07-4.68503E-04
 -1      4228 5.51411E-01-4.01561E-01 4.27820E-03-1.25549E-04 9.88084E-06-3.60890E-04
 -1      4229 5.19618E-01-3.74326E-01 3.07427E-03-1.38221E-04 9.47739E-06-2.40945E-04
 -1      4231 5.51588E-01-4.01385E-01 4.69275E-03-1.30181E-04 1.04998E-05-1.77228E-04
 -1      4232 5.19738E-01-3.74206E-01 3.35645E-03-1.42564E-04 7.57760E-06-1.13485E-04
 -1      4234 5.51668E-01-4.01305E-01 4.88237E-03-1.34058E-04 5.78236E-06-7.24599E-05
 -1      4235 5.19788E-01-3.74157E-01 3.47411E-03-1.45087E-04 2.73931E-06-3.32217E-05
 -1      4237 5.51692E-01-4.01281E-01 4.93721E-03-1.35459E-04-4.79055E-14-8.74501E-15
 -1      4238 5.19788E-01-3.74157E-01 3.47411E-03-1.45087E-04-2.73931E-06 3.32217E-05
 -1      4240 5.51668E-01-4.01305E-01 4.88237E-03-1.34058E-04-5.78236E-06 7.24599E-05
 -1      4241 5.19738E-01-3.74206E-01 3.35645E-03-1.42564E-04-7.57760E-06 1.13485E-04
 -1      4243 5.51588E-01-4.01385E-01 4.69275E-03-1.30181E-04-1.04998E-05 1.77228E-04
 -1      4244 5.19618E-01-3.74326E-01 3.07427E-03-1.38221E-04-9.47739E-06 2.40945E-04
 -1      4246 5.51411E-01-4.01561E-01 4.27820E-03-1.25549E-04-9.88084E-06 3.60890E-04
 -1      4247 5.19382E-01-3.74562E-01 2.52004E-03-1.34812E-04-4.29557E-07 4.68503E-04
 -1      4249 5.51045E-01-4.01927E-01 3.42410E-03-1.26576E-04 2.07181E-06 7.04620E-04
 -1      4250 5.18953E-01-3.74989E-01 1.51952E-03-1.41305E-04 3.72943E-05 8.90207E-04
 -1      4252 5.50243E-01-4.02728E-01 1.56162E-03-1.52748E-04 6.48944E-05 1.35816E-03
 -1      4254 6.21931E-01-4.71859E-01 1.93270E-03-1.71681E-04-6.87388E-05-1.53117E-03
 -1      4255 5.83480E-01-4.38090E-01 1.79136E-03-1.60461E-04-3.87980E-05-9.71306E-04
 -1      4257 6.22902E-01-4.70891E-01 4.18983E-03-1.41779E-04 5.92823E-06-7.57230E-04
 -1      4258 5.83972E-01-4.37602E-01 2.94111E-03-1.55590E-04 3.80057E-06-4.89529E-04
 -1      4260 6.23321E-01-4.70472E-01 5.16534E-03-1.43210E-04 1.39758E-05-3.70823E-04
 -1      4261 5.84234E-01-4.37341E-01 3.55590E-03-1.60969E-04 1.21818E-05-2.41991E-04
 -1      4263 6.23513E-01-4.70280E-01 5.61631E-03-1.49544E-04 1.28880E-05-1.75052E-04
 -1      4264 5.84362E-01-4.37212E-01 3.85825E-03-1.66513E-04 8.96204E-06-1.10396E-04
 -1      4266 6.23597E-01-4.70196E-01 5.81508E-03-1.54283E-04 6.81887E-06-6.95535E-05
 -1      4267 5.84415E-01-4.37160E-01 3.98122E-03-1.69559E-04 3.15553E-06-3.17267E-05
 -1      4269 6.23621E-01-4.70172E-01 5.87137E-03-1.55939E-04-3.72044E-14-4.57896E-15
 -1      4270 5.84415E-01-4.37160E-01 3.98122E-03-1.69559E-04-3.15553E-06 3.17267E-05
 -1      4272 6.23597E-01-4.70196E-01 5.81508E-03-1.54283E-04-6.81887E-06 6.95535E-05
 -1      4273 5.84362E-01-4.37212E-01 3.85825E-03-1.66513E-04-8.96204E-06 1.10396E-04
 -1      4275 6.23513E-01-4.70280E-01 5.61631E-03-1.49544E-04-1.28880E-05 1.75052E-04
 -1      4276 5.84234E-01-4.37341E-01 3.55590E-03-1.60969E-04-1.21818E-05 2.41991E-04
 -1      4278 6.23321E-01-4.70472E-01 5.16534E-03-1.43210E-04-1.39758E-05 3.70823E-04
 -1      4279 5.83972E-01-4.37602E-01 2.94111E-03-1.55590E-04-3.80057E-06 4.89529E-04
 -1      4281 6.22902E-01-4.70891E-01 4.18983E-03-1.41779E-04-5.92823E-06 7.57230E-04
 -1      4282 5.83480E-01-4.38090E-01 1.79136E-03-1.60461E-04 3.87980E-05 9.71306E-04
 -1      4284 6.21931E-01-4.71859E-01 1.93270E-03-1.71681E-04 6.87388E-05 1.53117E-03
 -1      4286 7.10855E-01-5.57422E-01 2.47614E-03-1.95742E-04-6.67877E-05-1.73272E-03
 -1      4287 6.62861E-01-5.15771E-01 2.13238E-03-1.87748E-04-3.64448E-05-1.06067E-03
 -1      4289 7.12035E-01-5.56238E-01 5.21366E-03-1.64960E-04 9.65528E-06-8.13147E-04
 -1      4290 6.63428E-01-5.15204E-01 3.45641E-03-1.83058E-04 7.44956E-06-5.08602E-04
 -1      4292 7.12511E-01-5.55765E-01 6.32640E-03-1.65616E-04 1.92508E-05-3.77591E-04
 -1      4293 6.63718E-01-5.14914E-01 4.13563E-03-1.89805E-04 1.58908E-05-2.39792E-04
 -1      4295 7.12717E-01-5.55564E-01 6.81400E-03-1.72913E-04 1.78683E-05-1.69607E-04
 -1      4296 6.63855E-01-5.14778E-01 4.45771E-03-1.96496E-04 1.13484E-05-1.05138E-04
 -1      4298 7.12803E-01-5.55480E-01 7.02024E-03-1.78590E-04 9.44263E-06-6.49105E-05
 -1      4299 6.63908E-01-5.14725E-01 4.58514E-03-2.00128E-04 3.97746E-06-2.95144E-05
 -1      4301 7.12827E-01-5.55457E-01 7.07705E-03-1.80590E-04-3.34052E-14 9.25896E-15
 -1      4302 6.63908E-01-5.14725E-01 4.58514E-03-2.00128E-04-3.97746E-06 2.95144E-05
 -1      4304 7.12803E-01-5.55480E-01 7.02024E-03-1.78590E-04-9.44263E-06 6.49105E-05
 -1      4305 6.63855E-01-5.14778E-01 4.45771E-03-1.96496E-04-1.13484E-05 1.05138E-04
 -1      4307 7.12717E-01-5.55564E-01 6.81400E-03-1.72913E-04-1.78683E-05 1.69607E-04
 -1      4308 6.63718E-01-5.14914E-01 4.13563E-03-1.89805E-04-1.58908E-05 2.39792E-04
 -1      4310 7.12511E-01-5.55765E-01 6.32640E-03-1.65616E-04-1.92508E-05 3.77591E-04
 -1      4311 6.63428E-01-5.15204E-01 3.45641E-03-1.83058E-04-7.44956E-06 5.08602E-04
 -1      4313 7.12035E-01-5.56238E-01 5.21366E-03-1.64960E-04-9.65528E-06 8.13147E-04
 -1      4314 6.62861E-01-5.15771E-01 2.13238E-03-1.87748E-04 3.64448E-05 1.06067E-03
 -1      4316 7.10855E-01-5.57422E-01 2.47614E-03-1.95742E-04 6.67877E-05 1.73272E-03
 -1      4318 8.22825E-01-6.65368E-01 2.93603E-03-2.27040E-04-1.75763E-05-2.03008E-03
 -1      4319 7.62028E-01-6.12860E-01 2.52530E-03-2.11874E-04-5.41597E-05-1.17330E-03
 -1      4321 8.24330E-01-6.63868E-01 6.43036E-03-1.76201E-04 7.60770E-05-8.83859E-04
 -1      4322 7.62685E-01-6.12219E-01 4.07397E-03-2.11725E-04 1.83267E-05-5.25737E-04
 -1      4324 8.24891E-01-6.63327E-01 7.76375E-03-1.89925E-04 5.83619E-05-3.78686E-04
 -1      4325 7.63005E-01-6.11910E-01 4.83793E-03-2.25907E-04 2.80169E-05-2.32074E-04
 -1      4327 8.25111E-01-6.63122E-01 8.29780E-03-2.08657E-04 3.82210E-05-1.57672E-04
 -1      4328 7.63147E-01-6.11775E-01 5.17905E-03-2.37255E-04 1.83671E-05-9.62712E-05
 -1      4330 8.25197E-01-6.63044E-01 8.50892E-03-2.20177E-04 1.78435E-05-5.70126E-05
 -1      4331 7.63200E-01-6.11726E-01 5.30753E-03-2.42842E-04 6.15566E-06-2.61469E-05
 -1      4333 8.25219E-01-6.63024E-01 8.56441E-03-2.23821E-04-1.05643E-14 1.81959E-15
 -1      4334 7.63200E-01-6.11726E-01 5.30753E-03-2.42842E-04-6.15566E-06 2.61469E-05
 -1      4336 8.25197E-01-6.63044E-01 8.50892E-03-2.20177E-04-1.78435E-05 5.70126E-05
 -1      4337 7.63147E-01-6.11775E-01 5.17905E-03-2.37255E-04-1.83671E-05 9.62712E-05
 -1      4339 8.25111E-01-6.63122E-01 8.29780E-03-2.08657E-04-3.82210E-05 1.57672E-04
 -1      4340 7.63005E-01-6.11910E-01 4.83793E-03-2.25907E-04-2.80169E-05 2.32074E-04
 -1      4342 8.24891E-01-6.63327E-01 7.76375E-03-1.89925E-04-5.83619E-05 3.78686E-04
 -1      4343 7.62685E-01-6.12219E-01 4.07397E-03-2.11725E-04-1.83267E-05 5.25737E-04
 -1      4345 8.24330E-01-6.63868E-01 6.43036E-03-1.76201E-04-7.60770E-05 8.83859E-04
 -1      4346 7.62028E-01-6.12860E-01 2.52530E-03-2.11874E-04 5.41597E-05 1.17330E-03
 -1      4348 8.22825E-01-6.65368E-01 2.93603E-03-2.27040E-04 1.75763E-05 2.03008E-03
 -1      4350 9.66148E-01-8.06633E-01 3.54507E-03-3.79629E-04 1.47525E-04-1.79208E-03
 -1      4351 8.88075E-01-7.36785E-01 3.19729E-03-4.47756E-04 7.56986E-05-1.12759E-03
 -1      4353 9.67783E-01-8.05032E-01 7.34008E-03-2.93713E-04 2.21354E-04-6.91520E-04
 -1      4354 8.88742E-01-7.36166E-01 4.81689E-03-4.85506E-04 1.04548E-04-4.57819E-04
 -1      4356 9.68299E-01-8.04592E-01 8.63927E-03-3.61007E-04 1.07416E-04-2.60947E-04
 -1      4357 8.89035E-01-7.35905E-01 5.54586E-03-5.25848E-04 6.67735E-05-1.84928E-04
 -1      4359 9.68469E-01-8.04419E-01 9.04791E-03-4.04283E-04 3.50210E-05-9.75209E-05
 -1      4360 8.89161E-01-7.35785E-01 5.85196E-03-5.47409E-04 3.08633E-05-7.15193E-05
 -1      4362 9.68527E-01-8.04353E-01 9.18112E-03-4.23057E-04 9.42747E-06-3.26467E-05
 -1      4363 8.89205E-01-7.35741E-01 5.95807E-03-5.56075E-04 8.51928E-06-1.86503E-05
 -1      4365 9.68541E-01-8.04335E-01 9.21266E-03-4.28096E-04 2.53543E-14 2.88952E-15
 -1      4366 8.89205E-01-7.35741E-01 5.95807E-03-5.56075E-04-8.51928E-06 1.86503E-05
 -1      4368 9.68527E-01-8.04353E-01 9.18112E-03-4.23057E-04-9.42747E-06 3.26467E-05
 -1      4369 8.89161E-01-7.35785E-01 5.85196E-03-5.47409E-04-3.08633E-05 7.15193E-05
 -1      4371 9.68469E-01-8.04419E-01 9.04791E-03-4.04283E-04-3.50210E-05 9.75209E-05
 -1      4372 8.89035E-01-7.35905E-01 5.54586E-03-5.25848E-04-6.67735E-05 1.84928E-04
 -1      4374 9.68299E-01-8.04592E-01 8.63927E-03-3.61007E-04-1.07416E-04 2.60947E-04
 -1      4375 8.88742E-01-7.36166E-01 4.81689E-03-4.85506E-04-1.04548E-04 4.57819E-04
 -1      4377 9.67783E-01-8.05032E-01 7.34008E-03-2.93713E-04-2.21354E-04 6.91520E-04
 -1      4378 8.88075E-01-7.36785E-01 3.19729E-03-4.47756E-04-7.56986E-05 1.12759E-03
 -1      4380 9.66148E-01-8.06633E-01 3.54507E-03-3.79629E-04-1.47525E-04 1.79208E-03
 -1      4382 1.04208E+00-9.01225E-01 1.19777E-03-1.57304E-03 1.11376E-04-7.13819E-04
 -1      4384 1.04236E+00-9.00988E-01 1.92018E-03-1.71110E-03 1.25618E-04-2.80587E-04
 -1      4386 1.04249E+00-9.00849E-01 2.26541E-03-1.79372E-03 4.03521E-05-1.10293E-04
 -1      4388 1.04255E+00-9.00780E-01 2.41874E-03-1.82918E-03 1.15474E-05-4.15666E-05
 -1      4390 1.04258E+00-9.00753E-01 2.47630E-03-1.84168E-03 2.17944E-06-1.06489E-05
 -1      4392 1.04258E+00-9.00753E-01 2.47630E-03-1.84168E-03-2.17944E-06 1.06489E-05
 -1      4394 1.04255E+00-9.00780E-01 2.41874E-03-1.82918E-03-1.15474E-05 4.15666E-05
 -1      4396 1.04249E+00-9.00849E-01 2.26541E-03-1.79372E-03-4.03521E-05 1.10293E-04
 -1      4398 1.04236E+00-9.00988E-01 1.92018E-03-1.71110E-03-1.25618E-04 2.80587E-04
 -1      4400 1.04208E+00-9.01225E-01 1.19777E-03-1.57304E-03-1.11376E-04 7.13819E-04
 -1      4403 1.08640E+00-9.35017E-01 3.72421E-03-3.28400E-01-1.50864E-04-2.38943E-05
 -1      4404 1.08705E+00-9.34254E-01 5.18685E-03-3.28380E-01 4.06268E-05 6.43501E-06
 -1      4405 1.08724E+00-9.34077E-01 5.69530E-03-3.28383E-01 4.05396E-05 6.42103E-06
 -1      4406 1.08730E+00-9.34013E-01 5.87469E-03-3.28383E-01 1.74286E-05 2.76051E-06
 -1      4407 1.08733E+00-9.33995E-01 5.93377E-03-3.28383E-01 4.75230E-06 7.52717E-07
 -1      4408 1.08733E+00-9.33995E-01 5.93377E-03-3.28383E-01-4.75230E-06-7.52717E-07
 -1      4409 1.08730E+00-9.34013E-01 5.87469E-03-3.28383E-01-1.74286E-05-2.76051E-06
 -1      4410 1.08724E+00-9.34077E-01 5.69530E-03-3.28383E-01-4.05396E-05-6.42103E-06
 -1      4411 1.08705E+00-9.34254E-01 5.18685E-03-3.28380E-01-4.06268E-05-6.43501E-06
 -1      4412 1.08640E+00-9.35017E-01 3.72421E-03-3.28400E-01 1.50864E-04 2.38943E-05
 -1      4413 9.35456E-01-7.84068E-01 3.72420E-03-6.24654E-01-1.45271E-04-4.71994E-05
 -1      4414 9.36108E-01-7.83314E-01 5.18684E-03-6.24617E-01 3.91197E-05 1.27106E-05
 -1      4415 9.36297E-01-7.83136E-01 5.69529E-03-6.24621E-01 3.90360E-05 1.26834E-05
 -1      4416 9.36363E-01-7.83072E-01 5.87468E-03-6.24621E-01 1.67822E-05 5.45278E-06
 -1      4417 9.36384E-01-7.83053E-01 5.93376E-03-6.24622E-01 4.57605E-06 1.48682E-06
 -1      4418 9.36384E-01-7.83053E-01 5.93376E-03-6.24622E-01-4.57605E-06-1.48682E-06
 -1      4419 9.36363E-01-7.83072E-01 5.87468E-03-6.24621E-01-1.67822E-05-5.45278E-06
 -1      4420 9.36297E-01-7.83136E-01 5.69529E-03-6.24621E-01-3.90360E-05-1.26834E-05
 -1      4421 9.36108E-01-7.83314E-01 5.18684E-03-6.24617E-01-3.91197E-05-1.27106E-05
 -1      4422 9.35456E-01-7.84068E-01 3.72420E-03-6.24654E-01 1.45271E-04 4.71994E-05
 -1      4423 7.00347E-01-5.48960E-01 3.72422E-03-8.59762E-01-1.36097E-04-6.93429E-05
 -1      4424 7.01014E-01-5.48219E-01 5.18687E-03-8.59711E-01 3.66506E-05 1.86743E-05
 -1      4425 7.01201E-01-5.48040E-01 5.69531E-03-8.59717E-01 3.65716E-05 1.86339E-05
 -1      4426 7.01267E-01-5.47976E-01 5.87470E-03-8.59718E-01 1.57227E-05 8.01101E-06
 -1      4427 7.01287E-01-5.47957E-01 5.93378E-03-8.59719E-01 4.28714E-06 2.18438E-06
 -1      4428 7.01287E-01-5.47957E-01 5.93378E-03-8.59719E-01-4.28714E-06-2.18438E-06
 -1      4429 7.01267E-01-5.47976E-01 5.87470E-03-8.59718E-01-1.57227E-05-8.01101E-06
 -1      4430 7.01201E-01-5.48040E-01 5.69531E-03-8.59717E-01-3.65716E-05-1.86339E-05
 -1      4431 7.01014E-01-5.48219E-01 5.18687E-03-8.59711E-01-3.66506E-05-1.86743E-05
 -1      4432 7.00347E-01-5.48960E-01 3.72422E-03-8.59762E-01 1.36097E-04 6.93429E-05
 -1      4433 4.04094E-01-2.52706E-01 3.72421E-03-1.01071E+00-1.23574E-04-8.97813E-05
 -1      4434 4.04778E-01-2.51983E-01 5.18685E-03-1.01065E+00 3.32775E-05 2.41779E-05
 -1      4435 4.04963E-01-2.51802E-01 5.69530E-03-1.01066E+00 3.32060E-05 2.41258E-05
 -1      4436 4.05028E-01-2.51737E-01 5.87469E-03-1.01066E+00 1.42758E-05 1.03721E-05
 -1      4437 4.05049E-01-2.51718E-01 5.93377E-03-1.01066E+00 3.89261E-06 2.82818E-06
 -1      4438 4.05049E-01-2.51718E-01 5.93377E-03-1.01066E+00-3.89261E-06-2.82818E-06
 -1      4439 4.05028E-01-2.51737E-01 5.87469E-03-1.01066E+00-1.42758E-05-1.03721E-05
 -1      4440 4.04963E-01-2.51802E-01 5.69530E-03-1.01066E+00-3.32060E-05-2.41258E-05
 -1      4441 4.04778E-01-2.51983E-01 5.18685E-03-1.01065E+00-3.32775E-05-2.41779E-05
 -1      4442 4.04094E-01-2.52706E-01 3.72421E-03-1.01071E+00 1.23574E-04 8.97813E-05
 -1      4443 7.56937E-02 7.56937E-02 3.72421E-03-1.06272E+00-1.08007E-04-1.08007E-04
 -1      4444 7.63972E-02 7.63972E-02 5.18685E-03-1.06266E+00 2.90857E-05 2.90857E-05
 -1      4445 7.65806E-02 7.65806E-02 5.69530E-03-1.06267E+00 2.90232E-05 2.90232E-05
 -1      4446 7.66456E-02 7.66456E-02 5.87469E-03-1.06267E+00 1.24775E-05 1.24775E-05
 -1      4447 7.66653E-02 7.66653E-02 5.93377E-03-1.06267E+00 3.40228E-06 3.40228E-06
 -1      4448 7.66653E-02 7.66653E-02 5.93377E-03-1.06267E+00-3.40228E-06-3.40228E-06
 -1      4449 7.66456E-02 7.66456E-02 5.87469E-03-1.06267E+00-1.24775E-05-1.24775E-05
 -1      4450 7.65806E-02 7.65806E-02 5.69530E-03-1.06267E+00-2.90232E-05-2.90232E-05
 -1      4451 7.63972E-02 7.63972E-02 5.18685E-03-1.06266E+00-2.90857E-05-2.90857E-05
 -1      4452 7.56937E-02 7.56937E-02 3.72421E-03-1.06272E+00 1.08007E-04 1.08007E-04
 -1      4453-2.52706E-01 4.04094E-01 3.72421E-03-1.01071E+00-8.97813E-05-1.23573E-04
 -1      4454-2.51983E-01 4.04778E-01 5.18685E-03-1.01065E+00 2.41776E-05 3.32776E-05
 -1      4455-2.51802E-01 4.04963E-01 5.69530E-03-1.01066E+00 2.41256E-05 3.32061E-05
 -1      4456-2.51737E-01 4.05028E-01 5.87469E-03-1.01066E+00 1.03720E-05 1.42758E-05
 -1      4457-2.51718E-01 4.05049E-01 5.93377E-03-1.01066E+00 2.82815E-06 3.89262E-06
 -1      4458-2.51718E-01 4.05049E-01 5.93377E-03-1.01066E+00-2.82815E-06-3.89262E-06
 -1      4459-2.51737E-01 4.05028E-01 5.87469E-03-1.01066E+00-1.03720E-05-1.42758E-05
 -1      4460-2.51802E-01 4.04963E-01 5.69530E-03-1.01066E+00-2.41256E-05-3.32061E-05
 -1      4461-2.51983E-01 4.04778E-01 5.18685E-03-1.01065E+00-2.41776E-05-3.32776E-05
 -1      4462-2.52706E-01 4.04094E-01 3.72421E-03-1.01071E+00 8.97813E-05 1.23573E-04
 -1      4463-5.48960E-01 7.00347E-01 3.72421E-03-8.59762E-01-6.93448E-05-1.36097E-04
 -1      4464-5.48219E-01 7.01014E-01 5.18685E-03-8.59711E-01 1.86742E-05 3.66501E-05
 -1      4465-5.48040E-01 7.01201E-01 5.69530E-03-8.59717E-01 1.86340E-05 3.65713E-05
 -1      4466-5.47976E-01 7.01267E-01 5.87469E-03-8.59718E-01 8.01106E-06 1.57226E-05
 -1      4467-5.47957E-01 7.01287E-01 5.93377E-03-8.59719E-01 2.18440E-06 4.28712E-06
 -1      4468-5.47957E-01 7.01287E-01 5.93377E-03-8.59719E-01-2.18440E-06-4.28712E-06
 -1      4469-5.47976E-01 7.01267E-01 5.87469E-03-8.59718E-01-8.01106E-06-1.57226E-05
 -1      4470-5.48040E-01 7.01201E-01 5.69530E-03-8.59717E-01-1.86340E-05-3.65713E-05
 -1      4471-5.48219E-01 7.01014E-01 5.18685E-03-8.59711E-01-1.86742E-05-3.66501E-05
 -1      4472-5.48960E-01 7.00347E-01 3.72421E-03-8.59762E-01 6.93448E-05 1.36097E-04
 -1      4473-7.84068E-01 9.35456E-01 3.72421E-03-6.24654E-01-4.72008E-05-1.45269E-04
 -1      4474-7.83314E-01 9.36108E-01 5.18685E-03-6.24617E-01 1.27109E-05 3.91201E-05
 -1      4475-7.83136E-01 9.36297E-01 5.69530E-03-6.24621E-01 1.26836E-05 3.90361E-05
 -1      4476-7.83072E-01 9.36363E-01 5.87469E-03-6.24621E-01 5.45288E-06 1.67822E-05
 -1      4477-7.83053E-01 9.36384E-01 5.93377E-03-6.24622E-01 1.48685E-06 4.57605E-06
 -1      4478-7.83053E-01 9.36384E-01 5.93377E-03-6.24622E-01-1.48685E-06-4.57605E-06
 -1      4479-7.83072E-01 9.36363E-01 5.87469E-03-6.24621E-01-5.45288E-06-1.67822E-05
 -1      4480-7.83136E-01 9.36297E-01 5.69530E-03-6.24621E-01-1.26836E-05-3.90361E-05
 -1      4481-7.83314E-01 9.36108E-01 5.18685E-03-6.24617E-01-1.27109E-05-3.91201E-05
 -1      4482-7.84068E-01 9.35456E-01 3.72421E-03-6.24654E-01 4.72008E-05 1.45269E-04
 -1      4483-9.35017E-01 1.08640E+00 3.72421E-03-3.28400E-01-2.38946E-05-1.50865E-04
 -1      4484-9.34254E-01 1.08705E+00 5.18685E-03-3.28380E-01 6.43467E-06 4.06269E-05
 -1      4485-9.34077E-01 1.08724E+00 5.69530E-03-3.28383E-01 6.42085E-06 4.05396E-05
 -1      4486-9.34013E-01 1.08730E+00 5.87469E-03-3.28383E-01 2.76042E-06 1.74286E-05
 -1      4487-9.33995E-01 1.08733E+00 5.93377E-03-3.28383E-01 7.52691E-07 4.75231E-06
 -1      4488-9.33995E-01 1.08733E+00 5.93377E-03-3.28383E-01-7.52691E-07-4.75231E-06
 -1      4489-9.34013E-01 1.08730E+00 5.87469E-03-3.28383E-01-2.76042E-06-1.74286E-05
 -1      4490-9.34077E-01 1.08724E+00 5.69530E-03-3.28383E-01-6.42085E-06-4.05396E-05
 -1      4491-9.34254E-01 1.08705E+00 5.18685E-03-3.28380E-01-6.43467E-06-4.06269E-05
 -1      4492-9.35017E-01 1.08640E+00 3.72421E-03-3.28400E-01 2.38946E-05 1.50865E-04
 -1      4493 1.08613E+00-9.35081E-01 2.57930E-03-3.28365E-01-1.91687E-04-3.03603E-05
 -1      4494 1.12132E+00-9.83069E-01 9.20551E-04-1.66651E-01-4.38903E-04-3.45425E-05
 -1      4496 1.08697E+00-9.34567E-01 4.82133E-03-3.28418E-01-9.53056E-09-1.10233E-09
 -1      4497 1.12171E+00-9.82477E-01 1.56516E-03-1.66635E-01-2.33155E-04-1.83496E-05
 -1      4499 1.08729E+00-9.34184E-01 5.56873E-03-3.28408E-01 4.94832E-05 7.83763E-06
 -1      4500 1.12181E+00-9.82372E-01 1.77326E-03-1.66635E-01-7.51170E-05-5.91181E-06
 -1      4502 1.08738E+00-9.34101E-01 5.82614E-03-3.28409E-01 2.32643E-05 3.68485E-06
 -1      4503 1.12183E+00-9.82345E-01 1.82348E-03-1.66634E-01-2.51054E-05-1.97582E-06
 -1      4505 1.08741E+00-9.34072E-01 5.91968E-03-3.28410E-01 8.94459E-06 1.41674E-06
 -1      4506 1.12184E+00-9.82343E-01 1.83269E-03-1.66635E-01-5.81199E-06-4.57407E-07
 -1      4508 1.08742E+00-9.34065E-01 5.94360E-03-3.28410E-01-7.90524E-15-3.31927E-15
 -1      4509 1.12184E+00-9.82343E-01 1.83269E-03-1.66635E-01 5.81199E-06 4.57407E-07
 -1      4511 1.08741E+00-9.34072E-01 5.91968E-03-3.28410E-01-8.94459E-06-1.41674E-06
 -1      4512 1.12183E+00-9.82345E-01 1.82348E-03-1.66634E-01 2.51054E-05 1.97582E-06
 -1      4514 1.08738E+00-9.34101E-01 5.82614E-03-3.28409E-01-2.32643E-05-3.68485E-06
 -1      4515 1.12181E+00-9.82372E-01 1.77326E-03-1.66635E-01 7.51170E-05 5.91181E-06
 -1      4517 1.08729E+00-9.34184E-01 5.56873E-03-3.28408E-01-4.94832E-05-7.83763E-06
 -1      4518 1.12171E+00-9.82477E-01 1.56516E-03-1.66635E-01 2.33155E-04 1.83496E-05
 -1      4520 1.08697E+00-9.34567E-01 4.82133E-03-3.28418E-01 9.53064E-09 1.10230E-09
 -1      4521 1.12132E+00-9.83069E-01 9.20551E-04-1.66651E-01 4.38903E-04 3.45425E-05
 -1      4523 1.08613E+00-9.35081E-01 2.57930E-03-3.28365E-01 1.91687E-04 3.03603E-05
 -1      4525 9.35196E-01-7.84148E-01 2.57929E-03-6.24588E-01-1.84580E-04-5.99698E-05
 -1      4526 1.01832E+00-8.80073E-01 9.20552E-04-4.83640E-01-4.28097E-04-1.02776E-04
 -1      4528 9.36011E-01-7.83610E-01 4.82132E-03-6.24689E-01-9.72265E-09-3.07528E-09
 -1      4529 1.01872E+00-8.79491E-01 1.56516E-03-4.83593E-01-2.27414E-04-5.45970E-05
 -1      4531 9.36334E-01-7.83232E-01 5.56872E-03-6.24669E-01 4.76479E-05 1.54815E-05
 -1      4532 1.01882E+00-8.79386E-01 1.77326E-03-4.83592E-01-7.32675E-05-1.75899E-05
 -1      4534 9.36424E-01-7.83148E-01 5.82613E-03-6.24671E-01 2.24015E-05 7.27854E-06
 -1      4535 1.01885E+00-8.79359E-01 1.82348E-03-4.83592E-01-2.44872E-05-5.87884E-06
 -1      4537 9.36456E-01-7.83118E-01 5.91967E-03-6.24672E-01 8.61286E-06 2.79843E-06
 -1      4538 1.01885E+00-8.79357E-01 1.83269E-03-4.83593E-01-5.66889E-06-1.36097E-06
 -1      4540 9.36464E-01-7.83112E-01 5.94359E-03-6.24672E-01-1.34285E-14 2.04032E-14
 -1      4541 1.01885E+00-8.79357E-01 1.83269E-03-4.83593E-01 5.66889E-06 1.36097E-06
 -1      4543 9.36456E-01-7.83118E-01 5.91967E-03-6.24672E-01-8.61286E-06-2.79843E-06
 -1      4544 1.01885E+00-8.79359E-01 1.82348E-03-4.83592E-01 2.44872E-05 5.87884E-06
 -1      4546 9.36424E-01-7.83148E-01 5.82613E-03-6.24671E-01-2.24015E-05-7.27854E-06
 -1      4547 1.01882E+00-8.79386E-01 1.77326E-03-4.83592E-01 7.32675E-05 1.75899E-05
 -1      4549 9.36334E-01-7.83232E-01 5.56872E-03-6.24669E-01-4.76479E-05-1.54815E-05
 -1      4550 1.01872E+00-8.79491E-01 1.56516E-03-4.83593E-01 2.27414E-04 5.45970E-05
 -1      4552 9.36011E-01-7.83610E-01 4.82132E-03-6.24689E-01 9.72266E-09 3.07525E-09
 -1      4553 1.01832E+00-8.80073E-01 9.20552E-04-4.83640E-01 4.28097E-04 1.02776E-04
 -1      4555 9.35196E-01-7.84148E-01 2.57929E-03-6.24588E-01 1.84580E-04 5.99698E-05
 -1      4557 7.00112E-01-5.49064E-01 2.57930E-03-8.59672E-01-1.72925E-04-8.81058E-05
 -1      4558 8.22412E-01-6.84163E-01 9.20551E-04-7.53288E-01-4.06746E-04-1.68483E-04
 -1      4560 7.00889E-01-5.48488E-01 4.82135E-03-8.59810E-01-7.59809E-09-3.78704E-09
 -1      4561 8.22829E-01-6.83600E-01 1.56516E-03-7.53214E-01-2.16073E-04-8.95011E-05
 -1      4563 7.01220E-01-5.48118E-01 5.56874E-03-8.59783E-01 4.46399E-05 2.27449E-05
 -1      4564 8.22931E-01-6.83495E-01 1.77326E-03-7.53213E-01-6.96135E-05-2.88351E-05
 -1      4566 7.01309E-01-5.48033E-01 5.82615E-03-8.59786E-01 2.09872E-05 1.06934E-05
 -1      4567 8.22956E-01-6.83469E-01 1.82348E-03-7.53212E-01-2.32660E-05-9.63722E-06
 -1      4569 7.01341E-01-5.48003E-01 5.91969E-03-8.59787E-01 8.06909E-06 4.11135E-06
 -1      4570 8.22960E-01-6.83466E-01 1.83269E-03-7.53213E-01-5.38617E-06-2.23105E-06
 -1      4572 7.01349E-01-5.47996E-01 5.94361E-03-8.59788E-01-5.43427E-14 8.92796E-15
 -1      4573 8.22960E-01-6.83466E-01 1.83269E-03-7.53213E-01 5.38617E-06 2.23105E-06
 -1      4575 7.01341E-01-5.48003E-01 5.91969E-03-8.59787E-01-8.06909E-06-4.11135E-06
 -1      4576 8.22956E-01-6.83469E-01 1.82348E-03-7.53212E-01 2.32660E-05 9.63722E-06
 -1      4578 7.01309E-01-5.48033E-01 5.82615E-03-8.59786E-01-2.09872E-05-1.06934E-05
 -1      4579 8.22931E-01-6.83495E-01 1.77326E-03-7.53213E-01 6.96135E-05 2.88351E-05
 -1      4581 7.01220E-01-5.48118E-01 5.56874E-03-8.59783E-01-4.46399E-05-2.27449E-05
 -1      4582 8.22829E-01-6.83600E-01 1.56516E-03-7.53214E-01 2.16073E-04 8.95011E-05
 -1      4584 7.00889E-01-5.48488E-01 4.82135E-03-8.59810E-01 7.59812E-09 3.78698E-09
 -1      4585 8.22412E-01-6.84163E-01 9.20551E-04-7.53288E-01 4.06746E-04 1.68483E-04
 -1      4587 7.00112E-01-5.49064E-01 2.57930E-03-8.59672E-01 1.72925E-04 8.81058E-05
 -1      4589 4.03889E-01-2.52841E-01 2.57930E-03-1.01060E+00-1.57012E-04-1.14076E-04
 -1      4590 5.52765E-01-4.14516E-01 9.20550E-04-9.49198E-01-3.75383E-04-2.30034E-04
 -1      4592 4.04619E-01-2.52218E-01 4.82133E-03-1.01077E+00-7.62552E-09-5.02149E-09
 -1      4593 5.53208E-01-4.13979E-01 1.56516E-03-9.49106E-01-1.99412E-04-1.22199E-04
 -1      4595 4.04959E-01-2.51857E-01 5.56873E-03-1.01074E+00 4.05317E-05 2.94483E-05
 -1      4596 5.53310E-01-4.13875E-01 1.77326E-03-9.49104E-01-6.42458E-05-3.93697E-05
 -1      4598 4.05047E-01-2.51771E-01 5.82614E-03-1.01074E+00 1.90558E-05 1.38450E-05
 -1      4599 5.53336E-01-4.13848E-01 1.82348E-03-9.49103E-01-2.14720E-05-1.31580E-05
 -1      4601 4.05078E-01-2.51741E-01 5.91968E-03-1.01074E+00 7.32651E-06 5.32310E-06
 -1      4602 5.53339E-01-4.13846E-01 1.83269E-03-9.49104E-01-4.97085E-06-3.04613E-06
 -1      4604 4.05086E-01-2.51734E-01 5.94360E-03-1.01074E+00-4.49048E-14 6.19454E-15
 -1      4605 5.53339E-01-4.13846E-01 1.83269E-03-9.49104E-01 4.97085E-06 3.04613E-06
 -1      4607 4.05078E-01-2.51741E-01 5.91968E-03-1.01074E+00-7.32651E-06-5.32310E-06
 -1      4608 5.53336E-01-4.13848E-01 1.82348E-03-9.49103E-01 2.14720E-05 1.31580E-05
 -1      4610 4.05047E-01-2.51771E-01 5.82614E-03-1.01074E+00-1.90558E-05-1.38450E-05
 -1      4611 5.53310E-01-4.13875E-01 1.77326E-03-9.49104E-01 6.42458E-05 3.93697E-05
 -1      4613 4.04959E-01-2.51857E-01 5.56873E-03-1.01074E+00-4.05317E-05-2.94483E-05
 -1      4614 5.53208E-01-4.13979E-01 1.56516E-03-9.49106E-01 1.99412E-04 1.22199E-04
 -1      4616 4.04619E-01-2.52218E-01 4.82133E-03-1.01077E+00 7.62553E-09 5.02149E-09
 -1      4617 5.52765E-01-4.14516E-01 9.20550E-04-9.49198E-01 3.75383E-04 2.30034E-04
 -1      4619 4.03889E-01-2.52841E-01 2.57930E-03-1.01060E+00 1.57012E-04 1.14076E-04
 -1      4621 7.55240E-02 7.55240E-02 2.57930E-03-1.06261E+00-1.37233E-04-1.37233E-04
 -1      4622 2.35776E-01-9.75267E-02 9.20551E-04-1.05219E+00-3.34776E-04-2.85926E-04
 -1      4624 7.62007E-02 7.62007E-02 4.82133E-03-1.06278E+00-6.57450E-09-6.64229E-09
 -1      4625 2.36249E-01-9.70208E-02 1.56516E-03-1.05209E+00-1.77841E-04-1.51890E-04
 -1      4627 7.65509E-02 7.65510E-02 5.56873E-03-1.06275E+00 3.54261E-05 3.54261E-05
 -1      4628 2.36352E-01-9.69169E-02 1.77326E-03-1.05209E+00-5.72960E-05-4.89354E-05
 -1      4630 7.66382E-02 7.66382E-02 5.82614E-03-1.06275E+00 1.66554E-05 1.66554E-05
 -1      4631 2.36378E-01-9.68907E-02 1.82348E-03-1.05209E+00-1.91493E-05-1.63550E-05
 -1      4633 7.66689E-02 7.66689E-02 5.91968E-03-1.06276E+00 6.40363E-06 6.40363E-06
 -1      4634 2.36382E-01-9.68876E-02 1.83269E-03-1.05209E+00-4.43314E-06-3.78625E-06
 -1      4636 7.66761E-02 7.66761E-02 5.94360E-03-1.06276E+00 8.38623E-14 1.52032E-14
 -1      4637 2.36382E-01-9.68876E-02 1.83269E-03-1.05209E+00 4.43314E-06 3.78625E-06
 -1      4639 7.66689E-02 7.66689E-02 5.91968E-03-1.06276E+00-6.40363E-06-6.40363E-06
 -1      4640 2.36378E-01-9.68907E-02 1.82348E-03-1.05209E+00 1.91493E-05 1.63550E-05
 -1      4642 7.66382E-02 7.66382E-02 5.82614E-03-1.06275E+00-1.66554E-05-1.66554E-05
 -1      4643 2.36352E-01-9.69169E-02 1.77326E-03-1.05209E+00 5.72960E-05 4.89354E-05
 -1      4645 7.65509E-02 7.65510E-02 5.56873E-03-1.06275E+00-3.54261E-05-3.54261E-05
 -1      4646 2.36249E-01-9.70208E-02 1.56516E-03-1.05209E+00 1.77841E-04 1.51890E-04
 -1      4648 7.62007E-02 7.62007E-02 4.82133E-03-1.06278E+00 6.57448E-09 6.64231E-09
 -1      4649 2.35776E-01-9.75267E-02 9.20551E-04-1.05219E+00 3.34776E-04 2.85926E-04
 -1      4651 7.55240E-02 7.55240E-02 2.57930E-03-1.06261E+00 1.37233E-04 1.37233E-04
 -1      4653-2.52841E-01 4.03889E-01 2.57930E-03-1.01060E+00-1.14076E-04-1.57012E-04
 -1      4654-9.75267E-02 2.35776E-01 9.20551E-04-1.05219E+00-2.85926E-04-3.34776E-04
 -1      4656-2.52218E-01 4.04619E-01 4.82133E-03-1.01077E+00-5.49539E-09-7.53405E-09
 -1      4657-9.70208E-02 2.36249E-01 1.56516E-03-1.05209E+00-1.51890E-04-1.77840E-04
 -1      4659-2.51857E-01 4.04959E-01 5.56873E-03-1.01074E+00 2.94481E-05 4.05318E-05
 -1      4660-9.69169E-02 2.36352E-01 1.77326E-03-1.05209E+00-4.89354E-05-5.72960E-05
 -1      4662-2.51771E-01 4.05047E-01 5.82614E-03-1.01074E+00 1.38449E-05 1.90559E-05
 -1      4663-9.68907E-02 2.36378E-01 1.82348E-03-1.05209E+00-1.63551E-05-1.91493E-05
 -1      4665-2.51741E-01 4.05078E-01 5.91968E-03-1.01074E+00 5.32304E-06 7.32654E-06
 -1      4666-9.68876E-02 2.36382E-01 1.83269E-03-1.05209E+00-3.78626E-06-4.43313E-06
 -1      4668-2.51734E-01 4.05086E-01 5.94360E-03-1.01074E+00 4.98954E-14-2.83010E-14
 -1      4669-9.68876E-02 2.36382E-01 1.83269E-03-1.05209E+00 3.78626E-06 4.43313E-06
 -1      4671-2.51741E-01 4.05078E-01 5.91968E-03-1.01074E+00-5.32304E-06-7.32654E-06
 -1      4672-9.68907E-02 2.36378E-01 1.82348E-03-1.05209E+00 1.63551E-05 1.91493E-05
 -1      4674-2.51771E-01 4.05047E-01 5.82614E-03-1.01074E+00-1.38449E-05-1.90559E-05
 -1      4675-9.69169E-02 2.36352E-01 1.77326E-03-1.05209E+00 4.89354E-05 5.72960E-05
 -1      4677-2.51857E-01 4.04959E-01 5.56873E-03-1.01074E+00-2.94481E-05-4.05318E-05
 -1      4678-9.70208E-02 2.36249E-01 1.56516E-03-1.05209E+00 1.51890E-04 1.77840E-04
 -1      4680-2.52218E-01 4.04619E-01 4.82133E-03-1.01077E+00 5.49541E-09 7.53408E-09
 -1      4681-9.75267E-02 2.35776E-01 9.20551E-04-1.05219E+00 2.85926E-04 3.34776E-04
 -1      4683-2.52841E-01 4.03889E-01 2.57930E-03-1.01060E+00 1.14076E-04 1.57012E-04
 -1      4685-5.49064E-01 7.00112E-01 2.57930E-03-8.59672E-01-8.81091E-05-1.72924E-04
 -1      4686-4.14516E-01 5.52765E-01 9.20551E-04-9.49198E-01-2.30035E-04-3.75383E-04
 -1      4688-5.48488E-01 7.00889E-01 4.82133E-03-8.59810E-01-4.24560E-09-8.34061E-09
 -1      4689-4.13979E-01 5.53208E-01 1.56516E-03-9.49106E-01-1.22200E-04-1.99412E-04
 -1      4691-5.48118E-01 7.01220E-01 5.56873E-03-8.59783E-01 2.27450E-05 4.46395E-05
 -1      4692-4.13875E-01 5.53310E-01 1.77326E-03-9.49104E-01-3.93699E-05-6.42458E-05
 -1      4694-5.48033E-01 7.01309E-01 5.82614E-03-8.59786E-01 1.06934E-05 2.09871E-05
 -1      4695-4.13848E-01 5.53336E-01 1.82348E-03-9.49103E-01-1.31581E-05-2.14720E-05
 -1      4697-5.48003E-01 7.01341E-01 5.91968E-03-8.59787E-01 4.11138E-06 8.06905E-06
 -1      4698-4.13846E-01 5.53339E-01 1.83269E-03-9.49104E-01-3.04615E-06-4.97086E-06
 -1      4700-5.47996E-01 7.01349E-01 5.94360E-03-8.59788E-01 1.27353E-14 4.06470E-14
 -1      4701-4.13846E-01 5.53339E-01 1.83269E-03-9.49104E-01 3.04615E-06 4.97086E-06
 -1      4703-5.48003E-01 7.01341E-01 5.91968E-03-8.59787E-01-4.11138E-06-8.06905E-06
 -1      4704-4.13848E-01 5.53336E-01 1.82348E-03-9.49103E-01 1.31581E-05 2.14720E-05
 -1      4706-5.48033E-01 7.01309E-01 5.82614E-03-8.59786E-01-1.06934E-05-2.09871E-05
 -1      4707-4.13875E-01 5.53310E-01 1.77326E-03-9.49104E-01 3.93699E-05 6.42458E-05
 -1      4709-5.48118E-01 7.01220E-01 5.56873E-03-8.59783E-01-2.27450E-05-4.46395E-05
 -1      4710-4.13979E-01 5.53208E-01 1.56516E-03-9.49106E-01 1.22200E-04 1.99412E-04
 -1      4712-5.48488E-01 7.00889E-01 4.82133E-03-8.59810E-01 4.24562E-09 8.34058E-09
 -1      4713-4.14516E-01 5.52765E-01 9.20551E-04-9.49198E-01 2.30035E-04 3.75383E-04
 -1      4715-5.49064E-01 7.00112E-01 2.57930E-03-8.59672E-01 8.81091E-05 1.72924E-04
 -1      4717-7.84148E-01 9.35196E-01 2.57930E-03-6.24588E-01-5.99731E-05-1.84578E-04
 -1      4718-6.84163E-01 8.22412E-01 9.20551E-04-7.53288E-01-1.68480E-04-4.06747E-04
 -1      4720-7.83610E-01 9.36011E-01 4.82133E-03-6.24689E-01-2.88536E-09-8.88772E-09
 -1      4721-6.83600E-01 8.22829E-01 1.56516E-03-7.53214E-01-8.95003E-05-2.16073E-04
 -1      4723-7.83232E-01 9.36334E-01 5.56873E-03-6.24669E-01 1.54818E-05 4.76480E-05
 -1      4724-6.83495E-01 8.22931E-01 1.77326E-03-7.53213E-01-2.88349E-05-6.96136E-05
 -1      4726-7.83148E-01 9.36424E-01 5.82614E-03-6.24671E-01 7.27869E-06 2.24015E-05
 -1      4727-6.83469E-01 8.22956E-01 1.82348E-03-7.53212E-01-9.63712E-06-2.32661E-05
 -1      4729-7.83118E-01 9.36456E-01 5.91968E-03-6.24672E-01 2.79849E-06 8.61286E-06
 -1      4730-6.83466E-01 8.22960E-01 1.83269E-03-7.53213E-01-2.23103E-06-5.38618E-06
 -1      4732-7.83112E-01 9.36464E-01 5.94360E-03-6.24672E-01 1.66098E-14-1.49355E-14
 -1      4733-6.83466E-01 8.22960E-01 1.83269E-03-7.53213E-01 2.23103E-06 5.38618E-06
 -1      4735-7.83118E-01 9.36456E-01 5.91968E-03-6.24672E-01-2.79849E-06-8.61286E-06
 -1      4736-6.83469E-01 8.22956E-01 1.82348E-03-7.53212E-01 9.63712E-06 2.32661E-05
 -1      4738-7.83148E-01 9.36424E-01 5.82614E-03-6.24671E-01-7.27869E-06-2.24015E-05
 -1      4739-6.83495E-01 8.22931E-01 1.77326E-03-7.53213E-01 2.88349E-05 6.96136E-05
 -1      4741-7.83232E-01 9.36334E-01 5.56873E-03-6.24669E-01-1.54818E-05-4.76480E-05
 -1      4742-6.83600E-01 8.22829E-01 1.56516E-03-7.53214E-01 8.95003E-05 2.16073E-04
 -1      4744-7.83610E-01 9.36011E-01 4.82133E-03-6.24689E-01 2.88535E-09 8.88771E-09
 -1      4745-6.84163E-01 8.22412E-01 9.20551E-04-7.53288E-01 1.68480E-04 4.06747E-04
 -1      4747-7.84148E-01 9.35196E-01 2.57930E-03-6.24588E-01 5.99731E-05 1.84578E-04
 -1      4749-9.35081E-01 1.08613E+00 2.57930E-03-3.28365E-01-3.03603E-05-1.91688E-04
 -1      4750-8.80073E-01 1.01832E+00 9.20551E-04-4.83640E-01-1.02777E-04-4.28095E-04
 -1      4752-9.34567E-01 1.08697E+00 4.82133E-03-3.28418E-01-1.46141E-09-9.23506E-09
 -1      4753-8.79491E-01 1.01872E+00 1.56516E-03-4.83593E-01-5.45972E-05-2.27414E-04
 -1      4755-9.34184E-01 1.08729E+00 5.56873E-03-3.28408E-01 7.83738E-06 4.94833E-05
 -1      4756-8.79386E-01 1.01882E+00 1.77326E-03-4.83592E-01-1.75899E-05-7.32673E-05
 -1      4758-9.34101E-01 1.08738E+00 5.82614E-03-3.28409E-01 3.68471E-06 2.32643E-05
 -1      4759-8.79359E-01 1.01885E+00 1.82348E-03-4.83592E-01-5.87886E-06-2.44872E-05
 -1      4761-9.34072E-01 1.08741E+00 5.91968E-03-3.28410E-01 1.41669E-06 8.94461E-06
 -1      4762-8.79357E-01 1.01885E+00 1.83269E-03-4.83593E-01-1.36098E-06-5.66888E-06
 -1      4764-9.34065E-01 1.08742E+00 5.94360E-03-3.28410E-01 1.87891E-14 4.94951E-14
 -1      4765-8.79357E-01 1.01885E+00 1.83269E-03-4.83593E-01 1.36098E-06 5.66888E-06
 -1      4767-9.34072E-01 1.08741E+00 5.91968E-03-3.28410E-01-1.41669E-06-8.94461E-06
 -1      4768-8.79359E-01 1.01885E+00 1.82348E-03-4.83592E-01 5.87886E-06 2.44872E-05
 -1      4770-9.34101E-01 1.08738E+00 5.82614E-03-3.28409E-01-3.68471E-06-2.32643E-05
 -1      4771-8.79386E-01 1.01882E+00 1.77326E-03-4.83592E-01 1.75899E-05 7.32673E-05
 -1      4773-9.34184E-01 1.08729E+00 5.56873E-03-3.28408E-01-7.83738E-06-4.94833E-05
 -1      4774-8.79491E-01 1.01872E+00 1.56516E-03-4.83593E-01 5.45972E-05 2.27414E-04
 -1      4776-9.34567E-01 1.08697E+00 4.82133E-03-3.28418E-01 1.46142E-09 9.23503E-09
 -1      4777-8.80073E-01 1.01832E+00 9.20551E-04-4.83640E-01 1.02777E-04 4.28095E-04
 -1      4779-9.35081E-01 1.08613E+00 2.57930E-03-3.28365E-01 3.03603E-05 1.91688E-04
 -1      4781-9.83069E-01 1.12132E+00 9.20551E-04-1.66651E-01-3.45424E-05-4.38903E-04
 -1      4783-9.82477E-01 1.12171E+00 1.56516E-03-1.66635E-01-1.83497E-05-2.33155E-04
 -1      4785-9.82372E-01 1.12181E+00 1.77326E-03-1.66635E-01-5.91183E-06-7.51170E-05
 -1      4787-9.82345E-01 1.12183E+00 1.82348E-03-1.66634E-01-1.97584E-06-2.51054E-05
 -1      4789-9.82343E-01 1.12184E+00 1.83269E-03-1.66635E-01-4.57413E-07-5.81199E-06
 -1      4791-9.82343E-01 1.12184E+00 1.83269E-03-1.66635E-01 4.57413E-07 5.81199E-06
 -1      4793-9.82345E-01 1.12183E+00 1.82348E-03-1.66634E-01 1.97584E-06 2.51054E-05
 -1      4795-9.82372E-01 1.12181E+00 1.77326E-03-1.66635E-01 5.91183E-06 7.51170E-05
 -1      4797-9.82477E-01 1.12171E+00 1.56516E-03-1.66635E-01 1.83497E-05 2.33155E-04
 -1      4799-9.83069E-01 1.12132E+00 9.20551E-04-1.66651E-01 3.45424E-05 4.38903E-04
 -1      4802-7.63177E-01 9.22658E-01 3.49568E-03-2.73880E-01-2.30342E-05-1.45432E-04
 -1      4803-6.37288E-01 7.96769E-01 3.49568E-03-5.20952E-01-4.55012E-05-1.40038E-04
 -1      4804-4.41211E-01 6.00692E-01 3.49568E-03-7.17028E-01-6.68478E-05-1.31196E-04
 -1      4805-1.94140E-01 3.53621E-01 3.49568E-03-8.42917E-01-8.65483E-05-1.19124E-04
 -1      4806 7.97406E-02 7.97406E-02 3.49568E-03-8.86296E-01-1.04118E-04-1.04118E-04
 -1      4807 3.53621E-01-1.94140E-01 3.49568E-03-8.42917E-01-1.19124E-04-8.65482E-05
 -1      4808 6.00692E-01-4.41211E-01 3.49568E-03-7.17028E-01-1.31196E-04-6.68479E-05
 -1      4809 7.96769E-01-6.37288E-01 3.49568E-03-5.20952E-01-1.40038E-04-4.55013E-05
 -1      4810 9.22658E-01-7.63177E-01 3.49568E-03-2.73880E-01-1.45432E-04-2.30341E-05
 -1      4811-6.28954E-01 7.86304E-01 2.91652E-03-2.29923E-01-4.54752E-06-2.87119E-05
 -1      4812-5.23270E-01 6.80620E-01 2.91652E-03-4.37339E-01-8.98307E-06-2.76470E-05
 -1      4813-3.58664E-01 5.16014E-01 2.91652E-03-6.01945E-01-1.31974E-05-2.59014E-05
 -1      4814-1.51248E-01 3.08598E-01 2.91652E-03-7.07629E-01-1.70868E-05-2.35180E-05
 -1      4815 7.86751E-02 7.86751E-02 2.91652E-03-7.44045E-01-2.05555E-05-2.05555E-05
 -1      4816 3.08598E-01-1.51248E-01 2.91652E-03-7.07629E-01-2.35179E-05-1.70868E-05
 -1      4817 5.16014E-01-3.58664E-01 2.91652E-03-6.01945E-01-2.59014E-05-1.31971E-05
 -1      4818 6.80620E-01-5.23270E-01 2.91652E-03-4.37339E-01-2.76472E-05-8.98286E-06
 -1      4819 7.86304E-01-6.28954E-01 2.91652E-03-2.29923E-01-2.87120E-05-4.54753E-06
 -1      4820-5.26343E-01 6.79752E-01 2.47065E-03-1.95942E-01 1.26539E-05 7.98938E-05
 -1      4821-4.36278E-01 5.89687E-01 2.47065E-03-3.72704E-01 2.49963E-05 7.69307E-05
 -1      4822-2.95999E-01 4.49408E-01 2.47065E-03-5.12983E-01 3.67232E-05 7.20733E-05
 -1      4823-1.19237E-01 2.72647E-01 2.47065E-03-6.03047E-01 4.75458E-05 6.54412E-05
 -1      4824 7.67046E-02 7.67046E-02 2.47065E-03-6.34081E-01 5.71977E-05 5.71977E-05
 -1      4825 2.72646E-01-1.19237E-01 2.47065E-03-6.03047E-01 6.54411E-05 4.75458E-05
 -1      4826 4.49408E-01-2.95999E-01 2.47065E-03-5.12983E-01 7.20733E-05 3.67231E-05
 -1      4827 5.89687E-01-4.36278E-01 2.47065E-03-3.72704E-01 7.69307E-05 2.49962E-05
 -1      4828 6.79752E-01-5.26343E-01 2.47065E-03-1.95942E-01 7.98939E-05 1.26539E-05
 -1      4829-4.45053E-01 5.95108E-01 1.93293E-03-1.68984E-01 1.14699E-05 7.24183E-05
 -1      4830-3.67379E-01 5.17434E-01 1.93293E-03-3.21427E-01 2.26574E-05 6.97324E-05
 -1      4831-2.46400E-01 3.96455E-01 1.93293E-03-4.42407E-01 3.32870E-05 6.53294E-05
 -1      4832-9.39570E-02 2.44012E-01 1.93293E-03-5.20080E-01 4.30970E-05 5.93179E-05
 -1      4833 7.50273E-02 7.50273E-02 1.93293E-03-5.46845E-01 5.18457E-05 5.18457E-05
 -1      4834 2.44012E-01-9.39570E-02 1.93293E-03-5.20080E-01 5.93179E-05 4.30970E-05
 -1      4835 3.96455E-01-2.46400E-01 1.93293E-03-4.42407E-01 6.53294E-05 3.32870E-05
 -1      4836 5.17434E-01-3.67379E-01 1.93293E-03-3.21427E-01 6.97324E-05 2.26574E-05
 -1      4837 5.95108E-01-4.45053E-01 1.93293E-03-1.68984E-01 7.24182E-05 1.14699E-05
 -1      4838-3.79376E-01 5.26871E-01 1.55966E-03-1.47229E-01 1.14245E-05 7.21316E-05
 -1      4839-3.11702E-01 4.59197E-01 1.55966E-03-2.80046E-01 2.25677E-05 6.94563E-05
 -1      4840-2.06298E-01 3.53793E-01 1.55966E-03-3.85450E-01 3.31552E-05 6.50708E-05
 -1      4841-7.34813E-02 2.20976E-01 1.55966E-03-4.53124E-01 4.29264E-05 5.90831E-05
 -1      4842 7.37475E-02 7.37475E-02 1.55966E-03-4.76442E-01 5.16405E-05 5.16405E-05
 -1      4843 2.20976E-01-7.34813E-02 1.55966E-03-4.53124E-01 5.90831E-05 4.29264E-05
 -1      4844 3.53793E-01-2.06298E-01 1.55966E-03-3.85450E-01 6.50708E-05 3.31552E-05
 -1      4845 4.59197E-01-3.11702E-01 1.55966E-03-2.80046E-01 6.94563E-05 2.25677E-05
 -1      4846 5.26871E-01-3.79376E-01 1.55966E-03-1.47229E-01 7.21316E-05 1.14245E-05
 -1      4847-3.25565E-01 4.71049E-01 1.27269E-03-1.29418E-01 1.08738E-05 6.86546E-05
 -1      4848-2.66079E-01 4.11562E-01 1.27269E-03-2.46167E-01 2.14799E-05 6.61083E-05
 -1      4849-1.73426E-01 3.18909E-01 1.27269E-03-3.38820E-01 3.15570E-05 6.19342E-05
 -1      4850-5.66762E-02 2.02160E-01 1.27269E-03-3.98307E-01 4.08572E-05 5.62351E-05
 -1      4851 7.27417E-02 7.27417E-02 1.27269E-03-4.18805E-01 4.91512E-05 4.91512E-05
 -1      4852 2.02160E-01-5.66762E-02 1.27269E-03-3.98307E-01 5.62351E-05 4.08572E-05
 -1      4853 3.18909E-01-1.73426E-01 1.27269E-03-3.38820E-01 6.19342E-05 3.15570E-05
 -1      4854 4.11562E-01-2.66079E-01 1.27269E-03-2.46167E-01 6.61083E-05 2.14799E-05
 -1      4855 4.71049E-01-3.25565E-01 1.27269E-03-1.29418E-01 6.86546E-05 1.08738E-05
 -1      4856-2.80928E-01 4.24803E-01 1.05232E-03-1.14653E-01 1.02853E-05 6.49385E-05
 -1      4857-2.28228E-01 3.72103E-01 1.05232E-03-2.18083E-01 2.03172E-05 6.25301E-05
 -1      4858-1.46145E-01 2.90021E-01 1.05232E-03-3.00165E-01 2.98490E-05 5.85819E-05
 -1      4859-4.27152E-02 1.86591E-01 1.05232E-03-3.52865E-01 3.86457E-05 5.31913E-05
 -1      4860 7.19377E-02 7.19377E-02 1.05232E-03-3.71025E-01 4.64909E-05 4.64909E-05
 -1      4861 1.86591E-01-4.27152E-02 1.05232E-03-3.52865E-01 5.31913E-05 3.86457E-05
 -1      4862 2.90021E-01-1.46145E-01 1.05232E-03-3.00165E-01 5.85819E-05 2.98490E-05
 -1      4863 3.72103E-01-2.28228E-01 1.05232E-03-2.18083E-01 6.25301E-05 2.03172E-05
 -1      4864 4.24803E-01-2.80928E-01 1.05232E-03-1.14653E-01 6.49385E-05 1.02853E-05
 -1      4865-2.43492E-01 3.86062E-01 8.79542E-04-1.02277E-01 9.64854E-06 6.09185E-05
 -1      4866-1.96481E-01 3.39050E-01 8.79542E-04-1.94543E-01 1.90595E-05 5.86591E-05
 -1      4867-1.23258E-01 2.65828E-01 8.79542E-04-2.67765E-01 2.80011E-05 5.49553E-05
 -1      4868-3.09926E-02 1.73562E-01 8.79542E-04-3.14777E-01 3.62533E-05 4.98984E-05
 -1      4869 7.12846E-02 7.12846E-02 8.79542E-04-3.30976E-01 4.36128E-05 4.36128E-05
 -1      4870 1.73562E-01-3.09926E-02 8.79542E-04-3.14777E-01 4.98984E-05 3.62533E-05
 -1      4871 2.65828E-01-1.23258E-01 8.79542E-04-2.67765E-01 5.49553E-05 2.80011E-05
 -1      4872 3.39050E-01-1.96481E-01 8.79542E-04-1.94543E-01 5.86591E-05 1.90595E-05
 -1      4873 3.86062E-01-2.43492E-01 8.79542E-04-1.02277E-01 6.09185E-05 9.64854E-06
 -1      4874-2.11790E-01 3.53284E-01 7.42270E-04-9.18019E-02 9.02318E-06 5.69701E-05
 -1      4875-1.69594E-01 3.11087E-01 7.42270E-04-1.74618E-01 1.78242E-05 5.48572E-05
 -1      4876-1.03871E-01 2.45364E-01 7.42270E-04-2.40340E-01 2.61863E-05 5.13935E-05
 -1      4877-2.10551E-02 1.62549E-01 7.42270E-04-2.82537E-01 3.39036E-05 4.66643E-05
 -1      4878 7.07468E-02 7.07468E-02 7.42270E-04-2.97077E-01 4.07861E-05 4.07861E-05
 -1      4879 1.62549E-01-2.10551E-02 7.42270E-04-2.82537E-01 4.66643E-05 3.39036E-05
 -1      4880 2.45364E-01-1.03871E-01 7.42270E-04-2.40340E-01 5.13935E-05 2.61863E-05
 -1      4881 3.11087E-01-1.69594E-01 7.42270E-04-1.74618E-01 5.48572E-05 1.78242E-05
 -1      4882 3.53284E-01-2.11790E-01 7.42270E-04-9.18019E-02 5.69701E-05 9.02318E-06
 -1      4883-1.84709E-01 3.25306E-01 6.31787E-04-8.28568E-02 8.42172E-06 5.31726E-05
 -1      4884-1.46624E-01 2.87220E-01 6.31787E-04-1.57603E-01 1.66361E-05 5.12005E-05
 -1      4885-8.73046E-02 2.27902E-01 6.31787E-04-2.16922E-01 2.44408E-05 4.79677E-05
 -1      4886-1.25584E-02 1.53155E-01 6.31787E-04-2.55007E-01 3.16437E-05 4.35538E-05
 -1      4887 7.02984E-02 7.02984E-02 6.31787E-04-2.68130E-01 3.80674E-05 3.80674E-05
 -1      4888 1.53155E-01-1.25584E-02 6.31787E-04-2.55007E-01 4.35538E-05 3.16437E-05
 -1      4889 2.27902E-01-8.73046E-02 6.31787E-04-2.16922E-01 4.79677E-05 2.44408E-05
 -1      4890 2.87220E-01-1.46624E-01 6.31787E-04-1.57603E-01 5.12005E-05 1.66361E-05
 -1      4891 3.25306E-01-1.84709E-01 6.31787E-04-8.28568E-02 5.31726E-05 8.42172E-06
 -1      4892-1.61392E-01 3.01233E-01 5.41856E-04-7.51580E-02 7.85483E-06 4.95935E-05
 -1      4893-1.26845E-01 2.66687E-01 5.41856E-04-1.42959E-01 1.55163E-05 4.77541E-05
 -1      4894-7.30383E-02 2.12880E-01 5.41856E-04-1.96766E-01 2.27956E-05 4.47389E-05
 -1      4895-5.23727E-03 1.45079E-01 5.41856E-04-2.31313E-01 2.95137E-05 4.06221E-05
 -1      4896 6.99207E-02 6.99207E-02 5.41856E-04-2.43216E-01 3.55050E-05 3.55050E-05
 -1      4897 1.45079E-01-5.23727E-03 5.41856E-04-2.31313E-01 4.06221E-05 2.95137E-05
 -1      4898 2.12880E-01-7.30383E-02 5.41856E-04-1.96766E-01 4.47389E-05 2.27956E-05
 -1      4899 2.66687E-01-1.26845E-01 5.41856E-04-1.42959E-01 4.77541E-05 1.55163E-05
 -1      4900 3.01233E-01-1.61392E-01 5.41856E-04-7.51580E-02 4.95935E-05 7.85483E-06
 -1      4901-1.41173E-01 2.80372E-01 4.67905E-04-6.84842E-02 7.32562E-06 4.62521E-05
 -1      4902-1.09695E-01 2.48894E-01 4.67905E-04-1.30265E-01 1.44709E-05 4.45367E-05
 -1      4903-6.06653E-02 1.99864E-01 4.67905E-04-1.79294E-01 2.12598E-05 4.17247E-05
 -1      4904 1.11525E-03 1.38084E-01 4.67905E-04-2.10773E-01 2.75252E-05 3.78852E-05
 -1      4905 6.95995E-02 6.95995E-02 4.67905E-04-2.21620E-01 3.31129E-05 3.31129E-05
 -1      4906 1.38084E-01 1.11525E-03 4.67905E-04-2.10773E-01 3.78852E-05 2.75252E-05
 -1      4907 1.99864E-01-6.06653E-02 4.67905E-04-1.79294E-01 4.17247E-05 2.12598E-05
 -1      4908 2.48894E-01-1.09695E-01 4.67906E-04-1.30265E-01 4.45367E-05 1.44709E-05
 -1      4909 2.80372E-01-1.41173E-01 4.67905E-04-6.84842E-02 4.62521E-05 7.32562E-06
 -1      4910-1.23528E-01 2.62176E-01 4.06538E-04-6.26613E-02 6.83457E-06 4.31518E-05
 -1      4911-9.47256E-02 2.33373E-01 4.06538E-04-1.19189E-01 1.35009E-05 4.15514E-05
 -1      4912-4.98650E-02 1.88513E-01 4.06538E-04-1.64050E-01 1.98347E-05 3.89278E-05
 -1      4913 6.66258E-03 1.31985E-01 4.06538E-04-1.92852E-01 2.56802E-05 3.53457E-05
 -1      4914 6.93239E-02 6.93239E-02 4.06538E-04-2.02776E-01 3.08933E-05 3.08933E-05
 -1      4915 1.31985E-01 6.66258E-03 4.06538E-04-1.92852E-01 3.53457E-05 2.56802E-05
 -1      4916 1.88513E-01-4.98650E-02 4.06538E-04-1.64050E-01 3.89278E-05 1.98347E-05
 -1      4917 2.33373E-01-9.47256E-02 4.06538E-04-1.19189E-01 4.15514E-05 1.35009E-05
 -1      4918 2.62176E-01-1.23528E-01 4.06538E-04-6.26613E-02 4.31518E-05 6.83458E-06
 -1      4919-1.08037E-01 2.46208E-01 3.55189E-04-5.75506E-02 6.38045E-06 4.02845E-05
 -1      4920-8.15837E-02 2.19755E-01 3.55189E-04-1.09468E-01 1.26038E-05 3.87905E-05
 -1      4921-4.03820E-02 1.78553E-01 3.55189E-04-1.50669E-01 1.85168E-05 3.63412E-05
 -1      4922 1.15351E-02 1.26636E-01 3.55189E-04-1.77123E-01 2.39738E-05 3.29971E-05
 -1      4923 6.90857E-02 6.90857E-02 3.55189E-04-1.86238E-01 2.88406E-05 2.88405E-05
 -1      4924 1.26636E-01 1.15351E-02 3.55189E-04-1.77123E-01 3.29971E-05 2.39738E-05
 -1      4925 1.78553E-01-4.03820E-02 3.55189E-04-1.50669E-01 3.63412E-05 1.85168E-05
 -1      4926 2.19755E-01-8.15837E-02 3.55189E-04-1.09468E-01 3.87905E-05 1.26038E-05
 -1      4927 2.46208E-01-1.08037E-01 3.55189E-04-5.75506E-02 4.02845E-05 6.38045E-06
 -1      4928-9.43634E-02 2.32120E-01 3.11901E-04-5.30404E-02 5.96118E-06 3.76374E-05
 -1      4929-6.99833E-02 2.07740E-01 3.11901E-04-1.00889E-01 1.17756E-05 3.62415E-05
 -1      4930-3.20106E-02 1.69767E-01 3.11901E-04-1.38862E-01 1.73000E-05 3.39532E-05
 -1      4931 1.58379E-02 1.21919E-01 3.11901E-04-1.63242E-01 2.23985E-05 3.08288E-05
 -1      4932 6.88784E-02 6.88784E-02 3.11901E-04-1.71642E-01 2.69454E-05 2.69454E-05
 -1      4933 1.21919E-01 1.58379E-02 3.11901E-04-1.63242E-01 3.08288E-05 2.23985E-05
 -1      4934 1.69767E-01-3.20106E-02 3.11901E-04-1.38862E-01 3.39532E-05 1.73000E-05
 -1      4935 2.07740E-01-6.99833E-02 3.11901E-04-1.00889E-01 3.62415E-05 1.17756E-05
 -1      4936 2.32120E-01-9.43634E-02 3.11901E-04-5.30404E-02 3.76374E-05 5.96118E-06
 -1      4937-8.22340E-02 2.19627E-01 2.75157E-04-4.90404E-02 5.57436E-06 3.51951E-05
 -1      4938-5.96926E-02 1.97086E-01 2.75157E-04-9.32803E-02 1.10115E-05 3.38898E-05
 -1      4939-2.45836E-02 1.61977E-01 2.75157E-04-1.28389E-01 1.61774E-05 3.17500E-05
 -1      4940 1.96564E-02 1.17737E-01 2.75157E-04-1.50931E-01 2.09450E-05 2.88284E-05
 -1      4941 6.86967E-02 6.86967E-02 2.75157E-04-1.58698E-01 2.51969E-05 2.51969E-05
 -1      4942 1.17737E-01 1.96564E-02 2.75157E-04-1.50931E-01 2.88284E-05 2.09450E-05
 -1      4943 1.61977E-01-2.45836E-02 2.75157E-04-1.28389E-01 3.17500E-05 1.61774E-05
 -1      4944 1.97086E-01-5.96926E-02 2.75157E-04-9.32803E-02 3.38898E-05 1.10115E-05
 -1      4945 2.19627E-01-8.22340E-02 2.75157E-04-4.90404E-02 3.51951E-05 5.57436E-06
 -1      4946-7.14248E-02 2.08498E-01 2.43773E-04-4.54763E-02 5.21752E-06 3.29422E-05
 -1      4947-5.05217E-02 1.87595E-01 2.43773E-04-8.65010E-02 1.03066E-05 3.17204E-05
 -1      4948-1.79643E-02 1.55038E-01 2.43773E-04-1.19058E-01 1.51418E-05 2.97175E-05
 -1      4949 2.30605E-02 1.14013E-01 2.43773E-04-1.39962E-01 1.96043E-05 2.69830E-05
 -1      4950 6.85367E-02 6.85367E-02 2.43773E-04-1.47164E-01 2.35840E-05 2.35840E-05
 -1      4951 1.14013E-01 2.30605E-02 2.43773E-04-1.39962E-01 2.69830E-05 1.96043E-05
 -1      4952 1.55038E-01-1.79643E-02 2.43773E-04-1.19058E-01 2.97175E-05 1.51418E-05
 -1      4953 1.87595E-01-5.05217E-02 2.43773E-04-8.65010E-02 3.17204E-05 1.03066E-05
 -1      4954 2.08498E-01-7.14248E-02 2.43773E-04-4.54763E-02 3.29422E-05 5.21753E-06
 -1      4955-6.17510E-02 1.98541E-01 2.16810E-04-4.22870E-02 4.88829E-06 3.08635E-05
 -1      4956-4.23138E-02 1.79104E-01 2.16810E-04-8.04347E-02 9.65622E-06 2.97188E-05
 -1      4957-1.20397E-02 1.48830E-01 2.16810E-04-1.10709E-01 1.41864E-05 2.78423E-05
 -1      4958 2.61080E-02 1.10682E-01 2.16810E-04-1.30146E-01 1.83672E-05 2.52803E-05
 -1      4959 6.83950E-02 6.83950E-02 2.16810E-04-1.36844E-01 2.20958E-05 2.20958E-05
 -1      4960 1.10682E-01 2.61080E-02 2.16810E-04-1.30146E-01 2.52803E-05 1.83672E-05
 -1      4961 1.48830E-01-1.20397E-02 2.16810E-04-1.10709E-01 2.78423E-05 1.41864E-05
 -1      4962 1.79104E-01-4.23138E-02 2.16810E-04-8.04347E-02 2.97188E-05 9.65622E-06
 -1      4963 1.98541E-01-6.17510E-02 2.16810E-04-4.22870E-02 3.08635E-05 4.88829E-06
 -1      4964-5.30590E-02 1.89597E-01 1.93519E-04-3.94218E-02 4.58452E-06 2.89455E-05
 -1      4965-3.49388E-02 1.71476E-01 1.93519E-04-7.49847E-02 9.05615E-06 2.78720E-05
 -1      4966-6.71590E-03 1.43254E-01 1.93519E-04-1.03208E-01 1.33048E-05 2.61121E-05
 -1      4967 2.88470E-02 1.07691E-01 1.93519E-04-1.21328E-01 1.72258E-05 2.37093E-05
 -1      4968 6.82688E-02 6.82688E-02 1.93519E-04-1.27572E-01 2.07227E-05 2.07227E-05
 -1      4969 1.07691E-01 2.88470E-02 1.93519E-04-1.21328E-01 2.37093E-05 1.72258E-05
 -1      4970 1.43254E-01-6.71590E-03 1.93519E-04-1.03208E-01 2.61121E-05 1.33048E-05
 -1      4971 1.71476E-01-3.49388E-02 1.93519E-04-7.49847E-02 2.78720E-05 9.05615E-06
 -1      4972 1.89597E-01-5.30590E-02 1.93519E-04-3.94218E-02 2.89455E-05 4.58452E-06
 -1      4973-4.52205E-02 1.81532E-01 1.73290E-04-3.68382E-02 4.30444E-06 2.71772E-05
 -1      4974-2.82878E-02 1.64600E-01 1.73290E-04-7.00705E-02 8.50289E-06 2.61692E-05
 -1      4975-1.91455E-03 1.38226E-01 1.73290E-04-9.64438E-02 1.24920E-05 2.45169E-05
 -1      4976 3.13177E-02 1.04994E-01 1.73290E-04-1.13376E-01 1.61735E-05 2.22609E-05
 -1      4977 6.81560E-02 6.81560E-02 1.73290E-04-1.19211E-01 1.94567E-05 1.94567E-05
 -1      4978 1.04994E-01 3.13177E-02 1.73290E-04-1.13376E-01 2.22609E-05 1.61735E-05
 -1      4979 1.38226E-01-1.91455E-03 1.73290E-04-9.64438E-02 2.45169E-05 1.24920E-05
 -1      4980 1.64600E-01-2.82878E-02 1.73290E-04-7.00705E-02 2.61692E-05 8.50289E-06
 -1      4981 1.81532E-01-4.52205E-02 1.73290E-04-3.68382E-02 2.71772E-05 4.30444E-06
 -1      4982-3.81275E-02 1.74236E-01 1.55612E-04-3.45006E-02 4.04693E-06 2.55513E-05
 -1      4983-2.22693E-02 1.58378E-01 1.55612E-04-6.56241E-02 7.99421E-06 2.46037E-05
 -1      4984 2.43036E-03 1.33678E-01 1.55612E-04-9.03238E-02 1.17447E-05 2.30502E-05
 -1      4985 3.35538E-02 1.02555E-01 1.55612E-04-1.06182E-01 1.52059E-05 2.09291E-05
 -1      4986 6.80544E-02 6.80544E-02 1.55612E-04-1.11646E-01 1.82927E-05 1.82927E-05
 -1      4987 1.02555E-01 3.35538E-02 1.55612E-04-1.06182E-01 2.09291E-05 1.52059E-05
 -1      4988 1.33678E-01 2.43036E-03 1.55612E-04-9.03238E-02 2.30502E-05 1.17446E-05
 -1      4989 1.58378E-01-2.22693E-02 1.55612E-04-6.56241E-02 2.46037E-05 7.99422E-06
 -1      4990 1.74236E-01-3.81275E-02 1.55612E-04-3.45006E-02 2.55513E-05 4.04694E-06
 -1      4991-3.16890E-02 1.67614E-01 1.40038E-04-3.23787E-02 3.81205E-06 2.40683E-05
 -1      4992-1.68062E-02 1.52731E-01 1.40038E-04-6.15879E-02 7.53023E-06 2.31757E-05
 -1      4993 6.37441E-03 1.29550E-01 1.40038E-04-8.47685E-02 1.10630E-05 2.17124E-05
 -1      4994 3.55837E-02 1.00341E-01 1.40038E-04-9.96514E-02 1.43234E-05 1.97144E-05
 -1      4995 6.79623E-02 6.79623E-02 1.40038E-04-1.04780E-01 1.72310E-05 1.72310E-05
 -1      4996 1.00341E-01 3.55837E-02 1.40038E-04-9.96514E-02 1.97144E-05 1.43234E-05
 -1      4997 1.29550E-01 6.37441E-03 1.40038E-04-8.47685E-02 2.17124E-05 1.10630E-05
 -1      4998 1.52731E-01-1.68062E-02 1.40038E-04-6.15879E-02 2.31757E-05 7.53024E-06
 -1      4999 1.67614E-01-3.16890E-02 1.40038E-04-3.23787E-02 2.40683E-05 3.81206E-06
 -1      5000-2.58281E-02 1.61584E-01 1.26139E-04-3.04469E-02 3.60171E-06 2.27403E-05
 -1      5001-1.18332E-02 1.47589E-01 1.26139E-04-5.79135E-02 7.11473E-06 2.18969E-05
 -1      5002 9.96441E-03 1.25791E-01 1.26139E-04-7.97110E-02 1.04526E-05 2.05143E-05
 -1      5003 3.74310E-02 9.83248E-02 1.26139E-04-9.37059E-02 1.35330E-05 1.86266E-05
 -1      5004 6.78779E-02 6.78779E-02 1.26139E-04-9.85283E-02 1.62802E-05 1.62803E-05
 -1      5005 9.83248E-02 3.74310E-02 1.26139E-04-9.37059E-02 1.86266E-05 1.35330E-05
 -1      5006 1.25791E-01 9.96441E-03 1.26139E-04-7.97110E-02 2.05143E-05 1.04525E-05
 -1      5007 1.47589E-01-1.18332E-02 1.26139E-04-5.79135E-02 2.18969E-05 7.11474E-06
 -1      5008 1.61584E-01-2.58281E-02 1.26139E-04-3.04469E-02 2.27403E-05 3.60173E-06
 -1      5009-2.04802E-02 1.56077E-01 1.13401E-04-2.86835E-02 3.42268E-06 2.16100E-05
 -1      5010-7.29584E-03 1.42893E-01 1.13401E-04-5.45592E-02 6.76109E-06 2.08085E-05
 -1      5011 1.32393E-02 1.22358E-01 1.13401E-04-7.50943E-02 9.93302E-06 1.94946E-05
 -1      5012 3.91150E-02 9.64819E-02 1.13401E-04-8.82787E-02 1.28604E-05 1.77008E-05
 -1      5013 6.77985E-02 6.77985E-02 1.13401E-04-9.28217E-02 1.54710E-05 1.54710E-05
 -1      5014 9.64819E-02 3.91150E-02 1.13401E-04-8.82787E-02 1.77007E-05 1.28603E-05
 -1      5015 1.22358E-01 1.32393E-02 1.13401E-04-7.50943E-02 1.94947E-05 9.93299E-06
 -1      5016 1.42893E-01-7.29584E-03 1.13401E-04-5.45592E-02 2.08085E-05 6.76110E-06
 -1      5017 1.56077E-01-2.04802E-02 1.13401E-04-2.86835E-02 2.16100E-05 3.42272E-06
 -1      5018-1.55926E-02 1.51033E-01 1.01231E-04-2.70700E-02 3.28758E-06 2.07570E-05
 -1      5019-3.14985E-03 1.38591E-01 1.01231E-04-5.14902E-02 6.49421E-06 1.99871E-05
 -1      5020 1.62301E-02 1.19211E-01 1.01231E-04-7.08702E-02 9.54094E-06 1.87251E-05
 -1      5021 4.06503E-02 9.47904E-02 1.01230E-04-8.33129E-02 1.23527E-05 1.70021E-05
 -1      5022 6.77204E-02 6.77204E-02 1.01231E-04-8.76004E-02 1.48603E-05 1.48604E-05
 -1      5023 9.47904E-02 4.06503E-02 1.01231E-04-8.33129E-02 1.70020E-05 1.23527E-05
 -1      5024 1.19211E-01 1.62301E-02 1.01231E-04-7.08702E-02 1.87251E-05 9.54088E-06
 -1      5025 1.38591E-01-3.14986E-03 1.01230E-04-5.14902E-02 1.99872E-05 6.49425E-06
 -1      5026 1.51033E-01-1.55926E-02 1.01231E-04-2.70700E-02 2.07569E-05 3.28770E-06
 -1      5027-1.11251E-02 1.46398E-01 8.81891E-05-2.55912E-02 3.23657E-06 2.04349E-05
 -1      5028 6.37891E-04 1.34635E-01 8.81892E-05-4.86774E-02 6.39344E-06 1.96770E-05
 -1      5029 1.89592E-02 1.16314E-01 8.81891E-05-6.69987E-02 9.39291E-06 1.84345E-05
 -1      5030 4.20454E-02 9.32279E-02 8.81888E-05-7.87618E-02 1.21611E-05 1.67382E-05
 -1      5031 6.76366E-02 6.76366E-02 8.81890E-05-8.28150E-02 1.46298E-05 1.46298E-05
 -1      5032 9.32279E-02 4.20454E-02 8.81896E-05-7.87617E-02 1.67382E-05 1.21609E-05
 -1      5033 1.16314E-01 1.89592E-02 8.81891E-05-6.69987E-02 1.84346E-05 9.39277E-06
 -1      5034 1.34635E-01 6.37882E-04 8.81884E-05-4.86774E-02 1.96771E-05 6.39341E-06
 -1      5035 1.46398E-01-1.11251E-02 8.81893E-05-2.55912E-02 2.04348E-05 3.23659E-06
 -1      5036-7.05194E-03 1.42124E-01 7.43767E-05-2.42351E-02 3.36646E-06 2.12550E-05
 -1      5037 4.08770E-03 1.30984E-01 7.43767E-05-4.60979E-02 6.65002E-06 2.04667E-05
 -1      5038 2.14381E-02 1.13634E-01 7.43766E-05-6.34483E-02 9.76988E-06 1.91744E-05
 -1      5039 4.33009E-02 9.17711E-02 7.43764E-05-7.45879E-02 1.26491E-05 1.74102E-05
 -1      5040 6.75360E-02 6.75360E-02 7.43767E-05-7.84264E-02 1.52165E-05 1.52174E-05
 -1      5041 9.17711E-02 4.33009E-02 7.43770E-05-7.45879E-02 1.74097E-05 1.26493E-05
 -1      5042 1.13634E-01 2.14381E-02 7.43766E-05-6.34483E-02 1.91745E-05 9.76971E-06
 -1      5043 1.30984E-01 4.08769E-03 7.43761E-05-4.60979E-02 2.04668E-05 6.65056E-06
 -1      5044 1.42124E-01-7.05194E-03 7.43770E-05-2.42351E-02 2.12548E-05 3.36759E-06
 -1      5045-3.36513E-03 1.38161E-01 4.86082E-05-2.29922E-02 3.95759E-06 2.49872E-05
 -1      5046 7.20325E-03 1.27592E-01 4.86082E-05-4.37339E-02 7.81782E-06 2.40604E-05
 -1      5047 2.36639E-02 1.11132E-01 4.86083E-05-6.01945E-02 1.14857E-05 2.25412E-05
 -1      5048 4.44055E-02 9.03900E-02 4.86085E-05-7.07629E-02 1.48712E-05 2.04671E-05
 -1      5049 6.73977E-02 6.73977E-02 4.86082E-05-7.44045E-02 1.78902E-05 1.78878E-05
 -1      5050 9.03900E-02 4.44055E-02 4.86079E-05-7.07629E-02 2.04674E-05 1.48685E-05
 -1      5051 1.11132E-01 2.36639E-02 4.86083E-05-6.01945E-02 2.25418E-05 1.14845E-05
 -1      5052 1.27592E-01 7.20324E-03 4.86087E-05-4.37339E-02 2.40621E-05 7.81629E-06
 -1      5053 1.38161E-01-3.36512E-03 4.86077E-05-2.29923E-02 2.49869E-05 3.95511E-06
 -1      5054-4.05254E-05 1.34459E-01 5.53818E-05-2.18507E-02 4.54715E-06 2.87098E-05
 -1      5055 1.00031E-02 1.24415E-01 5.53821E-05-4.15625E-02 8.98214E-06 2.76450E-05
 -1      5056 2.56465E-02 1.08772E-01 5.53831E-05-5.72059E-02 1.31960E-05 2.58999E-05
 -1      5057 4.53583E-02 8.90597E-02 5.53847E-05-6.72495E-02 1.70839E-05 2.35182E-05
 -1      5058 6.72090E-02 6.72090E-02 5.53832E-05-7.07104E-02 2.05483E-05 2.05596E-05
 -1      5059 8.90597E-02 4.53583E-02 5.53794E-05-6.72496E-02 2.35122E-05 1.70904E-05
 -1      5060 1.08772E-01 2.56465E-02 5.53826E-05-5.72059E-02 2.58992E-05 1.31974E-05
 -1      5061 1.24415E-01 1.00031E-02 5.53857E-05-4.15625E-02 2.76435E-05 8.98995E-06
 -1      5062 1.34459E-01-4.05202E-05 5.53778E-05-2.18507E-02 2.87070E-05 4.56057E-06
 -1      5063-8.04914E-01 9.37138E-01 2.38102E-04-1.37957E-01 1.52990E-06 1.94392E-05
 -1      5064-8.53210E-01 9.94474E-01 6.64480E-04-3.00174E-01-7.55222E-05-4.76828E-04
 -1      5066-7.19652E-01 8.51876E-01 2.38102E-04-4.00367E-01 4.55204E-06 1.89606E-05
 -1      5067-7.15235E-01 8.56499E-01 6.64480E-04-5.70966E-01-1.49185E-04-4.59143E-04
 -1      5069-5.57474E-01 6.89698E-01 2.38102E-04-6.23586E-01 7.46208E-06 1.80151E-05
 -1      5070-5.00334E-01 6.41598E-01 6.64480E-04-7.85867E-01-2.19174E-04-4.30153E-04
 -1      5072-3.34255E-01 4.66479E-01 2.38102E-04-7.85764E-01 1.01884E-05 1.66259E-05
 -1      5073-2.29543E-01 3.70806E-01 6.64480E-04-9.23842E-01-2.83766E-04-3.90571E-04
 -1      5075-7.18452E-02 2.04069E-01 2.38102E-04-8.71026E-01 1.26638E-05 1.48274E-05
 -1      5076 7.06318E-02 7.06318E-02 6.64480E-04-9.71385E-01-3.41371E-04-3.41371E-04
 -1      5078 2.04069E-01-7.18452E-02 2.38102E-04-8.71026E-01 1.48274E-05 1.26639E-05
 -1      5079 3.70806E-01-2.29543E-01 6.64480E-04-9.23842E-01-3.90570E-04-2.83766E-04
 -1      5081 4.66479E-01-3.34255E-01 2.38102E-04-7.85764E-01 1.66262E-05 1.01882E-05
 -1      5082 6.41598E-01-5.00334E-01 6.64479E-04-7.85867E-01-4.30152E-04-2.19174E-04
 -1      5084 6.89698E-01-5.57474E-01 2.38102E-04-6.23586E-01 1.80149E-05 7.46244E-06
 -1      5085 8.56499E-01-7.15235E-01 6.64481E-04-5.70966E-01-4.59144E-04-1.49185E-04
 -1      5087 8.51876E-01-7.19652E-01 2.38101E-04-4.00367E-01 1.89605E-05 4.55167E-06
 -1      5088 9.94474E-01-8.53210E-01 6.64480E-04-3.00174E-01-4.76829E-04-7.55227E-05
 -1      5090 9.37138E-01-8.04914E-01 2.38102E-04-1.37957E-01 1.94392E-05 1.52998E-06
 -1      5092-6.67624E-01 7.97545E-01 2.73143E-05-1.16030E-01-1.03299E-05-1.31254E-04
 -1      5093-6.97649E-01 8.47734E-01 1.98224E-03-2.51063E-01 1.54845E-05 9.77654E-05
 -1      5095-5.95913E-01 7.25834E-01 2.73143E-05-3.36732E-01-3.07354E-05-1.28022E-04
 -1      5096-5.82248E-01 7.32333E-01 1.98224E-03-4.77550E-01 3.05878E-05 9.41395E-05
 -1      5098-4.59512E-01 5.89433E-01 2.73143E-05-5.24472E-01-5.03841E-05-1.21638E-04
 -1      5099-4.02507E-01 5.52592E-01 1.98224E-03-6.57291E-01 4.49378E-05 8.81955E-05
 -1      5101-2.71772E-01 4.01692E-01 2.73143E-05-6.60874E-01-6.87921E-05-1.12259E-04
 -1      5102-1.76020E-01 3.26105E-01 1.98224E-03-7.72691E-01 5.81814E-05 8.00798E-05
 -1      5104-5.10696E-02 1.80990E-01 2.73143E-05-7.32584E-01-8.55063E-05-1.00115E-04
 -1      5105 7.50423E-02 7.50423E-02 1.98224E-03-8.12456E-01 6.99923E-05 6.99923E-05
 -1      5107 1.80990E-01-5.10696E-02 2.73144E-05-7.32584E-01-1.00115E-04-8.55063E-05
 -1      5108 3.26105E-01-1.76020E-01 1.98224E-03-7.72691E-01 8.00797E-05 5.81814E-05
 -1      5110 4.01692E-01-2.71772E-01 2.73143E-05-6.60874E-01-1.12259E-04-6.87921E-05
 -1      5111 5.52592E-01-4.02507E-01 1.98224E-03-6.57291E-01 8.81956E-05 4.49374E-05
 -1      5113 5.89433E-01-4.59512E-01 2.73143E-05-5.24472E-01-1.21638E-04-5.03844E-05
 -1      5114 7.32333E-01-5.82248E-01 1.98224E-03-4.77550E-01 9.41397E-05 3.05874E-05
 -1      5116 7.25834E-01-5.95913E-01 2.73144E-05-3.36732E-01-1.28022E-04-3.07353E-05
 -1      5117 8.47734E-01-6.97649E-01 1.98224E-03-2.51063E-01 9.77655E-05 1.54846E-05
 -1      5119 7.97545E-01-6.67624E-01 2.73143E-05-1.16030E-01-1.31254E-04-1.03299E-05
 -1      5121-5.59650E-01 6.89168E-01-1.67179E-04-9.88967E-02-7.91664E-06-1.00590E-04
 -1      5122-5.79711E-01 7.27905E-01 1.47187E-03-2.12435E-01 2.74960E-05 1.73603E-04
 -1      5124-4.98529E-01 6.28046E-01-1.67179E-04-2.87009E-01-2.35550E-05-9.81136E-05
 -1      5125-4.82066E-01 6.30260E-01 1.47187E-03-4.04076E-01 5.43149E-05 1.67164E-04
 -1      5127-3.82269E-01 5.11786E-01-1.67179E-04-4.47027E-01-3.86133E-05-9.32209E-05
 -1      5128-3.29979E-01 4.78173E-01 1.47187E-03-5.56163E-01 7.97964E-05 1.56609E-04
 -1      5130-2.22250E-01 3.51768E-01-1.67179E-04-5.63287E-01-5.27209E-05-8.60327E-05
 -1      5131-1.38338E-01 2.86532E-01 1.47187E-03-6.53808E-01 1.03313E-04 1.42198E-04
 -1      5133-3.41379E-02 1.63655E-01-1.67179E-04-6.24409E-01-6.55303E-05-7.67261E-05
 -1      5134 7.40970E-02 7.40970E-02 1.47187E-03-6.87455E-01 1.24286E-04 1.24286E-04
 -1      5136 1.63655E-01-3.41379E-02-1.67180E-04-6.24409E-01-7.67261E-05-6.55303E-05
 -1      5137 2.86532E-01-1.38338E-01 1.47187E-03-6.53808E-01 1.42198E-04 1.03313E-04
 -1      5139 3.51768E-01-2.22250E-01-1.67179E-04-5.63287E-01-8.60327E-05-5.27209E-05
 -1      5140 4.78173E-01-3.29979E-01 1.47187E-03-5.56163E-01 1.56609E-04 7.97965E-05
 -1      5142 5.11786E-01-3.82269E-01-1.67179E-04-4.47027E-01-9.32209E-05-3.86133E-05
 -1      5143 6.30260E-01-4.82066E-01 1.47187E-03-4.04076E-01 1.67164E-04 5.43150E-05
 -1      5145 6.28046E-01-4.98529E-01-1.67180E-04-2.87009E-01-9.81136E-05-2.35550E-05
 -1      5146 7.27905E-01-5.79711E-01 1.47187E-03-2.12435E-01 1.73603E-04 2.74960E-05
 -1      5148 6.89168E-01-5.59650E-01-1.67179E-04-9.88967E-02-1.00590E-04-7.91664E-06
 -1      5150-4.73713E-01 6.03301E-01-1.70149E-04-8.52912E-02-6.81619E-06-8.66079E-05
 -1      5151-4.87304E-01 6.33636E-01 1.26214E-03-1.82108E-01 1.99145E-05 1.25735E-04
 -1      5153-4.21001E-01 5.50588E-01-1.70149E-04-2.47525E-01-2.02807E-05-8.44753E-05
 -1      5154-4.03598E-01 5.49930E-01 1.26214E-03-3.46389E-01 3.93387E-05 1.21072E-04
 -1      5156-3.20735E-01 4.50322E-01-1.70149E-04-3.85529E-01-3.32459E-05-8.02627E-05
 -1      5157-2.73223E-01 4.19556E-01 1.26214E-03-4.76764E-01 5.77943E-05 1.13428E-04
 -1      5159-1.82731E-01 3.12318E-01-1.70149E-04-4.85794E-01-4.53924E-05-7.40737E-05
 -1      5160-1.08942E-01 2.55274E-01 1.26214E-03-5.60470E-01 7.48267E-05 1.02990E-04
 -1      5162-2.04973E-02 1.50085E-01-1.70149E-04-5.38507E-01-5.64213E-05-6.60608E-05
 -1      5163 7.31662E-02 7.31662E-02 1.26214E-03-5.89313E-01 9.00167E-05 9.00167E-05
 -1      5165 1.50085E-01-2.04973E-02-1.70149E-04-5.38507E-01-6.60608E-05-5.64213E-05
 -1      5166 2.55274E-01-1.08942E-01 1.26214E-03-5.60470E-01 1.02990E-04 7.48267E-05
 -1      5168 3.12318E-01-1.82731E-01-1.70149E-04-4.85794E-01-7.40737E-05-4.53924E-05
 -1      5169 4.19556E-01-2.73223E-01 1.26214E-03-4.76764E-01 1.13428E-04 5.77942E-05
 -1      5171 4.50322E-01-3.20735E-01-1.70149E-04-3.85529E-01-8.02627E-05-3.32459E-05
 -1      5172 5.49930E-01-4.03598E-01 1.26214E-03-3.46389E-01 1.21072E-04 3.93387E-05
 -1      5174 5.50588E-01-4.21001E-01-1.70149E-04-2.47525E-01-8.44753E-05-2.02807E-05
 -1      5175 6.33636E-01-4.87304E-01 1.26214E-03-1.82108E-01 1.25735E-04 1.99145E-05
 -1      5177 6.03301E-01-4.73713E-01-1.70149E-04-8.52912E-02-8.66079E-05-6.81619E-06
 -1      5179-4.04301E-01 5.34053E-01-1.77096E-04-7.43103E-02-5.49334E-06-6.97995E-05
 -1      5180-4.13424E-01 5.58148E-01 1.04045E-03-1.57841E-01 1.79326E-05 1.13222E-04
 -1      5182-3.58375E-01 4.88126E-01-1.77096E-04-2.15657E-01-1.63448E-05-6.80809E-05
 -1      5183-3.40873E-01 4.85596E-01 1.04045E-03-3.00232E-01 3.54236E-05 1.09023E-04
 -1      5185-2.71018E-01 4.00769E-01-1.77096E-04-3.35894E-01-2.67937E-05-6.46858E-05
 -1      5186-2.27871E-01 3.72594E-01 1.04045E-03-4.13234E-01 5.20424E-05 1.02139E-04
 -1      5188-1.50781E-01 2.80533E-01-1.77096E-04-4.23251E-01-3.65829E-05-5.96979E-05
 -1      5189-8.54797E-02 2.30203E-01 1.04045E-03-4.85786E-01 6.73798E-05 9.27403E-05
 -1      5191-9.43459E-03 1.39186E-01-1.77096E-04-4.69177E-01-4.54714E-05-5.32401E-05
 -1      5192 7.23618E-02 7.23618E-02 1.04045E-03-5.10786E-01 8.10580E-05 8.10580E-05
 -1      5194 1.39186E-01-9.43459E-03-1.77096E-04-4.69177E-01-5.32401E-05-4.54714E-05
 -1      5195 2.30203E-01-8.54797E-02 1.04045E-03-4.85786E-01 9.27403E-05 6.73798E-05
 -1      5197 2.80533E-01-1.50781E-01-1.77096E-04-4.23251E-01-5.96979E-05-3.65829E-05
 -1      5198 3.72594E-01-2.27871E-01 1.04045E-03-4.13234E-01 1.02139E-04 5.20424E-05
 -1      5200 4.00769E-01-2.71018E-01-1.77096E-04-3.35894E-01-6.46858E-05-2.67937E-05
 -1      5201 4.85596E-01-3.40873E-01 1.04045E-03-3.00232E-01 1.09023E-04 3.54236E-05
 -1      5203 4.88126E-01-3.58375E-01-1.77096E-04-2.15657E-01-6.80809E-05-1.63448E-05
 -1      5204 5.58148E-01-4.13424E-01 1.04045E-03-1.57841E-01 1.13222E-04 1.79326E-05
 -1      5206 5.34053E-01-4.04301E-01-1.77096E-04-7.43103E-02-6.97995E-05-5.49334E-06
 -1      5208-3.47439E-01 4.77398E-01-1.70700E-04-6.53207E-02-4.66502E-06-5.92747E-05
 -1      5209-3.53396E-01 4.96792E-01 8.76479E-04-1.38122E-01 1.56339E-05 9.87084E-05
 -1      5211-3.07068E-01 4.37028E-01-1.70700E-04-1.89568E-01-1.38802E-05-5.78151E-05
 -1      5212-2.89909E-01 4.33305E-01 8.76479E-04-2.62723E-01 3.08828E-05 9.50474E-05
 -1      5214-2.30279E-01 3.60239E-01-1.70700E-04-2.95259E-01-2.27536E-05-5.49320E-05
 -1      5215-1.91025E-01 3.34421E-01 8.76479E-04-3.61607E-01 4.53713E-05 8.90461E-05
 -1      5217-1.24588E-01 2.54548E-01-1.70700E-04-3.72048E-01-3.10667E-05-5.06962E-05
 -1      5218-6.64234E-02 2.09820E-01 8.76479E-04-4.25094E-01 5.87425E-05 8.08522E-05
 -1      5220-3.40898E-04 1.30300E-01-1.70700E-04-4.12419E-01-3.86149E-05-4.52122E-05
 -1      5221 7.16981E-02 7.16981E-02 8.76479E-04-4.46971E-01 7.06674E-05 7.06674E-05
 -1      5223 1.30300E-01-3.40897E-04-1.70700E-04-4.12419E-01-4.52122E-05-3.86149E-05
 -1      5224 2.09820E-01-6.64234E-02 8.76479E-04-4.25094E-01 8.08522E-05 5.87425E-05
 -1      5226 2.54548E-01-1.24588E-01-1.70700E-04-3.72048E-01-5.06962E-05-3.10667E-05
 -1      5227 3.34421E-01-1.91025E-01 8.76479E-04-3.61607E-01 8.90461E-05 4.53713E-05
 -1      5229 3.60239E-01-2.30279E-01-1.70700E-04-2.95259E-01-5.49320E-05-2.27536E-05
 -1      5230 4.33305E-01-2.89909E-01 8.76479E-04-2.62723E-01 9.50474E-05 3.08828E-05
 -1      5232 4.37028E-01-3.07068E-01-1.70700E-04-1.89568E-01-5.78151E-05-1.38802E-05
 -1      5233 4.96792E-01-3.53396E-01 8.76479E-04-1.38122E-01 9.87084E-05 1.56339E-05
 -1      5235 4.77398E-01-3.47439E-01-1.70700E-04-6.53207E-02-5.92747E-05-4.66502E-06
 -1      5237-3.00276E-01 4.30457E-01-1.61101E-04-5.78684E-02-4.00118E-06-5.08398E-05
 -1      5238-3.03968E-01 4.46245E-01 7.42717E-04-1.21879E-01 1.38644E-05 8.75364E-05
 -1      5240-2.64512E-01 3.94693E-01-1.61101E-04-1.67941E-01-1.19050E-05-4.95879E-05
 -1      5241-2.47946E-01 3.90223E-01 7.42717E-04-2.31828E-01 2.73874E-05 8.42898E-05
 -1      5243-1.96483E-01 3.26664E-01-1.61101E-04-2.61574E-01-1.95157E-05-4.71151E-05
 -1      5244-1.60690E-01 3.02967E-01 7.42717E-04-3.19084E-01 4.02361E-05 7.89677E-05
 -1      5246-1.02850E-01 2.33031E-01-1.61101E-04-3.29602E-01-2.66458E-05-4.34821E-05
 -1      5247-5.07408E-02 1.93018E-01 7.42717E-04-3.75106E-01 5.20940E-05 7.17012E-05
 -1      5249 7.22209E-03 1.22959E-01-1.61101E-04-3.65367E-01-3.31199E-05-3.87784E-05
 -1      5250 7.11385E-02 7.11385E-02 7.42717E-04-3.94410E-01 6.26691E-05 6.26691E-05
 -1      5252 1.22959E-01 7.22209E-03-1.61101E-04-3.65367E-01-3.87784E-05-3.31199E-05
 -1      5253 1.93018E-01-5.07408E-02 7.42717E-04-3.75106E-01 7.17012E-05 5.20940E-05
 -1      5255 2.33031E-01-1.02850E-01-1.61101E-04-3.29602E-01-4.34821E-05-2.66458E-05
 -1      5256 3.02967E-01-1.60690E-01 7.42717E-04-3.19084E-01 7.89677E-05 4.02361E-05
 -1      5258 3.26664E-01-1.96483E-01-1.61101E-04-2.61574E-01-4.71151E-05-1.95157E-05
 -1      5259 3.90223E-01-2.47946E-01 7.42717E-04-2.31828E-01 8.42898E-05 2.73874E-05
 -1      5261 3.94693E-01-2.64512E-01-1.61101E-04-1.67941E-01-4.95879E-05-1.19050E-05
 -1      5262 4.46245E-01-3.03968E-01 7.42717E-04-1.21879E-01 8.75364E-05 1.38644E-05
 -1      5264 4.30457E-01-3.00276E-01-1.61101E-04-5.78684E-02-5.08398E-05-4.00118E-06
 -1      5266-2.60729E-01 3.91129E-01-1.49430E-04-5.16221E-02-3.48955E-06-4.43389E-05
 -1      5267-2.62780E-01 4.04109E-01 6.34452E-04-1.08343E-01 1.24064E-05 7.83307E-05
 -1      5269-2.28824E-01 3.59225E-01-1.49430E-04-1.49813E-01-1.03827E-05-4.32471E-05
 -1      5270-2.12981E-01 3.54309E-01 6.34452E-04-2.06080E-01 2.45072E-05 7.54255E-05
 -1      5272-1.68139E-01 2.98540E-01-1.49430E-04-2.33339E-01-1.70202E-05-4.10905E-05
 -1      5273-1.35416E-01 2.76745E-01 6.34452E-04-2.83645E-01 3.60047E-05 7.06632E-05
 -1      5275-8.46127E-02 2.15013E-01-1.49430E-04-2.94025E-01-2.32387E-05-3.79220E-05
 -1      5276-3.76784E-02 1.79007E-01 6.34452E-04-3.33445E-01 4.66156E-05 6.41608E-05
 -1      5278 1.35783E-02 1.16822E-01-1.49430E-04-3.25929E-01-2.88849E-05-3.38198E-05
 -1      5279 7.06643E-02 7.06643E-02 6.34452E-04-3.50605E-01 5.60786E-05 5.60786E-05
 -1      5281 1.16822E-01 1.35783E-02-1.49430E-04-3.25929E-01-3.38198E-05-2.88849E-05
 -1      5282 1.79007E-01-3.76784E-02 6.34452E-04-3.33445E-01 6.41608E-05 4.66156E-05
 -1      5284 2.15013E-01-8.46127E-02-1.49430E-04-2.94025E-01-3.79220E-05-2.32387E-05
 -1      5285 2.76745E-01-1.35416E-01 6.34452E-04-2.83645E-01 7.06632E-05 3.60047E-05
 -1      5287 2.98540E-01-1.68139E-01-1.49430E-04-2.33339E-01-4.10905E-05-1.70202E-05
 -1      5288 3.54309E-01-2.12981E-01 6.34452E-04-2.06080E-01 7.54255E-05 2.45072E-05
 -1      5290 3.59225E-01-2.28824E-01-1.49430E-04-1.49813E-01-4.32471E-05-1.03827E-05
 -1      5291 4.04109E-01-2.62780E-01 6.34452E-04-1.08343E-01 7.83307E-05 1.24064E-05
 -1      5293 3.91129E-01-2.60729E-01-1.49430E-04-5.16221E-02-4.43389E-05-3.48955E-06
 -1      5295-2.27241E-01 3.57852E-01-1.37367E-04-4.63349E-02-3.07873E-06-3.91189E-05
 -1      5296-2.28099E-01 3.68618E-01 5.45710E-04-9.69425E-02 1.11790E-05 7.05813E-05
 -1      5298-1.98605E-01 3.29216E-01-1.37367E-04-1.34469E-01-9.16037E-06-3.81557E-05
 -1      5299-1.83539E-01 3.24058E-01 5.45710E-04-1.84396E-01 2.20827E-05 6.79635E-05
 -1      5301-1.44135E-01 2.74746E-01-1.37367E-04-2.09440E-01-1.50165E-05-3.62529E-05
 -1      5302-1.14136E-01 2.54655E-01 5.45710E-04-2.53799E-01 3.24426E-05 6.36723E-05
 -1      5304-6.91636E-02 1.99774E-01-1.37367E-04-2.63910E-01-2.05028E-05-3.34575E-05
 -1      5305-2.66829E-02 1.67202E-01 5.45710E-04-2.98358E-01 4.20038E-05 5.78132E-05
 -1      5307 1.89705E-02 1.11640E-01-1.37367E-04-2.92547E-01-2.54843E-05-2.98382E-05
 -1      5308 7.02596E-02 7.02596E-02 5.45710E-04-3.13712E-01 5.05306E-05 5.05306E-05
 -1      5310 1.11640E-01 1.89705E-02-1.37367E-04-2.92547E-01-2.98382E-05-2.54843E-05
 -1      5311 1.67202E-01-2.66829E-02 5.45710E-04-2.98358E-01 5.78132E-05 4.20038E-05
 -1      5313 1.99774E-01-6.91636E-02-1.37367E-04-2.63910E-01-3.34575E-05-2.05028E-05
 -1      5314 2.54655E-01-1.14136E-01 5.45710E-04-2.53799E-01 6.36723E-05 3.24426E-05
 -1      5316 2.74746E-01-1.44135E-01-1.37367E-04-2.09440E-01-3.62529E-05-1.50165E-05
 -1      5317 3.24058E-01-1.83539E-01 5.45710E-04-1.84396E-01 6.79635E-05 2.20827E-05
 -1      5319 3.29216E-01-1.98605E-01-1.37367E-04-1.34469E-01-3.81557E-05-9.16037E-06
 -1      5320 3.68618E-01-2.28099E-01 5.45710E-04-9.69425E-02 7.05813E-05 1.11790E-05
 -1      5322 3.57852E-01-2.27241E-01-1.37367E-04-4.63349E-02-3.91189E-05-3.07873E-06
 -1      5324-1.98638E-01 3.29445E-01-1.25553E-04-4.18200E-02-2.74356E-06-3.48603E-05
 -1      5325-1.98621E-01 3.38444E-01 4.72328E-04-8.72514E-02 1.01358E-05 6.39947E-05
 -1      5327-1.72791E-01 3.03599E-01-1.25553E-04-1.21367E-01-8.16314E-06-3.40019E-05
 -1      5328-1.58515E-01 2.98339E-01 4.72328E-04-1.65962E-01 2.00220E-05 6.16213E-05
 -1      5330-1.23629E-01 2.54436E-01-1.25553E-04-1.89033E-01-1.33817E-05-3.23063E-05
 -1      5331-9.60503E-02 2.35874E-01 4.72328E-04-2.28427E-01 2.94151E-05 5.77305E-05
 -1      5333-5.59628E-02 1.86770E-01-1.25553E-04-2.38195E-01-1.82708E-05-2.98152E-05
 -1      5334-1.73397E-02 1.57163E-01 4.72328E-04-2.68532E-01 3.80840E-05 5.24182E-05
 -1      5336 2.35837E-02 1.07224E-01-1.25553E-04-2.64041E-01-2.27100E-05-2.65899E-05
 -1      5337 6.99118E-02 6.99118E-02 4.72328E-04-2.82352E-01 4.58152E-05 4.58152E-05
 -1      5339 1.07224E-01 2.35837E-02-1.25553E-04-2.64041E-01-2.65899E-05-2.27100E-05
 -1      5340 1.57163E-01-1.73397E-02 4.72328E-04-2.68532E-01 5.24182E-05 3.80840E-05
 -1      5342 1.86770E-01-5.59628E-02-1.25553E-04-2.38195E-01-2.98152E-05-1.82708E-05
 -1      5343 2.35874E-01-9.60503E-02 4.72328E-04-2.28427E-01 5.77305E-05 2.94151E-05
 -1      5345 2.54436E-01-1.23629E-01-1.25553E-04-1.89033E-01-3.23063E-05-1.33817E-05
 -1      5346 2.98339E-01-1.58515E-01 4.72328E-04-1.65962E-01 6.16213E-05 2.00220E-05
 -1      5348 3.03599E-01-1.72791E-01-1.25553E-04-1.21367E-01-3.40019E-05-8.16314E-06
 -1      5349 3.38444E-01-1.98621E-01 4.72328E-04-8.72514E-02 6.39947E-05 1.01358E-05
 -1      5351 3.29445E-01-1.98638E-01-1.25553E-04-4.18200E-02-3.48603E-05-2.74356E-06
 -1      5353-1.74013E-01 3.05002E-01-1.14383E-04-3.79342E-02-2.46497E-06-3.13204E-05
 -1      5354-1.73354E-01 3.12576E-01 4.11148E-04-7.89443E-02 9.23679E-06 5.83188E-05
 -1      5356-1.50568E-01 2.81557E-01-1.14383E-04-1.10089E-01-7.33421E-06-3.05492E-05
 -1      5357-1.37068E-01 2.76290E-01 4.11148E-04-1.50161E-01 1.82461E-05 5.61559E-05
 -1      5359-1.05974E-01 2.36963E-01-1.14383E-04-1.71468E-01-1.20229E-05-2.90257E-05
 -1      5360-8.05499E-02 2.19772E-01 4.11148E-04-2.06679E-01 2.68062E-05 5.26102E-05
 -1      5362-4.45947E-02 1.75584E-01-1.14383E-04-2.16063E-01-1.64155E-05-2.67876E-05
 -1      5363-9.33327E-03 1.48555E-01 4.11148E-04-2.42965E-01 3.47062E-05 4.77690E-05
 -1      5365 2.75605E-02 1.03429E-01-1.14383E-04-2.39507E-01-2.04039E-05-2.38899E-05
 -1      5366 6.96110E-02 6.96110E-02 4.11148E-04-2.55469E-01 4.17517E-05 4.17517E-05
 -1      5368 1.03429E-01 2.75605E-02-1.14383E-04-2.39507E-01-2.38899E-05-2.04039E-05
 -1      5369 1.48555E-01-9.33327E-03 4.11148E-04-2.42965E-01 4.77690E-05 3.47062E-05
 -1      5371 1.75584E-01-4.45947E-02-1.14383E-04-2.16063E-01-2.67876E-05-1.64155E-05
 -1      5372 2.19772E-01-8.05499E-02 4.11148E-04-2.06679E-01 5.26102E-05 2.68062E-05
 -1      5374 2.36963E-01-1.05974E-01-1.14383E-04-1.71468E-01-2.90257E-05-1.20229E-05
 -1      5375 2.76290E-01-1.37068E-01 4.11148E-04-1.50161E-01 5.61559E-05 1.82461E-05
 -1      5377 2.81557E-01-1.50568E-01-1.14383E-04-1.10089E-01-3.05492E-05-7.33421E-06
 -1      5378 3.12576E-01-1.73354E-01 4.11148E-04-7.89443E-02 5.83188E-05 9.23680E-06
 -1      5380 3.05002E-01-1.74013E-01-1.14383E-04-3.79342E-02-3.13204E-05-2.46497E-06
 -1      5382-1.52662E-01 2.83818E-01-1.04023E-04-3.45658E-02-2.22989E-06-2.83335E-05
 -1      5383-1.51534E-01 2.90233E-01 3.59752E-04-7.17695E-02 8.45452E-06 5.33798E-05
 -1      5385-1.31299E-01 2.62455E-01-1.04023E-04-1.00314E-01-6.63478E-06-2.76358E-05
 -1      5386-1.18546E-01 2.57244E-01 3.59752E-04-1.36514E-01 1.67009E-05 5.14000E-05
 -1      5388-9.06642E-02 2.21821E-01-1.04023E-04-1.56242E-01-1.08763E-05-2.62577E-05
 -1      5389-6.71643E-02 2.05863E-01 3.59752E-04-1.87895E-01 2.45360E-05 4.81546E-05
 -1      5391-3.47356E-02 1.65892E-01-1.04023E-04-1.96877E-01-1.48500E-05-2.42330E-05
 -1      5392-2.42014E-03 1.41119E-01 3.59752E-04-2.20884E-01 3.17669E-05 4.37234E-05
 -1      5394 3.10125E-02 1.00144E-01-1.04023E-04-2.18240E-01-1.84580E-05-2.16116E-05
 -1      5395 6.93493E-02 6.93493E-02 3.59752E-04-2.32251E-01 3.82157E-05 3.82157E-05
 -1      5397 1.00144E-01 3.10125E-02-1.04023E-04-2.18240E-01-2.16116E-05-1.84580E-05
 -1      5398 1.41119E-01-2.42014E-03 3.59752E-04-2.20884E-01 4.37234E-05 3.17669E-05
 -1      5400 1.65892E-01-3.47356E-02-1.04023E-04-1.96877E-01-2.42330E-05-1.48500E-05
 -1      5401 2.05863E-01-6.71643E-02 3.59752E-04-1.87895E-01 4.81546E-05 2.45360E-05
 -1      5403 2.21821E-01-9.06642E-02-1.04023E-04-1.56242E-01-2.62577E-05-1.08763E-05
 -1      5404 2.57244E-01-1.18546E-01 3.59752E-04-1.36514E-01 5.14000E-05 1.67009E-05
 -1      5406 2.62455E-01-1.31299E-01-1.04023E-04-1.00314E-01-2.76358E-05-6.63478E-06
 -1      5407 2.90233E-01-1.51534E-01 3.59752E-04-7.17695E-02 5.33797E-05 8.45452E-06
 -1      5409 2.83818E-01-1.52662E-01-1.04023E-04-3.45658E-02-2.83335E-05-2.22990E-06
 -1      5411-1.34029E-01 2.65338E-01-9.45297E-05-3.16268E-02-2.02890E-06-2.57796E-05
 -1      5412-1.32561E-01 2.70802E-01 3.16276E-04-6.55302E-02 7.76769E-06 4.90432E-05
 -1      5414-1.14483E-01 2.45792E-01-9.45297E-05-9.17846E-02-6.03675E-06-2.51449E-05
 -1      5415-1.02440E-01 2.40681E-01 3.16276E-04-1.24646E-01 1.53441E-05 4.72243E-05
 -1      5417-7.73031E-02 2.08612E-01-9.45297E-05-1.42958E-01-9.89595E-06-2.38909E-05
 -1      5418-5.55254E-02 1.93766E-01 3.16276E-04-1.71560E-01 2.25427E-05 4.42425E-05
 -1      5420-2.61299E-02 1.57439E-01-9.45297E-05-1.80137E-01-1.35115E-05-2.20487E-05
 -1      5421 3.59021E-03 1.34651E-01 3.16276E-04-2.01681E-01 2.91862E-05 4.01714E-05
 -1      5423 3.40279E-02 9.72815E-02-9.45297E-05-1.99684E-01-1.67943E-05-1.96636E-05
 -1      5424 6.91204E-02 6.91204E-02 3.16276E-04-2.12060E-01 3.51111E-05 3.51111E-05
 -1      5426 9.72815E-02 3.40279E-02-9.45297E-05-1.99684E-01-1.96636E-05-1.67943E-05
 -1      5427 1.34651E-01 3.59021E-03 3.16276E-04-2.01681E-01 4.01714E-05 2.91862E-05
 -1      5429 1.57439E-01-2.61299E-02-9.45297E-05-1.80137E-01-2.20487E-05-1.35115E-05
 -1      5430 1.93766E-01-5.55254E-02 3.16276E-04-1.71560E-01 4.42425E-05 2.25427E-05
 -1      5432 2.08612E-01-7.73031E-02-9.45297E-05-1.42958E-01-2.38909E-05-9.89595E-06
 -1      5433 2.40681E-01-1.02440E-01 3.16276E-04-1.24646E-01 4.72243E-05 1.53441E-05
 -1      5435 2.45792E-01-1.14483E-01-9.45297E-05-9.17846E-02-2.51449E-05-6.03675E-06
 -1      5436 2.70802E-01-1.32561E-01 3.16276E-04-6.55302E-02 4.90432E-05 7.76769E-06
 -1      5438 2.65338E-01-1.34029E-01-9.45297E-05-3.16268E-02-2.57796E-05-2.02890E-06
 -1      5440-1.17673E-01 2.49122E-01-8.58961E-05-2.90473E-02-1.85508E-06-2.35711E-05
 -1      5441-1.15959E-01 2.53797E-01 2.79266E-04-6.00706E-02 7.16007E-06 4.52069E-05
 -1      5443-9.97206E-02 2.31169E-01-8.58961E-05-8.42985E-02-5.51958E-06-2.29907E-05
 -1      5444-8.83478E-02 2.26186E-01 2.79266E-04-1.14261E-01 1.41438E-05 4.35302E-05
 -1      5446-6.55735E-02 1.97022E-01-8.58961E-05-1.31298E-01-9.04816E-06-2.18442E-05
 -1      5447-4.53420E-02 1.83180E-01 2.79266E-04-1.57267E-01 2.07793E-05 4.07817E-05
 -1      5449-1.85740E-02 1.50023E-01-8.58961E-05-1.65445E-01-1.23539E-05-2.01598E-05
 -1      5450 8.84851E-03 1.28990E-01 2.79266E-04-1.84878E-01 2.69032E-05 3.70290E-05
 -1      5452 3.66772E-02 9.47717E-02-8.58961E-05-1.83397E-01-1.53555E-05-1.79790E-05
 -1      5453 6.89191E-02 6.89191E-02 2.79266E-04-1.94393E-01 3.23646E-05 3.23646E-05
 -1      5455 9.47717E-02 3.66772E-02-8.58961E-05-1.83397E-01-1.79790E-05-1.53555E-05
 -1      5456 1.28990E-01 8.84851E-03 2.79266E-04-1.84878E-01 3.70290E-05 2.69032E-05
 -1      5458 1.50023E-01-1.85740E-02-8.58961E-05-1.65445E-01-2.01598E-05-1.23539E-05
 -1      5459 1.83180E-01-4.53420E-02 2.79266E-04-1.57267E-01 4.07817E-05 2.07793E-05
 -1      5461 1.97022E-01-6.55735E-02-8.58961E-05-1.31298E-01-2.18442E-05-9.04816E-06
 -1      5462 2.26186E-01-8.83478E-02 2.79266E-04-1.14261E-01 4.35302E-05 1.41438E-05
 -1      5464 2.31169E-01-9.97206E-02-8.58961E-05-8.42985E-02-2.29907E-05-5.51958E-06
 -1      5465 2.53797E-01-1.15959E-01 2.79266E-04-6.00706E-02 4.52069E-05 7.16007E-06
 -1      5467 2.49122E-01-1.17673E-01-8.58961E-05-2.90473E-02-2.35711E-05-1.85508E-06
 -1      5469-1.03237E-01 2.34813E-01-7.80809E-05-2.67709E-02-1.70328E-06-2.16423E-05
 -1      5470-1.01350E-01 2.38832E-01 2.47575E-04-5.52660E-02 6.61896E-06 4.17905E-05
 -1      5472-8.66912E-02 2.18267E-01-7.80809E-05-7.76921E-02-5.06791E-06-2.11094E-05
 -1      5473-7.59470E-02 2.13429E-01 2.47575E-04-1.05122E-01 1.30749E-05 4.02406E-05
 -1      5475-5.52202E-02 1.86796E-01-7.80809E-05-1.21008E-01-8.30775E-06-2.00567E-05
 -1      5476-3.63809E-02 1.73863E-01 2.47575E-04-1.44688E-01 1.92090E-05 3.76998E-05
 -1      5478-1.19040E-02 1.43480E-01-7.80809E-05-1.52479E-01-1.13430E-05-1.85101E-05
 -1      5479 1.34753E-02 1.24007E-01 2.47575E-04-1.70091E-01 2.48700E-05 3.42307E-05
 -1      5481 3.90172E-02 9.25590E-02-7.80809E-05-1.69025E-01-1.40990E-05-1.65078E-05
 -1      5482 6.87412E-02 6.87412E-02 2.47575E-04-1.78844E-01 2.99187E-05 2.99187E-05
 -1      5484 9.25590E-02 3.90172E-02-7.80809E-05-1.69025E-01-1.65078E-05-1.40990E-05
 -1      5485 1.24007E-01 1.34753E-02 2.47575E-04-1.70091E-01 3.42307E-05 2.48700E-05
 -1      5487 1.43480E-01-1.19040E-02-7.80809E-05-1.52479E-01-1.85101E-05-1.13430E-05
 -1      5488 1.73863E-01-3.63809E-02 2.47575E-04-1.44688E-01 3.76998E-05 1.92090E-05
 -1      5490 1.86796E-01-5.52202E-02-7.80809E-05-1.21008E-01-2.00567E-05-8.30775E-06
 -1      5491 2.13429E-01-7.59470E-02 2.47575E-04-1.05122E-01 4.02405E-05 1.30749E-05
 -1      5493 2.18267E-01-8.66912E-02-7.80809E-05-7.76921E-02-2.11094E-05-5.06791E-06
 -1      5494 2.38832E-01-1.01350E-01 2.47575E-04-5.52660E-02 4.17905E-05 6.61897E-06
 -1      5496 2.34813E-01-1.03237E-01-7.80809E-05-2.67709E-02-2.16423E-05-1.70328E-06
 -1      5498-9.04313E-02 2.22124E-01-7.10263E-05-2.47519E-02-1.56958E-06-1.99434E-05
 -1      5499-8.84265E-02 2.25593E-01 2.20294E-04-5.10156E-02 6.13433E-06 3.87306E-05
 -1      5501-7.51338E-02 2.06826E-01-7.10263E-05-7.18329E-02-4.67009E-06-1.94523E-05
 -1      5502-6.49772E-02 2.02144E-01 2.20294E-04-9.70374E-02 1.21176E-05 3.72942E-05
 -1      5504-4.60362E-02 1.77729E-01-7.10263E-05-1.11882E-01-7.65561E-06-1.84823E-05
 -1      5505-2.84541E-02 1.65621E-01 2.20294E-04-1.33561E-01 1.78025E-05 3.49394E-05
 -1      5507-5.98671E-03 1.37679E-01-7.10263E-05-1.40980E-01-1.04526E-05-1.70571E-05
 -1      5508 1.75678E-02 1.19599E-01 2.20294E-04-1.57010E-01 2.30491E-05 3.17243E-05
 -1      5510 4.10942E-02 9.05981E-02-7.10263E-05-1.56278E-01-1.29923E-05-1.52120E-05
 -1      5511 6.85833E-02 6.85833E-02 2.20294E-04-1.65090E-01 2.77281E-05 2.77281E-05
 -1      5513 9.05981E-02 4.10942E-02-7.10263E-05-1.56278E-01-1.52120E-05-1.29923E-05
 -1      5514 1.19599E-01 1.75678E-02 2.20294E-04-1.57010E-01 3.17243E-05 2.30491E-05
 -1      5516 1.37679E-01-5.98672E-03-7.10263E-05-1.40980E-01-1.70571E-05-1.04526E-05
 -1      5517 1.65621E-01-2.84541E-02 2.20294E-04-1.33561E-01 3.49394E-05 1.78025E-05
 -1      5519 1.77729E-01-4.60362E-02-7.10263E-05-1.11882E-01-1.84823E-05-7.65561E-06
 -1      5520 2.02144E-01-6.49772E-02 2.20294E-04-9.70374E-02 3.72942E-05 1.21176E-05
 -1      5522 2.06826E-01-7.51338E-02-7.10263E-05-7.18329E-02-1.94523E-05-4.67009E-06
 -1      5523 2.25593E-01-8.84265E-02 2.20294E-04-5.10156E-02 3.87306E-05 6.13433E-06
 -1      5525 2.22124E-01-9.04313E-02-7.10263E-05-2.47519E-02-1.99434E-05-1.56958E-06
 -1      5527-7.90205E-02 2.10819E-01-6.46678E-05-2.29530E-02-1.45095E-06-1.84361E-05
 -1      5528-7.69390E-02 2.13824E-01 1.96692E-04-4.72373E-02 5.69808E-06 3.59763E-05
 -1      5530-6.48348E-02 1.96633E-01-6.46678E-05-6.66123E-02-4.31713E-06-1.79821E-05
 -1      5531-5.52264E-02 1.92112E-01 1.96692E-04-8.98507E-02 1.12559E-05 3.46420E-05
 -1      5533-3.78519E-02 1.69650E-01-6.46678E-05-1.03751E-01-7.07700E-06-1.70854E-05
 -1      5534-2.14082E-02 1.58293E-01 1.96692E-04-1.23669E-01 1.65365E-05 3.24547E-05
 -1      5536-7.13089E-04 1.32511E-01-6.46678E-05-1.30734E-01-9.66262E-06-1.57680E-05
 -1      5537 2.12052E-02 1.15680E-01 1.96692E-04-1.45382E-01 2.14099E-05 2.94682E-05
 -1      5539 4.29462E-02 8.88522E-02-6.46678E-05-1.44920E-01-1.20103E-05-1.40623E-05
 -1      5540 6.84426E-02 6.84426E-02 1.96692E-04-1.52863E-01 2.57562E-05 2.57562E-05
 -1      5542 8.88522E-02 4.29462E-02-6.46678E-05-1.44920E-01-1.40623E-05-1.20103E-05
 -1      5543 1.15680E-01 2.12052E-02 1.96692E-04-1.45382E-01 2.94682E-05 2.14099E-05
 -1      5545 1.32511E-01-7.13090E-04-6.46678E-05-1.30734E-01-1.57680E-05-9.66262E-06
 -1      5546 1.58293E-01-2.14082E-02 1.96692E-04-1.23669E-01 3.24547E-05 1.65365E-05
 -1      5548 1.69650E-01-3.78519E-02-6.46678E-05-1.03751E-01-1.70854E-05-7.07700E-06
 -1      5549 1.92112E-01-5.52264E-02 1.96692E-04-8.98507E-02 3.46420E-05 1.12559E-05
 -1      5551 1.96633E-01-6.48348E-02-6.46678E-05-6.66123E-02-1.79821E-05-4.31713E-06
 -1      5552 2.13824E-01-7.69390E-02 1.96692E-04-4.72373E-02 3.59763E-05 5.69808E-06
 -1      5554 2.10819E-01-7.90205E-02-6.46678E-05-2.29530E-02-1.84361E-05-1.45095E-06
 -1      5556-6.88087E-02 2.00704E-01-5.89396E-05-2.13433E-02-1.34504E-06-1.70904E-05
 -1      5557-6.66824E-02 2.03315E-01 1.76179E-04-4.38638E-02 5.30368E-06 3.34861E-05
 -1      5559-5.56179E-02 1.87513E-01-5.89396E-05-6.19407E-02-4.00201E-06-1.66696E-05
 -1      5560-4.65204E-02 1.83154E-01 1.76179E-04-8.34339E-02 1.04768E-05 3.22441E-05
 -1      5562-3.05273E-02 1.62423E-01-5.89396E-05-9.64749E-02-6.56044E-06-1.58383E-05
 -1      5563-1.51174E-02 1.51750E-01 1.76179E-04-1.14837E-01 1.53919E-05 3.02082E-05
 -1      5565 4.00691E-03 1.27888E-01-5.89396E-05-1.21565E-01-8.95732E-06-1.46170E-05
 -1      5566 2.44528E-02 1.12180E-01 1.76179E-04-1.34999E-01 1.99280E-05 2.74285E-05
 -1      5568 4.46043E-02 8.72909E-02-5.89396E-05-1.34756E-01-1.11336E-05-1.30358E-05
 -1      5569 6.83166E-02 6.83166E-02 1.76179E-04-1.41946E-01 2.39734E-05 2.39734E-05
 -1      5571 8.72909E-02 4.46043E-02-5.89396E-05-1.34756E-01-1.30358E-05-1.11336E-05
 -1      5572 1.12180E-01 2.44528E-02 1.76179E-04-1.34999E-01 2.74285E-05 1.99280E-05
 -1      5574 1.27888E-01 4.00691E-03-5.89396E-05-1.21565E-01-1.46170E-05-8.95732E-06
 -1      5575 1.51750E-01-1.51174E-02 1.76179E-04-1.14837E-01 3.02082E-05 1.53919E-05
 -1      5577 1.62423E-01-3.05273E-02-5.89396E-05-9.64749E-02-1.58383E-05-6.56044E-06
 -1      5578 1.83154E-01-4.65204E-02 1.76179E-04-8.34339E-02 3.22441E-05 1.04768E-05
 -1      5580 1.87513E-01-5.56179E-02-5.89396E-05-6.19407E-02-1.66696E-05-4.00201E-06
 -1      5581 2.03315E-01-6.66824E-02 1.76179E-04-4.38638E-02 3.34861E-05 5.30368E-06
 -1      5583 2.00704E-01-6.88087E-02-5.89396E-05-2.13433E-02-1.70904E-05-1.34504E-06
 -1      5585-5.96338E-02 1.91618E-01-5.37772E-05-1.98972E-02-1.25001E-06-1.58829E-05
 -1      5586-5.74868E-02 1.93893E-01 1.58273E-04-4.08392E-02 4.94575E-06 3.12263E-05
 -1      5588-4.73367E-02 1.79321E-01-5.37772E-05-5.77438E-02-3.71925E-06-1.54918E-05
 -1      5589-3.87151E-02 1.75122E-01 1.58273E-04-7.76808E-02 9.76973E-06 3.00681E-05
 -1      5591-2.39462E-02 1.55930E-01-5.37772E-05-8.99381E-02-6.09691E-06-1.47192E-05
 -1      5592-9.47742E-03 1.45884E-01 1.58273E-04-1.06918E-01 1.43531E-05 2.81696E-05
 -1      5594 8.24811E-03 1.23736E-01-5.37772E-05-1.13329E-01-8.32444E-06-1.35843E-05
 -1      5595 2.73642E-02 1.09043E-01 1.58273E-04-1.25690E-01 1.85831E-05 2.55775E-05
 -1      5597 4.60948E-02 8.58891E-02-5.37772E-05-1.25626E-01-1.03470E-05-1.21148E-05
 -1      5598 6.82034E-02 6.82034E-02 1.58273E-04-1.32158E-01 2.23555E-05 2.23555E-05
 -1      5600 8.58891E-02 4.60948E-02-5.37772E-05-1.25626E-01-1.21148E-05-1.03470E-05
 -1      5601 1.09043E-01 2.73642E-02 1.58273E-04-1.25690E-01 2.55775E-05 1.85831E-05
 -1      5603 1.23736E-01 8.24811E-03-5.37772E-05-1.13329E-01-1.35843E-05-8.32444E-06
 -1      5604 1.45884E-01-9.47742E-03 1.58273E-04-1.06918E-01 2.81696E-05 1.43531E-05
 -1      5606 1.55930E-01-2.39462E-02-5.37772E-05-8.99381E-02-1.47192E-05-6.09691E-06
 -1      5607 1.75122E-01-3.87151E-02 1.58273E-04-7.76808E-02 3.00681E-05 9.76973E-06
 -1      5609 1.79321E-01-4.73367E-02-5.37772E-05-5.77438E-02-1.54918E-05-3.71925E-06
 -1      5610 1.93893E-01-5.74868E-02 1.58273E-04-4.08392E-02 3.12263E-05 4.94576E-06
 -1      5612 1.91618E-01-5.96338E-02-5.37772E-05-1.98972E-02-1.58829E-05-1.25001E-06
 -1      5614-5.13599E-02 1.83425E-01-4.91171E-05-1.85931E-02-1.16443E-06-1.47955E-05
 -1      5615-4.92108E-02 1.85413E-01 1.42580E-04-3.81170E-02 4.61993E-06 2.91691E-05
 -1      5617-3.98687E-02 1.71934E-01-4.91171E-05-5.39594E-02-3.46462E-06-1.44312E-05
 -1      5618-3.16904E-02 1.67893E-01 1.42580E-04-7.25028E-02 9.12611E-06 2.80873E-05
 -1      5620-1.80112E-02 1.50076E-01-4.91171E-05-8.40438E-02-5.67949E-06-1.37115E-05
 -1      5621-4.40161E-03 1.40604E-01 1.42580E-04-9.97916E-02 1.34076E-05 2.63138E-05
 -1      5623 1.20732E-02 1.19992E-01-4.91171E-05-1.05901E-01-7.75452E-06-1.26542E-05
 -1      5624 2.99842E-02 1.06218E-01 1.42580E-04-1.17312E-01 1.73589E-05 2.38925E-05
 -1      5626 4.74394E-02 8.46257E-02-4.91171E-05-1.17393E-01-9.63860E-06-1.12854E-05
 -1      5627 6.81012E-02 6.81012E-02 1.42580E-04-1.23349E-01 2.08828E-05 2.08828E-05
 -1      5629 8.46257E-02 4.74394E-02-4.91171E-05-1.17393E-01-1.12854E-05-9.63860E-06
 -1      5630 1.06218E-01 2.99842E-02 1.42580E-04-1.17312E-01 2.38925E-05 1.73589E-05
 -1      5632 1.19992E-01 1.20732E-02-4.91171E-05-1.05901E-01-1.26542E-05-7.75452E-06
 -1      5633 1.40604E-01-4.40161E-03 1.42580E-04-9.97916E-02 2.63138E-05 1.34076E-05
 -1      5635 1.50076E-01-1.80112E-02-4.91171E-05-8.40438E-02-1.37115E-05-5.67949E-06
 -1      5636 1.67893E-01-3.16904E-02 1.42580E-04-7.25028E-02 2.80873E-05 9.12611E-06
 -1      5638 1.71934E-01-3.98687E-02-4.91171E-05-5.39594E-02-1.44312E-05-3.46462E-06
 -1      5639 1.85413E-01-4.92108E-02 1.42580E-04-3.81170E-02 2.91691E-05 4.61994E-06
 -1      5641 1.83425E-01-5.13599E-02-4.91171E-05-1.85931E-02-1.47955E-05-1.16443E-06
 -1      5643-4.38728E-02 1.76013E-01-4.48946E-05-1.74132E-02-1.08728E-06-1.38152E-05
 -1      5644-4.17360E-02 1.77753E-01 1.28767E-04-3.56582E-02 4.32268E-06 2.72924E-05
 -1      5646-3.31108E-02 1.65251E-01-4.48946E-05-5.05352E-02-3.23506E-06-1.34750E-05
 -1      5647-2.53457E-02 1.61363E-01 1.28767E-04-6.78260E-02 8.53893E-06 2.62801E-05
 -1      5649-1.26403E-02 1.44780E-01-4.48946E-05-7.87104E-02-5.30319E-06-1.28030E-05
 -1      5650 1.82772E-04 1.35835E-01 1.28767E-04-9.33544E-02 1.25449E-05 2.46208E-05
 -1      5652 1.55348E-02 1.16605E-01-4.48946E-05-9.91808E-02-7.24073E-06-1.18158E-05
 -1      5653 3.23505E-02 1.03667E-01 1.28767E-04-1.09745E-01 1.62420E-05 2.23552E-05
 -1      5655 4.86568E-02 8.34832E-02-4.48946E-05-1.09943E-01-8.99999E-06-1.05376E-05
 -1      5656 6.80087E-02 6.80087E-02 1.28767E-04-1.15392E-01 1.95392E-05 1.95392E-05
 -1      5658 8.34832E-02 4.86568E-02-4.48946E-05-1.09943E-01-1.05376E-05-8.99999E-06
 -1      5659 1.03667E-01 3.23505E-02 1.28767E-04-1.09745E-01 2.23552E-05 1.62420E-05
 -1      5661 1.16605E-01 1.55348E-02-4.48946E-05-9.91808E-02-1.18158E-05-7.24073E-06
 -1      5662 1.35835E-01 1.82771E-04 1.28767E-04-9.33544E-02 2.46208E-05 1.25449E-05
 -1      5664 1.44780E-01-1.26404E-02-4.48946E-05-7.87104E-02-1.28030E-05-5.30319E-06
 -1      5665 1.61363E-01-2.53457E-02 1.28767E-04-6.78260E-02 2.62801E-05 8.53893E-06
 -1      5667 1.65251E-01-3.31108E-02-4.48946E-05-5.05352E-02-1.34750E-05-3.23507E-06
 -1      5668 1.77753E-01-4.17360E-02 1.28767E-04-3.56582E-02 2.72923E-05 4.32269E-06
 -1      5670 1.76013E-01-4.38728E-02-4.48946E-05-1.74132E-02-1.38152E-05-1.08728E-06
 -1      5672-3.70755E-02 1.69285E-01-4.10352E-05-1.63421E-02-1.01799E-06-1.29348E-05
 -1      5673-3.49624E-02 1.70811E-01 1.16554E-04-3.34300E-02 4.05132E-06 2.55791E-05
 -1      5675-2.69755E-02 1.59185E-01-4.10352E-05-4.74267E-02-3.02892E-06-1.26163E-05
 -1      5676-1.95963E-02 1.55445E-01 1.16554E-04-6.35876E-02 8.00289E-06 2.46304E-05
 -1      5678-7.76416E-03 1.39973E-01-4.10352E-05-7.38688E-02-4.96526E-06-1.19872E-05
 -1      5679 4.33692E-03 1.31512E-01 1.16554E-04-8.75208E-02 1.17574E-05 2.30752E-05
 -1      5681 1.86780E-02 1.13531E-01-4.10352E-05-9.30801E-02-6.77934E-06-1.10629E-05
 -1      5682 3.44945E-02 1.01354E-01 1.16554E-04-1.02887E-01 1.52224E-05 2.09518E-05
 -1      5684 4.97625E-02 8.24468E-02-4.10352E-05-1.03180E-01-8.42649E-06-9.86615E-06
 -1      5685 6.79245E-02 6.79245E-02 1.16554E-04-1.08182E-01 1.83126E-05 1.83126E-05
 -1      5687 8.24468E-02 4.97625E-02-4.10352E-05-1.03180E-01-9.86615E-06-8.42649E-06
 -1      5688 1.01354E-01 3.44945E-02 1.16554E-04-1.02887E-01 2.09518E-05 1.52224E-05
 -1      5690 1.13531E-01 1.86780E-02-4.10352E-05-9.30801E-02-1.10629E-05-6.77933E-06
 -1      5691 1.31512E-01 4.33692E-03 1.16554E-04-8.75208E-02 2.30752E-05 1.17574E-05
 -1      5693 1.39973E-01-7.76417E-03-4.10352E-05-7.38688E-02-1.19872E-05-4.96526E-06
 -1      5694 1.55445E-01-1.95963E-02 1.16554E-04-6.35876E-02 2.46304E-05 8.00289E-06
 -1      5696 1.59185E-01-2.69755E-02-4.10352E-05-4.74267E-02-1.26164E-05-3.02892E-06
 -1      5697 1.70811E-01-3.49624E-02 1.16554E-04-3.34300E-02 2.55791E-05 4.05133E-06
 -1      5699 1.69285E-01-3.70755E-02-4.10353E-05-1.63421E-02-1.29348E-05-1.01800E-06
 -1      5701-3.08852E-02 1.63160E-01-3.74447E-05-1.53668E-02-9.56659E-07-1.21555E-05
 -1      5702-2.88056E-02 1.64500E-01 1.05687E-04-3.14044E-02 3.80420E-06 2.40188E-05
 -1      5704-2.13880E-02 1.53662E-01-3.74447E-05-4.45963E-02-2.84642E-06-1.18562E-05
 -1      5705-1.43706E-02 1.50065E-01 1.05687E-04-5.97347E-02 7.51472E-06 2.31279E-05
 -1      5707-3.32320E-03 1.35598E-01-3.74447E-05-6.94604E-02-4.66610E-06-1.12650E-05
 -1      5708 8.11244E-03 1.27582E-01 1.05687E-04-8.22177E-02 1.10402E-05 2.16676E-05
 -1      5710 2.15409E-02 1.10733E-01-3.74447E-05-8.75252E-02-6.37088E-06-1.03963E-05
 -1      5711 3.64427E-02 9.92515E-02 1.05687E-04-9.66527E-02 1.42939E-05 1.96738E-05
 -1      5713 5.07703E-02 8.15040E-02-3.74446E-05-9.70224E-02-7.91879E-06-9.27171E-06
 -1      5714 6.78471E-02 6.78471E-02 1.05687E-04-1.01627E-01 1.71955E-05 1.71955E-05
 -1      5716 8.15040E-02 5.07703E-02-3.74447E-05-9.70224E-02-9.27170E-06-7.91879E-06
 -1      5717 9.92515E-02 3.64427E-02 1.05687E-04-9.66527E-02 1.96738E-05 1.42938E-05
 -1      5719 1.10733E-01 2.15409E-02-3.74447E-05-8.75252E-02-1.03963E-05-6.37087E-06
 -1      5720 1.27582E-01 8.11244E-03 1.05687E-04-8.22177E-02 2.16676E-05 1.10402E-05
 -1      5722 1.35598E-01-3.32320E-03-3.74446E-05-6.94604E-02-1.12650E-05-4.66609E-06
 -1      5723 1.50065E-01-1.43706E-02 1.05687E-04-5.97347E-02 2.31279E-05 7.51472E-06
 -1      5725 1.53662E-01-2.13880E-02-3.74446E-05-4.45963E-02-1.18562E-05-2.84643E-06
 -1      5726 1.64500E-01-2.88056E-02 1.05687E-04-3.14044E-02 2.40187E-05 3.80421E-06
 -1      5728 1.63160E-01-3.08852E-02-3.74447E-05-1.53668E-02-1.21555E-05-9.56671E-07
 -1      5730-2.52306E-02 1.57567E-01-3.39603E-05-1.44762E-02-9.04469E-07-1.14924E-05
 -1      5731-2.31947E-02 1.58744E-01 9.59132E-05-2.95578E-02 3.58079E-06 2.26082E-05
 -1      5733-1.62838E-02 1.48621E-01-3.39603E-05-4.20115E-02-2.69114E-06-1.12094E-05
 -1      5734-9.60842E-03 1.45158E-01 9.59133E-05-5.62223E-02 7.07341E-06 2.17697E-05
 -1      5736 7.33968E-04 1.31603E-01-3.39604E-05-6.54345E-02-4.41154E-06-1.06504E-05
 -1      5737 1.15526E-02 1.23997E-01 9.59133E-05-7.73833E-02 1.03919E-05 2.03952E-05
 -1      5739 2.41569E-02 1.08180E-01-3.39603E-05-8.24523E-02-6.02332E-06-9.82915E-06
 -1      5740 3.82171E-02 9.73327E-02 9.59132E-05-9.09695E-02 1.34544E-05 1.85184E-05
 -1      5742 5.16923E-02 8.06446E-02-3.39603E-05-9.13990E-02-7.48679E-06-8.76590E-06
 -1      5743 6.77749E-02 6.77749E-02 9.59132E-05-9.56510E-02 1.61857E-05 1.61857E-05
 -1      5745 8.06446E-02 5.16923E-02-3.39604E-05-9.13990E-02-8.76588E-06-7.48678E-06
 -1      5746 9.73327E-02 3.82171E-02 9.59133E-05-9.09695E-02 1.85184E-05 1.34544E-05
 -1      5748 1.08180E-01 2.41569E-02-3.39604E-05-8.24523E-02-9.82915E-06-6.02330E-06
 -1      5749 1.23997E-01 1.15526E-02 9.59133E-05-7.73833E-02 2.03952E-05 1.03918E-05
 -1      5751 1.31603E-01 7.33966E-04-3.39602E-05-6.54345E-02-1.06504E-05-4.41153E-06
 -1      5752 1.45158E-01-9.60843E-03 9.59132E-05-5.62223E-02 2.17697E-05 7.07342E-06
 -1      5754 1.48621E-01-1.62838E-02-3.39602E-05-4.20115E-02-1.12094E-05-2.69115E-06
 -1      5755 1.58744E-01-2.31947E-02 9.59133E-05-2.95578E-02 2.26082E-05 3.58082E-06
 -1      5757 1.57567E-01-2.52306E-02-3.39605E-05-1.44762E-02-1.14923E-05-9.04484E-07
 -1      5759-2.00489E-02 1.52449E-01-3.03695E-05-1.36605E-02-8.65016E-07-1.09911E-05
 -1      5760-1.80702E-02 1.53481E-01 8.69708E-05-2.78701E-02 3.38299E-06 2.13593E-05
 -1      5762-1.16062E-02 1.44007E-01-3.03695E-05-3.96443E-02-2.57375E-06-1.07204E-05
 -1      5763-5.25968E-03 1.40670E-01 8.69708E-05-5.30121E-02 6.68267E-06 2.05671E-05
 -1      5765 4.45267E-03 1.27948E-01-3.03695E-05-6.17475E-02-4.21911E-06-1.01858E-05
 -1      5766 1.46931E-02 1.20717E-01 8.69708E-05-7.29650E-02 9.81781E-06 1.92685E-05
 -1      5768 2.65558E-02 1.05844E-01-3.03695E-05-7.78064E-02-5.76058E-06-9.40040E-06
 -1      5769 3.98351E-02 9.55754E-02 8.69707E-05-8.57754E-02 1.27112E-05 1.74955E-05
 -1      5771 5.25396E-02 7.98607E-02-3.03694E-05-8.62490E-02-7.16021E-06-8.38354E-06
 -1      5772 6.77053E-02 6.77053E-02 8.69707E-05-9.01896E-02 1.52916E-05 1.52916E-05
 -1      5774 7.98607E-02 5.25397E-02-3.03696E-05-8.62490E-02-8.38348E-06-7.16023E-06
 -1      5775 9.55754E-02 3.98351E-02 8.69709E-05-8.57754E-02 1.74954E-05 1.27112E-05
 -1      5777 1.05844E-01 2.65558E-02-3.03697E-05-7.78064E-02-9.40039E-06-5.76055E-06
 -1      5778 1.20717E-01 1.46931E-02 8.69708E-05-7.29650E-02 1.92685E-05 9.81778E-06
 -1      5780 1.27948E-01 4.45267E-03-3.03693E-05-6.17475E-02-1.01859E-05-4.21909E-06
 -1      5781 1.40670E-01-5.25968E-03 8.69706E-05-5.30121E-02 2.05672E-05 6.68269E-06
 -1      5783 1.44007E-01-1.16062E-02-3.03693E-05-3.96443E-02-1.07205E-05-2.57381E-06
 -1      5784 1.53481E-01-1.80702E-02 8.69708E-05-2.78701E-02 2.13593E-05 3.38306E-06
 -1      5786 1.52449E-01-2.00489E-02-3.03698E-05-1.36605E-02-1.09910E-05-8.65074E-07
 -1      5788-1.52833E-02 1.47754E-01-2.59971E-05-1.29113E-02-8.45367E-07-1.07414E-05
 -1      5789-1.33847E-02 1.48652E-01 7.83123E-05-2.63245E-02 3.21085E-06 2.02725E-05
 -1      5791-7.30367E-03 1.39775E-01-2.59971E-05-3.74700E-02-2.51528E-06-1.04769E-05
 -1      5792-1.28466E-03 1.36552E-01 7.83123E-05-5.00722E-02 6.34265E-06 1.95207E-05
 -1      5794 7.87447E-03 1.24596E-01-2.59972E-05-5.83610E-02-4.12327E-06-9.95444E-06
 -1      5795 1.75616E-02 1.17706E-01 7.83123E-05-6.89184E-02 9.31828E-06 1.82881E-05
 -1      5797 2.87654E-02 1.03705E-01-2.59971E-05-7.35391E-02-5.62974E-06-9.18686E-06
 -1      5798 4.13093E-02 9.39583E-02 7.83122E-05-8.10185E-02 1.20645E-05 1.66053E-05
 -1      5800 5.33241E-02 7.91467E-02-2.59969E-05-8.15187E-02-6.99761E-06-8.19310E-06
 -1      5801 6.76338E-02 6.76338E-02 7.83122E-05-8.51879E-02 1.45135E-05 1.45135E-05
 -1      5803 7.91467E-02 5.33241E-02-2.59973E-05-8.15187E-02-8.19308E-06-6.99752E-06
 -1      5804 9.39583E-02 4.13093E-02 7.83125E-05-8.10185E-02 1.66053E-05 1.20644E-05
 -1      5806 1.03705E-01 2.87654E-02-2.59974E-05-7.35391E-02-9.18684E-06-5.62965E-06
 -1      5807 1.17706E-01 1.75616E-02 7.83123E-05-6.89184E-02 1.82881E-05 9.31819E-06
 -1      5809 1.24596E-01 7.87447E-03-2.59968E-05-5.83610E-02-9.95453E-06-4.12324E-06
 -1      5810 1.36552E-01-1.28467E-03 7.83119E-05-5.00722E-02 1.95207E-05 6.34263E-06
 -1      5812 1.39775E-01-7.30367E-03-2.59968E-05-3.74700E-02-1.04770E-05-2.51528E-06
 -1      5813 1.48652E-01-1.33847E-02 7.83123E-05-2.63245E-02 2.02725E-05 3.21091E-06
 -1      5815 1.47754E-01-1.52833E-02-2.59977E-05-1.29113E-02-1.07413E-05-8.45356E-07
 -1      5817-1.08802E-02 1.43440E-01-2.10008E-05-1.22209E-02-8.81152E-07-1.11961E-05
 -1      5818-9.10370E-03 1.44209E-01 6.99493E-05-2.49071E-02 3.12224E-06 1.97131E-05
 -1      5820-3.32726E-03 1.35887E-01-2.10008E-05-3.54665E-02-2.62176E-06-1.09204E-05
 -1      5821 2.34484E-03 1.32760E-01 6.99493E-05-4.73761E-02 6.16761E-06 1.89819E-05
 -1      5823 1.10393E-02 1.21520E-01-2.10008E-05-5.52404E-02-4.29781E-06-1.03758E-05
 -1      5824 2.01764E-02 1.14929E-01 6.99493E-05-6.52077E-02 9.06112E-06 1.77834E-05
 -1      5826 3.08132E-02 1.01746E-01-2.10007E-05-6.96069E-02-5.86807E-06-9.57577E-06
 -1      5827 4.26454E-02 9.24596E-02 6.99490E-05-7.66562E-02 1.17315E-05 1.61470E-05
 -1      5829 5.40587E-02 7.85006E-02-2.10006E-05-7.71599E-02-7.29373E-06-8.54008E-06
 -1      5830 6.75525E-02 6.75525E-02 6.99492E-05-8.06011E-02 1.41128E-05 1.41132E-05
 -1      5832 7.85006E-02 5.40587E-02-2.10009E-05-7.71599E-02-8.53958E-06-7.29411E-06
 -1      5833 9.24596E-02 4.26454E-02 6.99497E-05-7.66562E-02 1.61469E-05 1.17316E-05
 -1      5835 1.01746E-01 3.08132E-02-2.10010E-05-6.96069E-02-9.57571E-06-5.86793E-06
 -1      5836 1.14929E-01 2.01764E-02 6.99493E-05-6.52077E-02 1.77835E-05 9.06098E-06
 -1      5838 1.21520E-01 1.10393E-02-2.10004E-05-5.52404E-02-1.03760E-05-4.29778E-06
 -1      5839 1.32760E-01 2.34483E-03 6.99486E-05-4.73761E-02 1.89819E-05 6.16780E-06
 -1      5841 1.35887E-01-3.32726E-03-2.10004E-05-3.54665E-02-1.09204E-05-2.62237E-06
 -1      5842 1.44209E-01-9.10370E-03 6.99494E-05-2.49071E-02 1.97130E-05 3.12279E-06
 -1      5844 1.43440E-01-1.08802E-02-2.10014E-05-1.22209E-02-1.11959E-05-8.81720E-07
 -1      5846-6.78603E-03 1.39471E-01-9.83855E-06-1.15824E-02-9.94602E-07-1.26376E-05
 -1      5847-5.21197E-03 1.40101E-01 5.56934E-05-2.36075E-02 2.90478E-06 1.83400E-05
 -1      5849 3.72304E-04 1.32313E-01-9.83856E-06-3.36135E-02-2.95932E-06-1.23264E-05
 -1      5850 5.63920E-03 1.29249E-01 5.56934E-05-4.49041E-02 5.73807E-06 1.76598E-05
 -1      5852 1.39883E-02 1.18697E-01-9.83856E-06-5.23543E-02-4.85125E-06-1.17117E-05
 -1      5853 2.25403E-02 1.12348E-01 5.56933E-05-6.18052E-02 8.43012E-06 1.65446E-05
 -1      5855 3.27290E-02 9.99561E-02-9.83863E-06-6.59703E-02-6.62379E-06-1.08086E-05
 -1      5856 4.38369E-02 9.10518E-02 5.56930E-05-7.26563E-02 1.09147E-05 1.50222E-05
 -1      5858 5.47602E-02 7.79250E-02-9.83883E-06-7.31286E-02-8.23357E-06-9.63935E-06
 -1      5859 6.74443E-02 6.74443E-02 5.56931E-05-7.63954E-02 1.31304E-05 1.31296E-05
 -1      5861 7.79250E-02 5.47601E-02-9.83846E-06-7.31286E-02-9.64021E-06-8.23163E-06
 -1      5862 9.10518E-02 4.38369E-02 5.56939E-05-7.26563E-02 1.50226E-05 1.09138E-05
 -1      5864 9.99561E-02 3.27290E-02-9.83827E-06-6.59703E-02-1.08084E-05-6.62299E-06
 -1      5865 1.12348E-01 2.25403E-02 5.56933E-05-6.18052E-02 1.65450E-05 8.42951E-06
 -1      5867 1.18697E-01 1.39883E-02-9.83891E-06-5.23543E-02-1.17124E-05-4.85099E-06
 -1      5868 1.29249E-01 5.63918E-03 5.56927E-05-4.49041E-02 1.76603E-05 5.73743E-06
 -1      5870 1.32313E-01 3.72303E-04-9.83890E-06-3.36135E-02-1.23273E-05-2.95779E-06
 -1      5871 1.40101E-01-5.21196E-03 5.56939E-05-2.36075E-02 1.83403E-05 2.90407E-06
 -1      5873 1.39471E-01-6.78604E-03-9.83788E-06-1.15824E-02-1.26366E-05-9.93069E-07
 -1      5875-2.95222E-03 1.35814E-01-1.49650E-05-1.09892E-02-1.16059E-06-1.47470E-05
 -1      5876-1.69178E-03 1.36296E-01 5.76367E-05-2.24174E-02 4.78286E-06 3.01978E-05
 -1      5878 3.83946E-03 1.29022E-01-1.49651E-05-3.18918E-02-3.45324E-06-1.43838E-05
 -1      5879 8.61236E-03 1.25991E-01 5.76369E-05-4.26404E-02 9.44792E-06 2.90779E-05
 -1      5881 1.67580E-02 1.16103E-01-1.49653E-05-4.96727E-02-5.66064E-06-1.36666E-05
 -1      5882 2.46614E-02 1.09942E-01 5.76372E-05-5.86895E-02 1.38804E-05 2.72421E-05
 -1      5884 3.45389E-02 9.83226E-02-1.49662E-05-6.25913E-02-7.72890E-06-1.26130E-05
 -1      5885 4.48845E-02 8.97193E-02 5.76374E-05-6.89937E-02 1.79700E-05 2.47362E-05
 -1      5887 5.54415E-02 7.74199E-02-1.49668E-05-6.93829E-02-9.60622E-06-1.12493E-05
 -1      5888 6.73019E-02 6.73019E-02 5.76373E-05-7.25442E-02 2.16158E-05 2.16231E-05
 -1      5890 7.74199E-02 5.54415E-02-1.49644E-05-6.93829E-02-1.12455E-05-9.61004E-06
 -1      5891 8.97193E-02 4.48845E-02 5.76363E-05-6.89937E-02 2.47326E-05 1.79740E-05
 -1      5893 9.83226E-02 3.45389E-02-1.49637E-05-6.25913E-02-1.26124E-05-7.72915E-06
 -1      5894 1.09942E-01 2.46615E-02 5.76370E-05-5.86895E-02 2.72419E-05 1.38806E-05
 -1      5896 1.16103E-01 1.67580E-02-1.49673E-05-4.96727E-02-1.36668E-05-5.66128E-06
 -1      5897 1.25991E-01 8.61236E-03 5.76373E-05-4.26404E-02 2.90767E-05 9.45284E-06
 -1      5899 1.29022E-01 3.83945E-03-1.49663E-05-3.18918E-02-1.43831E-05-3.45781E-06
 -1      5900 1.36296E-01-1.69178E-03 5.76355E-05-2.24174E-02 3.01960E-05 4.79203E-06
 -1      5902 1.35814E-01-2.95223E-03-1.49597E-05-1.09892E-02-1.47460E-05-1.16510E-06
 -1      5904 1.62777E-03 1.32224E-01-4.60922E-06-2.12167E-02 5.37681E-06 3.39475E-05
 -1      5906 1.13800E-02 1.22472E-01-4.60877E-06-4.03566E-02 1.06218E-05 3.26890E-05
 -1      5908 2.65695E-02 1.07283E-01-4.60592E-06-5.55461E-02 1.56071E-05 3.06303E-05
 -1      5910 4.57094E-02 8.81428E-02-4.60160E-06-6.52983E-02 2.02080E-05 2.78227E-05
 -1      5912 6.69260E-02 6.69261E-02-4.60690E-06-6.86587E-02 2.43004E-05 2.43156E-05
 -1      5914 8.81428E-02 4.57094E-02-4.61457E-06-6.52983E-02 2.77913E-05 2.02002E-05
 -1      5916 1.07283E-01 2.65695E-02-4.60665E-06-5.55461E-02 3.06281E-05 1.56090E-05
 -1      5918 1.22472E-01 1.13800E-02-4.59866E-06-4.03566E-02 3.27087E-05 1.06415E-05
 -1      5920 1.32224E-01 1.62778E-03-4.61876E-06-2.12167E-02 3.39259E-05 5.39244E-06
 -1      5923-7.62236E-01 9.23582E-01 5.52304E-03-2.73878E-01 3.44079E-05 2.17243E-04
 -1      5924-7.61408E-01 9.24558E-01 7.98673E-03-2.73902E-01 2.24375E-05 1.41665E-04
 -1      5925-7.61061E-01 9.24911E-01 8.83606E-03-2.73903E-01 9.20372E-06 5.81100E-05
 -1      5926-7.60934E-01 9.25028E-01 9.10958E-03-2.73901E-01 2.75383E-06 1.73870E-05
 -1      5927-7.60890E-01 9.25066E-01 9.19375E-03-2.73900E-01 5.61049E-07 3.54233E-06
 -1      5928-7.60890E-01 9.25066E-01 9.19375E-03-2.73900E-01-5.61049E-07-3.54233E-06
 -1      5929-7.60934E-01 9.25028E-01 9.10958E-03-2.73901E-01-2.75383E-06-1.73870E-05
 -1      5930-7.61061E-01 9.24911E-01 8.83606E-03-2.73903E-01-9.20372E-06-5.81100E-05
 -1      5931-7.61408E-01 9.24558E-01 7.98673E-03-2.73902E-01-2.24375E-05-1.41665E-04
 -1      5932-7.62236E-01 9.23582E-01 5.52304E-03-2.73878E-01-3.44079E-05-2.17243E-04
 -1      5933-6.36348E-01 7.97694E-01 5.52304E-03-5.20946E-01 6.79685E-05 2.09185E-04
 -1      5934-6.35509E-01 7.98659E-01 7.98673E-03-5.20992E-01 4.43224E-05 1.36410E-04
 -1      5935-6.35162E-01 7.99012E-01 8.83606E-03-5.20994E-01 1.81808E-05 5.59548E-05
 -1      5936-6.35035E-01 7.99130E-01 9.10958E-03-5.20991E-01 5.43984E-06 1.67421E-05
 -1      5937-6.34992E-01 7.99168E-01 9.19375E-03-5.20989E-01 1.10828E-06 3.41095E-06
 -1      5938-6.34992E-01 7.99168E-01 9.19375E-03-5.20989E-01-1.10828E-06-3.41095E-06
 -1      5939-6.35035E-01 7.99130E-01 9.10958E-03-5.20991E-01-5.43984E-06-1.67421E-05
 -1      5940-6.35162E-01 7.99012E-01 8.83606E-03-5.20994E-01-1.81808E-05-5.59548E-05
 -1      5941-6.35509E-01 7.98659E-01 7.98673E-03-5.20992E-01-4.43224E-05-1.36410E-04
 -1      5942-6.36348E-01 7.97694E-01 5.52304E-03-5.20946E-01-6.79685E-05-2.09185E-04
 -1      5943-4.40273E-01 6.01619E-01 5.52304E-03-7.17021E-01 9.98555E-05 1.95977E-04
 -1      5944-4.39417E-01 6.02567E-01 7.98673E-03-7.17084E-01 6.51160E-05 1.27797E-04
 -1      5945-4.39069E-01 6.02919E-01 8.83606E-03-7.17087E-01 2.67102E-05 5.24218E-05
 -1      5946-4.38944E-01 6.03038E-01 9.10958E-03-7.17083E-01 7.99191E-06 1.56850E-05
 -1      5947-4.38901E-01 6.03077E-01 9.19375E-03-7.17080E-01 1.62823E-06 3.19558E-06
 -1      5948-4.38901E-01 6.03077E-01 9.19375E-03-7.17080E-01-1.62823E-06-3.19558E-06
 -1      5949-4.38944E-01 6.03038E-01 9.10958E-03-7.17083E-01-7.99191E-06-1.56850E-05
 -1      5950-4.39069E-01 6.02919E-01 8.83606E-03-7.17087E-01-2.67102E-05-5.24218E-05
 -1      5951-4.39417E-01 6.02567E-01 7.98673E-03-7.17084E-01-6.51160E-05-1.27797E-04
 -1      5952-4.40273E-01 6.01619E-01 5.52304E-03-7.17021E-01-9.98555E-05-1.95977E-04
 -1      5953-1.93205E-01 3.54551E-01 5.52304E-03-8.42909E-01 1.29284E-04 1.77944E-04
 -1      5954-1.92327E-01 3.55477E-01 7.98673E-03-8.42983E-01 8.43063E-05 1.16038E-04
 -1      5955-1.91978E-01 3.55828E-01 8.83606E-03-8.42986E-01 3.45819E-05 4.75980E-05
 -1      5956-1.91854E-01 3.55948E-01 9.10958E-03-8.42981E-01 1.03472E-05 1.42417E-05
 -1      5957-1.91812E-01 3.55988E-01 9.19375E-03-8.42978E-01 2.10808E-06 2.90152E-06
 -1      5958-1.91812E-01 3.55988E-01 9.19375E-03-8.42978E-01-2.10808E-06-2.90152E-06
 -1      5959-1.91854E-01 3.55948E-01 9.10958E-03-8.42981E-01-1.03472E-05-1.42417E-05
 -1      5960-1.91978E-01 3.55828E-01 8.83606E-03-8.42986E-01-3.45819E-05-4.75980E-05
 -1      5961-1.92327E-01 3.55477E-01 7.98673E-03-8.42983E-01-8.43063E-05-1.16038E-04
 -1      5962-1.93205E-01 3.54551E-01 5.52304E-03-8.42909E-01-1.29284E-04-1.77944E-04
 -1      5963 8.06731E-02 8.06731E-02 5.52304E-03-8.86287E-01 1.55529E-04 1.55529E-04
 -1      5964 8.15751E-02 8.15751E-02 7.98673E-03-8.86365E-01 1.01421E-04 1.01421E-04
 -1      5965 8.19249E-02 8.19249E-02 8.83606E-03-8.86368E-01 4.16021E-05 4.16021E-05
 -1      5966 8.20473E-02 8.20473E-02 9.10958E-03-8.86363E-01 1.24477E-05 1.24477E-05
 -1      5967 8.20881E-02 8.20881E-02 9.19375E-03-8.86359E-01 2.53602E-06 2.53603E-06
 -1      5968 8.20881E-02 8.20881E-02 9.19375E-03-8.86359E-01-2.53602E-06-2.53603E-06
 -1      5969 8.20473E-02 8.20473E-02 9.10958E-03-8.86363E-01-1.24477E-05-1.24477E-05
 -1      5970 8.19249E-02 8.19249E-02 8.83606E-03-8.86368E-01-4.16021E-05-4.16021E-05
 -1      5971 8.15751E-02 8.15751E-02 7.98673E-03-8.86365E-01-1.01421E-04-1.01421E-04
 -1      5972 8.06731E-02 8.06731E-02 5.52304E-03-8.86287E-01-1.55529E-04-1.55529E-04
 -1      5973 3.54551E-01-1.93205E-01 5.52304E-03-8.42909E-01 1.77944E-04 1.29284E-04
 -1      5974 3.55477E-01-1.92327E-01 7.98673E-03-8.42983E-01 1.16038E-04 8.43063E-05
 -1      5975 3.55828E-01-1.91978E-01 8.83606E-03-8.42986E-01 4.75980E-05 3.45819E-05
 -1      5976 3.55948E-01-1.91854E-01 9.10958E-03-8.42981E-01 1.42417E-05 1.03472E-05
 -1      5977 3.55988E-01-1.91812E-01 9.19375E-03-8.42978E-01 2.90153E-06 2.10809E-06
 -1      5978 3.55988E-01-1.91812E-01 9.19375E-03-8.42978E-01-2.90153E-06-2.10809E-06
 -1      5979 3.55948E-01-1.91854E-01 9.10958E-03-8.42981E-01-1.42417E-05-1.03472E-05
 -1      5980 3.55828E-01-1.91978E-01 8.83606E-03-8.42986E-01-4.75980E-05-3.45819E-05
 -1      5981 3.55477E-01-1.92327E-01 7.98673E-03-8.42983E-01-1.16038E-04-8.43063E-05
 -1      5982 3.54551E-01-1.93205E-01 5.52304E-03-8.42909E-01-1.77944E-04-1.29284E-04
 -1      5983 6.01619E-01-4.40273E-01 5.52304E-03-7.17021E-01 1.95977E-04 9.98556E-05
 -1      5984 6.02567E-01-4.39417E-01 7.98673E-03-7.17084E-01 1.27797E-04 6.51161E-05
 -1      5985 6.02919E-01-4.39069E-01 8.83606E-03-7.17087E-01 5.24218E-05 2.67103E-05
 -1      5986 6.03038E-01-4.38944E-01 9.10958E-03-7.17083E-01 1.56851E-05 7.99194E-06
 -1      5987 6.03077E-01-4.38901E-01 9.19375E-03-7.17080E-01 3.19559E-06 1.62824E-06
 -1      5988 6.03077E-01-4.38901E-01 9.19375E-03-7.17080E-01-3.19559E-06-1.62824E-06
 -1      5989 6.03038E-01-4.38944E-01 9.10958E-03-7.17083E-01-1.56851E-05-7.99194E-06
 -1      5990 6.02919E-01-4.39069E-01 8.83606E-03-7.17087E-01-5.24218E-05-2.67103E-05
 -1      5991 6.02567E-01-4.39417E-01 7.98673E-03-7.17084E-01-1.27797E-04-6.51161E-05
 -1      5992 6.01619E-01-4.40273E-01 5.52304E-03-7.17021E-01-1.95977E-04-9.98556E-05
 -1      5993 7.97694E-01-6.36348E-01 5.52303E-03-5.20946E-01 2.09186E-04 6.79686E-05
 -1      5994 7.98659E-01-6.35509E-01 7.98672E-03-5.20992E-01 1.36410E-04 4.43224E-05
 -1      5995 7.99012E-01-6.35162E-01 8.83605E-03-5.20994E-01 5.59547E-05 1.81808E-05
 -1      5996 7.99130E-01-6.35035E-01 9.10958E-03-5.20991E-01 1.67421E-05 5.43983E-06
 -1      5997 7.99168E-01-6.34992E-01 9.19375E-03-5.20989E-01 3.41093E-06 1.10828E-06
 -1      5998 7.99168E-01-6.34992E-01 9.19375E-03-5.20989E-01-3.41093E-06-1.10828E-06
 -1      5999 7.99130E-01-6.35035E-01 9.10958E-03-5.20991E-01-1.67421E-05-5.43983E-06
 -1      6000 7.99012E-01-6.35162E-01 8.83605E-03-5.20994E-01-5.59547E-05-1.81808E-05
 -1      6001 7.98659E-01-6.35509E-01 7.98672E-03-5.20992E-01-1.36410E-04-4.43224E-05
 -1      6002 7.97694E-01-6.36348E-01 5.52303E-03-5.20946E-01-2.09186E-04-6.79686E-05
 -1      6003 9.23582E-01-7.62236E-01 5.52304E-03-2.73878E-01 2.17243E-04 3.44077E-05
 -1      6004 9.24558E-01-7.61408E-01 7.98673E-03-2.73902E-01 1.41665E-04 2.24374E-05
 -1      6005 9.24911E-01-7.61061E-01 8.83606E-03-2.73903E-01 5.81099E-05 9.20370E-06
 -1      6006 9.25028E-01-7.60934E-01 9.10958E-03-2.73901E-01 1.73870E-05 2.75382E-06
 -1      6007 9.25066E-01-7.60890E-01 9.19375E-03-2.73900E-01 3.54232E-06 5.61049E-07
 -1      6008 9.25066E-01-7.60890E-01 9.19375E-03-2.73900E-01-3.54232E-06-5.61049E-07
 -1      6009 9.25028E-01-7.60934E-01 9.10958E-03-2.73901E-01-1.73870E-05-2.75382E-06
 -1      6010 9.24911E-01-7.61061E-01 8.83606E-03-2.73903E-01-5.81099E-05-9.20370E-06
 -1      6011 9.24558E-01-7.61408E-01 7.98673E-03-2.73902E-01-1.41665E-04-2.24374E-05
 -1      6012 9.23582E-01-7.62236E-01 5.52304E-03-2.73878E-01-2.17243E-04-3.44077E-05
 -1      6013-6.28124E-01 7.87099E-01 4.68651E-03-2.29917E-01 1.53747E-06 9.70722E-06
 -1      6014-6.27121E-01 7.88122E-01 7.09253E-03-2.29920E-01 1.01784E-05 6.42636E-05
 -1      6015-6.26749E-01 7.88513E-01 8.03307E-03-2.29923E-01 7.74397E-06 4.88935E-05
 -1      6016-6.26609E-01 7.88664E-01 8.40405E-03-2.29925E-01 4.36143E-06 2.75370E-05
 -1      6017-6.26559E-01 7.88718E-01 8.53666E-03-2.29926E-01 1.36256E-06 8.60286E-06
 -1      6018-6.26559E-01 7.88718E-01 8.53666E-03-2.29926E-01-1.36256E-06-8.60286E-06
 -1      6019-6.26609E-01 7.88664E-01 8.40405E-03-2.29925E-01-4.36143E-06-2.75370E-05
 -1      6020-6.26749E-01 7.88513E-01 8.03307E-03-2.29923E-01-7.74397E-06-4.88935E-05
 -1      6021-6.27121E-01 7.88122E-01 7.09253E-03-2.29920E-01-1.01784E-05-6.42636E-05
 -1      6022-6.28124E-01 7.87099E-01 4.68651E-03-2.29917E-01-1.53747E-06-9.70722E-06
 -1      6023-5.22443E-01 6.81418E-01 4.68651E-03-4.37328E-01 3.03709E-06 9.34719E-06
 -1      6024-5.21439E-01 6.82439E-01 7.09253E-03-4.37334E-01 2.01061E-05 6.18802E-05
 -1      6025-5.21065E-01 6.82829E-01 8.03307E-03-4.37340E-01 1.52973E-05 4.70801E-05
 -1      6026-5.20924E-01 6.82979E-01 8.40405E-03-4.37343E-01 8.61547E-06 2.65157E-05
 -1      6027-5.20874E-01 6.83033E-01 8.53666E-03-4.37345E-01 2.69157E-06 8.28379E-06
 -1      6028-5.20874E-01 6.83033E-01 8.53666E-03-4.37345E-01-2.69157E-06-8.28379E-06
 -1      6029-5.20924E-01 6.82979E-01 8.40405E-03-4.37343E-01-8.61547E-06-2.65157E-05
 -1      6030-5.21065E-01 6.82829E-01 8.03307E-03-4.37340E-01-1.52973E-05-4.70801E-05
 -1      6031-5.21439E-01 6.82439E-01 7.09253E-03-4.37334E-01-2.01061E-05-6.18802E-05
 -1      6032-5.22443E-01 6.81418E-01 4.68651E-03-4.37328E-01-3.03709E-06-9.34719E-06
 -1      6033-3.57840E-01 5.16816E-01 4.68651E-03-6.01930E-01 4.46192E-06 8.75701E-06
 -1      6034-3.56834E-01 5.17834E-01 7.09253E-03-6.01939E-01 2.95388E-05 5.79731E-05
 -1      6035-3.56458E-01 5.18222E-01 8.03307E-03-6.01947E-01 2.24739E-05 4.41074E-05
 -1      6036-3.56316E-01 5.18371E-01 8.40405E-03-6.01952E-01 1.26574E-05 2.48415E-05
 -1      6037-3.56265E-01 5.18424E-01 8.53666E-03-6.01953E-01 3.95430E-06 7.76075E-06
 -1      6038-3.56265E-01 5.18424E-01 8.53666E-03-6.01953E-01-3.95430E-06-7.76075E-06
 -1      6039-3.56316E-01 5.18371E-01 8.40405E-03-6.01952E-01-1.26574E-05-2.48415E-05
 -1      6040-3.56458E-01 5.18222E-01 8.03307E-03-6.01947E-01-2.24739E-05-4.41074E-05
 -1      6041-3.56834E-01 5.17834E-01 7.09253E-03-6.01939E-01-2.95388E-05-5.79731E-05
 -1      6042-3.57840E-01 5.16816E-01 4.68651E-03-6.01930E-01-4.46192E-06-8.75701E-06
 -1      6043-1.50429E-01 3.09404E-01 4.68651E-03-7.07612E-01 5.77688E-06 7.95120E-06
 -1      6044-1.49420E-01 3.10420E-01 7.09253E-03-7.07622E-01 3.82441E-05 5.26384E-05
 -1      6045-1.49041E-01 3.10805E-01 8.03307E-03-7.07631E-01 2.90971E-05 4.00487E-05
 -1      6046-1.48897E-01 3.10953E-01 8.40405E-03-7.07637E-01 1.63876E-05 2.25556E-05
 -1      6047-1.48846E-01 3.11005E-01 8.53666E-03-7.07638E-01 5.11967E-06 7.04661E-06
 -1      6048-1.48846E-01 3.11005E-01 8.53666E-03-7.07638E-01-5.11967E-06-7.04661E-06
 -1      6049-1.48897E-01 3.10953E-01 8.40405E-03-7.07637E-01-1.63876E-05-2.25556E-05
 -1      6050-1.49041E-01 3.10805E-01 8.03307E-03-7.07631E-01-2.90971E-05-4.00487E-05
 -1      6051-1.49420E-01 3.10420E-01 7.09253E-03-7.07622E-01-3.82441E-05-5.26384E-05
 -1      6052-1.50429E-01 3.09404E-01 4.68651E-03-7.07612E-01-5.77688E-06-7.95120E-06
 -1      6053 7.94875E-02 7.94875E-02 4.68651E-03-7.44027E-01 6.94960E-06 6.94960E-06
 -1      6054 8.05002E-02 8.05002E-02 7.09253E-03-7.44037E-01 4.60077E-05 4.60077E-05
 -1      6055 8.08820E-02 8.08820E-02 8.03307E-03-7.44047E-01 3.50039E-05 3.50039E-05
 -1      6056 8.10276E-02 8.10276E-02 8.40405E-03-7.44053E-01 1.97143E-05 1.97143E-05
 -1      6057 8.10796E-02 8.10796E-02 8.53666E-03-7.44055E-01 6.15897E-06 6.15897E-06
 -1      6058 8.10796E-02 8.10796E-02 8.53666E-03-7.44055E-01-6.15897E-06-6.15897E-06
 -1      6059 8.10276E-02 8.10276E-02 8.40405E-03-7.44053E-01-1.97143E-05-1.97143E-05
 -1      6060 8.08820E-02 8.08820E-02 8.03307E-03-7.44047E-01-3.50039E-05-3.50039E-05
 -1      6061 8.05002E-02 8.05002E-02 7.09253E-03-7.44037E-01-4.60077E-05-4.60077E-05
 -1      6062 7.94875E-02 7.94875E-02 4.68651E-03-7.44027E-01-6.94960E-06-6.94960E-06
 -1      6063 3.09404E-01-1.50429E-01 4.68651E-03-7.07612E-01 7.95121E-06 5.77686E-06
 -1      6064 3.10420E-01-1.49420E-01 7.09253E-03-7.07622E-01 5.26385E-05 3.82440E-05
 -1      6065 3.10805E-01-1.49041E-01 8.03307E-03-7.07631E-01 4.00487E-05 2.90971E-05
 -1      6066 3.10953E-01-1.48897E-01 8.40405E-03-7.07637E-01 2.25556E-05 1.63876E-05
 -1      6067 3.11005E-01-1.48846E-01 8.53666E-03-7.07638E-01 7.04662E-06 5.11966E-06
 -1      6068 3.11005E-01-1.48846E-01 8.53666E-03-7.07638E-01-7.04662E-06-5.11966E-06
 -1      6069 3.10953E-01-1.48897E-01 8.40405E-03-7.07637E-01-2.25556E-05-1.63876E-05
 -1      6070 3.10805E-01-1.49041E-01 8.03307E-03-7.07631E-01-4.00487E-05-2.90971E-05
 -1      6071 3.10420E-01-1.49420E-01 7.09253E-03-7.07622E-01-5.26385E-05-3.82440E-05
 -1      6072 3.09404E-01-1.50429E-01 4.68651E-03-7.07612E-01-7.95121E-06-5.77686E-06
 -1      6073 5.16816E-01-3.57840E-01 4.68651E-03-6.01930E-01 8.75688E-06 4.46175E-06
 -1      6074 5.17834E-01-3.56834E-01 7.09253E-03-6.01939E-01 5.79729E-05 2.95387E-05
 -1      6075 5.18222E-01-3.56458E-01 8.03307E-03-6.01947E-01 4.41074E-05 2.24739E-05
 -1      6076 5.18371E-01-3.56316E-01 8.40405E-03-6.01952E-01 2.48414E-05 1.26574E-05
 -1      6077 5.18424E-01-3.56265E-01 8.53666E-03-6.01953E-01 7.76074E-06 3.95430E-06
 -1      6078 5.18424E-01-3.56265E-01 8.53666E-03-6.01953E-01-7.76074E-06-3.95430E-06
 -1      6079 5.18371E-01-3.56316E-01 8.40405E-03-6.01952E-01-2.48414E-05-1.26574E-05
 -1      6080 5.18222E-01-3.56458E-01 8.03307E-03-6.01947E-01-4.41074E-05-2.24739E-05
 -1      6081 5.17834E-01-3.56834E-01 7.09253E-03-6.01939E-01-5.79729E-05-2.95387E-05
 -1      6082 5.16816E-01-3.57840E-01 4.68651E-03-6.01930E-01-8.75688E-06-4.46175E-06
 -1      6083 6.81418E-01-5.22443E-01 4.68651E-03-4.37328E-01 9.34741E-06 3.03705E-06
 -1      6084 6.82439E-01-5.21439E-01 7.09253E-03-4.37334E-01 6.18803E-05 2.01062E-05
 -1      6085 6.82829E-01-5.21065E-01 8.03307E-03-4.37340E-01 4.70802E-05 1.52973E-05
 -1      6086 6.82979E-01-5.20924E-01 8.40405E-03-4.37343E-01 2.65157E-05 8.61549E-06
 -1      6087 6.83033E-01-5.20874E-01 8.53666E-03-4.37345E-01 8.28380E-06 2.69158E-06
 -1      6088 6.83033E-01-5.20874E-01 8.53666E-03-4.37345E-01-8.28380E-06-2.69158E-06
 -1      6089 6.82979E-01-5.20924E-01 8.40405E-03-4.37343E-01-2.65157E-05-8.61549E-06
 -1      6090 6.82829E-01-5.21065E-01 8.03307E-03-4.37340E-01-4.70802E-05-1.52973E-05
 -1      6091 6.82439E-01-5.21439E-01 7.09253E-03-4.37334E-01-6.18803E-05-2.01062E-05
 -1      6092 6.81418E-01-5.22443E-01 4.68651E-03-4.37328E-01-9.34741E-06-3.03705E-06
 -1      6093 7.87099E-01-6.28124E-01 4.68651E-03-2.29917E-01 9.70723E-06 1.53745E-06
 -1      6094 7.88122E-01-6.27121E-01 7.09253E-03-2.29920E-01 6.42637E-05 1.01783E-05
 -1      6095 7.88513E-01-6.26749E-01 8.03307E-03-2.29923E-01 4.88935E-05 7.74394E-06
 -1      6096 7.88664E-01-6.26609E-01 8.40405E-03-2.29925E-01 2.75370E-05 4.36141E-06
 -1      6097 7.88718E-01-6.26559E-01 8.53666E-03-2.29926E-01 8.60286E-06 1.36255E-06
 -1      6098 7.88718E-01-6.26559E-01 8.53666E-03-2.29926E-01-8.60286E-06-1.36255E-06
 -1      6099 7.88664E-01-6.26609E-01 8.40405E-03-2.29925E-01-2.75370E-05-4.36141E-06
 -1      6100 7.88513E-01-6.26749E-01 8.03307E-03-2.29923E-01-4.88935E-05-7.74394E-06
 -1      6101 7.88122E-01-6.27121E-01 7.09253E-03-2.29920E-01-6.42637E-05-1.01783E-05
 -1      6102 7.87099E-01-6.28124E-01 4.68651E-03-2.29917E-01-9.70723E-06-1.53745E-06
 -1      6103-5.25740E-01 6.80353E-01 3.84789E-03-1.95942E-01-3.76926E-06-2.37982E-05
 -1      6104-5.24913E-01 6.81179E-01 5.77269E-03-1.95942E-01 2.69814E-06 1.70354E-05
 -1      6105-5.24581E-01 6.81517E-01 6.56930E-03-1.95942E-01 3.03932E-06 1.91895E-05
 -1      6106-5.24438E-01 6.81663E-01 6.91656E-03-1.95943E-01 2.15503E-06 1.36063E-05
 -1      6107-5.24385E-01 6.81718E-01 7.04859E-03-1.95943E-01 7.42858E-07 4.69022E-06
 -1      6108-5.24385E-01 6.81718E-01 7.04859E-03-1.95943E-01-7.42858E-07-4.69022E-06
 -1      6109-5.24438E-01 6.81663E-01 6.91656E-03-1.95943E-01-2.15503E-06-1.36063E-05
 -1      6110-5.24581E-01 6.81517E-01 6.56930E-03-1.95942E-01-3.03932E-06-1.91895E-05
 -1      6111-5.24913E-01 6.81179E-01 5.77269E-03-1.95942E-01-2.69814E-06-1.70354E-05
 -1      6112-5.25740E-01 6.80353E-01 3.84789E-03-1.95942E-01 3.76926E-06 2.37982E-05
 -1      6113-4.35675E-01 5.90288E-01 3.84789E-03-3.72703E-01-7.44570E-06-2.29155E-05
 -1      6114-4.34849E-01 5.91115E-01 5.77269E-03-3.72703E-01 5.32983E-06 1.64035E-05
 -1      6115-4.34516E-01 5.91452E-01 6.56930E-03-3.72705E-01 6.00380E-06 1.84778E-05
 -1      6116-4.34373E-01 5.91598E-01 6.91656E-03-3.72706E-01 4.25700E-06 1.31017E-05
 -1      6117-4.34319E-01 5.91653E-01 7.04859E-03-3.72706E-01 1.46742E-06 4.51627E-06
 -1      6118-4.34319E-01 5.91653E-01 7.04859E-03-3.72706E-01-1.46742E-06-4.51627E-06
 -1      6119-4.34373E-01 5.91598E-01 6.91656E-03-3.72706E-01-4.25700E-06-1.31017E-05
 -1      6120-4.34516E-01 5.91452E-01 6.56930E-03-3.72705E-01-6.00380E-06-1.84778E-05
 -1      6121-4.34849E-01 5.91115E-01 5.77269E-03-3.72703E-01-5.32983E-06-1.64035E-05
 -1      6122-4.35675E-01 5.90288E-01 3.84789E-03-3.72703E-01 7.44570E-06 2.29155E-05
 -1      6123-2.95397E-01 4.50009E-01 3.84789E-03-5.12982E-01-1.09388E-05-2.14686E-05
 -1      6124-2.94570E-01 4.50836E-01 5.77269E-03-5.12982E-01 7.83029E-06 1.53678E-05
 -1      6125-2.94237E-01 4.51173E-01 6.56930E-03-5.12984E-01 8.82045E-06 1.73111E-05
 -1      6126-2.94093E-01 4.51318E-01 6.91656E-03-5.12985E-01 6.25415E-06 1.22745E-05
 -1      6127-2.94040E-01 4.51373E-01 7.04859E-03-5.12986E-01 2.15586E-06 4.23111E-06
 -1      6128-2.94040E-01 4.51373E-01 7.04859E-03-5.12986E-01-2.15586E-06-4.23111E-06
 -1      6129-2.94093E-01 4.51318E-01 6.91656E-03-5.12985E-01-6.25415E-06-1.22745E-05
 -1      6130-2.94237E-01 4.51173E-01 6.56930E-03-5.12984E-01-8.82045E-06-1.73111E-05
 -1      6131-2.94570E-01 4.50836E-01 5.77269E-03-5.12982E-01-7.83029E-06-1.53678E-05
 -1      6132-2.95397E-01 4.50009E-01 3.84789E-03-5.12982E-01 1.09388E-05 2.14686E-05
 -1      6133-1.18635E-01 2.73248E-01 3.84789E-03-6.03046E-01-1.41626E-05-1.94931E-05
 -1      6134-1.17809E-01 2.74074E-01 5.77269E-03-6.03046E-01 1.01379E-05 1.39537E-05
 -1      6135-1.17474E-01 2.74411E-01 6.56930E-03-6.03049E-01 1.14199E-05 1.57182E-05
 -1      6136-1.17331E-01 2.74555E-01 6.91656E-03-6.03051E-01 8.09730E-06 1.11450E-05
 -1      6137-1.17277E-01 2.74610E-01 7.04859E-03-6.03051E-01 2.79121E-06 3.84177E-06
 -1      6138-1.17277E-01 2.74610E-01 7.04859E-03-6.03051E-01-2.79121E-06-3.84177E-06
 -1      6139-1.17331E-01 2.74555E-01 6.91656E-03-6.03051E-01-8.09730E-06-1.11450E-05
 -1      6140-1.17474E-01 2.74411E-01 6.56930E-03-6.03049E-01-1.14199E-05-1.57182E-05
 -1      6141-1.17809E-01 2.74074E-01 5.77269E-03-6.03046E-01-1.01379E-05-1.39537E-05
 -1      6142-1.18635E-01 2.73248E-01 3.84789E-03-6.03046E-01 1.41626E-05 1.94931E-05
 -1      6143 7.73064E-02 7.73064E-02 3.84789E-03-6.34080E-01-1.70376E-05-1.70376E-05
 -1      6144 7.81328E-02 7.81328E-02 5.77269E-03-6.34080E-01 1.21960E-05 1.21960E-05
 -1      6145 7.84681E-02 7.84681E-02 6.56930E-03-6.34083E-01 1.37382E-05 1.37382E-05
 -1      6146 7.86122E-02 7.86123E-02 6.91656E-03-6.34085E-01 9.74106E-06 9.74106E-06
 -1      6147 7.86666E-02 7.86666E-02 7.04859E-03-6.34086E-01 3.35783E-06 3.35783E-06
 -1      6148 7.86666E-02 7.86666E-02 7.04859E-03-6.34086E-01-3.35783E-06-3.35783E-06
 -1      6149 7.86122E-02 7.86123E-02 6.91656E-03-6.34085E-01-9.74106E-06-9.74106E-06
 -1      6150 7.84681E-02 7.84681E-02 6.56930E-03-6.34083E-01-1.37382E-05-1.37382E-05
 -1      6151 7.81328E-02 7.81328E-02 5.77269E-03-6.34080E-01-1.21960E-05-1.21960E-05
 -1      6152 7.73064E-02 7.73064E-02 3.84789E-03-6.34080E-01 1.70376E-05 1.70376E-05
 -1      6153 2.73248E-01-1.18635E-01 3.84789E-03-6.03046E-01-1.94931E-05-1.41626E-05
 -1      6154 2.74074E-01-1.17809E-01 5.77269E-03-6.03046E-01 1.39537E-05 1.01379E-05
 -1      6155 2.74411E-01-1.17474E-01 6.56930E-03-6.03049E-01 1.57182E-05 1.14199E-05
 -1      6156 2.74555E-01-1.17331E-01 6.91656E-03-6.03051E-01 1.11450E-05 8.09729E-06
 -1      6157 2.74610E-01-1.17277E-01 7.04859E-03-6.03051E-01 3.84177E-06 2.79120E-06
 -1      6158 2.74610E-01-1.17277E-01 7.04859E-03-6.03051E-01-3.84177E-06-2.79120E-06
 -1      6159 2.74555E-01-1.17331E-01 6.91656E-03-6.03051E-01-1.11450E-05-8.09729E-06
 -1      6160 2.74411E-01-1.17474E-01 6.56930E-03-6.03049E-01-1.57182E-05-1.14199E-05
 -1      6161 2.74074E-01-1.17809E-01 5.77269E-03-6.03046E-01-1.39537E-05-1.01379E-05
 -1      6162 2.73248E-01-1.18635E-01 3.84789E-03-6.03046E-01 1.94931E-05 1.41626E-05
 -1      6163 4.50009E-01-2.95397E-01 3.84789E-03-5.12982E-01-2.14686E-05-1.09388E-05
 -1      6164 4.50836E-01-2.94570E-01 5.77269E-03-5.12982E-01 1.53678E-05 7.83029E-06
 -1      6165 4.51173E-01-2.94237E-01 6.56930E-03-5.12984E-01 1.73111E-05 8.82045E-06
 -1      6166 4.51318E-01-2.94093E-01 6.91656E-03-5.12985E-01 1.22744E-05 6.25415E-06
 -1      6167 4.51373E-01-2.94040E-01 7.04859E-03-5.12986E-01 4.23110E-06 2.15586E-06
 -1      6168 4.51373E-01-2.94040E-01 7.04859E-03-5.12986E-01-4.23110E-06-2.15586E-06
 -1      6169 4.51318E-01-2.94093E-01 6.91656E-03-5.12985E-01-1.22744E-05-6.25415E-06
 -1      6170 4.51173E-01-2.94237E-01 6.56930E-03-5.12984E-01-1.73111E-05-8.82045E-06
 -1      6171 4.50836E-01-2.94570E-01 5.77269E-03-5.12982E-01-1.53678E-05-7.83029E-06
 -1      6172 4.50009E-01-2.95397E-01 3.84789E-03-5.12982E-01 2.14686E-05 1.09388E-05
 -1      6173 5.90288E-01-4.35675E-01 3.84789E-03-3.72703E-01-2.29155E-05-7.44568E-06
 -1      6174 5.91115E-01-4.34849E-01 5.77269E-03-3.72703E-01 1.64036E-05 5.32984E-06
 -1      6175 5.91452E-01-4.34516E-01 6.56930E-03-3.72705E-01 1.84778E-05 6.00382E-06
 -1      6176 5.91598E-01-4.34373E-01 6.91656E-03-3.72706E-01 1.31017E-05 4.25701E-06
 -1      6177 5.91653E-01-4.34319E-01 7.04859E-03-3.72706E-01 4.51627E-06 1.46743E-06
 -1      6178 5.91653E-01-4.34319E-01 7.04859E-03-3.72706E-01-4.51627E-06-1.46743E-06
 -1      6179 5.91598E-01-4.34373E-01 6.91656E-03-3.72706E-01-1.31017E-05-4.25701E-06
 -1      6180 5.91452E-01-4.34516E-01 6.56930E-03-3.72705E-01-1.84778E-05-6.00382E-06
 -1      6181 5.91115E-01-4.34849E-01 5.77269E-03-3.72703E-01-1.64036E-05-5.32984E-06
 -1      6182 5.90288E-01-4.35675E-01 3.84789E-03-3.72703E-01 2.29155E-05 7.44568E-06
 -1      6183 6.80353E-01-5.25740E-01 3.84789E-03-1.95942E-01-2.37981E-05-3.76926E-06
 -1      6184 6.81179E-01-5.24913E-01 5.77269E-03-1.95942E-01 1.70354E-05 2.69813E-06
 -1      6185 6.81517E-01-5.24581E-01 6.56930E-03-1.95942E-01 1.91895E-05 3.03932E-06
 -1      6186 6.81663E-01-5.24438E-01 6.91656E-03-1.95943E-01 1.36063E-05 2.15503E-06
 -1      6187 6.81718E-01-5.24385E-01 7.04859E-03-1.95943E-01 4.69022E-06 7.42857E-07
 -1      6188 6.81718E-01-5.24385E-01 7.04859E-03-1.95943E-01-4.69022E-06-7.42857E-07
 -1      6189 6.81663E-01-5.24438E-01 6.91656E-03-1.95943E-01-1.36063E-05-2.15503E-06
 -1      6190 6.81517E-01-5.24581E-01 6.56930E-03-1.95942E-01-1.91895E-05-3.03932E-06
 -1      6191 6.81179E-01-5.24913E-01 5.77269E-03-1.95942E-01-1.70354E-05-2.69813E-06
 -1      6192 6.80353E-01-5.25740E-01 3.84789E-03-1.95942E-01 2.37981E-05 3.76926E-06
 -1      6193-4.44570E-01 5.95598E-01 3.06017E-03-1.68986E-01-4.82045E-06-3.04351E-05
 -1      6194-4.43873E-01 5.96293E-01 4.67781E-03-1.68985E-01 1.80319E-06 1.13849E-05
 -1      6195-4.43569E-01 5.96597E-01 5.39083E-03-1.68985E-01 2.20975E-06 1.39518E-05
 -1      6196-4.43431E-01 5.96735E-01 5.71573E-03-1.68985E-01 1.57466E-06 9.94199E-06
 -1      6197-4.43377E-01 5.96789E-01 5.84320E-03-1.68985E-01 5.40070E-07 3.40987E-06
 -1      6198-4.43377E-01 5.96789E-01 5.84320E-03-1.68985E-01-5.40070E-07-3.40987E-06
 -1      6199-4.43431E-01 5.96735E-01 5.71573E-03-1.68985E-01-1.57466E-06-9.94199E-06
 -1      6200-4.43569E-01 5.96597E-01 5.39083E-03-1.68985E-01-2.20975E-06-1.39518E-05
 -1      6201-4.43873E-01 5.96293E-01 4.67781E-03-1.68985E-01-1.80319E-06-1.13849E-05
 -1      6202-4.44570E-01 5.95598E-01 3.06017E-03-1.68986E-01 4.82045E-06 3.04351E-05
 -1      6203-3.66896E-01 5.17924E-01 3.06017E-03-3.21430E-01-9.52220E-06-2.93063E-05
 -1      6204-3.66199E-01 5.18619E-01 4.67781E-03-3.21429E-01 3.56199E-06 1.09627E-05
 -1      6205-3.65895E-01 5.18923E-01 5.39083E-03-3.21429E-01 4.36508E-06 1.34343E-05
 -1      6206-3.65757E-01 5.19061E-01 5.71573E-03-3.21429E-01 3.11054E-06 9.57326E-06
 -1      6207-3.65703E-01 5.19115E-01 5.84320E-03-3.21429E-01 1.06684E-06 3.28340E-06
 -1      6208-3.65703E-01 5.19115E-01 5.84320E-03-3.21429E-01-1.06684E-06-3.28340E-06
 -1      6209-3.65757E-01 5.19061E-01 5.71573E-03-3.21429E-01-3.11054E-06-9.57326E-06
 -1      6210-3.65895E-01 5.18923E-01 5.39083E-03-3.21429E-01-4.36508E-06-1.34343E-05
 -1      6211-3.66199E-01 5.18619E-01 4.67781E-03-3.21429E-01-3.56199E-06-1.09627E-05
 -1      6212-3.66896E-01 5.17924E-01 3.06017E-03-3.21430E-01 9.52220E-06 2.93063E-05
 -1      6213-2.45916E-01 3.96943E-01 3.06017E-03-4.42410E-01-1.39895E-05-2.74559E-05
 -1      6214-2.45219E-01 3.97639E-01 4.67781E-03-4.42409E-01 5.23307E-06 1.02705E-05
 -1      6215-2.44915E-01 3.97943E-01 5.39083E-03-4.42409E-01 6.41293E-06 1.25861E-05
 -1      6216-2.44777E-01 3.98081E-01 5.71573E-03-4.42409E-01 4.56983E-06 8.96880E-06
 -1      6217-2.44723E-01 3.98135E-01 5.84320E-03-4.42409E-01 1.56734E-06 3.07609E-06
 -1      6218-2.44723E-01 3.98135E-01 5.84320E-03-4.42409E-01-1.56734E-06-3.07609E-06
 -1      6219-2.44777E-01 3.98081E-01 5.71573E-03-4.42409E-01-4.56983E-06-8.96880E-06
 -1      6220-2.44915E-01 3.97943E-01 5.39083E-03-4.42409E-01-6.41293E-06-1.25861E-05
 -1      6221-2.45219E-01 3.97639E-01 4.67781E-03-4.42409E-01-5.23307E-06-1.02705E-05
 -1      6222-2.45916E-01 3.96943E-01 3.06017E-03-4.42410E-01 1.39895E-05 2.74559E-05
 -1      6223-9.34717E-02 2.44499E-01 3.06017E-03-5.20084E-01-1.81123E-05-2.49294E-05
 -1      6224-9.27751E-02 2.45195E-01 4.67781E-03-5.20083E-01 6.77531E-06 9.32541E-06
 -1      6225-9.24711E-02 2.45499E-01 5.39083E-03-5.20083E-01 8.30288E-06 1.14279E-05
 -1      6226-9.23330E-02 2.45637E-01 5.71573E-03-5.20083E-01 5.91660E-06 8.14350E-06
 -1      6227-9.22790E-02 2.45691E-01 5.84320E-03-5.20083E-01 2.02925E-06 2.79303E-06
 -1      6228-9.22790E-02 2.45691E-01 5.84320E-03-5.20083E-01-2.02925E-06-2.79303E-06
 -1      6229-9.23330E-02 2.45637E-01 5.71573E-03-5.20083E-01-5.91660E-06-8.14350E-06
 -1      6230-9.24711E-02 2.45499E-01 5.39083E-03-5.20083E-01-8.30288E-06-1.14279E-05
 -1      6231-9.27751E-02 2.45195E-01 4.67781E-03-5.20083E-01-6.77531E-06-9.32541E-06
 -1      6232-9.34717E-02 2.44499E-01 3.06017E-03-5.20084E-01 1.81123E-05 2.49294E-05
 -1      6233 7.55138E-02 7.55138E-02 3.06017E-03-5.46849E-01-2.17891E-05-2.17891E-05
 -1      6234 7.62101E-02 7.62101E-02 4.67781E-03-5.46848E-01 8.15070E-06 8.15071E-06
 -1      6235 7.65141E-02 7.65141E-02 5.39083E-03-5.46848E-01 9.98838E-06 9.98838E-06
 -1      6236 7.66523E-02 7.66523E-02 5.71573E-03-5.46848E-01 7.11768E-06 7.11768E-06
 -1      6237 7.67062E-02 7.67062E-02 5.84320E-03-5.46848E-01 2.44120E-06 2.44120E-06
 -1      6238 7.67062E-02 7.67062E-02 5.84320E-03-5.46848E-01-2.44120E-06-2.44120E-06
 -1      6239 7.66523E-02 7.66523E-02 5.71573E-03-5.46848E-01-7.11768E-06-7.11768E-06
 -1      6240 7.65141E-02 7.65141E-02 5.39083E-03-5.46848E-01-9.98838E-06-9.98838E-06
 -1      6241 7.62101E-02 7.62101E-02 4.67781E-03-5.46848E-01-8.15070E-06-8.15071E-06
 -1      6242 7.55138E-02 7.55138E-02 3.06017E-03-5.46849E-01 2.17891E-05 2.17891E-05
 -1      6243 2.44499E-01-9.34717E-02 3.06017E-03-5.20084E-01-2.49294E-05-1.81123E-05
 -1      6244 2.45195E-01-9.27751E-02 4.67781E-03-5.20083E-01 9.32541E-06 6.77530E-06
 -1      6245 2.45499E-01-9.24711E-02 5.39083E-03-5.20083E-01 1.14279E-05 8.30287E-06
 -1      6246 2.45637E-01-9.23330E-02 5.71573E-03-5.20083E-01 8.14350E-06 5.91660E-06
 -1      6247 2.45691E-01-9.22790E-02 5.84320E-03-5.20083E-01 2.79303E-06 2.02925E-06
 -1      6248 2.45691E-01-9.22790E-02 5.84320E-03-5.20083E-01-2.79303E-06-2.02925E-06
 -1      6249 2.45637E-01-9.23330E-02 5.71573E-03-5.20083E-01-8.14350E-06-5.91660E-06
 -1      6250 2.45499E-01-9.24711E-02 5.39083E-03-5.20083E-01-1.14279E-05-8.30287E-06
 -1      6251 2.45195E-01-9.27751E-02 4.67781E-03-5.20083E-01-9.32541E-06-6.77530E-06
 -1      6252 2.44499E-01-9.34717E-02 3.06017E-03-5.20084E-01 2.49294E-05 1.81123E-05
 -1      6253 3.96943E-01-2.45916E-01 3.06017E-03-4.42410E-01-2.74559E-05-1.39895E-05
 -1      6254 3.97639E-01-2.45219E-01 4.67781E-03-4.42409E-01 1.02705E-05 5.23308E-06
 -1      6255 3.97943E-01-2.44915E-01 5.39083E-03-4.42409E-01 1.25861E-05 6.41293E-06
 -1      6256 3.98081E-01-2.44777E-01 5.71573E-03-4.42409E-01 8.96880E-06 4.56983E-06
 -1      6257 3.98135E-01-2.44723E-01 5.84320E-03-4.42409E-01 3.07608E-06 1.56734E-06
 -1      6258 3.98135E-01-2.44723E-01 5.84320E-03-4.42409E-01-3.07608E-06-1.56734E-06
 -1      6259 3.98081E-01-2.44777E-01 5.71573E-03-4.42409E-01-8.96880E-06-4.56983E-06
 -1      6260 3.97943E-01-2.44915E-01 5.39083E-03-4.42409E-01-1.25861E-05-6.41293E-06
 -1      6261 3.97639E-01-2.45219E-01 4.67781E-03-4.42409E-01-1.02705E-05-5.23308E-06
 -1      6262 3.96943E-01-2.45916E-01 3.06017E-03-4.42410E-01 2.74559E-05 1.39895E-05
 -1      6263 5.17924E-01-3.66896E-01 3.06017E-03-3.21430E-01-2.93063E-05-9.52220E-06
 -1      6264 5.18619E-01-3.66199E-01 4.67781E-03-3.21429E-01 1.09627E-05 3.56199E-06
 -1      6265 5.18923E-01-3.65895E-01 5.39083E-03-3.21429E-01 1.34343E-05 4.36509E-06
 -1      6266 5.19061E-01-3.65757E-01 5.71573E-03-3.21429E-01 9.57326E-06 3.11054E-06
 -1      6267 5.19115E-01-3.65703E-01 5.84320E-03-3.21429E-01 3.28340E-06 1.06684E-06
 -1      6268 5.19115E-01-3.65703E-01 5.84320E-03-3.21429E-01-3.28340E-06-1.06684E-06
 -1      6269 5.19061E-01-3.65757E-01 5.71573E-03-3.21429E-01-9.57326E-06-3.11054E-06
 -1      6270 5.18923E-01-3.65895E-01 5.39083E-03-3.21429E-01-1.34343E-05-4.36509E-06
 -1      6271 5.18619E-01-3.66199E-01 4.67781E-03-3.21429E-01-1.09627E-05-3.56199E-06
 -1      6272 5.17924E-01-3.66896E-01 3.06017E-03-3.21430E-01 2.93063E-05 9.52220E-06
 -1      6273 5.95598E-01-4.44570E-01 3.06017E-03-1.68986E-01-3.04351E-05-4.82045E-06
 -1      6274 5.96293E-01-4.43873E-01 4.67781E-03-1.68985E-01 1.13849E-05 1.80319E-06
 -1      6275 5.96597E-01-4.43569E-01 5.39083E-03-1.68985E-01 1.39518E-05 2.20974E-06
 -1      6276 5.96735E-01-4.43431E-01 5.71573E-03-1.68985E-01 9.94200E-06 1.57466E-06
 -1      6277 5.96789E-01-4.43377E-01 5.84320E-03-1.68985E-01 3.40987E-06 5.40070E-07
 -1      6278 5.96789E-01-4.43377E-01 5.84320E-03-1.68985E-01-3.40987E-06-5.40070E-07
 -1      6279 5.96735E-01-4.43431E-01 5.71573E-03-1.68985E-01-9.94200E-06-1.57466E-06
 -1      6280 5.96597E-01-4.43569E-01 5.39083E-03-1.68985E-01-1.39518E-05-2.20974E-06
 -1      6281 5.96293E-01-4.43873E-01 4.67781E-03-1.68985E-01-1.13849E-05-1.80319E-06
 -1      6282 5.95598E-01-4.44570E-01 3.06017E-03-1.68986E-01 3.04351E-05 4.82045E-06
 -1      6283-3.78971E-01 5.27279E-01 2.49367E-03-1.47229E-01-4.91015E-06-3.10015E-05
 -1      6284-3.78388E-01 5.27862E-01 3.85175E-03-1.47229E-01 8.88255E-07 5.60822E-06
 -1      6285-3.78119E-01 5.28132E-01 4.48525E-03-1.47229E-01 1.70133E-06 1.07418E-05
 -1      6286-3.77990E-01 5.28261E-01 4.78740E-03-1.47229E-01 1.30509E-06 8.24003E-06
 -1      6287-3.77938E-01 5.28313E-01 4.90966E-03-1.47229E-01 4.57887E-07 2.89099E-06
 -1      6288-3.77938E-01 5.28313E-01 4.90966E-03-1.47229E-01-4.57887E-07-2.89099E-06
 -1      6289-3.77990E-01 5.28261E-01 4.78740E-03-1.47229E-01-1.30509E-06-8.24003E-06
 -1      6290-3.78119E-01 5.28132E-01 4.48525E-03-1.47229E-01-1.70133E-06-1.07418E-05
 -1      6291-3.78388E-01 5.27862E-01 3.85175E-03-1.47229E-01-8.88255E-07-5.60822E-06
 -1      6292-3.78971E-01 5.27279E-01 2.49367E-03-1.47229E-01 4.91015E-06 3.10015E-05
 -1      6293-3.11297E-01 4.59605E-01 2.49367E-03-2.80047E-01-9.69940E-06-2.98517E-05
 -1      6294-3.10714E-01 4.60188E-01 3.85175E-03-2.80047E-01 1.75464E-06 5.40022E-06
 -1      6295-3.10445E-01 4.60458E-01 4.48525E-03-2.80047E-01 3.36078E-06 1.03434E-05
 -1      6296-3.10316E-01 4.60587E-01 4.78740E-03-2.80047E-01 2.57805E-06 7.93442E-06
 -1      6297-3.10264E-01 4.60639E-01 4.90966E-03-2.80047E-01 9.04500E-07 2.78376E-06
 -1      6298-3.10264E-01 4.60639E-01 4.90966E-03-2.80047E-01-9.04500E-07-2.78376E-06
 -1      6299-3.10316E-01 4.60587E-01 4.78740E-03-2.80047E-01-2.57805E-06-7.93442E-06
 -1      6300-3.10445E-01 4.60458E-01 4.48525E-03-2.80047E-01-3.36078E-06-1.03434E-05
 -1      6301-3.10714E-01 4.60188E-01 3.85175E-03-2.80047E-01-1.75464E-06-5.40022E-06
 -1      6302-3.11297E-01 4.59605E-01 2.49367E-03-2.80047E-01 9.69940E-06 2.98517E-05
 -1      6303-2.05893E-01 3.54200E-01 2.49367E-03-3.85451E-01-1.42498E-05-2.79668E-05
 -1      6304-2.05310E-01 3.54784E-01 3.85175E-03-3.85451E-01 2.57782E-06 5.05925E-06
 -1      6305-2.05040E-01 3.55054E-01 4.48525E-03-3.85451E-01 4.93746E-06 9.69032E-06
 -1      6306-2.04912E-01 3.55182E-01 4.78740E-03-3.85452E-01 3.78753E-06 7.43344E-06
 -1      6307-2.04860E-01 3.55234E-01 4.90966E-03-3.85451E-01 1.32884E-06 2.60800E-06
 -1      6308-2.04860E-01 3.55234E-01 4.90966E-03-3.85451E-01-1.32884E-06-2.60800E-06
 -1      6309-2.04912E-01 3.55182E-01 4.78740E-03-3.85452E-01-3.78753E-06-7.43344E-06
 -1      6310-2.05040E-01 3.55054E-01 4.48525E-03-3.85451E-01-4.93746E-06-9.69032E-06
 -1      6311-2.05310E-01 3.54784E-01 3.85175E-03-3.85451E-01-2.57782E-06-5.05925E-06
 -1      6312-2.05893E-01 3.54200E-01 2.49367E-03-3.85451E-01 1.42498E-05 2.79668E-05
 -1      6313-7.30754E-02 2.21383E-01 2.49367E-03-4.53125E-01-1.84494E-05-2.53934E-05
 -1      6314-7.24922E-02 2.21966E-01 3.85175E-03-4.53125E-01 3.33752E-06 4.59370E-06
 -1      6315-7.22225E-02 2.22236E-01 4.48525E-03-4.53125E-01 6.39257E-06 8.79862E-06
 -1      6316-7.20940E-02 2.22365E-01 4.78740E-03-4.53125E-01 4.90374E-06 6.74942E-06
 -1      6317-7.20421E-02 2.22417E-01 4.90966E-03-4.53125E-01 1.72046E-06 2.36801E-06
 -1      6318-7.20421E-02 2.22417E-01 4.90966E-03-4.53125E-01-1.72046E-06-2.36801E-06
 -1      6319-7.20940E-02 2.22365E-01 4.78740E-03-4.53125E-01-4.90374E-06-6.74942E-06
 -1      6320-7.22225E-02 2.22236E-01 4.48525E-03-4.53125E-01-6.39257E-06-8.79862E-06
 -1      6321-7.24922E-02 2.21966E-01 3.85175E-03-4.53125E-01-3.33752E-06-4.59370E-06
 -1      6322-7.30754E-02 2.21383E-01 2.49367E-03-4.53125E-01 1.84494E-05 2.53934E-05
 -1      6323 7.41538E-02 7.41538E-02 2.49367E-03-4.76444E-01-2.21946E-05-2.21946E-05
 -1      6324 7.47370E-02 7.47370E-02 3.85175E-03-4.76444E-01 4.01504E-06 4.01504E-06
 -1      6325 7.50069E-02 7.50069E-02 4.48525E-03-4.76444E-01 7.69028E-06 7.69028E-06
 -1      6326 7.51354E-02 7.51354E-02 4.78740E-03-4.76444E-01 5.89921E-06 5.89921E-06
 -1      6327 7.51873E-02 7.51873E-02 4.90966E-03-4.76444E-01 2.06972E-06 2.06972E-06
 -1      6328 7.51873E-02 7.51873E-02 4.90966E-03-4.76444E-01-2.06972E-06-2.06972E-06
 -1      6329 7.51354E-02 7.51354E-02 4.78740E-03-4.76444E-01-5.89921E-06-5.89921E-06
 -1      6330 7.50069E-02 7.50069E-02 4.48525E-03-4.76444E-01-7.69028E-06-7.69028E-06
 -1      6331 7.47370E-02 7.47370E-02 3.85175E-03-4.76444E-01-4.01504E-06-4.01504E-06
 -1      6332 7.41538E-02 7.41538E-02 2.49367E-03-4.76444E-01 2.21946E-05 2.21946E-05
 -1      6333 2.21383E-01-7.30754E-02 2.49367E-03-4.53125E-01-2.53934E-05-1.84494E-05
 -1      6334 2.21966E-01-7.24922E-02 3.85175E-03-4.53125E-01 4.59370E-06 3.33752E-06
 -1      6335 2.22236E-01-7.22225E-02 4.48525E-03-4.53125E-01 8.79862E-06 6.39257E-06
 -1      6336 2.22365E-01-7.20940E-02 4.78740E-03-4.53125E-01 6.74942E-06 4.90374E-06
 -1      6337 2.22417E-01-7.20421E-02 4.90966E-03-4.53125E-01 2.36801E-06 1.72046E-06
 -1      6338 2.22417E-01-7.20421E-02 4.90966E-03-4.53125E-01-2.36801E-06-1.72046E-06
 -1      6339 2.22365E-01-7.20940E-02 4.78740E-03-4.53125E-01-6.74942E-06-4.90374E-06
 -1      6340 2.22236E-01-7.22225E-02 4.48525E-03-4.53125E-01-8.79862E-06-6.39257E-06
 -1      6341 2.21966E-01-7.24922E-02 3.85175E-03-4.53125E-01-4.59370E-06-3.33752E-06
 -1      6342 2.21383E-01-7.30754E-02 2.49367E-03-4.53125E-01 2.53934E-05 1.84494E-05
 -1      6343 3.54200E-01-2.05893E-01 2.49367E-03-3.85451E-01-2.79668E-05-1.42498E-05
 -1      6344 3.54784E-01-2.05310E-01 3.85175E-03-3.85451E-01 5.05925E-06 2.57782E-06
 -1      6345 3.55054E-01-2.05040E-01 4.48525E-03-3.85451E-01 9.69031E-06 4.93746E-06
 -1      6346 3.55182E-01-2.04912E-01 4.78740E-03-3.85452E-01 7.43344E-06 3.78753E-06
 -1      6347 3.55234E-01-2.04860E-01 4.90966E-03-3.85451E-01 2.60800E-06 1.32884E-06
 -1      6348 3.55234E-01-2.04860E-01 4.90966E-03-3.85451E-01-2.60800E-06-1.32884E-06
 -1      6349 3.55182E-01-2.04912E-01 4.78740E-03-3.85452E-01-7.43344E-06-3.78753E-06
 -1      6350 3.55054E-01-2.05040E-01 4.48525E-03-3.85451E-01-9.69031E-06-4.93746E-06
 -1      6351 3.54784E-01-2.05310E-01 3.85175E-03-3.85451E-01-5.05925E-06-2.57782E-06
 -1      6352 3.54200E-01-2.05893E-01 2.49367E-03-3.85451E-01 2.79668E-05 1.42498E-05
 -1      6353 4.59605E-01-3.11297E-01 2.49367E-03-2.80047E-01-2.98517E-05-9.69940E-06
 -1      6354 4.60188E-01-3.10714E-01 3.85175E-03-2.80047E-01 5.40022E-06 1.75464E-06
 -1      6355 4.60458E-01-3.10445E-01 4.48525E-03-2.80047E-01 1.03434E-05 3.36078E-06
 -1      6356 4.60587E-01-3.10316E-01 4.78740E-03-2.80047E-01 7.93442E-06 2.57805E-06
 -1      6357 4.60639E-01-3.10264E-01 4.90966E-03-2.80047E-01 2.78376E-06 9.04500E-07
 -1      6358 4.60639E-01-3.10264E-01 4.90966E-03-2.80047E-01-2.78376E-06-9.04500E-07
 -1      6359 4.60587E-01-3.10316E-01 4.78740E-03-2.80047E-01-7.93442E-06-2.57805E-06
 -1      6360 4.60458E-01-3.10445E-01 4.48525E-03-2.80047E-01-1.03434E-05-3.36078E-06
 -1      6361 4.60188E-01-3.10714E-01 3.85175E-03-2.80047E-01-5.40022E-06-1.75464E-06
 -1      6362 4.59605E-01-3.11297E-01 2.49367E-03-2.80047E-01 2.98517E-05 9.69940E-06
 -1      6363 5.27279E-01-3.78971E-01 2.49367E-03-1.47229E-01-3.10015E-05-4.91015E-06
 -1      6364 5.27862E-01-3.78388E-01 3.85175E-03-1.47229E-01 5.60822E-06 8.88254E-07
 -1      6365 5.28132E-01-3.78119E-01 4.48525E-03-1.47229E-01 1.07418E-05 1.70133E-06
 -1      6366 5.28261E-01-3.77990E-01 4.78740E-03-1.47229E-01 8.24003E-06 1.30509E-06
 -1      6367 5.28313E-01-3.77938E-01 4.90966E-03-1.47229E-01 2.89099E-06 4.57887E-07
 -1      6368 5.28313E-01-3.77938E-01 4.90966E-03-1.47229E-01-2.89099E-06-4.57887E-07
 -1      6369 5.28261E-01-3.77990E-01 4.78740E-03-1.47229E-01-8.24003E-06-1.30509E-06
 -1      6370 5.28132E-01-3.78119E-01 4.48525E-03-1.47229E-01-1.07418E-05-1.70133E-06
 -1      6371 5.27862E-01-3.78388E-01 3.85175E-03-1.47229E-01-5.60822E-06-8.88254E-07
 -1      6372 5.27279E-01-3.78971E-01 2.49367E-03-1.47229E-01 3.10015E-05 4.91015E-06
 -1      6373-3.25226E-01 4.71391E-01 2.05571E-03-1.29418E-01-4.98769E-06-3.14910E-05
 -1      6374-3.24729E-01 4.71888E-01 3.21183E-03-1.29418E-01 3.25046E-07 2.05226E-06
 -1      6375-3.24489E-01 4.72129E-01 3.77606E-03-1.29418E-01 1.31071E-06 8.27548E-06
 -1      6376-3.24371E-01 4.72247E-01 4.05529E-03-1.29418E-01 1.09685E-06 6.92521E-06
 -1      6377-3.24321E-01 4.72297E-01 4.17123E-03-1.29418E-01 3.97102E-07 2.50720E-06
 -1      6378-3.24321E-01 4.72297E-01 4.17123E-03-1.29418E-01-3.97102E-07-2.50720E-06
 -1      6379-3.24371E-01 4.72247E-01 4.05529E-03-1.29418E-01-1.09685E-06-6.92521E-06
 -1      6380-3.24489E-01 4.72129E-01 3.77606E-03-1.29418E-01-1.31071E-06-8.27548E-06
 -1      6381-3.24729E-01 4.71888E-01 3.21183E-03-1.29418E-01-3.25046E-07-2.05226E-06
 -1      6382-3.25226E-01 4.71391E-01 2.05571E-03-1.29418E-01 4.98769E-06 3.14910E-05
 -1      6383-2.65739E-01 4.11904E-01 2.05571E-03-2.46168E-01-9.85257E-06-3.03231E-05
 -1      6384-2.65242E-01 4.12401E-01 3.21183E-03-2.46168E-01 6.42088E-07 1.97614E-06
 -1      6385-2.65002E-01 4.12641E-01 3.77606E-03-2.46168E-01 2.58914E-06 7.96856E-06
 -1      6386-2.64883E-01 4.12760E-01 4.05529E-03-2.46168E-01 2.16668E-06 6.66837E-06
 -1      6387-2.64834E-01 4.12809E-01 4.17123E-03-2.46169E-01 7.84426E-07 2.41421E-06
 -1      6388-2.64834E-01 4.12809E-01 4.17123E-03-2.46169E-01-7.84426E-07-2.41421E-06
 -1      6389-2.64883E-01 4.12760E-01 4.05529E-03-2.46168E-01-2.16668E-06-6.66837E-06
 -1      6390-2.65002E-01 4.12641E-01 3.77606E-03-2.46168E-01-2.58914E-06-7.96856E-06
 -1      6391-2.65242E-01 4.12401E-01 3.21183E-03-2.46168E-01-6.42088E-07-1.97614E-06
 -1      6392-2.65739E-01 4.11904E-01 2.05571E-03-2.46168E-01 9.85257E-06 3.03231E-05
 -1      6393-1.73086E-01 3.19250E-01 2.05571E-03-3.38821E-01-1.44748E-05-2.84085E-05
 -1      6394-1.72589E-01 3.19747E-01 3.21183E-03-3.38821E-01 9.43319E-07 1.85137E-06
 -1      6395-1.72349E-01 3.19988E-01 3.77606E-03-3.38822E-01 3.80382E-06 7.46542E-06
 -1      6396-1.72230E-01 3.20107E-01 4.05529E-03-3.38822E-01 3.18317E-06 6.24732E-06
 -1      6397-1.72181E-01 3.20156E-01 4.17123E-03-3.38822E-01 1.15243E-06 2.26178E-06
 -1      6398-1.72181E-01 3.20156E-01 4.17123E-03-3.38822E-01-1.15243E-06-2.26178E-06
 -1      6399-1.72230E-01 3.20107E-01 4.05529E-03-3.38822E-01-3.18317E-06-6.24732E-06
 -1      6400-1.72349E-01 3.19988E-01 3.77606E-03-3.38822E-01-3.80382E-06-7.46542E-06
 -1      6401-1.72589E-01 3.19747E-01 3.21183E-03-3.38821E-01-9.43319E-07-1.85137E-06
 -1      6402-1.73086E-01 3.19250E-01 2.05571E-03-3.38821E-01 1.44748E-05 2.84085E-05
 -1      6403-5.63360E-02 2.02500E-01 2.05571E-03-3.98308E-01-1.87407E-05-2.57944E-05
 -1      6404-5.58392E-02 2.02997E-01 3.21183E-03-3.98308E-01 1.22132E-06 1.68101E-06
 -1      6405-5.55988E-02 2.03238E-01 3.77606E-03-3.98309E-01 4.92484E-06 6.77846E-06
 -1      6406-5.54801E-02 2.03357E-01 4.05529E-03-3.98309E-01 4.12128E-06 5.67245E-06
 -1      6407-5.54309E-02 2.03406E-01 4.17123E-03-3.98309E-01 1.49207E-06 2.05365E-06
 -1      6408-5.54309E-02 2.03406E-01 4.17123E-03-3.98309E-01-1.49207E-06-2.05365E-06
 -1      6409-5.54801E-02 2.03357E-01 4.05529E-03-3.98309E-01-4.12128E-06-5.67245E-06
 -1      6410-5.55988E-02 2.03238E-01 3.77606E-03-3.98309E-01-4.92484E-06-6.77846E-06
 -1      6411-5.58392E-02 2.02997E-01 3.21183E-03-3.98308E-01-1.22132E-06-1.68101E-06
 -1      6412-5.63360E-02 2.02500E-01 2.05571E-03-3.98308E-01 1.87407E-05 2.57944E-05
 -1      6413 7.30822E-02 7.30822E-02 2.05571E-03-4.18806E-01-2.25451E-05-2.25451E-05
 -1      6414 7.35791E-02 7.35791E-02 3.21183E-03-4.18806E-01 1.46925E-06 1.46925E-06
 -1      6415 7.38196E-02 7.38196E-02 3.77606E-03-4.18807E-01 5.92459E-06 5.92459E-06
 -1      6416 7.39384E-02 7.39384E-02 4.05529E-03-4.18807E-01 4.95790E-06 4.95790E-06
 -1      6417 7.39876E-02 7.39876E-02 4.17123E-03-4.18807E-01 1.79496E-06 1.79496E-06
 -1      6418 7.39876E-02 7.39876E-02 4.17123E-03-4.18807E-01-1.79496E-06-1.79496E-06
 -1      6419 7.39384E-02 7.39384E-02 4.05529E-03-4.18807E-01-4.95790E-06-4.95790E-06
 -1      6420 7.38196E-02 7.38196E-02 3.77606E-03-4.18807E-01-5.92459E-06-5.92459E-06
 -1      6421 7.35791E-02 7.35791E-02 3.21183E-03-4.18806E-01-1.46925E-06-1.46925E-06
 -1      6422 7.30822E-02 7.30822E-02 2.05571E-03-4.18806E-01 2.25451E-05 2.25451E-05
 -1      6423 2.02500E-01-5.63360E-02 2.05571E-03-3.98308E-01-2.57944E-05-1.87407E-05
 -1      6424 2.02997E-01-5.58392E-02 3.21183E-03-3.98308E-01 1.68101E-06 1.22132E-06
 -1      6425 2.03238E-01-5.55988E-02 3.77606E-03-3.98309E-01 6.77846E-06 4.92484E-06
 -1      6426 2.03357E-01-5.54801E-02 4.05529E-03-3.98309E-01 5.67245E-06 4.12128E-06
 -1      6427 2.03406E-01-5.54309E-02 4.17123E-03-3.98309E-01 2.05365E-06 1.49207E-06
 -1      6428 2.03406E-01-5.54309E-02 4.17123E-03-3.98309E-01-2.05365E-06-1.49207E-06
 -1      6429 2.03357E-01-5.54801E-02 4.05529E-03-3.98309E-01-5.67245E-06-4.12128E-06
 -1      6430 2.03238E-01-5.55988E-02 3.77606E-03-3.98309E-01-6.77846E-06-4.92484E-06
 -1      6431 2.02997E-01-5.58392E-02 3.21183E-03-3.98308E-01-1.68101E-06-1.22132E-06
 -1      6432 2.02500E-01-5.63360E-02 2.05571E-03-3.98308E-01 2.57944E-05 1.87407E-05
 -1      6433 3.19250E-01-1.73086E-01 2.05571E-03-3.38821E-01-2.84085E-05-1.44748E-05
 -1      6434 3.19747E-01-1.72589E-01 3.21183E-03-3.38821E-01 1.85137E-06 9.43319E-07
 -1      6435 3.19988E-01-1.72349E-01 3.77606E-03-3.38822E-01 7.46542E-06 3.80382E-06
 -1      6436 3.20107E-01-1.72230E-01 4.05529E-03-3.38822E-01 6.24732E-06 3.18317E-06
 -1      6437 3.20156E-01-1.72181E-01 4.17123E-03-3.38822E-01 2.26178E-06 1.15243E-06
 -1      6438 3.20156E-01-1.72181E-01 4.17123E-03-3.38822E-01-2.26178E-06-1.15243E-06
 -1      6439 3.20107E-01-1.72230E-01 4.05529E-03-3.38822E-01-6.24732E-06-3.18317E-06
 -1      6440 3.19988E-01-1.72349E-01 3.77606E-03-3.38822E-01-7.46542E-06-3.80382E-06
 -1      6441 3.19747E-01-1.72589E-01 3.21183E-03-3.38821E-01-1.85137E-06-9.43319E-07
 -1      6442 3.19250E-01-1.73086E-01 2.05571E-03-3.38821E-01 2.84085E-05 1.44748E-05
 -1      6443 4.11904E-01-2.65739E-01 2.05571E-03-2.46168E-01-3.03231E-05-9.85257E-06
 -1      6444 4.12401E-01-2.65242E-01 3.21183E-03-2.46168E-01 1.97614E-06 6.42088E-07
 -1      6445 4.12641E-01-2.65002E-01 3.77606E-03-2.46168E-01 7.96856E-06 2.58914E-06
 -1      6446 4.12760E-01-2.64883E-01 4.05529E-03-2.46168E-01 6.66837E-06 2.16668E-06
 -1      6447 4.12809E-01-2.64834E-01 4.17123E-03-2.46169E-01 2.41421E-06 7.84426E-07
 -1      6448 4.12809E-01-2.64834E-01 4.17123E-03-2.46169E-01-2.41421E-06-7.84426E-07
 -1      6449 4.12760E-01-2.64883E-01 4.05529E-03-2.46168E-01-6.66837E-06-2.16668E-06
 -1      6450 4.12641E-01-2.65002E-01 3.77606E-03-2.46168E-01-7.96856E-06-2.58914E-06
 -1      6451 4.12401E-01-2.65242E-01 3.21183E-03-2.46168E-01-1.97614E-06-6.42088E-07
 -1      6452 4.11904E-01-2.65739E-01 2.05571E-03-2.46168E-01 3.03231E-05 9.85257E-06
 -1      6453 4.71391E-01-3.25226E-01 2.05571E-03-1.29418E-01-3.14910E-05-4.98769E-06
 -1      6454 4.71888E-01-3.24729E-01 3.21183E-03-1.29418E-01 2.05226E-06 3.25045E-07
 -1      6455 4.72129E-01-3.24489E-01 3.77606E-03-1.29418E-01 8.27548E-06 1.31071E-06
 -1      6456 4.72247E-01-3.24371E-01 4.05529E-03-1.29418E-01 6.92521E-06 1.09685E-06
 -1      6457 4.72297E-01-3.24321E-01 4.17123E-03-1.29418E-01 2.50720E-06 3.97102E-07
 -1      6458 4.72297E-01-3.24321E-01 4.17123E-03-1.29418E-01-2.50720E-06-3.97102E-07
 -1      6459 4.72247E-01-3.24371E-01 4.05529E-03-1.29418E-01-6.92521E-06-1.09685E-06
 -1      6460 4.72129E-01-3.24489E-01 3.77606E-03-1.29418E-01-8.27548E-06-1.31071E-06
 -1      6461 4.71888E-01-3.24729E-01 3.21183E-03-1.29418E-01-2.05226E-06-3.25045E-07
 -1      6462 4.71391E-01-3.25226E-01 2.05571E-03-1.29418E-01 3.14910E-05 4.98769E-06
 -1      6463-2.80640E-01 4.25093E-01 1.71516E-03-1.14653E-01-4.92983E-06-3.11257E-05
 -1      6464-2.80214E-01 4.25519E-01 2.70671E-03-1.14653E-01-1.21839E-07-7.69260E-07
 -1      6465-2.80000E-01 4.25734E-01 3.21057E-03-1.14653E-01 9.84727E-07 6.21732E-06
 -1      6466-2.79890E-01 4.25844E-01 3.46778E-03-1.14653E-01 9.08176E-07 5.73400E-06
 -1      6467-2.79844E-01 4.25890E-01 3.57685E-03-1.14653E-01 3.38990E-07 2.14030E-06
 -1      6468-2.79844E-01 4.25890E-01 3.57685E-03-1.14653E-01-3.38990E-07-2.14030E-06
 -1      6469-2.79890E-01 4.25844E-01 3.46778E-03-1.14653E-01-9.08176E-07-5.73400E-06
 -1      6470-2.80000E-01 4.25734E-01 3.21057E-03-1.14653E-01-9.84727E-07-6.21732E-06
 -1      6471-2.80214E-01 4.25519E-01 2.70671E-03-1.14653E-01 1.21839E-07 7.69260E-07
 -1      6472-2.80640E-01 4.25093E-01 1.71516E-03-1.14653E-01 4.92983E-06 3.11257E-05
 -1      6473-2.27940E-01 3.72393E-01 1.71516E-03-2.18083E-01-9.73828E-06-2.99713E-05
 -1      6474-2.27514E-01 3.72819E-01 2.70671E-03-2.18084E-01-2.40678E-07-7.40729E-07
 -1      6475-2.27299E-01 3.73034E-01 3.21057E-03-2.18084E-01 1.94521E-06 5.98673E-06
 -1      6476-2.27190E-01 3.73144E-01 3.46778E-03-2.18084E-01 1.79399E-06 5.52134E-06
 -1      6477-2.27144E-01 3.73190E-01 3.57685E-03-2.18084E-01 6.69633E-07 2.06092E-06
 -1      6478-2.27144E-01 3.73190E-01 3.57685E-03-2.18084E-01-6.69633E-07-2.06092E-06
 -1      6479-2.27190E-01 3.73144E-01 3.46778E-03-2.18084E-01-1.79399E-06-5.52134E-06
 -1      6480-2.27299E-01 3.73034E-01 3.21057E-03-2.18084E-01-1.94521E-06-5.98673E-06
 -1      6481-2.27514E-01 3.72819E-01 2.70671E-03-2.18084E-01 2.40678E-07 7.40729E-07
 -1      6482-2.27940E-01 3.72393E-01 1.71516E-03-2.18083E-01 9.73828E-06 2.99713E-05
 -1      6483-1.45857E-01 2.90310E-01 1.71516E-03-3.00166E-01-1.43069E-05-2.80789E-05
 -1      6484-1.45431E-01 2.90736E-01 2.70671E-03-3.00166E-01-3.53590E-07-6.93959E-07
 -1      6485-1.45216E-01 2.90951E-01 3.21057E-03-3.00167E-01 2.85779E-06 5.60872E-06
 -1      6486-1.45107E-01 2.91061E-01 3.46778E-03-3.00167E-01 2.63563E-06 5.17272E-06
 -1      6487-1.45061E-01 2.91107E-01 3.57685E-03-3.00167E-01 9.83788E-07 1.93079E-06
 -1      6488-1.45061E-01 2.91107E-01 3.57685E-03-3.00167E-01-9.83788E-07-1.93079E-06
 -1      6489-1.45107E-01 2.91061E-01 3.46778E-03-3.00167E-01-2.63563E-06-5.17272E-06
 -1      6490-1.45216E-01 2.90951E-01 3.21057E-03-3.00167E-01-2.85779E-06-5.60872E-06
 -1      6491-1.45431E-01 2.90736E-01 2.70671E-03-3.00166E-01 3.53590E-07 6.93959E-07
 -1      6492-1.45857E-01 2.90310E-01 1.71516E-03-3.00166E-01 1.43069E-05 2.80789E-05
 -1      6493-4.24267E-02 1.86880E-01 1.71516E-03-3.52866E-01-1.85233E-05-2.54951E-05
 -1      6494-4.20008E-02 1.87306E-01 2.70671E-03-3.52867E-01-4.57796E-07-6.30102E-07
 -1      6495-4.17860E-02 1.87521E-01 3.21057E-03-3.52867E-01 3.70000E-06 5.09262E-06
 -1      6496-4.16766E-02 1.87630E-01 3.46778E-03-3.52867E-01 3.41237E-06 4.69673E-06
 -1      6497-4.16303E-02 1.87677E-01 3.57685E-03-3.52867E-01 1.27372E-06 1.75312E-06
 -1      6498-4.16303E-02 1.87677E-01 3.57685E-03-3.52867E-01-1.27372E-06-1.75312E-06
 -1      6499-4.16766E-02 1.87630E-01 3.46778E-03-3.52867E-01-3.41237E-06-4.69673E-06
 -1      6500-4.17860E-02 1.87521E-01 3.21057E-03-3.52867E-01-3.70000E-06-5.09262E-06
 -1      6501-4.20008E-02 1.87306E-01 2.70671E-03-3.52867E-01 4.57796E-07 6.30102E-07
 -1      6502-4.24267E-02 1.86880E-01 1.71516E-03-3.52866E-01 1.85233E-05 2.54951E-05
 -1      6503 7.22265E-02 7.22265E-02 1.71516E-03-3.71026E-01-2.22836E-05-2.22836E-05
 -1      6504 7.26525E-02 7.26525E-02 2.70671E-03-3.71026E-01-5.50729E-07-5.50730E-07
 -1      6505 7.28674E-02 7.28674E-02 3.21057E-03-3.71026E-01 4.45111E-06 4.45111E-06
 -1      6506 7.29769E-02 7.29768E-02 3.46778E-03-3.71026E-01 4.10509E-06 4.10509E-06
 -1      6507 7.30232E-02 7.30232E-02 3.57685E-03-3.71026E-01 1.53229E-06 1.53229E-06
 -1      6508 7.30232E-02 7.30232E-02 3.57685E-03-3.71026E-01-1.53229E-06-1.53229E-06
 -1      6509 7.29769E-02 7.29768E-02 3.46778E-03-3.71026E-01-4.10509E-06-4.10509E-06
 -1      6510 7.28674E-02 7.28674E-02 3.21057E-03-3.71026E-01-4.45111E-06-4.45111E-06
 -1      6511 7.26525E-02 7.26525E-02 2.70671E-03-3.71026E-01 5.50729E-07 5.50730E-07
 -1      6512 7.22265E-02 7.22265E-02 1.71516E-03-3.71026E-01 2.22836E-05 2.22836E-05
 -1      6513 1.86880E-01-4.24267E-02 1.71516E-03-3.52866E-01-2.54951E-05-1.85233E-05
 -1      6514 1.87306E-01-4.20008E-02 2.70671E-03-3.52867E-01-6.30102E-07-4.57796E-07
 -1      6515 1.87521E-01-4.17860E-02 3.21057E-03-3.52867E-01 5.09261E-06 3.70000E-06
 -1      6516 1.87630E-01-4.16766E-02 3.46778E-03-3.52867E-01 4.69673E-06 3.41237E-06
 -1      6517 1.87677E-01-4.16303E-02 3.57685E-03-3.52867E-01 1.75312E-06 1.27372E-06
 -1      6518 1.87677E-01-4.16303E-02 3.57685E-03-3.52867E-01-1.75312E-06-1.27372E-06
 -1      6519 1.87630E-01-4.16766E-02 3.46778E-03-3.52867E-01-4.69673E-06-3.41237E-06
 -1      6520 1.87521E-01-4.17860E-02 3.21057E-03-3.52867E-01-5.09262E-06-3.70000E-06
 -1      6521 1.87306E-01-4.20008E-02 2.70671E-03-3.52867E-01 6.30102E-07 4.57796E-07
 -1      6522 1.86880E-01-4.24267E-02 1.71516E-03-3.52866E-01 2.54951E-05 1.85233E-05
 -1      6523 2.90310E-01-1.45857E-01 1.71516E-03-3.00166E-01-2.80789E-05-1.43069E-05
 -1      6524 2.90736E-01-1.45431E-01 2.70671E-03-3.00166E-01-6.93960E-07-3.53590E-07
 -1      6525 2.90951E-01-1.45216E-01 3.21057E-03-3.00167E-01 5.60872E-06 2.85779E-06
 -1      6526 2.91061E-01-1.45107E-01 3.46778E-03-3.00167E-01 5.17272E-06 2.63563E-06
 -1      6527 2.91107E-01-1.45061E-01 3.57685E-03-3.00167E-01 1.93079E-06 9.83788E-07
 -1      6528 2.91107E-01-1.45061E-01 3.57685E-03-3.00167E-01-1.93079E-06-9.83788E-07
 -1      6529 2.91061E-01-1.45107E-01 3.46778E-03-3.00167E-01-5.17272E-06-2.63563E-06
 -1      6530 2.90951E-01-1.45216E-01 3.21057E-03-3.00167E-01-5.60872E-06-2.85779E-06
 -1      6531 2.90736E-01-1.45431E-01 2.70671E-03-3.00166E-01 6.93960E-07 3.53590E-07
 -1      6532 2.90310E-01-1.45857E-01 1.71516E-03-3.00166E-01 2.80789E-05 1.43069E-05
 -1      6533 3.72393E-01-2.27940E-01 1.71516E-03-2.18083E-01-2.99713E-05-9.73828E-06
 -1      6534 3.72819E-01-2.27514E-01 2.70671E-03-2.18084E-01-7.40730E-07-2.40678E-07
 -1      6535 3.73034E-01-2.27299E-01 3.21057E-03-2.18084E-01 5.98673E-06 1.94521E-06
 -1      6536 3.73144E-01-2.27190E-01 3.46778E-03-2.18084E-01 5.52133E-06 1.79399E-06
 -1      6537 3.73190E-01-2.27144E-01 3.57685E-03-2.18084E-01 2.06092E-06 6.69633E-07
 -1      6538 3.73190E-01-2.27144E-01 3.57685E-03-2.18084E-01-2.06092E-06-6.69633E-07
 -1      6539 3.73144E-01-2.27190E-01 3.46778E-03-2.18084E-01-5.52133E-06-1.79399E-06
 -1      6540 3.73034E-01-2.27299E-01 3.21057E-03-2.18084E-01-5.98673E-06-1.94521E-06
 -1      6541 3.72819E-01-2.27514E-01 2.70671E-03-2.18084E-01 7.40730E-07 2.40678E-07
 -1      6542 3.72393E-01-2.27940E-01 1.71516E-03-2.18083E-01 2.99713E-05 9.73828E-06
 -1      6543 4.25093E-01-2.80640E-01 1.71516E-03-1.14653E-01-3.11257E-05-4.92983E-06
 -1      6544 4.25519E-01-2.80214E-01 2.70671E-03-1.14653E-01-7.69261E-07-1.21839E-07
 -1      6545 4.25734E-01-2.80000E-01 3.21057E-03-1.14653E-01 6.21732E-06 9.84726E-07
 -1      6546 4.25844E-01-2.79890E-01 3.46778E-03-1.14653E-01 5.73400E-06 9.08176E-07
 -1      6547 4.25890E-01-2.79844E-01 3.57685E-03-1.14653E-01 2.14030E-06 3.38990E-07
 -1      6548 4.25890E-01-2.79844E-01 3.57685E-03-1.14653E-01-2.14030E-06-3.38990E-07
 -1      6549 4.25844E-01-2.79890E-01 3.46778E-03-1.14653E-01-5.73400E-06-9.08176E-07
 -1      6550 4.25734E-01-2.80000E-01 3.21057E-03-1.14653E-01-6.21732E-06-9.84726E-07
 -1      6551 4.25519E-01-2.80214E-01 2.70671E-03-1.14653E-01 7.69261E-07 1.21839E-07
 -1      6552 4.25093E-01-2.80640E-01 1.71516E-03-1.14653E-01 3.11257E-05 4.92983E-06
 -1      6553-2.43246E-01 3.86309E-01 1.44553E-03-1.02277E-01-4.83035E-06-3.04976E-05
 -1      6554-2.42878E-01 3.86678E-01 2.30235E-03-1.02278E-01-4.74843E-07-2.99804E-06
 -1      6555-2.42686E-01 3.86870E-01 2.75303E-03-1.02278E-01 6.91451E-07 4.36565E-06
 -1      6556-2.42586E-01 3.86971E-01 2.98933E-03-1.02278E-01 7.31711E-07 4.61984E-06
 -1      6557-2.42543E-01 3.87014E-01 3.09133E-03-1.02278E-01 2.82865E-07 1.78594E-06
 -1      6558-2.42543E-01 3.87014E-01 3.09133E-03-1.02278E-01-2.82865E-07-1.78594E-06
 -1      6559-2.42586E-01 3.86971E-01 2.98933E-03-1.02278E-01-7.31711E-07-4.61984E-06
 -1      6560-2.42686E-01 3.86870E-01 2.75303E-03-1.02278E-01-6.91451E-07-4.36565E-06
 -1      6561-2.42878E-01 3.86678E-01 2.30235E-03-1.02278E-01 4.74843E-07 2.99804E-06
 -1      6562-2.43246E-01 3.86309E-01 1.44553E-03-1.02277E-01 4.83035E-06 3.04976E-05
 -1      6563-1.96234E-01 3.39297E-01 1.44553E-03-1.94543E-01-9.54176E-06-2.93665E-05
 -1      6564-1.95866E-01 3.39666E-01 2.30235E-03-1.94543E-01-9.37993E-07-2.88684E-06
 -1      6565-1.95674E-01 3.39858E-01 2.75303E-03-1.94544E-01 1.36588E-06 4.20373E-06
 -1      6566-1.95574E-01 3.39959E-01 2.98933E-03-1.94544E-01 1.44540E-06 4.44850E-06
 -1      6567-1.95531E-01 3.40003E-01 3.09133E-03-1.94544E-01 5.58765E-07 1.71970E-06
 -1      6568-1.95531E-01 3.40003E-01 3.09133E-03-1.94544E-01-5.58765E-07-1.71970E-06
 -1      6569-1.95574E-01 3.39959E-01 2.98933E-03-1.94544E-01-1.44540E-06-4.44850E-06
 -1      6570-1.95674E-01 3.39858E-01 2.75303E-03-1.94544E-01-1.36588E-06-4.20373E-06
 -1      6571-1.95866E-01 3.39666E-01 2.30235E-03-1.94543E-01 9.37993E-07 2.88684E-06
 -1      6572-1.96234E-01 3.39297E-01 1.44553E-03-1.94543E-01 9.54176E-06 2.93665E-05
 -1      6573-1.23012E-01 2.66075E-01 1.44553E-03-2.67766E-01-1.40182E-05-2.75123E-05
 -1      6574-1.22644E-01 2.66443E-01 2.30235E-03-2.67766E-01-1.37805E-06-2.70457E-06
 -1      6575-1.22452E-01 2.66636E-01 2.75303E-03-2.67766E-01 2.00667E-06 3.93831E-06
 -1      6576-1.22351E-01 2.66736E-01 2.98933E-03-2.67767E-01 2.12351E-06 4.16762E-06
 -1      6577-1.22308E-01 2.66780E-01 3.09133E-03-2.67767E-01 8.20907E-07 1.61112E-06
 -1      6578-1.22308E-01 2.66780E-01 3.09133E-03-2.67767E-01-8.20907E-07-1.61112E-06
 -1      6579-1.22351E-01 2.66736E-01 2.98933E-03-2.67767E-01-2.12351E-06-4.16762E-06
 -1      6580-1.22452E-01 2.66636E-01 2.75303E-03-2.67766E-01-2.00667E-06-3.93831E-06
 -1      6581-1.22644E-01 2.66443E-01 2.30235E-03-2.67766E-01 1.37805E-06 2.70457E-06
 -1      6582-1.23012E-01 2.66075E-01 1.44553E-03-2.67766E-01 1.40182E-05 2.75123E-05
 -1      6583-3.07460E-02 1.73809E-01 1.44553E-03-3.14778E-01-1.81495E-05-2.49807E-05
 -1      6584-3.03779E-02 1.74177E-01 2.30235E-03-3.14778E-01-1.78417E-06-2.45570E-06
 -1      6585-3.01856E-02 1.74370E-01 2.75303E-03-3.14778E-01 2.59805E-06 3.57591E-06
 -1      6586-3.00851E-02 1.74470E-01 2.98933E-03-3.14778E-01 2.74932E-06 3.78412E-06
 -1      6587-3.00418E-02 1.74514E-01 3.09133E-03-3.14779E-01 1.06283E-06 1.46287E-06
 -1      6588-3.00418E-02 1.74514E-01 3.09133E-03-3.14779E-01-1.06283E-06-1.46287E-06
 -1      6589-3.00851E-02 1.74470E-01 2.98933E-03-3.14778E-01-2.74932E-06-3.78412E-06
 -1      6590-3.01856E-02 1.74370E-01 2.75303E-03-3.14778E-01-2.59805E-06-3.57591E-06
 -1      6591-3.03779E-02 1.74177E-01 2.30235E-03-3.14778E-01 1.78417E-06 2.45570E-06
 -1      6592-3.07460E-02 1.73809E-01 1.44553E-03-3.14778E-01 1.81495E-05 2.49807E-05
 -1      6593 7.15315E-02 7.15315E-02 1.44553E-03-3.30977E-01-2.18339E-05-2.18339E-05
 -1      6594 7.18997E-02 7.18997E-02 2.30235E-03-3.30977E-01-2.14636E-06-2.14636E-06
 -1      6595 7.20920E-02 7.20920E-02 2.75303E-03-3.30977E-01 3.12546E-06 3.12546E-06
 -1      6596 7.21926E-02 7.21926E-02 2.98933E-03-3.30978E-01 3.30744E-06 3.30744E-06
 -1      6597 7.22359E-02 7.22359E-02 3.09133E-03-3.30978E-01 1.27859E-06 1.27859E-06
 -1      6598 7.22359E-02 7.22359E-02 3.09133E-03-3.30978E-01-1.27859E-06-1.27859E-06
 -1      6599 7.21926E-02 7.21926E-02 2.98933E-03-3.30978E-01-3.30744E-06-3.30744E-06
 -1      6600 7.20920E-02 7.20920E-02 2.75303E-03-3.30977E-01-3.12546E-06-3.12546E-06
 -1      6601 7.18997E-02 7.18997E-02 2.30235E-03-3.30977E-01 2.14636E-06 2.14636E-06
 -1      6602 7.15315E-02 7.15315E-02 1.44553E-03-3.30977E-01 2.18339E-05 2.18339E-05
 -1      6603 1.73809E-01-3.07460E-02 1.44553E-03-3.14778E-01-2.49807E-05-1.81495E-05
 -1      6604 1.74177E-01-3.03779E-02 2.30235E-03-3.14778E-01-2.45570E-06-1.78417E-06
 -1      6605 1.74370E-01-3.01856E-02 2.75303E-03-3.14778E-01 3.57591E-06 2.59805E-06
 -1      6606 1.74470E-01-3.00851E-02 2.98933E-03-3.14778E-01 3.78412E-06 2.74932E-06
 -1      6607 1.74514E-01-3.00418E-02 3.09133E-03-3.14779E-01 1.46287E-06 1.06283E-06
 -1      6608 1.74514E-01-3.00418E-02 3.09133E-03-3.14779E-01-1.46287E-06-1.06283E-06
 -1      6609 1.74470E-01-3.00851E-02 2.98933E-03-3.14778E-01-3.78412E-06-2.74932E-06
 -1      6610 1.74370E-01-3.01856E-02 2.75303E-03-3.14778E-01-3.57591E-06-2.59805E-06
 -1      6611 1.74177E-01-3.03779E-02 2.30235E-03-3.14778E-01 2.45570E-06 1.78417E-06
 -1      6612 1.73809E-01-3.07460E-02 1.44553E-03-3.14778E-01 2.49807E-05 1.81495E-05
 -1      6613 2.66075E-01-1.23012E-01 1.44553E-03-2.67766E-01-2.75123E-05-1.40182E-05
 -1      6614 2.66443E-01-1.22644E-01 2.30235E-03-2.67766E-01-2.70457E-06-1.37805E-06
 -1      6615 2.66636E-01-1.22452E-01 2.75303E-03-2.67766E-01 3.93831E-06 2.00667E-06
 -1      6616 2.66736E-01-1.22351E-01 2.98933E-03-2.67767E-01 4.16762E-06 2.12351E-06
 -1      6617 2.66780E-01-1.22308E-01 3.09133E-03-2.67767E-01 1.61112E-06 8.20907E-07
 -1      6618 2.66780E-01-1.22308E-01 3.09133E-03-2.67767E-01-1.61112E-06-8.20907E-07
 -1      6619 2.66736E-01-1.22351E-01 2.98933E-03-2.67767E-01-4.16762E-06-2.12351E-06
 -1      6620 2.66636E-01-1.22452E-01 2.75303E-03-2.67766E-01-3.93831E-06-2.00667E-06
 -1      6621 2.66443E-01-1.22644E-01 2.30235E-03-2.67766E-01 2.70457E-06 1.37805E-06
 -1      6622 2.66075E-01-1.23012E-01 1.44553E-03-2.67766E-01 2.75123E-05 1.40182E-05
 -1      6623 3.39297E-01-1.96234E-01 1.44553E-03-1.94543E-01-2.93665E-05-9.54176E-06
 -1      6624 3.39666E-01-1.95866E-01 2.30235E-03-1.94543E-01-2.88685E-06-9.37993E-07
 -1      6625 3.39858E-01-1.95674E-01 2.75303E-03-1.94544E-01 4.20373E-06 1.36588E-06
 -1      6626 3.39959E-01-1.95574E-01 2.98933E-03-1.94544E-01 4.44850E-06 1.44540E-06
 -1      6627 3.40003E-01-1.95531E-01 3.09133E-03-1.94544E-01 1.71970E-06 5.58765E-07
 -1      6628 3.40003E-01-1.95531E-01 3.09133E-03-1.94544E-01-1.71970E-06-5.58765E-07
 -1      6629 3.39959E-01-1.95574E-01 2.98933E-03-1.94544E-01-4.44850E-06-1.44540E-06
 -1      6630 3.39858E-01-1.95674E-01 2.75303E-03-1.94544E-01-4.20373E-06-1.36588E-06
 -1      6631 3.39666E-01-1.95866E-01 2.30235E-03-1.94543E-01 2.88685E-06 9.37993E-07
 -1      6632 3.39297E-01-1.96234E-01 1.44553E-03-1.94543E-01 2.93665E-05 9.54176E-06
 -1      6633 3.86309E-01-2.43246E-01 1.44553E-03-1.02277E-01-3.04976E-05-4.83035E-06
 -1      6634 3.86678E-01-2.42878E-01 2.30235E-03-1.02278E-01-2.99804E-06-4.74843E-07
 -1      6635 3.86870E-01-2.42686E-01 2.75303E-03-1.02278E-01 4.36565E-06 6.91450E-07
 -1      6636 3.86971E-01-2.42586E-01 2.98933E-03-1.02278E-01 4.61984E-06 7.31711E-07
 -1      6637 3.87014E-01-2.42543E-01 3.09133E-03-1.02278E-01 1.78594E-06 2.82865E-07
 -1      6638 3.87014E-01-2.42543E-01 3.09133E-03-1.02278E-01-1.78594E-06-2.82865E-07
 -1      6639 3.86971E-01-2.42586E-01 2.98933E-03-1.02278E-01-4.61984E-06-7.31711E-07
 -1      6640 3.86870E-01-2.42686E-01 2.75303E-03-1.02278E-01-4.36565E-06-6.91450E-07
 -1      6641 3.86678E-01-2.42878E-01 2.30235E-03-1.02278E-01 2.99804E-06 4.74843E-07
 -1      6642 3.86309E-01-2.43246E-01 1.44553E-03-1.02277E-01 3.04976E-05 4.83035E-06
 -1      6643-2.11578E-01 3.53497E-01 1.22921E-03-9.18020E-02-4.69641E-06-2.96519E-05
 -1      6644-2.11258E-01 3.53818E-01 1.97432E-03-9.18021E-02-7.54658E-07-4.76472E-06
 -1      6645-2.11086E-01 3.53990E-01 2.37822E-03-9.18022E-02 4.34337E-07 2.74230E-06
 -1      6646-2.10994E-01 3.54083E-01 2.59488E-03-9.18023E-02 5.68296E-07 3.58808E-06
 -1      6647-2.10954E-01 3.54123E-01 2.68982E-03-9.18023E-02 2.29333E-07 1.44795E-06
 -1      6648-2.10954E-01 3.54123E-01 2.68982E-03-9.18023E-02-2.29333E-07-1.44795E-06
 -1      6649-2.10994E-01 3.54083E-01 2.59488E-03-9.18023E-02-5.68296E-07-3.58808E-06
 -1      6650-2.11086E-01 3.53990E-01 2.37822E-03-9.18022E-02-4.34337E-07-2.74230E-06
 -1      6651-2.11258E-01 3.53818E-01 1.97432E-03-9.18021E-02 7.54658E-07 4.76472E-06
 -1      6652-2.11578E-01 3.53497E-01 1.22921E-03-9.18020E-02 4.69641E-06 2.96519E-05
 -1      6653-1.69381E-01 3.11300E-01 1.22921E-03-1.74618E-01-9.27717E-06-2.85522E-05
 -1      6654-1.69061E-01 3.11621E-01 1.97432E-03-1.74618E-01-1.49073E-06-4.58800E-06
 -1      6655-1.68889E-01 3.11794E-01 2.37822E-03-1.74618E-01 8.57979E-07 2.64059E-06
 -1      6656-1.68797E-01 3.11886E-01 2.59488E-03-1.74618E-01 1.12260E-06 3.45500E-06
 -1      6657-1.68757E-01 3.11926E-01 2.68982E-03-1.74618E-01 4.53020E-07 1.39425E-06
 -1      6658-1.68757E-01 3.11926E-01 2.68982E-03-1.74618E-01-4.53020E-07-1.39425E-06
 -1      6659-1.68797E-01 3.11886E-01 2.59488E-03-1.74618E-01-1.12260E-06-3.45500E-06
 -1      6660-1.68889E-01 3.11794E-01 2.37822E-03-1.74618E-01-8.57979E-07-2.64059E-06
 -1      6661-1.69061E-01 3.11621E-01 1.97432E-03-1.74618E-01 1.49073E-06 4.58800E-06
 -1      6662-1.69381E-01 3.11300E-01 1.22921E-03-1.74618E-01 9.27717E-06 2.85522E-05
 -1      6663-1.03658E-01 2.45577E-01 1.22921E-03-2.40341E-01-1.36295E-05-2.67494E-05
 -1      6664-1.03338E-01 2.45898E-01 1.97432E-03-2.40341E-01-2.19010E-06-4.29832E-06
 -1      6665-1.03166E-01 2.46070E-01 2.37822E-03-2.40341E-01 1.26049E-06 2.47386E-06
 -1      6666-1.03074E-01 2.46163E-01 2.59488E-03-2.40342E-01 1.64926E-06 3.23685E-06
 -1      6667-1.03034E-01 2.46203E-01 2.68982E-03-2.40342E-01 6.65551E-07 1.30622E-06
 -1      6668-1.03034E-01 2.46203E-01 2.68982E-03-2.40342E-01-6.65551E-07-1.30622E-06
 -1      6669-1.03074E-01 2.46163E-01 2.59488E-03-2.40342E-01-1.64926E-06-3.23685E-06
 -1      6670-1.03166E-01 2.46070E-01 2.37822E-03-2.40341E-01-1.26049E-06-2.47386E-06
 -1      6671-1.03338E-01 2.45898E-01 1.97432E-03-2.40341E-01 2.19010E-06 4.29832E-06
 -1      6672-1.03658E-01 2.45577E-01 1.22921E-03-2.40341E-01 1.36295E-05 2.67494E-05
 -1      6673-2.08427E-02 1.62761E-01 1.22921E-03-2.82538E-01-1.76462E-05-2.42879E-05
 -1      6674-2.05225E-02 1.63082E-01 1.97432E-03-2.82538E-01-2.83554E-06-3.90279E-06
 -1      6675-2.03501E-02 1.63254E-01 2.37822E-03-2.82538E-01 1.63197E-06 2.24622E-06
 -1      6676-2.02579E-02 1.63347E-01 2.59488E-03-2.82538E-01 2.13531E-06 2.93900E-06
 -1      6677-2.02175E-02 1.63387E-01 2.68982E-03-2.82538E-01 8.61695E-07 1.18602E-06
 -1      6678-2.02175E-02 1.63387E-01 2.68982E-03-2.82538E-01-8.61695E-07-1.18602E-06
 -1      6679-2.02579E-02 1.63347E-01 2.59488E-03-2.82538E-01-2.13531E-06-2.93900E-06
 -1      6680-2.03501E-02 1.63254E-01 2.37822E-03-2.82538E-01-1.63197E-06-2.24622E-06
 -1      6681-2.05225E-02 1.63082E-01 1.97432E-03-2.82538E-01 2.83554E-06 3.90279E-06
 -1      6682-2.08427E-02 1.62761E-01 1.22921E-03-2.82538E-01 1.76462E-05 2.42879E-05
 -1      6683 7.09594E-02 7.09594E-02 1.22921E-03-2.97078E-01-2.12284E-05-2.12284E-05
 -1      6684 7.12796E-02 7.12796E-02 1.97432E-03-2.97078E-01-3.41116E-06-3.41116E-06
 -1      6685 7.14521E-02 7.14521E-02 2.37822E-03-2.97078E-01 1.96327E-06 1.96327E-06
 -1      6686 7.15444E-02 7.15444E-02 2.59488E-03-2.97078E-01 2.56878E-06 2.56878E-06
 -1      6687 7.15848E-02 7.15848E-02 2.68982E-03-2.97079E-01 1.03662E-06 1.03662E-06
 -1      6688 7.15848E-02 7.15848E-02 2.68982E-03-2.97079E-01-1.03662E-06-1.03662E-06
 -1      6689 7.15444E-02 7.15444E-02 2.59488E-03-2.97078E-01-2.56878E-06-2.56878E-06
 -1      6690 7.14521E-02 7.14521E-02 2.37822E-03-2.97078E-01-1.96327E-06-1.96327E-06
 -1      6691 7.12796E-02 7.12796E-02 1.97432E-03-2.97078E-01 3.41116E-06 3.41116E-06
 -1      6692 7.09594E-02 7.09594E-02 1.22921E-03-2.97078E-01 2.12284E-05 2.12284E-05
 -1      6693 1.62761E-01-2.08427E-02 1.22921E-03-2.82538E-01-2.42879E-05-1.76462E-05
 -1      6694 1.63082E-01-2.05225E-02 1.97432E-03-2.82538E-01-3.90279E-06-2.83554E-06
 -1      6695 1.63254E-01-2.03501E-02 2.37822E-03-2.82538E-01 2.24622E-06 1.63197E-06
 -1      6696 1.63347E-01-2.02579E-02 2.59488E-03-2.82538E-01 2.93900E-06 2.13531E-06
 -1      6697 1.63387E-01-2.02175E-02 2.68982E-03-2.82538E-01 1.18602E-06 8.61695E-07
 -1      6698 1.63387E-01-2.02175E-02 2.68982E-03-2.82538E-01-1.18602E-06-8.61695E-07
 -1      6699 1.63347E-01-2.02579E-02 2.59488E-03-2.82538E-01-2.93900E-06-2.13531E-06
 -1      6700 1.63254E-01-2.03501E-02 2.37822E-03-2.82538E-01-2.24622E-06-1.63197E-06
 -1      6701 1.63082E-01-2.05225E-02 1.97432E-03-2.82538E-01 3.90279E-06 2.83554E-06
 -1      6702 1.62761E-01-2.08427E-02 1.22921E-03-2.82538E-01 2.42879E-05 1.76462E-05
 -1      6703 2.45577E-01-1.03658E-01 1.22921E-03-2.40341E-01-2.67494E-05-1.36295E-05
 -1      6704 2.45898E-01-1.03338E-01 1.97432E-03-2.40341E-01-4.29832E-06-2.19010E-06
 -1      6705 2.46070E-01-1.03166E-01 2.37822E-03-2.40341E-01 2.47386E-06 1.26049E-06
 -1      6706 2.46163E-01-1.03074E-01 2.59488E-03-2.40342E-01 3.23685E-06 1.64926E-06
 -1      6707 2.46203E-01-1.03034E-01 2.68982E-03-2.40342E-01 1.30622E-06 6.65551E-07
 -1      6708 2.46203E-01-1.03034E-01 2.68982E-03-2.40342E-01-1.30622E-06-6.65551E-07
 -1      6709 2.46163E-01-1.03074E-01 2.59488E-03-2.40342E-01-3.23685E-06-1.64926E-06
 -1      6710 2.46070E-01-1.03166E-01 2.37822E-03-2.40341E-01-2.47386E-06-1.26049E-06
 -1      6711 2.45898E-01-1.03338E-01 1.97432E-03-2.40341E-01 4.29832E-06 2.19010E-06
 -1      6712 2.45577E-01-1.03658E-01 1.22921E-03-2.40341E-01 2.67494E-05 1.36295E-05
 -1      6713 3.11300E-01-1.69381E-01 1.22921E-03-1.74618E-01-2.85522E-05-9.27717E-06
 -1      6714 3.11621E-01-1.69061E-01 1.97432E-03-1.74618E-01-4.58801E-06-1.49073E-06
 -1      6715 3.11794E-01-1.68889E-01 2.37822E-03-1.74618E-01 2.64059E-06 8.57979E-07
 -1      6716 3.11886E-01-1.68797E-01 2.59488E-03-1.74618E-01 3.45500E-06 1.12260E-06
 -1      6717 3.11926E-01-1.68757E-01 2.68982E-03-1.74618E-01 1.39425E-06 4.53020E-07
 -1      6718 3.11926E-01-1.68757E-01 2.68982E-03-1.74618E-01-1.39425E-06-4.53020E-07
 -1      6719 3.11886E-01-1.68797E-01 2.59488E-03-1.74618E-01-3.45500E-06-1.12260E-06
 -1      6720 3.11794E-01-1.68889E-01 2.37822E-03-1.74618E-01-2.64059E-06-8.57979E-07
 -1      6721 3.11621E-01-1.69061E-01 1.97432E-03-1.74618E-01 4.58801E-06 1.49073E-06
 -1      6722 3.11300E-01-1.69381E-01 1.22921E-03-1.74618E-01 2.85522E-05 9.27717E-06
 -1      6723 3.53497E-01-2.11578E-01 1.22921E-03-9.18020E-02-2.96519E-05-4.69641E-06
 -1      6724 3.53818E-01-2.11258E-01 1.97432E-03-9.18021E-02-4.76472E-06-7.54658E-07
 -1      6725 3.53990E-01-2.11086E-01 2.37822E-03-9.18022E-02 2.74229E-06 4.34336E-07
 -1      6726 3.54083E-01-2.10994E-01 2.59488E-03-9.18023E-02 3.58808E-06 5.68296E-07
 -1      6727 3.54123E-01-2.10954E-01 2.68982E-03-9.18023E-02 1.44795E-06 2.29333E-07
 -1      6728 3.54123E-01-2.10954E-01 2.68982E-03-9.18023E-02-1.44795E-06-2.29333E-07
 -1      6729 3.54083E-01-2.10994E-01 2.59488E-03-9.18023E-02-3.58808E-06-5.68296E-07
 -1      6730 3.53990E-01-2.11086E-01 2.37822E-03-9.18022E-02-2.74229E-06-4.34336E-07
 -1      6731 3.53818E-01-2.11258E-01 1.97432E-03-9.18021E-02 4.76472E-06 7.54658E-07
 -1      6732 3.53497E-01-2.11578E-01 1.22921E-03-9.18020E-02 2.96519E-05 4.69641E-06
 -1      6733-1.84525E-01 3.25490E-01 1.05354E-03-8.28570E-02-4.54208E-06-2.86776E-05
 -1      6734-1.84245E-01 3.25771E-01 1.70517E-03-8.28571E-02-9.73910E-07-6.14902E-06
 -1      6735-1.84090E-01 3.25926E-01 2.06783E-03-8.28571E-02 2.11445E-07 1.33501E-06
 -1      6736-1.84006E-01 3.26011E-01 2.26624E-03-8.28572E-02 4.20752E-07 2.65652E-06
 -1      6737-1.83968E-01 3.26048E-01 2.35431E-03-8.28572E-02 1.79804E-07 1.13524E-06
 -1      6738-1.83968E-01 3.26048E-01 2.35431E-03-8.28572E-02-1.79804E-07-1.13524E-06
 -1      6739-1.84006E-01 3.26011E-01 2.26624E-03-8.28572E-02-4.20752E-07-2.65652E-06
 -1      6740-1.84090E-01 3.25926E-01 2.06783E-03-8.28571E-02-2.11445E-07-1.33501E-06
 -1      6741-1.84245E-01 3.25771E-01 1.70517E-03-8.28571E-02 9.73910E-07 6.14902E-06
 -1      6742-1.84525E-01 3.25490E-01 1.05354E-03-8.28570E-02 4.54208E-06 2.86776E-05
 -1      6743-1.46440E-01 2.87405E-01 1.05354E-03-1.57603E-01-8.97232E-06-2.76140E-05
 -1      6744-1.46160E-01 2.87685E-01 1.70517E-03-1.57603E-01-1.92384E-06-5.92097E-06
 -1      6745-1.46005E-01 2.87841E-01 2.06783E-03-1.57604E-01 4.17684E-07 1.28550E-06
 -1      6746-1.45920E-01 2.87925E-01 2.26624E-03-1.57604E-01 8.31143E-07 2.55800E-06
 -1      6747-1.45883E-01 2.87963E-01 2.35431E-03-1.57604E-01 3.55180E-07 1.09313E-06
 -1      6748-1.45883E-01 2.87963E-01 2.35431E-03-1.57604E-01-3.55180E-07-1.09313E-06
 -1      6749-1.45920E-01 2.87925E-01 2.26624E-03-1.57604E-01-8.31143E-07-2.55800E-06
 -1      6750-1.46005E-01 2.87841E-01 2.06783E-03-1.57604E-01-4.17684E-07-1.28550E-06
 -1      6751-1.46160E-01 2.87685E-01 1.70517E-03-1.57603E-01 1.92384E-06 5.92097E-06
 -1      6752-1.46440E-01 2.87405E-01 1.05354E-03-1.57603E-01 8.97232E-06 2.76140E-05
 -1      6753-8.71206E-02 2.28086E-01 1.05354E-03-2.16922E-01-1.31816E-05-2.58704E-05
 -1      6754-8.68405E-02 2.28366E-01 1.70517E-03-2.16923E-01-2.82640E-06-5.54712E-06
 -1      6755-8.66857E-02 2.28522E-01 2.06783E-03-2.16923E-01 6.13638E-07 1.20433E-06
 -1      6756-8.66013E-02 2.28606E-01 2.26624E-03-2.16923E-01 1.22107E-06 2.39648E-06
 -1      6757-8.65639E-02 2.28644E-01 2.35431E-03-2.16923E-01 5.21811E-07 1.02411E-06
 -1      6758-8.65639E-02 2.28644E-01 2.35431E-03-2.16923E-01-5.21811E-07-1.02411E-06
 -1      6759-8.66013E-02 2.28606E-01 2.26624E-03-2.16923E-01-1.22107E-06-2.39648E-06
 -1      6760-8.66857E-02 2.28522E-01 2.06783E-03-2.16923E-01-6.13638E-07-1.20433E-06
 -1      6761-8.68405E-02 2.28366E-01 1.70517E-03-2.16923E-01 2.82640E-06 5.54712E-06
 -1      6762-8.71206E-02 2.28086E-01 1.05354E-03-2.16922E-01 1.31816E-05 2.58704E-05
 -1      6763-1.23742E-02 1.53340E-01 1.05354E-03-2.55008E-01-1.70664E-05-2.34898E-05
 -1      6764-1.20941E-02 1.53620E-01 1.70517E-03-2.55008E-01-3.65936E-06-5.03668E-06
 -1      6765-1.19392E-02 1.53775E-01 2.06783E-03-2.55008E-01 7.94482E-07 1.09351E-06
 -1      6766-1.18547E-02 1.53860E-01 2.26624E-03-2.55008E-01 1.58093E-06 2.17596E-06
 -1      6767-1.18173E-02 1.53897E-01 2.35431E-03-2.55008E-01 6.75593E-07 9.29875E-07
 -1      6768-1.18173E-02 1.53897E-01 2.35431E-03-2.55008E-01-6.75593E-07-9.29875E-07
 -1      6769-1.18547E-02 1.53860E-01 2.26624E-03-2.55008E-01-1.58093E-06-2.17596E-06
 -1      6770-1.19392E-02 1.53775E-01 2.06783E-03-2.55008E-01-7.94482E-07-1.09351E-06
 -1      6771-1.20941E-02 1.53620E-01 1.70517E-03-2.55008E-01 3.65936E-06 5.03668E-06
 -1      6772-1.23742E-02 1.53340E-01 1.05354E-03-2.55008E-01 1.70664E-05 2.34898E-05
 -1      6773 7.04828E-02 7.04828E-02 1.05354E-03-2.68131E-01-2.05309E-05-2.05309E-05
 -1      6774 7.07629E-02 7.07629E-02 1.70517E-03-2.68131E-01-4.40221E-06-4.40222E-06
 -1      6775 7.09179E-02 7.09179E-02 2.06783E-03-2.68131E-01 9.55764E-07 9.55763E-07
 -1      6776 7.10025E-02 7.10025E-02 2.26624E-03-2.68132E-01 1.90186E-06 1.90186E-06
 -1      6777 7.10399E-02 7.10399E-02 2.35431E-03-2.68132E-01 8.12740E-07 8.12740E-07
 -1      6778 7.10399E-02 7.10399E-02 2.35431E-03-2.68132E-01-8.12740E-07-8.12740E-07
 -1      6779 7.10025E-02 7.10025E-02 2.26624E-03-2.68132E-01-1.90186E-06-1.90186E-06
 -1      6780 7.09179E-02 7.09179E-02 2.06783E-03-2.68131E-01-9.55764E-07-9.55763E-07
 -1      6781 7.07629E-02 7.07629E-02 1.70517E-03-2.68131E-01 4.40221E-06 4.40222E-06
 -1      6782 7.04828E-02 7.04828E-02 1.05354E-03-2.68131E-01 2.05309E-05 2.05309E-05
 -1      6783 1.53340E-01-1.23742E-02 1.05354E-03-2.55008E-01-2.34898E-05-1.70664E-05
 -1      6784 1.53620E-01-1.20941E-02 1.70517E-03-2.55008E-01-5.03668E-06-3.65936E-06
 -1      6785 1.53775E-01-1.19392E-02 2.06783E-03-2.55008E-01 1.09351E-06 7.94482E-07
 -1      6786 1.53860E-01-1.18547E-02 2.26624E-03-2.55008E-01 2.17596E-06 1.58093E-06
 -1      6787 1.53897E-01-1.18173E-02 2.35431E-03-2.55008E-01 9.29874E-07 6.75593E-07
 -1      6788 1.53897E-01-1.18173E-02 2.35431E-03-2.55008E-01-9.29874E-07-6.75593E-07
 -1      6789 1.53860E-01-1.18547E-02 2.26624E-03-2.55008E-01-2.17596E-06-1.58093E-06
 -1      6790 1.53775E-01-1.19392E-02 2.06783E-03-2.55008E-01-1.09351E-06-7.94482E-07
 -1      6791 1.53620E-01-1.20941E-02 1.70517E-03-2.55008E-01 5.03668E-06 3.65936E-06
 -1      6792 1.53340E-01-1.23742E-02 1.05354E-03-2.55008E-01 2.34898E-05 1.70664E-05
 -1      6793 2.28086E-01-8.71206E-02 1.05354E-03-2.16922E-01-2.58704E-05-1.31816E-05
 -1      6794 2.28366E-01-8.68405E-02 1.70517E-03-2.16923E-01-5.54712E-06-2.82640E-06
 -1      6795 2.28522E-01-8.66857E-02 2.06783E-03-2.16923E-01 1.20433E-06 6.13638E-07
 -1      6796 2.28606E-01-8.66013E-02 2.26624E-03-2.16923E-01 2.39648E-06 1.22107E-06
 -1      6797 2.28644E-01-8.65639E-02 2.35431E-03-2.16923E-01 1.02411E-06 5.21811E-07
 -1      6798 2.28644E-01-8.65639E-02 2.35431E-03-2.16923E-01-1.02411E-06-5.21811E-07
 -1      6799 2.28606E-01-8.66013E-02 2.26624E-03-2.16923E-01-2.39648E-06-1.22107E-06
 -1      6800 2.28522E-01-8.66857E-02 2.06783E-03-2.16923E-01-1.20433E-06-6.13638E-07
 -1      6801 2.28366E-01-8.68405E-02 1.70517E-03-2.16923E-01 5.54712E-06 2.82640E-06
 -1      6802 2.28086E-01-8.71206E-02 1.05354E-03-2.16922E-01 2.58704E-05 1.31816E-05
 -1      6803 2.87405E-01-1.46440E-01 1.05354E-03-1.57603E-01-2.76140E-05-8.97232E-06
 -1      6804 2.87685E-01-1.46160E-01 1.70517E-03-1.57603E-01-5.92097E-06-1.92384E-06
 -1      6805 2.87841E-01-1.46005E-01 2.06783E-03-1.57604E-01 1.28550E-06 4.17684E-07
 -1      6806 2.87925E-01-1.45920E-01 2.26624E-03-1.57604E-01 2.55800E-06 8.31143E-07
 -1      6807 2.87963E-01-1.45883E-01 2.35431E-03-1.57604E-01 1.09313E-06 3.55180E-07
 -1      6808 2.87963E-01-1.45883E-01 2.35431E-03-1.57604E-01-1.09313E-06-3.55180E-07
 -1      6809 2.87925E-01-1.45920E-01 2.26624E-03-1.57604E-01-2.55800E-06-8.31143E-07
 -1      6810 2.87841E-01-1.46005E-01 2.06783E-03-1.57604E-01-1.28550E-06-4.17684E-07
 -1      6811 2.87685E-01-1.46160E-01 1.70517E-03-1.57603E-01 5.92097E-06 1.92384E-06
 -1      6812 2.87405E-01-1.46440E-01 1.05354E-03-1.57603E-01 2.76140E-05 8.97232E-06
 -1      6813 3.25490E-01-1.84525E-01 1.05354E-03-8.28570E-02-2.86776E-05-4.54208E-06
 -1      6814 3.25771E-01-1.84245E-01 1.70517E-03-8.28571E-02-6.14902E-06-9.73910E-07
 -1      6815 3.25926E-01-1.84090E-01 2.06783E-03-8.28571E-02 1.33501E-06 2.11445E-07
 -1      6816 3.26011E-01-1.84006E-01 2.26624E-03-8.28572E-02 2.65652E-06 4.20752E-07
 -1      6817 3.26048E-01-1.83968E-01 2.35431E-03-8.28572E-02 1.13524E-06 1.79804E-07
 -1      6818 3.26048E-01-1.83968E-01 2.35431E-03-8.28572E-02-1.13524E-06-1.79804E-07
 -1      6819 3.26011E-01-1.84006E-01 2.26624E-03-8.28572E-02-2.65652E-06-4.20752E-07
 -1      6820 3.25926E-01-1.84090E-01 2.06783E-03-8.28571E-02-1.33501E-06-2.11445E-07
 -1      6821 3.25771E-01-1.84245E-01 1.70517E-03-8.28571E-02 6.14902E-06 9.73910E-07
 -1      6822 3.25490E-01-1.84525E-01 1.05354E-03-8.28570E-02 2.86776E-05 4.54208E-06
 -1      6823-1.61231E-01 3.01394E-01 9.09332E-04-7.51581E-02-4.37540E-06-2.76252E-05
 -1      6824-1.60985E-01 3.01641E-01 1.48210E-03-7.51582E-02-1.14333E-06-7.21873E-06
 -1      6825-1.60846E-01 3.01781E-01 1.80833E-03-7.51583E-02 2.09247E-08 1.32113E-07
 -1      6826-1.60769E-01 3.01858E-01 1.98991E-03-7.51583E-02 2.89667E-07 1.82889E-06
 -1      6827-1.60734E-01 3.01893E-01 2.07139E-03-7.51583E-02 1.34947E-07 8.52020E-07
 -1      6828-1.60734E-01 3.01893E-01 2.07139E-03-7.51583E-02-1.34947E-07-8.52020E-07
 -1      6829-1.60769E-01 3.01858E-01 1.98991E-03-7.51583E-02-2.89667E-07-1.82889E-06
 -1      6830-1.60846E-01 3.01781E-01 1.80833E-03-7.51583E-02-2.09247E-08-1.32113E-07
 -1      6831-1.60985E-01 3.01641E-01 1.48210E-03-7.51582E-02 1.14333E-06 7.21873E-06
 -1      6832-1.61231E-01 3.01394E-01 9.09332E-04-7.51581E-02 4.37540E-06 2.76252E-05
 -1      6833-1.26685E-01 2.66848E-01 9.09332E-04-1.42959E-01-8.64306E-06-2.66006E-05
 -1      6834-1.26439E-01 2.67094E-01 1.48210E-03-1.42959E-01-2.25852E-06-6.95100E-06
 -1      6835-1.26300E-01 2.67234E-01 1.80833E-03-1.42960E-01 4.13341E-08 1.27213E-07
 -1      6836-1.26222E-01 2.67312E-01 1.98991E-03-1.42960E-01 5.72201E-07 1.76105E-06
 -1      6837-1.26188E-01 2.67347E-01 2.07139E-03-1.42960E-01 2.66570E-07 8.20420E-07
 -1      6838-1.26188E-01 2.67347E-01 2.07139E-03-1.42960E-01-2.66570E-07-8.20420E-07
 -1      6839-1.26222E-01 2.67312E-01 1.98991E-03-1.42960E-01-5.72201E-07-1.76105E-06
 -1      6840-1.26300E-01 2.67234E-01 1.80833E-03-1.42960E-01-4.13341E-08-1.27213E-07
 -1      6841-1.26439E-01 2.67094E-01 1.48210E-03-1.42959E-01 2.25852E-06 6.95100E-06
 -1      6842-1.26685E-01 2.66848E-01 9.09332E-04-1.42959E-01 8.64306E-06 2.66006E-05
 -1      6843-7.28778E-02 2.13041E-01 9.09332E-04-1.96766E-01-1.26979E-05-2.49210E-05
 -1      6844-7.26316E-02 2.13287E-01 1.48210E-03-1.96767E-01-3.31809E-06-6.51211E-06
 -1      6845-7.24922E-02 2.13427E-01 1.80833E-03-1.96767E-01 6.07257E-08 1.19181E-07
 -1      6846-7.24149E-02 2.13504E-01 1.98991E-03-1.96767E-01 8.40646E-07 1.64986E-06
 -1      6847-7.23802E-02 2.13539E-01 2.07139E-03-1.96767E-01 3.91630E-07 7.68618E-07
 -1      6848-7.23802E-02 2.13539E-01 2.07139E-03-1.96767E-01-3.91630E-07-7.68618E-07
 -1      6849-7.24149E-02 2.13504E-01 1.98991E-03-1.96767E-01-8.40646E-07-1.64986E-06
 -1      6850-7.24922E-02 2.13427E-01 1.80833E-03-1.96767E-01-6.07257E-08-1.19181E-07
 -1      6851-7.26316E-02 2.13287E-01 1.48210E-03-1.96767E-01 3.31809E-06 6.51211E-06
 -1      6852-7.28778E-02 2.13041E-01 9.09332E-04-1.96766E-01 1.26979E-05 2.49210E-05
 -1      6853-5.07665E-03 1.45240E-01 9.09332E-04-2.31313E-01-1.64401E-05-2.26278E-05
 -1      6854-4.83038E-03 1.45486E-01 1.48210E-03-2.31313E-01-4.29595E-06-5.91287E-06
 -1      6855-4.69093E-03 1.45626E-01 1.80833E-03-2.31313E-01 7.86223E-08 1.08214E-07
 -1      6856-4.61356E-03 1.45703E-01 1.98991E-03-2.31314E-01 1.08839E-06 1.49804E-06
 -1      6857-4.57890E-03 1.45738E-01 2.07139E-03-2.31314E-01 5.07047E-07 6.97891E-07
 -1      6858-4.57890E-03 1.45738E-01 2.07139E-03-2.31314E-01-5.07047E-07-6.97891E-07
 -1      6859-4.61356E-03 1.45703E-01 1.98991E-03-2.31314E-01-1.08839E-06-1.49804E-06
 -1      6860-4.69093E-03 1.45626E-01 1.80833E-03-2.31313E-01-7.86223E-08-1.08214E-07
 -1      6861-4.83038E-03 1.45486E-01 1.48210E-03-2.31313E-01 4.29595E-06 5.91287E-06
 -1      6862-5.07665E-03 1.45240E-01 9.09332E-04-2.31313E-01 1.64401E-05 2.26278E-05
 -1      6863 7.00815E-02 7.00815E-02 9.09332E-04-2.43217E-01-1.97774E-05-1.97774E-05
 -1      6864 7.03278E-02 7.03278E-02 1.48210E-03-2.43217E-01-5.16804E-06-5.16804E-06
 -1      6865 7.04673E-02 7.04673E-02 1.80833E-03-2.43217E-01 9.45832E-08 9.45821E-08
 -1      6866 7.05448E-02 7.05448E-02 1.98991E-03-2.43217E-01 1.30934E-06 1.30934E-06
 -1      6867 7.05794E-02 7.05794E-02 2.07139E-03-2.43218E-01 6.09979E-07 6.09978E-07
 -1      6868 7.05794E-02 7.05794E-02 2.07139E-03-2.43218E-01-6.09979E-07-6.09979E-07
 -1      6869 7.05448E-02 7.05448E-02 1.98991E-03-2.43217E-01-1.30934E-06-1.30934E-06
 -1      6870 7.04673E-02 7.04673E-02 1.80833E-03-2.43217E-01-9.45832E-08-9.45821E-08
 -1      6871 7.03278E-02 7.03278E-02 1.48210E-03-2.43217E-01 5.16804E-06 5.16804E-06
 -1      6872 7.00815E-02 7.00815E-02 9.09332E-04-2.43217E-01 1.97774E-05 1.97774E-05
 -1      6873 1.45240E-01-5.07665E-03 9.09332E-04-2.31313E-01-2.26278E-05-1.64401E-05
 -1      6874 1.45486E-01-4.83038E-03 1.48210E-03-2.31313E-01-5.91287E-06-4.29595E-06
 -1      6875 1.45626E-01-4.69093E-03 1.80833E-03-2.31313E-01 1.08214E-07 7.86221E-08
 -1      6876 1.45703E-01-4.61356E-03 1.98991E-03-2.31314E-01 1.49804E-06 1.08839E-06
 -1      6877 1.45738E-01-4.57890E-03 2.07139E-03-2.31314E-01 6.97890E-07 5.07047E-07
 -1      6878 1.45738E-01-4.57890E-03 2.07139E-03-2.31314E-01-6.97890E-07-5.07047E-07
 -1      6879 1.45703E-01-4.61356E-03 1.98991E-03-2.31314E-01-1.49804E-06-1.08839E-06
 -1      6880 1.45626E-01-4.69093E-03 1.80833E-03-2.31313E-01-1.08214E-07-7.86220E-08
 -1      6881 1.45486E-01-4.83038E-03 1.48210E-03-2.31313E-01 5.91287E-06 4.29595E-06
 -1      6882 1.45240E-01-5.07665E-03 9.09332E-04-2.31313E-01 2.26278E-05 1.64401E-05
 -1      6883 2.13041E-01-7.28778E-02 9.09332E-04-1.96766E-01-2.49210E-05-1.26979E-05
 -1      6884 2.13287E-01-7.26316E-02 1.48210E-03-1.96767E-01-6.51211E-06-3.31808E-06
 -1      6885 2.13427E-01-7.24922E-02 1.80833E-03-1.96767E-01 1.19181E-07 6.07261E-08
 -1      6886 2.13504E-01-7.24149E-02 1.98991E-03-1.96767E-01 1.64986E-06 8.40646E-07
 -1      6887 2.13539E-01-7.23802E-02 2.07139E-03-1.96767E-01 7.68618E-07 3.91630E-07
 -1      6888 2.13539E-01-7.23802E-02 2.07139E-03-1.96767E-01-7.68618E-07-3.91630E-07
 -1      6889 2.13504E-01-7.24149E-02 1.98991E-03-1.96767E-01-1.64986E-06-8.40646E-07
 -1      6890 2.13427E-01-7.24922E-02 1.80833E-03-1.96767E-01-1.19181E-07-6.07261E-08
 -1      6891 2.13287E-01-7.26316E-02 1.48210E-03-1.96767E-01 6.51211E-06 3.31808E-06
 -1      6892 2.13041E-01-7.28778E-02 9.09332E-04-1.96766E-01 2.49210E-05 1.26979E-05
 -1      6893 2.66848E-01-1.26685E-01 9.09332E-04-1.42959E-01-2.66006E-05-8.64306E-06
 -1      6894 2.67094E-01-1.26439E-01 1.48210E-03-1.42959E-01-6.95100E-06-2.25852E-06
 -1      6895 2.67234E-01-1.26300E-01 1.80833E-03-1.42960E-01 1.27214E-07 4.13341E-08
 -1      6896 2.67312E-01-1.26222E-01 1.98991E-03-1.42960E-01 1.76105E-06 5.72201E-07
 -1      6897 2.67347E-01-1.26188E-01 2.07139E-03-1.42960E-01 8.20420E-07 2.66570E-07
 -1      6898 2.67347E-01-1.26188E-01 2.07139E-03-1.42960E-01-8.20420E-07-2.66570E-07
 -1      6899 2.67312E-01-1.26222E-01 1.98991E-03-1.42960E-01-1.76105E-06-5.72201E-07
 -1      6900 2.67234E-01-1.26300E-01 1.80833E-03-1.42960E-01-1.27214E-07-4.13341E-08
 -1      6901 2.67094E-01-1.26439E-01 1.48210E-03-1.42959E-01 6.95100E-06 2.25852E-06
 -1      6902 2.66848E-01-1.26685E-01 9.09332E-04-1.42959E-01 2.66006E-05 8.64306E-06
 -1      6903 3.01394E-01-1.61231E-01 9.09332E-04-7.51581E-02-2.76252E-05-4.37540E-06
 -1      6904 3.01641E-01-1.60985E-01 1.48210E-03-7.51582E-02-7.21873E-06-1.14334E-06
 -1      6905 3.01781E-01-1.60846E-01 1.80833E-03-7.51583E-02 1.32113E-07 2.09239E-08
 -1      6906 3.01858E-01-1.60769E-01 1.98991E-03-7.51583E-02 1.82889E-06 2.89666E-07
 -1      6907 3.01893E-01-1.60734E-01 2.07139E-03-7.51583E-02 8.52020E-07 1.34946E-07
 -1      6908 3.01893E-01-1.60734E-01 2.07139E-03-7.51583E-02-8.52020E-07-1.34946E-07
 -1      6909 3.01858E-01-1.60769E-01 1.98991E-03-7.51583E-02-1.82889E-06-2.89666E-07
 -1      6910 3.01781E-01-1.60846E-01 1.80833E-03-7.51583E-02-1.32113E-07-2.09239E-08
 -1      6911 3.01641E-01-1.60985E-01 1.48210E-03-7.51582E-02 7.21873E-06 1.14334E-06
 -1      6912 3.01394E-01-1.61231E-01 9.09332E-04-7.51581E-02 2.76252E-05 4.37540E-06
 -1      6913-1.41033E-01 2.80513E-01 7.89816E-04-6.84843E-02-4.20238E-06-2.65328E-05
 -1      6914-1.40815E-01 2.80731E-01 1.29555E-03-6.84844E-02-1.27185E-06-8.03014E-06
 -1      6915-1.40690E-01 2.80857E-01 1.58956E-03-6.84845E-02-1.40202E-07-8.85199E-07
 -1      6916-1.40619E-01 2.80928E-01 1.75567E-03-6.84845E-02 1.74732E-07 1.10321E-06
 -1      6917-1.40587E-01 2.80960E-01 1.83093E-03-6.84845E-02 9.49267E-08 5.99344E-07
 -1      6918-1.40587E-01 2.80960E-01 1.83093E-03-6.84845E-02-9.49267E-08-5.99344E-07
 -1      6919-1.40619E-01 2.80928E-01 1.75567E-03-6.84845E-02-1.74732E-07-1.10321E-06
 -1      6920-1.40690E-01 2.80857E-01 1.58956E-03-6.84845E-02 1.40202E-07 8.85199E-07
 -1      6921-1.40815E-01 2.80731E-01 1.29555E-03-6.84844E-02 1.27185E-06 8.03014E-06
 -1      6922-1.41033E-01 2.80513E-01 7.89816E-04-6.84843E-02 4.20238E-06 2.65328E-05
 -1      6923-1.09554E-01 2.49035E-01 7.89816E-04-1.30265E-01-8.30129E-06-2.55487E-05
 -1      6924-1.09336E-01 2.49252E-01 1.29555E-03-1.30265E-01-2.51238E-06-7.73231E-06
 -1      6925-1.09211E-01 2.49378E-01 1.58956E-03-1.30265E-01-2.76951E-07-8.52369E-07
 -1      6926-1.09140E-01 2.49449E-01 1.75567E-03-1.30265E-01 3.45161E-07 1.06230E-06
 -1      6927-1.09108E-01 2.49482E-01 1.83093E-03-1.30265E-01 1.87516E-07 5.77115E-07
 -1      6928-1.09108E-01 2.49482E-01 1.83093E-03-1.30265E-01-1.87516E-07-5.77115E-07
 -1      6929-1.09140E-01 2.49449E-01 1.75567E-03-1.30265E-01-3.45161E-07-1.06230E-06
 -1      6930-1.09211E-01 2.49378E-01 1.58956E-03-1.30265E-01 2.76951E-07 8.52369E-07
 -1      6931-1.09336E-01 2.49252E-01 1.29555E-03-1.30265E-01 2.51238E-06 7.73231E-06
 -1      6932-1.09554E-01 2.49035E-01 7.89816E-04-1.30265E-01 8.30129E-06 2.55487E-05
 -1      6933-6.05245E-02 2.00005E-01 7.89816E-04-1.79294E-01-1.21958E-05-2.39356E-05
 -1      6934-6.03071E-02 2.00223E-01 1.29555E-03-1.79294E-01-3.69105E-06-7.24409E-06
 -1      6935-6.01814E-02 2.00349E-01 1.58956E-03-1.79295E-01-4.06882E-07-7.98550E-07
 -1      6936-6.01106E-02 2.00420E-01 1.75567E-03-1.79295E-01 5.07091E-07 9.95222E-07
 -1      6937-6.00786E-02 2.00452E-01 1.83093E-03-1.79295E-01 2.75488E-07 5.40676E-07
 -1      6938-6.00786E-02 2.00452E-01 1.83093E-03-1.79295E-01-2.75488E-07-5.40676E-07
 -1      6939-6.01106E-02 2.00420E-01 1.75567E-03-1.79295E-01-5.07091E-07-9.95222E-07
 -1      6940-6.01814E-02 2.00349E-01 1.58956E-03-1.79295E-01 4.06882E-07 7.98550E-07
 -1      6941-6.03071E-02 2.00223E-01 1.29555E-03-1.79294E-01 3.69105E-06 7.24409E-06
 -1      6942-6.05245E-02 2.00005E-01 7.89816E-04-1.79294E-01 1.21958E-05 2.39356E-05
 -1      6943 1.25607E-03 1.38225E-01 7.89816E-04-2.10773E-01-1.57900E-05-2.17330E-05
 -1      6944 1.47359E-03 1.38442E-01 1.29555E-03-2.10773E-01-4.77883E-06-6.57750E-06
 -1      6945 1.59935E-03 1.38568E-01 1.58956E-03-2.10773E-01-5.26793E-07-7.25068E-07
 -1      6946 1.67018E-03 1.38639E-01 1.75567E-03-2.10774E-01 6.56535E-07 9.03643E-07
 -1      6947 1.70221E-03 1.38671E-01 1.83093E-03-2.10774E-01 3.56677E-07 4.90923E-07
 -1      6948 1.70221E-03 1.38671E-01 1.83093E-03-2.10774E-01-3.56677E-07-4.90923E-07
 -1      6949 1.67018E-03 1.38639E-01 1.75567E-03-2.10774E-01-6.56535E-07-9.03643E-07
 -1      6950 1.59935E-03 1.38568E-01 1.58956E-03-2.10773E-01 5.26793E-07 7.25068E-07
 -1      6951 1.47359E-03 1.38442E-01 1.29555E-03-2.10773E-01 4.77883E-06 6.57750E-06
 -1      6952 1.25607E-03 1.38225E-01 7.89816E-04-2.10773E-01 1.57900E-05 2.17330E-05
 -1      6953 6.97404E-02 6.97404E-02 7.89816E-04-2.21620E-01-1.89954E-05-1.89954E-05
 -1      6954 6.99580E-02 6.99580E-02 1.29555E-03-2.21620E-01-5.74894E-06-5.74894E-06
 -1      6955 7.00838E-02 7.00838E-02 1.58956E-03-2.21620E-01-6.33732E-07-6.33733E-07
 -1      6956 7.01547E-02 7.01547E-02 1.75567E-03-2.21621E-01 7.89813E-07 7.89812E-07
 -1      6957 7.01867E-02 7.01867E-02 1.83093E-03-2.21621E-01 4.29083E-07 4.29083E-07
 -1      6958 7.01867E-02 7.01867E-02 1.83093E-03-2.21621E-01-4.29083E-07-4.29083E-07
 -1      6959 7.01547E-02 7.01547E-02 1.75567E-03-2.21621E-01-7.89813E-07-7.89812E-07
 -1      6960 7.00838E-02 7.00838E-02 1.58956E-03-2.21620E-01 6.33732E-07 6.33733E-07
 -1      6961 6.99580E-02 6.99580E-02 1.29555E-03-2.21620E-01 5.74894E-06 5.74894E-06
 -1      6962 6.97404E-02 6.97404E-02 7.89816E-04-2.21620E-01 1.89954E-05 1.89954E-05
 -1      6963 1.38225E-01 1.25607E-03 7.89816E-04-2.10773E-01-2.17330E-05-1.57900E-05
 -1      6964 1.38442E-01 1.47359E-03 1.29555E-03-2.10773E-01-6.57750E-06-4.77883E-06
 -1      6965 1.38568E-01 1.59934E-03 1.58956E-03-2.10773E-01-7.25068E-07-5.26793E-07
 -1      6966 1.38639E-01 1.67018E-03 1.75567E-03-2.10774E-01 9.03642E-07 6.56535E-07
 -1      6967 1.38671E-01 1.70221E-03 1.83093E-03-2.10774E-01 4.90923E-07 3.56677E-07
 -1      6968 1.38671E-01 1.70221E-03 1.83093E-03-2.10774E-01-4.90923E-07-3.56677E-07
 -1      6969 1.38639E-01 1.67018E-03 1.75567E-03-2.10774E-01-9.03642E-07-6.56535E-07
 -1      6970 1.38568E-01 1.59934E-03 1.58956E-03-2.10773E-01 7.25068E-07 5.26793E-07
 -1      6971 1.38442E-01 1.47359E-03 1.29555E-03-2.10773E-01 6.57750E-06 4.77883E-06
 -1      6972 1.38225E-01 1.25607E-03 7.89816E-04-2.10773E-01 2.17330E-05 1.57900E-05
 -1      6973 2.00005E-01-6.05245E-02 7.89816E-04-1.79294E-01-2.39356E-05-1.21958E-05
 -1      6974 2.00223E-01-6.03071E-02 1.29555E-03-1.79294E-01-7.24409E-06-3.69105E-06
 -1      6975 2.00349E-01-6.01814E-02 1.58956E-03-1.79295E-01-7.98550E-07-4.06881E-07
 -1      6976 2.00420E-01-6.01106E-02 1.75567E-03-1.79295E-01 9.95222E-07 5.07091E-07
 -1      6977 2.00452E-01-6.00786E-02 1.83093E-03-1.79295E-01 5.40676E-07 2.75488E-07
 -1      6978 2.00452E-01-6.00786E-02 1.83093E-03-1.79295E-01-5.40676E-07-2.75488E-07
 -1      6979 2.00420E-01-6.01106E-02 1.75567E-03-1.79295E-01-9.95222E-07-5.07091E-07
 -1      6980 2.00349E-01-6.01814E-02 1.58956E-03-1.79295E-01 7.98550E-07 4.06881E-07
 -1      6981 2.00223E-01-6.03071E-02 1.29555E-03-1.79294E-01 7.24409E-06 3.69105E-06
 -1      6982 2.00005E-01-6.05245E-02 7.89816E-04-1.79294E-01 2.39356E-05 1.21958E-05
 -1      6983 2.49035E-01-1.09554E-01 7.89816E-04-1.30265E-01-2.55487E-05-8.30129E-06
 -1      6984 2.49252E-01-1.09336E-01 1.29555E-03-1.30265E-01-7.73231E-06-2.51238E-06
 -1      6985 2.49378E-01-1.09211E-01 1.58956E-03-1.30265E-01-8.52368E-07-2.76951E-07
 -1      6986 2.49449E-01-1.09140E-01 1.75567E-03-1.30265E-01 1.06230E-06 3.45161E-07
 -1      6987 2.49482E-01-1.09108E-01 1.83093E-03-1.30265E-01 5.77115E-07 1.87516E-07
 -1      6988 2.49482E-01-1.09108E-01 1.83093E-03-1.30265E-01-5.77115E-07-1.87516E-07
 -1      6989 2.49449E-01-1.09140E-01 1.75567E-03-1.30265E-01-1.06230E-06-3.45161E-07
 -1      6990 2.49378E-01-1.09211E-01 1.58956E-03-1.30265E-01 8.52368E-07 2.76951E-07
 -1      6991 2.49252E-01-1.09336E-01 1.29555E-03-1.30265E-01 7.73231E-06 2.51238E-06
 -1      6992 2.49035E-01-1.09554E-01 7.89816E-04-1.30265E-01 2.55487E-05 8.30129E-06
 -1      6993 2.80513E-01-1.41033E-01 7.89816E-04-6.84843E-02-2.65328E-05-4.20238E-06
 -1      6994 2.80731E-01-1.40815E-01 1.29555E-03-6.84844E-02-8.03014E-06-1.27185E-06
 -1      6995 2.80857E-01-1.40690E-01 1.58956E-03-6.84845E-02-8.85199E-07-1.40203E-07
 -1      6996 2.80928E-01-1.40619E-01 1.75567E-03-6.84845E-02 1.10321E-06 1.74731E-07
 -1      6997 2.80960E-01-1.40587E-01 1.83093E-03-6.84845E-02 5.99344E-07 9.49265E-08
 -1      6998 2.80960E-01-1.40587E-01 1.83093E-03-6.84845E-02-5.99344E-07-9.49265E-08
 -1      6999 2.80928E-01-1.40619E-01 1.75567E-03-6.84845E-02-1.10321E-06-1.74731E-07
 -1      7000 2.80857E-01-1.40690E-01 1.58956E-03-6.84845E-02 8.85199E-07 1.40203E-07
 -1      7001 2.80731E-01-1.40815E-01 1.29555E-03-6.84844E-02 8.03014E-06 1.27185E-06
 -1      7002 2.80513E-01-1.41033E-01 7.89816E-04-6.84843E-02 2.65328E-05 4.20238E-06
 -1      7003-1.23404E-01 2.62300E-01 6.89903E-04-6.26614E-02-4.02721E-06-2.54268E-05
 -1      7004-1.23211E-01 2.62493E-01 1.13829E-03-6.26614E-02-1.36683E-06-8.62985E-06
 -1      7005-1.23098E-01 2.62607E-01 1.40374E-03-6.26615E-02-2.75083E-07-1.73681E-06
 -1      7006-1.23033E-01 2.62672E-01 1.55571E-03-6.26616E-02 7.50143E-08 4.73622E-07
 -1      7007-1.23003E-01 2.62702E-01 1.62514E-03-6.26616E-02 5.96573E-08 3.76661E-07
 -1      7008-1.23003E-01 2.62702E-01 1.62514E-03-6.26616E-02-5.96573E-08-3.76661E-07
 -1      7009-1.23033E-01 2.62672E-01 1.55571E-03-6.26616E-02-7.50143E-08-4.73622E-07
 -1      7010-1.23098E-01 2.62607E-01 1.40374E-03-6.26615E-02 2.75083E-07 1.73681E-06
 -1      7011-1.23211E-01 2.62493E-01 1.13829E-03-6.26614E-02 1.36683E-06 8.62985E-06
 -1      7012-1.23404E-01 2.62300E-01 6.89903E-04-6.26614E-02 4.02721E-06 2.54268E-05
 -1      7013-9.46016E-02 2.33498E-01 6.89903E-04-1.19189E-01-7.95525E-06-2.44837E-05
 -1      7014-9.44088E-02 2.33691E-01 1.13829E-03-1.19189E-01-2.70001E-06-8.30978E-06
 -1      7015-9.42953E-02 2.33805E-01 1.40374E-03-1.19189E-01-5.43393E-07-1.67239E-06
 -1      7016-9.42305E-02 2.33870E-01 1.55571E-03-1.19189E-01 1.48182E-07 4.56056E-07
 -1      7017-9.42010E-02 2.33899E-01 1.62514E-03-1.19189E-01 1.17846E-07 3.62692E-07
 -1      7018-9.42010E-02 2.33899E-01 1.62514E-03-1.19189E-01-1.17846E-07-3.62692E-07
 -1      7019-9.42305E-02 2.33870E-01 1.55571E-03-1.19189E-01-1.48182E-07-4.56056E-07
 -1      7020-9.42953E-02 2.33805E-01 1.40374E-03-1.19189E-01 5.43392E-07 1.67239E-06
 -1      7021-9.44088E-02 2.33691E-01 1.13829E-03-1.19189E-01 2.70001E-06 8.30978E-06
 -1      7022-9.46016E-02 2.33498E-01 6.89903E-04-1.19189E-01 7.95525E-06 2.44837E-05
 -1      7023-4.97410E-02 1.88637E-01 6.89903E-04-1.64050E-01-1.16874E-05-2.29378E-05
 -1      7024-4.95481E-02 1.88830E-01 1.13829E-03-1.64050E-01-3.96671E-06-7.78510E-06
 -1      7025-4.94346E-02 1.88944E-01 1.40374E-03-1.64050E-01-7.98322E-07-1.56679E-06
 -1      7026-4.93698E-02 1.89009E-01 1.55571E-03-1.64050E-01 2.17700E-07 4.27261E-07
 -1      7027-4.93402E-02 1.89039E-01 1.62514E-03-1.64050E-01 1.73132E-07 3.39791E-07
 -1      7028-4.93402E-02 1.89039E-01 1.62514E-03-1.64050E-01-1.73132E-07-3.39791E-07
 -1      7029-4.93698E-02 1.89009E-01 1.55571E-03-1.64050E-01-2.17700E-07-4.27261E-07
 -1      7030-4.94346E-02 1.88944E-01 1.40374E-03-1.64050E-01 7.98322E-07 1.56679E-06
 -1      7031-4.95481E-02 1.88830E-01 1.13829E-03-1.64050E-01 3.96671E-06 7.78510E-06
 -1      7032-4.97410E-02 1.88637E-01 6.89903E-04-1.64050E-01 1.16874E-05 2.29378E-05
 -1      7033 6.78662E-03 1.32109E-01 6.89903E-04-1.92852E-01-1.51318E-05-2.08271E-05
 -1      7034 6.97955E-03 1.32302E-01 1.13829E-03-1.92852E-01-5.13573E-06-7.06873E-06
 -1      7035 7.09316E-03 1.32416E-01 1.40374E-03-1.92852E-01-1.03359E-06-1.42262E-06
 -1      7036 7.15801E-03 1.32481E-01 1.55571E-03-1.92852E-01 2.81858E-07 3.87944E-07
 -1      7037 7.18758E-03 1.32511E-01 1.62514E-03-1.92853E-01 2.24156E-07 3.08524E-07
 -1      7038 7.18758E-03 1.32511E-01 1.62514E-03-1.92853E-01-2.24156E-07-3.08524E-07
 -1      7039 7.15801E-03 1.32481E-01 1.55571E-03-1.92852E-01-2.81858E-07-3.87944E-07
 -1      7040 7.09316E-03 1.32416E-01 1.40374E-03-1.92852E-01 1.03359E-06 1.42262E-06
 -1      7041 6.97955E-03 1.32302E-01 1.13829E-03-1.92852E-01 5.13573E-06 7.06873E-06
 -1      7042 6.78662E-03 1.32109E-01 6.89903E-04-1.92852E-01 1.51318E-05 2.08271E-05
 -1      7043 6.94480E-02 6.94480E-02 6.89903E-04-2.02776E-01-1.82036E-05-1.82036E-05
 -1      7044 6.96410E-02 6.96410E-02 1.13829E-03-2.02777E-01-6.17829E-06-6.17829E-06
 -1      7045 6.97547E-02 6.97547E-02 1.40374E-03-2.02777E-01-1.24341E-06-1.24342E-06
 -1      7046 6.98196E-02 6.98196E-02 1.55571E-03-2.02777E-01 3.39076E-07 3.39075E-07
 -1      7047 6.98492E-02 6.98492E-02 1.62514E-03-2.02777E-01 2.69660E-07 2.69660E-07
 -1      7048 6.98492E-02 6.98492E-02 1.62514E-03-2.02777E-01-2.69660E-07-2.69660E-07
 -1      7049 6.98196E-02 6.98196E-02 1.55571E-03-2.02777E-01-3.39076E-07-3.39075E-07
 -1      7050 6.97547E-02 6.97547E-02 1.40374E-03-2.02777E-01 1.24341E-06 1.24342E-06
 -1      7051 6.96410E-02 6.96410E-02 1.13829E-03-2.02777E-01 6.17829E-06 6.17829E-06
 -1      7052 6.94480E-02 6.94480E-02 6.89903E-04-2.02776E-01 1.82036E-05 1.82036E-05
 -1      7053 1.32109E-01 6.78662E-03 6.89903E-04-1.92852E-01-2.08271E-05-1.51318E-05
 -1      7054 1.32302E-01 6.97955E-03 1.13829E-03-1.92852E-01-7.06873E-06-5.13573E-06
 -1      7055 1.32416E-01 7.09316E-03 1.40374E-03-1.92852E-01-1.42262E-06-1.03359E-06
 -1      7056 1.32481E-01 7.15801E-03 1.55571E-03-1.92852E-01 3.87944E-07 2.81858E-07
 -1      7057 1.32511E-01 7.18758E-03 1.62514E-03-1.92853E-01 3.08524E-07 2.24156E-07
 -1      7058 1.32511E-01 7.18758E-03 1.62514E-03-1.92853E-01-3.08524E-07-2.24156E-07
 -1      7059 1.32481E-01 7.15801E-03 1.55571E-03-1.92852E-01-3.87944E-07-2.81858E-07
 -1      7060 1.32416E-01 7.09316E-03 1.40374E-03-1.92852E-01 1.42262E-06 1.03359E-06
 -1      7061 1.32302E-01 6.97955E-03 1.13829E-03-1.92852E-01 7.06873E-06 5.13573E-06
 -1      7062 1.32109E-01 6.78662E-03 6.89903E-04-1.92852E-01 2.08271E-05 1.51318E-05
 -1      7063 1.88637E-01-4.97410E-02 6.89903E-04-1.64050E-01-2.29378E-05-1.16874E-05
 -1      7064 1.88830E-01-4.95481E-02 1.13829E-03-1.64050E-01-7.78510E-06-3.96671E-06
 -1      7065 1.88944E-01-4.94346E-02 1.40374E-03-1.64050E-01-1.56680E-06-7.98321E-07
 -1      7066 1.89009E-01-4.93698E-02 1.55571E-03-1.64050E-01 4.27260E-07 2.17701E-07
 -1      7067 1.89039E-01-4.93402E-02 1.62514E-03-1.64050E-01 3.39791E-07 1.73132E-07
 -1      7068 1.89039E-01-4.93402E-02 1.62514E-03-1.64050E-01-3.39791E-07-1.73132E-07
 -1      7069 1.89009E-01-4.93698E-02 1.55571E-03-1.64050E-01-4.27260E-07-2.17701E-07
 -1      7070 1.88944E-01-4.94346E-02 1.40374E-03-1.64050E-01 1.56680E-06 7.98321E-07
 -1      7071 1.88830E-01-4.95481E-02 1.13829E-03-1.64050E-01 7.78510E-06 3.96671E-06
 -1      7072 1.88637E-01-4.97410E-02 6.89903E-04-1.64050E-01 2.29378E-05 1.16874E-05
 -1      7073 2.33498E-01-9.46016E-02 6.89903E-04-1.19189E-01-2.44837E-05-7.95525E-06
 -1      7074 2.33691E-01-9.44088E-02 1.13829E-03-1.19189E-01-8.30978E-06-2.70001E-06
 -1      7075 2.33805E-01-9.42953E-02 1.40374E-03-1.19189E-01-1.67239E-06-5.43392E-07
 -1      7076 2.33870E-01-9.42305E-02 1.55571E-03-1.19189E-01 4.56056E-07 1.48182E-07
 -1      7077 2.33899E-01-9.42010E-02 1.62514E-03-1.19189E-01 3.62692E-07 1.17846E-07
 -1      7078 2.33899E-01-9.42010E-02 1.62514E-03-1.19189E-01-3.62692E-07-1.17846E-07
 -1      7079 2.33870E-01-9.42305E-02 1.55571E-03-1.19189E-01-4.56056E-07-1.48182E-07
 -1      7080 2.33805E-01-9.42953E-02 1.40374E-03-1.19189E-01 1.67239E-06 5.43392E-07
 -1      7081 2.33691E-01-9.44088E-02 1.13829E-03-1.19189E-01 8.30978E-06 2.70001E-06
 -1      7082 2.33498E-01-9.46016E-02 6.89903E-04-1.19189E-01 2.44837E-05 7.95525E-06
 -1      7083 2.62300E-01-1.23404E-01 6.89903E-04-6.26614E-02-2.54268E-05-4.02721E-06
 -1      7084 2.62493E-01-1.23211E-01 1.13829E-03-6.26614E-02-8.62985E-06-1.36684E-06
 -1      7085 2.62607E-01-1.23098E-01 1.40374E-03-6.26615E-02-1.73681E-06-2.75084E-07
 -1      7086 2.62672E-01-1.23033E-01 1.55571E-03-6.26616E-02 4.73622E-07 7.50135E-08
 -1      7087 2.62702E-01-1.23003E-01 1.62514E-03-6.26616E-02 3.76661E-07 5.96570E-08
 -1      7088 2.62702E-01-1.23003E-01 1.62514E-03-6.26616E-02-3.76661E-07-5.96570E-08
 -1      7089 2.62672E-01-1.23033E-01 1.55571E-03-6.26616E-02-4.73622E-07-7.50135E-08
 -1      7090 2.62607E-01-1.23098E-01 1.40374E-03-6.26615E-02 1.73681E-06 2.75084E-07
 -1      7091 2.62493E-01-1.23211E-01 1.13829E-03-6.26614E-02 8.62985E-06 1.36684E-06
 -1      7092 2.62300E-01-1.23404E-01 6.89903E-04-6.26614E-02 2.54268E-05 4.02721E-06
 -1      7093-1.07927E-01 2.46318E-01 6.05727E-04-5.75506E-02-3.85278E-06-2.43255E-05
 -1      7094-1.07755E-01 2.46490E-01 1.00477E-03-5.75507E-02-1.43434E-06-9.05608E-06
 -1      7095-1.07653E-01 2.46593E-01 1.24486E-03-5.75507E-02-3.86809E-07-2.44221E-06
 -1      7096-1.07593E-01 2.46653E-01 1.38392E-03-5.75508E-02-1.06747E-08-6.73973E-08
 -1      7097-1.07566E-01 2.46680E-01 1.44792E-03-5.75508E-02 2.88915E-08 1.82414E-07
 -1      7098-1.07566E-01 2.46680E-01 1.44792E-03-5.75508E-02-2.88915E-08-1.82414E-07
 -1      7099-1.07593E-01 2.46653E-01 1.38392E-03-5.75508E-02 1.06747E-08 6.73973E-08
 -1      7100-1.07653E-01 2.46593E-01 1.24486E-03-5.75507E-02 3.86809E-07 2.44221E-06
 -1      7101-1.07755E-01 2.46490E-01 1.00477E-03-5.75507E-02 1.43434E-06 9.05608E-06
 -1      7102-1.07927E-01 2.46318E-01 6.05727E-04-5.75506E-02 3.85278E-06 2.43255E-05
 -1      7103-8.14740E-02 2.19865E-01 6.05727E-04-1.09468E-01-7.61069E-06-2.34233E-05
 -1      7104-8.13023E-02 2.20037E-01 1.00477E-03-1.09468E-01-2.83337E-06-8.72020E-06
 -1      7105-8.11996E-02 2.20140E-01 1.24486E-03-1.09468E-01-7.64093E-07-2.35164E-06
 -1      7106-8.11403E-02 2.20199E-01 1.38392E-03-1.09468E-01-2.10865E-08-6.48977E-08
 -1      7107-8.11131E-02 2.20227E-01 1.44792E-03-1.09468E-01 5.70716E-08 1.75648E-07
 -1      7108-8.11131E-02 2.20227E-01 1.44792E-03-1.09468E-01-5.70716E-08-1.75648E-07
 -1      7109-8.11403E-02 2.20199E-01 1.38392E-03-1.09468E-01 2.10865E-08 6.48977E-08
 -1      7110-8.11996E-02 2.20140E-01 1.24486E-03-1.09468E-01 7.64093E-07 2.35164E-06
 -1      7111-8.13023E-02 2.20037E-01 1.00477E-03-1.09468E-01 2.83337E-06 8.72020E-06
 -1      7112-8.14740E-02 2.19865E-01 6.05727E-04-1.09468E-01 7.61069E-06 2.34233E-05
 -1      7113-4.02723E-02 1.78663E-01 6.05727E-04-1.50669E-01-1.11812E-05-2.19443E-05
 -1      7114-4.01006E-02 1.78835E-01 1.00477E-03-1.50670E-01-4.16262E-06-8.16961E-06
 -1      7115-3.99978E-02 1.78938E-01 1.24486E-03-1.50670E-01-1.12256E-06-2.20315E-06
 -1      7116-3.99385E-02 1.78998E-01 1.38392E-03-1.50670E-01-3.09793E-08-6.08000E-08
 -1      7117-3.99112E-02 1.79025E-01 1.44792E-03-1.50670E-01 8.38463E-08 1.64558E-07
 -1      7118-3.99112E-02 1.79025E-01 1.44792E-03-1.50670E-01-8.38463E-08-1.64558E-07
 -1      7119-3.99385E-02 1.78998E-01 1.38392E-03-1.50670E-01 3.09793E-08 6.07999E-08
 -1      7120-3.99978E-02 1.78938E-01 1.24486E-03-1.50670E-01 1.12256E-06 2.20315E-06
 -1      7121-4.01006E-02 1.78835E-01 1.00477E-03-1.50670E-01 4.16262E-06 8.16961E-06
 -1      7122-4.02723E-02 1.78663E-01 6.05727E-04-1.50669E-01 1.11812E-05 2.19443E-05
 -1      7123 1.16449E-02 1.26746E-01 6.05727E-04-1.77123E-01-1.44764E-05-1.99250E-05
 -1      7124 1.18166E-02 1.26918E-01 1.00477E-03-1.77123E-01-5.38938E-06-7.41785E-06
 -1      7125 1.19194E-02 1.27021E-01 1.24486E-03-1.77123E-01-1.45339E-06-2.00042E-06
 -1      7126 1.19788E-02 1.27080E-01 1.38392E-03-1.77123E-01-4.01090E-08-5.52051E-08
 -1      7127 1.20061E-02 1.27108E-01 1.44792E-03-1.77123E-01 1.08557E-07 1.49415E-07
 -1      7128 1.20061E-02 1.27108E-01 1.44792E-03-1.77123E-01-1.08557E-07-1.49415E-07
 -1      7129 1.19788E-02 1.27080E-01 1.38392E-03-1.77123E-01 4.01090E-08 5.52051E-08
 -1      7130 1.19194E-02 1.27021E-01 1.24486E-03-1.77123E-01 1.45339E-06 2.00042E-06
 -1      7131 1.18166E-02 1.26918E-01 1.00477E-03-1.77123E-01 5.38938E-06 7.41785E-06
 -1      7132 1.16449E-02 1.26746E-01 6.05727E-04-1.77123E-01 1.44764E-05 1.99250E-05
 -1      7133 6.91955E-02 6.91955E-02 6.05727E-04-1.86238E-01-1.74151E-05-1.74151E-05
 -1      7134 6.93673E-02 6.93673E-02 1.00477E-03-1.86238E-01-6.48344E-06-6.48344E-06
 -1      7135 6.94702E-02 6.94702E-02 1.24486E-03-1.86238E-01-1.74843E-06-1.74843E-06
 -1      7136 6.95296E-02 6.95296E-02 1.38392E-03-1.86238E-01-4.82506E-08-4.82517E-08
 -1      7137 6.95569E-02 6.95569E-02 1.44792E-03-1.86238E-01 1.30594E-07 1.30594E-07
 -1      7138 6.95569E-02 6.95569E-02 1.44792E-03-1.86238E-01-1.30594E-07-1.30594E-07
 -1      7139 6.95296E-02 6.95296E-02 1.38392E-03-1.86238E-01 4.82506E-08 4.82517E-08
 -1      7140 6.94702E-02 6.94702E-02 1.24486E-03-1.86238E-01 1.74843E-06 1.74843E-06
 -1      7141 6.93673E-02 6.93673E-02 1.00477E-03-1.86238E-01 6.48344E-06 6.48344E-06
 -1      7142 6.91955E-02 6.91955E-02 6.05727E-04-1.86238E-01 1.74151E-05 1.74151E-05
 -1      7143 1.26746E-01 1.16449E-02 6.05727E-04-1.77123E-01-1.99250E-05-1.44764E-05
 -1      7144 1.26918E-01 1.18166E-02 1.00477E-03-1.77123E-01-7.41785E-06-5.38938E-06
 -1      7145 1.27021E-01 1.19194E-02 1.24486E-03-1.77123E-01-2.00042E-06-1.45339E-06
 -1      7146 1.27080E-01 1.19788E-02 1.38392E-03-1.77123E-01-5.52053E-08-4.01092E-08
 -1      7147 1.27108E-01 1.20061E-02 1.44792E-03-1.77123E-01 1.49415E-07 1.08556E-07
 -1      7148 1.27108E-01 1.20061E-02 1.44792E-03-1.77123E-01-1.49415E-07-1.08556E-07
 -1      7149 1.27080E-01 1.19788E-02 1.38392E-03-1.77123E-01 5.52053E-08 4.01092E-08
 -1      7150 1.27021E-01 1.19194E-02 1.24486E-03-1.77123E-01 2.00042E-06 1.45339E-06
 -1      7151 1.26918E-01 1.18166E-02 1.00477E-03-1.77123E-01 7.41785E-06 5.38938E-06
 -1      7152 1.26746E-01 1.16449E-02 6.05727E-04-1.77123E-01 1.99250E-05 1.44764E-05
 -1      7153 1.78663E-01-4.02723E-02 6.05727E-04-1.50669E-01-2.19443E-05-1.11812E-05
 -1      7154 1.78835E-01-4.01006E-02 1.00477E-03-1.50670E-01-8.16961E-06-4.16262E-06
 -1      7155 1.78938E-01-3.99978E-02 1.24486E-03-1.50670E-01-2.20315E-06-1.12256E-06
 -1      7156 1.78998E-01-3.99385E-02 1.38392E-03-1.50670E-01-6.08004E-08-3.09785E-08
 -1      7157 1.79025E-01-3.99112E-02 1.44792E-03-1.50670E-01 1.64558E-07 8.38466E-08
 -1      7158 1.79025E-01-3.99112E-02 1.44792E-03-1.50670E-01-1.64558E-07-8.38465E-08
 -1      7159 1.78998E-01-3.99385E-02 1.38392E-03-1.50670E-01 6.08004E-08 3.09785E-08
 -1      7160 1.78938E-01-3.99978E-02 1.24486E-03-1.50670E-01 2.20315E-06 1.12256E-06
 -1      7161 1.78835E-01-4.01006E-02 1.00477E-03-1.50670E-01 8.16961E-06 4.16262E-06
 -1      7162 1.78663E-01-4.02723E-02 6.05727E-04-1.50669E-01 2.19443E-05 1.11812E-05
 -1      7163 2.19865E-01-8.14740E-02 6.05727E-04-1.09468E-01-2.34233E-05-7.61069E-06
 -1      7164 2.20037E-01-8.13023E-02 1.00477E-03-1.09468E-01-8.72020E-06-2.83337E-06
 -1      7165 2.20140E-01-8.11996E-02 1.24486E-03-1.09468E-01-2.35164E-06-7.64093E-07
 -1      7166 2.20199E-01-8.11403E-02 1.38392E-03-1.09468E-01-6.48975E-08-2.10864E-08
 -1      7167 2.20227E-01-8.11131E-02 1.44792E-03-1.09468E-01 1.75648E-07 5.70716E-08
 -1      7168 2.20227E-01-8.11131E-02 1.44792E-03-1.09468E-01-1.75648E-07-5.70716E-08
 -1      7169 2.20199E-01-8.11403E-02 1.38392E-03-1.09468E-01 6.48974E-08 2.10865E-08
 -1      7170 2.20140E-01-8.11996E-02 1.24486E-03-1.09468E-01 2.35164E-06 7.64093E-07
 -1      7171 2.20037E-01-8.13023E-02 1.00477E-03-1.09468E-01 8.72020E-06 2.83337E-06
 -1      7172 2.19865E-01-8.14740E-02 6.05727E-04-1.09468E-01 2.34233E-05 7.61069E-06
 -1      7173 2.46318E-01-1.07927E-01 6.05727E-04-5.75506E-02-2.43255E-05-3.85278E-06
 -1      7174 2.46490E-01-1.07755E-01 1.00477E-03-5.75507E-02-9.05608E-06-1.43434E-06
 -1      7175 2.46593E-01-1.07653E-01 1.24486E-03-5.75507E-02-2.44221E-06-3.86810E-07
 -1      7176 2.46653E-01-1.07593E-01 1.38392E-03-5.75508E-02-6.73972E-08-1.06758E-08
 -1      7177 2.46680E-01-1.07566E-01 1.44792E-03-5.75508E-02 1.82414E-07 2.88911E-08
 -1      7178 2.46680E-01-1.07566E-01 1.44792E-03-5.75508E-02-1.82414E-07-2.88911E-08
 -1      7179 2.46653E-01-1.07593E-01 1.38392E-03-5.75508E-02 6.73971E-08 1.06758E-08
 -1      7180 2.46593E-01-1.07653E-01 1.24486E-03-5.75507E-02 2.44221E-06 3.86810E-07
 -1      7181 2.46490E-01-1.07755E-01 1.00477E-03-5.75507E-02 9.05608E-06 1.43434E-06
 -1      7182 2.46318E-01-1.07927E-01 6.05727E-04-5.75506E-02 2.43255E-05 3.85278E-06
 -1      7183-9.42659E-02 2.32218E-01 5.34309E-04-5.30405E-02-3.68111E-06-2.32416E-05
 -1      7184-9.41126E-02 2.32371E-01 8.90659E-04-5.30405E-02-1.47934E-06-9.34019E-06
 -1      7185-9.40195E-02 2.32465E-01 1.10819E-03-5.30406E-02-4.78265E-07-3.01964E-06
 -1      7186-9.39652E-02 2.32519E-01 1.23549E-03-5.30406E-02-8.36285E-08-5.28010E-07
 -1      7187-9.39400E-02 2.32544E-01 1.29446E-03-5.30406E-02 2.30721E-09 1.45670E-08
 -1      7188-9.39400E-02 2.32544E-01 1.29446E-03-5.30406E-02-2.30720E-09-1.45670E-08
 -1      7189-9.39652E-02 2.32519E-01 1.23549E-03-5.30406E-02 8.36285E-08 5.28010E-07
 -1      7190-9.40195E-02 2.32465E-01 1.10819E-03-5.30406E-02 4.78265E-07 3.01964E-06
 -1      7191-9.41126E-02 2.32371E-01 8.90659E-04-5.30405E-02 1.47934E-06 9.34019E-06
 -1      7192-9.42659E-02 2.32218E-01 5.34309E-04-5.30405E-02 3.68111E-06 2.32416E-05
 -1      7193-6.98859E-02 2.07838E-01 5.34309E-04-1.00889E-01-7.27157E-06-2.23796E-05
 -1      7194-6.97325E-02 2.07991E-01 8.90659E-04-1.00889E-01-2.92226E-06-8.99378E-06
 -1      7195-6.96394E-02 2.08085E-01 1.10819E-03-1.00889E-01-9.44753E-07-2.90765E-06
 -1      7196-6.95851E-02 2.08139E-01 1.23549E-03-1.00889E-01-1.65198E-07-5.08427E-07
 -1      7197-6.95600E-02 2.08164E-01 1.29446E-03-1.00889E-01 4.55756E-09 1.40268E-08
 -1      7198-6.95600E-02 2.08164E-01 1.29446E-03-1.00889E-01-4.55759E-09-1.40268E-08
 -1      7199-6.95851E-02 2.08139E-01 1.23549E-03-1.00889E-01 1.65198E-07 5.08427E-07
 -1      7200-6.96394E-02 2.08085E-01 1.10819E-03-1.00889E-01 9.44753E-07 2.90765E-06
 -1      7201-6.97325E-02 2.07991E-01 8.90659E-04-1.00889E-01 2.92226E-06 8.99378E-06
 -1      7202-6.98859E-02 2.07838E-01 5.34309E-04-1.00889E-01 7.27157E-06 2.23796E-05
 -1      7203-3.19131E-02 1.69865E-01 5.34309E-04-1.38862E-01-1.06830E-05-2.09665E-05
 -1      7204-3.17597E-02 1.70018E-01 8.90659E-04-1.38862E-01-4.29322E-06-8.42591E-06
 -1      7205-3.16666E-02 1.70112E-01 1.10819E-03-1.38862E-01-1.38798E-06-2.72406E-06
 -1      7206-3.16122E-02 1.70166E-01 1.23549E-03-1.38862E-01-2.42700E-07-4.76324E-07
 -1      7207-3.15871E-02 1.70191E-01 1.29446E-03-1.38862E-01 6.69569E-09 1.31411E-08
 -1      7208-3.15871E-02 1.70191E-01 1.29446E-03-1.38862E-01-6.69567E-09-1.31412E-08
 -1      7209-3.16122E-02 1.70166E-01 1.23549E-03-1.38862E-01 2.42700E-07 4.76325E-07
 -1      7210-3.16666E-02 1.70112E-01 1.10819E-03-1.38862E-01 1.38798E-06 2.72406E-06
 -1      7211-3.17597E-02 1.70018E-01 8.90659E-04-1.38862E-01 4.29322E-06 8.42591E-06
 -1      7212-3.19131E-02 1.69865E-01 5.34309E-04-1.38862E-01 1.06830E-05 2.09665E-05
 -1      7213 1.59354E-02 1.22016E-01 5.34309E-04-1.63242E-01-1.38313E-05-1.90372E-05
 -1      7214 1.60888E-02 1.22170E-01 8.90659E-04-1.63242E-01-5.55846E-06-7.65057E-06
 -1      7215 1.61820E-02 1.22263E-01 1.10819E-03-1.63242E-01-1.79703E-06-2.47340E-06
 -1      7216 1.62364E-02 1.22318E-01 1.23549E-03-1.63242E-01-3.14225E-07-4.32493E-07
 -1      7217 1.62616E-02 1.22343E-01 1.29446E-03-1.63242E-01 8.66899E-09 1.19319E-08
 -1      7218 1.62616E-02 1.22343E-01 1.29446E-03-1.63242E-01-8.66900E-09-1.19320E-08
 -1      7219 1.62364E-02 1.22318E-01 1.23549E-03-1.63242E-01 3.14225E-07 4.32493E-07
 -1      7220 1.61820E-02 1.22263E-01 1.10819E-03-1.63242E-01 1.79703E-06 2.47340E-06
 -1      7221 1.60888E-02 1.22170E-01 8.90659E-04-1.63242E-01 5.55846E-06 7.65057E-06
 -1      7222 1.59354E-02 1.22016E-01 5.34309E-04-1.63242E-01 1.38313E-05 1.90372E-05
 -1      7223 6.89759E-02 6.89759E-02 5.34309E-04-1.71643E-01-1.66391E-05-1.66391E-05
 -1      7224 6.91293E-02 6.91293E-02 8.90659E-04-1.71643E-01-6.68684E-06-6.68684E-06
 -1      7225 6.92226E-02 6.92226E-02 1.10819E-03-1.71643E-01-2.16183E-06-2.16183E-06
 -1      7226 6.92770E-02 6.92770E-02 1.23549E-03-1.71643E-01-3.78013E-07-3.78014E-07
 -1      7227 6.93022E-02 6.93022E-02 1.29446E-03-1.71643E-01 1.04291E-08 1.04287E-08
 -1      7228 6.93022E-02 6.93022E-02 1.29446E-03-1.71643E-01-1.04291E-08-1.04287E-08
 -1      7229 6.92770E-02 6.92770E-02 1.23549E-03-1.71643E-01 3.78013E-07 3.78014E-07
 -1      7230 6.92226E-02 6.92226E-02 1.10819E-03-1.71643E-01 2.16183E-06 2.16183E-06
 -1      7231 6.91293E-02 6.91293E-02 8.90659E-04-1.71643E-01 6.68684E-06 6.68684E-06
 -1      7232 6.89759E-02 6.89759E-02 5.34309E-04-1.71643E-01 1.66391E-05 1.66391E-05
 -1      7233 1.22016E-01 1.59354E-02 5.34309E-04-1.63242E-01-1.90372E-05-1.38313E-05
 -1      7234 1.22170E-01 1.60888E-02 8.90659E-04-1.63242E-01-7.65057E-06-5.55846E-06
 -1      7235 1.22263E-01 1.61820E-02 1.10819E-03-1.63242E-01-2.47340E-06-1.79703E-06
 -1      7236 1.22318E-01 1.62364E-02 1.23549E-03-1.63242E-01-4.32494E-07-3.14225E-07
 -1      7237 1.22343E-01 1.62616E-02 1.29446E-03-1.63242E-01 1.19318E-08 8.66895E-09
 -1      7238 1.22343E-01 1.62616E-02 1.29446E-03-1.63242E-01-1.19319E-08-8.66890E-09
 -1      7239 1.22318E-01 1.62364E-02 1.23549E-03-1.63242E-01 4.32494E-07 3.14225E-07
 -1      7240 1.22263E-01 1.61820E-02 1.10819E-03-1.63242E-01 2.47340E-06 1.79703E-06
 -1      7241 1.22170E-01 1.60888E-02 8.90659E-04-1.63242E-01 7.65057E-06 5.55846E-06
 -1      7242 1.22016E-01 1.59354E-02 5.34309E-04-1.63242E-01 1.90372E-05 1.38313E-05
 -1      7243 1.69865E-01-3.19131E-02 5.34309E-04-1.38862E-01-2.09665E-05-1.06830E-05
 -1      7244 1.70018E-01-3.17597E-02 8.90659E-04-1.38862E-01-8.42591E-06-4.29321E-06
 -1      7245 1.70112E-01-3.16666E-02 1.10819E-03-1.38862E-01-2.72406E-06-1.38798E-06
 -1      7246 1.70166E-01-3.16122E-02 1.23549E-03-1.38862E-01-4.76325E-07-2.42699E-07
 -1      7247 1.70191E-01-3.15871E-02 1.29446E-03-1.38862E-01 1.31409E-08 6.69605E-09
 -1      7248 1.70191E-01-3.15871E-02 1.29446E-03-1.38862E-01-1.31409E-08-6.69602E-09
 -1      7249 1.70166E-01-3.16122E-02 1.23549E-03-1.38862E-01 4.76325E-07 2.42699E-07
 -1      7250 1.70112E-01-3.16666E-02 1.10819E-03-1.38862E-01 2.72406E-06 1.38798E-06
 -1      7251 1.70018E-01-3.17597E-02 8.90659E-04-1.38862E-01 8.42591E-06 4.29321E-06
 -1      7252 1.69865E-01-3.19131E-02 5.34309E-04-1.38862E-01 2.09665E-05 1.06830E-05
 -1      7253 2.07838E-01-6.98859E-02 5.34309E-04-1.00889E-01-2.23796E-05-7.27157E-06
 -1      7254 2.07991E-01-6.97325E-02 8.90659E-04-1.00889E-01-8.99378E-06-2.92226E-06
 -1      7255 2.08085E-01-6.96394E-02 1.10819E-03-1.00889E-01-2.90765E-06-9.44753E-07
 -1      7256 2.08139E-01-6.95851E-02 1.23549E-03-1.00889E-01-5.08427E-07-1.65198E-07
 -1      7257 2.08164E-01-6.95600E-02 1.29446E-03-1.00889E-01 1.40268E-08 4.55760E-09
 -1      7258 2.08164E-01-6.95600E-02 1.29446E-03-1.00889E-01-1.40268E-08-4.55763E-09
 -1      7259 2.08139E-01-6.95851E-02 1.23549E-03-1.00889E-01 5.08426E-07 1.65198E-07
 -1      7260 2.08085E-01-6.96394E-02 1.10819E-03-1.00889E-01 2.90765E-06 9.44753E-07
 -1      7261 2.07991E-01-6.97325E-02 8.90659E-04-1.00889E-01 8.99378E-06 2.92226E-06
 -1      7262 2.07838E-01-6.98859E-02 5.34309E-04-1.00889E-01 2.23796E-05 7.27157E-06
 -1      7263 2.32218E-01-9.42659E-02 5.34309E-04-5.30405E-02-2.32416E-05-3.68111E-06
 -1      7264 2.32371E-01-9.41126E-02 8.90659E-04-5.30405E-02-9.34019E-06-1.47934E-06
 -1      7265 2.32465E-01-9.40195E-02 1.10819E-03-5.30406E-02-3.01964E-06-4.78267E-07
 -1      7266 2.32519E-01-9.39652E-02 1.23549E-03-5.30406E-02-5.28010E-07-8.36299E-08
 -1      7267 2.32544E-01-9.39400E-02 1.29446E-03-5.30406E-02 1.45671E-08 2.30670E-09
 -1      7268 2.32544E-01-9.39400E-02 1.29446E-03-5.30406E-02-1.45671E-08-2.30672E-09
 -1      7269 2.32519E-01-9.39652E-02 1.23549E-03-5.30406E-02 5.28009E-07 8.36299E-08
 -1      7270 2.32465E-01-9.40195E-02 1.10819E-03-5.30406E-02 3.01964E-06 4.78267E-07
 -1      7271 2.32371E-01-9.41126E-02 8.90659E-04-5.30405E-02 9.34019E-06 1.47934E-06
 -1      7272 2.32218E-01-9.42659E-02 5.34309E-04-5.30405E-02 2.32416E-05 3.68111E-06
 -1      7273-8.21472E-02 2.19714E-01 4.73325E-04-4.90404E-02-3.51356E-06-2.21837E-05
 -1      7274-8.20097E-02 2.19852E-01 7.92565E-04-4.90404E-02-1.50594E-06-9.50811E-06
 -1      7275-8.19252E-02 2.19937E-01 9.89995E-04-4.90405E-02-5.52095E-07-3.48579E-06
 -1      7276-8.18754E-02 2.19987E-01 1.10660E-03-4.90405E-02-1.45154E-07-9.16465E-07
 -1      7277-8.18522E-02 2.20010E-01 1.16092E-03-4.90405E-02-2.04561E-08-1.29155E-07
 -1      7278-8.18522E-02 2.20010E-01 1.16092E-03-4.90405E-02 2.04561E-08 1.29155E-07
 -1      7279-8.18754E-02 2.19987E-01 1.10660E-03-4.90405E-02 1.45154E-07 9.16465E-07
 -1      7280-8.19252E-02 2.19937E-01 9.89995E-04-4.90405E-02 5.52095E-07 3.48579E-06
 -1      7281-8.20097E-02 2.19852E-01 7.92565E-04-4.90404E-02 1.50594E-06 9.50811E-06
 -1      7282-8.21472E-02 2.19714E-01 4.73325E-04-4.90404E-02 3.51356E-06 2.21837E-05
 -1      7283-5.96058E-02 1.97173E-01 4.73325E-04-9.32804E-02-6.94060E-06-2.13610E-05
 -1      7284-5.94683E-02 1.97311E-01 7.92565E-04-9.32804E-02-2.97479E-06-9.15547E-06
 -1      7285-5.93837E-02 1.97396E-01 9.89995E-04-9.32805E-02-1.09060E-06-3.35651E-06
 -1      7286-5.93339E-02 1.97445E-01 1.10660E-03-9.32806E-02-2.86733E-07-8.82475E-07
 -1      7287-5.93108E-02 1.97469E-01 1.16092E-03-9.32806E-02-4.04085E-08-1.24365E-07
 -1      7288-5.93108E-02 1.97469E-01 1.16092E-03-9.32806E-02 4.04085E-08 1.24365E-07
 -1      7289-5.93339E-02 1.97445E-01 1.10660E-03-9.32806E-02 2.86733E-07 8.82475E-07
 -1      7290-5.93837E-02 1.97396E-01 9.89995E-04-9.32805E-02 1.09060E-06 3.35651E-06
 -1      7291-5.94683E-02 1.97311E-01 7.92565E-04-9.32804E-02 2.97479E-06 9.15547E-06
 -1      7292-5.96058E-02 1.97173E-01 4.73325E-04-9.32804E-02 6.94060E-06 2.13610E-05
 -1      7293-2.44967E-02 1.62064E-01 4.73325E-04-1.28389E-01-1.01967E-05-2.00122E-05
 -1      7294-2.43592E-02 1.62202E-01 7.92565E-04-1.28390E-01-4.37040E-06-8.57739E-06
 -1      7295-2.42746E-02 1.62286E-01 9.89995E-04-1.28390E-01-1.60224E-06-3.14458E-06
 -1      7296-2.42248E-02 1.62336E-01 1.10660E-03-1.28390E-01-4.21253E-07-8.26755E-07
 -1      7297-2.42016E-02 1.62360E-01 1.16092E-03-1.28390E-01-5.93660E-08-1.16512E-07
 -1      7298-2.42016E-02 1.62360E-01 1.16092E-03-1.28390E-01 5.93660E-08 1.16512E-07
 -1      7299-2.42248E-02 1.62336E-01 1.10660E-03-1.28390E-01 4.21253E-07 8.26755E-07
 -1      7300-2.42746E-02 1.62286E-01 9.89995E-04-1.28390E-01 1.60224E-06 3.14458E-06
 -1      7301-2.43592E-02 1.62202E-01 7.92565E-04-1.28390E-01 4.37040E-06 8.57739E-06
 -1      7302-2.44967E-02 1.62064E-01 4.73325E-04-1.28389E-01 1.01967E-05 2.00122E-05
 -1      7303 1.97433E-02 1.17824E-01 4.73325E-04-1.50931E-01-1.32018E-05-1.81707E-05
 -1      7304 1.98808E-02 1.17962E-01 7.92565E-04-1.50931E-01-5.65839E-06-7.78811E-06
 -1      7305 1.99654E-02 1.18046E-01 9.89995E-04-1.50931E-01-2.07444E-06-2.85522E-06
 -1      7306 2.00153E-02 1.18096E-01 1.10660E-03-1.50931E-01-5.45400E-07-7.50678E-07
 -1      7307 2.00385E-02 1.18120E-01 1.16092E-03-1.50931E-01-7.68616E-08-1.05791E-07
 -1      7308 2.00385E-02 1.18120E-01 1.16092E-03-1.50931E-01 7.68616E-08 1.05791E-07
 -1      7309 2.00153E-02 1.18096E-01 1.10660E-03-1.50931E-01 5.45400E-07 7.50678E-07
 -1      7310 1.99654E-02 1.18046E-01 9.89995E-04-1.50931E-01 2.07444E-06 2.85522E-06
 -1      7311 1.98808E-02 1.17962E-01 7.92565E-04-1.50931E-01 5.65839E-06 7.78811E-06
 -1      7312 1.97433E-02 1.17824E-01 4.73325E-04-1.50931E-01 1.32018E-05 1.81707E-05
 -1      7313 6.87836E-02 6.87836E-02 4.73325E-04-1.58698E-01-1.58818E-05-1.58818E-05
 -1      7314 6.89212E-02 6.89212E-02 7.92565E-04-1.58698E-01-6.80706E-06-6.80706E-06
 -1      7315 6.90059E-02 6.90059E-02 9.89995E-04-1.58698E-01-2.49555E-06-2.49555E-06
 -1      7316 6.90558E-02 6.90558E-02 1.10660E-03-1.58698E-01-6.56116E-07-6.56117E-07
 -1      7317 6.90790E-02 6.90790E-02 1.16092E-03-1.58698E-01-9.24643E-08-9.24648E-08
 -1      7318 6.90790E-02 6.90790E-02 1.16092E-03-1.58698E-01 9.24643E-08 9.24648E-08
 -1      7319 6.90558E-02 6.90558E-02 1.10660E-03-1.58698E-01 6.56116E-07 6.56117E-07
 -1      7320 6.90059E-02 6.90059E-02 9.89995E-04-1.58698E-01 2.49555E-06 2.49555E-06
 -1      7321 6.89212E-02 6.89212E-02 7.92565E-04-1.58698E-01 6.80706E-06 6.80706E-06
 -1      7322 6.87836E-02 6.87836E-02 4.73325E-04-1.58698E-01 1.58818E-05 1.58818E-05
 -1      7323 1.17824E-01 1.97433E-02 4.73325E-04-1.50931E-01-1.81707E-05-1.32018E-05
 -1      7324 1.17962E-01 1.98808E-02 7.92565E-04-1.50931E-01-7.78811E-06-5.65839E-06
 -1      7325 1.18046E-01 1.99654E-02 9.89995E-04-1.50931E-01-2.85522E-06-2.07444E-06
 -1      7326 1.18096E-01 2.00153E-02 1.10660E-03-1.50931E-01-7.50678E-07-5.45400E-07
 -1      7327 1.18120E-01 2.00385E-02 1.16092E-03-1.50931E-01-1.05791E-07-7.68617E-08
 -1      7328 1.18120E-01 2.00385E-02 1.16092E-03-1.50931E-01 1.05791E-07 7.68617E-08
 -1      7329 1.18096E-01 2.00153E-02 1.10660E-03-1.50931E-01 7.50678E-07 5.45400E-07
 -1      7330 1.18046E-01 1.99654E-02 9.89995E-04-1.50931E-01 2.85522E-06 2.07444E-06
 -1      7331 1.17962E-01 1.98808E-02 7.92565E-04-1.50931E-01 7.78811E-06 5.65839E-06
 -1      7332 1.17824E-01 1.97433E-02 4.73325E-04-1.50931E-01 1.81707E-05 1.32018E-05
 -1      7333 1.62064E-01-2.44967E-02 4.73325E-04-1.28389E-01-2.00122E-05-1.01967E-05
 -1      7334 1.62202E-01-2.43592E-02 7.92565E-04-1.28390E-01-8.57740E-06-4.37040E-06
 -1      7335 1.62286E-01-2.42746E-02 9.89995E-04-1.28390E-01-3.14458E-06-1.60224E-06
 -1      7336 1.62336E-01-2.42248E-02 1.10660E-03-1.28390E-01-8.26756E-07-4.21252E-07
 -1      7337 1.62360E-01-2.42016E-02 1.16092E-03-1.28390E-01-1.16512E-07-5.93655E-08
 -1      7338 1.62360E-01-2.42016E-02 1.16092E-03-1.28390E-01 1.16512E-07 5.93656E-08
 -1      7339 1.62336E-01-2.42248E-02 1.10660E-03-1.28390E-01 8.26756E-07 4.21252E-07
 -1      7340 1.62286E-01-2.42746E-02 9.89995E-04-1.28390E-01 3.14458E-06 1.60224E-06
 -1      7341 1.62202E-01-2.43592E-02 7.92565E-04-1.28390E-01 8.57740E-06 4.37040E-06
 -1      7342 1.62064E-01-2.44967E-02 4.73325E-04-1.28389E-01 2.00122E-05 1.01967E-05
 -1      7343 1.97173E-01-5.96058E-02 4.73325E-04-9.32804E-02-2.13610E-05-6.94060E-06
 -1      7344 1.97311E-01-5.94683E-02 7.92565E-04-9.32804E-02-9.15547E-06-2.97479E-06
 -1      7345 1.97396E-01-5.93837E-02 9.89995E-04-9.32805E-02-3.35651E-06-1.09060E-06
 -1      7346 1.97445E-01-5.93339E-02 1.10660E-03-9.32806E-02-8.82475E-07-2.86733E-07
 -1      7347 1.97469E-01-5.93108E-02 1.16092E-03-9.32806E-02-1.24365E-07-4.04084E-08
 -1      7348 1.97469E-01-5.93108E-02 1.16092E-03-9.32806E-02 1.24364E-07 4.04084E-08
 -1      7349 1.97445E-01-5.93339E-02 1.10660E-03-9.32806E-02 8.82475E-07 2.86733E-07
 -1      7350 1.97396E-01-5.93837E-02 9.89995E-04-9.32805E-02 3.35651E-06 1.09060E-06
 -1      7351 1.97311E-01-5.94683E-02 7.92565E-04-9.32804E-02 9.15547E-06 2.97479E-06
 -1      7352 1.97173E-01-5.96058E-02 4.73325E-04-9.32804E-02 2.13610E-05 6.94060E-06
 -1      7353 2.19714E-01-8.21472E-02 4.73325E-04-4.90404E-02-2.21837E-05-3.51356E-06
 -1      7354 2.19852E-01-8.20097E-02 7.92565E-04-4.90404E-02-9.50811E-06-1.50594E-06
 -1      7355 2.19937E-01-8.19252E-02 9.89995E-04-4.90405E-02-3.48579E-06-5.52098E-07
 -1      7356 2.19987E-01-8.18754E-02 1.10660E-03-4.90405E-02-9.16465E-07-1.45156E-07
 -1      7357 2.20010E-01-8.18522E-02 1.16092E-03-4.90405E-02-1.29155E-07-2.04567E-08
 -1      7358 2.20010E-01-8.18522E-02 1.16092E-03-4.90405E-02 1.29155E-07 2.04567E-08
 -1      7359 2.19987E-01-8.18754E-02 1.10660E-03-4.90405E-02 9.16465E-07 1.45156E-07
 -1      7360 2.19937E-01-8.19252E-02 9.89995E-04-4.90405E-02 3.48579E-06 5.52098E-07
 -1      7361 2.19852E-01-8.20097E-02 7.92565E-04-4.90404E-02 9.50811E-06 1.50594E-06
 -1      7362 2.19714E-01-8.21472E-02 4.73325E-04-4.90404E-02 2.21837E-05 3.51356E-06
 -1      7363-7.13471E-02 2.08576E-01 4.20947E-04-4.54763E-02-3.35108E-06-2.11579E-05
 -1      7364-7.12236E-02 2.08700E-01 7.07784E-04-4.54763E-02-1.51755E-06-9.58141E-06
 -1      7365-7.11467E-02 2.08777E-01 8.87266E-04-4.54763E-02-6.10698E-07-3.85580E-06
 -1      7366-7.11010E-02 2.08823E-01 9.94149E-04-4.54764E-02-1.96526E-07-1.24081E-06
 -1      7367-7.10797E-02 2.08844E-01 1.04420E-03-4.54764E-02-3.97724E-08-2.51113E-07
 -1      7368-7.10797E-02 2.08844E-01 1.04420E-03-4.54764E-02 3.97724E-08 2.51113E-07
 -1      7369-7.11010E-02 2.08823E-01 9.94149E-04-4.54764E-02 1.96526E-07 1.24081E-06
 -1      7370-7.11467E-02 2.08777E-01 8.87266E-04-4.54763E-02 6.10698E-07 3.85580E-06
 -1      7371-7.12236E-02 2.08700E-01 7.07784E-04-4.54763E-02 1.51755E-06 9.58141E-06
 -1      7372-7.13471E-02 2.08576E-01 4.20947E-04-4.54763E-02 3.35108E-06 2.11579E-05
 -1      7373-5.04440E-02 1.87673E-01 4.20947E-04-8.65010E-02-6.61964E-06-2.03732E-05
 -1      7374-5.03204E-02 1.87797E-01 7.07784E-04-8.65011E-02-2.99772E-06-9.22605E-06
 -1      7375-5.02435E-02 1.87874E-01 8.87266E-04-8.65012E-02-1.20636E-06-3.71279E-06
 -1      7376-5.01978E-02 1.87920E-01 9.94149E-04-8.65012E-02-3.88212E-07-1.19479E-06
 -1      7377-5.01765E-02 1.87941E-01 1.04420E-03-8.65012E-02-7.85655E-08-2.41800E-07
 -1      7378-5.01765E-02 1.87941E-01 1.04420E-03-8.65012E-02 7.85655E-08 2.41800E-07
 -1      7379-5.01978E-02 1.87920E-01 9.94149E-04-8.65012E-02 3.88212E-07 1.19479E-06
 -1      7380-5.02435E-02 1.87874E-01 8.87266E-04-8.65012E-02 1.20636E-06 3.71279E-06
 -1      7381-5.03204E-02 1.87797E-01 7.07784E-04-8.65011E-02 2.99772E-06 9.22605E-06
 -1      7382-5.04440E-02 1.87673E-01 4.20947E-04-8.65010E-02 6.61964E-06 2.03732E-05
 -1      7383-1.78866E-02 1.55115E-01 4.20947E-04-1.19058E-01-9.72521E-06-1.90868E-05
 -1      7384-1.77630E-02 1.55239E-01 7.07784E-04-1.19059E-01-4.40409E-06-8.64351E-06
 -1      7385-1.76860E-02 1.55316E-01 8.87266E-04-1.19059E-01-1.77231E-06-3.47836E-06
 -1      7386-1.76403E-02 1.55362E-01 9.94149E-04-1.19059E-01-5.70340E-07-1.11935E-06
 -1      7387-1.76190E-02 1.55384E-01 1.04420E-03-1.19059E-01-1.15424E-07-2.26533E-07
 -1      7388-1.76190E-02 1.55384E-01 1.04420E-03-1.19059E-01 1.15424E-07 2.26533E-07
 -1      7389-1.76403E-02 1.55362E-01 9.94149E-04-1.19059E-01 5.70340E-07 1.11935E-06
 -1      7390-1.76860E-02 1.55316E-01 8.87266E-04-1.19059E-01 1.77231E-06 3.47836E-06
 -1      7391-1.77630E-02 1.55239E-01 7.07784E-04-1.19059E-01 4.40409E-06 8.64351E-06
 -1      7392-1.78866E-02 1.55115E-01 4.20947E-04-1.19058E-01 9.72521E-06 1.90868E-05
 -1      7393 2.31382E-02 1.14091E-01 4.20947E-04-1.39962E-01-1.25913E-05-1.73304E-05
 -1      7394 2.32618E-02 1.14214E-01 7.07784E-04-1.39962E-01-5.70201E-06-7.84815E-06
 -1      7395 2.33388E-02 1.14291E-01 8.87266E-04-1.39962E-01-2.29463E-06-3.15829E-06
 -1      7396 2.33845E-02 1.14337E-01 9.94149E-04-1.39962E-01-7.38424E-07-1.01635E-06
 -1      7397 2.34059E-02 1.14359E-01 1.04420E-03-1.39962E-01-1.49441E-07-2.05687E-07
 -1      7398 2.34059E-02 1.14359E-01 1.04420E-03-1.39962E-01 1.49441E-07 2.05687E-07
 -1      7399 2.33845E-02 1.14337E-01 9.94149E-04-1.39962E-01 7.38424E-07 1.01635E-06
 -1      7400 2.33388E-02 1.14291E-01 8.87266E-04-1.39962E-01 2.29463E-06 3.15829E-06
 -1      7401 2.32618E-02 1.14214E-01 7.07784E-04-1.39962E-01 5.70201E-06 7.84815E-06
 -1      7402 2.31382E-02 1.14091E-01 4.20947E-04-1.39962E-01 1.25913E-05 1.73304E-05
 -1      7403 6.86145E-02 6.86145E-02 4.20947E-04-1.47164E-01-1.51474E-05-1.51474E-05
 -1      7404 6.87381E-02 6.87381E-02 7.07784E-04-1.47164E-01-6.85953E-06-6.85953E-06
 -1      7405 6.88151E-02 6.88151E-02 8.87266E-04-1.47165E-01-2.76044E-06-2.76045E-06
 -1      7406 6.88609E-02 6.88609E-02 9.94149E-04-1.47165E-01-8.88324E-07-8.88325E-07
 -1      7407 6.88823E-02 6.88823E-02 1.04420E-03-1.47165E-01-1.79777E-07-1.79778E-07
 -1      7408 6.88823E-02 6.88823E-02 1.04420E-03-1.47165E-01 1.79777E-07 1.79778E-07
 -1      7409 6.88609E-02 6.88609E-02 9.94149E-04-1.47165E-01 8.88324E-07 8.88325E-07
 -1      7410 6.88151E-02 6.88151E-02 8.87266E-04-1.47165E-01 2.76044E-06 2.76045E-06
 -1      7411 6.87381E-02 6.87381E-02 7.07784E-04-1.47164E-01 6.85953E-06 6.85953E-06
 -1      7412 6.86145E-02 6.86145E-02 4.20947E-04-1.47164E-01 1.51474E-05 1.51474E-05
 -1      7413 1.14091E-01 2.31382E-02 4.20947E-04-1.39962E-01-1.73304E-05-1.25913E-05
 -1      7414 1.14214E-01 2.32618E-02 7.07784E-04-1.39962E-01-7.84815E-06-5.70201E-06
 -1      7415 1.14291E-01 2.33388E-02 8.87266E-04-1.39962E-01-3.15829E-06-2.29463E-06
 -1      7416 1.14337E-01 2.33845E-02 9.94149E-04-1.39962E-01-1.01635E-06-7.38424E-07
 -1      7417 1.14359E-01 2.34059E-02 1.04420E-03-1.39962E-01-2.05687E-07-1.49441E-07
 -1      7418 1.14359E-01 2.34059E-02 1.04420E-03-1.39962E-01 2.05687E-07 1.49441E-07
 -1      7419 1.14337E-01 2.33845E-02 9.94149E-04-1.39962E-01 1.01635E-06 7.38424E-07
 -1      7420 1.14291E-01 2.33388E-02 8.87266E-04-1.39962E-01 3.15829E-06 2.29463E-06
 -1      7421 1.14214E-01 2.32618E-02 7.07784E-04-1.39962E-01 7.84815E-06 5.70201E-06
 -1      7422 1.14091E-01 2.31382E-02 4.20947E-04-1.39962E-01 1.73304E-05 1.25913E-05
 -1      7423 1.55115E-01-1.78866E-02 4.20947E-04-1.19058E-01-1.90868E-05-9.72521E-06
 -1      7424 1.55239E-01-1.77630E-02 7.07784E-04-1.19059E-01-8.64351E-06-4.40409E-06
 -1      7425 1.55316E-01-1.76860E-02 8.87266E-04-1.19059E-01-3.47836E-06-1.77231E-06
 -1      7426 1.55362E-01-1.76403E-02 9.94149E-04-1.19059E-01-1.11936E-06-5.70338E-07
 -1      7427 1.55384E-01-1.76190E-02 1.04420E-03-1.19059E-01-2.26533E-07-1.15424E-07
 -1      7428 1.55384E-01-1.76190E-02 1.04420E-03-1.19059E-01 2.26533E-07 1.15424E-07
 -1      7429 1.55362E-01-1.76403E-02 9.94149E-04-1.19059E-01 1.11936E-06 5.70338E-07
 -1      7430 1.55316E-01-1.76860E-02 8.87266E-04-1.19059E-01 3.47836E-06 1.77231E-06
 -1      7431 1.55239E-01-1.77630E-02 7.07784E-04-1.19059E-01 8.64351E-06 4.40409E-06
 -1      7432 1.55115E-01-1.78866E-02 4.20947E-04-1.19058E-01 1.90868E-05 9.72521E-06
 -1      7433 1.87673E-01-5.04440E-02 4.20947E-04-8.65010E-02-2.03732E-05-6.61964E-06
 -1      7434 1.87797E-01-5.03204E-02 7.07784E-04-8.65011E-02-9.22605E-06-2.99772E-06
 -1      7435 1.87874E-01-5.02435E-02 8.87266E-04-8.65012E-02-3.71279E-06-1.20636E-06
 -1      7436 1.87920E-01-5.01978E-02 9.94149E-04-8.65012E-02-1.19479E-06-3.88212E-07
 -1      7437 1.87941E-01-5.01765E-02 1.04420E-03-8.65012E-02-2.41800E-07-7.85655E-08
 -1      7438 1.87941E-01-5.01765E-02 1.04420E-03-8.65012E-02 2.41800E-07 7.85655E-08
 -1      7439 1.87920E-01-5.01978E-02 9.94149E-04-8.65012E-02 1.19479E-06 3.88212E-07
 -1      7440 1.87874E-01-5.02435E-02 8.87266E-04-8.65012E-02 3.71279E-06 1.20636E-06
 -1      7441 1.87797E-01-5.03204E-02 7.07784E-04-8.65011E-02 9.22605E-06 2.99772E-06
 -1      7442 1.87673E-01-5.04440E-02 4.20947E-04-8.65010E-02 2.03732E-05 6.61964E-06
 -1      7443 2.08576E-01-7.13471E-02 4.20947E-04-4.54763E-02-2.11579E-05-3.35108E-06
 -1      7444 2.08700E-01-7.12236E-02 7.07784E-04-4.54763E-02-9.58141E-06-1.51755E-06
 -1      7445 2.08777E-01-7.11467E-02 8.87266E-04-4.54763E-02-3.85579E-06-6.10701E-07
 -1      7446 2.08823E-01-7.11010E-02 9.94149E-04-4.54764E-02-1.24081E-06-1.96528E-07
 -1      7447 2.08844E-01-7.10797E-02 1.04420E-03-4.54764E-02-2.51113E-07-3.97732E-08
 -1      7448 2.08844E-01-7.10797E-02 1.04420E-03-4.54764E-02 2.51113E-07 3.97732E-08
 -1      7449 2.08823E-01-7.11010E-02 9.94149E-04-4.54764E-02 1.24081E-06 1.96528E-07
 -1      7450 2.08777E-01-7.11467E-02 8.87266E-04-4.54763E-02 3.85579E-06 6.10701E-07
 -1      7451 2.08700E-01-7.12236E-02 7.07784E-04-4.54763E-02 9.58141E-06 1.51755E-06
 -1      7452 2.08576E-01-7.13471E-02 4.20947E-04-4.54763E-02 2.11579E-05 3.35108E-06
 -1      7453-6.16813E-02 1.98611E-01 3.75716E-04-4.22870E-02-3.19430E-06-2.01680E-05
 -1      7454-6.15699E-02 1.98722E-01 6.34147E-04-4.22870E-02-1.51704E-06-9.57824E-06
 -1      7455-6.14998E-02 1.98793E-01 7.97575E-04-4.22871E-02-6.56251E-07-4.14340E-06
 -1      7456-6.14579E-02 1.98835E-01 8.95623E-04-4.22871E-02-2.38969E-07-1.50879E-06
 -1      7457-6.14382E-02 1.98854E-01 9.41741E-04-4.22871E-02-5.60174E-08-3.53680E-07
 -1      7458-6.14382E-02 1.98854E-01 9.41741E-04-4.22871E-02 5.60174E-08 3.53680E-07
 -1      7459-6.14579E-02 1.98835E-01 8.95623E-04-4.22871E-02 2.38969E-07 1.50879E-06
 -1      7460-6.14998E-02 1.98793E-01 7.97575E-04-4.22871E-02 6.56251E-07 4.14340E-06
 -1      7461-6.15699E-02 1.98722E-01 6.34147E-04-4.22870E-02 1.51704E-06 9.57825E-06
 -1      7462-6.16813E-02 1.98611E-01 3.75716E-04-4.22870E-02 3.19430E-06 2.01680E-05
 -1      7463-4.22441E-02 1.79174E-01 3.75716E-04-8.04347E-02-6.30995E-06-1.94200E-05
 -1      7464-4.21327E-02 1.79285E-01 6.34147E-04-8.04347E-02-2.99674E-06-9.22300E-06
 -1      7465-4.20626E-02 1.79355E-01 7.97575E-04-8.04348E-02-1.29634E-06-3.98973E-06
 -1      7466-4.20207E-02 1.79397E-01 8.95623E-04-8.04348E-02-4.72053E-07-1.45283E-06
 -1      7467-4.20010E-02 1.79417E-01 9.41741E-04-8.04349E-02-1.10655E-07-3.40562E-07
 -1      7468-4.20010E-02 1.79417E-01 9.41741E-04-8.04349E-02 1.10655E-07 3.40562E-07
 -1      7469-4.20207E-02 1.79397E-01 8.95623E-04-8.04348E-02 4.72053E-07 1.45283E-06
 -1      7470-4.20626E-02 1.79355E-01 7.97575E-04-8.04348E-02 1.29634E-06 3.98973E-06
 -1      7471-4.21327E-02 1.79285E-01 6.34147E-04-8.04347E-02 2.99674E-06 9.22300E-06
 -1      7472-4.22441E-02 1.79174E-01 3.75716E-04-8.04347E-02 6.30995E-06 1.94200E-05
 -1      7473-1.19699E-02 1.48899E-01 3.75716E-04-1.10709E-01-9.27023E-06-1.81938E-05
 -1      7474-1.18585E-02 1.49011E-01 6.34147E-04-1.10709E-01-4.40264E-06-8.64066E-06
 -1      7475-1.17884E-02 1.49081E-01 7.97575E-04-1.10709E-01-1.90451E-06-3.73782E-06
 -1      7476-1.17465E-02 1.49123E-01 8.95623E-04-1.10709E-01-6.93515E-07-1.36110E-06
 -1      7477-1.17268E-02 1.49143E-01 9.41741E-04-1.10709E-01-1.62569E-07-3.19059E-07
 -1      7478-1.17268E-02 1.49143E-01 9.41741E-04-1.10709E-01 1.62569E-07 3.19059E-07
 -1      7479-1.17465E-02 1.49123E-01 8.95623E-04-1.10709E-01 6.93515E-07 1.36110E-06
 -1      7480-1.17884E-02 1.49081E-01 7.97575E-04-1.10709E-01 1.90451E-06 3.73782E-06
 -1      7481-1.18585E-02 1.49011E-01 6.34147E-04-1.10709E-01 4.40264E-06 8.64066E-06
 -1      7482-1.19699E-02 1.48899E-01 3.75716E-04-1.10709E-01 9.27023E-06 1.81938E-05
 -1      7483 2.61777E-02 1.10752E-01 3.75716E-04-1.30146E-01-1.20022E-05-1.65197E-05
 -1      7484 2.62891E-02 1.10863E-01 6.34147E-04-1.30146E-01-5.70013E-06-7.84555E-06
 -1      7485 2.63593E-02 1.10933E-01 7.97575E-04-1.30146E-01-2.46579E-06-3.39387E-06
 -1      7486 2.64013E-02 1.10975E-01 8.95623E-04-1.30146E-01-8.97900E-07-1.23585E-06
 -1      7487 2.64210E-02 1.10995E-01 9.41741E-04-1.30146E-01-2.10479E-07-2.89700E-07
 -1      7488 2.64210E-02 1.10995E-01 9.41741E-04-1.30146E-01 2.10479E-07 2.89700E-07
 -1      7489 2.64013E-02 1.10975E-01 8.95623E-04-1.30146E-01 8.97900E-07 1.23585E-06
 -1      7490 2.63593E-02 1.10933E-01 7.97575E-04-1.30146E-01 2.46579E-06 3.39387E-06
 -1      7491 2.62891E-02 1.10863E-01 6.34147E-04-1.30146E-01 5.70013E-06 7.84555E-06
 -1      7492 2.61777E-02 1.10752E-01 3.75716E-04-1.30146E-01 1.20022E-05 1.65197E-05
 -1      7493 6.84647E-02 6.84647E-02 3.75716E-04-1.36844E-01-1.44387E-05-1.44387E-05
 -1      7494 6.85762E-02 6.85762E-02 6.34147E-04-1.36844E-01-6.85726E-06-6.85727E-06
 -1      7495 6.86464E-02 6.86464E-02 7.97575E-04-1.36844E-01-2.96635E-06-2.96635E-06
 -1      7496 6.86884E-02 6.86884E-02 8.95623E-04-1.36844E-01-1.08017E-06-1.08018E-06
 -1      7497 6.87081E-02 6.87081E-02 9.41741E-04-1.36844E-01-2.53206E-07-2.53207E-07
 -1      7498 6.87081E-02 6.87081E-02 9.41741E-04-1.36844E-01 2.53206E-07 2.53207E-07
 -1      7499 6.86884E-02 6.86884E-02 8.95623E-04-1.36844E-01 1.08017E-06 1.08018E-06
 -1      7500 6.86464E-02 6.86464E-02 7.97575E-04-1.36844E-01 2.96635E-06 2.96635E-06
 -1      7501 6.85762E-02 6.85762E-02 6.34147E-04-1.36844E-01 6.85726E-06 6.85727E-06
 -1      7502 6.84647E-02 6.84647E-02 3.75716E-04-1.36844E-01 1.44387E-05 1.44387E-05
 -1      7503 1.10752E-01 2.61777E-02 3.75716E-04-1.30146E-01-1.65197E-05-1.20022E-05
 -1      7504 1.10863E-01 2.62891E-02 6.34147E-04-1.30146E-01-7.84555E-06-5.70013E-06
 -1      7505 1.10933E-01 2.63593E-02 7.97575E-04-1.30146E-01-3.39387E-06-2.46579E-06
 -1      7506 1.10975E-01 2.64013E-02 8.95623E-04-1.30146E-01-1.23585E-06-8.97900E-07
 -1      7507 1.10995E-01 2.64210E-02 9.41741E-04-1.30146E-01-2.89700E-07-2.10479E-07
 -1      7508 1.10995E-01 2.64210E-02 9.41741E-04-1.30146E-01 2.89700E-07 2.10479E-07
 -1      7509 1.10975E-01 2.64013E-02 8.95623E-04-1.30146E-01 1.23585E-06 8.97900E-07
 -1      7510 1.10933E-01 2.63593E-02 7.97575E-04-1.30146E-01 3.39387E-06 2.46579E-06
 -1      7511 1.10863E-01 2.62891E-02 6.34147E-04-1.30146E-01 7.84555E-06 5.70013E-06
 -1      7512 1.10752E-01 2.61777E-02 3.75716E-04-1.30146E-01 1.65197E-05 1.20022E-05
 -1      7513 1.48899E-01-1.19699E-02 3.75716E-04-1.10709E-01-1.81938E-05-9.27022E-06
 -1      7514 1.49011E-01-1.18585E-02 6.34147E-04-1.10709E-01-8.64066E-06-4.40263E-06
 -1      7515 1.49081E-01-1.17884E-02 7.97575E-04-1.10709E-01-3.73782E-06-1.90451E-06
 -1      7516 1.49123E-01-1.17465E-02 8.95623E-04-1.10709E-01-1.36110E-06-6.93513E-07
 -1      7517 1.49143E-01-1.17268E-02 9.41741E-04-1.10709E-01-3.19059E-07-1.62568E-07
 -1      7518 1.49143E-01-1.17268E-02 9.41741E-04-1.10709E-01 3.19059E-07 1.62568E-07
 -1      7519 1.49123E-01-1.17465E-02 8.95623E-04-1.10709E-01 1.36110E-06 6.93513E-07
 -1      7520 1.49081E-01-1.17884E-02 7.97575E-04-1.10709E-01 3.73782E-06 1.90451E-06
 -1      7521 1.49011E-01-1.18585E-02 6.34147E-04-1.10709E-01 8.64066E-06 4.40263E-06
 -1      7522 1.48899E-01-1.19699E-02 3.75716E-04-1.10709E-01 1.81938E-05 9.27022E-06
 -1      7523 1.79174E-01-4.22441E-02 3.75716E-04-8.04347E-02-1.94200E-05-6.30995E-06
 -1      7524 1.79285E-01-4.21327E-02 6.34147E-04-8.04347E-02-9.22300E-06-2.99673E-06
 -1      7525 1.79355E-01-4.20626E-02 7.97575E-04-8.04348E-02-3.98973E-06-1.29634E-06
 -1      7526 1.79397E-01-4.20207E-02 8.95623E-04-8.04348E-02-1.45283E-06-4.72053E-07
 -1      7527 1.79417E-01-4.20010E-02 9.41741E-04-8.04349E-02-3.40562E-07-1.10655E-07
 -1      7528 1.79417E-01-4.20010E-02 9.41741E-04-8.04349E-02 3.40562E-07 1.10655E-07
 -1      7529 1.79397E-01-4.20207E-02 8.95623E-04-8.04348E-02 1.45283E-06 4.72053E-07
 -1      7530 1.79355E-01-4.20626E-02 7.97575E-04-8.04348E-02 3.98973E-06 1.29634E-06
 -1      7531 1.79285E-01-4.21327E-02 6.34147E-04-8.04347E-02 9.22300E-06 2.99673E-06
 -1      7532 1.79174E-01-4.22441E-02 3.75716E-04-8.04347E-02 1.94200E-05 6.30995E-06
 -1      7533 1.98611E-01-6.16813E-02 3.75716E-04-4.22870E-02-2.01680E-05-3.19431E-06
 -1      7534 1.98722E-01-6.15699E-02 6.34147E-04-4.22870E-02-9.57824E-06-1.51705E-06
 -1      7535 1.98793E-01-6.14998E-02 7.97575E-04-4.22871E-02-4.14340E-06-6.56254E-07
 -1      7536 1.98835E-01-6.14579E-02 8.95623E-04-4.22871E-02-1.50879E-06-2.38971E-07
 -1      7537 1.98854E-01-6.14382E-02 9.41741E-04-4.22871E-02-3.53680E-07-5.60182E-08
 -1      7538 1.98854E-01-6.14382E-02 9.41741E-04-4.22871E-02 3.53680E-07 5.60182E-08
 -1      7539 1.98835E-01-6.14579E-02 8.95623E-04-4.22871E-02 1.50879E-06 2.38971E-07
 -1      7540 1.98793E-01-6.14998E-02 7.97575E-04-4.22871E-02 4.14340E-06 6.56254E-07
 -1      7541 1.98722E-01-6.15699E-02 6.34147E-04-4.22870E-02 9.57824E-06 1.51705E-06
 -1      7542 1.98611E-01-6.16813E-02 3.75716E-04-4.22870E-02 2.01680E-05 3.19431E-06
 -1      7543-5.29963E-02 1.89659E-01 3.36460E-04-3.94218E-02-3.04369E-06-1.92171E-05
 -1      7544-5.28956E-02 1.89760E-01 5.69893E-04-3.94218E-02-1.50692E-06-9.51430E-06
 -1      7545-5.28317E-02 1.89824E-01 7.18936E-04-3.94219E-02-6.90759E-07-4.36128E-06
 -1      7546-5.27932E-02 1.89863E-01 8.08954E-04-3.94219E-02-2.73668E-07-1.72787E-06
 -1      7547-5.27750E-02 1.89881E-01 8.51468E-04-3.94219E-02-6.95671E-08-4.39229E-07
 -1      7548-5.27750E-02 1.89881E-01 8.51468E-04-3.94219E-02 6.95671E-08 4.39229E-07
 -1      7549-5.27932E-02 1.89863E-01 8.08954E-04-3.94219E-02 2.73668E-07 1.72787E-06
 -1      7550-5.28317E-02 1.89824E-01 7.18936E-04-3.94219E-02 6.90759E-07 4.36128E-06
 -1      7551-5.28956E-02 1.89760E-01 5.69893E-04-3.94218E-02 1.50692E-06 9.51430E-06
 -1      7552-5.29963E-02 1.89659E-01 3.36460E-04-3.94218E-02 3.04369E-06 1.92171E-05
 -1      7553-3.48760E-02 1.71539E-01 3.36460E-04-7.49847E-02-6.01244E-06-1.85044E-05
 -1      7554-3.47754E-02 1.71640E-01 5.69893E-04-7.49848E-02-2.97673E-06-9.16143E-06
 -1      7555-3.47114E-02 1.71704E-01 7.18936E-04-7.49848E-02-1.36451E-06-4.19953E-06
 -1      7556-3.46729E-02 1.71743E-01 8.08954E-04-7.49849E-02-5.40598E-07-1.66379E-06
 -1      7557-3.46547E-02 1.71761E-01 8.51468E-04-7.49849E-02-1.37421E-07-4.22939E-07
 -1      7558-3.46547E-02 1.71761E-01 8.51468E-04-7.49849E-02 1.37421E-07 4.22939E-07
 -1      7559-3.46729E-02 1.71743E-01 8.08954E-04-7.49849E-02 5.40598E-07 1.66379E-06
 -1      7560-3.47114E-02 1.71704E-01 7.18936E-04-7.49848E-02 1.36451E-06 4.19953E-06
 -1      7561-3.47754E-02 1.71640E-01 5.69893E-04-7.49848E-02 2.97673E-06 9.16143E-06
 -1      7562-3.48760E-02 1.71539E-01 3.36460E-04-7.49847E-02 6.01244E-06 1.85044E-05
 -1      7563-6.65314E-03 1.43316E-01 3.36460E-04-1.03208E-01-8.83314E-06-1.73360E-05
 -1      7564-6.55250E-03 1.43417E-01 5.69893E-04-1.03208E-01-4.37324E-06-8.58298E-06
 -1      7565-6.48851E-03 1.43481E-01 7.18936E-04-1.03208E-01-2.00466E-06-3.93437E-06
 -1      7566-6.44996E-03 1.43520E-01 8.08954E-04-1.03208E-01-7.94217E-07-1.55874E-06
 -1      7567-6.43179E-03 1.43538E-01 8.51468E-04-1.03208E-01-2.01892E-07-3.96234E-07
 -1      7568-6.43179E-03 1.43538E-01 8.51468E-04-1.03208E-01 2.01892E-07 3.96234E-07
 -1      7569-6.44996E-03 1.43520E-01 8.08954E-04-1.03208E-01 7.94217E-07 1.55874E-06
 -1      7570-6.48851E-03 1.43481E-01 7.18936E-04-1.03208E-01 2.00466E-06 3.93437E-06
 -1      7571-6.55250E-03 1.43417E-01 5.69893E-04-1.03208E-01 4.37324E-06 8.58298E-06
 -1      7572-6.65314E-03 1.43316E-01 3.36460E-04-1.03208E-01 8.83314E-06 1.73360E-05
 -1      7573 2.89098E-02 1.07753E-01 3.36460E-04-1.21328E-01-1.14363E-05-1.57408E-05
 -1      7574 2.90105E-02 1.07854E-01 5.69893E-04-1.21328E-01-5.66208E-06-7.79318E-06
 -1      7575 2.90745E-02 1.07918E-01 7.18936E-04-1.21328E-01-2.59545E-06-3.57233E-06
 -1      7576 2.91130E-02 1.07957E-01 8.08954E-04-1.21328E-01-1.02828E-06-1.41530E-06
 -1      7577 2.91312E-02 1.07975E-01 8.51468E-04-1.21328E-01-2.61391E-07-3.59773E-07
 -1      7578 2.91312E-02 1.07975E-01 8.51468E-04-1.21328E-01 2.61391E-07 3.59773E-07
 -1      7579 2.91130E-02 1.07957E-01 8.08954E-04-1.21328E-01 1.02828E-06 1.41530E-06
 -1      7580 2.90745E-02 1.07918E-01 7.18936E-04-1.21328E-01 2.59545E-06 3.57233E-06
 -1      7581 2.90105E-02 1.07854E-01 5.69893E-04-1.21328E-01 5.66208E-06 7.79318E-06
 -1      7582 2.89098E-02 1.07753E-01 3.36460E-04-1.21328E-01 1.14363E-05 1.57408E-05
 -1      7583 6.83316E-02 6.83316E-02 3.36460E-04-1.27572E-01-1.37579E-05-1.37579E-05
 -1      7584 6.84323E-02 6.84323E-02 5.69893E-04-1.27572E-01-6.81149E-06-6.81149E-06
 -1      7585 6.84963E-02 6.84963E-02 7.18936E-04-1.27572E-01-3.12233E-06-3.12233E-06
 -1      7586 6.85349E-02 6.85349E-02 8.08954E-04-1.27572E-01-1.23702E-06-1.23702E-06
 -1      7587 6.85531E-02 6.85531E-02 8.51468E-04-1.27572E-01-3.14453E-07-3.14454E-07
 -1      7588 6.85531E-02 6.85531E-02 8.51468E-04-1.27572E-01 3.14453E-07 3.14454E-07
 -1      7589 6.85349E-02 6.85349E-02 8.08954E-04-1.27572E-01 1.23702E-06 1.23702E-06
 -1      7590 6.84963E-02 6.84963E-02 7.18936E-04-1.27572E-01 3.12233E-06 3.12233E-06
 -1      7591 6.84323E-02 6.84323E-02 5.69893E-04-1.27572E-01 6.81149E-06 6.81149E-06
 -1      7592 6.83316E-02 6.83316E-02 3.36460E-04-1.27572E-01 1.37579E-05 1.37579E-05
 -1      7593 1.07753E-01 2.89098E-02 3.36460E-04-1.21328E-01-1.57408E-05-1.14363E-05
 -1      7594 1.07854E-01 2.90105E-02 5.69893E-04-1.21328E-01-7.79318E-06-5.66208E-06
 -1      7595 1.07918E-01 2.90745E-02 7.18936E-04-1.21328E-01-3.57233E-06-2.59545E-06
 -1      7596 1.07957E-01 2.91130E-02 8.08954E-04-1.21328E-01-1.41530E-06-1.02828E-06
 -1      7597 1.07975E-01 2.91312E-02 8.51468E-04-1.21328E-01-3.59773E-07-2.61391E-07
 -1      7598 1.07975E-01 2.91312E-02 8.51468E-04-1.21328E-01 3.59773E-07 2.61391E-07
 -1      7599 1.07957E-01 2.91130E-02 8.08954E-04-1.21328E-01 1.41530E-06 1.02828E-06
 -1      7600 1.07918E-01 2.90745E-02 7.18936E-04-1.21328E-01 3.57233E-06 2.59545E-06
 -1      7601 1.07854E-01 2.90105E-02 5.69893E-04-1.21328E-01 7.79318E-06 5.66208E-06
 -1      7602 1.07753E-01 2.89098E-02 3.36460E-04-1.21328E-01 1.57408E-05 1.14363E-05
 -1      7603 1.43316E-01-6.65314E-03 3.36460E-04-1.03208E-01-1.73360E-05-8.83313E-06
 -1      7604 1.43417E-01-6.55250E-03 5.69893E-04-1.03208E-01-8.58298E-06-4.37324E-06
 -1      7605 1.43481E-01-6.48851E-03 7.18936E-04-1.03208E-01-3.93437E-06-2.00466E-06
 -1      7606 1.43520E-01-6.44996E-03 8.08954E-04-1.03208E-01-1.55874E-06-7.94215E-07
 -1      7607 1.43538E-01-6.43179E-03 8.51468E-04-1.03208E-01-3.96235E-07-2.01891E-07
 -1      7608 1.43538E-01-6.43179E-03 8.51468E-04-1.03208E-01 3.96235E-07 2.01891E-07
 -1      7609 1.43520E-01-6.44996E-03 8.08954E-04-1.03208E-01 1.55874E-06 7.94215E-07
 -1      7610 1.43481E-01-6.48851E-03 7.18936E-04-1.03208E-01 3.93437E-06 2.00466E-06
 -1      7611 1.43417E-01-6.55250E-03 5.69893E-04-1.03208E-01 8.58298E-06 4.37324E-06
 -1      7612 1.43316E-01-6.65314E-03 3.36460E-04-1.03208E-01 1.73360E-05 8.83313E-06
 -1      7613 1.71539E-01-3.48760E-02 3.36460E-04-7.49847E-02-1.85044E-05-6.01244E-06
 -1      7614 1.71640E-01-3.47754E-02 5.69893E-04-7.49848E-02-9.16143E-06-2.97673E-06
 -1      7615 1.71704E-01-3.47114E-02 7.18936E-04-7.49848E-02-4.19953E-06-1.36451E-06
 -1      7616 1.71743E-01-3.46729E-02 8.08954E-04-7.49849E-02-1.66379E-06-5.40598E-07
 -1      7617 1.71761E-01-3.46548E-02 8.51468E-04-7.49849E-02-4.22939E-07-1.37421E-07
 -1      7618 1.71761E-01-3.46548E-02 8.51468E-04-7.49849E-02 4.22939E-07 1.37421E-07
 -1      7619 1.71743E-01-3.46729E-02 8.08954E-04-7.49849E-02 1.66379E-06 5.40598E-07
 -1      7620 1.71704E-01-3.47114E-02 7.18936E-04-7.49848E-02 4.19953E-06 1.36451E-06
 -1      7621 1.71640E-01-3.47754E-02 5.69893E-04-7.49848E-02 9.16143E-06 2.97673E-06
 -1      7622 1.71539E-01-3.48760E-02 3.36460E-04-7.49847E-02 1.85044E-05 6.01244E-06
 -1      7623 1.89659E-01-5.29963E-02 3.36460E-04-3.94218E-02-1.92171E-05-3.04370E-06
 -1      7624 1.89760E-01-5.28956E-02 5.69893E-04-3.94218E-02-9.51430E-06-1.50692E-06
 -1      7625 1.89824E-01-5.28317E-02 7.18936E-04-3.94219E-02-4.36128E-06-6.90763E-07
 -1      7626 1.89863E-01-5.27932E-02 8.08954E-04-3.94219E-02-1.72787E-06-2.73671E-07
 -1      7627 1.89881E-01-5.27750E-02 8.51468E-04-3.94219E-02-4.39229E-07-6.95680E-08
 -1      7628 1.89881E-01-5.27750E-02 8.51468E-04-3.94219E-02 4.39229E-07 6.95680E-08
 -1      7629 1.89863E-01-5.27932E-02 8.08954E-04-3.94219E-02 1.72787E-06 2.73671E-07
 -1      7630 1.89824E-01-5.28317E-02 7.18936E-04-3.94219E-02 4.36128E-06 6.90763E-07
 -1      7631 1.89760E-01-5.28956E-02 5.69893E-04-3.94218E-02 9.51430E-06 1.50692E-06
 -1      7632 1.89659E-01-5.29963E-02 3.36460E-04-3.94218E-02 1.92171E-05 3.04370E-06
 -1      7633-4.51638E-02 1.81589E-01 3.02222E-04-3.68382E-02-2.89965E-06-1.83076E-05
 -1      7634-4.50727E-02 1.81680E-01 5.13574E-04-3.68383E-02-1.48942E-06-9.40384E-06
 -1      7635-4.50142E-02 1.81739E-01 6.49703E-04-3.68383E-02-7.16159E-07-4.52165E-06
 -1      7636-4.49788E-02 1.81774E-01 7.32419E-04-3.68383E-02-3.01819E-07-1.90561E-06
 -1      7637-4.49621E-02 1.81791E-01 7.71629E-04-3.68383E-02-8.08115E-08-5.10224E-07
 -1      7638-4.49621E-02 1.81791E-01 7.71629E-04-3.68383E-02 8.08115E-08 5.10224E-07
 -1      7639-4.49788E-02 1.81774E-01 7.32419E-04-3.68383E-02 3.01819E-07 1.90561E-06
 -1      7640-4.50142E-02 1.81739E-01 6.49703E-04-3.68383E-02 7.16159E-07 4.52165E-06
 -1      7641-4.50727E-02 1.81680E-01 5.13574E-04-3.68383E-02 1.48942E-06 9.40384E-06
 -1      7642-4.51638E-02 1.81589E-01 3.02222E-04-3.68382E-02 2.89965E-06 1.83076E-05
 -1      7643-2.82312E-02 1.64656E-01 3.02222E-04-7.00705E-02-5.72789E-06-1.76286E-05
 -1      7644-2.81400E-02 1.64748E-01 5.13574E-04-7.00705E-02-2.94217E-06-9.05506E-06
 -1      7645-2.80815E-02 1.64806E-01 6.49703E-04-7.00706E-02-1.41468E-06-4.35395E-06
 -1      7646-2.80461E-02 1.64842E-01 7.32419E-04-7.00706E-02-5.96206E-07-1.83494E-06
 -1      7647-2.80294E-02 1.64859E-01 7.71629E-04-7.00706E-02-1.59633E-07-4.91300E-07
 -1      7648-2.80294E-02 1.64859E-01 7.71629E-04-7.00706E-02 1.59633E-07 4.91300E-07
 -1      7649-2.80461E-02 1.64842E-01 7.32419E-04-7.00706E-02 5.96206E-07 1.83494E-06
 -1      7650-2.80815E-02 1.64806E-01 6.49703E-04-7.00706E-02 1.41468E-06 4.35395E-06
 -1      7651-2.81400E-02 1.64748E-01 5.13574E-04-7.00705E-02 2.94217E-06 9.05506E-06
 -1      7652-2.82312E-02 1.64656E-01 3.02222E-04-7.00705E-02 5.72789E-06 1.76286E-05
 -1      7653-1.85789E-03 1.38283E-01 3.02222E-04-9.64438E-02-8.41510E-06-1.65156E-05
 -1      7654-1.76673E-03 1.38374E-01 5.13574E-04-9.64438E-02-4.32247E-06-8.48332E-06
 -1      7655-1.70825E-03 1.38433E-01 6.49703E-04-9.64439E-02-2.07838E-06-4.07904E-06
 -1      7656-1.67280E-03 1.38468E-01 7.32419E-04-9.64439E-02-8.75914E-07-1.71908E-06
 -1      7657-1.65603E-03 1.38485E-01 7.71629E-04-9.64440E-02-2.34524E-07-4.60279E-07
 -1      7658-1.65603E-03 1.38485E-01 7.71629E-04-9.64440E-02 2.34524E-07 4.60279E-07
 -1      7659-1.67280E-03 1.38468E-01 7.32419E-04-9.64439E-02 8.75914E-07 1.71908E-06
 -1      7660-1.70825E-03 1.38433E-01 6.49703E-04-9.64439E-02 2.07838E-06 4.07904E-06
 -1      7661-1.76673E-03 1.38374E-01 5.13574E-04-9.64438E-02 4.32247E-06 8.48332E-06
 -1      7662-1.85789E-03 1.38283E-01 3.02222E-04-9.64438E-02 8.41510E-06 1.65156E-05
 -1      7663 3.13744E-02 1.05051E-01 3.02222E-04-1.13376E-01-1.08951E-05-1.49958E-05
 -1      7664 3.14655E-02 1.05142E-01 5.13574E-04-1.13376E-01-5.59634E-06-7.70270E-06
 -1      7665 3.15240E-02 1.05201E-01 6.49703E-04-1.13377E-01-2.69089E-06-3.70369E-06
 -1      7666 3.15595E-02 1.05236E-01 7.32419E-04-1.13377E-01-1.13405E-06-1.56089E-06
 -1      7667 3.15763E-02 1.05253E-01 7.71629E-04-1.13377E-01-3.03640E-07-4.17925E-07
 -1      7668 3.15763E-02 1.05253E-01 7.71629E-04-1.13377E-01 3.03640E-07 4.17925E-07
 -1      7669 3.15595E-02 1.05236E-01 7.32419E-04-1.13377E-01 1.13405E-06 1.56089E-06
 -1      7670 3.15240E-02 1.05201E-01 6.49703E-04-1.13377E-01 2.69089E-06 3.70369E-06
 -1      7671 3.14655E-02 1.05142E-01 5.13574E-04-1.13376E-01 5.59634E-06 7.70270E-06
 -1      7672 3.13744E-02 1.05051E-01 3.02222E-04-1.13376E-01 1.08951E-05 1.49958E-05
 -1      7673 6.82126E-02 6.82126E-02 3.02222E-04-1.19211E-01-1.31068E-05-1.31068E-05
 -1      7674 6.83038E-02 6.83038E-02 5.13574E-04-1.19211E-01-6.73240E-06-6.73240E-06
 -1      7675 6.83623E-02 6.83623E-02 6.49703E-04-1.19211E-01-3.23714E-06-3.23715E-06
 -1      7676 6.83978E-02 6.83978E-02 7.32419E-04-1.19211E-01-1.36427E-06-1.36427E-06
 -1      7677 6.84146E-02 6.84146E-02 7.71629E-04-1.19211E-01-3.65279E-07-3.65280E-07
 -1      7678 6.84146E-02 6.84146E-02 7.71629E-04-1.19211E-01 3.65279E-07 3.65280E-07
 -1      7679 6.83978E-02 6.83978E-02 7.32419E-04-1.19211E-01 1.36427E-06 1.36427E-06
 -1      7680 6.83623E-02 6.83623E-02 6.49703E-04-1.19211E-01 3.23714E-06 3.23715E-06
 -1      7681 6.83038E-02 6.83038E-02 5.13574E-04-1.19211E-01 6.73240E-06 6.73240E-06
 -1      7682 6.82126E-02 6.82126E-02 3.02222E-04-1.19211E-01 1.31068E-05 1.31068E-05
 -1      7683 1.05051E-01 3.13744E-02 3.02222E-04-1.13376E-01-1.49958E-05-1.08951E-05
 -1      7684 1.05142E-01 3.14655E-02 5.13574E-04-1.13376E-01-7.70269E-06-5.59634E-06
 -1      7685 1.05201E-01 3.15240E-02 6.49703E-04-1.13377E-01-3.70369E-06-2.69089E-06
 -1      7686 1.05236E-01 3.15595E-02 7.32419E-04-1.13377E-01-1.56089E-06-1.13405E-06
 -1      7687 1.05253E-01 3.15763E-02 7.71629E-04-1.13377E-01-4.17925E-07-3.03640E-07
 -1      7688 1.05253E-01 3.15763E-02 7.71629E-04-1.13377E-01 4.17925E-07 3.03640E-07
 -1      7689 1.05236E-01 3.15595E-02 7.32419E-04-1.13377E-01 1.56089E-06 1.13405E-06
 -1      7690 1.05201E-01 3.15240E-02 6.49703E-04-1.13377E-01 3.70369E-06 2.69089E-06
 -1      7691 1.05142E-01 3.14655E-02 5.13574E-04-1.13376E-01 7.70269E-06 5.59634E-06
 -1      7692 1.05051E-01 3.13744E-02 3.02222E-04-1.13376E-01 1.49958E-05 1.08951E-05
 -1      7693 1.38283E-01-1.85790E-03 3.02222E-04-9.64438E-02-1.65156E-05-8.41510E-06
 -1      7694 1.38374E-01-1.76673E-03 5.13574E-04-9.64438E-02-8.48332E-06-4.32246E-06
 -1      7695 1.38433E-01-1.70825E-03 6.49703E-04-9.64439E-02-4.07904E-06-2.07837E-06
 -1      7696 1.38468E-01-1.67281E-03 7.32419E-04-9.64439E-02-1.71908E-06-8.75911E-07
 -1      7697 1.38485E-01-1.65603E-03 7.71629E-04-9.64440E-02-4.60280E-07-2.34523E-07
 -1      7698 1.38485E-01-1.65603E-03 7.71629E-04-9.64440E-02 4.60280E-07 2.34523E-07
 -1      7699 1.38468E-01-1.67281E-03 7.32419E-04-9.64439E-02 1.71908E-06 8.75911E-07
 -1      7700 1.38433E-01-1.70825E-03 6.49703E-04-9.64439E-02 4.07904E-06 2.07837E-06
 -1      7701 1.38374E-01-1.76673E-03 5.13574E-04-9.64438E-02 8.48332E-06 4.32246E-06
 -1      7702 1.38283E-01-1.85790E-03 3.02222E-04-9.64438E-02 1.65156E-05 8.41510E-06
 -1      7703 1.64656E-01-2.82312E-02 3.02222E-04-7.00705E-02-1.76286E-05-5.72789E-06
 -1      7704 1.64748E-01-2.81400E-02 5.13574E-04-7.00705E-02-9.05506E-06-2.94217E-06
 -1      7705 1.64806E-01-2.80815E-02 6.49703E-04-7.00706E-02-4.35395E-06-1.41468E-06
 -1      7706 1.64842E-01-2.80461E-02 7.32419E-04-7.00706E-02-1.83494E-06-5.96206E-07
 -1      7707 1.64859E-01-2.80294E-02 7.71629E-04-7.00706E-02-4.91301E-07-1.59633E-07
 -1      7708 1.64859E-01-2.80294E-02 7.71629E-04-7.00706E-02 4.91300E-07 1.59633E-07
 -1      7709 1.64842E-01-2.80461E-02 7.32419E-04-7.00706E-02 1.83494E-06 5.96206E-07
 -1      7710 1.64806E-01-2.80815E-02 6.49703E-04-7.00706E-02 4.35395E-06 1.41468E-06
 -1      7711 1.64748E-01-2.81400E-02 5.13574E-04-7.00705E-02 9.05506E-06 2.94217E-06
 -1      7712 1.64656E-01-2.82312E-02 3.02222E-04-7.00705E-02 1.76286E-05 5.72789E-06
 -1      7713 1.81589E-01-4.51638E-02 3.02222E-04-3.68382E-02-1.83076E-05-2.89965E-06
 -1      7714 1.81680E-01-4.50727E-02 5.13574E-04-3.68383E-02-9.40383E-06-1.48943E-06
 -1      7715 1.81739E-01-4.50142E-02 6.49703E-04-3.68383E-02-4.52165E-06-7.16164E-07
 -1      7716 1.81774E-01-4.49788E-02 7.32419E-04-3.68383E-02-1.90561E-06-3.01822E-07
 -1      7717 1.81791E-01-4.49621E-02 7.71629E-04-3.68383E-02-5.10223E-07-8.08124E-08
 -1      7718 1.81791E-01-4.49621E-02 7.71629E-04-3.68383E-02 5.10223E-07 8.08124E-08
 -1      7719 1.81774E-01-4.49788E-02 7.32419E-04-3.68383E-02 1.90561E-06 3.01822E-07
 -1      7720 1.81739E-01-4.50142E-02 6.49703E-04-3.68383E-02 4.52165E-06 7.16164E-07
 -1      7721 1.81680E-01-4.50727E-02 5.13574E-04-3.68383E-02 9.40383E-06 1.48943E-06
 -1      7722 1.81589E-01-4.51638E-02 3.02222E-04-3.68382E-02 1.83076E-05 2.89965E-06
 -1      7723-3.80762E-02 1.74288E-01 2.72206E-04-3.45006E-02-2.76266E-06-1.74428E-05
 -1      7724-3.79935E-02 1.74370E-01 4.63979E-04-3.45006E-02-1.46683E-06-9.26121E-06
 -1      7725-3.79399E-02 1.74424E-01 5.88485E-04-3.45006E-02-7.34506E-07-4.63749E-06
 -1      7726-3.79073E-02 1.74457E-01 6.64555E-04-3.45006E-02-3.24737E-07-2.05031E-06
 -1      7727-3.78919E-02 1.74472E-01 7.00736E-04-3.45006E-02-9.01950E-08-5.69469E-07
 -1      7728-3.78919E-02 1.74472E-01 7.00736E-04-3.45006E-02 9.01951E-08 5.69469E-07
 -1      7729-3.79073E-02 1.74457E-01 6.64555E-04-3.45006E-02 3.24737E-07 2.05031E-06
 -1      7730-3.79399E-02 1.74424E-01 5.88485E-04-3.45006E-02 7.34506E-07 4.63749E-06
 -1      7731-3.79935E-02 1.74370E-01 4.63979E-04-3.45006E-02 1.46683E-06 9.26121E-06
 -1      7732-3.80762E-02 1.74288E-01 2.72206E-04-3.45006E-02 2.76266E-06 1.74428E-05
 -1      7733-2.22180E-02 1.58429E-01 2.72206E-04-6.56240E-02-5.45730E-06-1.67958E-05
 -1      7734-2.21353E-02 1.58512E-01 4.63979E-04-6.56240E-02-2.89754E-06-8.91772E-06
 -1      7735-2.20818E-02 1.58566E-01 5.88485E-04-6.56241E-02-1.45093E-06-4.46549E-06
 -1      7736-2.20491E-02 1.58599E-01 6.64555E-04-6.56241E-02-6.41478E-07-1.97427E-06
 -1      7737-2.20337E-02 1.58614E-01 7.00736E-04-6.56241E-02-1.78169E-07-5.48348E-07
 -1      7738-2.20337E-02 1.58614E-01 7.00736E-04-6.56241E-02 1.78169E-07 5.48348E-07
 -1      7739-2.20491E-02 1.58599E-01 6.64555E-04-6.56241E-02 6.41478E-07 1.97427E-06
 -1      7740-2.20818E-02 1.58566E-01 5.88485E-04-6.56241E-02 1.45093E-06 4.46549E-06
 -1      7741-2.21353E-02 1.58512E-01 4.63979E-04-6.56240E-02 2.89754E-06 8.91772E-06
 -1      7742-2.22180E-02 1.58429E-01 2.72206E-04-6.56240E-02 5.45730E-06 1.67958E-05
 -1      7743 2.48165E-03 1.33730E-01 2.72206E-04-9.03237E-02-8.01756E-06-1.57353E-05
 -1      7744 2.56443E-03 1.33812E-01 4.63979E-04-9.03237E-02-4.25691E-06-8.35466E-06
 -1      7745 2.61796E-03 1.33866E-01 5.88485E-04-9.03238E-02-2.13162E-06-4.18354E-06
 -1      7746 2.65058E-03 1.33899E-01 6.64555E-04-9.03238E-02-9.42424E-07-1.84961E-06
 -1      7747 2.66607E-03 1.33914E-01 7.00736E-04-9.03239E-02-2.61756E-07-5.13725E-07
 -1      7748 2.66607E-03 1.33914E-01 7.00736E-04-9.03239E-02 2.61756E-07 5.13725E-07
 -1      7749 2.65058E-03 1.33899E-01 6.64555E-04-9.03238E-02 9.42424E-07 1.84961E-06
 -1      7750 2.61796E-03 1.33866E-01 5.88485E-04-9.03238E-02 2.13162E-06 4.18354E-06
 -1      7751 2.56443E-03 1.33812E-01 4.63979E-04-9.03237E-02 4.25691E-06 8.35466E-06
 -1      7752 2.48165E-03 1.33730E-01 2.72206E-04-9.03237E-02 8.01756E-06 1.57353E-05
 -1      7753 3.36051E-02 1.02606E-01 2.72206E-04-1.06182E-01-1.03804E-05-1.42874E-05
 -1      7754 3.36879E-02 1.02689E-01 4.63979E-04-1.06182E-01-5.51146E-06-7.58587E-06
 -1      7755 3.37414E-02 1.02743E-01 5.88485E-04-1.06182E-01-2.75983E-06-3.79858E-06
 -1      7756 3.37741E-02 1.02775E-01 6.64555E-04-1.06182E-01-1.22017E-06-1.67941E-06
 -1      7757 3.37895E-02 1.02791E-01 7.00736E-04-1.06182E-01-3.38898E-07-4.66453E-07
 -1      7758 3.37895E-02 1.02791E-01 7.00736E-04-1.06182E-01 3.38898E-07 4.66453E-07
 -1      7759 3.37741E-02 1.02775E-01 6.64555E-04-1.06182E-01 1.22017E-06 1.67941E-06
 -1      7760 3.37414E-02 1.02743E-01 5.88485E-04-1.06182E-01 2.75983E-06 3.79858E-06
 -1      7761 3.36879E-02 1.02689E-01 4.63979E-04-1.06182E-01 5.51146E-06 7.58587E-06
 -1      7762 3.36051E-02 1.02606E-01 2.72206E-04-1.06182E-01 1.03804E-05 1.42874E-05
 -1      7763 6.81057E-02 6.81057E-02 2.72206E-04-1.11646E-01-1.24876E-05-1.24876E-05
 -1      7764 6.81885E-02 6.81885E-02 4.63979E-04-1.11646E-01-6.63029E-06-6.63029E-06
 -1      7765 6.82420E-02 6.82420E-02 5.88485E-04-1.11646E-01-3.32008E-06-3.32008E-06
 -1      7766 6.82747E-02 6.82747E-02 6.64555E-04-1.11646E-01-1.46786E-06-1.46786E-06
 -1      7767 6.82902E-02 6.82902E-02 7.00736E-04-1.11646E-01-4.07695E-07-4.07695E-07
 -1      7768 6.82902E-02 6.82902E-02 7.00736E-04-1.11646E-01 4.07695E-07 4.07695E-07
 -1      7769 6.82747E-02 6.82747E-02 6.64555E-04-1.11646E-01 1.46786E-06 1.46786E-06
 -1      7770 6.82420E-02 6.82420E-02 5.88485E-04-1.11646E-01 3.32008E-06 3.32008E-06
 -1      7771 6.81885E-02 6.81885E-02 4.63979E-04-1.11646E-01 6.63029E-06 6.63029E-06
 -1      7772 6.81057E-02 6.81057E-02 2.72206E-04-1.11646E-01 1.24876E-05 1.24876E-05
 -1      7773 1.02606E-01 3.36051E-02 2.72206E-04-1.06182E-01-1.42874E-05-1.03804E-05
 -1      7774 1.02689E-01 3.36879E-02 4.63979E-04-1.06182E-01-7.58587E-06-5.51146E-06
 -1      7775 1.02743E-01 3.37414E-02 5.88485E-04-1.06182E-01-3.79857E-06-2.75983E-06
 -1      7776 1.02775E-01 3.37741E-02 6.64555E-04-1.06182E-01-1.67941E-06-1.22016E-06
 -1      7777 1.02791E-01 3.37895E-02 7.00736E-04-1.06182E-01-4.66452E-07-3.38898E-07
 -1      7778 1.02791E-01 3.37895E-02 7.00736E-04-1.06182E-01 4.66453E-07 3.38898E-07
 -1      7779 1.02775E-01 3.37741E-02 6.64555E-04-1.06182E-01 1.67941E-06 1.22016E-06
 -1      7780 1.02743E-01 3.37414E-02 5.88485E-04-1.06182E-01 3.79857E-06 2.75983E-06
 -1      7781 1.02689E-01 3.36879E-02 4.63979E-04-1.06182E-01 7.58587E-06 5.51146E-06
 -1      7782 1.02606E-01 3.36051E-02 2.72206E-04-1.06182E-01 1.42874E-05 1.03804E-05
 -1      7783 1.33730E-01 2.48165E-03 2.72206E-04-9.03237E-02-1.57353E-05-8.01755E-06
 -1      7784 1.33813E-01 2.56443E-03 4.63979E-04-9.03237E-02-8.35466E-06-4.25691E-06
 -1      7785 1.33866E-01 2.61796E-03 5.88485E-04-9.03238E-02-4.18354E-06-2.13162E-06
 -1      7786 1.33899E-01 2.65058E-03 6.64555E-04-9.03238E-02-1.84961E-06-9.42423E-07
 -1      7787 1.33914E-01 2.66607E-03 7.00736E-04-9.03239E-02-5.13726E-07-2.61756E-07
 -1      7788 1.33914E-01 2.66607E-03 7.00736E-04-9.03239E-02 5.13726E-07 2.61756E-07
 -1      7789 1.33899E-01 2.65058E-03 6.64555E-04-9.03238E-02 1.84961E-06 9.42423E-07
 -1      7790 1.33866E-01 2.61796E-03 5.88485E-04-9.03238E-02 4.18354E-06 2.13162E-06
 -1      7791 1.33813E-01 2.56443E-03 4.63979E-04-9.03237E-02 8.35466E-06 4.25691E-06
 -1      7792 1.33730E-01 2.48165E-03 2.72206E-04-9.03237E-02 1.57353E-05 8.01755E-06
 -1      7793 1.58429E-01-2.22180E-02 2.72206E-04-6.56240E-02-1.67958E-05-5.45730E-06
 -1      7794 1.58512E-01-2.21353E-02 4.63979E-04-6.56240E-02-8.91773E-06-2.89754E-06
 -1      7795 1.58566E-01-2.20818E-02 5.88485E-04-6.56241E-02-4.46550E-06-1.45093E-06
 -1      7796 1.58599E-01-2.20491E-02 6.64555E-04-6.56241E-02-1.97427E-06-6.41479E-07
 -1      7797 1.58614E-01-2.20337E-02 7.00736E-04-6.56241E-02-5.48349E-07-1.78169E-07
 -1      7798 1.58614E-01-2.20337E-02 7.00736E-04-6.56241E-02 5.48349E-07 1.78169E-07
 -1      7799 1.58599E-01-2.20491E-02 6.64555E-04-6.56241E-02 1.97427E-06 6.41479E-07
 -1      7800 1.58566E-01-2.20818E-02 5.88485E-04-6.56241E-02 4.46550E-06 1.45093E-06
 -1      7801 1.58512E-01-2.21353E-02 4.63979E-04-6.56240E-02 8.91773E-06 2.89754E-06
 -1      7802 1.58429E-01-2.22180E-02 2.72206E-04-6.56240E-02 1.67958E-05 5.45730E-06
 -1      7803 1.74288E-01-3.80762E-02 2.72206E-04-3.45006E-02-1.74428E-05-2.76267E-06
 -1      7804 1.74370E-01-3.79935E-02 4.63979E-04-3.45006E-02-9.26121E-06-1.46684E-06
 -1      7805 1.74424E-01-3.79399E-02 5.88485E-04-3.45006E-02-4.63749E-06-7.34510E-07
 -1      7806 1.74457E-01-3.79073E-02 6.64555E-04-3.45006E-02-2.05031E-06-3.24739E-07
 -1      7807 1.74472E-01-3.78919E-02 7.00736E-04-3.45006E-02-5.69469E-07-9.01957E-08
 -1      7808 1.74472E-01-3.78919E-02 7.00736E-04-3.45006E-02 5.69469E-07 9.01957E-08
 -1      7809 1.74457E-01-3.79073E-02 6.64555E-04-3.45006E-02 2.05031E-06 3.24739E-07
 -1      7810 1.74424E-01-3.79399E-02 5.88485E-04-3.45006E-02 4.63749E-06 7.34510E-07
 -1      7811 1.74370E-01-3.79935E-02 4.63979E-04-3.45006E-02 9.26121E-06 1.46684E-06
 -1      7812 1.74288E-01-3.80762E-02 2.72206E-04-3.45006E-02 1.74428E-05 2.76267E-06
 -1      7813-3.16424E-02 1.67660E-01 2.45723E-04-3.23787E-02-2.63357E-06-1.66277E-05
 -1      7814-3.15670E-02 1.67736E-01 4.20056E-04-3.23787E-02-1.44182E-06-9.10331E-06
 -1      7815-3.15180E-02 1.67785E-01 5.34066E-04-3.23787E-02-7.48280E-07-4.72445E-06
 -1      7816-3.14879E-02 1.67815E-01 6.04073E-04-3.23787E-02-3.44077E-07-2.17242E-06
 -1      7817-3.14736E-02 1.67829E-01 6.37471E-04-3.23787E-02-9.82768E-08-6.20495E-07
 -1      7818-3.14736E-02 1.67829E-01 6.37471E-04-3.23787E-02 9.82768E-08 6.20495E-07
 -1      7819-3.14879E-02 1.67815E-01 6.04073E-04-3.23787E-02 3.44077E-07 2.17242E-06
 -1      7820-3.15180E-02 1.67785E-01 5.34066E-04-3.23787E-02 7.48280E-07 4.72445E-06
 -1      7821-3.15670E-02 1.67736E-01 4.20056E-04-3.23787E-02 1.44182E-06 9.10331E-06
 -1      7822-3.16424E-02 1.67660E-01 2.45723E-04-3.23787E-02 2.63357E-06 1.66277E-05
 -1      7823-1.67595E-02 1.52777E-01 2.45723E-04-6.15879E-02-5.20229E-06-1.60110E-05
 -1      7824-1.66842E-02 1.52853E-01 4.20056E-04-6.15879E-02-2.84814E-06-8.76569E-06
 -1      7825-1.66351E-02 1.52902E-01 5.34066E-04-6.15879E-02-1.47813E-06-4.54923E-06
 -1      7826-1.66051E-02 1.52932E-01 6.04073E-04-6.15879E-02-6.79681E-07-2.09185E-06
 -1      7827-1.65908E-02 1.52946E-01 6.37471E-04-6.15879E-02-1.94134E-07-5.97482E-07
 -1      7828-1.65908E-02 1.52946E-01 6.37471E-04-6.15879E-02 1.94134E-07 5.97482E-07
 -1      7829-1.66051E-02 1.52932E-01 6.04073E-04-6.15879E-02 6.79681E-07 2.09185E-06
 -1      7830-1.66351E-02 1.52902E-01 5.34066E-04-6.15879E-02 1.47813E-06 4.54923E-06
 -1      7831-1.66842E-02 1.52853E-01 4.20056E-04-6.15879E-02 2.84814E-06 8.76569E-06
 -1      7832-1.67595E-02 1.52777E-01 2.45723E-04-6.15879E-02 5.20229E-06 1.60110E-05
 -1      7833 6.42103E-03 1.29597E-01 2.45723E-04-8.47684E-02-7.64291E-06-1.50001E-05
 -1      7834 6.49636E-03 1.29672E-01 4.20056E-04-8.47684E-02-4.18433E-06-8.21222E-06
 -1      7835 6.54544E-03 1.29721E-01 5.34066E-04-8.47685E-02-2.17159E-06-4.26199E-06
 -1      7836 6.57549E-03 1.29751E-01 6.04073E-04-8.47685E-02-9.98550E-07-1.95977E-06
 -1      7837 6.58981E-03 1.29766E-01 6.37471E-04-8.47685E-02-2.85210E-07-5.59757E-07
 -1      7838 6.58981E-03 1.29766E-01 6.37471E-04-8.47685E-02 2.85210E-07 5.59757E-07
 -1      7839 6.57549E-03 1.29751E-01 6.04073E-04-8.47685E-02 9.98550E-07 1.95977E-06
 -1      7840 6.54544E-03 1.29721E-01 5.34066E-04-8.47685E-02 2.17159E-06 4.26199E-06
 -1      7841 6.49636E-03 1.29672E-01 4.20056E-04-8.47684E-02 4.18433E-06 8.21222E-06
 -1      7842 6.42103E-03 1.29597E-01 2.45723E-04-8.47684E-02 7.64291E-06 1.50001E-05
 -1      7843 3.56302E-02 1.00388E-01 2.45723E-04-9.96513E-02-9.89534E-06-1.36198E-05
 -1      7844 3.57056E-02 1.00463E-01 4.20056E-04-9.96513E-02-5.41750E-06-7.45654E-06
 -1      7845 3.57547E-02 1.00512E-01 5.34066E-04-9.96513E-02-2.81158E-06-3.86981E-06
 -1      7846 3.57847E-02 1.00542E-01 6.04073E-04-9.96513E-02-1.29283E-06-1.77943E-06
 -1      7847 3.57990E-02 1.00556E-01 6.37471E-04-9.96514E-02-3.69265E-07-5.08249E-07
 -1      7848 3.57990E-02 1.00556E-01 6.37471E-04-9.96514E-02 3.69265E-07 5.08249E-07
 -1      7849 3.57847E-02 1.00542E-01 6.04073E-04-9.96513E-02 1.29283E-06 1.77943E-06
 -1      7850 3.57547E-02 1.00512E-01 5.34066E-04-9.96513E-02 2.81158E-06 3.86981E-06
 -1      7851 3.57056E-02 1.00463E-01 4.20056E-04-9.96513E-02 5.41750E-06 7.45654E-06
 -1      7852 3.56302E-02 1.00388E-01 2.45723E-04-9.96513E-02 9.89534E-06 1.36198E-05
 -1      7853 6.80089E-02 6.80089E-02 2.45723E-04-1.04780E-01-1.19041E-05-1.19041E-05
 -1      7854 6.80842E-02 6.80842E-02 4.20056E-04-1.04780E-01-6.51725E-06-6.51726E-06
 -1      7855 6.81333E-02 6.81333E-02 5.34066E-04-1.04780E-01-3.38234E-06-3.38234E-06
 -1      7856 6.81634E-02 6.81634E-02 6.04073E-04-1.04780E-01-1.55528E-06-1.55528E-06
 -1      7857 6.81777E-02 6.81777E-02 6.37471E-04-1.04780E-01-4.44226E-07-4.44226E-07
 -1      7858 6.81777E-02 6.81777E-02 6.37471E-04-1.04780E-01 4.44226E-07 4.44226E-07
 -1      7859 6.81634E-02 6.81634E-02 6.04073E-04-1.04780E-01 1.55528E-06 1.55528E-06
 -1      7860 6.81333E-02 6.81333E-02 5.34066E-04-1.04780E-01 3.38234E-06 3.38234E-06
 -1      7861 6.80842E-02 6.80842E-02 4.20056E-04-1.04780E-01 6.51725E-06 6.51726E-06
 -1      7862 6.80089E-02 6.80089E-02 2.45723E-04-1.04780E-01 1.19041E-05 1.19041E-05
 -1      7863 1.00388E-01 3.56302E-02 2.45723E-04-9.96513E-02-1.36198E-05-9.89534E-06
 -1      7864 1.00463E-01 3.57056E-02 4.20056E-04-9.96513E-02-7.45653E-06-5.41749E-06
 -1      7865 1.00512E-01 3.57547E-02 5.34066E-04-9.96513E-02-3.86980E-06-2.81158E-06
 -1      7866 1.00542E-01 3.57847E-02 6.04073E-04-9.96513E-02-1.77943E-06-1.29283E-06
 -1      7867 1.00556E-01 3.57990E-02 6.37471E-04-9.96514E-02-5.08248E-07-3.69264E-07
 -1      7868 1.00556E-01 3.57990E-02 6.37471E-04-9.96514E-02 5.08248E-07 3.69264E-07
 -1      7869 1.00542E-01 3.57847E-02 6.04073E-04-9.96513E-02 1.77943E-06 1.29283E-06
 -1      7870 1.00512E-01 3.57547E-02 5.34066E-04-9.96513E-02 3.86980E-06 2.81158E-06
 -1      7871 1.00463E-01 3.57056E-02 4.20056E-04-9.96513E-02 7.45653E-06 5.41749E-06
 -1      7872 1.00388E-01 3.56302E-02 2.45723E-04-9.96513E-02 1.36198E-05 9.89534E-06
 -1      7873 1.29597E-01 6.42103E-03 2.45723E-04-8.47684E-02-1.50001E-05-7.64290E-06
 -1      7874 1.29672E-01 6.49636E-03 4.20056E-04-8.47684E-02-8.21222E-06-4.18433E-06
 -1      7875 1.29721E-01 6.54544E-03 5.34066E-04-8.47685E-02-4.26199E-06-2.17159E-06
 -1      7876 1.29751E-01 6.57549E-03 6.04073E-04-8.47685E-02-1.95977E-06-9.98550E-07
 -1      7877 1.29766E-01 6.58981E-03 6.37471E-04-8.47685E-02-5.59757E-07-2.85210E-07
 -1      7878 1.29766E-01 6.58981E-03 6.37471E-04-8.47685E-02 5.59757E-07 2.85210E-07
 -1      7879 1.29751E-01 6.57549E-03 6.04073E-04-8.47685E-02 1.95977E-06 9.98550E-07
 -1      7880 1.29721E-01 6.54544E-03 5.34066E-04-8.47685E-02 4.26199E-06 2.17159E-06
 -1      7881 1.29672E-01 6.49636E-03 4.20056E-04-8.47684E-02 8.21222E-06 4.18433E-06
 -1      7882 1.29597E-01 6.42103E-03 2.45723E-04-8.47684E-02 1.50001E-05 7.64290E-06
 -1      7883 1.52777E-01-1.67595E-02 2.45723E-04-6.15879E-02-1.60110E-05-5.20229E-06
 -1      7884 1.52853E-01-1.66842E-02 4.20056E-04-6.15879E-02-8.76569E-06-2.84815E-06
 -1      7885 1.52902E-01-1.66351E-02 5.34066E-04-6.15879E-02-4.54924E-06-1.47814E-06
 -1      7886 1.52932E-01-1.66051E-02 6.04073E-04-6.15879E-02-2.09185E-06-6.79682E-07
 -1      7887 1.52946E-01-1.65908E-02 6.37471E-04-6.15879E-02-5.97484E-07-1.94134E-07
 -1      7888 1.52946E-01-1.65908E-02 6.37471E-04-6.15879E-02 5.97483E-07 1.94134E-07
 -1      7889 1.52932E-01-1.66051E-02 6.04073E-04-6.15879E-02 2.09185E-06 6.79682E-07
 -1      7890 1.52902E-01-1.66351E-02 5.34066E-04-6.15879E-02 4.54924E-06 1.47814E-06
 -1      7891 1.52853E-01-1.66842E-02 4.20056E-04-6.15879E-02 8.76569E-06 2.84815E-06
 -1      7892 1.52777E-01-1.67595E-02 2.45723E-04-6.15879E-02 1.60110E-05 5.20229E-06
 -1      7893 1.67660E-01-3.16424E-02 2.45723E-04-3.23787E-02-1.66277E-05-2.63358E-06
 -1      7894 1.67736E-01-3.15670E-02 4.20056E-04-3.23787E-02-9.10331E-06-1.44183E-06
 -1      7895 1.67785E-01-3.15180E-02 5.34066E-04-3.23787E-02-4.72445E-06-7.48281E-07
 -1      7896 1.67815E-01-3.14879E-02 6.04073E-04-3.23787E-02-2.17242E-06-3.44077E-07
 -1      7897 1.67829E-01-3.14736E-02 6.37471E-04-3.23787E-02-6.20495E-07-9.82768E-08
 -1      7898 1.67829E-01-3.14736E-02 6.37471E-04-3.23787E-02 6.20495E-07 9.82768E-08
 -1      7899 1.67815E-01-3.14879E-02 6.04073E-04-3.23787E-02 2.17242E-06 3.44077E-07
 -1      7900 1.67785E-01-3.15180E-02 5.34066E-04-3.23787E-02 4.72445E-06 7.48281E-07
 -1      7901 1.67736E-01-3.15670E-02 4.20056E-04-3.23787E-02 9.10331E-06 1.44183E-06
 -1      7902 1.67660E-01-3.16424E-02 2.45723E-04-3.23787E-02 1.66277E-05 2.63358E-06
 -1      7903-2.57854E-02 1.61626E-01 2.22137E-04-3.04468E-02-2.51382E-06-1.58716E-05
 -1      7904-2.57166E-02 1.61695E-01 3.80824E-04-3.04468E-02-1.41793E-06-8.95243E-06
 -1      7905-2.56716E-02 1.61740E-01 4.85302E-04-3.04468E-02-7.60904E-07-4.80416E-06
 -1      7906-2.56438E-02 1.61768E-01 5.49750E-04-3.04468E-02-3.62076E-07-2.28605E-06
 -1      7907-2.56306E-02 1.61781E-01 5.80581E-04-3.04468E-02-1.05851E-07-6.68315E-07
 -1      7908-2.56306E-02 1.61781E-01 5.80581E-04-3.04468E-02 1.05851E-07 6.68315E-07
 -1      7909-2.56438E-02 1.61768E-01 5.49750E-04-3.04468E-02 3.62076E-07 2.28605E-06
 -1      7910-2.56716E-02 1.61740E-01 4.85302E-04-3.04468E-02 7.60904E-07 4.80416E-06
 -1      7911-2.57166E-02 1.61695E-01 3.80824E-04-3.04468E-02 1.41793E-06 8.95243E-06
 -1      7912-2.57854E-02 1.61626E-01 2.22137E-04-3.04468E-02 2.51382E-06 1.58716E-05
 -1      7913-1.17905E-02 1.47631E-01 2.22137E-04-5.79133E-02-4.96574E-06-1.52830E-05
 -1      7914-1.17218E-02 1.47700E-01 3.80824E-04-5.79133E-02-2.80094E-06-8.62040E-06
 -1      7915-1.16767E-02 1.47745E-01 4.85302E-04-5.79133E-02-1.50307E-06-4.62598E-06
 -1      7916-1.16490E-02 1.47773E-01 5.49750E-04-5.79133E-02-7.15235E-07-2.20127E-06
 -1      7917-1.16357E-02 1.47786E-01 5.80581E-04-5.79133E-02-2.09095E-07-6.43528E-07
 -1      7918-1.16357E-02 1.47786E-01 5.80581E-04-5.79133E-02 2.09095E-07 6.43528E-07
 -1      7919-1.16490E-02 1.47773E-01 5.49750E-04-5.79133E-02 7.15235E-07 2.20127E-06
 -1      7920-1.16767E-02 1.47745E-01 4.85302E-04-5.79133E-02 1.50307E-06 4.62598E-06
 -1      7921-1.17218E-02 1.47700E-01 3.80824E-04-5.79133E-02 2.80094E-06 8.62040E-06
 -1      7922-1.17905E-02 1.47631E-01 2.22137E-04-5.79133E-02 4.96574E-06 1.52830E-05
 -1      7923 1.00070E-02 1.25834E-01 2.22137E-04-7.97109E-02-7.29539E-06-1.43180E-05
 -1      7924 1.00757E-02 1.25902E-01 3.80824E-04-7.97108E-02-4.11498E-06-8.07611E-06
 -1      7925 1.01208E-02 1.25947E-01 4.85302E-04-7.97108E-02-2.20823E-06-4.33390E-06
 -1      7926 1.01485E-02 1.25975E-01 5.49750E-04-7.97108E-02-1.05078E-06-2.06228E-06
 -1      7927 1.01618E-02 1.25988E-01 5.80581E-04-7.97108E-02-3.07191E-07-6.02896E-07
 -1      7928 1.01618E-02 1.25988E-01 5.80581E-04-7.97108E-02 3.07191E-07 6.02896E-07
 -1      7929 1.01485E-02 1.25975E-01 5.49750E-04-7.97108E-02 1.05078E-06 2.06228E-06
 -1      7930 1.01208E-02 1.25947E-01 4.85302E-04-7.97108E-02 2.20823E-06 4.33390E-06
 -1      7931 1.00757E-02 1.25902E-01 3.80824E-04-7.97108E-02 4.11498E-06 8.07611E-06
 -1      7932 1.00070E-02 1.25834E-01 2.22137E-04-7.97109E-02 7.29539E-06 1.43180E-05
 -1      7933 3.74735E-02 9.83672E-02 2.22137E-04-9.37057E-02-9.44540E-06-1.30005E-05
 -1      7934 3.75422E-02 9.84358E-02 3.80824E-04-9.37057E-02-5.32771E-06-7.33295E-06
 -1      7935 3.75873E-02 9.84809E-02 4.85302E-04-9.37057E-02-2.85902E-06-3.93510E-06
 -1      7936 3.76150E-02 9.85087E-02 5.49750E-04-9.37057E-02-1.36046E-06-1.87251E-06
 -1      7937 3.76283E-02 9.85219E-02 5.80581E-04-9.37057E-02-3.97723E-07-5.47419E-07
 -1      7938 3.76283E-02 9.85219E-02 5.80581E-04-9.37057E-02 3.97723E-07 5.47419E-07
 -1      7939 3.76150E-02 9.85087E-02 5.49750E-04-9.37057E-02 1.36046E-06 1.87251E-06
 -1      7940 3.75873E-02 9.84809E-02 4.85302E-04-9.37057E-02 2.85902E-06 3.93510E-06
 -1      7941 3.75422E-02 9.84358E-02 3.80824E-04-9.37057E-02 5.32771E-06 7.33295E-06
 -1      7942 3.74735E-02 9.83672E-02 2.22137E-04-9.37057E-02 9.44540E-06 1.30005E-05
 -1      7943 6.79203E-02 6.79203E-02 2.22137E-04-9.85280E-02-1.13628E-05-1.13628E-05
 -1      7944 6.79890E-02 6.79890E-02 3.80824E-04-9.85280E-02-6.40924E-06-6.40924E-06
 -1      7945 6.80341E-02 6.80341E-02 4.85302E-04-9.85280E-02-3.43940E-06-3.43940E-06
 -1      7946 6.80618E-02 6.80618E-02 5.49750E-04-9.85280E-02-1.63664E-06-1.63663E-06
 -1      7947 6.80751E-02 6.80751E-02 5.80581E-04-9.85280E-02-4.78461E-07-4.78461E-07
 -1      7948 6.80751E-02 6.80751E-02 5.80581E-04-9.85280E-02 4.78461E-07 4.78461E-07
 -1      7949 6.80618E-02 6.80618E-02 5.49750E-04-9.85280E-02 1.63664E-06 1.63663E-06
 -1      7950 6.80341E-02 6.80341E-02 4.85302E-04-9.85280E-02 3.43940E-06 3.43940E-06
 -1      7951 6.79890E-02 6.79890E-02 3.80824E-04-9.85280E-02 6.40924E-06 6.40924E-06
 -1      7952 6.79203E-02 6.79203E-02 2.22137E-04-9.85280E-02 1.13628E-05 1.13628E-05
 -1      7953 9.83672E-02 3.74735E-02 2.22137E-04-9.37057E-02-1.30005E-05-9.44540E-06
 -1      7954 9.84358E-02 3.75422E-02 3.80824E-04-9.37057E-02-7.33294E-06-5.32770E-06
 -1      7955 9.84809E-02 3.75873E-02 4.85302E-04-9.37057E-02-3.93509E-06-2.85901E-06
 -1      7956 9.85087E-02 3.76150E-02 5.49750E-04-9.37057E-02-1.87251E-06-1.36046E-06
 -1      7957 9.85219E-02 3.76283E-02 5.80582E-04-9.37057E-02-5.47417E-07-3.97722E-07
 -1      7958 9.85219E-02 3.76283E-02 5.80582E-04-9.37057E-02 5.47417E-07 3.97722E-07
 -1      7959 9.85087E-02 3.76150E-02 5.49750E-04-9.37057E-02 1.87251E-06 1.36046E-06
 -1      7960 9.84809E-02 3.75873E-02 4.85302E-04-9.37057E-02 3.93509E-06 2.85901E-06
 -1      7961 9.84358E-02 3.75422E-02 3.80824E-04-9.37057E-02 7.33294E-06 5.32770E-06
 -1      7962 9.83672E-02 3.74735E-02 2.22137E-04-9.37057E-02 1.30005E-05 9.44540E-06
 -1      7963 1.25834E-01 1.00070E-02 2.22137E-04-7.97109E-02-1.43180E-05-7.29538E-06
 -1      7964 1.25902E-01 1.00757E-02 3.80824E-04-7.97108E-02-8.07611E-06-4.11498E-06
 -1      7965 1.25947E-01 1.01208E-02 4.85302E-04-7.97108E-02-4.33389E-06-2.20823E-06
 -1      7966 1.25975E-01 1.01485E-02 5.49750E-04-7.97108E-02-2.06228E-06-1.05079E-06
 -1      7967 1.25988E-01 1.01618E-02 5.80581E-04-7.97108E-02-6.02896E-07-3.07191E-07
 -1      7968 1.25988E-01 1.01618E-02 5.80581E-04-7.97108E-02 6.02896E-07 3.07191E-07
 -1      7969 1.25975E-01 1.01485E-02 5.49750E-04-7.97108E-02 2.06228E-06 1.05079E-06
 -1      7970 1.25947E-01 1.01208E-02 4.85302E-04-7.97108E-02 4.33389E-06 2.20823E-06
 -1      7971 1.25902E-01 1.00757E-02 3.80824E-04-7.97108E-02 8.07611E-06 4.11498E-06
 -1      7972 1.25834E-01 1.00070E-02 2.22137E-04-7.97109E-02 1.43180E-05 7.29538E-06
 -1      7973 1.47631E-01-1.17905E-02 2.22137E-04-5.79133E-02-1.52830E-05-4.96574E-06
 -1      7974 1.47700E-01-1.17218E-02 3.80824E-04-5.79133E-02-8.62041E-06-2.80094E-06
 -1      7975 1.47745E-01-1.16767E-02 4.85302E-04-5.79133E-02-4.62599E-06-1.50307E-06
 -1      7976 1.47773E-01-1.16490E-02 5.49750E-04-5.79133E-02-2.20127E-06-7.15236E-07
 -1      7977 1.47786E-01-1.16357E-02 5.80581E-04-5.79133E-02-6.43531E-07-2.09095E-07
 -1      7978 1.47786E-01-1.16357E-02 5.80581E-04-5.79133E-02 6.43530E-07 2.09095E-07
 -1      7979 1.47773E-01-1.16490E-02 5.49750E-04-5.79133E-02 2.20127E-06 7.15236E-07
 -1      7980 1.47745E-01-1.16767E-02 4.85302E-04-5.79133E-02 4.62599E-06 1.50307E-06
 -1      7981 1.47700E-01-1.17218E-02 3.80824E-04-5.79133E-02 8.62041E-06 2.80094E-06
 -1      7982 1.47631E-01-1.17905E-02 2.22137E-04-5.79133E-02 1.52830E-05 4.96574E-06
 -1      7983 1.61626E-01-2.57854E-02 2.22137E-04-3.04468E-02-1.58716E-05-2.51384E-06
 -1      7984 1.61695E-01-2.57166E-02 3.80824E-04-3.04468E-02-8.95243E-06-1.41793E-06
 -1      7985 1.61740E-01-2.56716E-02 4.85302E-04-3.04468E-02-4.80416E-06-7.60901E-07
 -1      7986 1.61768E-01-2.56438E-02 5.49750E-04-3.04468E-02-2.28605E-06-3.62072E-07
 -1      7987 1.61781E-01-2.56306E-02 5.80582E-04-3.04468E-02-6.68315E-07-1.05849E-07
 -1      7988 1.61781E-01-2.56306E-02 5.80582E-04-3.04468E-02 6.68315E-07 1.05849E-07
 -1      7989 1.61768E-01-2.56438E-02 5.49750E-04-3.04468E-02 2.28605E-06 3.62072E-07
 -1      7990 1.61740E-01-2.56716E-02 4.85302E-04-3.04468E-02 4.80416E-06 7.60901E-07
 -1      7991 1.61695E-01-2.57166E-02 3.80824E-04-3.04468E-02 8.95243E-06 1.41793E-06
 -1      7992 1.61626E-01-2.57854E-02 2.22137E-04-3.04468E-02 1.58716E-05 2.51384E-06
 -1      7993-2.04407E-02 1.56116E-01 2.00767E-04-2.86833E-02-2.40595E-06-1.51906E-05
 -1      7994-2.03777E-02 1.56178E-01 3.45258E-04-2.86833E-02-1.40057E-06-8.84288E-06
 -1      7995-2.03362E-02 1.56220E-01 4.40967E-04-2.86832E-02-7.77182E-07-4.90693E-06
 -1      7996-2.03105E-02 1.56245E-01 5.00268E-04-2.86832E-02-3.82314E-07-2.41384E-06
 -1      7997-2.02982E-02 1.56258E-01 5.28712E-04-2.86832E-02-1.14161E-07-7.20787E-07
 -1      7998-2.02982E-02 1.56258E-01 5.28712E-04-2.86832E-02 1.14161E-07 7.20787E-07
 -1      7999-2.03105E-02 1.56245E-01 5.00268E-04-2.86832E-02 3.82314E-07 2.41384E-06
 -1      8000-2.03362E-02 1.56220E-01 4.40967E-04-2.86832E-02 7.77182E-07 4.90693E-06
 -1      8001-2.03777E-02 1.56178E-01 3.45258E-04-2.86833E-02 1.40057E-06 8.84288E-06
 -1      8002-2.04407E-02 1.56116E-01 2.00767E-04-2.86833E-02 2.40595E-06 1.51906E-05
 -1      8003-7.25642E-03 1.42931E-01 2.00767E-04-5.45589E-02-4.75267E-06-1.46272E-05
 -1      8004-7.19343E-03 1.42994E-01 3.45258E-04-5.45588E-02-2.76666E-06-8.51491E-06
 -1      8005-7.15192E-03 1.43035E-01 4.40967E-04-5.45588E-02-1.53523E-06-4.72494E-06
 -1      8006-7.12628E-03 1.43061E-01 5.00268E-04-5.45587E-02-7.55214E-07-2.32431E-06
 -1      8007-7.11400E-03 1.43073E-01 5.28712E-04-5.45587E-02-2.25512E-07-6.94054E-07
 -1      8008-7.11400E-03 1.43073E-01 5.28712E-04-5.45587E-02 2.25512E-07 6.94054E-07
 -1      8009-7.12628E-03 1.43061E-01 5.00268E-04-5.45587E-02 7.55214E-07 2.32431E-06
 -1      8010-7.15192E-03 1.43035E-01 4.40967E-04-5.45588E-02 1.53523E-06 4.72494E-06
 -1      8011-7.19343E-03 1.42994E-01 3.45258E-04-5.45588E-02 2.76666E-06 8.51491E-06
 -1      8012-7.25642E-03 1.42931E-01 2.00767E-04-5.45589E-02 4.75267E-06 1.46272E-05
 -1      8013 1.32786E-02 1.22396E-01 2.00767E-04-7.50939E-02-6.98235E-06-1.37036E-05
 -1      8014 1.33415E-02 1.22459E-01 3.45258E-04-7.50938E-02-4.06462E-06-7.97728E-06
 -1      8015 1.33830E-02 1.22501E-01 4.40967E-04-7.50937E-02-2.25547E-06-4.42661E-06
 -1      8016 1.34086E-02 1.22526E-01 5.00268E-04-7.50937E-02-1.10952E-06-2.17755E-06
 -1      8017 1.34209E-02 1.22538E-01 5.28712E-04-7.50937E-02-3.31309E-07-6.50232E-07
 -1      8018 1.34209E-02 1.22538E-01 5.28712E-04-7.50937E-02 3.31309E-07 6.50232E-07
 -1      8019 1.34086E-02 1.22526E-01 5.00268E-04-7.50937E-02 1.10952E-06 2.17755E-06
 -1      8020 1.33830E-02 1.22501E-01 4.40967E-04-7.50937E-02 2.25547E-06 4.42661E-06
 -1      8021 1.33415E-02 1.22459E-01 3.45258E-04-7.50938E-02 4.06462E-06 7.97728E-06
 -1      8022 1.32786E-02 1.22396E-01 2.00767E-04-7.50939E-02 6.98235E-06 1.37036E-05
 -1      8023 3.91542E-02 9.65209E-02 2.00767E-04-8.82782E-02-9.04012E-06-1.24426E-05
 -1      8024 3.92171E-02 9.65836E-02 3.45258E-04-8.82780E-02-5.26251E-06-7.24322E-06
 -1      8025 3.92585E-02 9.66250E-02 4.40967E-04-8.82779E-02-2.92018E-06-4.01928E-06
 -1      8026 3.92842E-02 9.66506E-02 5.00268E-04-8.82779E-02-1.43650E-06-1.97718E-06
 -1      8027 3.92964E-02 9.66629E-02 5.28712E-04-8.82779E-02-4.28950E-07-5.90398E-07
 -1      8028 3.92964E-02 9.66629E-02 5.28712E-04-8.82779E-02 4.28950E-07 5.90398E-07
 -1      8029 3.92842E-02 9.66506E-02 5.00268E-04-8.82779E-02 1.43651E-06 1.97718E-06
 -1      8030 3.92585E-02 9.66250E-02 4.40967E-04-8.82779E-02 2.92018E-06 4.01928E-06
 -1      8031 3.92171E-02 9.65836E-02 3.45258E-04-8.82780E-02 5.26251E-06 7.24322E-06
 -1      8032 3.91542E-02 9.65209E-02 2.00767E-04-8.82782E-02 9.04012E-06 1.24426E-05
 -1      8033 6.78375E-02 6.78375E-02 2.00767E-04-9.28212E-02-1.08753E-05-1.08753E-05
 -1      8034 6.79003E-02 6.79003E-02 3.45258E-04-9.28210E-02-6.33080E-06-6.33081E-06
 -1      8035 6.79418E-02 6.79418E-02 4.40967E-04-9.28209E-02-3.51298E-06-3.51298E-06
 -1      8036 6.79674E-02 6.79674E-02 5.00268E-04-9.28209E-02-1.72812E-06-1.72811E-06
 -1      8037 6.79797E-02 6.79797E-02 5.28712E-04-9.28209E-02-5.16027E-07-5.16026E-07
 -1      8038 6.79797E-02 6.79797E-02 5.28712E-04-9.28209E-02 5.16027E-07 5.16026E-07
 -1      8039 6.79674E-02 6.79674E-02 5.00268E-04-9.28209E-02 1.72812E-06 1.72811E-06
 -1      8040 6.79418E-02 6.79418E-02 4.40967E-04-9.28209E-02 3.51298E-06 3.51298E-06
 -1      8041 6.79003E-02 6.79003E-02 3.45258E-04-9.28210E-02 6.33080E-06 6.33081E-06
 -1      8042 6.78375E-02 6.78375E-02 2.00767E-04-9.28212E-02 1.08753E-05 1.08753E-05
 -1      8043 9.65209E-02 3.91542E-02 2.00767E-04-8.82782E-02-1.24426E-05-9.04010E-06
 -1      8044 9.65836E-02 3.92171E-02 3.45259E-04-8.82780E-02-7.24321E-06-5.26250E-06
 -1      8045 9.66250E-02 3.92585E-02 4.40967E-04-8.82779E-02-4.01927E-06-2.92017E-06
 -1      8046 9.66506E-02 3.92842E-02 5.00268E-04-8.82779E-02-1.97717E-06-1.43650E-06
 -1      8047 9.66629E-02 3.92964E-02 5.28712E-04-8.82779E-02-5.90397E-07-4.28948E-07
 -1      8048 9.66629E-02 3.92964E-02 5.28712E-04-8.82779E-02 5.90397E-07 4.28948E-07
 -1      8049 9.66506E-02 3.92842E-02 5.00268E-04-8.82779E-02 1.97717E-06 1.43650E-06
 -1      8050 9.66250E-02 3.92585E-02 4.40967E-04-8.82779E-02 4.01927E-06 2.92017E-06
 -1      8051 9.65836E-02 3.92171E-02 3.45259E-04-8.82780E-02 7.24321E-06 5.26250E-06
 -1      8052 9.65209E-02 3.91542E-02 2.00767E-04-8.82782E-02 1.24426E-05 9.04010E-06
 -1      8053 1.22396E-01 1.32786E-02 2.00767E-04-7.50939E-02-1.37036E-05-6.98233E-06
 -1      8054 1.22459E-01 1.33415E-02 3.45258E-04-7.50938E-02-7.97728E-06-4.06462E-06
 -1      8055 1.22501E-01 1.33830E-02 4.40967E-04-7.50937E-02-4.42661E-06-2.25547E-06
 -1      8056 1.22526E-01 1.34086E-02 5.00268E-04-7.50937E-02-2.17755E-06-1.10952E-06
 -1      8057 1.22538E-01 1.34209E-02 5.28712E-04-7.50937E-02-6.50231E-07-3.31311E-07
 -1      8058 1.22538E-01 1.34209E-02 5.28712E-04-7.50937E-02 6.50231E-07 3.31311E-07
 -1      8059 1.22526E-01 1.34086E-02 5.00268E-04-7.50937E-02 2.17755E-06 1.10952E-06
 -1      8060 1.22501E-01 1.33830E-02 4.40967E-04-7.50937E-02 4.42661E-06 2.25547E-06
 -1      8061 1.22459E-01 1.33415E-02 3.45258E-04-7.50938E-02 7.97728E-06 4.06462E-06
 -1      8062 1.22396E-01 1.32786E-02 2.00767E-04-7.50939E-02 1.37036E-05 6.98233E-06
 -1      8063 1.42931E-01-7.25642E-03 2.00767E-04-5.45589E-02-1.46272E-05-4.75267E-06
 -1      8064 1.42994E-01-7.19344E-03 3.45258E-04-5.45588E-02-8.51493E-06-2.76667E-06
 -1      8065 1.43035E-01-7.15192E-03 4.40967E-04-5.45588E-02-4.72495E-06-1.53523E-06
 -1      8066 1.43061E-01-7.12628E-03 5.00268E-04-5.45587E-02-2.32432E-06-7.55214E-07
 -1      8067 1.43073E-01-7.11401E-03 5.28712E-04-5.45587E-02-6.94056E-07-2.25512E-07
 -1      8068 1.43073E-01-7.11401E-03 5.28712E-04-5.45587E-02 6.94056E-07 2.25512E-07
 -1      8069 1.43061E-01-7.12628E-03 5.00268E-04-5.45587E-02 2.32432E-06 7.55214E-07
 -1      8070 1.43035E-01-7.15192E-03 4.40967E-04-5.45588E-02 4.72495E-06 1.53523E-06
 -1      8071 1.42994E-01-7.19344E-03 3.45258E-04-5.45588E-02 8.51493E-06 2.76667E-06
 -1      8072 1.42931E-01-7.25642E-03 2.00767E-04-5.45589E-02 1.46272E-05 4.75267E-06
 -1      8073 1.56116E-01-2.04407E-02 2.00767E-04-2.86833E-02-1.51906E-05-2.40598E-06
 -1      8074 1.56178E-01-2.03777E-02 3.45258E-04-2.86833E-02-8.84287E-06-1.40058E-06
 -1      8075 1.56220E-01-2.03362E-02 4.40967E-04-2.86832E-02-4.90693E-06-7.77174E-07
 -1      8076 1.56245E-01-2.03105E-02 5.00268E-04-2.86832E-02-2.41383E-06-3.82307E-07
 -1      8077 1.56258E-01-2.02982E-02 5.28712E-04-2.86832E-02-7.20786E-07-1.14159E-07
 -1      8078 1.56258E-01-2.02982E-02 5.28712E-04-2.86832E-02 7.20786E-07 1.14159E-07
 -1      8079 1.56245E-01-2.03105E-02 5.00268E-04-2.86832E-02 2.41383E-06 3.82307E-07
 -1      8080 1.56220E-01-2.03362E-02 4.40967E-04-2.86832E-02 4.90693E-06 7.77174E-07
 -1      8081 1.56178E-01-2.03777E-02 3.45258E-04-2.86833E-02 8.84287E-06 1.40058E-06
 -1      8082 1.56116E-01-2.04407E-02 2.00767E-04-2.86833E-02 1.51906E-05 2.40598E-06
 -1      8083-1.55552E-02 1.51069E-01 1.80797E-04-2.70697E-02-2.31658E-06-1.46263E-05
 -1      8084-1.54971E-02 1.51126E-01 3.12043E-04-2.70696E-02-1.39974E-06-8.83762E-06
 -1      8085-1.54586E-02 1.51164E-01 3.99547E-04-2.70695E-02-8.08457E-07-5.10439E-06
 -1      8086-1.54348E-02 1.51187E-01 4.53954E-04-2.70694E-02-4.11393E-07-2.59743E-06
 -1      8087-1.54234E-02 1.51199E-01 4.80103E-04-2.70694E-02-1.25378E-07-7.91606E-07
 -1      8088-1.54234E-02 1.51199E-01 4.80103E-04-2.70694E-02 1.25378E-07 7.91606E-07
 -1      8089-1.54348E-02 1.51187E-01 4.53954E-04-2.70694E-02 4.11393E-07 2.59743E-06
 -1      8090-1.54586E-02 1.51164E-01 3.99547E-04-2.70695E-02 8.08457E-07 5.10439E-06
 -1      8091-1.54971E-02 1.51126E-01 3.12043E-04-2.70696E-02 1.39974E-06 8.83762E-06
 -1      8092-1.55552E-02 1.51069E-01 1.80797E-04-2.70697E-02 2.31658E-06 1.46263E-05
 -1      8093-3.11261E-03 1.38626E-01 1.80797E-04-5.14897E-02-4.57612E-06-1.40838E-05
 -1      8094-3.05462E-03 1.38683E-01 3.12043E-04-5.14894E-02-2.76501E-06-8.50984E-06
 -1      8095-3.01615E-03 1.38721E-01 3.99547E-04-5.14892E-02-1.59700E-06-4.91508E-06
 -1      8096-2.99234E-03 1.38745E-01 4.53954E-04-5.14891E-02-8.12654E-07-2.50110E-06
 -1      8097-2.98092E-03 1.38756E-01 4.80103E-04-5.14891E-02-2.47669E-07-7.62247E-07
 -1      8098-2.98092E-03 1.38756E-01 4.80103E-04-5.14891E-02 2.47669E-07 7.62247E-07
 -1      8099-2.99234E-03 1.38745E-01 4.53954E-04-5.14891E-02 8.12654E-07 2.50110E-06
 -1      8100-3.01615E-03 1.38721E-01 3.99547E-04-5.14892E-02 1.59700E-06 4.91508E-06
 -1      8101-3.05462E-03 1.38683E-01 3.12043E-04-5.14894E-02 2.76501E-06 8.50984E-06
 -1      8102-3.11261E-03 1.38626E-01 1.80797E-04-5.14897E-02 4.57612E-06 1.40838E-05
 -1      8103 1.62672E-02 1.19246E-01 1.80797E-04-7.08694E-02-6.72298E-06-1.31946E-05
 -1      8104 1.63250E-02 1.19304E-01 3.12043E-04-7.08690E-02-4.06221E-06-7.97253E-06
 -1      8105 1.63634E-02 1.19342E-01 3.99547E-04-7.08688E-02-2.34623E-06-4.60474E-06
 -1      8106 1.63872E-02 1.19365E-01 4.53954E-04-7.08687E-02-1.19391E-06-2.34318E-06
 -1      8107 1.63986E-02 1.19377E-01 4.80103E-04-7.08686E-02-3.63860E-07-7.14118E-07
 -1      8108 1.63986E-02 1.19377E-01 4.80103E-04-7.08686E-02 3.63860E-07 7.14118E-07
 -1      8109 1.63872E-02 1.19365E-01 4.53954E-04-7.08687E-02 1.19391E-06 2.34318E-06
 -1      8110 1.63634E-02 1.19342E-01 3.99547E-04-7.08688E-02 2.34623E-06 4.60474E-06
 -1      8111 1.63250E-02 1.19304E-01 3.12043E-04-7.08690E-02 4.06221E-06 7.97253E-06
 -1      8112 1.62672E-02 1.19246E-01 1.80797E-04-7.08694E-02 6.72298E-06 1.31946E-05
 -1      8113 4.06871E-02 9.48265E-02 1.80797E-04-8.33120E-02-8.70430E-06-1.19804E-05
 -1      8114 4.07448E-02 9.48839E-02 3.12042E-04-8.33115E-02-5.25938E-06-7.23891E-06
 -1      8115 4.07832E-02 9.49221E-02 3.99547E-04-8.33113E-02-3.03769E-06-4.18102E-06
 -1      8116 4.08069E-02 9.49458E-02 4.53954E-04-8.33111E-02-1.54576E-06-2.12756E-06
 -1      8117 4.08183E-02 9.49571E-02 4.80103E-04-8.33111E-02-4.71094E-07-6.48405E-07
 -1      8118 4.08183E-02 9.49571E-02 4.80103E-04-8.33111E-02 4.71095E-07 6.48405E-07
 -1      8119 4.08069E-02 9.49458E-02 4.53954E-04-8.33111E-02 1.54576E-06 2.12756E-06
 -1      8120 4.07832E-02 9.49221E-02 3.99547E-04-8.33113E-02 3.03769E-06 4.18102E-06
 -1      8121 4.07448E-02 9.48839E-02 3.12042E-04-8.33115E-02 5.25938E-06 7.23891E-06
 -1      8122 4.06871E-02 9.48265E-02 1.80797E-04-8.33120E-02 8.70430E-06 1.19804E-05
 -1      8123 6.77568E-02 6.77568E-02 1.80797E-04-8.75994E-02-1.04713E-05-1.04713E-05
 -1      8124 6.78144E-02 6.78144E-02 3.12042E-04-8.75989E-02-6.32704E-06-6.32704E-06
 -1      8125 6.78526E-02 6.78526E-02 3.99547E-04-8.75986E-02-3.65435E-06-3.65434E-06
 -1      8126 6.78763E-02 6.78763E-02 4.53954E-04-8.75985E-02-1.85956E-06-1.85955E-06
 -1      8127 6.78877E-02 6.78877E-02 4.80103E-04-8.75984E-02-5.66729E-07-5.66727E-07
 -1      8128 6.78877E-02 6.78877E-02 4.80103E-04-8.75984E-02 5.66729E-07 5.66727E-07
 -1      8129 6.78763E-02 6.78763E-02 4.53954E-04-8.75985E-02 1.85956E-06 1.85955E-06
 -1      8130 6.78526E-02 6.78526E-02 3.99547E-04-8.75986E-02 3.65435E-06 3.65434E-06
 -1      8131 6.78144E-02 6.78144E-02 3.12042E-04-8.75989E-02 6.32704E-06 6.32704E-06
 -1      8132 6.77568E-02 6.77568E-02 1.80797E-04-8.75994E-02 1.04713E-05 1.04713E-05
 -1      8133 9.48265E-02 4.06871E-02 1.80798E-04-8.33120E-02-1.19804E-05-8.70430E-06
 -1      8134 9.48840E-02 4.07448E-02 3.12043E-04-8.33115E-02-7.23890E-06-5.25937E-06
 -1      8135 9.49221E-02 4.07832E-02 3.99547E-04-8.33113E-02-4.18101E-06-3.03768E-06
 -1      8136 9.49458E-02 4.08069E-02 4.53955E-04-8.33111E-02-2.12756E-06-1.54576E-06
 -1      8137 9.49571E-02 4.08183E-02 4.80104E-04-8.33111E-02-6.48405E-07-4.71094E-07
 -1      8138 9.49571E-02 4.08183E-02 4.80104E-04-8.33111E-02 6.48405E-07 4.71094E-07
 -1      8139 9.49458E-02 4.08069E-02 4.53955E-04-8.33111E-02 2.12756E-06 1.54576E-06
 -1      8140 9.49221E-02 4.07832E-02 3.99547E-04-8.33113E-02 4.18101E-06 3.03768E-06
 -1      8141 9.48840E-02 4.07448E-02 3.12043E-04-8.33115E-02 7.23890E-06 5.25937E-06
 -1      8142 9.48265E-02 4.06871E-02 1.80798E-04-8.33120E-02 1.19804E-05 8.70430E-06
 -1      8143 1.19246E-01 1.62672E-02 1.80797E-04-7.08694E-02-1.31946E-05-6.72294E-06
 -1      8144 1.19304E-01 1.63250E-02 3.12043E-04-7.08690E-02-7.97253E-06-4.06219E-06
 -1      8145 1.19342E-01 1.63634E-02 3.99547E-04-7.08688E-02-4.60474E-06-2.34623E-06
 -1      8146 1.19365E-01 1.63872E-02 4.53954E-04-7.08687E-02-2.34317E-06-1.19391E-06
 -1      8147 1.19377E-01 1.63986E-02 4.80103E-04-7.08686E-02-7.14117E-07-3.63862E-07
 -1      8148 1.19377E-01 1.63986E-02 4.80103E-04-7.08686E-02 7.14117E-07 3.63862E-07
 -1      8149 1.19365E-01 1.63872E-02 4.53954E-04-7.08687E-02 2.34317E-06 1.19391E-06
 -1      8150 1.19342E-01 1.63634E-02 3.99547E-04-7.08688E-02 4.60474E-06 2.34623E-06
 -1      8151 1.19304E-01 1.63250E-02 3.12043E-04-7.08690E-02 7.97253E-06 4.06219E-06
 -1      8152 1.19246E-01 1.62672E-02 1.80797E-04-7.08694E-02 1.31946E-05 6.72294E-06
 -1      8153 1.38626E-01-3.11262E-03 1.80797E-04-5.14897E-02-1.40839E-05-4.57613E-06
 -1      8154 1.38683E-01-3.05463E-03 3.12042E-04-5.14894E-02-8.50986E-06-2.76501E-06
 -1      8155 1.38721E-01-3.01616E-03 3.99547E-04-5.14892E-02-4.91509E-06-1.59700E-06
 -1      8156 1.38745E-01-2.99234E-03 4.53954E-04-5.14891E-02-2.50110E-06-8.12653E-07
 -1      8157 1.38756E-01-2.98093E-03 4.80103E-04-5.14891E-02-7.62248E-07-2.47668E-07
 -1      8158 1.38756E-01-2.98093E-03 4.80103E-04-5.14891E-02 7.62248E-07 2.47668E-07
 -1      8159 1.38745E-01-2.99234E-03 4.53954E-04-5.14891E-02 2.50110E-06 8.12653E-07
 -1      8160 1.38721E-01-3.01616E-03 3.99547E-04-5.14892E-02 4.91509E-06 1.59700E-06
 -1      8161 1.38683E-01-3.05463E-03 3.12042E-04-5.14894E-02 8.50986E-06 2.76501E-06
 -1      8162 1.38626E-01-3.11262E-03 1.80797E-04-5.14897E-02 1.40839E-05 4.57613E-06
 -1      8163 1.51069E-01-1.55552E-02 1.80797E-04-2.70697E-02-1.46263E-05-2.31666E-06
 -1      8164 1.51126E-01-1.54971E-02 3.12043E-04-2.70696E-02-8.83761E-06-1.39975E-06
 -1      8165 1.51164E-01-1.54586E-02 3.99547E-04-2.70695E-02-5.10439E-06-8.08453E-07
 -1      8166 1.51187E-01-1.54348E-02 4.53954E-04-2.70694E-02-2.59743E-06-4.11387E-07
 -1      8167 1.51199E-01-1.54234E-02 4.80103E-04-2.70694E-02-7.91607E-07-1.25376E-07
 -1      8168 1.51199E-01-1.54234E-02 4.80103E-04-2.70694E-02 7.91607E-07 1.25376E-07
 -1      8169 1.51187E-01-1.54348E-02 4.53954E-04-2.70694E-02 2.59743E-06 4.11387E-07
 -1      8170 1.51164E-01-1.54586E-02 3.99547E-04-2.70695E-02 5.10439E-06 8.08453E-07
 -1      8171 1.51126E-01-1.54971E-02 3.12043E-04-2.70696E-02 8.83761E-06 1.39975E-06
 -1      8172 1.51069E-01-1.55552E-02 1.80797E-04-2.70697E-02 1.46263E-05 2.31666E-06
 -1      8173-1.10881E-02 1.46432E-01 1.60886E-04-2.55906E-02-2.26562E-06-1.43046E-05
 -1      8174-1.10336E-02 1.46484E-01 2.79553E-04-2.55903E-02-1.46002E-06-9.21819E-06
 -1      8175-1.09977E-02 1.46518E-01 3.58803E-04-2.55900E-02-8.94069E-07-5.64493E-06
 -1      8176-1.09756E-02 1.46540E-01 4.08261E-04-2.55900E-02-4.82671E-07-3.04747E-06
 -1      8177-1.09651E-02 1.46550E-01 4.32102E-04-2.55899E-02-1.52770E-07-9.64554E-07
 -1      8178-1.09651E-02 1.46550E-01 4.32102E-04-2.55899E-02 1.52770E-07 9.64554E-07
 -1      8179-1.09756E-02 1.46540E-01 4.08261E-04-2.55900E-02 4.82671E-07 3.04747E-06
 -1      8180-1.09977E-02 1.46518E-01 3.58803E-04-2.55900E-02 8.94069E-07 5.64493E-06
 -1      8181-1.10336E-02 1.46484E-01 2.79553E-04-2.55903E-02 1.46002E-06 9.21819E-06
 -1      8182-1.10881E-02 1.46432E-01 1.60886E-04-2.55906E-02 2.26562E-06 1.43046E-05
 -1      8183 6.74632E-04 1.34669E-01 1.60886E-04-4.86763E-02-4.47546E-06-1.37740E-05
 -1      8184 7.28979E-04 1.34721E-01 2.79553E-04-4.86755E-02-2.88408E-06-8.87630E-06
 -1      8185 7.64775E-04 1.34756E-01 3.58803E-04-4.86752E-02-1.76612E-06-5.43557E-06
 -1      8186 7.86787E-04 1.34778E-01 4.08261E-04-4.86750E-02-9.53456E-07-2.93444E-06
 -1      8187 7.97286E-04 1.34788E-01 4.32102E-04-4.86749E-02-3.01778E-07-9.28780E-07
 -1      8188 7.97286E-04 1.34788E-01 4.32102E-04-4.86749E-02 3.01778E-07 9.28780E-07
 -1      8189 7.86787E-04 1.34778E-01 4.08261E-04-4.86750E-02 9.53456E-07 2.93444E-06
 -1      8190 7.64775E-04 1.34756E-01 3.58803E-04-4.86752E-02 1.76612E-06 5.43557E-06
 -1      8191 7.28979E-04 1.34721E-01 2.79553E-04-4.86755E-02 2.88408E-06 8.87630E-06
 -1      8192 6.74632E-04 1.34669E-01 1.60886E-04-4.86763E-02 4.47546E-06 1.37740E-05
 -1      8193 1.89955E-02 1.16348E-01 1.60886E-04-6.69971E-02-6.57511E-06-1.29043E-05
 -1      8194 1.90496E-02 1.16401E-01 2.79553E-04-6.69961E-02-4.23714E-06-8.31584E-06
 -1      8195 1.90852E-02 1.16436E-01 3.58803E-04-6.69956E-02-2.59468E-06-5.09235E-06
 -1      8196 1.91072E-02 1.16457E-01 4.08260E-04-6.69954E-02-1.40076E-06-2.74915E-06
 -1      8197 1.91177E-02 1.16468E-01 4.32102E-04-6.69953E-02-4.43355E-07-8.70134E-07
 -1      8198 1.91177E-02 1.16468E-01 4.32102E-04-6.69953E-02 4.43355E-07 8.70134E-07
 -1      8199 1.91072E-02 1.16457E-01 4.08260E-04-6.69954E-02 1.40076E-06 2.74915E-06
 -1      8200 1.90852E-02 1.16436E-01 3.58803E-04-6.69956E-02 2.59468E-06 5.09235E-06
 -1      8201 1.90496E-02 1.16401E-01 2.79553E-04-6.69961E-02 4.23714E-06 8.31584E-06
 -1      8202 1.89955E-02 1.16348E-01 1.60886E-04-6.69971E-02 6.57511E-06 1.29043E-05
 -1      8203 4.20811E-02 9.32624E-02 1.60886E-04-7.87599E-02-8.51286E-06-1.17169E-05
 -1      8204 4.21349E-02 9.33154E-02 2.79553E-04-7.87587E-02-5.48587E-06-7.55063E-06
 -1      8205 4.21703E-02 9.33504E-02 3.58803E-04-7.87581E-02-3.35937E-06-4.62376E-06
 -1      8206 4.21922E-02 9.33721E-02 4.08260E-04-7.87578E-02-1.81358E-06-2.49618E-06
 -1      8207 4.22027E-02 9.33825E-02 4.32101E-04-7.87577E-02-5.74018E-07-7.90066E-07
 -1      8208 4.22027E-02 9.33825E-02 4.32101E-04-7.87577E-02 5.74018E-07 7.90066E-07
 -1      8209 4.21922E-02 9.33721E-02 4.08260E-04-7.87578E-02 1.81358E-06 2.49618E-06
 -1      8210 4.21703E-02 9.33504E-02 3.58803E-04-7.87581E-02 3.35937E-06 4.62376E-06
 -1      8211 4.21349E-02 9.33154E-02 2.79553E-04-7.87587E-02 5.48587E-06 7.55063E-06
 -1      8212 4.20811E-02 9.32624E-02 1.60886E-04-7.87599E-02 8.51286E-06 1.17169E-05
 -1      8213 6.76718E-02 6.76718E-02 1.60886E-04-8.28130E-02-1.02409E-05-1.02410E-05
 -1      8214 6.77251E-02 6.77251E-02 2.79553E-04-8.28118E-02-6.59948E-06-6.59954E-06
 -1      8215 6.77604E-02 6.77604E-02 3.58803E-04-8.28111E-02-4.04133E-06-4.04134E-06
 -1      8216 6.77822E-02 6.77822E-02 4.08260E-04-8.28108E-02-2.18175E-06-2.18176E-06
 -1      8217 6.77926E-02 6.77926E-02 4.32102E-04-8.28108E-02-6.90547E-07-6.90547E-07
 -1      8218 6.77926E-02 6.77926E-02 4.32102E-04-8.28108E-02 6.90547E-07 6.90547E-07
 -1      8219 6.77822E-02 6.77822E-02 4.08260E-04-8.28108E-02 2.18175E-06 2.18176E-06
 -1      8220 6.77604E-02 6.77604E-02 3.58803E-04-8.28111E-02 4.04133E-06 4.04134E-06
 -1      8221 6.77251E-02 6.77251E-02 2.79553E-04-8.28118E-02 6.59948E-06 6.59954E-06
 -1      8222 6.76718E-02 6.76718E-02 1.60886E-04-8.28130E-02 1.02409E-05 1.02410E-05
 -1      8223 9.32624E-02 4.20811E-02 1.60887E-04-7.87599E-02-1.17169E-05-8.51279E-06
 -1      8224 9.33154E-02 4.21349E-02 2.79554E-04-7.87587E-02-7.55060E-06-5.48586E-06
 -1      8225 9.33504E-02 4.21703E-02 3.58804E-04-7.87581E-02-4.62374E-06-3.35936E-06
 -1      8226 9.33721E-02 4.21922E-02 4.08261E-04-7.87578E-02-2.49617E-06-1.81358E-06
 -1      8227 9.33825E-02 4.22027E-02 4.32102E-04-7.87577E-02-7.90062E-07-5.74015E-07
 -1      8228 9.33825E-02 4.22027E-02 4.32102E-04-7.87577E-02 7.90062E-07 5.74015E-07
 -1      8229 9.33721E-02 4.21922E-02 4.08261E-04-7.87578E-02 2.49617E-06 1.81358E-06
 -1      8230 9.33504E-02 4.21703E-02 3.58804E-04-7.87581E-02 4.62374E-06 3.35936E-06
 -1      8231 9.33154E-02 4.21349E-02 2.79554E-04-7.87587E-02 7.55060E-06 5.48586E-06
 -1      8232 9.32624E-02 4.20811E-02 1.60887E-04-7.87599E-02 1.17169E-05 8.51279E-06
 -1      8233 1.16348E-01 1.89955E-02 1.60886E-04-6.69971E-02-1.29044E-05-6.57499E-06
 -1      8234 1.16401E-01 1.90496E-02 2.79553E-04-6.69961E-02-8.31586E-06-4.23709E-06
 -1      8235 1.16436E-01 1.90852E-02 3.58803E-04-6.69956E-02-5.09236E-06-2.59467E-06
 -1      8236 1.16457E-01 1.91072E-02 4.08260E-04-6.69954E-02-2.74916E-06-1.40076E-06
 -1      8237 1.16468E-01 1.91177E-02 4.32102E-04-6.69953E-02-8.70135E-07-4.43354E-07
 -1      8238 1.16468E-01 1.91177E-02 4.32102E-04-6.69953E-02 8.70135E-07 4.43354E-07
 -1      8239 1.16457E-01 1.91072E-02 4.08260E-04-6.69954E-02 2.74916E-06 1.40076E-06
 -1      8240 1.16436E-01 1.90852E-02 3.58803E-04-6.69956E-02 5.09236E-06 2.59467E-06
 -1      8241 1.16401E-01 1.90496E-02 2.79553E-04-6.69961E-02 8.31586E-06 4.23709E-06
 -1      8242 1.16348E-01 1.89955E-02 1.60886E-04-6.69971E-02 1.29044E-05 6.57499E-06
 -1      8243 1.34669E-01 6.74623E-04 1.60886E-04-4.86763E-02-1.37741E-05-4.47545E-06
 -1      8244 1.34721E-01 7.28970E-04 2.79553E-04-4.86755E-02-8.87633E-06-2.88411E-06
 -1      8245 1.34756E-01 7.64767E-04 3.58803E-04-4.86752E-02-5.43559E-06-1.76613E-06
 -1      8246 1.34778E-01 7.86779E-04 4.08260E-04-4.86750E-02-2.93446E-06-9.53460E-07
 -1      8247 1.34788E-01 7.97278E-04 4.32101E-04-4.86749E-02-9.28786E-07-3.01779E-07
 -1      8248 1.34788E-01 7.97278E-04 4.32101E-04-4.86749E-02 9.28786E-07 3.01779E-07
 -1      8249 1.34778E-01 7.86779E-04 4.08260E-04-4.86750E-02 2.93446E-06 9.53460E-07
 -1      8250 1.34756E-01 7.64767E-04 3.58803E-04-4.86752E-02 5.43559E-06 1.76613E-06
 -1      8251 1.34721E-01 7.28970E-04 2.79553E-04-4.86755E-02 8.87633E-06 2.88411E-06
 -1      8252 1.34669E-01 6.74623E-04 1.60886E-04-4.86763E-02 1.37741E-05 4.47545E-06
 -1      8253 1.46432E-01-1.10881E-02 1.60886E-04-2.55906E-02-1.43046E-05-2.26572E-06
 -1      8254 1.46484E-01-1.10336E-02 2.79554E-04-2.55902E-02-9.21819E-06-1.46012E-06
 -1      8255 1.46518E-01-1.09977E-02 3.58804E-04-2.55900E-02-5.64494E-06-8.94095E-07
 -1      8256 1.46540E-01-1.09756E-02 4.08261E-04-2.55900E-02-3.04748E-06-4.82678E-07
 -1      8257 1.46550E-01-1.09651E-02 4.32102E-04-2.55899E-02-9.64559E-07-1.52771E-07
 -1      8258 1.46550E-01-1.09651E-02 4.32102E-04-2.55899E-02 9.64559E-07 1.52771E-07
 -1      8259 1.46540E-01-1.09756E-02 4.08261E-04-2.55900E-02 3.04748E-06 4.82678E-07
 -1      8260 1.46518E-01-1.09977E-02 3.58804E-04-2.55900E-02 5.64494E-06 8.94095E-07
 -1      8261 1.46484E-01-1.10336E-02 2.79554E-04-2.55902E-02 9.21819E-06 1.46012E-06
 -1      8262 1.46432E-01-1.10881E-02 1.60886E-04-2.55906E-02 1.43046E-05 2.26572E-06
 -1      8263-7.01058E-03 1.42156E-01 1.40402E-04-2.42336E-02-2.38659E-06-1.50683E-05
 -1      8264-6.96001E-03 1.42203E-01 2.44177E-04-2.42329E-02-1.75150E-06-1.10586E-05
 -1      8265-6.92772E-03 1.42233E-01 3.14690E-04-2.42327E-02-1.26003E-06-7.95551E-06
 -1      8266-6.90832E-03 1.42253E-01 3.59283E-04-2.42327E-02-7.69984E-07-4.86149E-06
 -1      8267-6.89920E-03 1.42262E-01 3.80942E-04-2.42327E-02-2.59959E-07-1.64132E-06
 -1      8268-6.89920E-03 1.42262E-01 3.80942E-04-2.42327E-02 2.59959E-07 1.64132E-06
 -1      8269-6.90832E-03 1.42253E-01 3.59283E-04-2.42327E-02 7.69984E-07 4.86149E-06
 -1      8270-6.92772E-03 1.42233E-01 3.14690E-04-2.42327E-02 1.26003E-06 7.95551E-06
 -1      8271-6.96001E-03 1.42203E-01 2.44177E-04-2.42329E-02 1.75150E-06 1.10586E-05
 -1      8272-7.01058E-03 1.42156E-01 1.40402E-04-2.42336E-02 2.38659E-06 1.50683E-05
 -1      8273 4.12839E-03 1.31017E-01 1.40402E-04-4.60951E-02-4.71440E-06-1.45095E-05
 -1      8274 4.17864E-03 1.31064E-01 2.44177E-04-4.60938E-02-3.45988E-06-1.06484E-05
 -1      8275 4.21083E-03 1.31095E-01 3.14690E-04-4.60933E-02-2.48903E-06-7.66045E-06
 -1      8276 4.23021E-03 1.31114E-01 3.59283E-04-4.60933E-02-1.52101E-06-4.68119E-06
 -1      8277 4.23934E-03 1.31123E-01 3.80942E-04-4.60933E-02-5.13517E-07-1.58045E-06
 -1      8278 4.23934E-03 1.31123E-01 3.80942E-04-4.60933E-02 5.13517E-07 1.58045E-06
 -1      8279 4.23021E-03 1.31114E-01 3.59283E-04-4.60933E-02 1.52101E-06 4.68119E-06
 -1      8280 4.21083E-03 1.31095E-01 3.14690E-04-4.60933E-02 2.48903E-06 7.66045E-06
 -1      8281 4.17864E-03 1.31064E-01 2.44177E-04-4.60938E-02 3.45988E-06 1.06484E-05
 -1      8282 4.12839E-03 1.31017E-01 1.40402E-04-4.60951E-02 4.71440E-06 1.45095E-05
 -1      8283 2.14777E-02 1.13668E-01 1.40402E-04-6.34444E-02-6.92616E-06-1.35933E-05
 -1      8284 2.15275E-02 1.13715E-01 2.44176E-04-6.34426E-02-5.08307E-06-9.97606E-06
 -1      8285 2.15595E-02 1.13746E-01 3.14689E-04-6.34420E-02-3.65675E-06-7.17675E-06
 -1      8286 2.15789E-02 1.13765E-01 3.59282E-04-6.34419E-02-2.23459E-06-4.38561E-06
 -1      8287 2.15880E-02 1.13775E-01 3.80942E-04-6.34420E-02-7.54432E-07-1.48065E-06
 -1      8288 2.15880E-02 1.13775E-01 3.80942E-04-6.34420E-02 7.54432E-07 1.48065E-06
 -1      8289 2.15789E-02 1.13765E-01 3.59282E-04-6.34419E-02 2.23459E-06 4.38561E-06
 -1      8290 2.15595E-02 1.13746E-01 3.14689E-04-6.34420E-02 3.65675E-06 7.17675E-06
 -1      8291 2.15275E-02 1.13715E-01 2.44176E-04-6.34426E-02 5.08307E-06 9.97606E-06
 -1      8292 2.14777E-02 1.13668E-01 1.40402E-04-6.34444E-02 6.92616E-06 1.35933E-05
 -1      8293 4.33392E-02 9.18064E-02 1.40401E-04-7.45834E-02-8.96734E-06-1.23426E-05
 -1      8294 4.33883E-02 9.18542E-02 2.44176E-04-7.45813E-02-6.58115E-06-9.05813E-06
 -1      8295 4.34201E-02 9.18855E-02 3.14689E-04-7.45806E-02-4.73448E-06-6.51640E-06
 -1      8296 4.34395E-02 9.19048E-02 3.59282E-04-7.45805E-02-2.89317E-06-3.98209E-06
 -1      8297 4.34486E-02 9.19140E-02 3.80942E-04-7.45805E-02-9.76784E-07-1.34442E-06
 -1      8298 4.34486E-02 9.19140E-02 3.80942E-04-7.45805E-02 9.76784E-07 1.34442E-06
 -1      8299 4.34395E-02 9.19048E-02 3.59282E-04-7.45805E-02 2.89317E-06 3.98209E-06
 -1      8300 4.34201E-02 9.18855E-02 3.14689E-04-7.45806E-02 4.73448E-06 6.51640E-06
 -1      8301 4.33883E-02 9.18542E-02 2.44176E-04-7.45813E-02 6.58115E-06 9.05813E-06
 -1      8302 4.33392E-02 9.18064E-02 1.40401E-04-7.45834E-02 8.96734E-06 1.23426E-05
 -1      8303 6.75728E-02 6.75728E-02 1.40402E-04-7.84216E-02-1.07875E-05-1.07880E-05
 -1      8304 6.76213E-02 6.76213E-02 2.44177E-04-7.84194E-02-7.91713E-06-7.91713E-06
 -1      8305 6.76528E-02 6.76528E-02 3.14690E-04-7.84186E-02-5.69558E-06-5.69558E-06
 -1      8306 6.76721E-02 6.76721E-02 3.59283E-04-7.84185E-02-3.48049E-06-3.48049E-06
 -1      8307 6.76813E-02 6.76813E-02 3.80942E-04-7.84186E-02-1.17507E-06-1.17507E-06
 -1      8308 6.76813E-02 6.76813E-02 3.80942E-04-7.84186E-02 1.17507E-06 1.17507E-06
 -1      8309 6.76721E-02 6.76721E-02 3.59283E-04-7.84185E-02 3.48049E-06 3.48049E-06
 -1      8310 6.76528E-02 6.76528E-02 3.14690E-04-7.84186E-02 5.69558E-06 5.69558E-06
 -1      8311 6.76213E-02 6.76213E-02 2.44177E-04-7.84194E-02 7.91713E-06 7.91713E-06
 -1      8312 6.75728E-02 6.75728E-02 1.40402E-04-7.84216E-02 1.07875E-05 1.07880E-05
 -1      8313 9.18064E-02 4.33392E-02 1.40402E-04-7.45834E-02-1.23423E-05-8.96744E-06
 -1      8314 9.18542E-02 4.33883E-02 2.44177E-04-7.45813E-02-9.05796E-06-6.58097E-06
 -1      8315 9.18855E-02 4.34202E-02 3.14690E-04-7.45806E-02-6.51623E-06-4.73431E-06
 -1      8316 9.19048E-02 4.34395E-02 3.59283E-04-7.45805E-02-3.98196E-06-2.89306E-06
 -1      8317 9.19140E-02 4.34486E-02 3.80942E-04-7.45805E-02-1.34437E-06-9.76741E-07
 -1      8318 9.19140E-02 4.34486E-02 3.80942E-04-7.45805E-02 1.34437E-06 9.76741E-07
 -1      8319 9.19048E-02 4.34395E-02 3.59283E-04-7.45805E-02 3.98196E-06 2.89306E-06
 -1      8320 9.18855E-02 4.34202E-02 3.14690E-04-7.45806E-02 6.51623E-06 4.73431E-06
 -1      8321 9.18542E-02 4.33883E-02 2.44177E-04-7.45813E-02 9.05796E-06 6.58097E-06
 -1      8322 9.18064E-02 4.33392E-02 1.40402E-04-7.45834E-02 1.23423E-05 8.96744E-06
 -1      8323 1.13668E-01 2.14777E-02 1.40402E-04-6.34444E-02-1.35934E-05-6.92600E-06
 -1      8324 1.13715E-01 2.15275E-02 2.44176E-04-6.34426E-02-9.97611E-06-5.08299E-06
 -1      8325 1.13746E-01 2.15595E-02 3.14690E-04-6.34420E-02-7.17679E-06-3.65667E-06
 -1      8326 1.13765E-01 2.15789E-02 3.59282E-04-6.34419E-02-4.38563E-06-2.23455E-06
 -1      8327 1.13775E-01 2.15880E-02 3.80942E-04-6.34420E-02-1.48066E-06-7.54425E-07
 -1      8328 1.13775E-01 2.15880E-02 3.80942E-04-6.34420E-02 1.48066E-06 7.54425E-07
 -1      8329 1.13765E-01 2.15789E-02 3.59282E-04-6.34419E-02 4.38563E-06 2.23455E-06
 -1      8330 1.13746E-01 2.15595E-02 3.14690E-04-6.34420E-02 7.17679E-06 3.65667E-06
 -1      8331 1.13715E-01 2.15275E-02 2.44176E-04-6.34426E-02 9.97611E-06 5.08299E-06
 -1      8332 1.13668E-01 2.14777E-02 1.40402E-04-6.34444E-02 1.35934E-05 6.92600E-06
 -1      8333 1.31017E-01 4.12838E-03 1.40401E-04-4.60951E-02-1.45096E-05-4.71470E-06
 -1      8334 1.31064E-01 4.17863E-03 2.44176E-04-4.60938E-02-1.06487E-05-3.45992E-06
 -1      8335 1.31095E-01 4.21082E-03 3.14689E-04-4.60933E-02-7.66070E-06-2.48907E-06
 -1      8336 1.31114E-01 4.23020E-03 3.59282E-04-4.60933E-02-4.68136E-06-1.52105E-06
 -1      8337 1.31123E-01 4.23933E-03 3.80941E-04-4.60933E-02-1.58051E-06-5.13533E-07
 -1      8338 1.31123E-01 4.23933E-03 3.80941E-04-4.60933E-02 1.58051E-06 5.13533E-07
 -1      8339 1.31114E-01 4.23020E-03 3.59282E-04-4.60933E-02 4.68136E-06 1.52105E-06
 -1      8340 1.31095E-01 4.21082E-03 3.14689E-04-4.60933E-02 7.66070E-06 2.48907E-06
 -1      8341 1.31064E-01 4.17863E-03 2.44176E-04-4.60938E-02 1.06487E-05 3.45992E-06
 -1      8342 1.31017E-01 4.12838E-03 1.40401E-04-4.60951E-02 1.45096E-05 4.71470E-06
 -1      8343 1.42156E-01-7.01058E-03 1.40402E-04-2.42336E-02-1.50682E-05-2.38727E-06
 -1      8344 1.42203E-01-6.96001E-03 2.44177E-04-2.42329E-02-1.10586E-05-1.75155E-06
 -1      8345 1.42233E-01-6.92771E-03 3.14690E-04-2.42327E-02-7.95550E-06-1.26006E-06
 -1      8346 1.42253E-01-6.90832E-03 3.59283E-04-2.42327E-02-4.86148E-06-7.69993E-07
 -1      8347 1.42262E-01-6.89920E-03 3.80943E-04-2.42327E-02-1.64131E-06-2.59960E-07
 -1      8348 1.42262E-01-6.89920E-03 3.80943E-04-2.42327E-02 1.64131E-06 2.59960E-07
 -1      8349 1.42253E-01-6.90832E-03 3.59283E-04-2.42327E-02 4.86148E-06 7.69993E-07
 -1      8350 1.42233E-01-6.92771E-03 3.14690E-04-2.42327E-02 7.95550E-06 1.26006E-06
 -1      8351 1.42203E-01-6.96001E-03 2.44177E-04-2.42329E-02 1.10586E-05 1.75155E-06
 -1      8352 1.42156E-01-7.01058E-03 1.40402E-04-2.42336E-02 1.50682E-05 2.38727E-06
 -1      8353-3.31911E-03 1.38192E-01 1.09349E-04-2.29899E-02-2.99860E-06-1.89324E-05
 -1      8354-3.27423E-03 1.38232E-01 2.00339E-04-2.29892E-02-2.98303E-06-1.88341E-05
 -1      8355-3.24750E-03 1.38259E-01 2.63067E-04-2.29892E-02-2.45505E-06-1.55006E-05
 -1      8356-3.23225E-03 1.38276E-01 3.02884E-04-2.29894E-02-1.59071E-06-1.00433E-05
 -1      8357-3.22526E-03 1.38284E-01 3.22252E-04-2.29895E-02-5.48604E-07-3.46375E-06
 -1      8358-3.22526E-03 1.38284E-01 3.22252E-04-2.29895E-02 5.48604E-07 3.46375E-06
 -1      8359-3.23225E-03 1.38276E-01 3.02884E-04-2.29894E-02 1.59071E-06 1.00433E-05
 -1      8360-3.24750E-03 1.38259E-01 2.63067E-04-2.29892E-02 2.45505E-06 1.55006E-05
 -1      8361-3.27423E-03 1.38232E-01 2.00339E-04-2.29892E-02 2.98303E-06 1.88341E-05
 -1      8362-3.31911E-03 1.38192E-01 1.09349E-04-2.29899E-02 2.99860E-06 1.89324E-05
 -1      8363 7.24818E-03 1.27625E-01 1.09349E-04-4.37293E-02-5.92343E-06-1.82302E-05
 -1      8364 7.29273E-03 1.27666E-01 2.00339E-04-4.37280E-02-5.89264E-06-1.81356E-05
 -1      8365 7.31945E-03 1.27692E-01 2.63067E-04-4.37280E-02-4.84966E-06-1.49257E-05
 -1      8366 7.33480E-03 1.27709E-01 3.02884E-04-4.37284E-02-3.14225E-06-9.67085E-06
 -1      8367 7.34186E-03 1.27716E-01 3.22252E-04-4.37286E-02-1.08370E-06-3.33529E-06
 -1      8368 7.34186E-03 1.27716E-01 3.22252E-04-4.37286E-02 1.08370E-06 3.33529E-06
 -1      8369 7.33480E-03 1.27709E-01 3.02884E-04-4.37284E-02 3.14225E-06 9.67085E-06
 -1      8370 7.31945E-03 1.27692E-01 2.63067E-04-4.37280E-02 4.84966E-06 1.49257E-05
 -1      8371 7.29273E-03 1.27666E-01 2.00339E-04-4.37280E-02 5.89264E-06 1.81356E-05
 -1      8372 7.24818E-03 1.27625E-01 1.09349E-04-4.37293E-02 5.92343E-06 1.82302E-05
 -1      8373 2.37071E-02 1.11166E-01 1.09349E-04-6.01883E-02-8.70257E-06-1.70791E-05
 -1      8374 2.37511E-02 1.11207E-01 2.00340E-04-6.01864E-02-8.65728E-06-1.69906E-05
 -1      8375 2.37779E-02 1.11234E-01 2.63067E-04-6.01864E-02-7.12492E-06-1.39834E-05
 -1      8376 2.37934E-02 1.11250E-01 3.02884E-04-6.01869E-02-4.61645E-06-9.06029E-06
 -1      8377 2.38005E-02 1.11258E-01 3.22252E-04-6.01873E-02-1.59212E-06-3.12472E-06
 -1      8378 2.38005E-02 1.11258E-01 3.22252E-04-6.01873E-02 1.59212E-06 3.12472E-06
 -1      8379 2.37934E-02 1.11250E-01 3.02884E-04-6.01869E-02 4.61645E-06 9.06029E-06
 -1      8380 2.37779E-02 1.11234E-01 2.63067E-04-6.01864E-02 7.12492E-06 1.39834E-05
 -1      8381 2.37511E-02 1.11207E-01 2.00340E-04-6.01864E-02 8.65728E-06 1.69906E-05
 -1      8382 2.37071E-02 1.11166E-01 1.09349E-04-6.01883E-02 8.70257E-06 1.70791E-05
 -1      8383 4.44466E-02 9.04263E-02 1.09350E-04-7.07556E-02-1.12676E-05-1.55076E-05
 -1      8384 4.44900E-02 9.04683E-02 2.00340E-04-7.07534E-02-1.12088E-05-1.54274E-05
 -1      8385 4.45167E-02 9.04950E-02 2.63068E-04-7.07533E-02-9.22487E-06-1.26970E-05
 -1      8386 4.45324E-02 9.05111E-02 3.02885E-04-7.07540E-02-5.97709E-06-8.22684E-06
 -1      8387 4.45396E-02 9.05187E-02 3.22253E-04-7.07544E-02-2.06138E-06-2.83728E-06
 -1      8388 4.45396E-02 9.05187E-02 3.22253E-04-7.07544E-02 2.06138E-06 2.83728E-06
 -1      8389 4.45324E-02 9.05111E-02 3.02885E-04-7.07540E-02 5.97709E-06 8.22684E-06
 -1      8390 4.45167E-02 9.04950E-02 2.63068E-04-7.07533E-02 9.22487E-06 1.26970E-05
 -1      8391 4.44900E-02 9.04683E-02 2.00340E-04-7.07534E-02 1.12088E-05 1.54274E-05
 -1      8392 4.44466E-02 9.04263E-02 1.09350E-04-7.07556E-02 1.12676E-05 1.55076E-05
 -1      8393 6.74365E-02 6.74365E-02 1.09349E-04-7.43968E-02-1.35549E-05-1.35538E-05
 -1      8394 6.74791E-02 6.74791E-02 2.00340E-04-7.43945E-02-1.34838E-05-1.34842E-05
 -1      8395 6.75058E-02 6.75059E-02 2.63068E-04-7.43945E-02-1.10973E-05-1.10976E-05
 -1      8396 6.75217E-02 6.75217E-02 3.02885E-04-7.43951E-02-7.19033E-06-7.19050E-06
 -1      8397 6.75291E-02 6.75292E-02 3.22253E-04-7.43956E-02-2.47981E-06-2.47986E-06
 -1      8398 6.75291E-02 6.75292E-02 3.22253E-04-7.43956E-02 2.47981E-06 2.47986E-06
 -1      8399 6.75217E-02 6.75217E-02 3.02885E-04-7.43951E-02 7.19033E-06 7.19050E-06
 -1      8400 6.75058E-02 6.75059E-02 2.63068E-04-7.43945E-02 1.10973E-05 1.10976E-05
 -1      8401 6.74791E-02 6.74791E-02 2.00340E-04-7.43945E-02 1.34838E-05 1.34842E-05
 -1      8402 6.74365E-02 6.74365E-02 1.09349E-04-7.43968E-02 1.35549E-05 1.35538E-05
 -1      8403 9.04263E-02 4.44466E-02 1.09348E-04-7.07556E-02-1.55075E-05-1.12657E-05
 -1      8404 9.04683E-02 4.44900E-02 2.00338E-04-7.07534E-02-1.54264E-05-1.12080E-05
 -1      8405 9.04950E-02 4.45167E-02 2.63066E-04-7.07534E-02-1.26959E-05-9.22425E-06
 -1      8406 9.05111E-02 4.45324E-02 3.02883E-04-7.07540E-02-8.22604E-06-5.97666E-06
 -1      8407 9.05187E-02 4.45397E-02 3.22251E-04-7.07544E-02-2.83699E-06-2.06123E-06
 -1      8408 9.05187E-02 4.45397E-02 3.22251E-04-7.07544E-02 2.83699E-06 2.06123E-06
 -1      8409 9.05111E-02 4.45324E-02 3.02883E-04-7.07540E-02 8.22604E-06 5.97666E-06
 -1      8410 9.04950E-02 4.45167E-02 2.63066E-04-7.07534E-02 1.26959E-05 9.22425E-06
 -1      8411 9.04683E-02 4.44900E-02 2.00338E-04-7.07534E-02 1.54264E-05 1.12080E-05
 -1      8412 9.04263E-02 4.44466E-02 1.09348E-04-7.07556E-02 1.55075E-05 1.12657E-05
 -1      8413 1.11166E-01 2.37071E-02 1.09349E-04-6.01883E-02-1.70797E-05-8.70144E-06
 -1      8414 1.11207E-01 2.37512E-02 2.00339E-04-6.01864E-02-1.69909E-05-8.65663E-06
 -1      8415 1.11234E-01 2.37779E-02 2.63067E-04-6.01864E-02-1.39834E-05-7.12480E-06
 -1      8416 1.11250E-01 2.37934E-02 3.02884E-04-6.01869E-02-9.06028E-06-4.61645E-06
 -1      8417 1.11258E-01 2.38005E-02 3.22252E-04-6.01873E-02-3.12471E-06-1.59213E-06
 -1      8418 1.11258E-01 2.38005E-02 3.22252E-04-6.01873E-02 3.12471E-06 1.59213E-06
 -1      8419 1.11250E-01 2.37934E-02 3.02884E-04-6.01869E-02 9.06028E-06 4.61645E-06
 -1      8420 1.11234E-01 2.37779E-02 2.63067E-04-6.01864E-02 1.39834E-05 7.12480E-06
 -1      8421 1.11207E-01 2.37512E-02 2.00339E-04-6.01864E-02 1.69909E-05 8.65663E-06
 -1      8422 1.11166E-01 2.37071E-02 1.09349E-04-6.01883E-02 1.70797E-05 8.70144E-06
 -1      8423 1.27625E-01 7.24817E-03 1.09351E-04-4.37294E-02-1.82316E-05-5.92268E-06
 -1      8424 1.27666E-01 7.29272E-03 2.00341E-04-4.37280E-02-1.81367E-05-5.89299E-06
 -1      8425 1.27692E-01 7.31945E-03 2.63069E-04-4.37280E-02-1.49267E-05-4.85016E-06
 -1      8426 1.27709E-01 7.33480E-03 3.02886E-04-4.37284E-02-9.67159E-06-3.14262E-06
 -1      8427 1.27716E-01 7.34185E-03 3.22254E-04-4.37286E-02-3.33556E-06-1.08383E-06
 -1      8428 1.27716E-01 7.34185E-03 3.22254E-04-4.37286E-02 3.33556E-06 1.08383E-06
 -1      8429 1.27709E-01 7.33480E-03 3.02886E-04-4.37284E-02 9.67159E-06 3.14262E-06
 -1      8430 1.27692E-01 7.31945E-03 2.63069E-04-4.37280E-02 1.49267E-05 4.85016E-06
 -1      8431 1.27666E-01 7.29272E-03 2.00341E-04-4.37280E-02 1.81367E-05 5.89299E-06
 -1      8432 1.27625E-01 7.24817E-03 1.09351E-04-4.37294E-02 1.82316E-05 5.92268E-06
 -1      8433 1.38192E-01-3.31911E-03 1.09348E-04-2.29899E-02-1.89320E-05-2.99773E-06
 -1      8434 1.38232E-01-3.27423E-03 2.00338E-04-2.29892E-02-1.88335E-05-2.98375E-06
 -1      8435 1.38259E-01-3.24750E-03 2.63066E-04-2.29892E-02-1.55001E-05-2.45539E-06
 -1      8436 1.38276E-01-3.23224E-03 3.02883E-04-2.29894E-02-1.00430E-05-1.59087E-06
 -1      8437 1.38284E-01-3.22526E-03 3.22251E-04-2.29895E-02-3.46363E-06-5.48651E-07
 -1      8438 1.38284E-01-3.22526E-03 3.22251E-04-2.29895E-02 3.46363E-06 5.48651E-07
 -1      8439 1.38276E-01-3.23224E-03 3.02883E-04-2.29894E-02 1.00430E-05 1.59087E-06
 -1      8440 1.38259E-01-3.24750E-03 2.63066E-04-2.29892E-02 1.55001E-05 2.45539E-06
 -1      8441 1.38232E-01-3.27423E-03 2.00338E-04-2.29892E-02 1.88335E-05 2.98375E-06
 -1      8442 1.38192E-01-3.31911E-03 1.09348E-04-2.29899E-02 1.89320E-05 2.99773E-06
 -1      8443-8.37728E-06 1.34479E-01 9.71972E-05-2.18488E-02-3.65245E-06-2.30609E-05
 -1      8444 2.05334E-05 1.34506E-01 1.59550E-04-2.18485E-02-4.17421E-06-2.63551E-05
 -1      8445 3.80197E-05 1.34524E-01 2.02555E-04-2.18486E-02-3.47694E-06-2.19525E-05
 -1      8446 4.78882E-05 1.34535E-01 2.29480E-04-2.18488E-02-2.22398E-06-1.40417E-05
 -1      8447 5.23400E-05 1.34540E-01 2.42420E-04-2.18489E-02-7.59328E-07-4.79421E-06
 -1      8448 5.23400E-05 1.34540E-01 2.42420E-04-2.18489E-02 7.59328E-07 4.79421E-06
 -1      8449 4.78882E-05 1.34535E-01 2.29480E-04-2.18488E-02 2.22398E-06 1.40417E-05
 -1      8450 3.80197E-05 1.34524E-01 2.02555E-04-2.18486E-02 3.47694E-06 2.19525E-05
 -1      8451 2.05334E-05 1.34506E-01 1.59550E-04-2.18485E-02 4.17421E-06 2.63551E-05
 -1      8452-8.37728E-06 1.34479E-01 9.71972E-05-2.18488E-02 3.65245E-06 2.30609E-05
 -1      8453 1.00344E-02 1.24436E-01 9.71970E-05-4.15589E-02-7.21484E-06-2.22056E-05
 -1      8454 1.00632E-02 1.24463E-01 1.59550E-04-4.15583E-02-8.24562E-06-2.53776E-05
 -1      8455 1.00807E-02 1.24481E-01 2.02555E-04-4.15584E-02-6.86827E-06-2.11384E-05
 -1      8456 1.00907E-02 1.24492E-01 2.29479E-04-4.15588E-02-4.39321E-06-1.35209E-05
 -1      8457 1.00952E-02 1.24498E-01 2.42420E-04-4.15591E-02-1.49996E-06-4.61641E-06
 -1      8458 1.00952E-02 1.24498E-01 2.42420E-04-4.15591E-02 1.49996E-06 4.61641E-06
 -1      8459 1.00907E-02 1.24492E-01 2.29479E-04-4.15588E-02 4.39321E-06 1.35209E-05
 -1      8460 1.00807E-02 1.24481E-01 2.02555E-04-4.15584E-02 6.86827E-06 2.11384E-05
 -1      8461 1.00632E-02 1.24463E-01 1.59550E-04-4.15583E-02 8.24562E-06 2.53776E-05
 -1      8462 1.00344E-02 1.24436E-01 9.71970E-05-4.15589E-02 7.21484E-06 2.22056E-05
 -1      8463 2.56764E-02 1.08794E-01 9.71955E-05-5.72009E-02-1.05995E-05-2.08040E-05
 -1      8464 2.57049E-02 1.08821E-01 1.59548E-04-5.72000E-02-1.21138E-05-2.37758E-05
 -1      8465 2.57225E-02 1.08839E-01 2.02553E-04-5.72003E-02-1.00905E-05-1.98040E-05
 -1      8466 2.57326E-02 1.08850E-01 2.29478E-04-5.72008E-02-6.45427E-06-1.26674E-05
 -1      8467 2.57373E-02 1.08855E-01 2.42419E-04-5.72012E-02-2.20366E-06-4.32499E-06
 -1      8468 2.57373E-02 1.08855E-01 2.42419E-04-5.72012E-02 2.20366E-06 4.32499E-06
 -1      8469 2.57326E-02 1.08850E-01 2.29478E-04-5.72008E-02 6.45427E-06 1.26674E-05
 -1      8470 2.57225E-02 1.08839E-01 2.02553E-04-5.72003E-02 1.00905E-05 1.98040E-05
 -1      8471 2.57049E-02 1.08821E-01 1.59548E-04-5.72000E-02 1.21138E-05 2.37758E-05
 -1      8472 2.56764E-02 1.08794E-01 9.71955E-05-5.72009E-02 1.05995E-05 2.08040E-05
 -1      8473 4.53865E-02 8.90842E-02 9.71923E-05-6.72437E-02-1.37221E-05-1.88915E-05
 -1      8474 4.54147E-02 8.91116E-02 1.59545E-04-6.72427E-02-1.56833E-05-2.15899E-05
 -1      8475 4.54324E-02 8.91295E-02 2.02551E-04-6.72430E-02-1.30641E-05-1.79830E-05
 -1      8476 4.54427E-02 8.91402E-02 2.29476E-04-6.72436E-02-8.35650E-06-1.15025E-05
 -1      8477 4.54474E-02 8.91453E-02 2.42417E-04-6.72440E-02-2.85316E-06-3.92724E-06
 -1      8478 4.54474E-02 8.91453E-02 2.42417E-04-6.72440E-02 2.85316E-06 3.92724E-06
 -1      8479 4.54427E-02 8.91402E-02 2.29476E-04-6.72436E-02 8.35650E-06 1.15025E-05
 -1      8480 4.54324E-02 8.91295E-02 2.02551E-04-6.72430E-02 1.30641E-05 1.79830E-05
 -1      8481 4.54147E-02 8.91116E-02 1.59545E-04-6.72427E-02 1.56833E-05 2.15899E-05
 -1      8482 4.53865E-02 8.90842E-02 9.71923E-05-6.72437E-02 1.37221E-05 1.88915E-05
 -1      8483 6.72353E-02 6.72354E-02 9.71948E-05-7.07042E-02-1.65049E-05-1.65150E-05
 -1      8484 6.72632E-02 6.72632E-02 1.59548E-04-7.07031E-02-1.88659E-05-1.88716E-05
 -1      8485 6.72809E-02 6.72810E-02 2.02553E-04-7.07034E-02-1.57155E-05-1.57183E-05
 -1      8486 6.72914E-02 6.72915E-02 2.29478E-04-7.07041E-02-1.00526E-05-1.00537E-05
 -1      8487 6.72963E-02 6.72964E-02 2.42419E-04-7.07045E-02-3.43227E-06-3.43256E-06
 -1      8488 6.72963E-02 6.72964E-02 2.42419E-04-7.07045E-02 3.43227E-06 3.43256E-06
 -1      8489 6.72914E-02 6.72915E-02 2.29478E-04-7.07041E-02 1.00526E-05 1.00537E-05
 -1      8490 6.72809E-02 6.72810E-02 2.02553E-04-7.07034E-02 1.57155E-05 1.57183E-05
 -1      8491 6.72632E-02 6.72632E-02 1.59548E-04-7.07031E-02 1.88659E-05 1.88716E-05
 -1      8492 6.72353E-02 6.72354E-02 9.71948E-05-7.07042E-02 1.65049E-05 1.65150E-05
 -1      8493 8.90842E-02 4.53866E-02 9.72023E-05-6.72437E-02-1.88852E-05-1.37278E-05
 -1      8494 8.91117E-02 4.54148E-02 1.59554E-04-6.72427E-02-2.15841E-05-1.56859E-05
 -1      8495 8.91296E-02 4.54325E-02 2.02559E-04-6.72430E-02-1.79791E-05-1.30645E-05
 -1      8496 8.91403E-02 4.54427E-02 2.29482E-04-6.72436E-02-1.15003E-05-8.35624E-06
 -1      8497 8.91453E-02 4.54475E-02 2.42423E-04-6.72440E-02-3.92654E-06-2.85300E-06
 -1      8498 8.91453E-02 4.54475E-02 2.42423E-04-6.72440E-02 3.92654E-06 2.85300E-06
 -1      8499 8.91403E-02 4.54427E-02 2.29482E-04-6.72436E-02 1.15003E-05 8.35624E-06
 -1      8500 8.91296E-02 4.54325E-02 2.02559E-04-6.72430E-02 1.79791E-05 1.30645E-05
 -1      8501 8.91117E-02 4.54148E-02 1.59554E-04-6.72427E-02 2.15841E-05 1.56859E-05
 -1      8502 8.90842E-02 4.53866E-02 9.72023E-05-6.72437E-02 1.88852E-05 1.37278E-05
 -1      8503 1.08794E-01 2.56764E-02 9.71957E-05-5.72009E-02-2.08029E-05-1.06016E-05
 -1      8504 1.08821E-01 2.57049E-02 1.59548E-04-5.72000E-02-2.37745E-05-1.21163E-05
 -1      8505 1.08839E-01 2.57225E-02 2.02554E-04-5.72003E-02-1.98035E-05-1.00914E-05
 -1      8506 1.08850E-01 2.57327E-02 2.29478E-04-5.72008E-02-1.26671E-05-6.45473E-06
 -1      8507 1.08855E-01 2.57373E-02 2.42419E-04-5.72012E-02-4.32491E-06-2.20381E-06
 -1      8508 1.08855E-01 2.57373E-02 2.42419E-04-5.72012E-02 4.32491E-06 2.20381E-06
 -1      8509 1.08850E-01 2.57327E-02 2.29478E-04-5.72008E-02 1.26671E-05 6.45473E-06
 -1      8510 1.08839E-01 2.57225E-02 2.02554E-04-5.72003E-02 1.98035E-05 1.00914E-05
 -1      8511 1.08821E-01 2.57049E-02 1.59548E-04-5.72000E-02 2.37745E-05 1.21163E-05
 -1      8512 1.08794E-01 2.56764E-02 9.71957E-05-5.72009E-02 2.08029E-05 1.06016E-05
 -1      8513 1.24436E-01 1.00344E-02 9.71883E-05-4.15589E-02-2.22049E-05-7.22259E-06
 -1      8514 1.24463E-01 1.00631E-02 1.59542E-04-4.15583E-02-2.53789E-05-8.25135E-06
 -1      8515 1.24481E-01 1.00807E-02 2.02549E-04-4.15584E-02-2.11402E-05-6.87141E-06
 -1      8516 1.24492E-01 1.00906E-02 2.29474E-04-4.15588E-02-1.35223E-05-4.39472E-06
 -1      8517 1.24497E-01 1.00952E-02 2.42415E-04-4.15591E-02-4.61690E-06-1.50040E-06
 -1      8518 1.24497E-01 1.00952E-02 2.42415E-04-4.15591E-02 4.61690E-06 1.50040E-06
 -1      8519 1.24492E-01 1.00906E-02 2.29474E-04-4.15588E-02 1.35223E-05 4.39472E-06
 -1      8520 1.24481E-01 1.00807E-02 2.02549E-04-4.15584E-02 2.11402E-05 6.87141E-06
 -1      8521 1.24463E-01 1.00631E-02 1.59542E-04-4.15583E-02 2.53789E-05 8.25135E-06
 -1      8522 1.24436E-01 1.00344E-02 9.71883E-05-4.15589E-02 2.22049E-05 7.22259E-06
 -1      8523 1.34479E-01-8.35434E-06 9.72022E-05-2.18488E-02-2.30581E-05-3.66403E-06
 -1      8524 1.34506E-01 2.05582E-05 1.59555E-04-2.18485E-02-2.63529E-05-4.18009E-06
 -1      8525 1.34524E-01 3.80448E-05 2.02560E-04-2.18486E-02-2.19510E-05-3.47993E-06
 -1      8526 1.34535E-01 4.79133E-05 2.29484E-04-2.18488E-02-1.40408E-05-2.22510E-06
 -1      8527 1.34540E-01 5.23651E-05 2.42425E-04-2.18489E-02-4.79395E-06-7.59584E-07
 -1      8528 1.34540E-01 5.23651E-05 2.42425E-04-2.18489E-02 4.79395E-06 7.59584E-07
 -1      8529 1.34535E-01 4.79133E-05 2.29484E-04-2.18488E-02 1.40408E-05 2.22510E-06
 -1      8530 1.34524E-01 3.80448E-05 2.02560E-04-2.18486E-02 2.19510E-05 3.47993E-06
 -1      8531 1.34506E-01 2.05582E-05 1.59555E-04-2.18485E-02 2.63529E-05 4.18009E-06
 -1      8532 1.34479E-01-8.35434E-06 9.72022E-05-2.18488E-02 2.30581E-05 3.66403E-06
 -1      8533-7.63250E-01 9.22765E-01 3.54507E-03-2.73910E-01 2.30780E-05 1.45709E-04
 -1      8534-8.04935E-01 9.37105E-01 2.06482E-04-1.37956E-01 8.76665E-06 1.11391E-04
 -1      8535-8.53669E-01 9.94527E-01 1.19777E-03-3.00258E-01 1.74231E-05 1.10005E-04
 -1      8540-7.61648E-01 9.24400E-01 7.34008E-03-2.73915E-01 3.46274E-05 2.18629E-04
 -1      8541-8.05170E-01 9.36956E-01-7.90675E-05-1.37963E-01-1.96462E-06-2.49629E-05
 -1      8542-8.53431E-01 9.94802E-01 1.92018E-03-3.00264E-01 1.96510E-05 1.24071E-04
 -1      8547-7.61207E-01 9.24913E-01 8.63927E-03-2.73927E-01 1.68035E-05 1.06093E-04
 -1      8548-8.05241E-01 9.36868E-01-3.24380E-04-1.37961E-01-2.49347E-06-3.16825E-05
 -1      8549-8.53292E-01 9.94936E-01 2.26541E-03-3.00263E-01 6.31247E-06 3.98553E-05
 -1      8554-7.61034E-01 9.25083E-01 9.04791E-03-2.73926E-01 5.47850E-06 3.45899E-05
 -1      8555-8.05269E-01 9.36823E-01-4.55361E-04-1.37960E-01-1.63246E-06-2.07424E-05
 -1      8556-8.53223E-01 9.94998E-01 2.41874E-03-3.00262E-01 1.80641E-06 1.14052E-05
 -1      8561-7.60967E-01 9.25141E-01 9.18112E-03-2.73925E-01 1.47478E-06 9.31140E-06
 -1      8562-8.05277E-01 9.36807E-01-5.03526E-04-1.37960E-01-5.29713E-07-6.73064E-06
 -1      8563-8.53196E-01 9.95021E-01 2.47630E-03-3.00261E-01 3.40940E-07 2.15261E-06
 -1      8568-7.60950E-01 9.25155E-01 9.21266E-03-2.73924E-01 6.94378E-15 1.54740E-14
 -1      8569-8.05277E-01 9.36807E-01-5.03526E-04-1.37960E-01 5.29713E-07 6.73064E-06
 -1      8570-8.53196E-01 9.95021E-01 2.47630E-03-3.00261E-01-3.40940E-07-2.15261E-06
 -1      8575-7.60967E-01 9.25141E-01 9.18112E-03-2.73925E-01-1.47478E-06-9.31140E-06
 -1      8576-8.05269E-01 9.36823E-01-4.55361E-04-1.37960E-01 1.63246E-06 2.07424E-05
 -1      8577-8.53223E-01 9.94998E-01 2.41874E-03-3.00262E-01-1.80641E-06-1.14052E-05
 -1      8582-7.61034E-01 9.25083E-01 9.04791E-03-2.73926E-01-5.47850E-06-3.45899E-05
 -1      8583-8.05241E-01 9.36868E-01-3.24380E-04-1.37961E-01 2.49347E-06 3.16825E-05
 -1      8584-8.53292E-01 9.94936E-01 2.26541E-03-3.00263E-01-6.31247E-06-3.98553E-05
 -1      8589-7.61207E-01 9.24913E-01 8.63927E-03-2.73927E-01-1.68035E-05-1.06093E-04
 -1      8590-8.05170E-01 9.36956E-01-7.90675E-05-1.37963E-01 1.96462E-06 2.49629E-05
 -1      8591-8.53431E-01 9.94802E-01 1.92018E-03-3.00264E-01-1.96510E-05-1.24071E-04
 -1      8596-7.61648E-01 9.24400E-01 7.34008E-03-2.73915E-01-3.46274E-05-2.18629E-04
 -1      8597-8.04935E-01 9.37105E-01 2.06482E-04-1.37956E-01-8.76665E-06-1.11391E-04
 -1      8598-8.53669E-01 9.94527E-01 1.19777E-03-3.00258E-01-1.74231E-05-1.10005E-04
 -1      8603-7.63250E-01 9.22765E-01 3.54507E-03-2.73910E-01-2.30780E-05-1.45709E-04
 -1      8607-6.37347E-01 7.96862E-01 3.54507E-03-5.21007E-01 4.55877E-05 1.40305E-04
 -1      8608-7.19673E-01 8.51844E-01 2.06482E-04-4.00364E-01 2.60841E-05 1.08648E-04
 -1      8609-7.15656E-01 8.56513E-01 1.19777E-03-5.71124E-01 3.44171E-05 1.05925E-04
 -1      8614-6.35743E-01 7.98495E-01 7.34008E-03-5.21017E-01 6.84022E-05 2.10520E-04
 -1      8615-7.19904E-01 8.51691E-01-7.90675E-05-4.00384E-01-5.84550E-06-2.43483E-05
 -1      8616-7.15415E-01 8.56786E-01 1.92018E-03-5.71135E-01 3.88181E-05 1.19470E-04
 -1      8621-6.35296E-01 7.99003E-01 8.63927E-03-5.21040E-01 3.31932E-05 1.02158E-04
 -1      8622-7.19976E-01 8.51603E-01-3.24380E-04-4.00380E-01-7.41901E-06-3.09024E-05
 -1      8623-7.15276E-01 8.56921E-01 2.26541E-03-5.71134E-01 1.24695E-05 3.83772E-05
 -1      8628-6.35124E-01 7.99173E-01 9.04791E-03-5.21039E-01 1.08221E-05 3.33070E-05
 -1      8629-7.20005E-01 8.51559E-01-4.55361E-04-4.00376E-01-4.85719E-06-2.02317E-05
 -1      8630-7.15208E-01 8.56983E-01 2.41874E-03-5.71132E-01 3.56834E-06 1.09822E-05
 -1      8635-6.35058E-01 7.99232E-01 9.18112E-03-5.21036E-01 2.91325E-06 8.96606E-06
 -1      8636-7.20014E-01 8.51543E-01-5.03526E-04-4.00374E-01-1.57610E-06-6.56491E-06
 -1      8637-7.15181E-01 8.57006E-01 2.47630E-03-5.71131E-01 6.73484E-07 2.07277E-06
 -1      8642-6.35041E-01 7.99246E-01 9.21266E-03-5.21035E-01 2.12649E-14 8.21715E-15
 -1      8643-7.20014E-01 8.51543E-01-5.03526E-04-4.00374E-01 1.57610E-06 6.56491E-06
 -1      8644-7.15181E-01 8.57006E-01 2.47630E-03-5.71131E-01-6.73484E-07-2.07277E-06
 -1      8649-6.35058E-01 7.99232E-01 9.18112E-03-5.21036E-01-2.91325E-06-8.96606E-06
 -1      8650-7.20005E-01 8.51559E-01-4.55361E-04-4.00376E-01 4.85719E-06 2.02317E-05
 -1      8651-7.15208E-01 8.56983E-01 2.41874E-03-5.71132E-01-3.56834E-06-1.09822E-05
 -1      8656-6.35124E-01 7.99173E-01 9.04791E-03-5.21039E-01-1.08221E-05-3.33070E-05
 -1      8657-7.19976E-01 8.51603E-01-3.24380E-04-4.00380E-01 7.41901E-06 3.09024E-05
 -1      8658-7.15276E-01 8.56921E-01 2.26541E-03-5.71134E-01-1.24695E-05-3.83772E-05
 -1      8663-6.35296E-01 7.99003E-01 8.63927E-03-5.21040E-01-3.31932E-05-1.02158E-04
 -1      8664-7.19904E-01 8.51691E-01-7.90675E-05-4.00384E-01 5.84550E-06 2.43483E-05
 -1      8665-7.15415E-01 8.56786E-01 1.92018E-03-5.71135E-01-3.88181E-05-1.19470E-04
 -1      8670-6.35743E-01 7.98495E-01 7.34008E-03-5.21017E-01-6.84022E-05-2.10520E-04
 -1      8671-7.19673E-01 8.51844E-01 2.06482E-04-4.00364E-01-2.60841E-05-1.08648E-04
 -1      8672-7.15656E-01 8.56513E-01 1.19777E-03-5.71124E-01-3.44171E-05-1.05925E-04
 -1      8677-6.37347E-01 7.96862E-01 3.54507E-03-5.21007E-01-4.55877E-05-1.40305E-04
 -1      8681-4.41250E-01 6.00765E-01 3.54507E-03-7.17105E-01 6.69749E-05 1.31446E-04
 -1      8682-5.57496E-01 6.89667E-01 2.06482E-04-6.23581E-01 4.27593E-05 1.03230E-04
 -1      8683-5.00695E-01 6.41553E-01 1.19777E-03-7.86085E-01 5.05637E-05 9.92369E-05
 -1      8688-4.39641E-01 6.02393E-01 7.34008E-03-7.17119E-01 1.00493E-04 1.97228E-04
 -1      8689-5.57719E-01 6.89506E-01-7.90675E-05-6.23612E-01-9.58244E-06-2.31341E-05
 -1      8690-5.00450E-01 6.41821E-01 1.92018E-03-7.86100E-01 5.70293E-05 1.11926E-04
 -1      8695-4.39186E-01 6.02893E-01 8.63927E-03-7.17150E-01 4.87656E-05 9.57079E-05
 -1      8696-5.57792E-01 6.89420E-01-3.24380E-04-6.23606E-01-1.21619E-05-2.93613E-05
 -1      8697-5.00311E-01 6.41956E-01 2.26541E-03-7.86098E-01 1.83195E-05 3.59540E-05
 -1      8702-4.39014E-01 6.03064E-01 9.04791E-03-7.17148E-01 1.58992E-05 3.12040E-05
 -1      8703-5.57823E-01 6.89377E-01-4.55361E-04-6.23600E-01-7.96233E-06-1.92228E-05
 -1      8704-5.00244E-01 6.42019E-01 2.41874E-03-7.86095E-01 5.24241E-06 1.02888E-05
 -1      8709-4.38949E-01 6.03123E-01 9.18112E-03-7.17145E-01 4.27998E-06 8.39994E-06
 -1      8710-5.57832E-01 6.89362E-01-5.03526E-04-6.23597E-01-2.58367E-06-6.23753E-06
 -1      8711-5.00218E-01 6.42043E-01 2.47630E-03-7.86094E-01 9.89445E-07 1.94190E-06
 -1      8716-4.38933E-01 6.03138E-01 9.21266E-03-7.17143E-01 2.09404E-14 1.05357E-14
 -1      8717-5.57832E-01 6.89362E-01-5.03526E-04-6.23597E-01 2.58367E-06 6.23753E-06
 -1      8718-5.00218E-01 6.42043E-01 2.47630E-03-7.86094E-01-9.89445E-07-1.94190E-06
 -1      8723-4.38949E-01 6.03123E-01 9.18112E-03-7.17145E-01-4.27998E-06-8.39994E-06
 -1      8724-5.57823E-01 6.89377E-01-4.55361E-04-6.23600E-01 7.96233E-06 1.92228E-05
 -1      8725-5.00244E-01 6.42019E-01 2.41874E-03-7.86095E-01-5.24241E-06-1.02888E-05
 -1      8730-4.39014E-01 6.03064E-01 9.04791E-03-7.17148E-01-1.58992E-05-3.12040E-05
 -1      8731-5.57792E-01 6.89420E-01-3.24380E-04-6.23606E-01 1.21619E-05 2.93613E-05
 -1      8732-5.00311E-01 6.41956E-01 2.26541E-03-7.86098E-01-1.83195E-05-3.59540E-05
 -1      8737-4.39186E-01 6.02893E-01 8.63927E-03-7.17150E-01-4.87656E-05-9.57079E-05
 -1      8738-5.57719E-01 6.89506E-01-7.90675E-05-6.23612E-01 9.58244E-06 2.31341E-05
 -1      8739-5.00450E-01 6.41821E-01 1.92018E-03-7.86100E-01-5.70293E-05-1.11926E-04
 -1      8744-4.39641E-01 6.02393E-01 7.34008E-03-7.17119E-01-1.00493E-04-1.97228E-04
 -1      8745-5.57496E-01 6.89667E-01 2.06482E-04-6.23581E-01-4.27593E-05-1.03230E-04
 -1      8746-5.00695E-01 6.41553E-01 1.19777E-03-7.86085E-01-5.05637E-05-9.92369E-05
 -1      8751-4.41250E-01 6.00765E-01 3.54507E-03-7.17105E-01-6.69749E-05-1.31446E-04
 -1      8755-1.94152E-01 3.53667E-01 3.54507E-03-8.43007E-01 8.67130E-05 1.19350E-04
 -1      8756-3.34279E-01 4.66449E-01 2.06482E-04-7.85758E-01 5.83816E-05 9.52700E-05
 -1      8757-2.29829E-01 3.70686E-01 1.19777E-03-9.24098E-01 6.54653E-05 9.01053E-05
 -1      8762-1.92539E-01 3.55291E-01 7.34008E-03-8.43024E-01 1.30109E-04 1.79079E-04
 -1      8763-3.34491E-01 4.66277E-01-7.90675E-05-7.85798E-01-1.30834E-05-2.13502E-05
 -1      8764-2.29578E-01 3.70949E-01 1.92018E-03-9.24116E-01 7.38364E-05 1.01627E-04
 -1      8769-1.92074E-01 3.55780E-01 8.63927E-03-8.43060E-01 6.31372E-05 8.69010E-05
 -1      8770-3.34566E-01 4.66193E-01-3.24380E-04-7.85789E-01-1.66053E-05-2.70973E-05
 -1      8771-2.29440E-01 3.71085E-01 2.26541E-03-9.24114E-01 2.37184E-05 3.26456E-05
 -1      8776-1.91902E-01 3.55951E-01 9.04791E-03-8.43059E-01 2.05848E-05 2.83326E-05
 -1      8777-3.34599E-01 4.66153E-01-4.55361E-04-7.85782E-01-1.08714E-05-1.77405E-05
 -1      8778-2.29374E-01 3.71149E-01 2.41874E-03-9.24110E-01 6.78739E-06 9.34204E-06
 -1      8783-1.91838E-01 3.56012E-01 9.18112E-03-8.43054E-01 5.54133E-06 7.62698E-06
 -1      8784-3.34609E-01 4.66139E-01-5.03526E-04-7.85778E-01-3.52762E-06-5.75656E-06
 -1      8785-2.29349E-01 3.71174E-01 2.47630E-03-9.24109E-01 1.28104E-06 1.76320E-06
 -1      8790-1.91822E-01 3.56027E-01 9.21266E-03-8.43053E-01 1.13783E-14-5.69537E-14
 -1      8791-3.34609E-01 4.66139E-01-5.03526E-04-7.85778E-01 3.52762E-06 5.75656E-06
 -1      8792-2.29349E-01 3.71174E-01 2.47630E-03-9.24109E-01-1.28104E-06-1.76320E-06
 -1      8797-1.91838E-01 3.56012E-01 9.18112E-03-8.43054E-01-5.54133E-06-7.62698E-06
 -1      8798-3.34599E-01 4.66153E-01-4.55361E-04-7.85782E-01 1.08714E-05 1.77405E-05
 -1      8799-2.29374E-01 3.71149E-01 2.41874E-03-9.24110E-01-6.78739E-06-9.34204E-06
 -1      8804-1.91902E-01 3.55951E-01 9.04791E-03-8.43059E-01-2.05848E-05-2.83326E-05
 -1      8805-3.34566E-01 4.66193E-01-3.24380E-04-7.85789E-01 1.66053E-05 2.70973E-05
 -1      8806-2.29440E-01 3.71085E-01 2.26541E-03-9.24114E-01-2.37184E-05-3.26456E-05
 -1      8811-1.92074E-01 3.55780E-01 8.63927E-03-8.43060E-01-6.31372E-05-8.69010E-05
 -1      8812-3.34491E-01 4.66277E-01-7.90675E-05-7.85798E-01 1.30834E-05 2.13502E-05
 -1      8813-2.29578E-01 3.70949E-01 1.92018E-03-9.24116E-01-7.38364E-05-1.01627E-04
 -1      8818-1.92539E-01 3.55291E-01 7.34008E-03-8.43024E-01-1.30109E-04-1.79079E-04
 -1      8819-3.34279E-01 4.66449E-01 2.06482E-04-7.85758E-01-5.83816E-05-9.52700E-05
 -1      8820-2.29829E-01 3.70686E-01 1.19777E-03-9.24098E-01-6.54653E-05-9.01053E-05
 -1      8825-1.94152E-01 3.53667E-01 3.54507E-03-8.43007E-01-8.67130E-05-1.19350E-04
 -1      8829 7.97576E-02 7.97577E-02 3.54507E-03-8.86390E-01 1.04316E-04 1.04316E-04
 -1      8830-7.18707E-02 2.04041E-01 2.06482E-04-8.71020E-01 7.25663E-05 8.49642E-05
 -1      8831 7.04287E-02 7.04287E-02 1.19777E-03-9.71654E-01 7.87549E-05 7.87548E-05
 -1      8836 8.13759E-02 8.13759E-02 7.34008E-03-8.86408E-01 1.56521E-04 1.56521E-04
 -1      8837-7.20698E-02 2.03856E-01-7.90675E-05-8.71063E-01-1.62623E-05-1.90407E-05
 -1      8838 7.06853E-02 7.06853E-02 1.92018E-03-9.71673E-01 8.88253E-05 8.88253E-05
 -1      8843 8.18533E-02 8.18533E-02 8.63927E-03-8.86446E-01 7.59542E-05 7.59542E-05
 -1      8844-7.21477E-02 2.03775E-01-3.24380E-04-8.71054E-01-2.06398E-05-2.41661E-05
 -1      8845 7.08224E-02 7.08224E-02 2.26541E-03-9.71671E-01 2.85333E-05 2.85333E-05
 -1      8850 8.20248E-02 8.20248E-02 9.04791E-03-8.86444E-01 2.47636E-05 2.47636E-05
 -1      8851-7.21834E-02 2.03737E-01-4.55361E-04-8.71046E-01-1.35128E-05-1.58214E-05
 -1      8852 7.08876E-02 7.08876E-02 2.41874E-03-9.71667E-01 8.16524E-06 8.16524E-06
 -1      8857 8.20869E-02 8.20869E-02 9.18112E-03-8.86440E-01 6.66622E-06 6.66623E-06
 -1      8858-7.21947E-02 2.03724E-01-5.03526E-04-8.71042E-01-4.38472E-06-5.13385E-06
 -1      8859 7.09125E-02 7.09126E-02 2.47630E-03-9.71666E-01 1.54110E-06 1.54110E-06
 -1      8864 8.21027E-02 8.21027E-02 9.21266E-03-8.86438E-01 1.50980E-14 1.48564E-15
 -1      8865-7.21947E-02 2.03724E-01-5.03526E-04-8.71042E-01 4.38472E-06 5.13385E-06
 -1      8866 7.09125E-02 7.09126E-02 2.47630E-03-9.71666E-01-1.54110E-06-1.54110E-06
 -1      8871 8.20869E-02 8.20869E-02 9.18112E-03-8.86440E-01-6.66622E-06-6.66623E-06
 -1      8872-7.21834E-02 2.03737E-01-4.55361E-04-8.71046E-01 1.35128E-05 1.58214E-05
 -1      8873 7.08876E-02 7.08876E-02 2.41874E-03-9.71667E-01-8.16524E-06-8.16524E-06
 -1      8878 8.20248E-02 8.20248E-02 9.04791E-03-8.86444E-01-2.47636E-05-2.47636E-05
 -1      8879-7.21477E-02 2.03775E-01-3.24380E-04-8.71054E-01 2.06398E-05 2.41661E-05
 -1      8880 7.08224E-02 7.08224E-02 2.26541E-03-9.71671E-01-2.85333E-05-2.85333E-05
 -1      8885 8.18533E-02 8.18533E-02 8.63927E-03-8.86446E-01-7.59542E-05-7.59542E-05
 -1      8886-7.20698E-02 2.03856E-01-7.90675E-05-8.71063E-01 1.62623E-05 1.90407E-05
 -1      8887 7.06853E-02 7.06853E-02 1.92018E-03-9.71673E-01-8.88253E-05-8.88253E-05
 -1      8892 8.13759E-02 8.13759E-02 7.34008E-03-8.86408E-01-1.56521E-04-1.56521E-04
 -1      8893-7.18707E-02 2.04041E-01 2.06482E-04-8.71020E-01-7.25663E-05-8.49642E-05
 -1      8894 7.04287E-02 7.04287E-02 1.19777E-03-9.71654E-01-7.87549E-05-7.87548E-05
 -1      8899 7.97576E-02 7.97577E-02 3.54507E-03-8.86390E-01-1.04316E-04-1.04316E-04
 -1      8903 3.53667E-01-1.94152E-01 3.54507E-03-8.43007E-01 1.19350E-04 8.67128E-05
 -1      8904 2.04041E-01-7.18707E-02 2.06482E-04-8.71020E-01 8.49642E-05 7.25662E-05
 -1      8905 3.70686E-01-2.29829E-01 1.19777E-03-9.24098E-01 9.01049E-05 6.54655E-05
 -1      8910 3.55291E-01-1.92539E-01 7.34008E-03-8.43024E-01 1.79079E-04 1.30109E-04
 -1      8911 2.03856E-01-7.20698E-02-7.90675E-05-8.71063E-01-1.90407E-05-1.62622E-05
 -1      8912 3.70949E-01-2.29578E-01 1.92018E-03-9.24116E-01 1.01627E-04 7.38365E-05
 -1      8917 3.55780E-01-1.92074E-01 8.63927E-03-8.43060E-01 8.69010E-05 6.31372E-05
 -1      8918 2.03775E-01-7.21477E-02-3.24380E-04-8.71054E-01-2.41661E-05-2.06398E-05
 -1      8919 3.71085E-01-2.29440E-01 2.26541E-03-9.24114E-01 3.26455E-05 2.37185E-05
 -1      8924 3.55951E-01-1.91902E-01 9.04791E-03-8.43059E-01 2.83326E-05 2.05848E-05
 -1      8925 2.03737E-01-7.21834E-02-4.55361E-04-8.71046E-01-1.58214E-05-1.35128E-05
 -1      8926 3.71149E-01-2.29374E-01 2.41874E-03-9.24110E-01 9.34202E-06 6.78744E-06
 -1      8931 3.56012E-01-1.91838E-01 9.18112E-03-8.43054E-01 7.62699E-06 5.54134E-06
 -1      8932 2.03724E-01-7.21947E-02-5.03526E-04-8.71042E-01-5.13385E-06-4.38471E-06
 -1      8933 3.71174E-01-2.29349E-01 2.47630E-03-9.24109E-01 1.76320E-06 1.28106E-06
 -1      8938 3.56027E-01-1.91822E-01 9.21266E-03-8.43053E-01 4.34386E-14-1.34357E-14
 -1      8939 2.03724E-01-7.21947E-02-5.03526E-04-8.71042E-01 5.13385E-06 4.38471E-06
 -1      8940 3.71174E-01-2.29349E-01 2.47630E-03-9.24109E-01-1.76320E-06-1.28106E-06
 -1      8945 3.56012E-01-1.91838E-01 9.18112E-03-8.43054E-01-7.62699E-06-5.54134E-06
 -1      8946 2.03737E-01-7.21834E-02-4.55361E-04-8.71046E-01 1.58214E-05 1.35128E-05
 -1      8947 3.71149E-01-2.29374E-01 2.41874E-03-9.24110E-01-9.34202E-06-6.78744E-06
 -1      8952 3.55951E-01-1.91902E-01 9.04791E-03-8.43059E-01-2.83326E-05-2.05848E-05
 -1      8953 2.03775E-01-7.21477E-02-3.24380E-04-8.71054E-01 2.41661E-05 2.06398E-05
 -1      8954 3.71085E-01-2.29440E-01 2.26541E-03-9.24114E-01-3.26455E-05-2.37185E-05
 -1      8959 3.55780E-01-1.92074E-01 8.63927E-03-8.43060E-01-8.69010E-05-6.31372E-05
 -1      8960 2.03856E-01-7.20698E-02-7.90675E-05-8.71063E-01 1.90407E-05 1.62622E-05
 -1      8961 3.70949E-01-2.29578E-01 1.92018E-03-9.24116E-01-1.01627E-04-7.38365E-05
 -1      8966 3.55291E-01-1.92539E-01 7.34008E-03-8.43024E-01-1.79079E-04-1.30109E-04
 -1      8967 2.04041E-01-7.18707E-02 2.06482E-04-8.71020E-01-8.49642E-05-7.25662E-05
 -1      8968 3.70686E-01-2.29829E-01 1.19777E-03-9.24098E-01-9.01049E-05-6.54655E-05
 -1      8973 3.53667E-01-1.94152E-01 3.54507E-03-8.43007E-01-1.19350E-04-8.67128E-05
 -1      8977 6.00765E-01-4.41250E-01 3.54507E-03-7.17105E-01 1.31446E-04 6.69752E-05
 -1      8978 4.66449E-01-3.34279E-01 2.06481E-04-7.85758E-01 9.52699E-05 5.83815E-05
 -1      8979 6.41553E-01-5.00695E-01 1.19777E-03-7.86085E-01 9.92369E-05 5.05641E-05
 -1      8984 6.02393E-01-4.39641E-01 7.34009E-03-7.17119E-01 1.97228E-04 1.00493E-04
 -1      8985 4.66277E-01-3.34491E-01-7.90678E-05-7.85798E-01-2.13502E-05-1.30835E-05
 -1      8986 6.41821E-01-5.00450E-01 1.92018E-03-7.86100E-01 1.11927E-04 5.70295E-05
 -1      8991 6.02893E-01-4.39186E-01 8.63927E-03-7.17150E-01 9.57079E-05 4.87656E-05
 -1      8992 4.66193E-01-3.34566E-01-3.24380E-04-7.85789E-01-2.70973E-05-1.66053E-05
 -1      8993 6.41956E-01-5.00311E-01 2.26541E-03-7.86098E-01 3.59542E-05 1.83195E-05
 -1      8998 6.03064E-01-4.39014E-01 9.04791E-03-7.17148E-01 3.12040E-05 1.58992E-05
 -1      8999 4.66153E-01-3.34599E-01-4.55361E-04-7.85782E-01-1.77405E-05-1.08714E-05
 -1      9000 6.42019E-01-5.00244E-01 2.41874E-03-7.86095E-01 1.02889E-05 5.24240E-06
 -1      9005 6.03123E-01-4.38949E-01 9.18112E-03-7.17145E-01 8.39997E-06 4.27999E-06
 -1      9006 4.66139E-01-3.34609E-01-5.03526E-04-7.85778E-01-5.75654E-06-3.52762E-06
 -1      9007 6.42043E-01-5.00218E-01 2.47630E-03-7.86094E-01 1.94192E-06 9.89442E-07
 -1      9012 6.03138E-01-4.38933E-01 9.21266E-03-7.17143E-01-5.45505E-14 2.54253E-14
 -1      9013 4.66139E-01-3.34609E-01-5.03526E-04-7.85778E-01 5.75654E-06 3.52762E-06
 -1      9014 6.42043E-01-5.00218E-01 2.47630E-03-7.86094E-01-1.94192E-06-9.89442E-07
 -1      9019 6.03123E-01-4.38949E-01 9.18112E-03-7.17145E-01-8.39997E-06-4.27999E-06
 -1      9020 4.66153E-01-3.34599E-01-4.55361E-04-7.85782E-01 1.77405E-05 1.08714E-05
 -1      9021 6.42019E-01-5.00244E-01 2.41874E-03-7.86095E-01-1.02889E-05-5.24240E-06
 -1      9026 6.03064E-01-4.39014E-01 9.04791E-03-7.17148E-01-3.12040E-05-1.58992E-05
 -1      9027 4.66193E-01-3.34566E-01-3.24380E-04-7.85789E-01 2.70973E-05 1.66053E-05
 -1      9028 6.41956E-01-5.00311E-01 2.26541E-03-7.86098E-01-3.59542E-05-1.83195E-05
 -1      9033 6.02893E-01-4.39186E-01 8.63927E-03-7.17150E-01-9.57079E-05-4.87656E-05
 -1      9034 4.66277E-01-3.34491E-01-7.90678E-05-7.85798E-01 2.13502E-05 1.30835E-05
 -1      9035 6.41821E-01-5.00450E-01 1.92018E-03-7.86100E-01-1.11927E-04-5.70295E-05
 -1      9040 6.02393E-01-4.39641E-01 7.34009E-03-7.17119E-01-1.97228E-04-1.00493E-04
 -1      9041 4.66449E-01-3.34279E-01 2.06481E-04-7.85758E-01-9.52699E-05-5.83815E-05
 -1      9042 6.41553E-01-5.00695E-01 1.19777E-03-7.86085E-01-9.92369E-05-5.05641E-05
 -1      9047 6.00765E-01-4.41250E-01 3.54507E-03-7.17105E-01-1.31446E-04-6.69752E-05
 -1      9051 7.96862E-01-6.37347E-01 3.54507E-03-5.21007E-01 1.40304E-04 4.55879E-05
 -1      9052 6.89667E-01-5.57496E-01 2.06482E-04-6.23581E-01 1.03230E-04 4.27592E-05
 -1      9053 8.56513E-01-7.15656E-01 1.19777E-03-5.71124E-01 1.05925E-04 3.44174E-05
 -1      9058 7.98495E-01-6.35743E-01 7.34008E-03-5.21017E-01 2.10520E-04 6.84022E-05
 -1      9059 6.89506E-01-5.57719E-01-7.90675E-05-6.23612E-01-2.31341E-05-9.58231E-06
 -1      9060 8.56786E-01-7.15415E-01 1.92018E-03-5.71135E-01 1.19469E-04 3.88180E-05
 -1      9065 7.99003E-01-6.35296E-01 8.63927E-03-5.21040E-01 1.02158E-04 3.31932E-05
 -1      9066 6.89420E-01-5.57792E-01-3.24380E-04-6.23606E-01-2.93614E-05-1.21618E-05
 -1      9067 8.56921E-01-7.15276E-01 2.26541E-03-5.71134E-01 3.83771E-05 1.24694E-05
 -1      9072 7.99173E-01-6.35124E-01 9.04791E-03-5.21039E-01 3.33069E-05 1.08221E-05
 -1      9073 6.89377E-01-5.57823E-01-4.55361E-04-6.23600E-01-1.92228E-05-7.96231E-06
 -1      9074 8.56983E-01-7.15208E-01 2.41874E-03-5.71132E-01 1.09822E-05 3.56828E-06
 -1      9079 7.99232E-01-6.35058E-01 9.18112E-03-5.21036E-01 8.96603E-06 2.91324E-06
 -1      9080 6.89362E-01-5.57832E-01-5.03526E-04-6.23597E-01-6.23753E-06-2.58367E-06
 -1      9081 8.57006E-01-7.15181E-01 2.47630E-03-5.71131E-01 2.07276E-06 6.73465E-07
 -1      9086 7.99246E-01-6.35041E-01 9.21266E-03-5.21035E-01 3.60783E-14-5.78149E-15
 -1      9087 6.89362E-01-5.57832E-01-5.03526E-04-6.23597E-01 6.23753E-06 2.58367E-06
 -1      9088 8.57006E-01-7.15181E-01 2.47630E-03-5.71131E-01-2.07276E-06-6.73465E-07
 -1      9093 7.99232E-01-6.35058E-01 9.18112E-03-5.21036E-01-8.96603E-06-2.91324E-06
 -1      9094 6.89377E-01-5.57823E-01-4.55361E-04-6.23600E-01 1.92228E-05 7.96231E-06
 -1      9095 8.56983E-01-7.15208E-01 2.41874E-03-5.71132E-01-1.09822E-05-3.56828E-06
 -1      9100 7.99173E-01-6.35124E-01 9.04791E-03-5.21039E-01-3.33069E-05-1.08221E-05
 -1      9101 6.89420E-01-5.57792E-01-3.24380E-04-6.23606E-01 2.93614E-05 1.21618E-05
 -1      9102 8.56921E-01-7.15276E-01 2.26541E-03-5.71134E-01-3.83771E-05-1.24694E-05
 -1      9107 7.99003E-01-6.35296E-01 8.63927E-03-5.21040E-01-1.02158E-04-3.31932E-05
 -1      9108 6.89506E-01-5.57719E-01-7.90675E-05-6.23612E-01 2.31341E-05 9.58231E-06
 -1      9109 8.56786E-01-7.15415E-01 1.92018E-03-5.71135E-01-1.19469E-04-3.88180E-05
 -1      9114 7.98495E-01-6.35743E-01 7.34008E-03-5.21017E-01-2.10520E-04-6.84022E-05
 -1      9115 6.89667E-01-5.57496E-01 2.06482E-04-6.23581E-01-1.03230E-04-4.27592E-05
 -1      9116 8.56513E-01-7.15656E-01 1.19777E-03-5.71124E-01-1.05925E-04-3.44174E-05
 -1      9121 7.96862E-01-6.37347E-01 3.54507E-03-5.21007E-01-1.40304E-04-4.55879E-05
 -1      9125 9.22765E-01-7.63250E-01 3.54507E-03-2.73910E-01 1.45709E-04 2.30778E-05
 -1      9126 8.51844E-01-7.19673E-01 2.06482E-04-4.00364E-01 1.08648E-04 2.60842E-05
 -1      9127 9.94527E-01-8.53669E-01 1.19777E-03-3.00258E-01 1.10005E-04 1.74234E-05
 -1      9132 9.24400E-01-7.61648E-01 7.34008E-03-2.73915E-01 2.18629E-04 3.46274E-05
 -1      9133 8.51691E-01-7.19904E-01-7.90672E-05-4.00384E-01-2.43482E-05-5.84560E-06
 -1      9134 9.94802E-01-8.53431E-01 1.92018E-03-3.00264E-01 1.24071E-04 1.96510E-05
 -1      9139 9.24913E-01-7.61207E-01 8.63927E-03-2.73927E-01 1.06093E-04 1.68035E-05
 -1      9140 8.51603E-01-7.19976E-01-3.24379E-04-4.00380E-01-3.09024E-05-7.41906E-06
 -1      9141 9.94936E-01-8.53292E-01 2.26541E-03-3.00263E-01 3.98553E-05 6.31254E-06
 -1      9146 9.25083E-01-7.61034E-01 9.04791E-03-2.73926E-01 3.45898E-05 5.47849E-06
 -1      9147 8.51559E-01-7.20005E-01-4.55360E-04-4.00376E-01-2.02317E-05-4.85722E-06
 -1      9148 9.94998E-01-8.53223E-01 2.41874E-03-3.00262E-01 1.14052E-05 1.80645E-06
 -1      9153 9.25141E-01-7.60967E-01 9.18112E-03-2.73925E-01 9.31139E-06 1.47478E-06
 -1      9154 8.51543E-01-7.20014E-01-5.03526E-04-4.00374E-01-6.56493E-06-1.57610E-06
 -1      9155 9.95021E-01-8.53196E-01 2.47630E-03-3.00261E-01 2.15260E-06 3.40953E-07
 -1      9160 9.25155E-01-7.60950E-01 9.21266E-03-2.73924E-01-1.53074E-14 1.48363E-14
 -1      9161 8.51543E-01-7.20014E-01-5.03526E-04-4.00374E-01 6.56493E-06 1.57610E-06
 -1      9162 9.95021E-01-8.53196E-01 2.47630E-03-3.00261E-01-2.15260E-06-3.40953E-07
 -1      9167 9.25141E-01-7.60967E-01 9.18112E-03-2.73925E-01-9.31139E-06-1.47478E-06
 -1      9168 8.51559E-01-7.20005E-01-4.55360E-04-4.00376E-01 2.02317E-05 4.85722E-06
 -1      9169 9.94998E-01-8.53223E-01 2.41874E-03-3.00262E-01-1.14052E-05-1.80645E-06
 -1      9174 9.25083E-01-7.61034E-01 9.04791E-03-2.73926E-01-3.45898E-05-5.47849E-06
 -1      9175 8.51603E-01-7.19976E-01-3.24379E-04-4.00380E-01 3.09024E-05 7.41906E-06
 -1      9176 9.94936E-01-8.53292E-01 2.26541E-03-3.00263E-01-3.98553E-05-6.31254E-06
 -1      9181 9.24913E-01-7.61207E-01 8.63927E-03-2.73927E-01-1.06093E-04-1.68035E-05
 -1      9182 8.51691E-01-7.19904E-01-7.90672E-05-4.00384E-01 2.43482E-05 5.84560E-06
 -1      9183 9.94802E-01-8.53431E-01 1.92018E-03-3.00264E-01-1.24071E-04-1.96510E-05
 -1      9188 9.24400E-01-7.61648E-01 7.34008E-03-2.73915E-01-2.18629E-04-3.46274E-05
 -1      9189 8.51844E-01-7.19673E-01 2.06482E-04-4.00364E-01-1.08648E-04-2.60842E-05
 -1      9190 9.94527E-01-8.53669E-01 1.19777E-03-3.00258E-01-1.10005E-04-1.74234E-05
 -1      9195 9.22765E-01-7.63250E-01 3.54507E-03-2.73910E-01-1.45709E-04-2.30778E-05
 -1      9199 9.37105E-01-8.04935E-01 2.06482E-04-1.37956E-01 1.11391E-04 8.76659E-06
 -1      9203 9.36956E-01-8.05170E-01-7.90675E-05-1.37963E-01-2.49629E-05-1.96460E-06
 -1      9207 9.36868E-01-8.05241E-01-3.24380E-04-1.37961E-01-3.16825E-05-2.49346E-06
 -1      9211 9.36823E-01-8.05269E-01-4.55361E-04-1.37960E-01-2.07424E-05-1.63246E-06
 -1      9215 9.36807E-01-8.05277E-01-5.03526E-04-1.37960E-01-6.73064E-06-5.29710E-07
 -1      9219 9.36807E-01-8.05277E-01-5.03526E-04-1.37960E-01 6.73064E-06 5.29710E-07
 -1      9223 9.36823E-01-8.05269E-01-4.55361E-04-1.37960E-01 2.07424E-05 1.63246E-06
 -1      9227 9.36868E-01-8.05241E-01-3.24380E-04-1.37961E-01 3.16825E-05 2.49346E-06
 -1      9231 9.36956E-01-8.05170E-01-7.90675E-05-1.37963E-01 2.49629E-05 1.96460E-06
 -1      9235 9.37105E-01-8.04935E-01 2.06482E-04-1.37956E-01-1.11391E-04-8.76659E-06
 -1      9241-6.28949E-01 7.86406E-01 2.93603E-03-2.29938E-01-2.74954E-06-1.73599E-05
 -1      9242-6.67798E-01 7.97393E-01-2.75897E-04-1.16032E-01 1.03025E-06 1.30905E-05
 -1      9243-6.97022E-01 8.48312E-01 3.19729E-03-2.51055E-01 1.18419E-05 7.47666E-05
 -1      9248-6.27449E-01 7.87911E-01 6.43036E-03-2.29939E-01 1.19011E-05 7.51403E-05
 -1      9249-6.67981E-01 7.97199E-01-7.45240E-04-1.16031E-01-7.02386E-08-8.92467E-07
 -1      9250-6.96402E-01 8.48978E-01 4.81689E-03-2.51062E-01 1.63549E-05 1.03261E-04
 -1      9255-6.26908E-01 7.88472E-01 7.76375E-03-2.29942E-01 9.12982E-06 5.76434E-05
 -1      9256-6.68119E-01 7.97062E-01-1.07172E-03-1.16031E-01-2.78888E-07-3.54360E-06
 -1      9257-6.96139E-01 8.49270E-01 5.54586E-03-2.51067E-01 1.04457E-05 6.59514E-05
 -1      9262-6.26703E-01 7.88691E-01 8.29780E-03-2.29945E-01 5.97908E-06 3.77504E-05
 -1      9263-6.68197E-01 7.96990E-01-1.23741E-03-1.16031E-01-1.06550E-07-1.35384E-06
 -1      9264-6.96020E-01 8.49396E-01 5.85196E-03-2.51068E-01 4.82809E-06 3.04834E-05
 -1      9269-6.26624E-01 7.88777E-01 8.50892E-03-2.29946E-01 2.79134E-06 1.76238E-05
 -1      9270-6.68226E-01 7.96963E-01-1.30012E-03-1.16032E-01-2.17862E-08-2.76820E-07
 -1      9271-6.95975E-01 8.49440E-01 5.95807E-03-2.51068E-01 1.33271E-06 8.41439E-06
 -1      9276-6.26604E-01 7.88799E-01 8.56441E-03-2.29946E-01-3.44825E-15-1.20767E-14
 -1      9277-6.68226E-01 7.96963E-01-1.30012E-03-1.16032E-01 2.17862E-08 2.76820E-07
 -1      9278-6.95975E-01 8.49440E-01 5.95807E-03-2.51068E-01-1.33271E-06-8.41439E-06
 -1      9283-6.26624E-01 7.88777E-01 8.50892E-03-2.29946E-01-2.79134E-06-1.76238E-05
 -1      9284-6.68197E-01 7.96990E-01-1.23741E-03-1.16031E-01 1.06550E-07 1.35384E-06
 -1      9285-6.96020E-01 8.49396E-01 5.85196E-03-2.51068E-01-4.82809E-06-3.04834E-05
 -1      9290-6.26703E-01 7.88691E-01 8.29780E-03-2.29945E-01-5.97908E-06-3.77504E-05
 -1      9291-6.68119E-01 7.97062E-01-1.07172E-03-1.16031E-01 2.78888E-07 3.54360E-06
 -1      9292-6.96139E-01 8.49270E-01 5.54586E-03-2.51067E-01-1.04457E-05-6.59514E-05
 -1      9297-6.26908E-01 7.88472E-01 7.76375E-03-2.29942E-01-9.12982E-06-5.76434E-05
 -1      9298-6.67981E-01 7.97199E-01-7.45240E-04-1.16031E-01 7.02386E-08 8.92467E-07
 -1      9299-6.96402E-01 8.48978E-01 4.81689E-03-2.51062E-01-1.63549E-05-1.03261E-04
 -1      9304-6.27449E-01 7.87911E-01 6.43036E-03-2.29939E-01-1.19011E-05-7.51403E-05
 -1      9305-6.67798E-01 7.97393E-01-2.75897E-04-1.16032E-01-1.03025E-06-1.30905E-05
 -1      9306-6.97022E-01 8.48312E-01 3.19729E-03-2.51055E-01-1.18419E-05-7.47666E-05
 -1      9311-6.28949E-01 7.86406E-01 2.93603E-03-2.29938E-01 2.74954E-06 1.73599E-05
 -1      9315-5.23258E-01 6.80715E-01 2.93603E-03-4.37369E-01-5.43138E-06-1.67161E-05
 -1      9316-5.96086E-01 7.25681E-01-2.75897E-04-3.36737E-01 3.06537E-06 1.27682E-05
 -1      9317-5.81625E-01 7.32915E-01 3.19729E-03-4.77534E-01 2.33922E-05 7.19937E-05
 -1      9322-5.21758E-01 6.82220E-01 6.43036E-03-4.37370E-01 2.35091E-05 7.23535E-05
 -1      9323-5.96270E-01 7.25488E-01-7.45240E-04-3.36735E-01-2.08986E-07-8.70491E-07
 -1      9324-5.81001E-01 7.33577E-01 4.81689E-03-4.77549E-01 3.23071E-05 9.94311E-05
 -1      9329-5.21215E-01 6.82779E-01 7.76375E-03-4.37376E-01 1.80348E-05 5.55055E-05
 -1      9330-5.96408E-01 7.25351E-01-1.07172E-03-3.36735E-01-8.29796E-07-3.45635E-06
 -1      9331-5.80737E-01 7.33867E-01 5.54586E-03-4.77558E-01 2.06342E-05 6.35054E-05
 -1      9336-5.21009E-01 6.82997E-01 8.29780E-03-4.37381E-01 1.18109E-05 3.63503E-05
 -1      9337-5.96485E-01 7.25279E-01-1.23741E-03-3.36736E-01-3.17025E-07-1.32051E-06
 -1      9338-5.80617E-01 7.33992E-01 5.85196E-03-4.77560E-01 9.53730E-06 2.93528E-05
 -1      9343-5.20930E-01 6.83082E-01 8.50892E-03-4.37383E-01 5.51394E-06 1.69702E-05
 -1      9344-5.96515E-01 7.25252E-01-1.30012E-03-3.36737E-01-6.48222E-08-2.70004E-07
 -1      9345-5.80572E-01 7.34037E-01 5.95807E-03-4.77560E-01 2.63260E-06 8.10231E-06
 -1      9350-5.20909E-01 6.83104E-01 8.56441E-03-4.37384E-01 2.79892E-14-5.30932E-14
 -1      9351-5.96515E-01 7.25252E-01-1.30012E-03-3.36737E-01 6.48222E-08 2.70004E-07
 -1      9352-5.80572E-01 7.34037E-01 5.95807E-03-4.77560E-01-2.63260E-06-8.10231E-06
 -1      9357-5.20930E-01 6.83082E-01 8.50892E-03-4.37383E-01-5.51394E-06-1.69702E-05
 -1      9358-5.96485E-01 7.25279E-01-1.23741E-03-3.36736E-01 3.17025E-07 1.32051E-06
 -1      9359-5.80617E-01 7.33992E-01 5.85196E-03-4.77560E-01-9.53730E-06-2.93528E-05
 -1      9364-5.21009E-01 6.82997E-01 8.29780E-03-4.37381E-01-1.18109E-05-3.63503E-05
 -1      9365-5.96408E-01 7.25351E-01-1.07172E-03-3.36735E-01 8.29796E-07 3.45635E-06
 -1      9366-5.80737E-01 7.33867E-01 5.54586E-03-4.77558E-01-2.06342E-05-6.35054E-05
 -1      9371-5.21215E-01 6.82779E-01 7.76375E-03-4.37376E-01-1.80348E-05-5.55055E-05
 -1      9372-5.96270E-01 7.25488E-01-7.45240E-04-3.36735E-01 2.08986E-07 8.70491E-07
 -1      9373-5.81001E-01 7.33577E-01 4.81689E-03-4.77549E-01-3.23071E-05-9.94311E-05
 -1      9378-5.21758E-01 6.82220E-01 6.43036E-03-4.37370E-01-2.35091E-05-7.23535E-05
 -1      9379-5.96086E-01 7.25681E-01-2.75897E-04-3.36737E-01-3.06537E-06-1.27682E-05
 -1      9380-5.81625E-01 7.32915E-01 3.19729E-03-4.77534E-01-2.33922E-05-7.19937E-05
 -1      9385-5.23258E-01 6.80715E-01 2.93603E-03-4.37369E-01 5.43138E-06 1.67161E-05
 -1      9389-3.58641E-01 5.16097E-01 2.93603E-03-6.01987E-01-7.97948E-06-1.56606E-05
 -1      9390-4.59683E-01 5.89278E-01-2.75897E-04-5.24480E-01 5.02502E-06 1.21315E-05
 -1      9391-4.01889E-01 5.53180E-01 3.19729E-03-6.57270E-01 3.43665E-05 6.74480E-05
 -1      9396-3.57139E-01 5.17601E-01 6.43036E-03-6.01989E-01 3.45382E-05 6.77851E-05
 -1      9397-4.59867E-01 5.89086E-01-7.45240E-04-5.24477E-01-3.42588E-07-8.27082E-07
 -1      9398-4.01261E-01 5.53837E-01 4.81689E-03-6.57289E-01 4.74638E-05 9.31530E-05
 -1      9403-3.56594E-01 5.18159E-01 7.76375E-03-6.01997E-01 2.64958E-05 5.20009E-05
 -1      9404-4.60006E-01 5.88948E-01-1.07172E-03-5.24477E-01-1.36027E-06-3.28399E-06
 -1      9405-4.00992E-01 5.54123E-01 5.54586E-03-6.57302E-01 3.03145E-05 5.94956E-05
 -1      9410-3.56386E-01 5.18375E-01 8.29780E-03-6.02003E-01 1.73520E-05 3.40552E-05
 -1      9411-4.60082E-01 5.88876E-01-1.23741E-03-5.24479E-01-5.19695E-07-1.25465E-06
 -1      9412-4.00872E-01 5.54247E-01 5.85196E-03-6.57304E-01 1.40117E-05 2.74994E-05
 -1      9417-3.56307E-01 5.18459E-01 8.50892E-03-6.02006E-01 8.10078E-06 1.58987E-05
 -1      9418-4.60112E-01 5.88848E-01-1.30012E-03-5.24480E-01-1.06262E-07-2.56539E-07
 -1      9419-4.00827E-01 5.54292E-01 5.95807E-03-6.57304E-01 3.86767E-06 7.59073E-06
 -1      9424-3.56286E-01 5.18481E-01 8.56441E-03-6.02007E-01 7.97093E-15-1.95483E-14
 -1      9425-4.60112E-01 5.88848E-01-1.30012E-03-5.24480E-01 1.06262E-07 2.56539E-07
 -1      9426-4.00827E-01 5.54292E-01 5.95807E-03-6.57304E-01-3.86767E-06-7.59073E-06
 -1      9431-3.56307E-01 5.18459E-01 8.50892E-03-6.02006E-01-8.10078E-06-1.58987E-05
 -1      9432-4.60082E-01 5.88876E-01-1.23741E-03-5.24479E-01 5.19695E-07 1.25465E-06
 -1      9433-4.00872E-01 5.54247E-01 5.85196E-03-6.57304E-01-1.40117E-05-2.74994E-05
 -1      9438-3.56386E-01 5.18375E-01 8.29780E-03-6.02003E-01-1.73520E-05-3.40552E-05
 -1      9439-4.60006E-01 5.88948E-01-1.07172E-03-5.24477E-01 1.36027E-06 3.28399E-06
 -1      9440-4.00992E-01 5.54123E-01 5.54586E-03-6.57302E-01-3.03145E-05-5.94956E-05
 -1      9445-3.56594E-01 5.18159E-01 7.76375E-03-6.01997E-01-2.64958E-05-5.20009E-05
 -1      9446-4.59867E-01 5.89086E-01-7.45240E-04-5.24477E-01 3.42588E-07 8.27082E-07
 -1      9447-4.01261E-01 5.53837E-01 4.81689E-03-6.57289E-01-4.74638E-05-9.31530E-05
 -1      9452-3.57139E-01 5.17601E-01 6.43036E-03-6.01989E-01-3.45382E-05-6.77851E-05
 -1      9453-4.59683E-01 5.89278E-01-2.75897E-04-5.24480E-01-5.02502E-06-1.21315E-05
 -1      9454-4.01889E-01 5.53180E-01 3.19729E-03-6.57270E-01-3.43665E-05-6.74480E-05
 -1      9459-3.58641E-01 5.16097E-01 2.93603E-03-6.01987E-01 7.97948E-06 1.56606E-05
 -1      9463-1.51210E-01 3.08667E-01 2.93603E-03-7.07678E-01-1.03311E-05-1.42195E-05
 -1      9464-2.71940E-01 4.01535E-01-2.75897E-04-6.60884E-01 6.86093E-06 1.11960E-05
 -1      9465-1.75410E-01 3.26700E-01 3.19729E-03-7.72667E-01 4.44945E-05 6.12415E-05
 -1      9470-1.49708E-01 3.10170E-01 6.43036E-03-7.07680E-01 4.47169E-05 6.15475E-05
 -1      9471-2.72126E-01 4.01344E-01-7.45240E-04-6.60879E-01-4.67755E-07-7.63307E-07
 -1      9472-1.74774E-01 3.27350E-01 4.81689E-03-7.72690E-01 6.14518E-05 8.45811E-05
 -1      9477-1.49160E-01 3.10725E-01 7.76375E-03-7.07690E-01 3.43043E-05 4.72158E-05
 -1      9478-2.72264E-01 4.01206E-01-1.07172E-03-6.60879E-01-1.85725E-06-3.03076E-06
 -1      9479-1.74502E-01 3.27632E-01 5.54586E-03-7.72705E-01 3.92485E-05 5.40209E-05
 -1      9484-1.48950E-01 3.10939E-01 8.29780E-03-7.07697E-01 2.24657E-05 3.09214E-05
 -1      9485-2.72340E-01 4.01133E-01-1.23741E-03-6.60882E-01-7.09568E-07-1.15791E-06
 -1      9486-1.74380E-01 3.27756E-01 5.85196E-03-7.72708E-01 1.81410E-05 2.49690E-05
 -1      9491-1.48870E-01 3.11022E-01 8.50892E-03-7.07701E-01 1.04881E-05 1.44357E-05
 -1      9492-2.72368E-01 4.01105E-01-1.30012E-03-6.60883E-01-1.45085E-07-2.36758E-07
 -1      9493-1.74336E-01 3.27800E-01 5.95807E-03-7.72708E-01 5.00751E-06 6.89224E-06
 -1      9498-1.48849E-01 3.11044E-01 8.56441E-03-7.07702E-01-3.80997E-14-6.03356E-14
 -1      9499-2.72368E-01 4.01105E-01-1.30012E-03-6.60883E-01 1.45085E-07 2.36758E-07
 -1      9500-1.74336E-01 3.27800E-01 5.95807E-03-7.72708E-01-5.00751E-06-6.89224E-06
 -1      9505-1.48870E-01 3.11022E-01 8.50892E-03-7.07701E-01-1.04881E-05-1.44357E-05
 -1      9506-2.72340E-01 4.01133E-01-1.23741E-03-6.60882E-01 7.09568E-07 1.15791E-06
 -1      9507-1.74380E-01 3.27756E-01 5.85196E-03-7.72708E-01-1.81410E-05-2.49690E-05
 -1      9512-1.48950E-01 3.10939E-01 8.29780E-03-7.07697E-01-2.24657E-05-3.09214E-05
 -1      9513-2.72264E-01 4.01206E-01-1.07172E-03-6.60879E-01 1.85725E-06 3.03076E-06
 -1      9514-1.74502E-01 3.27632E-01 5.54586E-03-7.72705E-01-3.92485E-05-5.40209E-05
 -1      9519-1.49160E-01 3.10725E-01 7.76375E-03-7.07690E-01-3.43043E-05-4.72158E-05
 -1      9520-2.72126E-01 4.01344E-01-7.45240E-04-6.60879E-01 4.67755E-07 7.63307E-07
 -1      9521-1.74774E-01 3.27350E-01 4.81689E-03-7.72690E-01-6.14518E-05-8.45811E-05
 -1      9526-1.49708E-01 3.10170E-01 6.43036E-03-7.07680E-01-4.47169E-05-6.15475E-05
 -1      9527-2.71940E-01 4.01535E-01-2.75897E-04-6.60884E-01-6.86093E-06-1.11960E-05
 -1      9528-1.75410E-01 3.26700E-01 3.19729E-03-7.72667E-01-4.44945E-05-6.12415E-05
 -1      9533-1.51210E-01 3.08667E-01 2.93603E-03-7.07678E-01 1.03311E-05 1.42195E-05
 -1      9537 7.87283E-02 7.87283E-02 2.93603E-03-7.44096E-01-1.24283E-05-1.24283E-05
 -1      9538-5.12342E-02 1.80829E-01-2.75897E-04-7.32595E-01 8.52790E-06 9.98489E-06
 -1      9539 7.56451E-02 7.56451E-02 3.19729E-03-8.12430E-01 5.35270E-05 5.35270E-05
 -1      9544 8.02309E-02 8.02309E-02 6.43036E-03-7.44099E-01 5.37945E-05 5.37945E-05
 -1      9545-5.14217E-02 1.80640E-01-7.45240E-04-7.32590E-01-5.81403E-07-6.80738E-07
 -1      9546 7.62878E-02 7.62879E-02 4.81689E-03-8.12454E-01 7.39266E-05 7.39266E-05
 -1      9551 8.07823E-02 8.07823E-02 7.76375E-03-7.44109E-01 4.12681E-05 4.12681E-05
 -1      9552-5.15598E-02 1.80502E-01-1.07172E-03-7.32590E-01-2.30850E-06-2.70291E-06
 -1      9553 7.65653E-02 7.65653E-02 5.54586E-03-8.12470E-01 4.72160E-05 4.72160E-05
 -1      9558 8.09944E-02 8.09944E-02 8.29780E-03-7.44117E-01 2.70263E-05 2.70263E-05
 -1      9559-5.16347E-02 1.80428E-01-1.23741E-03-7.32593E-01-8.81969E-07-1.03265E-06
 -1      9560 7.66878E-02 7.66878E-02 5.85196E-03-8.12473E-01 2.18237E-05 2.18237E-05
 -1      9565 8.10761E-02 8.10761E-02 8.50892E-03-7.44120E-01 1.26173E-05 1.26173E-05
 -1      9566-5.16632E-02 1.80400E-01-1.30012E-03-7.32595E-01-1.80336E-07-2.11147E-07
 -1      9567 7.67323E-02 7.67323E-02 5.95807E-03-8.12473E-01 6.02404E-06 6.02404E-06
 -1      9572 8.10976E-02 8.10976E-02 8.56441E-03-7.44121E-01-1.19376E-13-4.81887E-14
 -1      9573-5.16632E-02 1.80400E-01-1.30012E-03-7.32595E-01 1.80336E-07 2.11147E-07
 -1      9574 7.67323E-02 7.67323E-02 5.95807E-03-8.12473E-01-6.02404E-06-6.02404E-06
 -1      9579 8.10761E-02 8.10761E-02 8.50892E-03-7.44120E-01-1.26173E-05-1.26173E-05
 -1      9580-5.16347E-02 1.80428E-01-1.23741E-03-7.32593E-01 8.81969E-07 1.03265E-06
 -1      9581 7.66878E-02 7.66878E-02 5.85196E-03-8.12473E-01-2.18237E-05-2.18237E-05
 -1      9586 8.09944E-02 8.09944E-02 8.29780E-03-7.44117E-01-2.70263E-05-2.70263E-05
 -1      9587-5.15598E-02 1.80502E-01-1.07172E-03-7.32590E-01 2.30850E-06 2.70291E-06
 -1      9588 7.65653E-02 7.65653E-02 5.54586E-03-8.12470E-01-4.72160E-05-4.72160E-05
 -1      9593 8.07823E-02 8.07823E-02 7.76375E-03-7.44109E-01-4.12681E-05-4.12681E-05
 -1      9594-5.14217E-02 1.80640E-01-7.45240E-04-7.32590E-01 5.81403E-07 6.80738E-07
 -1      9595 7.62878E-02 7.62879E-02 4.81689E-03-8.12454E-01-7.39266E-05-7.39266E-05
 -1      9600 8.02309E-02 8.02309E-02 6.43036E-03-7.44099E-01-5.37945E-05-5.37945E-05
 -1      9601-5.12342E-02 1.80829E-01-2.75897E-04-7.32595E-01-8.52790E-06-9.98489E-06
 -1      9602 7.56451E-02 7.56451E-02 3.19729E-03-8.12430E-01-5.35270E-05-5.35270E-05
 -1      9607 7.87283E-02 7.87283E-02 2.93603E-03-7.44096E-01 1.24283E-05 1.24283E-05
 -1      9611 3.08667E-01-1.51210E-01 2.93603E-03-7.07678E-01-1.42196E-05-1.03311E-05
 -1      9612 1.80829E-01-5.12342E-02-2.75897E-04-7.32595E-01 9.98489E-06 8.52791E-06
 -1      9613 3.26700E-01-1.75410E-01 3.19729E-03-7.72667E-01 6.12415E-05 4.44945E-05
 -1      9618 3.10170E-01-1.49708E-01 6.43036E-03-7.07680E-01 6.15476E-05 4.47169E-05
 -1      9619 1.80640E-01-5.14217E-02-7.45240E-04-7.32590E-01-6.80731E-07-5.81411E-07
 -1      9620 3.27350E-01-1.74774E-01 4.81689E-03-7.72690E-01 8.45811E-05 6.14518E-05
 -1      9625 3.10725E-01-1.49160E-01 7.76374E-03-7.07690E-01 4.72158E-05 3.43042E-05
 -1      9626 1.80502E-01-5.15598E-02-1.07172E-03-7.32590E-01-2.70291E-06-2.30851E-06
 -1      9627 3.27632E-01-1.74502E-01 5.54586E-03-7.72705E-01 5.40209E-05 3.92485E-05
 -1      9632 3.10939E-01-1.48950E-01 8.29780E-03-7.07697E-01 3.09215E-05 2.24657E-05
 -1      9633 1.80428E-01-5.16347E-02-1.23741E-03-7.32593E-01-1.03265E-06-8.81972E-07
 -1      9634 3.27756E-01-1.74380E-01 5.85196E-03-7.72708E-01 2.49690E-05 1.81410E-05
 -1      9639 3.11022E-01-1.48870E-01 8.50892E-03-7.07701E-01 1.44357E-05 1.04881E-05
 -1      9640 1.80400E-01-5.16632E-02-1.30012E-03-7.32595E-01-2.11146E-07-1.80337E-07
 -1      9641 3.27800E-01-1.74336E-01 5.95807E-03-7.72708E-01 6.89224E-06 5.00750E-06
 -1      9646 3.11044E-01-1.48849E-01 8.56441E-03-7.07702E-01-4.99165E-14-2.77047E-14
 -1      9647 1.80400E-01-5.16632E-02-1.30012E-03-7.32595E-01 2.11146E-07 1.80337E-07
 -1      9648 3.27800E-01-1.74336E-01 5.95807E-03-7.72708E-01-6.89224E-06-5.00750E-06
 -1      9653 3.11022E-01-1.48870E-01 8.50892E-03-7.07701E-01-1.44357E-05-1.04881E-05
 -1      9654 1.80428E-01-5.16347E-02-1.23741E-03-7.32593E-01 1.03265E-06 8.81972E-07
 -1      9655 3.27756E-01-1.74380E-01 5.85196E-03-7.72708E-01-2.49690E-05-1.81410E-05
 -1      9660 3.10939E-01-1.48950E-01 8.29780E-03-7.07697E-01-3.09215E-05-2.24657E-05
 -1      9661 1.80502E-01-5.15598E-02-1.07172E-03-7.32590E-01 2.70291E-06 2.30851E-06
 -1      9662 3.27632E-01-1.74502E-01 5.54586E-03-7.72705E-01-5.40209E-05-3.92485E-05
 -1      9667 3.10725E-01-1.49160E-01 7.76374E-03-7.07690E-01-4.72158E-05-3.43042E-05
 -1      9668 1.80640E-01-5.14217E-02-7.45240E-04-7.32590E-01 6.80731E-07 5.81411E-07
 -1      9669 3.27350E-01-1.74774E-01 4.81689E-03-7.72690E-01-8.45811E-05-6.14518E-05
 -1      9674 3.10170E-01-1.49708E-01 6.43036E-03-7.07680E-01-6.15476E-05-4.47169E-05
 -1      9675 1.80829E-01-5.12342E-02-2.75897E-04-7.32595E-01-9.98489E-06-8.52791E-06
 -1      9676 3.26700E-01-1.75410E-01 3.19729E-03-7.72667E-01-6.12415E-05-4.44945E-05
 -1      9681 3.08667E-01-1.51210E-01 2.93603E-03-7.07678E-01 1.42196E-05 1.03311E-05
 -1      9685 5.16097E-01-3.58641E-01 2.93603E-03-6.01987E-01-1.56607E-05-7.97979E-06
 -1      9686 4.01535E-01-2.71940E-01-2.75897E-04-6.60884E-01 1.11960E-05 6.86091E-06
 -1      9687 5.53180E-01-4.01889E-01 3.19729E-03-6.57270E-01 6.74477E-05 3.43666E-05
 -1      9692 5.17601E-01-3.57139E-01 6.43036E-03-6.01989E-01 6.77849E-05 3.45382E-05
 -1      9693 4.01344E-01-2.72126E-01-7.45240E-04-6.60879E-01-7.63351E-07-4.67784E-07
 -1      9694 5.53836E-01-4.01261E-01 4.81689E-03-6.57289E-01 9.31528E-05 4.74638E-05
 -1      9699 5.18159E-01-3.56594E-01 7.76374E-03-6.01997E-01 5.20008E-05 2.64957E-05
 -1      9700 4.01206E-01-2.72264E-01-1.07172E-03-6.60879E-01-3.03080E-06-1.85729E-06
 -1      9701 5.54123E-01-4.00992E-01 5.54586E-03-6.57302E-01 5.94956E-05 3.03145E-05
 -1      9706 5.18375E-01-3.56386E-01 8.29780E-03-6.02003E-01 3.40551E-05 1.73520E-05
 -1      9707 4.01133E-01-2.72340E-01-1.23741E-03-6.60882E-01-1.15793E-06-7.09592E-07
 -1      9708 5.54247E-01-4.00872E-01 5.85196E-03-6.57304E-01 2.74994E-05 1.40117E-05
 -1      9713 5.18459E-01-3.56307E-01 8.50892E-03-6.02006E-01 1.58986E-05 8.10078E-06
 -1      9714 4.01105E-01-2.72368E-01-1.30012E-03-6.60883E-01-2.36763E-07-1.45093E-07
 -1      9715 5.54292E-01-4.00827E-01 5.95807E-03-6.57304E-01 7.59073E-06 3.86767E-06
 -1      9720 5.18481E-01-3.56286E-01 8.56441E-03-6.02007E-01-1.05545E-14-2.43613E-14
 -1      9721 4.01105E-01-2.72368E-01-1.30012E-03-6.60883E-01 2.36763E-07 1.45093E-07
 -1      9722 5.54292E-01-4.00827E-01 5.95807E-03-6.57304E-01-7.59073E-06-3.86767E-06
 -1      9727 5.18459E-01-3.56307E-01 8.50892E-03-6.02006E-01-1.58986E-05-8.10078E-06
 -1      9728 4.01133E-01-2.72340E-01-1.23741E-03-6.60882E-01 1.15793E-06 7.09592E-07
 -1      9729 5.54247E-01-4.00872E-01 5.85196E-03-6.57304E-01-2.74994E-05-1.40117E-05
 -1      9734 5.18375E-01-3.56386E-01 8.29780E-03-6.02003E-01-3.40551E-05-1.73520E-05
 -1      9735 4.01206E-01-2.72264E-01-1.07172E-03-6.60879E-01 3.03080E-06 1.85729E-06
 -1      9736 5.54123E-01-4.00992E-01 5.54586E-03-6.57302E-01-5.94956E-05-3.03145E-05
 -1      9741 5.18159E-01-3.56594E-01 7.76374E-03-6.01997E-01-5.20008E-05-2.64957E-05
 -1      9742 4.01344E-01-2.72126E-01-7.45240E-04-6.60879E-01 7.63351E-07 4.67784E-07
 -1      9743 5.53836E-01-4.01261E-01 4.81689E-03-6.57289E-01-9.31528E-05-4.74638E-05
 -1      9748 5.17601E-01-3.57139E-01 6.43036E-03-6.01989E-01-6.77849E-05-3.45382E-05
 -1      9749 4.01535E-01-2.71940E-01-2.75897E-04-6.60884E-01-1.11960E-05-6.86091E-06
 -1      9750 5.53180E-01-4.01889E-01 3.19729E-03-6.57270E-01-6.74477E-05-3.43666E-05
 -1      9755 5.16097E-01-3.58641E-01 2.93603E-03-6.01987E-01 1.56607E-05 7.97979E-06
 -1      9759 6.80715E-01-5.23258E-01 2.93603E-03-4.37369E-01-1.67158E-05-5.43157E-06
 -1      9760 5.89278E-01-4.59683E-01-2.75897E-04-5.24480E-01 1.21314E-05 5.02518E-06
 -1      9761 7.32915E-01-5.81625E-01 3.19729E-03-4.77534E-01 7.19937E-05 2.33925E-05
 -1      9766 6.82220E-01-5.21758E-01 6.43036E-03-4.37370E-01 7.23536E-05 2.35092E-05
 -1      9767 5.89086E-01-4.59867E-01-7.45240E-04-5.24477E-01-8.27091E-07-3.42564E-07
 -1      9768 7.33577E-01-5.81001E-01 4.81689E-03-4.77549E-01 9.94311E-05 3.23072E-05
 -1      9773 6.82779E-01-5.21215E-01 7.76375E-03-4.37376E-01 5.55056E-05 1.80349E-05
 -1      9774 5.88948E-01-4.60006E-01-1.07172E-03-5.24477E-01-3.28400E-06-1.36023E-06
 -1      9775 7.33867E-01-5.80737E-01 5.54586E-03-4.77558E-01 6.35054E-05 2.06342E-05
 -1      9780 6.82997E-01-5.21009E-01 8.29780E-03-4.37381E-01 3.63504E-05 1.18110E-05
 -1      9781 5.88876E-01-4.60082E-01-1.23741E-03-5.24479E-01-1.25467E-06-5.19666E-07
 -1      9782 7.33992E-01-5.80617E-01 5.85196E-03-4.77560E-01 2.93528E-05 9.53731E-06
 -1      9787 6.83082E-01-5.20930E-01 8.50892E-03-4.37383E-01 1.69702E-05 5.51396E-06
 -1      9788 5.88848E-01-4.60112E-01-1.30012E-03-5.24480E-01-2.56543E-07-1.06252E-07
 -1      9789 7.34037E-01-5.80572E-01 5.95807E-03-4.77560E-01 8.10232E-06 2.63261E-06
 -1      9794 6.83104E-01-5.20909E-01 8.56441E-03-4.37384E-01-3.16457E-14 3.21982E-15
 -1      9795 5.88848E-01-4.60112E-01-1.30012E-03-5.24480E-01 2.56543E-07 1.06252E-07
 -1      9796 7.34037E-01-5.80572E-01 5.95807E-03-4.77560E-01-8.10232E-06-2.63261E-06
 -1      9801 6.83082E-01-5.20930E-01 8.50892E-03-4.37383E-01-1.69702E-05-5.51396E-06
 -1      9802 5.88876E-01-4.60082E-01-1.23741E-03-5.24479E-01 1.25467E-06 5.19666E-07
 -1      9803 7.33992E-01-5.80617E-01 5.85196E-03-4.77560E-01-2.93528E-05-9.53731E-06
 -1      9808 6.82997E-01-5.21009E-01 8.29780E-03-4.37381E-01-3.63504E-05-1.18110E-05
 -1      9809 5.88948E-01-4.60006E-01-1.07172E-03-5.24477E-01 3.28400E-06 1.36023E-06
 -1      9810 7.33867E-01-5.80737E-01 5.54586E-03-4.77558E-01-6.35054E-05-2.06342E-05
 -1      9815 6.82779E-01-5.21215E-01 7.76375E-03-4.37376E-01-5.55056E-05-1.80349E-05
 -1      9816 5.89086E-01-4.59867E-01-7.45240E-04-5.24477E-01 8.27091E-07 3.42564E-07
 -1      9817 7.33577E-01-5.81001E-01 4.81689E-03-4.77549E-01-9.94311E-05-3.23072E-05
 -1      9822 6.82220E-01-5.21758E-01 6.43036E-03-4.37370E-01-7.23536E-05-2.35092E-05
 -1      9823 5.89278E-01-4.59683E-01-2.75897E-04-5.24480E-01-1.21314E-05-5.02518E-06
 -1      9824 7.32915E-01-5.81625E-01 3.19729E-03-4.77534E-01-7.19937E-05-2.33925E-05
 -1      9829 6.80715E-01-5.23258E-01 2.93603E-03-4.37369E-01 1.67158E-05 5.43157E-06
 -1      9833 7.86406E-01-6.28949E-01 2.93603E-03-2.29938E-01-1.73599E-05-2.74953E-06
 -1      9834 7.25681E-01-5.96086E-01-2.75897E-04-3.36737E-01 1.27682E-05 3.06536E-06
 -1      9835 8.48312E-01-6.97022E-01 3.19729E-03-2.51055E-01 7.47667E-05 1.18418E-05
 -1      9840 7.87911E-01-6.27449E-01 6.43036E-03-2.29939E-01 7.51403E-05 1.19010E-05
 -1      9841 7.25488E-01-5.96270E-01-7.45240E-04-3.36735E-01-8.70437E-07-2.08975E-07
 -1      9842 8.48978E-01-6.96402E-01 4.81689E-03-2.51062E-01 1.03261E-04 1.63549E-05
 -1      9847 7.88472E-01-6.26908E-01 7.76375E-03-2.29942E-01 5.76434E-05 9.12979E-06
 -1      9848 7.25351E-01-5.96408E-01-1.07172E-03-3.36735E-01-3.45630E-06-8.29799E-07
 -1      9849 8.49270E-01-6.96139E-01 5.54586E-03-2.51067E-01 6.59514E-05 1.04457E-05
 -1      9854 7.88691E-01-6.26703E-01 8.29780E-03-2.29945E-01 3.77505E-05 5.97906E-06
 -1      9855 7.25279E-01-5.96485E-01-1.23741E-03-3.36736E-01-1.32048E-06-3.17030E-07
 -1      9856 8.49396E-01-6.96020E-01 5.85196E-03-2.51068E-01 3.04834E-05 4.82808E-06
 -1      9861 7.88777E-01-6.26624E-01 8.50892E-03-2.29946E-01 1.76238E-05 2.79133E-06
 -1      9862 7.25252E-01-5.96515E-01-1.30012E-03-3.36737E-01-2.69995E-07-6.48240E-08
 -1      9863 8.49440E-01-6.95975E-01 5.95807E-03-2.51068E-01 8.41439E-06 1.33270E-06
 -1      9868 7.88799E-01-6.26604E-01 8.56441E-03-2.29946E-01-1.81259E-14 4.65925E-15
 -1      9869 7.25252E-01-5.96515E-01-1.30012E-03-3.36737E-01 2.69995E-07 6.48240E-08
 -1      9870 8.49440E-01-6.95975E-01 5.95807E-03-2.51068E-01-8.41439E-06-1.33270E-06
 -1      9875 7.88777E-01-6.26624E-01 8.50892E-03-2.29946E-01-1.76238E-05-2.79133E-06
 -1      9876 7.25279E-01-5.96485E-01-1.23741E-03-3.36736E-01 1.32048E-06 3.17030E-07
 -1      9877 8.49396E-01-6.96020E-01 5.85196E-03-2.51068E-01-3.04834E-05-4.82808E-06
 -1      9882 7.88691E-01-6.26703E-01 8.29780E-03-2.29945E-01-3.77505E-05-5.97906E-06
 -1      9883 7.25351E-01-5.96408E-01-1.07172E-03-3.36735E-01 3.45630E-06 8.29799E-07
 -1      9884 8.49270E-01-6.96139E-01 5.54586E-03-2.51067E-01-6.59514E-05-1.04457E-05
 -1      9889 7.88472E-01-6.26908E-01 7.76375E-03-2.29942E-01-5.76434E-05-9.12979E-06
 -1      9890 7.25488E-01-5.96270E-01-7.45240E-04-3.36735E-01 8.70437E-07 2.08975E-07
 -1      9891 8.48978E-01-6.96402E-01 4.81689E-03-2.51062E-01-1.03261E-04-1.63549E-05
 -1      9896 7.87911E-01-6.27449E-01 6.43036E-03-2.29939E-01-7.51403E-05-1.19010E-05
 -1      9897 7.25681E-01-5.96086E-01-2.75897E-04-3.36737E-01-1.27682E-05-3.06536E-06
 -1      9898 8.48312E-01-6.97022E-01 3.19729E-03-2.51055E-01-7.47667E-05-1.18418E-05
 -1      9903 7.86406E-01-6.28949E-01 2.93603E-03-2.29938E-01 1.73599E-05 2.74953E-06
 -1      9907 7.97393E-01-6.67798E-01-2.75897E-04-1.16032E-01 1.30905E-05 1.03025E-06
 -1      9911 7.97199E-01-6.67981E-01-7.45240E-04-1.16031E-01-8.92462E-07-7.02460E-08
 -1      9915 7.97062E-01-6.68119E-01-1.07172E-03-1.16031E-01-3.54360E-06-2.78890E-07
 -1      9919 7.96990E-01-6.68197E-01-1.23741E-03-1.16031E-01-1.35384E-06-1.06551E-07
 -1      9923 7.96963E-01-6.68226E-01-1.30012E-03-1.16032E-01-2.76819E-07-2.17868E-08
 -1      9927 7.96963E-01-6.68226E-01-1.30012E-03-1.16032E-01 2.76819E-07 2.17868E-08
 -1      9931 7.96990E-01-6.68197E-01-1.23741E-03-1.16031E-01 1.35384E-06 1.06551E-07
 -1      9935 7.97062E-01-6.68119E-01-1.07172E-03-1.16031E-01 3.54360E-06 2.78890E-07
 -1      9939 7.97199E-01-6.67981E-01-7.45240E-04-1.16031E-01 8.92462E-07 7.02460E-08
 -1      9943 7.97393E-01-6.67798E-01-2.75897E-04-1.16032E-01-1.30905E-05-1.03025E-06
 -1      9949-5.26385E-01 6.79818E-01 2.47614E-03-1.95959E-01-1.04479E-05-6.59655E-05
 -1      9950-5.59776E-01 6.89050E-01-4.17851E-04-9.88973E-02 2.51349E-06 3.19370E-05
 -1      9951-5.79214E-01 7.28383E-01 2.52530E-03-2.12432E-01-8.47245E-06-5.34929E-05
 -1      9956-5.25201E-01 6.80999E-01 5.21366E-03-1.95959E-01 1.51042E-06 9.53641E-06
 -1      9957-5.59957E-01 6.88864E-01-8.56252E-04-9.88969E-02 3.98292E-07 5.06078E-06
 -1      9958-5.78572E-01 7.29039E-01 4.07397E-03-2.12434E-01 2.86693E-06 1.81011E-05
 -1      9963-5.24728E-01 6.81474E-01 6.32640E-03-1.95959E-01 3.01148E-06 1.90138E-05
 -1      9964-5.60089E-01 6.88733E-01-1.16513E-03-9.88969E-02-2.76876E-07-3.51804E-06
 -1      9965-5.78264E-01 7.29359E-01 4.83793E-03-2.12436E-01 4.38281E-06 2.76719E-05
 -1      9970-5.24527E-01 6.81680E-01 6.81400E-03-1.95960E-01 2.79522E-06 1.76483E-05
 -1      9971-5.60155E-01 6.88667E-01-1.31879E-03-9.88970E-02-1.86328E-07-2.36752E-06
 -1      9972-5.78129E-01 7.29500E-01 5.17905E-03-2.12437E-01 2.87325E-06 1.81410E-05
 -1      9977-5.24443E-01 6.81766E-01 7.02024E-03-1.95961E-01 1.47715E-06 9.32637E-06
 -1      9978-5.60182E-01 6.88641E-01-1.37976E-03-9.88971E-02-6.09667E-08-7.74655E-07
 -1      9979-5.78079E-01 7.29553E-01 5.30753E-03-2.12438E-01 9.62957E-07 6.07987E-06
 -1      9984-5.24420E-01 6.81790E-01 7.07705E-03-1.95961E-01-1.10783E-14-5.78057E-15
 -1      9985-5.60182E-01 6.88641E-01-1.37976E-03-9.88971E-02 6.09667E-08 7.74655E-07
 -1      9986-5.78079E-01 7.29553E-01 5.30753E-03-2.12438E-01-9.62957E-07-6.07987E-06
 -1      9991-5.24443E-01 6.81766E-01 7.02024E-03-1.95961E-01-1.47715E-06-9.32637E-06
 -1      9992-5.60155E-01 6.88667E-01-1.31879E-03-9.88970E-02 1.86328E-07 2.36752E-06
 -1      9993-5.78129E-01 7.29500E-01 5.17905E-03-2.12437E-01-2.87325E-06-1.81410E-05
 -1      9998-5.24527E-01 6.81680E-01 6.81400E-03-1.95960E-01-2.79522E-06-1.76483E-05
 -1      9999-5.60089E-01 6.88733E-01-1.16513E-03-9.88969E-02 2.76876E-07 3.51804E-06
 -1     10000-5.78264E-01 7.29359E-01 4.83793E-03-2.12436E-01-4.38281E-06-2.76719E-05
 -1     10005-5.24728E-01 6.81474E-01 6.32640E-03-1.95959E-01-3.01148E-06-1.90138E-05
 -1     10006-5.59957E-01 6.88864E-01-8.56252E-04-9.88969E-02-3.98292E-07-5.06078E-06
 -1     10007-5.78572E-01 7.29039E-01 4.07397E-03-2.12434E-01-2.86693E-06-1.81011E-05
 -1     10012-5.25201E-01 6.80999E-01 5.21366E-03-1.95959E-01-1.51042E-06-9.53641E-06
 -1     10013-5.59776E-01 6.89050E-01-4.17851E-04-9.88973E-02-2.51349E-06-3.19370E-05
 -1     10014-5.79214E-01 7.28383E-01 2.52530E-03-2.12432E-01 8.47245E-06 5.34929E-05
 -1     10019-5.26385E-01 6.79818E-01 2.47614E-03-1.95959E-01 1.04479E-05 6.59655E-05
 -1     10023-4.36312E-01 5.89745E-01 2.47614E-03-3.72737E-01-2.06385E-05-6.35189E-05
 -1     10024-4.98654E-01 6.27928E-01-4.17851E-04-2.87011E-01 7.47859E-06 3.11506E-05
 -1     10025-4.81570E-01 6.30738E-01 2.52530E-03-4.04070E-01-1.67363E-05-5.15090E-05
 -1     10030-4.35129E-01 5.90926E-01 5.21366E-03-3.72736E-01 2.98365E-06 9.18272E-06
 -1     10031-4.98835E-01 6.27743E-01-8.56252E-04-2.87010E-01 1.18507E-06 4.93616E-06
 -1     10032-4.80927E-01 6.31394E-01 4.07397E-03-4.04074E-01 5.66326E-06 1.74297E-05
 -1     10037-4.34655E-01 5.91402E-01 6.32640E-03-3.72737E-01 5.94881E-06 1.83086E-05
 -1     10038-4.98967E-01 6.27611E-01-1.16513E-03-2.87010E-01-8.23809E-07-3.43141E-06
 -1     10039-4.80618E-01 6.31713E-01 4.83793E-03-4.04078E-01 8.65769E-06 2.66456E-05
 -1     10044-4.34454E-01 5.91607E-01 6.81400E-03-3.72738E-01 5.52162E-06 1.69938E-05
 -1     10045-4.99033E-01 6.27546E-01-1.31879E-03-2.87010E-01-5.54397E-07-2.30923E-06
 -1     10046-4.80482E-01 6.31854E-01 5.17905E-03-4.04080E-01 5.67576E-06 1.74682E-05
 -1     10051-4.34370E-01 5.91693E-01 7.02024E-03-3.72739E-01 2.91793E-06 8.98047E-06
 -1     10052-4.99060E-01 6.27520E-01-1.37976E-03-2.87011E-01-1.81399E-07-7.55581E-07
 -1     10053-4.80432E-01 6.31906E-01 5.30753E-03-4.04080E-01 1.90220E-06 5.85438E-06
 -1     10058-4.34347E-01 5.91717E-01 7.07705E-03-3.72739E-01-2.89791E-15-2.02489E-14
 -1     10059-4.99060E-01 6.27520E-01-1.37976E-03-2.87011E-01 1.81399E-07 7.55581E-07
 -1     10060-4.80432E-01 6.31906E-01 5.30753E-03-4.04080E-01-1.90220E-06-5.85438E-06
 -1     10065-4.34370E-01 5.91693E-01 7.02024E-03-3.72739E-01-2.91793E-06-8.98047E-06
 -1     10066-4.99033E-01 6.27546E-01-1.31879E-03-2.87010E-01 5.54397E-07 2.30923E-06
 -1     10067-4.80482E-01 6.31854E-01 5.17905E-03-4.04080E-01-5.67576E-06-1.74682E-05
 -1     10072-4.34454E-01 5.91607E-01 6.81400E-03-3.72738E-01-5.52162E-06-1.69938E-05
 -1     10073-4.98967E-01 6.27611E-01-1.16513E-03-2.87010E-01 8.23809E-07 3.43141E-06
 -1     10074-4.80618E-01 6.31713E-01 4.83793E-03-4.04078E-01-8.65769E-06-2.66456E-05
 -1     10079-4.34655E-01 5.91402E-01 6.32640E-03-3.72737E-01-5.94881E-06-1.83086E-05
 -1     10080-4.98835E-01 6.27743E-01-8.56252E-04-2.87010E-01-1.18507E-06-4.93616E-06
 -1     10081-4.80927E-01 6.31394E-01 4.07397E-03-4.04074E-01-5.66326E-06-1.74297E-05
 -1     10086-4.35129E-01 5.90926E-01 5.21366E-03-3.72736E-01-2.98365E-06-9.18272E-06
 -1     10087-4.98654E-01 6.27928E-01-4.17851E-04-2.87011E-01-7.47859E-06-3.11506E-05
 -1     10088-4.81570E-01 6.30738E-01 2.52530E-03-4.04070E-01 1.67363E-05 5.15090E-05
 -1     10093-4.36312E-01 5.89745E-01 2.47614E-03-3.72737E-01 2.06385E-05 6.35189E-05
 -1     10097-2.96020E-01 4.49454E-01 2.47614E-03-5.13029E-01-3.03210E-05-5.95083E-05
 -1     10098-3.82393E-01 5.11667E-01-4.17851E-04-4.47030E-01 1.22595E-05 2.95972E-05
 -1     10099-3.29486E-01 4.78654E-01 2.52530E-03-5.56154E-01-2.45880E-05-4.82567E-05
 -1     10104-2.94837E-01 4.50635E-01 5.21366E-03-5.13027E-01 4.38341E-06 8.60292E-06
 -1     10105-3.82575E-01 5.11482E-01-8.56252E-04-4.47029E-01 1.94266E-06 4.69000E-06
 -1     10106-3.28841E-01 4.79308E-01 4.07397E-03-5.56160E-01 8.32015E-06 1.63292E-05
 -1     10111-2.94364E-01 4.51110E-01 6.32640E-03-5.13028E-01 8.73966E-06 1.71526E-05
 -1     10112-3.82707E-01 5.11351E-01-1.16513E-03-4.47029E-01-1.35046E-06-3.26029E-06
 -1     10113-3.28530E-01 4.79625E-01 4.83793E-03-5.56165E-01 1.27194E-05 2.49632E-05
 -1     10118-2.94162E-01 4.51315E-01 6.81400E-03-5.13030E-01 8.11205E-06 1.59208E-05
 -1     10119-3.82773E-01 5.11285E-01-1.31879E-03-4.47029E-01-9.08814E-07-2.19407E-06
 -1     10120-3.28394E-01 4.79765E-01 5.17905E-03-5.56168E-01 8.33850E-06 1.63652E-05
 -1     10125-2.94078E-01 4.51401E-01 7.02024E-03-5.13031E-01 4.28686E-06 8.41344E-06
 -1     10126-3.82800E-01 5.11259E-01-1.37976E-03-4.47029E-01-2.97364E-07-7.17901E-07
 -1     10127-3.28343E-01 4.79818E-01 5.30753E-03-5.56169E-01 2.79461E-06 5.48473E-06
 -1     10132-2.94055E-01 4.51424E-01 7.07705E-03-5.13032E-01-1.23035E-14 1.07869E-14
 -1     10133-3.82800E-01 5.11259E-01-1.37976E-03-4.47029E-01 2.97364E-07 7.17901E-07
 -1     10134-3.28343E-01 4.79818E-01 5.30753E-03-5.56169E-01-2.79461E-06-5.48473E-06
 -1     10139-2.94078E-01 4.51401E-01 7.02024E-03-5.13031E-01-4.28686E-06-8.41344E-06
 -1     10140-3.82773E-01 5.11285E-01-1.31879E-03-4.47029E-01 9.08814E-07 2.19407E-06
 -1     10141-3.28394E-01 4.79765E-01 5.17905E-03-5.56168E-01-8.33850E-06-1.63652E-05
 -1     10146-2.94162E-01 4.51315E-01 6.81400E-03-5.13030E-01-8.11205E-06-1.59208E-05
 -1     10147-3.82707E-01 5.11351E-01-1.16513E-03-4.47029E-01 1.35046E-06 3.26029E-06
 -1     10148-3.28530E-01 4.79625E-01 4.83793E-03-5.56165E-01-1.27194E-05-2.49632E-05
 -1     10153-2.94364E-01 4.51110E-01 6.32640E-03-5.13028E-01-8.73966E-06-1.71526E-05
 -1     10154-3.82575E-01 5.11482E-01-8.56252E-04-4.47029E-01-1.94266E-06-4.69000E-06
 -1     10155-3.28841E-01 4.79308E-01 4.07397E-03-5.56160E-01-8.32015E-06-1.63292E-05
 -1     10160-2.94837E-01 4.50635E-01 5.21366E-03-5.13027E-01-4.38341E-06-8.60292E-06
 -1     10161-3.82393E-01 5.11667E-01-4.17851E-04-4.47030E-01-1.22595E-05-2.95972E-05
 -1     10162-3.29486E-01 4.78654E-01 2.52530E-03-5.56154E-01 2.45880E-05 4.82567E-05
 -1     10167-2.96020E-01 4.49454E-01 2.47614E-03-5.13029E-01 3.03210E-05 5.95083E-05
 -1     10171-1.19243E-01 2.72676E-01 2.47614E-03-6.03101E-01-3.92568E-05-5.40324E-05
 -1     10172-2.22374E-01 3.51648E-01-4.17851E-04-5.63291E-01 1.67386E-05 2.73150E-05
 -1     10173-1.37848E-01 2.87016E-01 2.52530E-03-6.53798E-01-3.18343E-05-4.38161E-05
 -1     10178-1.18060E-01 2.73858E-01 5.21366E-03-6.03100E-01 5.67523E-06 7.81129E-06
 -1     10179-2.22556E-01 3.51464E-01-8.56252E-04-5.63289E-01 2.65242E-06 4.32836E-06
 -1     10180-1.37201E-01 2.87668E-01 4.07397E-03-6.53806E-01 1.07722E-05 1.48266E-05
 -1     10185-1.17586E-01 2.74333E-01 6.32640E-03-6.03101E-01 1.13153E-05 1.55742E-05
 -1     10186-2.22688E-01 3.51332E-01-1.16513E-03-5.63289E-01-1.84385E-06-3.00890E-06
 -1     10187-1.36889E-01 2.87984E-01 4.83793E-03-6.53811E-01 1.64679E-05 2.26661E-05
 -1     10192-1.17383E-01 2.74537E-01 6.81400E-03-6.03103E-01 1.05027E-05 1.44558E-05
 -1     10193-2.22754E-01 3.51266E-01-1.31879E-03-5.63290E-01-1.24085E-06-2.02489E-06
 -1     10194-1.36751E-01 2.88123E-01 5.17905E-03-6.53814E-01 1.07959E-05 1.48593E-05
 -1     10199-1.17299E-01 2.74622E-01 7.02024E-03-6.03105E-01 5.55024E-06 7.63924E-06
 -1     10200-2.22781E-01 3.51240E-01-1.37976E-03-5.63290E-01-4.06008E-07-6.62545E-07
 -1     10201-1.36700E-01 2.88175E-01 5.30753E-03-6.53816E-01 3.61821E-06 4.98003E-06
 -1     10206-1.17276E-01 2.74645E-01 7.07705E-03-6.03105E-01-2.68601E-14-1.72460E-14
 -1     10207-2.22781E-01 3.51240E-01-1.37976E-03-5.63290E-01 4.06008E-07 6.62545E-07
 -1     10208-1.36700E-01 2.88175E-01 5.30753E-03-6.53816E-01-3.61821E-06-4.98003E-06
 -1     10213-1.17299E-01 2.74622E-01 7.02024E-03-6.03105E-01-5.55024E-06-7.63924E-06
 -1     10214-2.22754E-01 3.51266E-01-1.31879E-03-5.63290E-01 1.24085E-06 2.02489E-06
 -1     10215-1.36751E-01 2.88123E-01 5.17905E-03-6.53814E-01-1.07959E-05-1.48593E-05
 -1     10220-1.17383E-01 2.74537E-01 6.81400E-03-6.03103E-01-1.05027E-05-1.44558E-05
 -1     10221-2.22688E-01 3.51332E-01-1.16513E-03-5.63289E-01 1.84385E-06 3.00890E-06
 -1     10222-1.36889E-01 2.87984E-01 4.83793E-03-6.53811E-01-1.64679E-05-2.26661E-05
 -1     10227-1.17586E-01 2.74333E-01 6.32640E-03-6.03101E-01-1.13153E-05-1.55742E-05
 -1     10228-2.22556E-01 3.51464E-01-8.56252E-04-5.63289E-01-2.65242E-06-4.32836E-06
 -1     10229-1.37201E-01 2.87668E-01 4.07397E-03-6.53806E-01-1.07722E-05-1.48266E-05
 -1     10234-1.18060E-01 2.73858E-01 5.21366E-03-6.03100E-01-5.67523E-06-7.81129E-06
 -1     10235-2.22374E-01 3.51648E-01-4.17851E-04-5.63291E-01-1.67386E-05-2.73150E-05
 -1     10236-1.37848E-01 2.87016E-01 2.52530E-03-6.53798E-01 3.18343E-05 4.38161E-05
 -1     10241-1.19243E-01 2.72676E-01 2.47614E-03-6.03101E-01 3.92568E-05 5.40324E-05
 -1     10245 7.67167E-02 7.67167E-02 2.47614E-03-6.34138E-01-4.72261E-05-4.72261E-05
 -1     10246-3.42603E-02 1.63534E-01-4.17851E-04-6.24413E-01 2.08055E-05 2.43602E-05
 -1     10247 7.45841E-02 7.45841E-02 2.52530E-03-6.87444E-01-3.82967E-05-3.82967E-05
 -1     10252 7.78987E-02 7.78987E-02 5.21366E-03-6.34137E-01 6.82732E-06 6.82732E-06
 -1     10253-3.44432E-02 1.63351E-01-8.56252E-04-6.24411E-01 3.29687E-06 3.86014E-06
 -1     10254 7.52334E-02 7.52334E-02 4.07397E-03-6.87452E-01 1.29589E-05 1.29589E-05
 -1     10259 7.83733E-02 7.83733E-02 6.32640E-03-6.34138E-01 1.36123E-05 1.36123E-05
 -1     10260-3.45748E-02 1.63219E-01-1.16513E-03-6.24411E-01-2.29185E-06-2.68341E-06
 -1     10261 7.55475E-02 7.55475E-02 4.83793E-03-6.87458E-01 1.98109E-05 1.98109E-05
 -1     10266 7.85767E-02 7.85767E-02 6.81400E-03-6.34140E-01 1.26348E-05 1.26348E-05
 -1     10267-3.46409E-02 1.63153E-01-1.31879E-03-6.24411E-01-1.54234E-06-1.80585E-06
 -1     10268 7.56858E-02 7.56858E-02 5.17905E-03-6.87461E-01 1.29875E-05 1.29875E-05
 -1     10273 7.86615E-02 7.86615E-02 7.02024E-03-6.34142E-01 6.67694E-06 6.67694E-06
 -1     10274-3.46673E-02 1.63127E-01-1.37976E-03-6.24412E-01-5.04654E-07-5.90874E-07
 -1     10275 7.57372E-02 7.57372E-02 5.30753E-03-6.87463E-01 4.35271E-06 4.35271E-06
 -1     10280 7.86847E-02 7.86847E-02 7.07705E-03-6.34142E-01-1.74526E-14-1.73563E-14
 -1     10281-3.46673E-02 1.63127E-01-1.37976E-03-6.24412E-01 5.04654E-07 5.90874E-07
 -1     10282 7.57372E-02 7.57372E-02 5.30753E-03-6.87463E-01-4.35271E-06-4.35271E-06
 -1     10287 7.86615E-02 7.86615E-02 7.02024E-03-6.34142E-01-6.67694E-06-6.67694E-06
 -1     10288-3.46409E-02 1.63153E-01-1.31879E-03-6.24411E-01 1.54234E-06 1.80585E-06
 -1     10289 7.56858E-02 7.56858E-02 5.17905E-03-6.87461E-01-1.29875E-05-1.29875E-05
 -1     10294 7.85767E-02 7.85767E-02 6.81400E-03-6.34140E-01-1.26348E-05-1.26348E-05
 -1     10295-3.45748E-02 1.63219E-01-1.16513E-03-6.24411E-01 2.29185E-06 2.68341E-06
 -1     10296 7.55475E-02 7.55475E-02 4.83793E-03-6.87458E-01-1.98109E-05-1.98109E-05
 -1     10301 7.83733E-02 7.83733E-02 6.32640E-03-6.34138E-01-1.36123E-05-1.36123E-05
 -1     10302-3.44432E-02 1.63351E-01-8.56252E-04-6.24411E-01-3.29687E-06-3.86014E-06
 -1     10303 7.52334E-02 7.52334E-02 4.07397E-03-6.87452E-01-1.29589E-05-1.29589E-05
 -1     10308 7.78987E-02 7.78987E-02 5.21366E-03-6.34137E-01-6.82732E-06-6.82732E-06
 -1     10309-3.42603E-02 1.63534E-01-4.17851E-04-6.24413E-01-2.08055E-05-2.43602E-05
 -1     10310 7.45841E-02 7.45841E-02 2.52530E-03-6.87444E-01 3.82967E-05 3.82967E-05
 -1     10315 7.67167E-02 7.67167E-02 2.47614E-03-6.34138E-01 4.72261E-05 4.72261E-05
 -1     10319 2.72676E-01-1.19243E-01 2.47614E-03-6.03101E-01-5.40324E-05-3.92569E-05
 -1     10320 1.63534E-01-3.42603E-02-4.17851E-04-6.24413E-01 2.43602E-05 2.08055E-05
 -1     10321 2.87016E-01-1.37848E-01 2.52530E-03-6.53798E-01-4.38161E-05-3.18343E-05
 -1     10326 2.73858E-01-1.18060E-01 5.21366E-03-6.03100E-01 7.81128E-06 5.67523E-06
 -1     10327 1.63351E-01-3.44432E-02-8.56252E-04-6.24411E-01 3.86014E-06 3.29687E-06
 -1     10328 2.87668E-01-1.37201E-01 4.07397E-03-6.53806E-01 1.48266E-05 1.07721E-05
 -1     10333 2.74333E-01-1.17586E-01 6.32640E-03-6.03101E-01 1.55742E-05 1.13153E-05
 -1     10334 1.63219E-01-3.45748E-02-1.16513E-03-6.24411E-01-2.68341E-06-2.29185E-06
 -1     10335 2.87984E-01-1.36889E-01 4.83793E-03-6.53811E-01 2.26661E-05 1.64679E-05
 -1     10340 2.74537E-01-1.17383E-01 6.81400E-03-6.03103E-01 1.44558E-05 1.05027E-05
 -1     10341 1.63153E-01-3.46409E-02-1.31879E-03-6.24411E-01-1.80585E-06-1.54234E-06
 -1     10342 2.88123E-01-1.36751E-01 5.17905E-03-6.53814E-01 1.48593E-05 1.07959E-05
 -1     10347 2.74622E-01-1.17299E-01 7.02024E-03-6.03105E-01 7.63924E-06 5.55023E-06
 -1     10348 1.63127E-01-3.46673E-02-1.37976E-03-6.24412E-01-5.90874E-07-5.04655E-07
 -1     10349 2.88175E-01-1.36700E-01 5.30753E-03-6.53816E-01 4.98003E-06 3.61820E-06
 -1     10354 2.74645E-01-1.17276E-01 7.07705E-03-6.03105E-01 1.26500E-15-2.54074E-14
 -1     10355 1.63127E-01-3.46673E-02-1.37976E-03-6.24412E-01 5.90874E-07 5.04655E-07
 -1     10356 2.88175E-01-1.36700E-01 5.30753E-03-6.53816E-01-4.98003E-06-3.61820E-06
 -1     10361 2.74622E-01-1.17299E-01 7.02024E-03-6.03105E-01-7.63924E-06-5.55023E-06
 -1     10362 1.63153E-01-3.46409E-02-1.31879E-03-6.24411E-01 1.80585E-06 1.54234E-06
 -1     10363 2.88123E-01-1.36751E-01 5.17905E-03-6.53814E-01-1.48593E-05-1.07959E-05
 -1     10368 2.74537E-01-1.17383E-01 6.81400E-03-6.03103E-01-1.44558E-05-1.05027E-05
 -1     10369 1.63219E-01-3.45748E-02-1.16513E-03-6.24411E-01 2.68341E-06 2.29185E-06
 -1     10370 2.87984E-01-1.36889E-01 4.83793E-03-6.53811E-01-2.26661E-05-1.64679E-05
 -1     10375 2.74333E-01-1.17586E-01 6.32640E-03-6.03101E-01-1.55742E-05-1.13153E-05
 -1     10376 1.63351E-01-3.44432E-02-8.56252E-04-6.24411E-01-3.86014E-06-3.29687E-06
 -1     10377 2.87668E-01-1.37201E-01 4.07397E-03-6.53806E-01-1.48266E-05-1.07721E-05
 -1     10382 2.73858E-01-1.18060E-01 5.21366E-03-6.03100E-01-7.81128E-06-5.67523E-06
 -1     10383 1.63534E-01-3.42603E-02-4.17851E-04-6.24413E-01-2.43602E-05-2.08055E-05
 -1     10384 2.87016E-01-1.37848E-01 2.52530E-03-6.53798E-01 4.38161E-05 3.18343E-05
 -1     10389 2.72676E-01-1.19243E-01 2.47614E-03-6.03101E-01 5.40324E-05 3.92569E-05
 -1     10393 4.49454E-01-2.96020E-01 2.47614E-03-5.13029E-01-5.95083E-05-3.03209E-05
 -1     10394 3.51648E-01-2.22374E-01-4.17851E-04-5.63291E-01 2.73149E-05 1.67386E-05
 -1     10395 4.78654E-01-3.29485E-01 2.52530E-03-5.56154E-01-4.82567E-05-2.45881E-05
 -1     10400 4.50635E-01-2.94837E-01 5.21366E-03-5.13027E-01 8.60291E-06 4.38340E-06
 -1     10401 3.51464E-01-2.22556E-01-8.56252E-04-5.63289E-01 4.32835E-06 2.65241E-06
 -1     10402 4.79308E-01-3.28841E-01 4.07397E-03-5.56160E-01 1.63292E-05 8.32014E-06
 -1     10407 4.51110E-01-2.94364E-01 6.32640E-03-5.13028E-01 1.71525E-05 8.73966E-06
 -1     10408 3.51332E-01-2.22688E-01-1.16513E-03-5.63289E-01-3.00891E-06-1.84387E-06
 -1     10409 4.79625E-01-3.28530E-01 4.83793E-03-5.56165E-01 2.49632E-05 1.27194E-05
 -1     10414 4.51315E-01-2.94162E-01 6.81400E-03-5.13030E-01 1.59208E-05 8.11205E-06
 -1     10415 3.51266E-01-2.22754E-01-1.31879E-03-5.63290E-01-2.02490E-06-1.24086E-06
 -1     10416 4.79765E-01-3.28394E-01 5.17905E-03-5.56168E-01 1.63652E-05 8.33850E-06
 -1     10421 4.51401E-01-2.94078E-01 7.02024E-03-5.13031E-01 8.41343E-06 4.28686E-06
 -1     10422 3.51240E-01-2.22781E-01-1.37976E-03-5.63290E-01-6.62549E-07-4.06011E-07
 -1     10423 4.79818E-01-3.28343E-01 5.30753E-03-5.56169E-01 5.48472E-06 2.79461E-06
 -1     10428 4.51424E-01-2.94055E-01 7.07705E-03-5.13032E-01-5.58389E-14 3.96622E-14
 -1     10429 3.51240E-01-2.22781E-01-1.37976E-03-5.63290E-01 6.62549E-07 4.06011E-07
 -1     10430 4.79818E-01-3.28343E-01 5.30753E-03-5.56169E-01-5.48472E-06-2.79461E-06
 -1     10435 4.51401E-01-2.94078E-01 7.02024E-03-5.13031E-01-8.41343E-06-4.28686E-06
 -1     10436 3.51266E-01-2.22754E-01-1.31879E-03-5.63290E-01 2.02490E-06 1.24086E-06
 -1     10437 4.79765E-01-3.28394E-01 5.17905E-03-5.56168E-01-1.63652E-05-8.33850E-06
 -1     10442 4.51315E-01-2.94162E-01 6.81400E-03-5.13030E-01-1.59208E-05-8.11205E-06
 -1     10443 3.51332E-01-2.22688E-01-1.16513E-03-5.63289E-01 3.00891E-06 1.84387E-06
 -1     10444 4.79625E-01-3.28530E-01 4.83793E-03-5.56165E-01-2.49632E-05-1.27194E-05
 -1     10449 4.51110E-01-2.94364E-01 6.32640E-03-5.13028E-01-1.71525E-05-8.73966E-06
 -1     10450 3.51464E-01-2.22556E-01-8.56252E-04-5.63289E-01-4.32835E-06-2.65241E-06
 -1     10451 4.79308E-01-3.28841E-01 4.07397E-03-5.56160E-01-1.63292E-05-8.32014E-06
 -1     10456 4.50635E-01-2.94837E-01 5.21366E-03-5.13027E-01-8.60291E-06-4.38340E-06
 -1     10457 3.51648E-01-2.22374E-01-4.17851E-04-5.63291E-01-2.73149E-05-1.67386E-05
 -1     10458 4.78654E-01-3.29485E-01 2.52530E-03-5.56154E-01 4.82567E-05 2.45881E-05
 -1     10463 4.49454E-01-2.96020E-01 2.47614E-03-5.13029E-01 5.95083E-05 3.03209E-05
 -1     10467 5.89745E-01-4.36312E-01 2.47614E-03-3.72737E-01-6.35190E-05-2.06385E-05
 -1     10468 5.11667E-01-3.82393E-01-4.17851E-04-4.47030E-01 2.95972E-05 1.22595E-05
 -1     10469 6.30738E-01-4.81570E-01 2.52530E-03-4.04070E-01-5.15089E-05-1.67363E-05
 -1     10474 5.90926E-01-4.35129E-01 5.21366E-03-3.72736E-01 9.18273E-06 2.98365E-06
 -1     10475 5.11482E-01-3.82575E-01-8.56252E-04-4.47029E-01 4.69000E-06 1.94268E-06
 -1     10476 6.31394E-01-4.80927E-01 4.07397E-03-4.04074E-01 1.74298E-05 5.66329E-06
 -1     10481 5.91402E-01-4.34655E-01 6.32640E-03-3.72737E-01 1.83086E-05 5.94882E-06
 -1     10482 5.11351E-01-3.82707E-01-1.16513E-03-4.47029E-01-3.26030E-06-1.35045E-06
 -1     10483 6.31713E-01-4.80618E-01 4.83793E-03-4.04078E-01 2.66457E-05 8.65772E-06
 -1     10488 5.91607E-01-4.34454E-01 6.81400E-03-3.72738E-01 1.69938E-05 5.52163E-06
 -1     10489 5.11285E-01-3.82773E-01-1.31879E-03-4.47029E-01-2.19407E-06-9.08806E-07
 -1     10490 6.31854E-01-4.80482E-01 5.17905E-03-4.04080E-01 1.74682E-05 5.67577E-06
 -1     10495 5.91693E-01-4.34370E-01 7.02024E-03-3.72739E-01 8.98048E-06 2.91794E-06
 -1     10496 5.11259E-01-3.82800E-01-1.37976E-03-4.47029E-01-7.17902E-07-2.97361E-07
 -1     10497 6.31906E-01-4.80432E-01 5.30753E-03-4.04080E-01 5.85439E-06 1.90221E-06
 -1     10502 5.91717E-01-4.34347E-01 7.07705E-03-3.72739E-01-1.53750E-13 1.60085E-14
 -1     10503 5.11259E-01-3.82800E-01-1.37976E-03-4.47029E-01 7.17902E-07 2.97361E-07
 -1     10504 6.31906E-01-4.80432E-01 5.30753E-03-4.04080E-01-5.85439E-06-1.90221E-06
 -1     10509 5.91693E-01-4.34370E-01 7.02024E-03-3.72739E-01-8.98048E-06-2.91794E-06
 -1     10510 5.11285E-01-3.82773E-01-1.31879E-03-4.47029E-01 2.19407E-06 9.08806E-07
 -1     10511 6.31854E-01-4.80482E-01 5.17905E-03-4.04080E-01-1.74682E-05-5.67577E-06
 -1     10516 5.91607E-01-4.34454E-01 6.81400E-03-3.72738E-01-1.69938E-05-5.52163E-06
 -1     10517 5.11351E-01-3.82707E-01-1.16513E-03-4.47029E-01 3.26030E-06 1.35045E-06
 -1     10518 6.31713E-01-4.80618E-01 4.83793E-03-4.04078E-01-2.66457E-05-8.65772E-06
 -1     10523 5.91402E-01-4.34655E-01 6.32640E-03-3.72737E-01-1.83086E-05-5.94882E-06
 -1     10524 5.11482E-01-3.82575E-01-8.56252E-04-4.47029E-01-4.69000E-06-1.94268E-06
 -1     10525 6.31394E-01-4.80927E-01 4.07397E-03-4.04074E-01-1.74298E-05-5.66329E-06
 -1     10530 5.90926E-01-4.35129E-01 5.21366E-03-3.72736E-01-9.18273E-06-2.98365E-06
 -1     10531 5.11667E-01-3.82393E-01-4.17851E-04-4.47030E-01-2.95972E-05-1.22595E-05
 -1     10532 6.30738E-01-4.81570E-01 2.52530E-03-4.04070E-01 5.15089E-05 1.67363E-05
 -1     10537 5.89745E-01-4.36312E-01 2.47614E-03-3.72737E-01 6.35190E-05 2.06385E-05
 -1     10541 6.79818E-01-5.26385E-01 2.47614E-03-1.95959E-01-6.59655E-05-1.04479E-05
 -1     10542 6.27928E-01-4.98654E-01-4.17850E-04-2.87011E-01 3.11506E-05 7.47860E-06
 -1     10543 7.28383E-01-5.79214E-01 2.52530E-03-2.12432E-01-5.34929E-05-8.47246E-06
 -1     10548 6.80999E-01-5.25201E-01 5.21366E-03-1.95959E-01 9.53642E-06 1.51042E-06
 -1     10549 6.27743E-01-4.98835E-01-8.56252E-04-2.87010E-01 4.93618E-06 1.18507E-06
 -1     10550 7.29039E-01-5.78572E-01 4.07397E-03-2.12434E-01 1.81011E-05 2.86691E-06
 -1     10555 6.81474E-01-5.24728E-01 6.32640E-03-1.95959E-01 1.90138E-05 3.01148E-06
 -1     10556 6.27611E-01-4.98967E-01-1.16513E-03-2.87010E-01-3.43139E-06-8.23806E-07
 -1     10557 7.29359E-01-5.78264E-01 4.83793E-03-2.12436E-01 2.76720E-05 4.38279E-06
 -1     10562 6.81680E-01-5.24527E-01 6.81400E-03-1.95960E-01 1.76483E-05 2.79522E-06
 -1     10563 6.27546E-01-4.99033E-01-1.31879E-03-2.87010E-01-2.30921E-06-5.54394E-07
 -1     10564 7.29500E-01-5.78129E-01 5.17905E-03-2.12437E-01 1.81410E-05 2.87324E-06
 -1     10569 6.81766E-01-5.24443E-01 7.02024E-03-1.95961E-01 9.32638E-06 1.47715E-06
 -1     10570 6.27520E-01-4.99060E-01-1.37976E-03-2.87011E-01-7.55575E-07-1.81398E-07
 -1     10571 7.29553E-01-5.78079E-01 5.30753E-03-2.12438E-01 6.07987E-06 9.62954E-07
 -1     10576 6.81790E-01-5.24420E-01 7.07705E-03-1.95961E-01 7.58698E-15-6.28822E-15
 -1     10577 6.27520E-01-4.99060E-01-1.37976E-03-2.87011E-01 7.55575E-07 1.81398E-07
 -1     10578 7.29553E-01-5.78079E-01 5.30753E-03-2.12438E-01-6.07987E-06-9.62954E-07
 -1     10583 6.81766E-01-5.24443E-01 7.02024E-03-1.95961E-01-9.32638E-06-1.47715E-06
 -1     10584 6.27546E-01-4.99033E-01-1.31879E-03-2.87010E-01 2.30921E-06 5.54394E-07
 -1     10585 7.29500E-01-5.78129E-01 5.17905E-03-2.12437E-01-1.81410E-05-2.87324E-06
 -1     10590 6.81680E-01-5.24527E-01 6.81400E-03-1.95960E-01-1.76483E-05-2.79522E-06
 -1     10591 6.27611E-01-4.98967E-01-1.16513E-03-2.87010E-01 3.43139E-06 8.23806E-07
 -1     10592 7.29359E-01-5.78264E-01 4.83793E-03-2.12436E-01-2.76720E-05-4.38279E-06
 -1     10597 6.81474E-01-5.24728E-01 6.32640E-03-1.95959E-01-1.90138E-05-3.01148E-06
 -1     10598 6.27743E-01-4.98835E-01-8.56252E-04-2.87010E-01-4.93618E-06-1.18507E-06
 -1     10599 7.29039E-01-5.78572E-01 4.07397E-03-2.12434E-01-1.81011E-05-2.86691E-06
 -1     10604 6.80999E-01-5.25201E-01 5.21366E-03-1.95959E-01-9.53642E-06-1.51042E-06
 -1     10605 6.27928E-01-4.98654E-01-4.17850E-04-2.87011E-01-3.11506E-05-7.47860E-06
 -1     10606 7.28383E-01-5.79214E-01 2.52530E-03-2.12432E-01 5.34929E-05 8.47246E-06
 -1     10611 6.79818E-01-5.26385E-01 2.47614E-03-1.95959E-01 6.59655E-05 1.04479E-05
 -1     10615 6.89050E-01-5.59776E-01-4.17851E-04-9.88973E-02 3.19370E-05 2.51349E-06
 -1     10619 6.88864E-01-5.59957E-01-8.56252E-04-9.88969E-02 5.06078E-06 3.98289E-07
 -1     10623 6.88733E-01-5.60089E-01-1.16513E-03-9.88969E-02-3.51803E-06-2.76878E-07
 -1     10627 6.88667E-01-5.60155E-01-1.31879E-03-9.88970E-02-2.36752E-06-1.86330E-07
 -1     10631 6.88641E-01-5.60182E-01-1.37976E-03-9.88971E-02-7.74654E-07-6.09673E-08
 -1     10635 6.88641E-01-5.60182E-01-1.37976E-03-9.88971E-02 7.74654E-07 6.09674E-08
 -1     10639 6.88667E-01-5.60155E-01-1.31879E-03-9.88970E-02 2.36752E-06 1.86330E-07
 -1     10643 6.88733E-01-5.60089E-01-1.16513E-03-9.88969E-02 3.51803E-06 2.76878E-07
 -1     10647 6.88864E-01-5.59957E-01-8.56252E-04-9.88969E-02-5.06078E-06-3.98289E-07
 -1     10651 6.89050E-01-5.59776E-01-4.17851E-04-9.88973E-02-3.19370E-05-2.51349E-06
 -1     10657-4.45092E-01 5.95164E-01 1.93270E-03-1.69000E-01-1.07531E-05-6.78925E-05
 -1     10658-4.73824E-01 6.03190E-01-4.15061E-04-8.52911E-02 1.85204E-06 2.35324E-05
 -1     10659-4.86928E-01 6.34017E-01 2.13238E-03-1.82109E-01-5.70122E-06-3.59961E-05
 -1     10664-4.44124E-01 5.96135E-01 4.18983E-03-1.69000E-01 9.27378E-07 5.85524E-06
 -1     10665-4.74000E-01 6.03011E-01-8.36946E-04-8.52909E-02 2.63064E-08 3.34254E-07
 -1     10666-4.86361E-01 6.34585E-01 3.45641E-03-1.82109E-01 1.16537E-06 7.35784E-06
 -1     10671-4.43705E-01 5.96554E-01 5.16534E-03-1.69000E-01 2.18630E-06 1.38038E-05
 -1     10672-4.74123E-01 6.02888E-01-1.12505E-03-8.52909E-02-4.66574E-07-5.92838E-06
 -1     10673-4.86071E-01 6.34875E-01 4.13563E-03-1.82109E-01 2.48587E-06 1.56952E-05
 -1     10678-4.43513E-01 5.96746E-01 5.61631E-03-1.69000E-01 2.01612E-06 1.27293E-05
 -1     10679-4.74187E-01 6.02825E-01-1.27388E-03-8.52909E-02-3.22453E-07-4.09716E-06
 -1     10680-4.85935E-01 6.35011E-01 4.45771E-03-1.82109E-01 1.77528E-06 1.12087E-05
 -1     10685-4.43429E-01 5.96830E-01 5.81508E-03-1.69000E-01 1.06671E-06 6.73492E-06
 -1     10686-4.74213E-01 6.02799E-01-1.33500E-03-8.52909E-02-1.12376E-07-1.42788E-06
 -1     10687-4.85882E-01 6.35065E-01 4.58514E-03-1.82109E-01 6.22211E-07 3.92849E-06
 -1     10692-4.43405E-01 5.96854E-01 5.87137E-03-1.69000E-01-4.80618E-15 3.67818E-15
 -1     10693-4.74213E-01 6.02799E-01-1.33500E-03-8.52909E-02 1.12376E-07 1.42788E-06
 -1     10694-4.85882E-01 6.35065E-01 4.58514E-03-1.82109E-01-6.22211E-07-3.92849E-06
 -1     10699-4.43429E-01 5.96830E-01 5.81508E-03-1.69000E-01-1.06671E-06-6.73492E-06
 -1     10700-4.74187E-01 6.02825E-01-1.27388E-03-8.52909E-02 3.22453E-07 4.09716E-06
 -1     10701-4.85935E-01 6.35011E-01 4.45771E-03-1.82109E-01-1.77528E-06-1.12087E-05
 -1     10706-4.43513E-01 5.96746E-01 5.61631E-03-1.69000E-01-2.01612E-06-1.27293E-05
 -1     10707-4.74123E-01 6.02888E-01-1.12505E-03-8.52909E-02 4.66574E-07 5.92838E-06
 -1     10708-4.86071E-01 6.34875E-01 4.13563E-03-1.82109E-01-2.48587E-06-1.56952E-05
 -1     10713-4.43705E-01 5.96554E-01 5.16534E-03-1.69000E-01-2.18630E-06-1.38038E-05
 -1     10714-4.74000E-01 6.03011E-01-8.36946E-04-8.52909E-02-2.63064E-08-3.34254E-07
 -1     10715-4.86361E-01 6.34585E-01 3.45641E-03-1.82109E-01-1.16537E-06-7.35784E-06
 -1     10720-4.44124E-01 5.96135E-01 4.18983E-03-1.69000E-01-9.27378E-07-5.85524E-06
 -1     10721-4.73824E-01 6.03190E-01-4.15061E-04-8.52911E-02-1.85204E-06-2.35324E-05
 -1     10722-4.86928E-01 6.34017E-01 2.13238E-03-1.82109E-01 5.70122E-06 3.59961E-05
 -1     10727-4.45092E-01 5.95164E-01 1.93270E-03-1.69000E-01 1.07531E-05 6.78925E-05
 -1     10731-3.67412E-01 5.17483E-01 1.93270E-03-3.21457E-01-2.12415E-05-6.53745E-05
 -1     10732-4.21111E-01 5.50477E-01-4.15061E-04-2.47525E-01 5.51052E-06 2.29530E-05
 -1     10733-4.03222E-01 5.50311E-01 2.13238E-03-3.46391E-01-1.12621E-05-3.46611E-05
 -1     10738-3.66443E-01 5.18454E-01 4.18983E-03-3.21458E-01 1.83192E-06 5.63808E-06
 -1     10739-4.21287E-01 5.50298E-01-8.36946E-04-2.47524E-01 7.82714E-08 3.26024E-07
 -1     10740-4.02655E-01 5.50879E-01 3.45641E-03-3.46391E-01 2.30204E-06 7.08495E-06
 -1     10745-3.66024E-01 5.18873E-01 5.16534E-03-3.21458E-01 4.31877E-06 1.32918E-05
 -1     10746-4.21411E-01 5.50175E-01-1.12505E-03-2.47524E-01-1.38823E-06-5.78240E-06
 -1     10747-4.02365E-01 5.51169E-01 4.13563E-03-3.46391E-01 4.91054E-06 1.51131E-05
 -1     10752-3.65832E-01 5.19065E-01 5.61631E-03-3.21458E-01 3.98260E-06 1.22572E-05
 -1     10753-4.21474E-01 5.50112E-01-1.27388E-03-2.47524E-01-9.59420E-07-3.99627E-06
 -1     10754-4.02229E-01 5.51305E-01 4.45771E-03-3.46392E-01 3.50684E-06 1.07930E-05
 -1     10759-3.65748E-01 5.19149E-01 5.81508E-03-3.21458E-01 2.10715E-06 6.48513E-06
 -1     10760-4.21500E-01 5.50086E-01-1.33500E-03-2.47524E-01-3.34362E-07-1.39272E-06
 -1     10761-4.02176E-01 5.51359E-01 4.58514E-03-3.46392E-01 1.22910E-06 3.78279E-06
 -1     10766-3.65724E-01 5.19173E-01 5.87137E-03-3.21458E-01 7.76911E-15-1.07905E-14
 -1     10767-4.21500E-01 5.50086E-01-1.33500E-03-2.47524E-01 3.34362E-07 1.39272E-06
 -1     10768-4.02176E-01 5.51359E-01 4.58514E-03-3.46392E-01-1.22910E-06-3.78279E-06
 -1     10773-3.65748E-01 5.19149E-01 5.81508E-03-3.21458E-01-2.10715E-06-6.48513E-06
 -1     10774-4.21474E-01 5.50112E-01-1.27388E-03-2.47524E-01 9.59420E-07 3.99627E-06
 -1     10775-4.02229E-01 5.51305E-01 4.45771E-03-3.46392E-01-3.50684E-06-1.07930E-05
 -1     10780-3.65832E-01 5.19065E-01 5.61631E-03-3.21458E-01-3.98260E-06-1.22572E-05
 -1     10781-4.21411E-01 5.50175E-01-1.12505E-03-2.47524E-01 1.38823E-06 5.78240E-06
 -1     10782-4.02365E-01 5.51169E-01 4.13563E-03-3.46391E-01-4.91054E-06-1.51131E-05
 -1     10787-3.66024E-01 5.18873E-01 5.16534E-03-3.21458E-01-4.31877E-06-1.32918E-05
 -1     10788-4.21287E-01 5.50298E-01-8.36946E-04-2.47524E-01-7.82714E-08-3.26024E-07
 -1     10789-4.02655E-01 5.50879E-01 3.45641E-03-3.46391E-01-2.30204E-06-7.08495E-06
 -1     10794-3.66443E-01 5.18454E-01 4.18983E-03-3.21458E-01-1.83192E-06-5.63808E-06
 -1     10795-4.21111E-01 5.50477E-01-4.15061E-04-2.47525E-01-5.51052E-06-2.29530E-05
 -1     10796-4.03222E-01 5.50311E-01 2.13238E-03-3.46391E-01 1.12621E-05 3.46611E-05
 -1     10801-3.67412E-01 5.17483E-01 1.93270E-03-3.21457E-01 2.12415E-05 6.53745E-05
 -1     10805-2.46421E-01 3.96492E-01 1.93270E-03-4.42447E-01-3.12068E-05-6.12467E-05
 -1     10806-3.20845E-01 4.50212E-01-4.15061E-04-3.85529E-01 9.03331E-06 2.18083E-05
 -1     10807-2.72847E-01 4.19936E-01 2.13238E-03-4.76767E-01-1.65456E-05-3.24725E-05
 -1     10812-2.45452E-01 3.97463E-01 4.18983E-03-4.42449E-01 2.69136E-06 5.28209E-06
 -1     10813-3.21022E-01 4.50033E-01-8.36946E-04-3.85527E-01 1.28309E-07 3.09765E-07
 -1     10814-2.72279E-01 4.20504E-01 3.45641E-03-4.76767E-01 3.38203E-06 6.63760E-06
 -1     10819-2.45033E-01 3.97882E-01 5.16534E-03-4.42448E-01 6.34489E-06 1.24526E-05
 -1     10820-3.21145E-01 4.49910E-01-1.12505E-03-3.85527E-01-2.27571E-06-5.49405E-06
 -1     10821-2.71989E-01 4.20793E-01 4.13563E-03-4.76767E-01 7.21429E-06 1.41588E-05
 -1     10826-2.44841E-01 3.98074E-01 5.61631E-03-4.42448E-01 5.85101E-06 1.14833E-05
 -1     10827-3.21208E-01 4.49847E-01-1.27388E-03-3.85527E-01-1.57276E-06-3.79698E-06
 -1     10828-2.71854E-01 4.20930E-01 4.45771E-03-4.76767E-01 5.15206E-06 1.01115E-05
 -1     10833-2.44757E-01 3.98158E-01 5.81508E-03-4.42448E-01 3.09570E-06 6.07566E-06
 -1     10834-3.21235E-01 4.49821E-01-1.33500E-03-3.85528E-01-5.48114E-07-1.32327E-06
 -1     10835-2.71800E-01 4.20983E-01 4.58514E-03-4.76767E-01 1.80573E-06 3.54394E-06
 -1     10840-2.44733E-01 3.98182E-01 5.87137E-03-4.42448E-01 7.58156E-15-2.27116E-15
 -1     10841-3.21235E-01 4.49821E-01-1.33500E-03-3.85528E-01 5.48114E-07 1.32327E-06
 -1     10842-2.71800E-01 4.20983E-01 4.58514E-03-4.76767E-01-1.80573E-06-3.54394E-06
 -1     10847-2.44757E-01 3.98158E-01 5.81508E-03-4.42448E-01-3.09570E-06-6.07566E-06
 -1     10848-3.21208E-01 4.49847E-01-1.27388E-03-3.85527E-01 1.57276E-06 3.79698E-06
 -1     10849-2.71854E-01 4.20930E-01 4.45771E-03-4.76767E-01-5.15206E-06-1.01115E-05
 -1     10854-2.44841E-01 3.98074E-01 5.61631E-03-4.42448E-01-5.85101E-06-1.14833E-05
 -1     10855-3.21145E-01 4.49910E-01-1.12505E-03-3.85527E-01 2.27571E-06 5.49405E-06
 -1     10856-2.71989E-01 4.20793E-01 4.13563E-03-4.76767E-01-7.21429E-06-1.41588E-05
 -1     10861-2.45033E-01 3.97882E-01 5.16534E-03-4.42448E-01-6.34489E-06-1.24526E-05
 -1     10862-3.21022E-01 4.50033E-01-8.36946E-04-3.85527E-01-1.28309E-07-3.09765E-07
 -1     10863-2.72279E-01 4.20504E-01 3.45641E-03-4.76767E-01-3.38203E-06-6.63760E-06
 -1     10868-2.45452E-01 3.97463E-01 4.18983E-03-4.42449E-01-2.69136E-06-5.28209E-06
 -1     10869-3.20845E-01 4.50212E-01-4.15061E-04-3.85529E-01-9.03331E-06-2.18083E-05
 -1     10870-2.72847E-01 4.19936E-01 2.13238E-03-4.76767E-01 1.65456E-05 3.24725E-05
 -1     10875-2.46421E-01 3.96492E-01 1.93270E-03-4.42447E-01 3.12068E-05 6.12467E-05
 -1     10879-9.39643E-02 2.44035E-01 1.93270E-03-5.20128E-01-4.04036E-05-5.56108E-05
 -1     10880-1.82842E-01 3.12208E-01-4.15061E-04-4.85794E-01 1.23337E-05 2.01267E-05
 -1     10881-1.08564E-01 2.55653E-01 2.13238E-03-5.60473E-01-2.14217E-05-2.94845E-05
 -1     10886-9.29947E-02 2.45006E-01 4.18983E-03-5.20130E-01 3.48452E-06 4.79603E-06
 -1     10887-1.83018E-01 3.12029E-01-8.36946E-04-4.85793E-01 1.75188E-07 2.85880E-07
 -1     10888-1.07997E-01 2.56221E-01 3.45641E-03-5.60473E-01 4.37874E-06 6.02682E-06
 -1     10893-9.25759E-02 2.45425E-01 5.16534E-03-5.20129E-01 8.21479E-06 1.13067E-05
 -1     10894-1.83142E-01 3.11906E-01-1.12505E-03-4.85793E-01-3.10715E-06-5.07041E-06
 -1     10895-1.07707E-01 2.56511E-01 4.13563E-03-5.60473E-01 9.34040E-06 1.28560E-05
 -1     10900-9.23840E-02 2.45617E-01 5.61631E-03-5.20129E-01 7.57535E-06 1.04266E-05
 -1     10901-1.83205E-01 3.11843E-01-1.27388E-03-4.85793E-01-2.14738E-06-3.50420E-06
 -1     10902-1.07571E-01 2.56647E-01 4.45771E-03-5.60473E-01 6.67041E-06 9.18103E-06
 -1     10907-9.22997E-02 2.45701E-01 5.81508E-03-5.20129E-01 4.00803E-06 5.51658E-06
 -1     10908-1.83231E-01 3.11817E-01-1.33500E-03-4.85793E-01-7.48370E-07-1.22123E-06
 -1     10909-1.07517E-01 2.56700E-01 4.58514E-03-5.60474E-01 2.33789E-06 3.21783E-06
 -1     10914-9.22759E-02 2.45725E-01 5.87137E-03-5.20129E-01 3.07336E-14-4.46662E-14
 -1     10915-1.83231E-01 3.11817E-01-1.33500E-03-4.85793E-01 7.48370E-07 1.22123E-06
 -1     10916-1.07517E-01 2.56700E-01 4.58514E-03-5.60474E-01-2.33789E-06-3.21783E-06
 -1     10921-9.22997E-02 2.45701E-01 5.81508E-03-5.20129E-01-4.00803E-06-5.51658E-06
 -1     10922-1.83205E-01 3.11843E-01-1.27388E-03-4.85793E-01 2.14738E-06 3.50420E-06
 -1     10923-1.07571E-01 2.56647E-01 4.45771E-03-5.60473E-01-6.67041E-06-9.18103E-06
 -1     10928-9.23840E-02 2.45617E-01 5.61631E-03-5.20129E-01-7.57535E-06-1.04266E-05
 -1     10929-1.83142E-01 3.11906E-01-1.12505E-03-4.85793E-01 3.10715E-06 5.07041E-06
 -1     10930-1.07707E-01 2.56511E-01 4.13563E-03-5.60473E-01-9.34040E-06-1.28560E-05
 -1     10935-9.25759E-02 2.45425E-01 5.16534E-03-5.20129E-01-8.21479E-06-1.13067E-05
 -1     10936-1.83018E-01 3.12029E-01-8.36946E-04-4.85793E-01-1.75188E-07-2.85880E-07
 -1     10937-1.07997E-01 2.56221E-01 3.45641E-03-5.60473E-01-4.37874E-06-6.02682E-06
 -1     10942-9.29947E-02 2.45006E-01 4.18983E-03-5.20130E-01-3.48452E-06-4.79603E-06
 -1     10943-1.82842E-01 3.12208E-01-4.15061E-04-4.85794E-01-1.23337E-05-2.01267E-05
 -1     10944-1.08564E-01 2.55653E-01 2.13238E-03-5.60473E-01 2.14217E-05 2.94845E-05
 -1     10949-9.39643E-02 2.44035E-01 1.93270E-03-5.20128E-01 4.04036E-05 5.56108E-05
 -1     10953 7.50356E-02 7.50356E-02 1.93270E-03-5.46895E-01-4.86057E-05-4.86057E-05
 -1     10954-2.06081E-02 1.49974E-01-4.15061E-04-5.38507E-01 1.53303E-05 1.79495E-05
 -1     10955 7.35446E-02 7.35446E-02 2.13238E-03-5.89316E-01-2.57704E-05-2.57704E-05
 -1     10960 7.60056E-02 7.60056E-02 4.18983E-03-5.46897E-01 4.19189E-06 4.19189E-06
 -1     10961-2.07855E-02 1.49796E-01-8.36946E-04-5.38505E-01 2.17752E-07 2.54954E-07
 -1     10962 7.41121E-02 7.41121E-02 3.45641E-03-5.89316E-01 5.26763E-06 5.26763E-06
 -1     10967 7.64243E-02 7.64243E-02 5.16534E-03-5.46896E-01 9.88240E-06 9.88240E-06
 -1     10968-2.09086E-02 1.49673E-01-1.12505E-03-5.38506E-01-3.86208E-06-4.52192E-06
 -1     10969 7.44020E-02 7.44020E-02 4.13563E-03-5.89316E-01 1.12365E-05 1.12365E-05
 -1     10974 7.66163E-02 7.66163E-02 5.61631E-03-5.46896E-01 9.11316E-06 9.11316E-06
 -1     10975-2.09719E-02 1.49610E-01-1.27388E-03-5.38506E-01-2.66912E-06-3.12514E-06
 -1     10976 7.45381E-02 7.45381E-02 4.45771E-03-5.89317E-01 8.02452E-06 8.02452E-06
 -1     10981 7.67006E-02 7.67006E-02 5.81508E-03-5.46896E-01 4.82167E-06 4.82167E-06
 -1     10982-2.09980E-02 1.49584E-01-1.33500E-03-5.38506E-01-9.30199E-07-1.08912E-06
 -1     10983 7.45915E-02 7.45915E-02 4.58514E-03-5.89317E-01 2.81249E-06 2.81249E-06
 -1     10988 7.67243E-02 7.67243E-02 5.87137E-03-5.46896E-01-5.47985E-15-2.26186E-16
 -1     10989-2.09980E-02 1.49584E-01-1.33500E-03-5.38506E-01 9.30199E-07 1.08912E-06
 -1     10990 7.45915E-02 7.45915E-02 4.58514E-03-5.89317E-01-2.81249E-06-2.81249E-06
 -1     10995 7.67006E-02 7.67006E-02 5.81508E-03-5.46896E-01-4.82167E-06-4.82167E-06
 -1     10996-2.09719E-02 1.49610E-01-1.27388E-03-5.38506E-01 2.66912E-06 3.12514E-06
 -1     10997 7.45381E-02 7.45381E-02 4.45771E-03-5.89317E-01-8.02452E-06-8.02452E-06
 -1     11002 7.66163E-02 7.66163E-02 5.61631E-03-5.46896E-01-9.11316E-06-9.11316E-06
 -1     11003-2.09086E-02 1.49673E-01-1.12505E-03-5.38506E-01 3.86208E-06 4.52192E-06
 -1     11004 7.44020E-02 7.44020E-02 4.13563E-03-5.89316E-01-1.12365E-05-1.12365E-05
 -1     11009 7.64243E-02 7.64243E-02 5.16534E-03-5.46896E-01-9.88240E-06-9.88240E-06
 -1     11010-2.07855E-02 1.49796E-01-8.36946E-04-5.38505E-01-2.17752E-07-2.54954E-07
 -1     11011 7.41121E-02 7.41121E-02 3.45641E-03-5.89316E-01-5.26763E-06-5.26763E-06
 -1     11016 7.60056E-02 7.60056E-02 4.18983E-03-5.46897E-01-4.19189E-06-4.19189E-06
 -1     11017-2.06081E-02 1.49974E-01-4.15061E-04-5.38507E-01-1.53303E-05-1.79495E-05
 -1     11018 7.35446E-02 7.35446E-02 2.13238E-03-5.89316E-01 2.57704E-05 2.57704E-05
 -1     11023 7.50356E-02 7.50356E-02 1.93270E-03-5.46895E-01 4.86057E-05 4.86057E-05
 -1     11027 2.44035E-01-9.39643E-02 1.93270E-03-5.20128E-01-5.56108E-05-4.04036E-05
 -1     11028 1.49974E-01-2.06081E-02-4.15061E-04-5.38507E-01 1.79495E-05 1.53303E-05
 -1     11029 2.55653E-01-1.08564E-01 2.13238E-03-5.60473E-01-2.94845E-05-2.14217E-05
 -1     11034 2.45006E-01-9.29947E-02 4.18983E-03-5.20130E-01 4.79603E-06 3.48452E-06
 -1     11035 1.49796E-01-2.07855E-02-8.36946E-04-5.38505E-01 2.54955E-07 2.17751E-07
 -1     11036 2.56221E-01-1.07997E-01 3.45641E-03-5.60473E-01 6.02681E-06 4.37873E-06
 -1     11041 2.45425E-01-9.25759E-02 5.16534E-03-5.20129E-01 1.13067E-05 8.21478E-06
 -1     11042 1.49673E-01-2.09086E-02-1.12505E-03-5.38506E-01-4.52192E-06-3.86208E-06
 -1     11043 2.56511E-01-1.07707E-01 4.13563E-03-5.60473E-01 1.28560E-05 9.34039E-06
 -1     11048 2.45617E-01-9.23840E-02 5.61631E-03-5.20129E-01 1.04266E-05 7.57535E-06
 -1     11049 1.49610E-01-2.09719E-02-1.27388E-03-5.38506E-01-3.12514E-06-2.66912E-06
 -1     11050 2.56647E-01-1.07571E-01 4.45771E-03-5.60473E-01 9.18103E-06 6.67041E-06
 -1     11055 2.45701E-01-9.22997E-02 5.81508E-03-5.20129E-01 5.51658E-06 4.00803E-06
 -1     11056 1.49584E-01-2.09980E-02-1.33500E-03-5.38506E-01-1.08912E-06-9.30200E-07
 -1     11057 2.56700E-01-1.07517E-01 4.58514E-03-5.60474E-01 3.21783E-06 2.33789E-06
 -1     11062 2.45725E-01-9.22759E-02 5.87137E-03-5.20129E-01 3.62099E-14 3.16395E-14
 -1     11063 1.49584E-01-2.09980E-02-1.33500E-03-5.38506E-01 1.08912E-06 9.30200E-07
 -1     11064 2.56700E-01-1.07517E-01 4.58514E-03-5.60474E-01-3.21783E-06-2.33789E-06
 -1     11069 2.45701E-01-9.22997E-02 5.81508E-03-5.20129E-01-5.51658E-06-4.00803E-06
 -1     11070 1.49610E-01-2.09719E-02-1.27388E-03-5.38506E-01 3.12514E-06 2.66912E-06
 -1     11071 2.56647E-01-1.07571E-01 4.45771E-03-5.60473E-01-9.18103E-06-6.67041E-06
 -1     11076 2.45617E-01-9.23840E-02 5.61631E-03-5.20129E-01-1.04266E-05-7.57535E-06
 -1     11077 1.49673E-01-2.09086E-02-1.12505E-03-5.38506E-01 4.52192E-06 3.86208E-06
 -1     11078 2.56511E-01-1.07707E-01 4.13563E-03-5.60473E-01-1.28560E-05-9.34039E-06
 -1     11083 2.45425E-01-9.25759E-02 5.16534E-03-5.20129E-01-1.13067E-05-8.21478E-06
 -1     11084 1.49796E-01-2.07855E-02-8.36946E-04-5.38505E-01-2.54955E-07-2.17751E-07
 -1     11085 2.56221E-01-1.07997E-01 3.45641E-03-5.60473E-01-6.02681E-06-4.37873E-06
 -1     11090 2.45006E-01-9.29947E-02 4.18983E-03-5.20130E-01-4.79603E-06-3.48452E-06
 -1     11091 1.49974E-01-2.06081E-02-4.15061E-04-5.38507E-01-1.79495E-05-1.53303E-05
 -1     11092 2.55653E-01-1.08564E-01 2.13238E-03-5.60473E-01 2.94845E-05 2.14217E-05
 -1     11097 2.44035E-01-9.39643E-02 1.93270E-03-5.20128E-01 5.56108E-05 4.04036E-05
 -1     11101 3.96492E-01-2.46421E-01 1.93270E-03-4.42447E-01-6.12467E-05-3.12068E-05
 -1     11102 3.12208E-01-1.82842E-01-4.15061E-04-4.85794E-01 2.01267E-05 1.23337E-05
 -1     11103 4.19936E-01-2.72847E-01 2.13238E-03-4.76767E-01-3.24726E-05-1.65456E-05
 -1     11108 3.97463E-01-2.45452E-01 4.18983E-03-4.42449E-01 5.28208E-06 2.69136E-06
 -1     11109 3.12029E-01-1.83018E-01-8.36946E-04-4.85793E-01 2.85875E-07 1.75185E-07
 -1     11110 4.20504E-01-2.72279E-01 3.45641E-03-4.76767E-01 6.63759E-06 3.38202E-06
 -1     11115 3.97882E-01-2.45033E-01 5.16534E-03-4.42448E-01 1.24526E-05 6.34489E-06
 -1     11116 3.11906E-01-1.83142E-01-1.12505E-03-4.85793E-01-5.07041E-06-3.10715E-06
 -1     11117 4.20793E-01-2.71989E-01 4.13563E-03-4.76767E-01 1.41588E-05 7.21429E-06
 -1     11122 3.98074E-01-2.44841E-01 5.61631E-03-4.42448E-01 1.14832E-05 5.85101E-06
 -1     11123 3.11843E-01-1.83205E-01-1.27388E-03-4.85793E-01-3.50421E-06-2.14738E-06
 -1     11124 4.20930E-01-2.71854E-01 4.45771E-03-4.76767E-01 1.01115E-05 5.15206E-06
 -1     11129 3.98158E-01-2.44757E-01 5.81508E-03-4.42448E-01 6.07566E-06 3.09570E-06
 -1     11130 3.11817E-01-1.83231E-01-1.33500E-03-4.85793E-01-1.22123E-06-7.48371E-07
 -1     11131 4.20983E-01-2.71800E-01 4.58514E-03-4.76767E-01 3.54394E-06 1.80573E-06
 -1     11136 3.98182E-01-2.44733E-01 5.87137E-03-4.42448E-01-2.42562E-14-9.10242E-15
 -1     11137 3.11817E-01-1.83231E-01-1.33500E-03-4.85793E-01 1.22123E-06 7.48371E-07
 -1     11138 4.20983E-01-2.71800E-01 4.58514E-03-4.76767E-01-3.54394E-06-1.80573E-06
 -1     11143 3.98158E-01-2.44757E-01 5.81508E-03-4.42448E-01-6.07566E-06-3.09570E-06
 -1     11144 3.11843E-01-1.83205E-01-1.27388E-03-4.85793E-01 3.50421E-06 2.14738E-06
 -1     11145 4.20930E-01-2.71854E-01 4.45771E-03-4.76767E-01-1.01115E-05-5.15206E-06
 -1     11150 3.98074E-01-2.44841E-01 5.61631E-03-4.42448E-01-1.14832E-05-5.85101E-06
 -1     11151 3.11906E-01-1.83142E-01-1.12505E-03-4.85793E-01 5.07041E-06 3.10715E-06
 -1     11152 4.20793E-01-2.71989E-01 4.13563E-03-4.76767E-01-1.41588E-05-7.21429E-06
 -1     11157 3.97882E-01-2.45033E-01 5.16534E-03-4.42448E-01-1.24526E-05-6.34489E-06
 -1     11158 3.12029E-01-1.83018E-01-8.36946E-04-4.85793E-01-2.85875E-07-1.75185E-07
 -1     11159 4.20504E-01-2.72279E-01 3.45641E-03-4.76767E-01-6.63759E-06-3.38202E-06
 -1     11164 3.97463E-01-2.45452E-01 4.18983E-03-4.42449E-01-5.28208E-06-2.69136E-06
 -1     11165 3.12208E-01-1.82842E-01-4.15061E-04-4.85794E-01-2.01267E-05-1.23337E-05
 -1     11166 4.19936E-01-2.72847E-01 2.13238E-03-4.76767E-01 3.24726E-05 1.65456E-05
 -1     11171 3.96492E-01-2.46421E-01 1.93270E-03-4.42447E-01 6.12467E-05 3.12068E-05
 -1     11175 5.17483E-01-3.67412E-01 1.93270E-03-3.21457E-01-6.53745E-05-2.12415E-05
 -1     11176 4.50212E-01-3.20845E-01-4.15061E-04-3.85529E-01 2.18083E-05 9.03331E-06
 -1     11177 5.50311E-01-4.03222E-01 2.13238E-03-3.46391E-01-3.46611E-05-1.12620E-05
 -1     11182 5.18454E-01-3.66443E-01 4.18983E-03-3.21458E-01 5.63808E-06 1.83193E-06
 -1     11183 4.50033E-01-3.21022E-01-8.36946E-04-3.85527E-01 3.09766E-07 1.28309E-07
 -1     11184 5.50879E-01-4.02655E-01 3.45641E-03-3.46391E-01 7.08496E-06 2.30205E-06
 -1     11189 5.18873E-01-3.66024E-01 5.16534E-03-3.21458E-01 1.32918E-05 4.31877E-06
 -1     11190 4.49910E-01-3.21145E-01-1.12505E-03-3.85527E-01-5.49405E-06-2.27571E-06
 -1     11191 5.51169E-01-4.02365E-01 4.13563E-03-3.46391E-01 1.51131E-05 4.91055E-06
 -1     11196 5.19065E-01-3.65832E-01 5.61631E-03-3.21458E-01 1.22572E-05 3.98260E-06
 -1     11197 4.49847E-01-3.21208E-01-1.27388E-03-3.85527E-01-3.79698E-06-1.57276E-06
 -1     11198 5.51305E-01-4.02229E-01 4.45771E-03-3.46392E-01 1.07930E-05 3.50685E-06
 -1     11203 5.19149E-01-3.65748E-01 5.81508E-03-3.21458E-01 6.48513E-06 2.10715E-06
 -1     11204 4.49821E-01-3.21235E-01-1.33500E-03-3.85528E-01-1.32327E-06-5.48114E-07
 -1     11205 5.51359E-01-4.02176E-01 4.58514E-03-3.46392E-01 3.78279E-06 1.22910E-06
 -1     11210 5.19173E-01-3.65724E-01 5.87137E-03-3.21458E-01-1.26495E-14-4.94187E-15
 -1     11211 4.49821E-01-3.21235E-01-1.33500E-03-3.85528E-01 1.32327E-06 5.48114E-07
 -1     11212 5.51359E-01-4.02176E-01 4.58514E-03-3.46392E-01-3.78279E-06-1.22910E-06
 -1     11217 5.19149E-01-3.65748E-01 5.81508E-03-3.21458E-01-6.48513E-06-2.10715E-06
 -1     11218 4.49847E-01-3.21208E-01-1.27388E-03-3.85527E-01 3.79698E-06 1.57276E-06
 -1     11219 5.51305E-01-4.02229E-01 4.45771E-03-3.46392E-01-1.07930E-05-3.50685E-06
 -1     11224 5.19065E-01-3.65832E-01 5.61631E-03-3.21458E-01-1.22572E-05-3.98260E-06
 -1     11225 4.49910E-01-3.21145E-01-1.12505E-03-3.85527E-01 5.49405E-06 2.27571E-06
 -1     11226 5.51169E-01-4.02365E-01 4.13563E-03-3.46391E-01-1.51131E-05-4.91055E-06
 -1     11231 5.18873E-01-3.66024E-01 5.16534E-03-3.21458E-01-1.32918E-05-4.31877E-06
 -1     11232 4.50033E-01-3.21022E-01-8.36946E-04-3.85527E-01-3.09766E-07-1.28309E-07
 -1     11233 5.50879E-01-4.02655E-01 3.45641E-03-3.46391E-01-7.08496E-06-2.30205E-06
 -1     11238 5.18454E-01-3.66443E-01 4.18983E-03-3.21458E-01-5.63808E-06-1.83193E-06
 -1     11239 4.50212E-01-3.20845E-01-4.15061E-04-3.85529E-01-2.18083E-05-9.03331E-06
 -1     11240 5.50311E-01-4.03222E-01 2.13238E-03-3.46391E-01 3.46611E-05 1.12620E-05
 -1     11245 5.17483E-01-3.67412E-01 1.93270E-03-3.21457E-01 6.53745E-05 2.12415E-05
 -1     11249 5.95164E-01-4.45092E-01 1.93270E-03-1.69000E-01-6.78925E-05-1.07531E-05
 -1     11250 5.50477E-01-4.21111E-01-4.15061E-04-2.47525E-01 2.29530E-05 5.51052E-06
 -1     11251 6.34017E-01-4.86928E-01 2.13238E-03-1.82109E-01-3.59961E-05-5.70122E-06
 -1     11256 5.96135E-01-4.44124E-01 4.18983E-03-1.69000E-01 5.85524E-06 9.27374E-07
 -1     11257 5.50298E-01-4.21287E-01-8.36946E-04-2.47524E-01 3.26030E-07 7.82735E-08
 -1     11258 6.34585E-01-4.86361E-01 3.45641E-03-1.82109E-01 7.35785E-06 1.16537E-06
 -1     11263 5.96554E-01-4.43705E-01 5.16534E-03-1.69000E-01 1.38038E-05 2.18630E-06
 -1     11264 5.50175E-01-4.21411E-01-1.12505E-03-2.47524E-01-5.78240E-06-1.38823E-06
 -1     11265 6.34875E-01-4.86071E-01 4.13563E-03-1.82109E-01 1.56952E-05 2.48587E-06
 -1     11270 5.96746E-01-4.43513E-01 5.61631E-03-1.69000E-01 1.27293E-05 2.01612E-06
 -1     11271 5.50112E-01-4.21474E-01-1.27388E-03-2.47524E-01-3.99627E-06-9.59419E-07
 -1     11272 6.35011E-01-4.85935E-01 4.45771E-03-1.82109E-01 1.12087E-05 1.77528E-06
 -1     11277 5.96830E-01-4.43429E-01 5.81508E-03-1.69000E-01 6.73492E-06 1.06671E-06
 -1     11278 5.50086E-01-4.21500E-01-1.33500E-03-2.47524E-01-1.39272E-06-3.34362E-07
 -1     11279 6.35065E-01-4.85882E-01 4.58514E-03-1.82109E-01 3.92849E-06 6.22211E-07
 -1     11284 5.96854E-01-4.43405E-01 5.87137E-03-1.69000E-01 6.43652E-15 1.91358E-15
 -1     11285 5.50086E-01-4.21500E-01-1.33500E-03-2.47524E-01 1.39272E-06 3.34362E-07
 -1     11286 6.35065E-01-4.85882E-01 4.58514E-03-1.82109E-01-3.92849E-06-6.22211E-07
 -1     11291 5.96830E-01-4.43429E-01 5.81508E-03-1.69000E-01-6.73492E-06-1.06671E-06
 -1     11292 5.50112E-01-4.21474E-01-1.27388E-03-2.47524E-01 3.99627E-06 9.59419E-07
 -1     11293 6.35011E-01-4.85935E-01 4.45771E-03-1.82109E-01-1.12087E-05-1.77528E-06
 -1     11298 5.96746E-01-4.43513E-01 5.61631E-03-1.69000E-01-1.27293E-05-2.01612E-06
 -1     11299 5.50175E-01-4.21411E-01-1.12505E-03-2.47524E-01 5.78240E-06 1.38823E-06
 -1     11300 6.34875E-01-4.86071E-01 4.13563E-03-1.82109E-01-1.56952E-05-2.48587E-06
 -1     11305 5.96554E-01-4.43705E-01 5.16534E-03-1.69000E-01-1.38038E-05-2.18630E-06
 -1     11306 5.50298E-01-4.21287E-01-8.36946E-04-2.47524E-01-3.26030E-07-7.82735E-08
 -1     11307 6.34585E-01-4.86361E-01 3.45641E-03-1.82109E-01-7.35785E-06-1.16537E-06
 -1     11312 5.96135E-01-4.44124E-01 4.18983E-03-1.69000E-01-5.85524E-06-9.27374E-07
 -1     11313 5.50477E-01-4.21111E-01-4.15061E-04-2.47525E-01-2.29530E-05-5.51052E-06
 -1     11314 6.34017E-01-4.86928E-01 2.13238E-03-1.82109E-01 3.59961E-05 5.70122E-06
 -1     11319 5.95164E-01-4.45092E-01 1.93270E-03-1.69000E-01 6.78925E-05 1.07531E-05
 -1     11323 6.03190E-01-4.73824E-01-4.15061E-04-8.52911E-02 2.35324E-05 1.85204E-06
 -1     11327 6.03011E-01-4.74000E-01-8.36946E-04-8.52909E-02 3.34257E-07 2.63063E-08
 -1     11331 6.02888E-01-4.74123E-01-1.12505E-03-8.52909E-02-5.92838E-06-4.66574E-07
 -1     11335 6.02825E-01-4.74187E-01-1.27388E-03-8.52909E-02-4.09715E-06-3.22454E-07
 -1     11339 6.02799E-01-4.74213E-01-1.33500E-03-8.52909E-02-1.42788E-06-1.12376E-07
 -1     11343 6.02799E-01-4.74213E-01-1.33500E-03-8.52909E-02 1.42788E-06 1.12376E-07
 -1     11347 6.02825E-01-4.74187E-01-1.27388E-03-8.52909E-02 4.09715E-06 3.22454E-07
 -1     11351 6.02888E-01-4.74123E-01-1.12505E-03-8.52909E-02 5.92838E-06 4.66574E-07
 -1     11355 6.03011E-01-4.74000E-01-8.36946E-04-8.52909E-02-3.34257E-07-2.63063E-08
 -1     11359 6.03190E-01-4.73824E-01-4.15061E-04-8.52911E-02-2.35324E-05-1.85204E-06
 -1     11365-3.79407E-01 5.26922E-01 1.56162E-03-1.47242E-01-1.01517E-05-6.40954E-05
 -1     11366-4.04404E-01 5.33951E-01-4.00851E-04-7.43105E-02 1.73229E-06 2.20108E-05
 -1     11367-4.13090E-01 5.58481E-01 1.79136E-03-1.57841E-01-6.06934E-06-3.83203E-05
 -1     11372-3.78606E-01 5.27724E-01 3.42410E-03-1.47242E-01-3.24103E-07-2.04630E-06
 -1     11373-4.04566E-01 5.33786E-01-7.87756E-04-7.43102E-02 8.01161E-08 1.01797E-06
 -1     11374-4.12602E-01 5.58972E-01 2.94111E-03-1.57842E-01 5.94541E-07 3.75378E-06
 -1     11379-3.78240E-01 5.28090E-01 4.27820E-03-1.47242E-01 1.54570E-06 9.75919E-06
 -1     11380-4.04679E-01 5.33673E-01-1.05389E-03-7.43102E-02-4.20117E-07-5.33810E-06
 -1     11381-4.12341E-01 5.59234E-01 3.55590E-03-1.57842E-01 1.90566E-06 1.20318E-05
 -1     11386-3.78064E-01 5.28267E-01 4.69275E-03-1.47242E-01 1.64253E-06 1.03706E-05
 -1     11387-4.04739E-01 5.33613E-01-1.19503E-03-7.43102E-02-3.20062E-07-4.06678E-06
 -1     11388-4.12213E-01 5.59363E-01 3.85825E-03-1.57842E-01 1.40197E-06 8.85170E-06
 -1     11393-3.77984E-01 5.28348E-01 4.88237E-03-1.47242E-01 9.04561E-07 5.71117E-06
 -1     11394-4.04764E-01 5.33588E-01-1.25435E-03-7.43102E-02-1.15610E-07-1.46896E-06
 -1     11395-4.12161E-01 5.59415E-01 3.98122E-03-1.57842E-01 4.93634E-07 3.11668E-06
 -1     11400-3.77961E-01 5.28371E-01 4.93721E-03-1.47242E-01-7.42923E-15 1.39212E-14
 -1     11401-4.04764E-01 5.33588E-01-1.25435E-03-7.43102E-02 1.15610E-07 1.46896E-06
 -1     11402-4.12161E-01 5.59415E-01 3.98122E-03-1.57842E-01-4.93634E-07-3.11668E-06
 -1     11407-3.77984E-01 5.28348E-01 4.88237E-03-1.47242E-01-9.04561E-07-5.71117E-06
 -1     11408-4.04739E-01 5.33613E-01-1.19503E-03-7.43102E-02 3.20062E-07 4.06678E-06
 -1     11409-4.12213E-01 5.59363E-01 3.85825E-03-1.57842E-01-1.40197E-06-8.85170E-06
 -1     11414-3.78064E-01 5.28267E-01 4.69275E-03-1.47242E-01-1.64253E-06-1.03706E-05
 -1     11415-4.04679E-01 5.33673E-01-1.05389E-03-7.43102E-02 4.20117E-07 5.33810E-06
 -1     11416-4.12341E-01 5.59234E-01 3.55590E-03-1.57842E-01-1.90566E-06-1.20318E-05
 -1     11421-3.78240E-01 5.28090E-01 4.27820E-03-1.47242E-01-1.54570E-06-9.75919E-06
 -1     11422-4.04566E-01 5.33786E-01-7.87756E-04-7.43102E-02-8.01161E-08-1.01797E-06
 -1     11423-4.12602E-01 5.58972E-01 2.94111E-03-1.57842E-01-5.94541E-07-3.75378E-06
 -1     11428-3.78606E-01 5.27724E-01 3.42410E-03-1.47242E-01 3.24103E-07 2.04630E-06
 -1     11429-4.04404E-01 5.33951E-01-4.00851E-04-7.43105E-02-1.73229E-06-2.20108E-05
 -1     11430-4.13090E-01 5.58481E-01 1.79136E-03-1.57841E-01 6.06934E-06 3.83203E-05
 -1     11435-3.79407E-01 5.26922E-01 1.56162E-03-1.47242E-01 1.01517E-05 6.40954E-05
 -1     11439-3.11727E-01 4.59242E-01 1.56162E-03-2.80071E-01-2.00535E-05-6.17182E-05
 -1     11440-3.58478E-01 4.88025E-01-4.00851E-04-2.15657E-01 5.15421E-06 2.14688E-05
 -1     11441-3.40539E-01 4.85929E-01 1.79136E-03-3.00232E-01-1.19892E-05-3.68991E-05
 -1     11446-3.10926E-01 4.60044E-01 3.42410E-03-2.80071E-01-6.40224E-07-1.97041E-06
 -1     11447-3.58640E-01 4.87860E-01-7.87756E-04-2.15657E-01 2.38376E-07 9.92905E-07
 -1     11448-3.40050E-01 4.86420E-01 2.94111E-03-3.00233E-01 1.17444E-06 3.61456E-06
 -1     11453-3.10561E-01 4.60411E-01 4.27820E-03-2.80072E-01 3.05335E-06 9.39724E-06
 -1     11454-3.58753E-01 4.87747E-01-1.05389E-03-2.15657E-01-1.25001E-06-5.20666E-06
 -1     11455-3.39789E-01 4.86682E-01 3.55590E-03-3.00233E-01 3.76439E-06 1.15856E-05
 -1     11460-3.10384E-01 4.60587E-01 4.69275E-03-2.80072E-01 3.24462E-06 9.98592E-06
 -1     11461-3.58813E-01 4.87687E-01-1.19503E-03-2.15657E-01-9.52307E-07-3.96664E-06
 -1     11462-3.39661E-01 4.86811E-01 3.85825E-03-3.00233E-01 2.76942E-06 8.52340E-06
 -1     11467-3.10304E-01 4.60668E-01 4.88237E-03-2.80072E-01 1.78685E-06 5.49935E-06
 -1     11468-3.58838E-01 4.87662E-01-1.25435E-03-2.15657E-01-3.43983E-07-1.43279E-06
 -1     11469-3.39609E-01 4.86863E-01 3.98122E-03-3.00233E-01 9.75113E-07 3.00109E-06
 -1     11474-3.10281E-01 4.60691E-01 4.93721E-03-2.80072E-01 2.44796E-14 2.46145E-14
 -1     11475-3.58838E-01 4.87662E-01-1.25435E-03-2.15657E-01 3.43983E-07 1.43279E-06
 -1     11476-3.39609E-01 4.86863E-01 3.98122E-03-3.00233E-01-9.75113E-07-3.00109E-06
 -1     11481-3.10304E-01 4.60668E-01 4.88237E-03-2.80072E-01-1.78685E-06-5.49935E-06
 -1     11482-3.58813E-01 4.87687E-01-1.19503E-03-2.15657E-01 9.52307E-07 3.96664E-06
 -1     11483-3.39661E-01 4.86811E-01 3.85825E-03-3.00233E-01-2.76942E-06-8.52340E-06
 -1     11488-3.10384E-01 4.60587E-01 4.69275E-03-2.80072E-01-3.24462E-06-9.98592E-06
 -1     11489-3.58753E-01 4.87747E-01-1.05389E-03-2.15657E-01 1.25001E-06 5.20666E-06
 -1     11490-3.39789E-01 4.86682E-01 3.55590E-03-3.00233E-01-3.76439E-06-1.15856E-05
 -1     11495-3.10561E-01 4.60411E-01 4.27820E-03-2.80072E-01-3.05335E-06-9.39724E-06
 -1     11496-3.58640E-01 4.87860E-01-7.87756E-04-2.15657E-01-2.38376E-07-9.92905E-07
 -1     11497-3.40050E-01 4.86420E-01 2.94111E-03-3.00233E-01-1.17444E-06-3.61456E-06
 -1     11502-3.10926E-01 4.60044E-01 3.42410E-03-2.80071E-01 6.40224E-07 1.97041E-06
 -1     11503-3.58478E-01 4.88025E-01-4.00851E-04-2.15657E-01-5.15421E-06-2.14688E-05
 -1     11504-3.40539E-01 4.85929E-01 1.79136E-03-3.00232E-01 1.19892E-05 3.68991E-05
 -1     11509-3.11727E-01 4.59242E-01 1.56162E-03-2.80071E-01 2.00535E-05 6.17182E-05
 -1     11513-2.06314E-01 3.53828E-01 1.56162E-03-3.85485E-01-2.94614E-05-5.78213E-05
 -1     11514-2.71121E-01 4.00668E-01-4.00851E-04-3.35894E-01 8.44922E-06 2.03982E-05
 -1     11515-2.27537E-01 3.72927E-01 1.79136E-03-4.13234E-01-1.76139E-05-3.45693E-05
 -1     11520-2.05512E-01 3.54631E-01 3.42410E-03-3.85485E-01-9.40582E-07-1.84600E-06
 -1     11521-2.71283E-01 4.00503E-01-7.87756E-04-3.35893E-01 3.90766E-07 9.43391E-07
 -1     11522-2.27048E-01 3.73418E-01 2.94111E-03-4.13235E-01 1.72542E-06 3.38634E-06
 -1     11527-2.05147E-01 3.54997E-01 4.27820E-03-3.85486E-01 4.48581E-06 8.80389E-06
 -1     11528-2.71396E-01 4.00390E-01-1.05389E-03-3.35893E-01-2.04912E-06-4.94701E-06
 -1     11529-2.26787E-01 3.73680E-01 3.55590E-03-4.13236E-01 5.53043E-06 1.08541E-05
 -1     11534-2.04970E-01 3.55173E-01 4.69275E-03-3.85486E-01 4.76682E-06 9.35541E-06
 -1     11535-2.71456E-01 4.00330E-01-1.19503E-03-3.35893E-01-1.56110E-06-3.76883E-06
 -1     11536-2.26658E-01 3.73808E-01 3.85825E-03-4.13236E-01 4.06868E-06 7.98523E-06
 -1     11541-2.04890E-01 3.55254E-01 4.88237E-03-3.85486E-01 2.62514E-06 5.15212E-06
 -1     11542-2.71481E-01 4.00305E-01-1.25435E-03-3.35893E-01-5.63886E-07-1.36134E-06
 -1     11543-2.26606E-01 3.73860E-01 3.98122E-03-4.13236E-01 1.43258E-06 2.81160E-06
 -1     11548-2.04867E-01 3.55277E-01 4.93721E-03-3.85486E-01 3.97663E-14-3.39787E-14
 -1     11549-2.71481E-01 4.00305E-01-1.25435E-03-3.35893E-01 5.63886E-07 1.36134E-06
 -1     11550-2.26606E-01 3.73860E-01 3.98122E-03-4.13236E-01-1.43258E-06-2.81160E-06
 -1     11555-2.04890E-01 3.55254E-01 4.88237E-03-3.85486E-01-2.62514E-06-5.15212E-06
 -1     11556-2.71456E-01 4.00330E-01-1.19503E-03-3.35893E-01 1.56110E-06 3.76883E-06
 -1     11557-2.26658E-01 3.73808E-01 3.85825E-03-4.13236E-01-4.06868E-06-7.98523E-06
 -1     11562-2.04970E-01 3.55173E-01 4.69275E-03-3.85486E-01-4.76682E-06-9.35541E-06
 -1     11563-2.71396E-01 4.00390E-01-1.05389E-03-3.35893E-01 2.04912E-06 4.94701E-06
 -1     11564-2.26787E-01 3.73680E-01 3.55590E-03-4.13236E-01-5.53043E-06-1.08541E-05
 -1     11569-2.05147E-01 3.54997E-01 4.27820E-03-3.85486E-01-4.48581E-06-8.80389E-06
 -1     11570-2.71283E-01 4.00503E-01-7.87756E-04-3.35893E-01-3.90766E-07-9.43391E-07
 -1     11571-2.27048E-01 3.73418E-01 2.94111E-03-4.13235E-01-1.72542E-06-3.38634E-06
 -1     11576-2.05512E-01 3.54631E-01 3.42410E-03-3.85485E-01 9.40582E-07 1.84600E-06
 -1     11577-2.71121E-01 4.00668E-01-4.00851E-04-3.35894E-01-8.44922E-06-2.03982E-05
 -1     11578-2.27537E-01 3.72927E-01 1.79136E-03-4.13234E-01 1.76139E-05 3.45693E-05
 -1     11583-2.06314E-01 3.53828E-01 1.56162E-03-3.85485E-01 2.94614E-05 5.78213E-05
 -1     11587-7.34848E-02 2.20999E-01 1.56162E-03-4.53164E-01-3.81440E-05-5.25007E-05
 -1     11588-1.50884E-01 2.80431E-01-4.00851E-04-4.23251E-01 1.15362E-05 1.88253E-05
 -1     11589-8.51462E-02 2.30536E-01 1.79136E-03-4.85785E-01-2.28049E-05-3.13882E-05
 -1     11594-7.26831E-02 2.21801E-01 3.42410E-03-4.53165E-01-1.21778E-06-1.67613E-06
 -1     11595-1.51047E-01 2.80267E-01-7.87756E-04-4.23250E-01 5.33533E-07 8.70647E-07
 -1     11596-8.46569E-02 2.31027E-01 2.94111E-03-4.85787E-01 2.23392E-06 3.07473E-06
 -1     11601-7.23174E-02 2.22167E-01 4.27820E-03-4.53165E-01 5.80781E-06 7.99377E-06
 -1     11602-1.51160E-01 2.80153E-01-1.05389E-03-4.23250E-01-2.79777E-06-4.56555E-06
 -1     11603-8.43953E-02 2.31289E-01 3.55590E-03-4.85788E-01 7.16029E-06 9.85529E-06
 -1     11608-7.21411E-02 2.22344E-01 4.69275E-03-4.53166E-01 6.17164E-06 8.49453E-06
 -1     11609-1.51220E-01 2.80094E-01-1.19503E-03-4.23250E-01-2.13146E-06-3.47822E-06
 -1     11610-8.42670E-02 2.31417E-01 3.85825E-03-4.85788E-01 5.26775E-06 7.25044E-06
 -1     11615-7.20606E-02 2.22424E-01 4.88237E-03-4.53166E-01 3.39879E-06 4.67803E-06
 -1     11616-1.51245E-01 2.80068E-01-1.25435E-03-4.23250E-01-7.69904E-07-1.25637E-06
 -1     11617-8.42148E-02 2.31469E-01 3.98122E-03-4.85788E-01 1.85478E-06 2.55288E-06
 -1     11622-7.20373E-02 2.22448E-01 4.93721E-03-4.53166E-01 1.60763E-14 2.53414E-14
 -1     11623-1.51245E-01 2.80068E-01-1.25435E-03-4.23250E-01 7.69904E-07 1.25637E-06
 -1     11624-8.42148E-02 2.31469E-01 3.98122E-03-4.85788E-01-1.85478E-06-2.55288E-06
 -1     11629-7.20606E-02 2.22424E-01 4.88237E-03-4.53166E-01-3.39879E-06-4.67803E-06
 -1     11630-1.51220E-01 2.80094E-01-1.19503E-03-4.23250E-01 2.13146E-06 3.47822E-06
 -1     11631-8.42670E-02 2.31417E-01 3.85825E-03-4.85788E-01-5.26775E-06-7.25044E-06
 -1     11636-7.21411E-02 2.22344E-01 4.69275E-03-4.53166E-01-6.17164E-06-8.49453E-06
 -1     11637-1.51160E-01 2.80153E-01-1.05389E-03-4.23250E-01 2.79777E-06 4.56555E-06
 -1     11638-8.43953E-02 2.31289E-01 3.55590E-03-4.85788E-01-7.16029E-06-9.85529E-06
 -1     11643-7.23174E-02 2.22167E-01 4.27820E-03-4.53165E-01-5.80781E-06-7.99377E-06
 -1     11644-1.51047E-01 2.80267E-01-7.87756E-04-4.23250E-01-5.33533E-07-8.70647E-07
 -1     11645-8.46569E-02 2.31027E-01 2.94111E-03-4.85787E-01-2.23392E-06-3.07473E-06
 -1     11650-7.26831E-02 2.21801E-01 3.42410E-03-4.53165E-01 1.21778E-06 1.67613E-06
 -1     11651-1.50884E-01 2.80431E-01-4.00851E-04-4.23251E-01-1.15362E-05-1.88253E-05
 -1     11652-8.51462E-02 2.30536E-01 1.79136E-03-4.85785E-01 2.28049E-05 3.13882E-05
 -1     11657-7.34848E-02 2.20999E-01 1.56162E-03-4.53164E-01 3.81440E-05 5.25007E-05
 -1     11661 7.37573E-02 7.37573E-02 1.56162E-03-4.76485E-01-4.58873E-05-4.58873E-05
 -1     11662-9.53701E-03 1.39084E-01-4.00851E-04-4.69178E-01 1.43391E-05 1.67889E-05
 -1     11663 7.26950E-02 7.26950E-02 1.79136E-03-5.10785E-01-2.74343E-05-2.74343E-05
 -1     11668 7.45592E-02 7.45592E-02 3.42410E-03-4.76486E-01-1.46499E-06-1.46499E-06
 -1     11669-9.70022E-03 1.38920E-01-7.87756E-04-4.69176E-01 6.63164E-07 7.76465E-07
 -1     11670 7.31850E-02 7.31850E-02 2.94111E-03-5.10787E-01 2.68741E-06 2.68741E-06
 -1     11675 7.49250E-02 7.49250E-02 4.27820E-03-4.76486E-01 6.98681E-06 6.98681E-06
 -1     11676-9.81341E-03 1.38807E-01-1.05389E-03-4.69176E-01-3.47754E-06-4.07167E-06
 -1     11677 7.34467E-02 7.34467E-02 3.55590E-03-5.10787E-01 8.61384E-06 8.61384E-06
 -1     11682 7.51014E-02 7.51014E-02 4.69275E-03-4.76487E-01 7.42450E-06 7.42450E-06
 -1     11683-9.87322E-03 1.38747E-01-1.19503E-03-4.69176E-01-2.64933E-06-3.10197E-06
 -1     11684 7.35750E-02 7.35750E-02 3.85825E-03-5.10787E-01 6.33712E-06 6.33712E-06
 -1     11689 7.51819E-02 7.51819E-02 4.88237E-03-4.76487E-01 4.08875E-06 4.08875E-06
 -1     11690-9.89836E-03 1.38722E-01-1.25435E-03-4.69176E-01-9.56965E-07-1.12046E-06
 -1     11691 7.36272E-02 7.36272E-02 3.98122E-03-5.10787E-01 2.23130E-06 2.23130E-06
 -1     11696 7.52051E-02 7.52051E-02 4.93721E-03-4.76487E-01 4.89948E-15 6.23663E-14
 -1     11697-9.89836E-03 1.38722E-01-1.25435E-03-4.69176E-01 9.56965E-07 1.12046E-06
 -1     11698 7.36272E-02 7.36272E-02 3.98122E-03-5.10787E-01-2.23130E-06-2.23130E-06
 -1     11703 7.51819E-02 7.51819E-02 4.88237E-03-4.76487E-01-4.08875E-06-4.08875E-06
 -1     11704-9.87322E-03 1.38747E-01-1.19503E-03-4.69176E-01 2.64933E-06 3.10197E-06
 -1     11705 7.35750E-02 7.35750E-02 3.85825E-03-5.10787E-01-6.33712E-06-6.33712E-06
 -1     11710 7.51014E-02 7.51014E-02 4.69275E-03-4.76487E-01-7.42450E-06-7.42450E-06
 -1     11711-9.81341E-03 1.38807E-01-1.05389E-03-4.69176E-01 3.47754E-06 4.07167E-06
 -1     11712 7.34467E-02 7.34467E-02 3.55590E-03-5.10787E-01-8.61384E-06-8.61384E-06
 -1     11717 7.49250E-02 7.49250E-02 4.27820E-03-4.76486E-01-6.98681E-06-6.98681E-06
 -1     11718-9.70022E-03 1.38920E-01-7.87756E-04-4.69176E-01-6.63164E-07-7.76465E-07
 -1     11719 7.31850E-02 7.31850E-02 2.94111E-03-5.10787E-01-2.68741E-06-2.68741E-06
 -1     11724 7.45592E-02 7.45592E-02 3.42410E-03-4.76486E-01 1.46499E-06 1.46499E-06
 -1     11725-9.53701E-03 1.39084E-01-4.00851E-04-4.69178E-01-1.43391E-05-1.67889E-05
 -1     11726 7.26950E-02 7.26950E-02 1.79136E-03-5.10785E-01 2.74343E-05 2.74343E-05
 -1     11731 7.37573E-02 7.37573E-02 1.56162E-03-4.76485E-01 4.58873E-05 4.58873E-05
 -1     11735 2.20999E-01-7.34848E-02 1.56162E-03-4.53164E-01-5.25007E-05-3.81440E-05
 -1     11736 1.39084E-01-9.53701E-03-4.00851E-04-4.69178E-01 1.67889E-05 1.43391E-05
 -1     11737 2.30536E-01-8.51462E-02 1.79136E-03-4.85785E-01-3.13882E-05-2.28049E-05
 -1     11742 2.21801E-01-7.26831E-02 3.42410E-03-4.53165E-01-1.67613E-06-1.21778E-06
 -1     11743 1.38920E-01-9.70022E-03-7.87756E-04-4.69176E-01 7.76465E-07 6.63164E-07
 -1     11744 2.31027E-01-8.46569E-02 2.94111E-03-4.85787E-01 3.07473E-06 2.23392E-06
 -1     11749 2.22167E-01-7.23174E-02 4.27820E-03-4.53165E-01 7.99377E-06 5.80781E-06
 -1     11750 1.38807E-01-9.81341E-03-1.05389E-03-4.69176E-01-4.07167E-06-3.47754E-06
 -1     11751 2.31289E-01-8.43953E-02 3.55590E-03-4.85788E-01 9.85529E-06 7.16029E-06
 -1     11756 2.22344E-01-7.21411E-02 4.69275E-03-4.53166E-01 8.49453E-06 6.17164E-06
 -1     11757 1.38747E-01-9.87322E-03-1.19503E-03-4.69176E-01-3.10197E-06-2.64933E-06
 -1     11758 2.31417E-01-8.42670E-02 3.85825E-03-4.85788E-01 7.25044E-06 5.26775E-06
 -1     11763 2.22424E-01-7.20606E-02 4.88237E-03-4.53166E-01 4.67803E-06 3.39879E-06
 -1     11764 1.38722E-01-9.89836E-03-1.25435E-03-4.69176E-01-1.12046E-06-9.56965E-07
 -1     11765 2.31469E-01-8.42148E-02 3.98122E-03-4.85788E-01 2.55288E-06 1.85477E-06
 -1     11770 2.22448E-01-7.20373E-02 4.93721E-03-4.53166E-01 1.85767E-15 1.88617E-14
 -1     11771 1.38722E-01-9.89836E-03-1.25435E-03-4.69176E-01 1.12046E-06 9.56965E-07
 -1     11772 2.31469E-01-8.42148E-02 3.98122E-03-4.85788E-01-2.55288E-06-1.85477E-06
 -1     11777 2.22424E-01-7.20606E-02 4.88237E-03-4.53166E-01-4.67803E-06-3.39879E-06
 -1     11778 1.38747E-01-9.87322E-03-1.19503E-03-4.69176E-01 3.10197E-06 2.64933E-06
 -1     11779 2.31417E-01-8.42670E-02 3.85825E-03-4.85788E-01-7.25044E-06-5.26775E-06
 -1     11784 2.22344E-01-7.21411E-02 4.69275E-03-4.53166E-01-8.49453E-06-6.17164E-06
 -1     11785 1.38807E-01-9.81341E-03-1.05389E-03-4.69176E-01 4.07167E-06 3.47754E-06
 -1     11786 2.31289E-01-8.43953E-02 3.55590E-03-4.85788E-01-9.85529E-06-7.16029E-06
 -1     11791 2.22167E-01-7.23174E-02 4.27820E-03-4.53165E-01-7.99377E-06-5.80781E-06
 -1     11792 1.38920E-01-9.70022E-03-7.87756E-04-4.69176E-01-7.76465E-07-6.63164E-07
 -1     11793 2.31027E-01-8.46569E-02 2.94111E-03-4.85787E-01-3.07473E-06-2.23392E-06
 -1     11798 2.21801E-01-7.26831E-02 3.42410E-03-4.53165E-01 1.67613E-06 1.21778E-06
 -1     11799 1.39084E-01-9.53701E-03-4.00851E-04-4.69178E-01-1.67889E-05-1.43391E-05
 -1     11800 2.30536E-01-8.51462E-02 1.79136E-03-4.85785E-01 3.13882E-05 2.28049E-05
 -1     11805 2.20999E-01-7.34848E-02 1.56162E-03-4.53164E-01 5.25007E-05 3.81440E-05
 -1     11809 3.53828E-01-2.06314E-01 1.56162E-03-3.85485E-01-5.78213E-05-2.94614E-05
 -1     11810 2.80431E-01-1.50884E-01-4.00851E-04-4.23251E-01 1.88253E-05 1.15362E-05
 -1     11811 3.72927E-01-2.27537E-01 1.79136E-03-4.13234E-01-3.45693E-05-1.76139E-05
 -1     11816 3.54631E-01-2.05512E-01 3.42410E-03-3.85485E-01-1.84600E-06-9.40583E-07
 -1     11817 2.80267E-01-1.51047E-01-7.87756E-04-4.23250E-01 8.70646E-07 5.33533E-07
 -1     11818 3.73418E-01-2.27048E-01 2.94111E-03-4.13235E-01 3.38633E-06 1.72542E-06
 -1     11823 3.54997E-01-2.05147E-01 4.27820E-03-3.85486E-01 8.80389E-06 4.48581E-06
 -1     11824 2.80153E-01-1.51160E-01-1.05389E-03-4.23250E-01-4.56555E-06-2.79777E-06
 -1     11825 3.73680E-01-2.26787E-01 3.55590E-03-4.13236E-01 1.08541E-05 5.53043E-06
 -1     11830 3.55173E-01-2.04970E-01 4.69275E-03-3.85486E-01 9.35541E-06 4.76682E-06
 -1     11831 2.80094E-01-1.51220E-01-1.19503E-03-4.23250E-01-3.47822E-06-2.13146E-06
 -1     11832 3.73808E-01-2.26658E-01 3.85825E-03-4.13236E-01 7.98523E-06 4.06868E-06
 -1     11837 3.55254E-01-2.04890E-01 4.88237E-03-3.85486E-01 5.15212E-06 2.62514E-06
 -1     11838 2.80068E-01-1.51245E-01-1.25435E-03-4.23250E-01-1.25637E-06-7.69905E-07
 -1     11839 3.73860E-01-2.26606E-01 3.98122E-03-4.13236E-01 2.81160E-06 1.43258E-06
 -1     11844 3.55277E-01-2.04867E-01 4.93721E-03-3.85486E-01-3.40050E-14-1.08338E-15
 -1     11845 2.80068E-01-1.51245E-01-1.25435E-03-4.23250E-01 1.25637E-06 7.69905E-07
 -1     11846 3.73860E-01-2.26606E-01 3.98122E-03-4.13236E-01-2.81160E-06-1.43258E-06
 -1     11851 3.55254E-01-2.04890E-01 4.88237E-03-3.85486E-01-5.15212E-06-2.62514E-06
 -1     11852 2.80094E-01-1.51220E-01-1.19503E-03-4.23250E-01 3.47822E-06 2.13146E-06
 -1     11853 3.73808E-01-2.26658E-01 3.85825E-03-4.13236E-01-7.98523E-06-4.06868E-06
 -1     11858 3.55173E-01-2.04970E-01 4.69275E-03-3.85486E-01-9.35541E-06-4.76682E-06
 -1     11859 2.80153E-01-1.51160E-01-1.05389E-03-4.23250E-01 4.56555E-06 2.79777E-06
 -1     11860 3.73680E-01-2.26787E-01 3.55590E-03-4.13236E-01-1.08541E-05-5.53043E-06
 -1     11865 3.54997E-01-2.05147E-01 4.27820E-03-3.85486E-01-8.80389E-06-4.48581E-06
 -1     11866 2.80267E-01-1.51047E-01-7.87756E-04-4.23250E-01-8.70646E-07-5.33533E-07
 -1     11867 3.73418E-01-2.27048E-01 2.94111E-03-4.13235E-01-3.38633E-06-1.72542E-06
 -1     11872 3.54631E-01-2.05512E-01 3.42410E-03-3.85485E-01 1.84600E-06 9.40583E-07
 -1     11873 2.80431E-01-1.50884E-01-4.00851E-04-4.23251E-01-1.88253E-05-1.15362E-05
 -1     11874 3.72927E-01-2.27537E-01 1.79136E-03-4.13234E-01 3.45693E-05 1.76139E-05
 -1     11879 3.53828E-01-2.06314E-01 1.56162E-03-3.85485E-01 5.78213E-05 2.94614E-05
 -1     11883 4.59242E-01-3.11727E-01 1.56162E-03-2.80071E-01-6.17182E-05-2.00535E-05
 -1     11884 4.00668E-01-2.71121E-01-4.00851E-04-3.35894E-01 2.03982E-05 8.44922E-06
 -1     11885 4.85929E-01-3.40539E-01 1.79136E-03-3.00232E-01-3.68991E-05-1.19892E-05
 -1     11890 4.60044E-01-3.10926E-01 3.42410E-03-2.80071E-01-1.97041E-06-6.40225E-07
 -1     11891 4.00503E-01-2.71283E-01-7.87756E-04-3.35893E-01 9.43391E-07 3.90766E-07
 -1     11892 4.86420E-01-3.40050E-01 2.94111E-03-3.00233E-01 3.61456E-06 1.17444E-06
 -1     11897 4.60411E-01-3.10561E-01 4.27820E-03-2.80072E-01 9.39724E-06 3.05335E-06
 -1     11898 4.00390E-01-2.71396E-01-1.05389E-03-3.35893E-01-4.94701E-06-2.04912E-06
 -1     11899 4.86682E-01-3.39789E-01 3.55590E-03-3.00233E-01 1.15856E-05 3.76439E-06
 -1     11904 4.60587E-01-3.10384E-01 4.69275E-03-2.80072E-01 9.98592E-06 3.24462E-06
 -1     11905 4.00330E-01-2.71456E-01-1.19503E-03-3.35893E-01-3.76883E-06-1.56110E-06
 -1     11906 4.86811E-01-3.39661E-01 3.85825E-03-3.00233E-01 8.52340E-06 2.76942E-06
 -1     11911 4.60668E-01-3.10304E-01 4.88237E-03-2.80072E-01 5.49935E-06 1.78685E-06
 -1     11912 4.00305E-01-2.71481E-01-1.25435E-03-3.35893E-01-1.36134E-06-5.63886E-07
 -1     11913 4.86863E-01-3.39609E-01 3.98122E-03-3.00233E-01 3.00109E-06 9.75114E-07
 -1     11918 4.60691E-01-3.10281E-01 4.93721E-03-2.80072E-01 3.42484E-14 3.94776E-15
 -1     11919 4.00305E-01-2.71481E-01-1.25435E-03-3.35893E-01 1.36134E-06 5.63886E-07
 -1     11920 4.86863E-01-3.39609E-01 3.98122E-03-3.00233E-01-3.00109E-06-9.75114E-07
 -1     11925 4.60668E-01-3.10304E-01 4.88237E-03-2.80072E-01-5.49935E-06-1.78685E-06
 -1     11926 4.00330E-01-2.71456E-01-1.19503E-03-3.35893E-01 3.76883E-06 1.56110E-06
 -1     11927 4.86811E-01-3.39661E-01 3.85825E-03-3.00233E-01-8.52340E-06-2.76942E-06
 -1     11932 4.60587E-01-3.10384E-01 4.69275E-03-2.80072E-01-9.98593E-06-3.24462E-06
 -1     11933 4.00390E-01-2.71396E-01-1.05389E-03-3.35893E-01 4.94701E-06 2.04912E-06
 -1     11934 4.86682E-01-3.39789E-01 3.55590E-03-3.00233E-01-1.15856E-05-3.76439E-06
 -1     11939 4.60411E-01-3.10561E-01 4.27820E-03-2.80072E-01-9.39724E-06-3.05335E-06
 -1     11940 4.00503E-01-2.71283E-01-7.87756E-04-3.35893E-01-9.43391E-07-3.90766E-07
 -1     11941 4.86420E-01-3.40050E-01 2.94111E-03-3.00233E-01-3.61456E-06-1.17444E-06
 -1     11946 4.60044E-01-3.10926E-01 3.42410E-03-2.80071E-01 1.97041E-06 6.40225E-07
 -1     11947 4.00668E-01-2.71121E-01-4.00851E-04-3.35894E-01-2.03982E-05-8.44922E-06
 -1     11948 4.85929E-01-3.40539E-01 1.79136E-03-3.00232E-01 3.68991E-05 1.19892E-05
 -1     11953 4.59242E-01-3.11727E-01 1.56162E-03-2.80071E-01 6.17182E-05 2.00535E-05
 -1     11957 5.26922E-01-3.79407E-01 1.56162E-03-1.47242E-01-6.40954E-05-1.01517E-05
 -1     11958 4.88025E-01-3.58478E-01-4.00851E-04-2.15657E-01 2.14688E-05 5.15421E-06
 -1     11959 5.58481E-01-4.13090E-01 1.79136E-03-1.57841E-01-3.83203E-05-6.06934E-06
 -1     11964 5.27724E-01-3.78606E-01 3.42410E-03-1.47242E-01-2.04630E-06-3.24103E-07
 -1     11965 4.87860E-01-3.58640E-01-7.87756E-04-2.15657E-01 9.92907E-07 2.38376E-07
 -1     11966 5.58972E-01-4.12602E-01 2.94111E-03-1.57842E-01 3.75378E-06 5.94539E-07
 -1     11971 5.28090E-01-3.78240E-01 4.27820E-03-1.47242E-01 9.75919E-06 1.54570E-06
 -1     11972 4.87747E-01-3.58753E-01-1.05389E-03-2.15657E-01-5.20665E-06-1.25001E-06
 -1     11973 5.59234E-01-4.12341E-01 3.55590E-03-1.57842E-01 1.20318E-05 1.90565E-06
 -1     11978 5.28267E-01-3.78064E-01 4.69275E-03-1.47242E-01 1.03706E-05 1.64253E-06
 -1     11979 4.87687E-01-3.58813E-01-1.19503E-03-2.15657E-01-3.96664E-06-9.52306E-07
 -1     11980 5.59363E-01-4.12213E-01 3.85825E-03-1.57842E-01 8.85170E-06 1.40197E-06
 -1     11985 5.28348E-01-3.77984E-01 4.88237E-03-1.47242E-01 5.71117E-06 9.04561E-07
 -1     11986 4.87662E-01-3.58838E-01-1.25435E-03-2.15657E-01-1.43279E-06-3.43983E-07
 -1     11987 5.59415E-01-4.12161E-01 3.98122E-03-1.57842E-01 3.11668E-06 4.93634E-07
 -1     11992 5.28371E-01-3.77961E-01 4.93721E-03-1.47242E-01 6.82151E-15 1.10798E-14
 -1     11993 4.87662E-01-3.58838E-01-1.25435E-03-2.15657E-01 1.43279E-06 3.43983E-07
 -1     11994 5.59415E-01-4.12161E-01 3.98122E-03-1.57842E-01-3.11668E-06-4.93634E-07
 -1     11999 5.28348E-01-3.77984E-01 4.88237E-03-1.47242E-01-5.71117E-06-9.04561E-07
 -1     12000 4.87687E-01-3.58813E-01-1.19503E-03-2.15657E-01 3.96664E-06 9.52306E-07
 -1     12001 5.59363E-01-4.12213E-01 3.85825E-03-1.57842E-01-8.85170E-06-1.40197E-06
 -1     12006 5.28267E-01-3.78064E-01 4.69275E-03-1.47242E-01-1.03706E-05-1.64253E-06
 -1     12007 4.87747E-01-3.58753E-01-1.05389E-03-2.15657E-01 5.20665E-06 1.25001E-06
 -1     12008 5.59234E-01-4.12341E-01 3.55590E-03-1.57842E-01-1.20318E-05-1.90565E-06
 -1     12013 5.28090E-01-3.78240E-01 4.27820E-03-1.47242E-01-9.75919E-06-1.54570E-06
 -1     12014 4.87860E-01-3.58640E-01-7.87756E-04-2.15657E-01-9.92907E-07-2.38376E-07
 -1     12015 5.58972E-01-4.12602E-01 2.94111E-03-1.57842E-01-3.75378E-06-5.94539E-07
 -1     12020 5.27724E-01-3.78606E-01 3.42410E-03-1.47242E-01 2.04630E-06 3.24103E-07
 -1     12021 4.88025E-01-3.58478E-01-4.00851E-04-2.15657E-01-2.14688E-05-5.15421E-06
 -1     12022 5.58481E-01-4.13090E-01 1.79136E-03-1.57841E-01 3.83203E-05 6.06934E-06
 -1     12027 5.26922E-01-3.79407E-01 1.56162E-03-1.47242E-01 6.40954E-05 1.01517E-05
 -1     12031 5.33951E-01-4.04404E-01-4.00851E-04-7.43105E-02 2.20108E-05 1.73229E-06
 -1     12035 5.33786E-01-4.04566E-01-7.87756E-04-7.43102E-02 1.01797E-06 8.01163E-08
 -1     12039 5.33673E-01-4.04679E-01-1.05389E-03-7.43102E-02-5.33810E-06-4.20117E-07
 -1     12043 5.33613E-01-4.04739E-01-1.19503E-03-7.43102E-02-4.06678E-06-3.20063E-07
 -1     12047 5.33588E-01-4.04764E-01-1.25435E-03-7.43102E-02-1.46896E-06-1.15610E-07
 -1     12051 5.33588E-01-4.04764E-01-1.25435E-03-7.43102E-02 1.46896E-06 1.15610E-07
 -1     12055 5.33613E-01-4.04739E-01-1.19503E-03-7.43102E-02 4.06678E-06 3.20063E-07
 -1     12059 5.33673E-01-4.04679E-01-1.05389E-03-7.43102E-02 5.33810E-06 4.20117E-07
 -1     12063 5.33786E-01-4.04566E-01-7.87756E-04-7.43102E-02-1.01797E-06-8.01163E-08
 -1     12067 5.33951E-01-4.04404E-01-4.00851E-04-7.43105E-02-2.20108E-05-1.73229E-06
 -1     12073-3.25592E-01 4.71094E-01 1.27414E-03-1.29430E-01-9.64880E-06-6.09201E-05
 -1     12074-3.47532E-01 4.77306E-01-3.75178E-04-6.53208E-02 1.60163E-06 2.03507E-05
 -1     12075-3.53113E-01 4.97076E-01 1.51952E-03-1.38122E-01-5.83412E-06-3.68352E-05
 -1     12080-3.24920E-01 4.71767E-01 2.83634E-03-1.29430E-01-9.20201E-07-5.80992E-06
 -1     12081-3.47681E-01 4.77155E-01-7.28312E-04-6.53206E-02 1.31605E-07 1.67221E-06
 -1     12082-3.52686E-01 4.97505E-01 2.52004E-03-1.38122E-01 6.71975E-08 4.24269E-07
 -1     12087-3.24599E-01 4.72089E-01 3.58650E-03-1.29430E-01 1.06002E-06 6.69273E-06
 -1     12088-3.47784E-01 4.77052E-01-9.71060E-04-6.53206E-02-3.29647E-07-4.18856E-06
 -1     12089-3.52450E-01 4.97742E-01 3.07427E-03-1.38122E-01 1.48259E-06 9.36071E-06
 -1     12094-3.24438E-01 4.72251E-01 3.96583E-03-1.29430E-01 1.33827E-06 8.44951E-06
 -1     12095-3.47840E-01 4.76996E-01-1.10315E-03-6.53206E-02-2.74982E-07-3.49398E-06
 -1     12096-3.52330E-01 4.97862E-01 3.35645E-03-1.38122E-01 1.18540E-06 7.48430E-06
 -1     12101-3.24362E-01 4.72327E-01 4.14498E-03-1.29430E-01 7.76831E-07 4.90472E-06
 -1     12102-3.47864E-01 4.76972E-01-1.15980E-03-6.53206E-02-1.02242E-07-1.29911E-06
 -1     12103-3.52280E-01 4.97912E-01 3.47411E-03-1.38122E-01 4.28523E-07 2.70559E-06
 -1     12108-3.24339E-01 4.72349E-01 4.19772E-03-1.29430E-01-1.36121E-14 2.35572E-14
 -1     12109-3.47864E-01 4.76972E-01-1.15980E-03-6.53206E-02 1.02242E-07 1.29911E-06
 -1     12110-3.52280E-01 4.97912E-01 3.47411E-03-1.38122E-01-4.28523E-07-2.70559E-06
 -1     12115-3.24362E-01 4.72327E-01 4.14498E-03-1.29430E-01-7.76831E-07-4.90472E-06
 -1     12116-3.47840E-01 4.76996E-01-1.10315E-03-6.53206E-02 2.74982E-07 3.49398E-06
 -1     12117-3.52330E-01 4.97862E-01 3.35645E-03-1.38122E-01-1.18540E-06-7.48430E-06
 -1     12122-3.24438E-01 4.72251E-01 3.96583E-03-1.29430E-01-1.33827E-06-8.44951E-06
 -1     12123-3.47784E-01 4.77052E-01-9.71060E-04-6.53206E-02 3.29647E-07 4.18856E-06
 -1     12124-3.52450E-01 4.97742E-01 3.07427E-03-1.38122E-01-1.48259E-06-9.36071E-06
 -1     12129-3.24599E-01 4.72089E-01 3.58650E-03-1.29430E-01-1.06002E-06-6.69273E-06
 -1     12130-3.47681E-01 4.77155E-01-7.28312E-04-6.53206E-02-1.31605E-07-1.67221E-06
 -1     12131-3.52686E-01 4.97505E-01 2.52004E-03-1.38122E-01-6.71975E-08-4.24269E-07
 -1     12136-3.24920E-01 4.71767E-01 2.83634E-03-1.29430E-01 9.20201E-07 5.80992E-06
 -1     12137-3.47532E-01 4.77306E-01-3.75178E-04-6.53208E-02-1.60163E-06-2.03507E-05
 -1     12138-3.53113E-01 4.97076E-01 1.51952E-03-1.38122E-01 5.83412E-06 3.68352E-05
 -1     12143-3.25592E-01 4.71094E-01 1.27414E-03-1.29430E-01 9.64880E-06 6.09201E-05
 -1     12147-2.66100E-01 4.11602E-01 1.27414E-03-2.46190E-01-1.90600E-05-5.86607E-05
 -1     12148-3.07161E-01 4.36936E-01-3.75178E-04-1.89568E-01 4.76546E-06 1.98496E-05
 -1     12149-2.89625E-01 4.33589E-01 1.51952E-03-2.62723E-01-1.15246E-05-3.54690E-05
 -1     12154-2.65428E-01 4.12275E-01 2.83634E-03-2.46190E-01-1.81774E-06-5.59444E-06
 -1     12155-3.07310E-01 4.36785E-01-7.28312E-04-1.89568E-01 3.91576E-07 1.63103E-06
 -1     12156-2.89198E-01 4.34018E-01 2.52004E-03-2.62723E-01 1.32741E-07 4.08533E-07
 -1     12161-2.65107E-01 4.12597E-01 3.58650E-03-2.46190E-01 2.09395E-06 6.44450E-06
 -1     12162-3.07414E-01 4.36681E-01-9.71060E-04-1.89568E-01-9.80824E-07-4.08543E-06
 -1     12163-2.88962E-01 4.34254E-01 3.07427E-03-2.62724E-01 2.92867E-06 9.01353E-06
 -1     12168-2.64945E-01 4.12758E-01 3.96583E-03-2.46190E-01 2.64359E-06 8.13613E-06
 -1     12169-3.07470E-01 4.36625E-01-1.10315E-03-1.89568E-01-8.18176E-07-3.40795E-06
 -1     12170-2.88842E-01 4.34374E-01 3.35645E-03-2.62724E-01 2.34161E-06 7.20672E-06
 -1     12175-2.64869E-01 4.12835E-01 4.14498E-03-2.46190E-01 1.53453E-06 4.72281E-06
 -1     12176-3.07494E-01 4.36601E-01-1.15980E-03-1.89568E-01-3.04209E-07-1.26712E-06
 -1     12177-2.88792E-01 4.34424E-01 3.47411E-03-2.62724E-01 8.46494E-07 2.60524E-06
 -1     12182-2.64847E-01 4.12857E-01 4.19772E-03-2.46190E-01-1.42106E-14-4.53295E-14
 -1     12183-3.07494E-01 4.36601E-01-1.15980E-03-1.89568E-01 3.04209E-07 1.26712E-06
 -1     12184-2.88792E-01 4.34424E-01 3.47411E-03-2.62724E-01-8.46494E-07-2.60524E-06
 -1     12189-2.64869E-01 4.12835E-01 4.14498E-03-2.46190E-01-1.53453E-06-4.72281E-06
 -1     12190-3.07470E-01 4.36625E-01-1.10315E-03-1.89568E-01 8.18176E-07 3.40795E-06
 -1     12191-2.88842E-01 4.34374E-01 3.35645E-03-2.62724E-01-2.34161E-06-7.20672E-06
 -1     12196-2.64945E-01 4.12758E-01 3.96583E-03-2.46190E-01-2.64359E-06-8.13613E-06
 -1     12197-3.07414E-01 4.36681E-01-9.71060E-04-1.89568E-01 9.80824E-07 4.08543E-06
 -1     12198-2.88962E-01 4.34254E-01 3.07427E-03-2.62724E-01-2.92867E-06-9.01353E-06
 -1     12203-2.65107E-01 4.12597E-01 3.58650E-03-2.46190E-01-2.09395E-06-6.44450E-06
 -1     12204-3.07310E-01 4.36785E-01-7.28312E-04-1.89568E-01-3.91576E-07-1.63103E-06
 -1     12205-2.89198E-01 4.34018E-01 2.52004E-03-2.62723E-01-1.32741E-07-4.08533E-07
 -1     12210-2.65428E-01 4.12275E-01 2.83634E-03-2.46190E-01 1.81774E-06 5.59444E-06
 -1     12211-3.07161E-01 4.36936E-01-3.75178E-04-1.89568E-01-4.76546E-06-1.98496E-05
 -1     12212-2.89625E-01 4.33589E-01 1.51952E-03-2.62723E-01 1.15246E-05 3.54690E-05
 -1     12217-2.66100E-01 4.11602E-01 1.27414E-03-2.46190E-01 1.90600E-05 5.86607E-05
 -1     12221-1.73439E-01 3.18940E-01 1.27414E-03-3.38851E-01-2.80019E-05-5.49569E-05
 -1     12222-2.30372E-01 3.60147E-01-3.75178E-04-2.95259E-01 7.81195E-06 1.88597E-05
 -1     12223-1.90741E-01 3.34705E-01 1.51952E-03-3.61607E-01-1.69313E-05-3.32295E-05
 -1     12228-1.72766E-01 3.19614E-01 2.83634E-03-3.38851E-01-2.67053E-06-5.24121E-06
 -1     12229-2.30521E-01 3.59996E-01-7.28312E-04-2.95259E-01 6.41904E-07 1.54969E-06
 -1     12230-1.90314E-01 3.35133E-01 2.52004E-03-3.61608E-01 1.95015E-07 3.82739E-07
 -1     12235-1.72445E-01 3.19935E-01 3.58650E-03-3.38852E-01 3.07631E-06 6.03760E-06
 -1     12236-2.30625E-01 3.59893E-01-9.71060E-04-2.95259E-01-1.60785E-06-3.88169E-06
 -1     12237-1.90078E-01 3.35370E-01 3.07427E-03-3.61608E-01 4.30264E-06 8.44441E-06
 -1     12242-1.72284E-01 3.20097E-01 3.96583E-03-3.38852E-01 3.88381E-06 7.62242E-06
 -1     12243-2.30681E-01 3.59836E-01-1.10315E-03-2.95259E-01-1.34122E-06-3.23800E-06
 -1     12244-1.89958E-01 3.35490E-01 3.35645E-03-3.61608E-01 3.44016E-06 6.75169E-06
 -1     12249-1.72208E-01 3.20173E-01 4.14498E-03-3.38852E-01 2.25445E-06 4.42461E-06
 -1     12250-2.30705E-01 3.59812E-01-1.15980E-03-2.95258E-01-4.98685E-07-1.20393E-06
 -1     12251-1.89908E-01 3.35540E-01 3.47411E-03-3.61608E-01 1.24362E-06 2.44074E-06
 -1     12256-1.72185E-01 3.20195E-01 4.19772E-03-3.38852E-01-2.80835E-14-5.74448E-14
 -1     12257-2.30705E-01 3.59812E-01-1.15980E-03-2.95258E-01 4.98685E-07 1.20393E-06
 -1     12258-1.89908E-01 3.35540E-01 3.47411E-03-3.61608E-01-1.24362E-06-2.44074E-06
 -1     12263-1.72208E-01 3.20173E-01 4.14498E-03-3.38852E-01-2.25445E-06-4.42461E-06
 -1     12264-2.30681E-01 3.59836E-01-1.10315E-03-2.95259E-01 1.34122E-06 3.23800E-06
 -1     12265-1.89958E-01 3.35490E-01 3.35645E-03-3.61608E-01-3.44016E-06-6.75169E-06
 -1     12270-1.72284E-01 3.20097E-01 3.96583E-03-3.38852E-01-3.88381E-06-7.62242E-06
 -1     12271-2.30625E-01 3.59893E-01-9.71060E-04-2.95259E-01 1.60785E-06 3.88169E-06
 -1     12272-1.90078E-01 3.35370E-01 3.07427E-03-3.61608E-01-4.30264E-06-8.44441E-06
 -1     12277-1.72445E-01 3.19935E-01 3.58650E-03-3.38852E-01-3.07631E-06-6.03760E-06
 -1     12278-2.30521E-01 3.59996E-01-7.28312E-04-2.95259E-01-6.41904E-07-1.54969E-06
 -1     12279-1.90314E-01 3.35133E-01 2.52004E-03-3.61608E-01-1.95015E-07-3.82739E-07
 -1     12284-1.72766E-01 3.19614E-01 2.83634E-03-3.38851E-01 2.67053E-06 5.24121E-06
 -1     12285-2.30372E-01 3.60147E-01-3.75178E-04-2.95259E-01-7.81195E-06-1.88597E-05
 -1     12286-1.90741E-01 3.34705E-01 1.51952E-03-3.61607E-01 1.69313E-05 3.32295E-05
 -1     12291-1.73439E-01 3.18940E-01 1.27414E-03-3.38851E-01 2.80019E-05 5.49569E-05
 -1     12295-5.66786E-02 2.02180E-01 1.27414E-03-3.98343E-01-3.62543E-05-4.98998E-05
 -1     12296-1.24681E-01 2.54456E-01-3.75178E-04-3.72049E-01 1.06661E-05 1.74055E-05
 -1     12297-6.61399E-02 2.10103E-01 1.51952E-03-4.25095E-01-2.19211E-05-3.01718E-05
 -1     12302-5.60062E-02 2.02853E-01 2.83634E-03-3.98344E-01-3.45755E-06-4.75892E-06
 -1     12303-1.24830E-01 2.54305E-01-7.28312E-04-3.72048E-01 8.76427E-07 1.43020E-06
 -1     12304-6.57120E-02 2.10532E-01 2.52004E-03-4.25095E-01 2.52488E-07 3.47519E-07
 -1     12309-5.56848E-02 2.03175E-01 3.58650E-03-3.98344E-01 3.98292E-06 5.48202E-06
 -1     12310-1.24934E-01 2.54202E-01-9.71060E-04-3.72048E-01-2.19529E-06-3.58238E-06
 -1     12311-6.54759E-02 2.10768E-01 3.07427E-03-4.25096E-01 5.57067E-06 7.66737E-06
 -1     12316-5.55234E-02 2.03336E-01 3.96583E-03-3.98344E-01 5.02841E-06 6.92101E-06
 -1     12317-1.24990E-01 2.54146E-01-1.10315E-03-3.72047E-01-1.83125E-06-2.98832E-06
 -1     12318-6.53561E-02 2.10888E-01 3.35645E-03-4.25096E-01 4.45400E-06 6.13041E-06
 -1     12323-5.54473E-02 2.03413E-01 4.14498E-03-3.98344E-01 2.91886E-06 4.01746E-06
 -1     12324-1.25014E-01 2.54122E-01-1.15980E-03-3.72047E-01-6.80882E-07-1.11110E-06
 -1     12325-6.53062E-02 2.10938E-01 3.47411E-03-4.25096E-01 1.61013E-06 2.21615E-06
 -1     12330-5.54249E-02 2.03435E-01 4.19772E-03-3.98344E-01-1.16536E-14-1.03523E-15
 -1     12331-1.25014E-01 2.54122E-01-1.15980E-03-3.72047E-01 6.80882E-07 1.11110E-06
 -1     12332-6.53062E-02 2.10938E-01 3.47411E-03-4.25096E-01-1.61013E-06-2.21615E-06
 -1     12337-5.54473E-02 2.03413E-01 4.14498E-03-3.98344E-01-2.91886E-06-4.01746E-06
 -1     12338-1.24990E-01 2.54146E-01-1.10315E-03-3.72047E-01 1.83125E-06 2.98832E-06
 -1     12339-6.53561E-02 2.10888E-01 3.35645E-03-4.25096E-01-4.45400E-06-6.13041E-06
 -1     12344-5.55234E-02 2.03336E-01 3.96583E-03-3.98344E-01-5.02841E-06-6.92101E-06
 -1     12345-1.24934E-01 2.54202E-01-9.71060E-04-3.72048E-01 2.19529E-06 3.58238E-06
 -1     12346-6.54759E-02 2.10768E-01 3.07427E-03-4.25096E-01-5.57067E-06-7.66737E-06
 -1     12351-5.56848E-02 2.03175E-01 3.58650E-03-3.98344E-01-3.98292E-06-5.48202E-06
 -1     12352-1.24830E-01 2.54305E-01-7.28312E-04-3.72048E-01-8.76427E-07-1.43020E-06
 -1     12353-6.57120E-02 2.10532E-01 2.52004E-03-4.25095E-01-2.52488E-07-3.47519E-07
 -1     12358-5.60062E-02 2.02853E-01 2.83634E-03-3.98344E-01 3.45755E-06 4.75892E-06
 -1     12359-1.24681E-01 2.54456E-01-3.75178E-04-3.72049E-01-1.06661E-05-1.74055E-05
 -1     12360-6.61399E-02 2.10103E-01 1.51952E-03-4.25095E-01 2.19211E-05 3.01718E-05
 -1     12365-5.66786E-02 2.02180E-01 1.27414E-03-3.98343E-01 3.62543E-05 4.98998E-05
 -1     12369 7.27509E-02 7.27509E-02 1.27414E-03-4.18843E-01-4.36140E-05-4.36140E-05
 -1     12370-4.33390E-04 1.30208E-01-3.75178E-04-4.12419E-01 1.32576E-05 1.55226E-05
 -1     12371 7.19817E-02 7.19817E-02 1.51952E-03-4.46971E-01-2.63711E-05-2.63711E-05
 -1     12376 7.34235E-02 7.34235E-02 2.83634E-03-4.18843E-01-4.15945E-06-4.15945E-06
 -1     12377-5.83270E-04 1.30058E-01-7.28312E-04-4.12418E-01 1.08937E-06 1.27549E-06
 -1     12378 7.24099E-02 7.24099E-02 2.52004E-03-4.46972E-01 3.03743E-07 3.03743E-07
 -1     12383 7.37451E-02 7.37451E-02 3.58650E-03-4.18844E-01 4.79146E-06 4.79146E-06
 -1     12384-6.86664E-04 1.29954E-01-9.71060E-04-4.12418E-01-2.72867E-06-3.19486E-06
 -1     12385 7.26461E-02 7.26461E-02 3.07427E-03-4.46972E-01 6.70153E-06 6.70153E-06
 -1     12390 7.39065E-02 7.39065E-02 3.96583E-03-4.18844E-01 6.04918E-06 6.04918E-06
 -1     12391-7.42658E-04 1.29898E-01-1.10315E-03-4.12418E-01-2.27618E-06-2.66506E-06
 -1     12392 7.27659E-02 7.27659E-02 3.35645E-03-4.46972E-01 5.35817E-06 5.35817E-06
 -1     12397 7.39826E-02 7.39826E-02 4.14498E-03-4.18844E-01 3.51139E-06 3.51139E-06
 -1     12398-7.66660E-04 1.29874E-01-1.15980E-03-4.12418E-01-8.46314E-07-9.90906E-07
 -1     12399 7.28158E-02 7.28158E-02 3.47411E-03-4.46972E-01 1.93699E-06 1.93699E-06
 -1     12404 7.40050E-02 7.40050E-02 4.19772E-03-4.18844E-01-1.57561E-14 3.88024E-15
 -1     12405-7.66660E-04 1.29874E-01-1.15980E-03-4.12418E-01 8.46314E-07 9.90906E-07
 -1     12406 7.28158E-02 7.28158E-02 3.47411E-03-4.46972E-01-1.93699E-06-1.93699E-06
 -1     12411 7.39826E-02 7.39826E-02 4.14498E-03-4.18844E-01-3.51139E-06-3.51139E-06
 -1     12412-7.42658E-04 1.29898E-01-1.10315E-03-4.12418E-01 2.27618E-06 2.66506E-06
 -1     12413 7.27659E-02 7.27659E-02 3.35645E-03-4.46972E-01-5.35817E-06-5.35817E-06
 -1     12418 7.39065E-02 7.39065E-02 3.96583E-03-4.18844E-01-6.04918E-06-6.04918E-06
 -1     12419-6.86664E-04 1.29954E-01-9.71060E-04-4.12418E-01 2.72867E-06 3.19486E-06
 -1     12420 7.26461E-02 7.26461E-02 3.07427E-03-4.46972E-01-6.70153E-06-6.70153E-06
 -1     12425 7.37451E-02 7.37451E-02 3.58650E-03-4.18844E-01-4.79146E-06-4.79146E-06
 -1     12426-5.83270E-04 1.30058E-01-7.28312E-04-4.12418E-01-1.08937E-06-1.27549E-06
 -1     12427 7.24099E-02 7.24099E-02 2.52004E-03-4.46972E-01-3.03743E-07-3.03743E-07
 -1     12432 7.34235E-02 7.34235E-02 2.83634E-03-4.18843E-01 4.15945E-06 4.15945E-06
 -1     12433-4.33390E-04 1.30208E-01-3.75178E-04-4.12419E-01-1.32576E-05-1.55226E-05
 -1     12434 7.19817E-02 7.19817E-02 1.51952E-03-4.46971E-01 2.63711E-05 2.63711E-05
 -1     12439 7.27509E-02 7.27509E-02 1.27414E-03-4.18843E-01 4.36140E-05 4.36140E-05
 -1     12443 2.02180E-01-5.66786E-02 1.27414E-03-3.98343E-01-4.98998E-05-3.62543E-05
 -1     12444 1.30208E-01-4.33390E-04-3.75178E-04-4.12419E-01 1.55226E-05 1.32576E-05
 -1     12445 2.10103E-01-6.61399E-02 1.51952E-03-4.25095E-01-3.01718E-05-2.19211E-05
 -1     12450 2.02853E-01-5.60062E-02 2.83634E-03-3.98344E-01-4.75892E-06-3.45756E-06
 -1     12451 1.30058E-01-5.83269E-04-7.28312E-04-4.12418E-01 1.27549E-06 1.08937E-06
 -1     12452 2.10532E-01-6.57120E-02 2.52004E-03-4.25095E-01 3.47518E-07 2.52486E-07
 -1     12457 2.03175E-01-5.56848E-02 3.58650E-03-3.98344E-01 5.48202E-06 3.98292E-06
 -1     12458 1.29954E-01-6.86664E-04-9.71060E-04-4.12418E-01-3.19486E-06-2.72867E-06
 -1     12459 2.10768E-01-6.54759E-02 3.07427E-03-4.25096E-01 7.66737E-06 5.57067E-06
 -1     12464 2.03336E-01-5.55234E-02 3.96583E-03-3.98344E-01 6.92101E-06 5.02841E-06
 -1     12465 1.29898E-01-7.42658E-04-1.10315E-03-4.12418E-01-2.66506E-06-2.27618E-06
 -1     12466 2.10888E-01-6.53561E-02 3.35645E-03-4.25096E-01 6.13040E-06 4.45400E-06
 -1     12471 2.03413E-01-5.54473E-02 4.14498E-03-3.98344E-01 4.01746E-06 2.91886E-06
 -1     12472 1.29874E-01-7.66660E-04-1.15980E-03-4.12418E-01-9.90906E-07-8.46314E-07
 -1     12473 2.10938E-01-6.53062E-02 3.47411E-03-4.25096E-01 2.21615E-06 1.61013E-06
 -1     12478 2.03435E-01-5.54249E-02 4.19772E-03-3.98344E-01-1.04262E-14 1.63287E-14
 -1     12479 1.29874E-01-7.66660E-04-1.15980E-03-4.12418E-01 9.90906E-07 8.46314E-07
 -1     12480 2.10938E-01-6.53062E-02 3.47411E-03-4.25096E-01-2.21615E-06-1.61013E-06
 -1     12485 2.03413E-01-5.54473E-02 4.14498E-03-3.98344E-01-4.01746E-06-2.91886E-06
 -1     12486 1.29898E-01-7.42658E-04-1.10315E-03-4.12418E-01 2.66506E-06 2.27618E-06
 -1     12487 2.10888E-01-6.53561E-02 3.35645E-03-4.25096E-01-6.13040E-06-4.45400E-06
 -1     12492 2.03336E-01-5.55234E-02 3.96583E-03-3.98344E-01-6.92101E-06-5.02841E-06
 -1     12493 1.29954E-01-6.86664E-04-9.71060E-04-4.12418E-01 3.19486E-06 2.72867E-06
 -1     12494 2.10768E-01-6.54759E-02 3.07427E-03-4.25096E-01-7.66737E-06-5.57067E-06
 -1     12499 2.03175E-01-5.56848E-02 3.58650E-03-3.98344E-01-5.48202E-06-3.98292E-06
 -1     12500 1.30058E-01-5.83269E-04-7.28312E-04-4.12418E-01-1.27549E-06-1.08937E-06
 -1     12501 2.10532E-01-6.57120E-02 2.52004E-03-4.25095E-01-3.47518E-07-2.52486E-07
 -1     12506 2.02853E-01-5.60062E-02 2.83634E-03-3.98344E-01 4.75892E-06 3.45756E-06
 -1     12507 1.30208E-01-4.33390E-04-3.75178E-04-4.12419E-01-1.55226E-05-1.32576E-05
 -1     12508 2.10103E-01-6.61399E-02 1.51952E-03-4.25095E-01 3.01718E-05 2.19211E-05
 -1     12513 2.02180E-01-5.66786E-02 1.27414E-03-3.98343E-01 4.98998E-05 3.62543E-05
 -1     12517 3.18940E-01-1.73439E-01 1.27414E-03-3.38851E-01-5.49569E-05-2.80019E-05
 -1     12518 2.54456E-01-1.24681E-01-3.75178E-04-3.72049E-01 1.74055E-05 1.06661E-05
 -1     12519 3.34705E-01-1.90741E-01 1.51952E-03-3.61607E-01-3.32295E-05-1.69313E-05
 -1     12524 3.19614E-01-1.72766E-01 2.83634E-03-3.38851E-01-5.24121E-06-2.67053E-06
 -1     12525 2.54305E-01-1.24830E-01-7.28312E-04-3.72048E-01 1.43020E-06 8.76427E-07
 -1     12526 3.35133E-01-1.90314E-01 2.52004E-03-3.61608E-01 3.82737E-07 1.95015E-07
 -1     12531 3.19935E-01-1.72445E-01 3.58650E-03-3.38852E-01 6.03759E-06 3.07631E-06
 -1     12532 2.54202E-01-1.24934E-01-9.71060E-04-3.72048E-01-3.58238E-06-2.19529E-06
 -1     12533 3.35370E-01-1.90078E-01 3.07427E-03-3.61608E-01 8.44441E-06 4.30264E-06
 -1     12538 3.20097E-01-1.72284E-01 3.96583E-03-3.38852E-01 7.62241E-06 3.88381E-06
 -1     12539 2.54146E-01-1.24990E-01-1.10315E-03-3.72047E-01-2.98832E-06-1.83125E-06
 -1     12540 3.35490E-01-1.89958E-01 3.35645E-03-3.61608E-01 6.75169E-06 3.44016E-06
 -1     12545 3.20173E-01-1.72208E-01 4.14498E-03-3.38852E-01 4.42461E-06 2.25445E-06
 -1     12546 2.54122E-01-1.25014E-01-1.15980E-03-3.72047E-01-1.11110E-06-6.80882E-07
 -1     12547 3.35540E-01-1.89908E-01 3.47411E-03-3.61608E-01 2.44074E-06 1.24362E-06
 -1     12552 3.20195E-01-1.72185E-01 4.19772E-03-3.38852E-01 1.24855E-14 7.60165E-15
 -1     12553 2.54122E-01-1.25014E-01-1.15980E-03-3.72047E-01 1.11110E-06 6.80882E-07
 -1     12554 3.35540E-01-1.89908E-01 3.47411E-03-3.61608E-01-2.44074E-06-1.24362E-06
 -1     12559 3.20173E-01-1.72208E-01 4.14498E-03-3.38852E-01-4.42461E-06-2.25445E-06
 -1     12560 2.54146E-01-1.24990E-01-1.10315E-03-3.72047E-01 2.98832E-06 1.83125E-06
 -1     12561 3.35490E-01-1.89958E-01 3.35645E-03-3.61608E-01-6.75169E-06-3.44016E-06
 -1     12566 3.20097E-01-1.72284E-01 3.96583E-03-3.38852E-01-7.62241E-06-3.88381E-06
 -1     12567 2.54202E-01-1.24934E-01-9.71060E-04-3.72048E-01 3.58238E-06 2.19529E-06
 -1     12568 3.35370E-01-1.90078E-01 3.07427E-03-3.61608E-01-8.44441E-06-4.30264E-06
 -1     12573 3.19935E-01-1.72445E-01 3.58650E-03-3.38852E-01-6.03759E-06-3.07631E-06
 -1     12574 2.54305E-01-1.24830E-01-7.28312E-04-3.72048E-01-1.43020E-06-8.76427E-07
 -1     12575 3.35133E-01-1.90314E-01 2.52004E-03-3.61608E-01-3.82737E-07-1.95015E-07
 -1     12580 3.19614E-01-1.72766E-01 2.83634E-03-3.38851E-01 5.24121E-06 2.67053E-06
 -1     12581 2.54456E-01-1.24681E-01-3.75178E-04-3.72049E-01-1.74055E-05-1.06661E-05
 -1     12582 3.34705E-01-1.90741E-01 1.51952E-03-3.61607E-01 3.32295E-05 1.69313E-05
 -1     12587 3.18940E-01-1.73439E-01 1.27414E-03-3.38851E-01 5.49569E-05 2.80019E-05
 -1     12591 4.11602E-01-2.66100E-01 1.27414E-03-2.46190E-01-5.86607E-05-1.90600E-05
 -1     12592 3.60147E-01-2.30372E-01-3.75178E-04-2.95259E-01 1.88597E-05 7.81195E-06
 -1     12593 4.33589E-01-2.89625E-01 1.51952E-03-2.62723E-01-3.54690E-05-1.15246E-05
 -1     12598 4.12275E-01-2.65428E-01 2.83634E-03-2.46190E-01-5.59444E-06-1.81774E-06
 -1     12599 3.59996E-01-2.30521E-01-7.28312E-04-2.95259E-01 1.54969E-06 6.41904E-07
 -1     12600 4.34018E-01-2.89198E-01 2.52004E-03-2.62723E-01 4.08533E-07 1.32741E-07
 -1     12605 4.12597E-01-2.65107E-01 3.58650E-03-2.46190E-01 6.44450E-06 2.09395E-06
 -1     12606 3.59893E-01-2.30625E-01-9.71060E-04-2.95259E-01-3.88169E-06-1.60785E-06
 -1     12607 4.34254E-01-2.88962E-01 3.07427E-03-2.62724E-01 9.01353E-06 2.92867E-06
 -1     12612 4.12758E-01-2.64945E-01 3.96583E-03-2.46190E-01 8.13613E-06 2.64359E-06
 -1     12613 3.59836E-01-2.30681E-01-1.10315E-03-2.95259E-01-3.23800E-06-1.34122E-06
 -1     12614 4.34374E-01-2.88842E-01 3.35645E-03-2.62724E-01 7.20672E-06 2.34161E-06
 -1     12619 4.12835E-01-2.64869E-01 4.14498E-03-2.46190E-01 4.72281E-06 1.53453E-06
 -1     12620 3.59812E-01-2.30705E-01-1.15980E-03-2.95258E-01-1.20393E-06-4.98685E-07
 -1     12621 4.34424E-01-2.88792E-01 3.47411E-03-2.62724E-01 2.60524E-06 8.46494E-07
 -1     12626 4.12857E-01-2.64847E-01 4.19772E-03-2.46190E-01 2.26562E-15 1.40188E-14
 -1     12627 3.59812E-01-2.30705E-01-1.15980E-03-2.95258E-01 1.20393E-06 4.98685E-07
 -1     12628 4.34424E-01-2.88792E-01 3.47411E-03-2.62724E-01-2.60524E-06-8.46494E-07
 -1     12633 4.12835E-01-2.64869E-01 4.14498E-03-2.46190E-01-4.72281E-06-1.53453E-06
 -1     12634 3.59836E-01-2.30681E-01-1.10315E-03-2.95259E-01 3.23800E-06 1.34122E-06
 -1     12635 4.34374E-01-2.88842E-01 3.35645E-03-2.62724E-01-7.20672E-06-2.34161E-06
 -1     12640 4.12758E-01-2.64945E-01 3.96583E-03-2.46190E-01-8.13613E-06-2.64359E-06
 -1     12641 3.59893E-01-2.30625E-01-9.71060E-04-2.95259E-01 3.88169E-06 1.60785E-06
 -1     12642 4.34254E-01-2.88962E-01 3.07427E-03-2.62724E-01-9.01353E-06-2.92867E-06
 -1     12647 4.12597E-01-2.65107E-01 3.58650E-03-2.46190E-01-6.44450E-06-2.09395E-06
 -1     12648 3.59996E-01-2.30521E-01-7.28312E-04-2.95259E-01-1.54969E-06-6.41904E-07
 -1     12649 4.34018E-01-2.89198E-01 2.52004E-03-2.62723E-01-4.08533E-07-1.32741E-07
 -1     12654 4.12275E-01-2.65428E-01 2.83634E-03-2.46190E-01 5.59444E-06 1.81774E-06
 -1     12655 3.60147E-01-2.30372E-01-3.75178E-04-2.95259E-01-1.88597E-05-7.81195E-06
 -1     12656 4.33589E-01-2.89625E-01 1.51952E-03-2.62723E-01 3.54690E-05 1.15246E-05
 -1     12661 4.11602E-01-2.66100E-01 1.27414E-03-2.46190E-01 5.86607E-05 1.90600E-05
 -1     12665 4.71094E-01-3.25592E-01 1.27414E-03-1.29430E-01-6.09201E-05-9.64880E-06
 -1     12666 4.36936E-01-3.07161E-01-3.75178E-04-1.89568E-01 1.98496E-05 4.76546E-06
 -1     12667 4.97076E-01-3.53113E-01 1.51952E-03-1.38122E-01-3.68352E-05-5.83412E-06
 -1     12672 4.71767E-01-3.24920E-01 2.83634E-03-1.29430E-01-5.80992E-06-9.20202E-07
 -1     12673 4.36785E-01-3.07310E-01-7.28312E-04-1.89568E-01 1.63103E-06 3.91576E-07
 -1     12674 4.97505E-01-3.52686E-01 2.52004E-03-1.38122E-01 4.24269E-07 6.71969E-08
 -1     12679 4.72089E-01-3.24599E-01 3.58650E-03-1.29430E-01 6.69273E-06 1.06002E-06
 -1     12680 4.36681E-01-3.07414E-01-9.71060E-04-1.89568E-01-4.08543E-06-9.80824E-07
 -1     12681 4.97742E-01-3.52450E-01 3.07427E-03-1.38122E-01 9.36071E-06 1.48259E-06
 -1     12686 4.72251E-01-3.24438E-01 3.96583E-03-1.29430E-01 8.44951E-06 1.33827E-06
 -1     12687 4.36625E-01-3.07470E-01-1.10315E-03-1.89568E-01-3.40795E-06-8.18176E-07
 -1     12688 4.97862E-01-3.52330E-01 3.35645E-03-1.38122E-01 7.48431E-06 1.18540E-06
 -1     12693 4.72327E-01-3.24362E-01 4.14498E-03-1.29430E-01 4.90472E-06 7.76831E-07
 -1     12694 4.36601E-01-3.07494E-01-1.15980E-03-1.89568E-01-1.26712E-06-3.04209E-07
 -1     12695 4.97912E-01-3.52280E-01 3.47411E-03-1.38122E-01 2.70559E-06 4.28523E-07
 -1     12700 4.72349E-01-3.24339E-01 4.19772E-03-1.29430E-01 5.81386E-15 1.69230E-15
 -1     12701 4.36601E-01-3.07494E-01-1.15980E-03-1.89568E-01 1.26712E-06 3.04209E-07
 -1     12702 4.97912E-01-3.52280E-01 3.47411E-03-1.38122E-01-2.70559E-06-4.28523E-07
 -1     12707 4.72327E-01-3.24362E-01 4.14498E-03-1.29430E-01-4.90472E-06-7.76831E-07
 -1     12708 4.36625E-01-3.07470E-01-1.10315E-03-1.89568E-01 3.40795E-06 8.18176E-07
 -1     12709 4.97862E-01-3.52330E-01 3.35645E-03-1.38122E-01-7.48431E-06-1.18540E-06
 -1     12714 4.72251E-01-3.24438E-01 3.96583E-03-1.29430E-01-8.44951E-06-1.33827E-06
 -1     12715 4.36681E-01-3.07414E-01-9.71060E-04-1.89568E-01 4.08543E-06 9.80824E-07
 -1     12716 4.97742E-01-3.52450E-01 3.07427E-03-1.38122E-01-9.36071E-06-1.48259E-06
 -1     12721 4.72089E-01-3.24599E-01 3.58650E-03-1.29430E-01-6.69273E-06-1.06002E-06
 -1     12722 4.36785E-01-3.07310E-01-7.28312E-04-1.89568E-01-1.63103E-06-3.91576E-07
 -1     12723 4.97505E-01-3.52686E-01 2.52004E-03-1.38122E-01-4.24269E-07-6.71969E-08
 -1     12728 4.71767E-01-3.24920E-01 2.83634E-03-1.29430E-01 5.80992E-06 9.20202E-07
 -1     12729 4.36936E-01-3.07161E-01-3.75178E-04-1.89568E-01-1.98496E-05-4.76546E-06
 -1     12730 4.97076E-01-3.53113E-01 1.51952E-03-1.38122E-01 3.68352E-05 5.83412E-06
 -1     12735 4.71094E-01-3.25592E-01 1.27414E-03-1.29430E-01 6.09201E-05 9.64880E-06
 -1     12739 4.77306E-01-3.47532E-01-3.75178E-04-6.53208E-02 2.03507E-05 1.60163E-06
 -1     12743 4.77155E-01-3.47681E-01-7.28312E-04-6.53206E-02 1.67221E-06 1.31606E-07
 -1     12747 4.77052E-01-3.47784E-01-9.71060E-04-6.53206E-02-4.18856E-06-3.29647E-07
 -1     12751 4.76996E-01-3.47840E-01-1.10315E-03-6.53206E-02-3.49398E-06-2.74982E-07
 -1     12755 4.76972E-01-3.47864E-01-1.15980E-03-6.53206E-02-1.29911E-06-1.02242E-07
 -1     12759 4.76972E-01-3.47864E-01-1.15980E-03-6.53206E-02 1.29911E-06 1.02242E-07
 -1     12763 4.76996E-01-3.47840E-01-1.10315E-03-6.53206E-02 3.49398E-06 2.74982E-07
 -1     12767 4.77052E-01-3.47784E-01-9.71060E-04-6.53206E-02 4.18856E-06 3.29647E-07
 -1     12771 4.77155E-01-3.47681E-01-7.28312E-04-6.53206E-02-1.67221E-06-1.31606E-07
 -1     12775 4.77306E-01-3.47532E-01-3.75178E-04-6.53208E-02-2.03507E-05-1.60163E-06
 -1     12781-2.80950E-01 4.24844E-01 1.05386E-03-1.14663E-01-9.06643E-06-5.72432E-05
 -1     12782-3.00360E-01 4.30375E-01-3.45780E-04-5.78685E-02 1.50460E-06 1.91177E-05
 -1     12783-3.03723E-01 4.46490E-01 1.29844E-03-1.21879E-01-5.59083E-06-3.52991E-05
 -1     12788-2.80382E-01 4.25414E-01 2.37530E-03-1.14663E-01-1.39014E-06-8.77699E-06
 -1     12789-3.00495E-01 4.30238E-01-6.65510E-04-5.78684E-02 1.93374E-07 2.45705E-06
 -1     12790-3.03349E-01 4.46865E-01 2.17269E-03-1.21880E-01-2.95099E-07-1.86318E-06
 -1     12795-2.80098E-01 4.25698E-01 3.03741E-03-1.14664E-01 6.75811E-07 4.26691E-06
 -1     12796-3.00589E-01 4.30143E-01-8.86554E-04-5.78683E-02-2.43630E-07-3.09562E-06
 -1     12797-3.03137E-01 4.47078E-01 2.67193E-03-1.21880E-01 1.12571E-06 7.10745E-06
 -1     12802-2.79951E-01 4.25846E-01 3.38388E-03-1.14664E-01 1.07424E-06 6.78250E-06
 -1     12803-3.00641E-01 4.30091E-01-1.00928E-03-5.78683E-02-2.25474E-07-2.86491E-06
 -1     12804-3.03026E-01 4.47190E-01 2.93360E-03-1.21880E-01 9.89036E-07 6.24453E-06
 -1     12809-2.79880E-01 4.25917E-01 3.55188E-03-1.14664E-01 6.57293E-07 4.14999E-06
 -1     12810-3.00664E-01 4.30068E-01-1.06278E-03-5.78683E-02-8.62486E-08-1.09589E-06
 -1     12811-3.02979E-01 4.47237E-01 3.04500E-03-1.21880E-01 3.68283E-07 2.32525E-06
 -1     12816-2.79858E-01 4.25938E-01 3.60205E-03-1.14664E-01-8.23962E-15 5.41466E-14
 -1     12817-3.00664E-01 4.30068E-01-1.06278E-03-5.78683E-02 8.62485E-08 1.09589E-06
 -1     12818-3.02979E-01 4.47237E-01 3.04500E-03-1.21880E-01-3.68283E-07-2.32525E-06
 -1     12823-2.79880E-01 4.25917E-01 3.55188E-03-1.14664E-01-6.57293E-07-4.14999E-06
 -1     12824-3.00641E-01 4.30091E-01-1.00928E-03-5.78683E-02 2.25474E-07 2.86491E-06
 -1     12825-3.03026E-01 4.47190E-01 2.93360E-03-1.21880E-01-9.89036E-07-6.24453E-06
 -1     12830-2.79951E-01 4.25846E-01 3.38388E-03-1.14664E-01-1.07424E-06-6.78250E-06
 -1     12831-3.00589E-01 4.30143E-01-8.86554E-04-5.78683E-02 2.43630E-07 3.09562E-06
 -1     12832-3.03137E-01 4.47078E-01 2.67193E-03-1.21880E-01-1.12571E-06-7.10745E-06
 -1     12837-2.80098E-01 4.25698E-01 3.03741E-03-1.14664E-01-6.75811E-07-4.26691E-06
 -1     12838-3.00495E-01 4.30238E-01-6.65510E-04-5.78684E-02-1.93374E-07-2.45705E-06
 -1     12839-3.03349E-01 4.46865E-01 2.17269E-03-1.21880E-01 2.95099E-07 1.86318E-06
 -1     12844-2.80382E-01 4.25414E-01 2.37530E-03-1.14663E-01 1.39014E-06 8.77699E-06
 -1     12845-3.00360E-01 4.30375E-01-3.45780E-04-5.78685E-02-1.50460E-06-1.91177E-05
 -1     12846-3.03723E-01 4.46490E-01 1.29844E-03-1.21879E-01 5.59083E-06 3.52991E-05
 -1     12851-2.80950E-01 4.24844E-01 1.05386E-03-1.14663E-01 9.06643E-06 5.72432E-05
 -1     12855-2.28246E-01 3.72139E-01 1.05386E-03-2.18102E-01-1.79096E-05-5.51201E-05
 -1     12856-2.64595E-01 3.94610E-01-3.45780E-04-1.67941E-01 4.47675E-06 1.86470E-05
 -1     12857-2.47701E-01 3.90468E-01 1.29844E-03-2.31828E-01-1.10440E-05-3.39899E-05
 -1     12862-2.27677E-01 3.72709E-01 2.37530E-03-2.18103E-01-2.74605E-06-8.45146E-06
 -1     12863-2.64731E-01 3.94473E-01-6.65510E-04-1.67941E-01 5.75360E-07 2.39655E-06
 -1     12864-2.47327E-01 3.90843E-01 2.17269E-03-2.31829E-01-5.82931E-07-1.79408E-06
 -1     12869-2.27393E-01 3.72993E-01 3.03741E-03-2.18103E-01 1.33498E-06 4.10865E-06
 -1     12870-2.64825E-01 3.94379E-01-8.86554E-04-1.67940E-01-7.24892E-07-3.01939E-06
 -1     12871-2.47115E-01 3.91056E-01 2.67193E-03-2.31829E-01 2.22370E-06 6.84384E-06
 -1     12876-2.27246E-01 3.73141E-01 3.38388E-03-2.18103E-01 2.12203E-06 6.53095E-06
 -1     12877-2.64877E-01 3.94326E-01-1.00928E-03-1.67940E-01-6.70869E-07-2.79437E-06
 -1     12878-2.47004E-01 3.91168E-01 2.93360E-03-2.31829E-01 1.95372E-06 6.01293E-06
 -1     12883-2.27175E-01 3.73212E-01 3.55188E-03-2.18103E-01 1.29840E-06 3.99607E-06
 -1     12884-2.64900E-01 3.94304E-01-1.06278E-03-1.67940E-01-2.56622E-07-1.06891E-06
 -1     12885-2.46956E-01 3.91215E-01 3.04500E-03-2.31829E-01 7.27498E-07 2.23901E-06
 -1     12890-2.27153E-01 3.73233E-01 3.60205E-03-2.18103E-01 1.35838E-14 2.25706E-14
 -1     12891-2.64900E-01 3.94304E-01-1.06278E-03-1.67940E-01 2.56622E-07 1.06891E-06
 -1     12892-2.46956E-01 3.91215E-01 3.04500E-03-2.31829E-01-7.27498E-07-2.23901E-06
 -1     12897-2.27175E-01 3.73212E-01 3.55188E-03-2.18103E-01-1.29840E-06-3.99607E-06
 -1     12898-2.64877E-01 3.94326E-01-1.00928E-03-1.67940E-01 6.70869E-07 2.79437E-06
 -1     12899-2.47004E-01 3.91168E-01 2.93360E-03-2.31829E-01-1.95372E-06-6.01293E-06
 -1     12904-2.27246E-01 3.73141E-01 3.38388E-03-2.18103E-01-2.12203E-06-6.53095E-06
 -1     12905-2.64825E-01 3.94379E-01-8.86554E-04-1.67940E-01 7.24892E-07 3.01939E-06
 -1     12906-2.47115E-01 3.91056E-01 2.67193E-03-2.31829E-01-2.22370E-06-6.84384E-06
 -1     12911-2.27393E-01 3.72993E-01 3.03741E-03-2.18103E-01-1.33498E-06-4.10865E-06
 -1     12912-2.64731E-01 3.94473E-01-6.65510E-04-1.67941E-01-5.75360E-07-2.39654E-06
 -1     12913-2.47327E-01 3.90843E-01 2.17269E-03-2.31829E-01 5.82931E-07 1.79408E-06
 -1     12918-2.27677E-01 3.72709E-01 2.37530E-03-2.18103E-01 2.74605E-06 8.45146E-06
 -1     12919-2.64595E-01 3.94610E-01-3.45780E-04-1.67941E-01-4.47675E-06-1.86470E-05
 -1     12920-2.47701E-01 3.90468E-01 1.29844E-03-2.31828E-01 1.10440E-05 3.39899E-05
 -1     12925-2.28246E-01 3.72139E-01 1.05386E-03-2.18102E-01 1.79096E-05 5.51201E-05
 -1     12929-1.46156E-01 2.90049E-01 1.05386E-03-3.00192E-01-2.63118E-05-5.16398E-05
 -1     12930-1.96567E-01 3.26581E-01-3.45780E-04-2.61574E-01 7.33866E-06 1.77171E-05
 -1     12931-1.60445E-01 3.03212E-01 1.29844E-03-3.19085E-01-1.62252E-05-3.18438E-05
 -1     12936-1.45587E-01 2.90619E-01 2.37530E-03-3.00193E-01-4.03434E-06-7.91783E-06
 -1     12937-1.96702E-01 3.26445E-01-6.65510E-04-2.61574E-01 9.43178E-07 2.27703E-06
 -1     12938-1.60071E-01 3.03587E-01 2.17269E-03-3.19085E-01-8.56410E-07-1.68080E-06
 -1     12943-1.45303E-01 2.90903E-01 3.03741E-03-3.00193E-01 1.96128E-06 3.84923E-06
 -1     12944-1.96797E-01 3.26350E-01-8.86554E-04-2.61573E-01-1.18830E-06-2.86882E-06
 -1     12945-1.59858E-01 3.03800E-01 2.67193E-03-3.19086E-01 3.26694E-06 6.41172E-06
 -1     12950-1.45156E-01 2.91051E-01 3.38388E-03-3.00193E-01 3.11757E-06 6.11858E-06
 -1     12951-1.96849E-01 3.26298E-01-1.00928E-03-2.61573E-01-1.09975E-06-2.65502E-06
 -1     12952-1.59747E-01 3.03911E-01 2.93360E-03-3.19086E-01 2.87029E-06 5.63327E-06
 -1     12957-1.45085E-01 2.91122E-01 3.55188E-03-3.00193E-01 1.90754E-06 3.74376E-06
 -1     12958-1.96871E-01 3.26275E-01-1.06278E-03-2.61573E-01-4.20676E-07-1.01560E-06
 -1     12959-1.59700E-01 3.03959E-01 3.04500E-03-3.19086E-01 1.06880E-06 2.09764E-06
 -1     12964-1.45063E-01 2.91143E-01 3.60205E-03-3.00193E-01-3.35091E-14-3.80582E-14
 -1     12965-1.96871E-01 3.26275E-01-1.06278E-03-2.61573E-01 4.20676E-07 1.01560E-06
 -1     12966-1.59700E-01 3.03959E-01 3.04500E-03-3.19086E-01-1.06880E-06-2.09764E-06
 -1     12971-1.45085E-01 2.91122E-01 3.55188E-03-3.00193E-01-1.90754E-06-3.74376E-06
 -1     12972-1.96849E-01 3.26298E-01-1.00928E-03-2.61573E-01 1.09975E-06 2.65502E-06
 -1     12973-1.59747E-01 3.03911E-01 2.93360E-03-3.19086E-01-2.87029E-06-5.63327E-06
 -1     12978-1.45156E-01 2.91051E-01 3.38388E-03-3.00193E-01-3.11757E-06-6.11858E-06
 -1     12979-1.96797E-01 3.26350E-01-8.86554E-04-2.61573E-01 1.18830E-06 2.86882E-06
 -1     12980-1.59858E-01 3.03800E-01 2.67193E-03-3.19086E-01-3.26694E-06-6.41172E-06
 -1     12985-1.45303E-01 2.90903E-01 3.03741E-03-3.00193E-01-1.96128E-06-3.84923E-06
 -1     12986-1.96702E-01 3.26445E-01-6.65510E-04-2.61574E-01-9.43178E-07-2.27703E-06
 -1     12987-1.60071E-01 3.03587E-01 2.17269E-03-3.19085E-01 8.56410E-07 1.68080E-06
 -1     12992-1.45587E-01 2.90619E-01 2.37530E-03-3.00193E-01 4.03434E-06 7.91783E-06
 -1     12993-1.96567E-01 3.26581E-01-3.45780E-04-2.61574E-01-7.33866E-06-1.77171E-05
 -1     12994-1.60445E-01 3.03212E-01 1.29844E-03-3.19085E-01 1.62252E-05 3.18438E-05
 -1     12999-1.46156E-01 2.90049E-01 1.05386E-03-3.00192E-01 2.63118E-05 5.16398E-05
 -1     13003-4.27165E-02 1.86610E-01 1.05386E-03-3.52897E-01-3.40661E-05-4.68880E-05
 -1     13004-1.02934E-01 2.32948E-01-3.45780E-04-3.29602E-01 1.00199E-05 1.63510E-05
 -1     13005-5.04958E-02 1.93263E-01 1.29844E-03-3.75106E-01-2.10069E-05-2.89135E-05
 -1     13010-4.21475E-02 1.87179E-01 2.37530E-03-3.52898E-01-5.22329E-06-7.18924E-06
 -1     13011-1.03069E-01 2.32812E-01-6.65510E-04-3.29602E-01 1.28777E-06 2.10145E-06
 -1     13012-5.01219E-02 1.93638E-01 2.17269E-03-3.75107E-01-1.10880E-06-1.52613E-06
 -1     13017-4.18638E-02 1.87463E-01 3.03741E-03-3.52898E-01 2.53929E-06 3.49503E-06
 -1     13018-1.03164E-01 2.32717E-01-8.86554E-04-3.29602E-01-1.62246E-06-2.64761E-06
 -1     13019-4.99091E-02 1.93851E-01 2.67193E-03-3.75108E-01 4.22973E-06 5.82172E-06
 -1     13024-4.17163E-02 1.87611E-01 3.38388E-03-3.52898E-01 4.03635E-06 5.55556E-06
 -1     13025-1.03216E-01 2.32665E-01-1.00928E-03-3.29602E-01-1.50154E-06-2.45029E-06
 -1     13026-4.97979E-02 1.93962E-01 2.93360E-03-3.75108E-01 3.71619E-06 5.11490E-06
 -1     13031-4.16449E-02 1.87682E-01 3.55188E-03-3.52898E-01 2.46971E-06 3.39926E-06
 -1     13032-1.03238E-01 2.32642E-01-1.06278E-03-3.29602E-01-5.74372E-07-9.37291E-07
 -1     13033-4.97506E-02 1.94009E-01 3.04500E-03-3.75108E-01 1.38378E-06 1.90461E-06
 -1     13038-4.16237E-02 1.87704E-01 3.60205E-03-3.52898E-01-5.72735E-15-2.31863E-15
 -1     13039-1.03238E-01 2.32642E-01-1.06278E-03-3.29602E-01 5.74372E-07 9.37291E-07
 -1     13040-4.97506E-02 1.94009E-01 3.04500E-03-3.75108E-01-1.38378E-06-1.90461E-06
 -1     13045-4.16449E-02 1.87682E-01 3.55188E-03-3.52898E-01-2.46971E-06-3.39926E-06
 -1     13046-1.03216E-01 2.32665E-01-1.00928E-03-3.29602E-01 1.50154E-06 2.45029E-06
 -1     13047-4.97979E-02 1.93962E-01 2.93360E-03-3.75108E-01-3.71619E-06-5.11490E-06
 -1     13052-4.17163E-02 1.87611E-01 3.38388E-03-3.52898E-01-4.03635E-06-5.55556E-06
 -1     13053-1.03164E-01 2.32717E-01-8.86554E-04-3.29602E-01 1.62246E-06 2.64761E-06
 -1     13054-4.99091E-02 1.93851E-01 2.67193E-03-3.75108E-01-4.22973E-06-5.82172E-06
 -1     13059-4.18638E-02 1.87463E-01 3.03741E-03-3.52898E-01-2.53929E-06-3.49503E-06
 -1     13060-1.03069E-01 2.32812E-01-6.65510E-04-3.29602E-01-1.28777E-06-2.10145E-06
 -1     13061-5.01219E-02 1.93638E-01 2.17269E-03-3.75107E-01 1.10880E-06 1.52613E-06
 -1     13066-4.21475E-02 1.87179E-01 2.37530E-03-3.52898E-01 5.22329E-06 7.18924E-06
 -1     13067-1.02934E-01 2.32948E-01-3.45780E-04-3.29602E-01-1.00199E-05-1.63510E-05
 -1     13068-5.04958E-02 1.93263E-01 1.29844E-03-3.75106E-01 2.10069E-05 2.89135E-05
 -1     13073-4.27165E-02 1.86610E-01 1.05386E-03-3.52897E-01 3.40661E-05 4.68880E-05
 -1     13077 7.19468E-02 7.19468E-02 1.05386E-03-3.71058E-01-4.09816E-05-4.09816E-05
 -1     13078 7.13887E-03 1.22876E-01-3.45780E-04-3.65367E-01 1.24544E-05 1.45822E-05
 -1     13079 7.13836E-02 7.13836E-02 1.29844E-03-3.94410E-01-2.52714E-05-2.52714E-05
 -1     13084 7.25160E-02 7.25160E-02 2.37530E-03-3.71059E-01-6.28363E-06-6.28363E-06
 -1     13085 7.00276E-03 1.22739E-01-6.65510E-04-3.65366E-01 1.60066E-06 1.87413E-06
 -1     13086 7.17578E-02 7.17578E-02 2.17269E-03-3.94411E-01-1.33389E-06-1.33389E-06
 -1     13091 7.27998E-02 7.27998E-02 3.03741E-03-3.71059E-01 3.05477E-06 3.05477E-06
 -1     13092 6.90850E-03 1.22645E-01-8.86554E-04-3.65366E-01-2.01666E-06-2.36120E-06
 -1     13093 7.19708E-02 7.19708E-02 2.67193E-03-3.94411E-01 5.08837E-06 5.08837E-06
 -1     13098 7.29473E-02 7.29473E-02 3.38388E-03-3.71059E-01 4.85573E-06 4.85573E-06
 -1     13099 6.85640E-03 1.22593E-01-1.00928E-03-3.65366E-01-1.86637E-06-2.18523E-06
 -1     13100 7.20820E-02 7.20820E-02 2.93360E-03-3.94412E-01 4.47059E-06 4.47059E-06
 -1     13105 7.30187E-02 7.30187E-02 3.55188E-03-3.71059E-01 2.97106E-06 2.97106E-06
 -1     13106 6.83370E-03 1.22570E-01-1.06278E-03-3.65366E-01-7.13926E-07-8.35899E-07
 -1     13107 7.21293E-02 7.21293E-02 3.04500E-03-3.94412E-01 1.66469E-06 1.66469E-06
 -1     13112 7.30400E-02 7.30400E-02 3.60205E-03-3.71059E-01-6.12547E-14 2.20768E-14
 -1     13113 6.83370E-03 1.22570E-01-1.06278E-03-3.65366E-01 7.13926E-07 8.35899E-07
 -1     13114 7.21293E-02 7.21293E-02 3.04500E-03-3.94412E-01-1.66469E-06-1.66469E-06
 -1     13119 7.30187E-02 7.30187E-02 3.55188E-03-3.71059E-01-2.97106E-06-2.97106E-06
 -1     13120 6.85640E-03 1.22593E-01-1.00928E-03-3.65366E-01 1.86637E-06 2.18523E-06
 -1     13121 7.20820E-02 7.20820E-02 2.93360E-03-3.94412E-01-4.47059E-06-4.47059E-06
 -1     13126 7.29473E-02 7.29473E-02 3.38388E-03-3.71059E-01-4.85573E-06-4.85573E-06
 -1     13127 6.90850E-03 1.22645E-01-8.86554E-04-3.65366E-01 2.01666E-06 2.36120E-06
 -1     13128 7.19708E-02 7.19708E-02 2.67193E-03-3.94411E-01-5.08837E-06-5.08837E-06
 -1     13133 7.27998E-02 7.27998E-02 3.03741E-03-3.71059E-01-3.05477E-06-3.05477E-06
 -1     13134 7.00276E-03 1.22739E-01-6.65510E-04-3.65366E-01-1.60066E-06-1.87413E-06
 -1     13135 7.17578E-02 7.17578E-02 2.17269E-03-3.94411E-01 1.33389E-06 1.33389E-06
 -1     13140 7.25160E-02 7.25160E-02 2.37530E-03-3.71059E-01 6.28363E-06 6.28363E-06
 -1     13141 7.13887E-03 1.22876E-01-3.45780E-04-3.65367E-01-1.24544E-05-1.45822E-05
 -1     13142 7.13836E-02 7.13836E-02 1.29844E-03-3.94410E-01 2.52714E-05 2.52714E-05
 -1     13147 7.19468E-02 7.19468E-02 1.05386E-03-3.71058E-01 4.09816E-05 4.09816E-05
 -1     13151 1.86610E-01-4.27165E-02 1.05386E-03-3.52897E-01-4.68880E-05-3.40661E-05
 -1     13152 1.22876E-01 7.13887E-03-3.45780E-04-3.65367E-01 1.45822E-05 1.24544E-05
 -1     13153 1.93263E-01-5.04958E-02 1.29844E-03-3.75106E-01-2.89135E-05-2.10069E-05
 -1     13158 1.87179E-01-4.21475E-02 2.37530E-03-3.52898E-01-7.18924E-06-5.22329E-06
 -1     13159 1.22739E-01 7.00276E-03-6.65510E-04-3.65366E-01 1.87413E-06 1.60066E-06
 -1     13160 1.93638E-01-5.01219E-02 2.17269E-03-3.75107E-01-1.52613E-06-1.10880E-06
 -1     13165 1.87463E-01-4.18638E-02 3.03741E-03-3.52898E-01 3.49503E-06 2.53929E-06
 -1     13166 1.22645E-01 6.90850E-03-8.86554E-04-3.65366E-01-2.36120E-06-2.01666E-06
 -1     13167 1.93851E-01-4.99091E-02 2.67193E-03-3.75108E-01 5.82172E-06 4.22973E-06
 -1     13172 1.87611E-01-4.17163E-02 3.38388E-03-3.52898E-01 5.55556E-06 4.03635E-06
 -1     13173 1.22593E-01 6.85640E-03-1.00928E-03-3.65366E-01-2.18523E-06-1.86637E-06
 -1     13174 1.93962E-01-4.97979E-02 2.93360E-03-3.75108E-01 5.11490E-06 3.71619E-06
 -1     13179 1.87682E-01-4.16449E-02 3.55188E-03-3.52898E-01 3.39926E-06 2.46971E-06
 -1     13180 1.22570E-01 6.83370E-03-1.06278E-03-3.65366E-01-8.35899E-07-7.13925E-07
 -1     13181 1.94009E-01-4.97506E-02 3.04500E-03-3.75108E-01 1.90461E-06 1.38378E-06
 -1     13186 1.87704E-01-4.16237E-02 3.60205E-03-3.52898E-01 1.04807E-14 2.28373E-15
 -1     13187 1.22570E-01 6.83370E-03-1.06278E-03-3.65366E-01 8.35899E-07 7.13925E-07
 -1     13188 1.94009E-01-4.97506E-02 3.04500E-03-3.75108E-01-1.90461E-06-1.38378E-06
 -1     13193 1.87682E-01-4.16449E-02 3.55188E-03-3.52898E-01-3.39926E-06-2.46971E-06
 -1     13194 1.22593E-01 6.85640E-03-1.00928E-03-3.65366E-01 2.18523E-06 1.86637E-06
 -1     13195 1.93962E-01-4.97979E-02 2.93360E-03-3.75108E-01-5.11490E-06-3.71619E-06
 -1     13200 1.87611E-01-4.17163E-02 3.38388E-03-3.52898E-01-5.55556E-06-4.03635E-06
 -1     13201 1.22645E-01 6.90850E-03-8.86554E-04-3.65366E-01 2.36120E-06 2.01666E-06
 -1     13202 1.93851E-01-4.99091E-02 2.67193E-03-3.75108E-01-5.82172E-06-4.22973E-06
 -1     13207 1.87463E-01-4.18638E-02 3.03741E-03-3.52898E-01-3.49503E-06-2.53929E-06
 -1     13208 1.22739E-01 7.00276E-03-6.65510E-04-3.65366E-01-1.87413E-06-1.60066E-06
 -1     13209 1.93638E-01-5.01219E-02 2.17269E-03-3.75107E-01 1.52613E-06 1.10880E-06
 -1     13214 1.87179E-01-4.21475E-02 2.37530E-03-3.52898E-01 7.18924E-06 5.22329E-06
 -1     13215 1.22876E-01 7.13887E-03-3.45780E-04-3.65367E-01-1.45822E-05-1.24544E-05
 -1     13216 1.93263E-01-5.04958E-02 1.29844E-03-3.75106E-01 2.89135E-05 2.10069E-05
 -1     13221 1.86610E-01-4.27165E-02 1.05386E-03-3.52897E-01 4.68880E-05 3.40661E-05
 -1     13225 2.90049E-01-1.46156E-01 1.05386E-03-3.00192E-01-5.16398E-05-2.63118E-05
 -1     13226 2.32948E-01-1.02934E-01-3.45780E-04-3.29602E-01 1.63510E-05 1.00199E-05
 -1     13227 3.03212E-01-1.60445E-01 1.29844E-03-3.19085E-01-3.18438E-05-1.62252E-05
 -1     13232 2.90619E-01-1.45587E-01 2.37530E-03-3.00193E-01-7.91783E-06-4.03434E-06
 -1     13233 2.32812E-01-1.03069E-01-6.65510E-04-3.29602E-01 2.10145E-06 1.28777E-06
 -1     13234 3.03587E-01-1.60071E-01 2.17269E-03-3.19085E-01-1.68080E-06-8.56410E-07
 -1     13239 2.90903E-01-1.45303E-01 3.03741E-03-3.00193E-01 3.84923E-06 1.96128E-06
 -1     13240 2.32717E-01-1.03164E-01-8.86554E-04-3.29602E-01-2.64761E-06-1.62246E-06
 -1     13241 3.03800E-01-1.59858E-01 2.67193E-03-3.19086E-01 6.41172E-06 3.26694E-06
 -1     13246 2.91051E-01-1.45156E-01 3.38388E-03-3.00193E-01 6.11858E-06 3.11757E-06
 -1     13247 2.32665E-01-1.03216E-01-1.00928E-03-3.29602E-01-2.45029E-06-1.50154E-06
 -1     13248 3.03911E-01-1.59747E-01 2.93360E-03-3.19086E-01 5.63327E-06 2.87029E-06
 -1     13253 2.91122E-01-1.45085E-01 3.55188E-03-3.00193E-01 3.74376E-06 1.90754E-06
 -1     13254 2.32642E-01-1.03238E-01-1.06278E-03-3.29602E-01-9.37291E-07-5.74372E-07
 -1     13255 3.03959E-01-1.59700E-01 3.04500E-03-3.19086E-01 2.09764E-06 1.06880E-06
 -1     13260 2.91143E-01-1.45063E-01 3.60205E-03-3.00193E-01 1.78091E-14 1.18955E-14
 -1     13261 2.32642E-01-1.03238E-01-1.06278E-03-3.29602E-01 9.37291E-07 5.74372E-07
 -1     13262 3.03959E-01-1.59700E-01 3.04500E-03-3.19086E-01-2.09764E-06-1.06880E-06
 -1     13267 2.91122E-01-1.45085E-01 3.55188E-03-3.00193E-01-3.74376E-06-1.90754E-06
 -1     13268 2.32665E-01-1.03216E-01-1.00928E-03-3.29602E-01 2.45029E-06 1.50154E-06
 -1     13269 3.03911E-01-1.59747E-01 2.93360E-03-3.19086E-01-5.63327E-06-2.87029E-06
 -1     13274 2.91051E-01-1.45156E-01 3.38388E-03-3.00193E-01-6.11858E-06-3.11757E-06
 -1     13275 2.32717E-01-1.03164E-01-8.86554E-04-3.29602E-01 2.64761E-06 1.62246E-06
 -1     13276 3.03800E-01-1.59858E-01 2.67193E-03-3.19086E-01-6.41172E-06-3.26694E-06
 -1     13281 2.90903E-01-1.45303E-01 3.03741E-03-3.00193E-01-3.84923E-06-1.96128E-06
 -1     13282 2.32812E-01-1.03069E-01-6.65510E-04-3.29602E-01-2.10145E-06-1.28777E-06
 -1     13283 3.03587E-01-1.60071E-01 2.17269E-03-3.19085E-01 1.68080E-06 8.56410E-07
 -1     13288 2.90619E-01-1.45587E-01 2.37530E-03-3.00193E-01 7.91783E-06 4.03434E-06
 -1     13289 2.32948E-01-1.02934E-01-3.45780E-04-3.29602E-01-1.63510E-05-1.00199E-05
 -1     13290 3.03212E-01-1.60445E-01 1.29844E-03-3.19085E-01 3.18438E-05 1.62252E-05
 -1     13295 2.90049E-01-1.46156E-01 1.05386E-03-3.00192E-01 5.16398E-05 2.63118E-05
 -1     13299 3.72139E-01-2.28246E-01 1.05386E-03-2.18102E-01-5.51201E-05-1.79096E-05
 -1     13300 3.26581E-01-1.96567E-01-3.45780E-04-2.61574E-01 1.77171E-05 7.33866E-06
 -1     13301 3.90468E-01-2.47701E-01 1.29844E-03-2.31828E-01-3.39899E-05-1.10440E-05
 -1     13306 3.72709E-01-2.27677E-01 2.37530E-03-2.18103E-01-8.45146E-06-2.74605E-06
 -1     13307 3.26445E-01-1.96702E-01-6.65510E-04-2.61574E-01 2.27703E-06 9.43178E-07
 -1     13308 3.90843E-01-2.47327E-01 2.17269E-03-2.31829E-01-1.79408E-06-5.82931E-07
 -1     13313 3.72993E-01-2.27393E-01 3.03741E-03-2.18103E-01 4.10865E-06 1.33498E-06
 -1     13314 3.26350E-01-1.96797E-01-8.86554E-04-2.61573E-01-2.86882E-06-1.18830E-06
 -1     13315 3.91056E-01-2.47115E-01 2.67193E-03-2.31829E-01 6.84384E-06 2.22370E-06
 -1     13320 3.73141E-01-2.27246E-01 3.38388E-03-2.18103E-01 6.53095E-06 2.12203E-06
 -1     13321 3.26298E-01-1.96849E-01-1.00928E-03-2.61573E-01-2.65502E-06-1.09975E-06
 -1     13322 3.91168E-01-2.47004E-01 2.93360E-03-2.31829E-01 6.01293E-06 1.95372E-06
 -1     13327 3.73212E-01-2.27175E-01 3.55188E-03-2.18103E-01 3.99607E-06 1.29840E-06
 -1     13328 3.26275E-01-1.96871E-01-1.06278E-03-2.61573E-01-1.01560E-06-4.20676E-07
 -1     13329 3.91215E-01-2.46956E-01 3.04500E-03-2.31829E-01 2.23901E-06 7.27498E-07
 -1     13334 3.73233E-01-2.27153E-01 3.60205E-03-2.18103E-01-2.27520E-14-1.97322E-14
 -1     13335 3.26275E-01-1.96871E-01-1.06278E-03-2.61573E-01 1.01560E-06 4.20676E-07
 -1     13336 3.91215E-01-2.46956E-01 3.04500E-03-2.31829E-01-2.23901E-06-7.27498E-07
 -1     13341 3.73212E-01-2.27175E-01 3.55188E-03-2.18103E-01-3.99607E-06-1.29840E-06
 -1     13342 3.26298E-01-1.96849E-01-1.00928E-03-2.61573E-01 2.65502E-06 1.09975E-06
 -1     13343 3.91168E-01-2.47004E-01 2.93360E-03-2.31829E-01-6.01293E-06-1.95372E-06
 -1     13348 3.73141E-01-2.27246E-01 3.38388E-03-2.18103E-01-6.53095E-06-2.12203E-06
 -1     13349 3.26350E-01-1.96797E-01-8.86554E-04-2.61573E-01 2.86882E-06 1.18830E-06
 -1     13350 3.91056E-01-2.47115E-01 2.67193E-03-2.31829E-01-6.84384E-06-2.22370E-06
 -1     13355 3.72993E-01-2.27393E-01 3.03741E-03-2.18103E-01-4.10865E-06-1.33498E-06
 -1     13356 3.26445E-01-1.96702E-01-6.65510E-04-2.61574E-01-2.27703E-06-9.43178E-07
 -1     13357 3.90843E-01-2.47327E-01 2.17269E-03-2.31829E-01 1.79408E-06 5.82931E-07
 -1     13362 3.72709E-01-2.27677E-01 2.37530E-03-2.18103E-01 8.45146E-06 2.74605E-06
 -1     13363 3.26581E-01-1.96567E-01-3.45780E-04-2.61574E-01-1.77171E-05-7.33866E-06
 -1     13364 3.90468E-01-2.47701E-01 1.29844E-03-2.31828E-01 3.39899E-05 1.10440E-05
 -1     13369 3.72139E-01-2.28246E-01 1.05386E-03-2.18102E-01 5.51201E-05 1.79096E-05
 -1     13373 4.24844E-01-2.80950E-01 1.05386E-03-1.14663E-01-5.72432E-05-9.06643E-06
 -1     13374 3.94610E-01-2.64595E-01-3.45780E-04-1.67941E-01 1.86470E-05 4.47675E-06
 -1     13375 4.46490E-01-3.03723E-01 1.29844E-03-1.21879E-01-3.52991E-05-5.59083E-06
 -1     13380 4.25414E-01-2.80382E-01 2.37530E-03-1.14663E-01-8.77699E-06-1.39014E-06
 -1     13381 3.94473E-01-2.64731E-01-6.65510E-04-1.67941E-01 2.39655E-06 5.75360E-07
 -1     13382 4.46865E-01-3.03349E-01 2.17269E-03-1.21880E-01-1.86318E-06-2.95099E-07
 -1     13387 4.25698E-01-2.80098E-01 3.03741E-03-1.14664E-01 4.26691E-06 6.75811E-07
 -1     13388 3.94379E-01-2.64825E-01-8.86554E-04-1.67940E-01-3.01939E-06-7.24892E-07
 -1     13389 4.47078E-01-3.03137E-01 2.67193E-03-1.21880E-01 7.10745E-06 1.12571E-06
 -1     13394 4.25846E-01-2.79951E-01 3.38388E-03-1.14664E-01 6.78250E-06 1.07424E-06
 -1     13395 3.94326E-01-2.64877E-01-1.00928E-03-1.67940E-01-2.79437E-06-6.70869E-07
 -1     13396 4.47190E-01-3.03026E-01 2.93360E-03-1.21880E-01 6.24453E-06 9.89036E-07
 -1     13401 4.25917E-01-2.79880E-01 3.55188E-03-1.14664E-01 4.14999E-06 6.57293E-07
 -1     13402 3.94304E-01-2.64900E-01-1.06278E-03-1.67940E-01-1.06891E-06-2.56622E-07
 -1     13403 4.47237E-01-3.02979E-01 3.04500E-03-1.21880E-01 2.32525E-06 3.68283E-07
 -1     13408 4.25938E-01-2.79858E-01 3.60205E-03-1.14664E-01 1.85807E-14 8.57332E-15
 -1     13409 3.94304E-01-2.64900E-01-1.06278E-03-1.67940E-01 1.06891E-06 2.56622E-07
 -1     13410 4.47237E-01-3.02979E-01 3.04500E-03-1.21880E-01-2.32525E-06-3.68283E-07
 -1     13415 4.25917E-01-2.79880E-01 3.55188E-03-1.14664E-01-4.14999E-06-6.57293E-07
 -1     13416 3.94326E-01-2.64877E-01-1.00928E-03-1.67940E-01 2.79437E-06 6.70869E-07
 -1     13417 4.47190E-01-3.03026E-01 2.93360E-03-1.21880E-01-6.24453E-06-9.89036E-07
 -1     13422 4.25846E-01-2.79951E-01 3.38388E-03-1.14664E-01-6.78250E-06-1.07424E-06
 -1     13423 3.94379E-01-2.64825E-01-8.86554E-04-1.67940E-01 3.01939E-06 7.24892E-07
 -1     13424 4.47078E-01-3.03137E-01 2.67193E-03-1.21880E-01-7.10745E-06-1.12571E-06
 -1     13429 4.25698E-01-2.80098E-01 3.03741E-03-1.14664E-01-4.26691E-06-6.75811E-07
 -1     13430 3.94473E-01-2.64731E-01-6.65510E-04-1.67941E-01-2.39655E-06-5.75360E-07
 -1     13431 4.46865E-01-3.03349E-01 2.17269E-03-1.21880E-01 1.86318E-06 2.95099E-07
 -1     13436 4.25414E-01-2.80382E-01 2.37530E-03-1.14663E-01 8.77699E-06 1.39014E-06
 -1     13437 3.94610E-01-2.64595E-01-3.45780E-04-1.67941E-01-1.86470E-05-4.47675E-06
 -1     13438 4.46490E-01-3.03723E-01 1.29844E-03-1.21879E-01 3.52991E-05 5.59083E-06
 -1     13443 4.24844E-01-2.80950E-01 1.05386E-03-1.14663E-01 5.72432E-05 9.06643E-06
 -1     13447 4.30375E-01-3.00360E-01-3.45780E-04-5.78685E-02 1.91177E-05 1.50460E-06
 -1     13451 4.30238E-01-3.00495E-01-6.65510E-04-5.78684E-02 2.45705E-06 1.93374E-07
 -1     13455 4.30143E-01-3.00589E-01-8.86554E-04-5.78683E-02-3.09562E-06-2.43630E-07
 -1     13459 4.30091E-01-3.00641E-01-1.00928E-03-5.78683E-02-2.86491E-06-2.25474E-07
 -1     13463 4.30068E-01-3.00664E-01-1.06278E-03-5.78683E-02-1.09589E-06-8.62485E-08
 -1     13467 4.30068E-01-3.00664E-01-1.06278E-03-5.78683E-02 1.09589E-06 8.62485E-08
 -1     13471 4.30091E-01-3.00641E-01-1.00928E-03-5.78683E-02 2.86491E-06 2.25474E-07
 -1     13475 4.30143E-01-3.00589E-01-8.86554E-04-5.78683E-02 3.09562E-06 2.43630E-07
 -1     13479 4.30238E-01-3.00495E-01-6.65510E-04-5.78684E-02-2.45705E-06-1.93374E-07
 -1     13483 4.30375E-01-3.00360E-01-3.45780E-04-5.78685E-02-1.91177E-05-1.50460E-06
 -1     13489-2.43512E-01 3.86099E-01 8.80970E-04-1.02286E-01-8.49614E-06-5.36425E-05
 -1     13490-2.60803E-01 3.91055E-01-3.15857E-04-5.16221E-02 1.41560E-06 1.79868E-05
 -1     13491-2.62568E-01 4.04322E-01 1.11689E-03-1.08343E-01-5.35825E-06-3.38307E-05
 -1     13496-2.43026E-01 3.86585E-01 2.00903E-03-1.02287E-01-1.71681E-06-1.08395E-05
 -1     13497-2.60926E-01 3.90931E-01-6.04495E-04-5.16220E-02 2.44199E-07 3.10284E-06
 -1     13498-2.62240E-01 4.04651E-01 1.88384E-03-1.08343E-01-5.93964E-07-3.75014E-06
 -1     13503-2.42775E-01 3.86837E-01 2.59508E-03-1.02287E-01 3.39557E-07 2.14388E-06
 -1     13504-2.61012E-01 3.90845E-01-8.05192E-04-5.16220E-02-1.68031E-07-2.13503E-06
 -1     13505-2.62049E-01 4.04844E-01 2.33352E-03-1.08343E-01 8.20545E-07 5.18072E-06
 -1     13510-2.42641E-01 3.86972E-01 2.91108E-03-1.02287E-01 8.33346E-07 5.26154E-06
 -1     13511-2.61060E-01 3.90797E-01-9.18669E-04-5.16220E-02-1.79902E-07-2.28587E-06
 -1     13512-2.61946E-01 4.04946E-01 2.57510E-03-1.08343E-01 8.08997E-07 5.10780E-06
 -1     13517-2.42574E-01 3.87038E-01 3.06775E-03-1.02287E-01 5.43069E-07 3.42880E-06
 -1     13518-2.61081E-01 3.90776E-01-9.68842E-04-5.16220E-02-7.11841E-08-9.04479E-07
 -1     13519-2.61902E-01 4.04991E-01 2.67976E-03-1.08343E-01 3.10730E-07 1.96187E-06
 -1     13524-2.42554E-01 3.87059E-01 3.11510E-03-1.02287E-01-1.17875E-14 6.89003E-14
 -1     13525-2.61081E-01 3.90776E-01-9.68842E-04-5.16220E-02 7.11840E-08 9.04479E-07
 -1     13526-2.61902E-01 4.04991E-01 2.67976E-03-1.08343E-01-3.10730E-07-1.96187E-06
 -1     13531-2.42574E-01 3.87038E-01 3.06775E-03-1.02287E-01-5.43069E-07-3.42880E-06
 -1     13532-2.61060E-01 3.90797E-01-9.18669E-04-5.16220E-02 1.79902E-07 2.28587E-06
 -1     13533-2.61946E-01 4.04946E-01 2.57510E-03-1.08343E-01-8.08997E-07-5.10780E-06
 -1     13538-2.42641E-01 3.86972E-01 2.91108E-03-1.02287E-01-8.33346E-07-5.26154E-06
 -1     13539-2.61012E-01 3.90845E-01-8.05192E-04-5.16220E-02 1.68031E-07 2.13503E-06
 -1     13540-2.62049E-01 4.04844E-01 2.33352E-03-1.08343E-01-8.20545E-07-5.18072E-06
 -1     13545-2.42775E-01 3.86837E-01 2.59508E-03-1.02287E-01-3.39557E-07-2.14388E-06
 -1     13546-2.60926E-01 3.90931E-01-6.04495E-04-5.16220E-02-2.44199E-07-3.10284E-06
 -1     13547-2.62240E-01 4.04651E-01 1.88384E-03-1.08343E-01 5.93964E-07 3.75014E-06
 -1     13552-2.43026E-01 3.86585E-01 2.00903E-03-1.02287E-01 1.71681E-06 1.08395E-05
 -1     13553-2.60803E-01 3.91055E-01-3.15857E-04-5.16221E-02-1.41560E-06-1.79868E-05
 -1     13554-2.62568E-01 4.04322E-01 1.11689E-03-1.08343E-01 5.35825E-06 3.38307E-05
 -1     13559-2.43512E-01 3.86099E-01 8.80970E-04-1.02286E-01 8.49614E-06 5.36425E-05
 -1     13563-1.96496E-01 3.39083E-01 8.80970E-04-1.94560E-01-1.67831E-05-5.16530E-05
 -1     13564-2.28899E-01 3.59151E-01-3.15857E-04-1.49813E-01 4.21193E-06 1.75439E-05
 -1     13565-2.12768E-01 3.54522E-01 1.11689E-03-2.06080E-01-1.05846E-05-3.25760E-05
 -1     13570-1.96010E-01 3.39569E-01 2.00903E-03-1.94561E-01-3.39134E-06-1.04375E-05
 -1     13571-2.29022E-01 3.59027E-01-6.04495E-04-1.49813E-01 7.26583E-07 3.02643E-06
 -1     13572-2.12440E-01 3.54851E-01 1.88384E-03-2.06081E-01-1.17330E-06-3.61106E-06
 -1     13577-1.95759E-01 3.39821E-01 2.59508E-03-1.94561E-01 6.70752E-07 2.06436E-06
 -1     13578-2.29108E-01 3.58941E-01-8.05192E-04-1.49813E-01-4.99955E-07-2.08246E-06
 -1     13579-2.12249E-01 3.55044E-01 2.33352E-03-2.06081E-01 1.62089E-06 4.98857E-06
 -1     13584-1.95625E-01 3.39956E-01 2.91108E-03-1.94561E-01 1.64617E-06 5.06640E-06
 -1     13585-2.29156E-01 3.58893E-01-9.18669E-04-1.49813E-01-5.35277E-07-2.22959E-06
 -1     13586-2.12146E-01 3.55147E-01 2.57510E-03-2.06081E-01 1.59807E-06 4.91836E-06
 -1     13591-1.95558E-01 3.40022E-01 3.06775E-03-1.94561E-01 1.07277E-06 3.30163E-06
 -1     13592-2.29177E-01 3.58871E-01-9.68842E-04-1.49813E-01-2.11799E-07-8.82208E-07
 -1     13593-2.12102E-01 3.55191E-01 2.67976E-03-2.06081E-01 6.13810E-07 1.88911E-06
 -1     13598-1.95538E-01 3.40043E-01 3.11510E-03-1.94561E-01-2.34138E-15 1.17393E-14
 -1     13599-2.29177E-01 3.58871E-01-9.68842E-04-1.49813E-01 2.11799E-07 8.82208E-07
 -1     13600-2.12102E-01 3.55191E-01 2.67976E-03-2.06081E-01-6.13810E-07-1.88911E-06
 -1     13605-1.95558E-01 3.40022E-01 3.06775E-03-1.94561E-01-1.07277E-06-3.30163E-06
 -1     13606-2.29156E-01 3.58893E-01-9.18669E-04-1.49813E-01 5.35277E-07 2.22959E-06
 -1     13607-2.12146E-01 3.55147E-01 2.57510E-03-2.06081E-01-1.59807E-06-4.91836E-06
 -1     13612-1.95625E-01 3.39956E-01 2.91108E-03-1.94561E-01-1.64617E-06-5.06640E-06
 -1     13613-2.29108E-01 3.58941E-01-8.05192E-04-1.49813E-01 4.99955E-07 2.08246E-06
 -1     13614-2.12249E-01 3.55044E-01 2.33352E-03-2.06081E-01-1.62089E-06-4.98857E-06
 -1     13619-1.95759E-01 3.39821E-01 2.59508E-03-1.94561E-01-6.70752E-07-2.06436E-06
 -1     13620-2.29022E-01 3.59027E-01-6.04495E-04-1.49813E-01-7.26583E-07-3.02643E-06
 -1     13621-2.12440E-01 3.54851E-01 1.88384E-03-2.06081E-01 1.17330E-06 3.61106E-06
 -1     13626-1.96010E-01 3.39569E-01 2.00903E-03-1.94561E-01 3.39134E-06 1.04375E-05
 -1     13627-2.28899E-01 3.59151E-01-3.15857E-04-1.49813E-01-4.21193E-06-1.75439E-05
 -1     13628-2.12768E-01 3.54522E-01 1.11689E-03-2.06080E-01 1.05846E-05 3.25760E-05
 -1     13633-1.96496E-01 3.39083E-01 8.80970E-04-1.94560E-01 1.67831E-05 5.16530E-05
 -1     13637-1.23267E-01 2.65854E-01 8.80970E-04-2.67789E-01-2.46567E-05-4.83916E-05
 -1     13638-1.68214E-01 2.98465E-01-3.15857E-04-2.33339E-01 6.90455E-06 1.66691E-05
 -1     13639-1.35203E-01 2.76957E-01 1.11689E-03-2.83645E-01-1.55503E-05-3.05191E-05
 -1     13644-1.22781E-01 2.66340E-01 2.00903E-03-2.67790E-01-4.98236E-06-9.77844E-06
 -1     13645-1.68337E-01 2.98342E-01-6.04495E-04-2.33339E-01 1.19108E-06 2.87551E-06
 -1     13646-1.34875E-01 2.77286E-01 1.88384E-03-2.83646E-01-1.72375E-06-3.38305E-06
 -1     13651-1.22530E-01 2.66592E-01 2.59508E-03-2.67790E-01 9.85432E-07 1.93402E-06
 -1     13652-1.68422E-01 2.98256E-01-8.05192E-04-2.33339E-01-8.19569E-07-1.97861E-06
 -1     13653-1.34683E-01 2.77478E-01 2.33352E-03-2.83646E-01 2.38131E-06 4.67359E-06
 -1     13658-1.22396E-01 2.66726E-01 2.91108E-03-2.67790E-01 2.41847E-06 4.74651E-06
 -1     13659-1.68470E-01 2.98207E-01-9.18669E-04-2.33339E-01-8.77471E-07-2.11840E-06
 -1     13660-1.34581E-01 2.77581E-01 2.57510E-03-2.83646E-01 2.34780E-06 4.60782E-06
 -1     13665-1.22329E-01 2.66793E-01 3.06775E-03-2.67790E-01 1.57605E-06 3.09317E-06
 -1     13666-1.68492E-01 2.98186E-01-9.68842E-04-2.33339E-01-3.47199E-07-8.38214E-07
 -1     13667-1.34536E-01 2.77626E-01 2.67976E-03-2.83646E-01 9.01775E-07 1.76983E-06
 -1     13672-1.22309E-01 2.66813E-01 3.11510E-03-2.67790E-01 1.49070E-14 2.00867E-14
 -1     13673-1.68492E-01 2.98186E-01-9.68842E-04-2.33339E-01 3.47199E-07 8.38214E-07
 -1     13674-1.34536E-01 2.77626E-01 2.67976E-03-2.83646E-01-9.01775E-07-1.76983E-06
 -1     13679-1.22329E-01 2.66793E-01 3.06775E-03-2.67790E-01-1.57605E-06-3.09317E-06
 -1     13680-1.68470E-01 2.98207E-01-9.18669E-04-2.33339E-01 8.77471E-07 2.11840E-06
 -1     13681-1.34581E-01 2.77581E-01 2.57510E-03-2.83646E-01-2.34780E-06-4.60782E-06
 -1     13686-1.22396E-01 2.66726E-01 2.91108E-03-2.67790E-01-2.41847E-06-4.74651E-06
 -1     13687-1.68422E-01 2.98256E-01-8.05192E-04-2.33339E-01 8.19569E-07 1.97861E-06
 -1     13688-1.34683E-01 2.77478E-01 2.33352E-03-2.83646E-01-2.38131E-06-4.67359E-06
 -1     13693-1.22530E-01 2.66592E-01 2.59508E-03-2.67790E-01-9.85432E-07-1.93402E-06
 -1     13694-1.68337E-01 2.98342E-01-6.04495E-04-2.33339E-01-1.19108E-06-2.87551E-06
 -1     13695-1.34875E-01 2.77286E-01 1.88384E-03-2.83646E-01 1.72375E-06 3.38305E-06
 -1     13700-1.22781E-01 2.66340E-01 2.00903E-03-2.67790E-01 4.98236E-06 9.77844E-06
 -1     13701-1.68214E-01 2.98465E-01-3.15857E-04-2.33339E-01-6.90455E-06-1.66691E-05
 -1     13702-1.35203E-01 2.76957E-01 1.11689E-03-2.83645E-01 1.55503E-05 3.05191E-05
 -1     13707-1.23267E-01 2.65854E-01 8.80970E-04-2.67789E-01 2.46567E-05 4.83916E-05
 -1     13711-3.09930E-02 1.73580E-01 8.80970E-04-3.14805E-01-3.19233E-05-4.39386E-05
 -1     13712-8.46875E-02 2.14939E-01-3.15857E-04-2.94025E-01 9.42716E-06 1.53837E-05
 -1     13713-3.74658E-02 1.79220E-01 1.11689E-03-3.33445E-01-2.01331E-05-2.77108E-05
 -1     13718-3.05071E-02 1.74066E-01 2.00903E-03-3.14806E-01-6.45071E-06-8.87864E-06
 -1     13719-8.48105E-02 2.14815E-01-6.04495E-04-2.94024E-01 1.62624E-06 2.65378E-06
 -1     13720-3.71374E-02 1.79549E-01 1.88384E-03-3.33446E-01-2.23176E-06-3.07175E-06
 -1     13725-3.02559E-02 1.74317E-01 2.59508E-03-3.14806E-01 1.27585E-06 1.75605E-06
 -1     13726-8.48961E-02 2.14730E-01-8.05192E-04-2.94024E-01-1.11900E-06-1.82605E-06
 -1     13727-3.69457E-02 1.79741E-01 2.33352E-03-3.33446E-01 3.08311E-06 4.24353E-06
 -1     13732-3.01213E-02 1.74452E-01 2.91108E-03-3.14806E-01 3.13121E-06 4.30974E-06
 -1     13733-8.49443E-02 2.14681E-01-9.18669E-04-2.94024E-01-1.19806E-06-1.95505E-06
 -1     13734-3.68430E-02 1.79844E-01 2.57510E-03-3.33446E-01 3.03972E-06 4.18381E-06
 -1     13739-3.00547E-02 1.74519E-01 3.06775E-03-3.14806E-01 2.04052E-06 2.80854E-06
 -1     13740-8.49656E-02 2.14660E-01-9.68842E-04-2.94024E-01-4.74050E-07-7.73580E-07
 -1     13741-3.67986E-02 1.79888E-01 2.67976E-03-3.33446E-01 1.16754E-06 1.60697E-06
 -1     13746-3.00347E-02 1.74539E-01 3.11510E-03-3.14806E-01-6.51050E-16 2.73057E-14
 -1     13747-8.49656E-02 2.14660E-01-9.68842E-04-2.94024E-01 4.74050E-07 7.73580E-07
 -1     13748-3.67986E-02 1.79888E-01 2.67976E-03-3.33446E-01-1.16754E-06-1.60697E-06
 -1     13753-3.00547E-02 1.74519E-01 3.06775E-03-3.14806E-01-2.04052E-06-2.80854E-06
 -1     13754-8.49443E-02 2.14681E-01-9.18669E-04-2.94024E-01 1.19806E-06 1.95505E-06
 -1     13755-3.68430E-02 1.79844E-01 2.57510E-03-3.33446E-01-3.03972E-06-4.18381E-06
 -1     13760-3.01213E-02 1.74452E-01 2.91108E-03-3.14806E-01-3.13121E-06-4.30974E-06
 -1     13761-8.48961E-02 2.14730E-01-8.05192E-04-2.94024E-01 1.11900E-06 1.82605E-06
 -1     13762-3.69457E-02 1.79741E-01 2.33352E-03-3.33446E-01-3.08311E-06-4.24353E-06
 -1     13767-3.02559E-02 1.74317E-01 2.59508E-03-3.14806E-01-1.27585E-06-1.75605E-06
 -1     13768-8.48105E-02 2.14815E-01-6.04495E-04-2.94024E-01-1.62624E-06-2.65378E-06
 -1     13769-3.71374E-02 1.79549E-01 1.88384E-03-3.33446E-01 2.23176E-06 3.07175E-06
 -1     13774-3.05071E-02 1.74066E-01 2.00903E-03-3.14806E-01 6.45071E-06 8.87864E-06
 -1     13775-8.46875E-02 2.14939E-01-3.15857E-04-2.94025E-01-9.42716E-06-1.53837E-05
 -1     13776-3.74658E-02 1.79220E-01 1.11689E-03-3.33445E-01 2.01331E-05 2.77108E-05
 -1     13781-3.09930E-02 1.73580E-01 8.80970E-04-3.14805E-01 3.19233E-05 4.39386E-05
 -1     13785 7.12934E-02 7.12934E-02 8.80970E-04-3.31006E-01-3.84038E-05-3.84038E-05
 -1     13786 1.35036E-02 1.16748E-01-3.15857E-04-3.25929E-01 1.17176E-05 1.37196E-05
 -1     13787 7.08770E-02 7.08770E-02 1.11689E-03-3.50605E-01-2.42201E-05-2.42201E-05
 -1     13792 7.17795E-02 7.17795E-02 2.00903E-03-3.31006E-01-7.76021E-06-7.76021E-06
 -1     13793 1.33804E-02 1.16624E-01-6.04495E-04-3.25929E-01 2.02136E-06 2.36671E-06
 -1     13794 7.12056E-02 7.12056E-02 1.88384E-03-3.50606E-01-2.68481E-06-2.68481E-06
 -1     13799 7.20308E-02 7.20308E-02 2.59508E-03-3.31007E-01 1.53485E-06 1.53485E-06
 -1     13800 1.32948E-02 1.16539E-01-8.05192E-04-3.25928E-01-1.39088E-06-1.62851E-06
 -1     13801 7.13975E-02 7.13975E-02 2.33352E-03-3.50606E-01 3.70898E-06 3.70898E-06
 -1     13806 7.21655E-02 7.21654E-02 2.91108E-03-3.31007E-01 3.76685E-06 3.76685E-06
 -1     13807 1.32465E-02 1.16490E-01-9.18669E-04-3.25928E-01-1.48915E-06-1.74357E-06
 -1     13808 7.15003E-02 7.15003E-02 2.57510E-03-3.50606E-01 3.65678E-06 3.65678E-06
 -1     13813 7.22321E-02 7.22321E-02 3.06775E-03-3.31007E-01 2.45475E-06 2.45475E-06
 -1     13814 1.32252E-02 1.16469E-01-9.68842E-04-3.25928E-01-5.89229E-07-6.89898E-07
 -1     13815 7.15447E-02 7.15447E-02 2.67976E-03-3.50606E-01 1.40455E-06 1.40455E-06
 -1     13820 7.22521E-02 7.22521E-02 3.11510E-03-3.31007E-01-3.03145E-14-1.21525E-16
 -1     13821 1.32252E-02 1.16469E-01-9.68842E-04-3.25928E-01 5.89229E-07 6.89898E-07
 -1     13822 7.15447E-02 7.15447E-02 2.67976E-03-3.50606E-01-1.40455E-06-1.40455E-06
 -1     13827 7.22321E-02 7.22321E-02 3.06775E-03-3.31007E-01-2.45475E-06-2.45475E-06
 -1     13828 1.32465E-02 1.16490E-01-9.18669E-04-3.25928E-01 1.48915E-06 1.74357E-06
 -1     13829 7.15003E-02 7.15003E-02 2.57510E-03-3.50606E-01-3.65678E-06-3.65678E-06
 -1     13834 7.21655E-02 7.21654E-02 2.91108E-03-3.31007E-01-3.76685E-06-3.76685E-06
 -1     13835 1.32948E-02 1.16539E-01-8.05192E-04-3.25928E-01 1.39088E-06 1.62851E-06
 -1     13836 7.13975E-02 7.13975E-02 2.33352E-03-3.50606E-01-3.70898E-06-3.70898E-06
 -1     13841 7.20308E-02 7.20308E-02 2.59508E-03-3.31007E-01-1.53485E-06-1.53485E-06
 -1     13842 1.33804E-02 1.16624E-01-6.04495E-04-3.25929E-01-2.02136E-06-2.36671E-06
 -1     13843 7.12056E-02 7.12056E-02 1.88384E-03-3.50606E-01 2.68481E-06 2.68481E-06
 -1     13848 7.17795E-02 7.17795E-02 2.00903E-03-3.31006E-01 7.76021E-06 7.76021E-06
 -1     13849 1.35036E-02 1.16748E-01-3.15857E-04-3.25929E-01-1.17176E-05-1.37196E-05
 -1     13850 7.08770E-02 7.08770E-02 1.11689E-03-3.50605E-01 2.42201E-05 2.42201E-05
 -1     13855 7.12934E-02 7.12934E-02 8.80970E-04-3.31006E-01 3.84038E-05 3.84038E-05
 -1     13859 1.73580E-01-3.09930E-02 8.80970E-04-3.14805E-01-4.39386E-05-3.19233E-05
 -1     13860 1.16748E-01 1.35036E-02-3.15857E-04-3.25929E-01 1.37196E-05 1.17176E-05
 -1     13861 1.79220E-01-3.74658E-02 1.11689E-03-3.33445E-01-2.77108E-05-2.01331E-05
 -1     13866 1.74066E-01-3.05071E-02 2.00903E-03-3.14806E-01-8.87864E-06-6.45071E-06
 -1     13867 1.16624E-01 1.33804E-02-6.04495E-04-3.25929E-01 2.36671E-06 2.02136E-06
 -1     13868 1.79549E-01-3.71374E-02 1.88384E-03-3.33446E-01-3.07175E-06-2.23176E-06
 -1     13873 1.74317E-01-3.02559E-02 2.59508E-03-3.14806E-01 1.75605E-06 1.27585E-06
 -1     13874 1.16539E-01 1.32948E-02-8.05192E-04-3.25928E-01-1.62851E-06-1.39088E-06
 -1     13875 1.79741E-01-3.69457E-02 2.33352E-03-3.33446E-01 4.24353E-06 3.08311E-06
 -1     13880 1.74452E-01-3.01213E-02 2.91108E-03-3.14806E-01 4.30974E-06 3.13121E-06
 -1     13881 1.16490E-01 1.32465E-02-9.18669E-04-3.25928E-01-1.74357E-06-1.48915E-06
 -1     13882 1.79844E-01-3.68430E-02 2.57510E-03-3.33446E-01 4.18381E-06 3.03972E-06
 -1     13887 1.74519E-01-3.00547E-02 3.06775E-03-3.14806E-01 2.80854E-06 2.04052E-06
 -1     13888 1.16469E-01 1.32252E-02-9.68842E-04-3.25928E-01-6.89898E-07-5.89229E-07
 -1     13889 1.79888E-01-3.67986E-02 2.67976E-03-3.33446E-01 1.60697E-06 1.16754E-06
 -1     13894 1.74539E-01-3.00347E-02 3.11510E-03-3.14806E-01-7.13436E-15-3.69975E-15
 -1     13895 1.16469E-01 1.32252E-02-9.68842E-04-3.25928E-01 6.89898E-07 5.89229E-07
 -1     13896 1.79888E-01-3.67986E-02 2.67976E-03-3.33446E-01-1.60697E-06-1.16754E-06
 -1     13901 1.74519E-01-3.00547E-02 3.06775E-03-3.14806E-01-2.80854E-06-2.04052E-06
 -1     13902 1.16490E-01 1.32465E-02-9.18669E-04-3.25928E-01 1.74357E-06 1.48915E-06
 -1     13903 1.79844E-01-3.68430E-02 2.57510E-03-3.33446E-01-4.18381E-06-3.03972E-06
 -1     13908 1.74452E-01-3.01213E-02 2.91108E-03-3.14806E-01-4.30974E-06-3.13121E-06
 -1     13909 1.16539E-01 1.32948E-02-8.05192E-04-3.25928E-01 1.62851E-06 1.39088E-06
 -1     13910 1.79741E-01-3.69457E-02 2.33352E-03-3.33446E-01-4.24353E-06-3.08311E-06
 -1     13915 1.74317E-01-3.02559E-02 2.59508E-03-3.14806E-01-1.75605E-06-1.27585E-06
 -1     13916 1.16624E-01 1.33804E-02-6.04495E-04-3.25929E-01-2.36671E-06-2.02136E-06
 -1     13917 1.79549E-01-3.71374E-02 1.88384E-03-3.33446E-01 3.07175E-06 2.23176E-06
 -1     13922 1.74066E-01-3.05071E-02 2.00903E-03-3.14806E-01 8.87864E-06 6.45071E-06
 -1     13923 1.16748E-01 1.35036E-02-3.15857E-04-3.25929E-01-1.37196E-05-1.17176E-05
 -1     13924 1.79220E-01-3.74658E-02 1.11689E-03-3.33445E-01 2.77108E-05 2.01331E-05
 -1     13929 1.73580E-01-3.09930E-02 8.80970E-04-3.14805E-01 4.39386E-05 3.19233E-05
 -1     13933 2.65854E-01-1.23267E-01 8.80970E-04-2.67789E-01-4.83916E-05-2.46567E-05
 -1     13934 2.14939E-01-8.46875E-02-3.15857E-04-2.94025E-01 1.53837E-05 9.42716E-06
 -1     13935 2.76957E-01-1.35203E-01 1.11689E-03-2.83645E-01-3.05191E-05-1.55503E-05
 -1     13940 2.66340E-01-1.22781E-01 2.00903E-03-2.67790E-01-9.77844E-06-4.98236E-06
 -1     13941 2.14815E-01-8.48105E-02-6.04495E-04-2.94024E-01 2.65378E-06 1.62624E-06
 -1     13942 2.77286E-01-1.34875E-01 1.88384E-03-2.83646E-01-3.38305E-06-1.72375E-06
 -1     13947 2.66592E-01-1.22530E-01 2.59508E-03-2.67790E-01 1.93402E-06 9.85432E-07
 -1     13948 2.14730E-01-8.48961E-02-8.05192E-04-2.94024E-01-1.82605E-06-1.11900E-06
 -1     13949 2.77478E-01-1.34683E-01 2.33352E-03-2.83646E-01 4.67359E-06 2.38131E-06
 -1     13954 2.66726E-01-1.22396E-01 2.91108E-03-2.67790E-01 4.74651E-06 2.41847E-06
 -1     13955 2.14681E-01-8.49443E-02-9.18669E-04-2.94024E-01-1.95505E-06-1.19806E-06
 -1     13956 2.77581E-01-1.34581E-01 2.57510E-03-2.83646E-01 4.60782E-06 2.34780E-06
 -1     13961 2.66793E-01-1.22329E-01 3.06775E-03-2.67790E-01 3.09317E-06 1.57605E-06
 -1     13962 2.14660E-01-8.49656E-02-9.68842E-04-2.94024E-01-7.73580E-07-4.74050E-07
 -1     13963 2.77626E-01-1.34536E-01 2.67976E-03-2.83646E-01 1.76983E-06 9.01775E-07
 -1     13968 2.66813E-01-1.22309E-01 3.11510E-03-2.67790E-01-1.91062E-14 1.87231E-15
 -1     13969 2.14660E-01-8.49656E-02-9.68842E-04-2.94024E-01 7.73580E-07 4.74050E-07
 -1     13970 2.77626E-01-1.34536E-01 2.67976E-03-2.83646E-01-1.76983E-06-9.01775E-07
 -1     13975 2.66793E-01-1.22329E-01 3.06775E-03-2.67790E-01-3.09317E-06-1.57605E-06
 -1     13976 2.14681E-01-8.49443E-02-9.18669E-04-2.94024E-01 1.95505E-06 1.19806E-06
 -1     13977 2.77581E-01-1.34581E-01 2.57510E-03-2.83646E-01-4.60782E-06-2.34780E-06
 -1     13982 2.66726E-01-1.22396E-01 2.91108E-03-2.67790E-01-4.74651E-06-2.41847E-06
 -1     13983 2.14730E-01-8.48961E-02-8.05192E-04-2.94024E-01 1.82605E-06 1.11900E-06
 -1     13984 2.77478E-01-1.34683E-01 2.33352E-03-2.83646E-01-4.67359E-06-2.38131E-06
 -1     13989 2.66592E-01-1.22530E-01 2.59508E-03-2.67790E-01-1.93402E-06-9.85432E-07
 -1     13990 2.14815E-01-8.48105E-02-6.04495E-04-2.94024E-01-2.65378E-06-1.62624E-06
 -1     13991 2.77286E-01-1.34875E-01 1.88384E-03-2.83646E-01 3.38305E-06 1.72375E-06
 -1     13996 2.66340E-01-1.22781E-01 2.00903E-03-2.67790E-01 9.77844E-06 4.98236E-06
 -1     13997 2.14939E-01-8.46875E-02-3.15857E-04-2.94025E-01-1.53837E-05-9.42716E-06
 -1     13998 2.76957E-01-1.35203E-01 1.11689E-03-2.83645E-01 3.05191E-05 1.55503E-05
 -1     14003 2.65854E-01-1.23267E-01 8.80970E-04-2.67789E-01 4.83916E-05 2.46567E-05
 -1     14007 3.39083E-01-1.96496E-01 8.80970E-04-1.94560E-01-5.16530E-05-1.67831E-05
 -1     14008 2.98465E-01-1.68214E-01-3.15857E-04-2.33339E-01 1.66691E-05 6.90455E-06
 -1     14009 3.54522E-01-2.12768E-01 1.11689E-03-2.06080E-01-3.25760E-05-1.05846E-05
 -1     14014 3.39569E-01-1.96010E-01 2.00903E-03-1.94561E-01-1.04375E-05-3.39134E-06
 -1     14015 2.98342E-01-1.68337E-01-6.04495E-04-2.33339E-01 2.87551E-06 1.19108E-06
 -1     14016 3.54851E-01-2.12440E-01 1.88384E-03-2.06081E-01-3.61106E-06-1.17330E-06
 -1     14021 3.39821E-01-1.95759E-01 2.59508E-03-1.94561E-01 2.06436E-06 6.70752E-07
 -1     14022 2.98256E-01-1.68422E-01-8.05192E-04-2.33339E-01-1.97861E-06-8.19569E-07
 -1     14023 3.55044E-01-2.12249E-01 2.33352E-03-2.06081E-01 4.98857E-06 1.62088E-06
 -1     14028 3.39956E-01-1.95625E-01 2.91108E-03-1.94561E-01 5.06640E-06 1.64617E-06
 -1     14029 2.98207E-01-1.68470E-01-9.18669E-04-2.33339E-01-2.11840E-06-8.77471E-07
 -1     14030 3.55147E-01-2.12146E-01 2.57510E-03-2.06081E-01 4.91836E-06 1.59807E-06
 -1     14035 3.40022E-01-1.95558E-01 3.06775E-03-1.94561E-01 3.30163E-06 1.07277E-06
 -1     14036 2.98186E-01-1.68492E-01-9.68842E-04-2.33339E-01-8.38214E-07-3.47199E-07
 -1     14037 3.55191E-01-2.12102E-01 2.67976E-03-2.06081E-01 1.88911E-06 6.13810E-07
 -1     14042 3.40043E-01-1.95538E-01 3.11510E-03-1.94561E-01-4.75082E-14-2.02087E-14
 -1     14043 2.98186E-01-1.68492E-01-9.68842E-04-2.33339E-01 8.38214E-07 3.47199E-07
 -1     14044 3.55191E-01-2.12102E-01 2.67976E-03-2.06081E-01-1.88911E-06-6.13810E-07
 -1     14049 3.40022E-01-1.95558E-01 3.06775E-03-1.94561E-01-3.30163E-06-1.07277E-06
 -1     14050 2.98207E-01-1.68470E-01-9.18669E-04-2.33339E-01 2.11840E-06 8.77471E-07
 -1     14051 3.55147E-01-2.12146E-01 2.57510E-03-2.06081E-01-4.91836E-06-1.59807E-06
 -1     14056 3.39956E-01-1.95625E-01 2.91108E-03-1.94561E-01-5.06640E-06-1.64617E-06
 -1     14057 2.98256E-01-1.68422E-01-8.05192E-04-2.33339E-01 1.97861E-06 8.19569E-07
 -1     14058 3.55044E-01-2.12249E-01 2.33352E-03-2.06081E-01-4.98857E-06-1.62088E-06
 -1     14063 3.39821E-01-1.95759E-01 2.59508E-03-1.94561E-01-2.06436E-06-6.70752E-07
 -1     14064 2.98342E-01-1.68337E-01-6.04495E-04-2.33339E-01-2.87551E-06-1.19108E-06
 -1     14065 3.54851E-01-2.12440E-01 1.88384E-03-2.06081E-01 3.61106E-06 1.17330E-06
 -1     14070 3.39569E-01-1.96010E-01 2.00903E-03-1.94561E-01 1.04375E-05 3.39134E-06
 -1     14071 2.98465E-01-1.68214E-01-3.15857E-04-2.33339E-01-1.66691E-05-6.90455E-06
 -1     14072 3.54522E-01-2.12768E-01 1.11689E-03-2.06080E-01 3.25760E-05 1.05846E-05
 -1     14077 3.39083E-01-1.96496E-01 8.80970E-04-1.94560E-01 5.16530E-05 1.67831E-05
 -1     14081 3.86099E-01-2.43512E-01 8.80970E-04-1.02286E-01-5.36425E-05-8.49614E-06
 -1     14082 3.59151E-01-2.28899E-01-3.15857E-04-1.49813E-01 1.75439E-05 4.21193E-06
 -1     14083 4.04322E-01-2.62568E-01 1.11689E-03-1.08343E-01-3.38307E-05-5.35826E-06
 -1     14088 3.86585E-01-2.43026E-01 2.00903E-03-1.02287E-01-1.08395E-05-1.71681E-06
 -1     14089 3.59027E-01-2.29022E-01-6.04495E-04-1.49813E-01 3.02643E-06 7.26583E-07
 -1     14090 4.04651E-01-2.62240E-01 1.88384E-03-1.08343E-01-3.75014E-06-5.93965E-07
 -1     14095 3.86837E-01-2.42775E-01 2.59508E-03-1.02287E-01 2.14388E-06 3.39556E-07
 -1     14096 3.58941E-01-2.29108E-01-8.05192E-04-1.49813E-01-2.08246E-06-4.99955E-07
 -1     14097 4.04844E-01-2.62049E-01 2.33352E-03-1.08343E-01 5.18072E-06 8.20544E-07
 -1     14102 3.86972E-01-2.42641E-01 2.91108E-03-1.02287E-01 5.26154E-06 8.33346E-07
 -1     14103 3.58893E-01-2.29156E-01-9.18669E-04-1.49813E-01-2.22959E-06-5.35277E-07
 -1     14104 4.04946E-01-2.61946E-01 2.57510E-03-1.08343E-01 5.10780E-06 8.08996E-07
 -1     14109 3.87038E-01-2.42574E-01 3.06775E-03-1.02287E-01 3.42880E-06 5.43069E-07
 -1     14110 3.58871E-01-2.29177E-01-9.68842E-04-1.49813E-01-8.82208E-07-2.11799E-07
 -1     14111 4.04991E-01-2.61902E-01 2.67976E-03-1.08343E-01 1.96187E-06 3.10730E-07
 -1     14116 3.87059E-01-2.42554E-01 3.11510E-03-1.02287E-01-2.90337E-15-9.27582E-16
 -1     14117 3.58871E-01-2.29177E-01-9.68842E-04-1.49813E-01 8.82208E-07 2.11799E-07
 -1     14118 4.04991E-01-2.61902E-01 2.67976E-03-1.08343E-01-1.96187E-06-3.10730E-07
 -1     14123 3.87038E-01-2.42574E-01 3.06775E-03-1.02287E-01-3.42880E-06-5.43069E-07
 -1     14124 3.58893E-01-2.29156E-01-9.18669E-04-1.49813E-01 2.22959E-06 5.35277E-07
 -1     14125 4.04946E-01-2.61946E-01 2.57510E-03-1.08343E-01-5.10780E-06-8.08996E-07
 -1     14130 3.86972E-01-2.42641E-01 2.91108E-03-1.02287E-01-5.26154E-06-8.33346E-07
 -1     14131 3.58941E-01-2.29108E-01-8.05192E-04-1.49813E-01 2.08246E-06 4.99955E-07
 -1     14132 4.04844E-01-2.62049E-01 2.33352E-03-1.08343E-01-5.18072E-06-8.20544E-07
 -1     14137 3.86837E-01-2.42775E-01 2.59508E-03-1.02287E-01-2.14388E-06-3.39556E-07
 -1     14138 3.59027E-01-2.29022E-01-6.04495E-04-1.49813E-01-3.02643E-06-7.26583E-07
 -1     14139 4.04651E-01-2.62240E-01 1.88384E-03-1.08343E-01 3.75014E-06 5.93965E-07
 -1     14144 3.86585E-01-2.43026E-01 2.00903E-03-1.02287E-01 1.08395E-05 1.71681E-06
 -1     14145 3.59151E-01-2.28899E-01-3.15857E-04-1.49813E-01-1.75439E-05-4.21193E-06
 -1     14146 4.04322E-01-2.62568E-01 1.11689E-03-1.08343E-01 3.38307E-05 5.35826E-06
 -1     14151 3.86099E-01-2.43512E-01 8.80970E-04-1.02286E-01 5.36425E-05 8.49614E-06
 -1     14155 3.91055E-01-2.60803E-01-3.15857E-04-5.16221E-02 1.79868E-05 1.41560E-06
 -1     14159 3.90931E-01-2.60926E-01-6.04495E-04-5.16220E-02 3.10284E-06 2.44199E-07
 -1     14163 3.90845E-01-2.61012E-01-8.05192E-04-5.16220E-02-2.13503E-06-1.68031E-07
 -1     14167 3.90797E-01-2.61060E-01-9.18669E-04-5.16220E-02-2.28587E-06-1.79902E-07
 -1     14171 3.90776E-01-2.61081E-01-9.68842E-04-5.16220E-02-9.04479E-07-7.11840E-08
 -1     14175 3.90776E-01-2.61081E-01-9.68842E-04-5.16220E-02 9.04479E-07 7.11840E-08
 -1     14179 3.90797E-01-2.61060E-01-9.18669E-04-5.16220E-02 2.28587E-06 1.79902E-07
 -1     14183 3.90845E-01-2.61012E-01-8.05192E-04-5.16220E-02 2.13503E-06 1.68031E-07
 -1     14187 3.90931E-01-2.60926E-01-6.04495E-04-5.16220E-02-3.10284E-06-2.44199E-07
 -1     14191 3.91055E-01-2.60803E-01-3.15857E-04-5.16221E-02-1.79868E-05-1.41560E-06
 -1     14197-2.11807E-01 3.53318E-01 7.43605E-04-9.18101E-02-7.94793E-06-5.01812E-05
 -1     14198-2.27308E-01 3.57785E-01-2.87027E-04-4.63349E-02 1.33558E-06 1.69701E-05
 -1     14199-2.27913E-01 3.68803E-01 9.66631E-04-9.69425E-02-5.12560E-06-3.23618E-05
 -1     14204-2.11389E-01 3.53736E-01 1.71383E-03-9.18102E-02-1.95011E-06-1.23125E-05
 -1     14205-2.27419E-01 3.57674E-01-5.47199E-04-4.63348E-02 2.86074E-07 3.63492E-06
 -1     14206-2.27624E-01 3.69094E-01 1.64195E-03-9.69427E-02-8.40433E-07-5.30628E-06
 -1     14211-2.11166E-01 3.53960E-01 2.23429E-03-9.18103E-02 5.58899E-08 3.52876E-07
 -1     14212-2.27497E-01 3.57596E-01-7.29277E-04-4.63348E-02-1.03493E-07-1.31500E-06
 -1     14213-2.27452E-01 3.69267E-01 2.04712E-03-9.69428E-02 5.47973E-07 3.45977E-06
 -1     14218-2.11044E-01 3.54083E-01 2.52221E-03-9.18104E-02 6.15173E-07 3.88405E-06
 -1     14219-2.27541E-01 3.57551E-01-8.33849E-04-4.63348E-02-1.38917E-07-1.76511E-06
 -1     14220-2.27357E-01 3.69362E-01 2.26946E-03-9.69429E-02 6.40904E-07 4.04651E-06
 -1     14225-2.10982E-01 3.54145E-01 2.66770E-03-9.18104E-02 4.35258E-07 2.74811E-06
 -1     14226-2.27561E-01 3.57531E-01-8.80650E-04-4.63348E-02-5.73861E-08-7.29159E-07
 -1     14227-2.27316E-01 3.69403E-01 2.36723E-03-9.69429E-02 2.55659E-07 1.61417E-06
 -1     14232-2.10963E-01 3.54164E-01 2.71212E-03-9.18104E-02 4.84448E-15 1.94841E-14
 -1     14233-2.27561E-01 3.57531E-01-8.80650E-04-4.63348E-02 5.73861E-08 7.29159E-07
 -1     14234-2.27316E-01 3.69403E-01 2.36723E-03-9.69429E-02-2.55659E-07-1.61417E-06
 -1     14239-2.10982E-01 3.54145E-01 2.66770E-03-9.18104E-02-4.35258E-07-2.74811E-06
 -1     14240-2.27541E-01 3.57551E-01-8.33849E-04-4.63348E-02 1.38917E-07 1.76511E-06
 -1     14241-2.27357E-01 3.69362E-01 2.26946E-03-9.69429E-02-6.40904E-07-4.04651E-06
 -1     14246-2.11044E-01 3.54083E-01 2.52221E-03-9.18104E-02-6.15173E-07-3.88405E-06
 -1     14247-2.27497E-01 3.57596E-01-7.29277E-04-4.63348E-02 1.03493E-07 1.31500E-06
 -1     14248-2.27452E-01 3.69267E-01 2.04712E-03-9.69428E-02-5.47973E-07-3.45977E-06
 -1     14253-2.11166E-01 3.53960E-01 2.23429E-03-9.18103E-02-5.58899E-08-3.52876E-07
 -1     14254-2.27419E-01 3.57674E-01-5.47199E-04-4.63348E-02-2.86074E-07-3.63492E-06
 -1     14255-2.27624E-01 3.69094E-01 1.64195E-03-9.69427E-02 8.40433E-07 5.30628E-06
 -1     14260-2.11389E-01 3.53736E-01 1.71383E-03-9.18102E-02 1.95011E-06 1.23125E-05
 -1     14261-2.27308E-01 3.57785E-01-2.87027E-04-4.63349E-02-1.33558E-06-1.69701E-05
 -1     14262-2.27913E-01 3.68803E-01 9.66631E-04-9.69425E-02 5.12560E-06 3.23618E-05
 -1     14267-2.11807E-01 3.53318E-01 7.43605E-04-9.18101E-02 7.94793E-06 5.01812E-05
 -1     14271-1.69607E-01 3.11117E-01 7.43605E-04-1.74633E-01-1.57001E-05-4.83201E-05
 -1     14272-1.98672E-01 3.29149E-01-2.87027E-04-1.34469E-01 3.97385E-06 1.65523E-05
 -1     14273-1.83354E-01 3.24244E-01 9.66631E-04-1.84396E-01-1.01250E-05-3.11615E-05
 -1     14278-1.69189E-01 3.11536E-01 1.71383E-03-1.74633E-01-3.85219E-06-1.18558E-05
 -1     14279-1.98783E-01 3.29037E-01-5.47199E-04-1.34469E-01 8.51178E-07 3.54541E-06
 -1     14280-1.83065E-01 3.24534E-01 1.64195E-03-1.84396E-01-1.66017E-06-5.10948E-06
 -1     14285-1.68966E-01 3.11759E-01 2.23429E-03-1.74634E-01 1.10404E-07 3.39788E-07
 -1     14286-1.98861E-01 3.28959E-01-7.29277E-04-1.34469E-01-3.07931E-07-1.28262E-06
 -1     14287-1.82892E-01 3.24707E-01 2.04712E-03-1.84396E-01 1.08245E-06 3.33145E-06
 -1     14292-1.68843E-01 3.11882E-01 2.52221E-03-1.74634E-01 1.21520E-06 3.74000E-06
 -1     14293-1.98905E-01 3.28915E-01-8.33849E-04-1.34469E-01-4.13330E-07-1.72164E-06
 -1     14294-1.82797E-01 3.24802E-01 2.26946E-03-1.84396E-01 1.26603E-06 3.89643E-06
 -1     14299-1.68781E-01 3.11944E-01 2.66770E-03-1.74634E-01 8.59799E-07 2.64619E-06
 -1     14300-1.98925E-01 3.28895E-01-8.80650E-04-1.34469E-01-1.70745E-07-7.11205E-07
 -1     14301-1.82756E-01 3.24844E-01 2.36723E-03-1.84396E-01 5.05023E-07 1.55430E-06
 -1     14306-1.68763E-01 3.11963E-01 2.71212E-03-1.74634E-01-9.72384E-15 2.97274E-14
 -1     14307-1.98925E-01 3.28895E-01-8.80650E-04-1.34469E-01 1.70745E-07 7.11205E-07
 -1     14308-1.82756E-01 3.24844E-01 2.36723E-03-1.84396E-01-5.05023E-07-1.55430E-06
 -1     14313-1.68781E-01 3.11944E-01 2.66770E-03-1.74634E-01-8.59799E-07-2.64619E-06
 -1     14314-1.98905E-01 3.28915E-01-8.33849E-04-1.34469E-01 4.13330E-07 1.72164E-06
 -1     14315-1.82797E-01 3.24802E-01 2.26946E-03-1.84396E-01-1.26603E-06-3.89643E-06
 -1     14320-1.68843E-01 3.11882E-01 2.52221E-03-1.74634E-01-1.21520E-06-3.74000E-06
 -1     14321-1.98861E-01 3.28959E-01-7.29277E-04-1.34469E-01 3.07931E-07 1.28262E-06
 -1     14322-1.82892E-01 3.24707E-01 2.04712E-03-1.84396E-01-1.08245E-06-3.33145E-06
 -1     14327-1.68966E-01 3.11759E-01 2.23429E-03-1.74634E-01-1.10404E-07-3.39788E-07
 -1     14328-1.98783E-01 3.29037E-01-5.47199E-04-1.34469E-01-8.51178E-07-3.54541E-06
 -1     14329-1.83065E-01 3.24534E-01 1.64195E-03-1.84396E-01 1.66017E-06 5.10948E-06
 -1     14334-1.69189E-01 3.11536E-01 1.71383E-03-1.74633E-01 3.85219E-06 1.18558E-05
 -1     14335-1.98672E-01 3.29149E-01-2.87027E-04-1.34469E-01-3.97385E-06-1.65523E-05
 -1     14336-1.83354E-01 3.24244E-01 9.66631E-04-1.84396E-01 1.01250E-05 3.11615E-05
 -1     14341-1.69607E-01 3.11117E-01 7.43605E-04-1.74633E-01 1.57001E-05 4.83201E-05
 -1     14345-1.03878E-01 2.45388E-01 7.43605E-04-2.40362E-01-2.30658E-05-4.52691E-05
 -1     14346-1.44202E-01 2.74679E-01-2.87027E-04-2.09440E-01 6.51427E-06 1.57268E-05
 -1     14347-1.13951E-01 2.54841E-01 9.66631E-04-2.53799E-01-1.48751E-05-2.91940E-05
 -1     14352-1.03460E-01 2.45807E-01 1.71383E-03-2.40362E-01-5.65943E-06-1.11073E-05
 -1     14353-1.44313E-01 2.74567E-01-5.47199E-04-2.09440E-01 1.39532E-06 3.36861E-06
 -1     14354-1.13661E-01 2.55131E-01 1.64195E-03-2.53799E-01-2.43903E-06-4.78687E-06
 -1     14359-1.03237E-01 2.46030E-01 2.23429E-03-2.40363E-01 1.62199E-07 3.18334E-07
 -1     14360-1.44391E-01 2.74489E-01-7.29277E-04-2.09440E-01-5.04786E-07-1.21866E-06
 -1     14361-1.13488E-01 2.55304E-01 2.04712E-03-2.53800E-01 1.59028E-06 3.12110E-06
 -1     14366-1.03114E-01 2.46153E-01 2.52221E-03-2.40363E-01 1.78530E-06 3.50385E-06
 -1     14367-1.44435E-01 2.74445E-01-8.33849E-04-2.09440E-01-6.77565E-07-1.63579E-06
 -1     14368-1.13394E-01 2.55399E-01 2.26946E-03-2.53800E-01 1.85998E-06 3.65041E-06
 -1     14373-1.03052E-01 2.46215E-01 2.66770E-03-2.40363E-01 1.26317E-06 2.47911E-06
 -1     14374-1.44455E-01 2.74425E-01-8.80650E-04-2.09440E-01-2.79900E-07-6.75738E-07
 -1     14375-1.13352E-01 2.55440E-01 2.36723E-03-2.53800E-01 7.41951E-07 1.45616E-06
 -1     14380-1.03033E-01 2.46234E-01 2.71212E-03-2.40363E-01-2.42563E-15 2.05514E-14
 -1     14381-1.44455E-01 2.74425E-01-8.80650E-04-2.09440E-01 2.79900E-07 6.75738E-07
 -1     14382-1.13352E-01 2.55440E-01 2.36723E-03-2.53800E-01-7.41951E-07-1.45616E-06
 -1     14387-1.03052E-01 2.46215E-01 2.66770E-03-2.40363E-01-1.26317E-06-2.47911E-06
 -1     14388-1.44435E-01 2.74445E-01-8.33849E-04-2.09440E-01 6.77565E-07 1.63579E-06
 -1     14389-1.13394E-01 2.55399E-01 2.26946E-03-2.53800E-01-1.85998E-06-3.65041E-06
 -1     14394-1.03114E-01 2.46153E-01 2.52221E-03-2.40363E-01-1.78530E-06-3.50385E-06
 -1     14395-1.44391E-01 2.74489E-01-7.29277E-04-2.09440E-01 5.04786E-07 1.21866E-06
 -1     14396-1.13488E-01 2.55304E-01 2.04712E-03-2.53800E-01-1.59028E-06-3.12110E-06
 -1     14401-1.03237E-01 2.46030E-01 2.23429E-03-2.40363E-01-1.62199E-07-3.18334E-07
 -1     14402-1.44313E-01 2.74567E-01-5.47199E-04-2.09440E-01-1.39532E-06-3.36861E-06
 -1     14403-1.13661E-01 2.55131E-01 1.64195E-03-2.53799E-01 2.43903E-06 4.78687E-06
 -1     14408-1.03460E-01 2.45807E-01 1.71383E-03-2.40362E-01 5.65943E-06 1.11073E-05
 -1     14409-1.44202E-01 2.74679E-01-2.87027E-04-2.09440E-01-6.51427E-06-1.57268E-05
 -1     14410-1.13951E-01 2.54841E-01 9.66631E-04-2.53799E-01 1.48751E-05 2.91940E-05
 -1     14415-1.03878E-01 2.45388E-01 7.43605E-04-2.40362E-01 2.30658E-05 4.52691E-05
 -1     14419-2.10548E-02 1.62565E-01 7.43605E-04-2.82562E-01-2.98635E-05-4.11035E-05
 -1     14420-6.92306E-02 1.99707E-01-2.87027E-04-2.63910E-01 8.89428E-06 1.45142E-05
 -1     14421-2.64974E-02 1.67388E-01 9.66631E-04-2.98358E-01-1.92589E-05-2.65076E-05
 -1     14426-2.06367E-02 1.62984E-01 1.71383E-03-2.82563E-01-7.32731E-06-1.00852E-05
 -1     14427-6.93417E-02 1.99596E-01-5.47199E-04-2.63910E-01 1.90511E-06 3.10886E-06
 -1     14428-2.62080E-02 1.67677E-01 1.64195E-03-2.98359E-01-3.15783E-06-4.34639E-06
 -1     14433-2.04135E-02 1.63207E-01 2.23429E-03-2.82563E-01 2.10001E-07 2.89041E-07
 -1     14434-6.94195E-02 1.99518E-01-7.29277E-04-2.63910E-01-6.89212E-07-1.12469E-06
 -1     14435-2.60351E-02 1.67851E-01 2.04712E-03-2.98359E-01 2.05895E-06 2.83390E-06
 -1     14440-2.02908E-02 1.63330E-01 2.52221E-03-2.82563E-01 2.31145E-06 3.18143E-06
 -1     14441-6.94639E-02 1.99474E-01-8.33849E-04-2.63910E-01-9.25117E-07-1.50965E-06
 -1     14442-2.59406E-02 1.67945E-01 2.26946E-03-2.98359E-01 2.40813E-06 3.31450E-06
 -1     14447-2.02289E-02 1.63392E-01 2.66770E-03-2.82563E-01 1.63543E-06 2.25098E-06
 -1     14448-6.94838E-02 1.99454E-01-8.80650E-04-2.63910E-01-3.82163E-07-6.23633E-07
 -1     14449-2.58990E-02 1.67987E-01 2.36723E-03-2.98360E-01 9.60610E-07 1.32217E-06
 -1     14454-2.02101E-02 1.63411E-01 2.71212E-03-2.82564E-01 5.35331E-15-1.10525E-14
 -1     14455-6.94838E-02 1.99454E-01-8.80650E-04-2.63910E-01 3.82163E-07 6.23633E-07
 -1     14456-2.58990E-02 1.67987E-01 2.36723E-03-2.98360E-01-9.60610E-07-1.32217E-06
 -1     14461-2.02289E-02 1.63392E-01 2.66770E-03-2.82563E-01-1.63543E-06-2.25098E-06
 -1     14462-6.94639E-02 1.99474E-01-8.33849E-04-2.63910E-01 9.25117E-07 1.50965E-06
 -1     14463-2.59406E-02 1.67945E-01 2.26946E-03-2.98359E-01-2.40813E-06-3.31450E-06
 -1     14468-2.02908E-02 1.63330E-01 2.52221E-03-2.82563E-01-2.31145E-06-3.18143E-06
 -1     14469-6.94195E-02 1.99518E-01-7.29277E-04-2.63910E-01 6.89212E-07 1.12469E-06
 -1     14470-2.60351E-02 1.67851E-01 2.04712E-03-2.98359E-01-2.05895E-06-2.83390E-06
 -1     14475-2.04135E-02 1.63207E-01 2.23429E-03-2.82563E-01-2.10001E-07-2.89041E-07
 -1     14476-6.93417E-02 1.99596E-01-5.47199E-04-2.63910E-01-1.90511E-06-3.10886E-06
 -1     14477-2.62080E-02 1.67677E-01 1.64195E-03-2.98359E-01 3.15783E-06 4.34639E-06
 -1     14482-2.06367E-02 1.62984E-01 1.71383E-03-2.82563E-01 7.32731E-06 1.00852E-05
 -1     14483-6.92306E-02 1.99707E-01-2.87027E-04-2.63910E-01-8.89428E-06-1.45142E-05
 -1     14484-2.64974E-02 1.67388E-01 9.66631E-04-2.98358E-01 1.92589E-05 2.65076E-05
 -1     14489-2.10548E-02 1.62565E-01 7.43605E-04-2.82562E-01 2.98635E-05 4.11035E-05
 -1     14493 7.07553E-02 7.07553E-02 7.43605E-04-2.97104E-01-3.59258E-05-3.59258E-05
 -1     14494 1.89035E-02 1.11573E-01-2.87027E-04-2.92547E-01 1.10553E-05 1.29441E-05
 -1     14495 7.04451E-02 7.04451E-02 9.66631E-04-3.13713E-01-2.31685E-05-2.31685E-05
 -1     14500 7.11736E-02 7.11736E-02 1.71383E-03-2.97104E-01-8.81477E-06-8.81477E-06
 -1     14501 1.87923E-02 1.11462E-01-5.47199E-04-2.92546E-01 2.36799E-06 2.77256E-06
 -1     14502 7.07347E-02 7.07347E-02 1.64195E-03-3.13713E-01-3.79888E-06-3.79888E-06
 -1     14507 7.13968E-02 7.13968E-02 2.23429E-03-2.97104E-01 2.52631E-07 2.52630E-07
 -1     14508 1.87145E-02 1.11384E-01-7.29277E-04-2.92546E-01-8.56668E-07-1.00303E-06
 -1     14509 7.09077E-02 7.09077E-02 2.04712E-03-3.13714E-01 2.47692E-06 2.47692E-06
 -1     14514 7.15196E-02 7.15196E-02 2.52221E-03-2.97105E-01 2.78067E-06 2.78067E-06
 -1     14515 1.86701E-02 1.11340E-01-8.33849E-04-2.92546E-01-1.14989E-06-1.34635E-06
 -1     14516 7.10023E-02 7.10023E-02 2.26946E-03-3.13714E-01 2.89698E-06 2.89698E-06
 -1     14521 7.15815E-02 7.15815E-02 2.66770E-03-2.97105E-01 1.96743E-06 1.96743E-06
 -1     14522 1.86502E-02 1.11320E-01-8.80650E-04-2.92546E-01-4.75015E-07-5.56172E-07
 -1     14523 7.10439E-02 7.10439E-02 2.36723E-03-3.13714E-01 1.15562E-06 1.15562E-06
 -1     14528 7.16004E-02 7.16004E-02 2.71212E-03-2.97105E-01 1.21976E-14-1.59060E-14
 -1     14529 1.86502E-02 1.11320E-01-8.80650E-04-2.92546E-01 4.75015E-07 5.56172E-07
 -1     14530 7.10439E-02 7.10439E-02 2.36723E-03-3.13714E-01-1.15562E-06-1.15562E-06
 -1     14535 7.15815E-02 7.15815E-02 2.66770E-03-2.97105E-01-1.96743E-06-1.96743E-06
 -1     14536 1.86701E-02 1.11340E-01-8.33849E-04-2.92546E-01 1.14989E-06 1.34635E-06
 -1     14537 7.10023E-02 7.10023E-02 2.26946E-03-3.13714E-01-2.89698E-06-2.89698E-06
 -1     14542 7.15196E-02 7.15196E-02 2.52221E-03-2.97105E-01-2.78067E-06-2.78067E-06
 -1     14543 1.87145E-02 1.11384E-01-7.29277E-04-2.92546E-01 8.56668E-07 1.00303E-06
 -1     14544 7.09077E-02 7.09077E-02 2.04712E-03-3.13714E-01-2.47692E-06-2.47692E-06
 -1     14549 7.13968E-02 7.13968E-02 2.23429E-03-2.97104E-01-2.52631E-07-2.52630E-07
 -1     14550 1.87923E-02 1.11462E-01-5.47199E-04-2.92546E-01-2.36799E-06-2.77256E-06
 -1     14551 7.07347E-02 7.07347E-02 1.64195E-03-3.13713E-01 3.79888E-06 3.79888E-06
 -1     14556 7.11736E-02 7.11736E-02 1.71383E-03-2.97104E-01 8.81477E-06 8.81477E-06
 -1     14557 1.89035E-02 1.11573E-01-2.87027E-04-2.92547E-01-1.10553E-05-1.29441E-05
 -1     14558 7.04451E-02 7.04451E-02 9.66631E-04-3.13713E-01 2.31685E-05 2.31685E-05
 -1     14563 7.07553E-02 7.07553E-02 7.43605E-04-2.97104E-01 3.59258E-05 3.59258E-05
 -1     14567 1.62565E-01-2.10548E-02 7.43605E-04-2.82562E-01-4.11035E-05-2.98635E-05
 -1     14568 1.11573E-01 1.89035E-02-2.87027E-04-2.92547E-01 1.29441E-05 1.10553E-05
 -1     14569 1.67388E-01-2.64974E-02 9.66631E-04-2.98358E-01-2.65076E-05-1.92589E-05
 -1     14574 1.62984E-01-2.06367E-02 1.71383E-03-2.82563E-01-1.00852E-05-7.32731E-06
 -1     14575 1.11462E-01 1.87923E-02-5.47199E-04-2.92546E-01 2.77256E-06 2.36799E-06
 -1     14576 1.67677E-01-2.62080E-02 1.64195E-03-2.98359E-01-4.34639E-06-3.15783E-06
 -1     14581 1.63207E-01-2.04135E-02 2.23429E-03-2.82563E-01 2.89041E-07 2.10000E-07
 -1     14582 1.11384E-01 1.87145E-02-7.29277E-04-2.92546E-01-1.00303E-06-8.56668E-07
 -1     14583 1.67851E-01-2.60351E-02 2.04712E-03-2.98359E-01 2.83390E-06 2.05895E-06
 -1     14588 1.63330E-01-2.02908E-02 2.52221E-03-2.82563E-01 3.18143E-06 2.31145E-06
 -1     14589 1.11340E-01 1.86701E-02-8.33849E-04-2.92546E-01-1.34635E-06-1.14989E-06
 -1     14590 1.67945E-01-2.59406E-02 2.26946E-03-2.98359E-01 3.31450E-06 2.40813E-06
 -1     14595 1.63392E-01-2.02289E-02 2.66770E-03-2.82563E-01 2.25098E-06 1.63543E-06
 -1     14596 1.11320E-01 1.86502E-02-8.80650E-04-2.92546E-01-5.56172E-07-4.75015E-07
 -1     14597 1.67987E-01-2.58990E-02 2.36723E-03-2.98360E-01 1.32217E-06 9.60610E-07
 -1     14602 1.63411E-01-2.02101E-02 2.71212E-03-2.82564E-01-4.00946E-15-1.70093E-14
 -1     14603 1.11320E-01 1.86502E-02-8.80650E-04-2.92546E-01 5.56172E-07 4.75015E-07
 -1     14604 1.67987E-01-2.58990E-02 2.36723E-03-2.98360E-01-1.32217E-06-9.60610E-07
 -1     14609 1.63392E-01-2.02289E-02 2.66770E-03-2.82563E-01-2.25098E-06-1.63543E-06
 -1     14610 1.11340E-01 1.86701E-02-8.33849E-04-2.92546E-01 1.34635E-06 1.14989E-06
 -1     14611 1.67945E-01-2.59406E-02 2.26946E-03-2.98359E-01-3.31450E-06-2.40813E-06
 -1     14616 1.63330E-01-2.02908E-02 2.52221E-03-2.82563E-01-3.18143E-06-2.31145E-06
 -1     14617 1.11384E-01 1.87145E-02-7.29277E-04-2.92546E-01 1.00303E-06 8.56668E-07
 -1     14618 1.67851E-01-2.60351E-02 2.04712E-03-2.98359E-01-2.83390E-06-2.05895E-06
 -1     14623 1.63207E-01-2.04135E-02 2.23429E-03-2.82563E-01-2.89041E-07-2.10000E-07
 -1     14624 1.11462E-01 1.87923E-02-5.47199E-04-2.92546E-01-2.77256E-06-2.36799E-06
 -1     14625 1.67677E-01-2.62080E-02 1.64195E-03-2.98359E-01 4.34639E-06 3.15783E-06
 -1     14630 1.62984E-01-2.06367E-02 1.71383E-03-2.82563E-01 1.00852E-05 7.32731E-06
 -1     14631 1.11573E-01 1.89035E-02-2.87027E-04-2.92547E-01-1.29441E-05-1.10553E-05
 -1     14632 1.67388E-01-2.64974E-02 9.66631E-04-2.98358E-01 2.65076E-05 1.92589E-05
 -1     14637 1.62565E-01-2.10548E-02 7.43605E-04-2.82562E-01 4.11035E-05 2.98635E-05
 -1     14641 2.45388E-01-1.03878E-01 7.43605E-04-2.40362E-01-4.52691E-05-2.30658E-05
 -1     14642 1.99707E-01-6.92306E-02-2.87027E-04-2.63910E-01 1.45142E-05 8.89428E-06
 -1     14643 2.54841E-01-1.13951E-01 9.66631E-04-2.53799E-01-2.91940E-05-1.48751E-05
 -1     14648 2.45807E-01-1.03460E-01 1.71383E-03-2.40362E-01-1.11073E-05-5.65943E-06
 -1     14649 1.99596E-01-6.93417E-02-5.47199E-04-2.63910E-01 3.10886E-06 1.90511E-06
 -1     14650 2.55131E-01-1.13661E-01 1.64195E-03-2.53799E-01-4.78687E-06-2.43903E-06
 -1     14655 2.46030E-01-1.03237E-01 2.23429E-03-2.40363E-01 3.18333E-07 1.62199E-07
 -1     14656 1.99518E-01-6.94195E-02-7.29277E-04-2.63910E-01-1.12469E-06-6.89212E-07
 -1     14657 2.55304E-01-1.13488E-01 2.04712E-03-2.53800E-01 3.12110E-06 1.59028E-06
 -1     14662 2.46153E-01-1.03114E-01 2.52221E-03-2.40363E-01 3.50385E-06 1.78530E-06
 -1     14663 1.99474E-01-6.94639E-02-8.33849E-04-2.63910E-01-1.50965E-06-9.25117E-07
 -1     14664 2.55399E-01-1.13394E-01 2.26946E-03-2.53800E-01 3.65041E-06 1.85998E-06
 -1     14669 2.46215E-01-1.03052E-01 2.66770E-03-2.40363E-01 2.47911E-06 1.26317E-06
 -1     14670 1.99454E-01-6.94838E-02-8.80650E-04-2.63910E-01-6.23633E-07-3.82163E-07
 -1     14671 2.55440E-01-1.13352E-01 2.36723E-03-2.53800E-01 1.45616E-06 7.41951E-07
 -1     14676 2.46234E-01-1.03033E-01 2.71212E-03-2.40363E-01-2.66479E-14 1.55662E-14
 -1     14677 1.99454E-01-6.94838E-02-8.80650E-04-2.63910E-01 6.23633E-07 3.82163E-07
 -1     14678 2.55440E-01-1.13352E-01 2.36723E-03-2.53800E-01-1.45616E-06-7.41951E-07
 -1     14683 2.46215E-01-1.03052E-01 2.66770E-03-2.40363E-01-2.47911E-06-1.26317E-06
 -1     14684 1.99474E-01-6.94639E-02-8.33849E-04-2.63910E-01 1.50965E-06 9.25117E-07
 -1     14685 2.55399E-01-1.13394E-01 2.26946E-03-2.53800E-01-3.65041E-06-1.85998E-06
 -1     14690 2.46153E-01-1.03114E-01 2.52221E-03-2.40363E-01-3.50385E-06-1.78530E-06
 -1     14691 1.99518E-01-6.94195E-02-7.29277E-04-2.63910E-01 1.12469E-06 6.89212E-07
 -1     14692 2.55304E-01-1.13488E-01 2.04712E-03-2.53800E-01-3.12110E-06-1.59028E-06
 -1     14697 2.46030E-01-1.03237E-01 2.23429E-03-2.40363E-01-3.18333E-07-1.62199E-07
 -1     14698 1.99596E-01-6.93417E-02-5.47199E-04-2.63910E-01-3.10886E-06-1.90511E-06
 -1     14699 2.55131E-01-1.13661E-01 1.64195E-03-2.53799E-01 4.78687E-06 2.43903E-06
 -1     14704 2.45807E-01-1.03460E-01 1.71383E-03-2.40362E-01 1.11073E-05 5.65943E-06
 -1     14705 1.99707E-01-6.92306E-02-2.87027E-04-2.63910E-01-1.45142E-05-8.89428E-06
 -1     14706 2.54841E-01-1.13951E-01 9.66631E-04-2.53799E-01 2.91940E-05 1.48751E-05
 -1     14711 2.45388E-01-1.03878E-01 7.43605E-04-2.40362E-01 4.52691E-05 2.30658E-05
 -1     14715 3.11117E-01-1.69607E-01 7.43605E-04-1.74633E-01-4.83201E-05-1.57001E-05
 -1     14716 2.74679E-01-1.44202E-01-2.87027E-04-2.09440E-01 1.57268E-05 6.51427E-06
 -1     14717 3.24244E-01-1.83354E-01 9.66631E-04-1.84396E-01-3.11615E-05-1.01250E-05
 -1     14722 3.11536E-01-1.69189E-01 1.71383E-03-1.74633E-01-1.18558E-05-3.85219E-06
 -1     14723 2.74567E-01-1.44313E-01-5.47199E-04-2.09440E-01 3.36861E-06 1.39532E-06
 -1     14724 3.24534E-01-1.83065E-01 1.64195E-03-1.84396E-01-5.10948E-06-1.66017E-06
 -1     14729 3.11759E-01-1.68966E-01 2.23429E-03-1.74634E-01 3.39788E-07 1.10404E-07
 -1     14730 2.74489E-01-1.44391E-01-7.29277E-04-2.09440E-01-1.21866E-06-5.04786E-07
 -1     14731 3.24707E-01-1.82892E-01 2.04712E-03-1.84396E-01 3.33145E-06 1.08245E-06
 -1     14736 3.11882E-01-1.68843E-01 2.52221E-03-1.74634E-01 3.74000E-06 1.21520E-06
 -1     14737 2.74445E-01-1.44435E-01-8.33849E-04-2.09440E-01-1.63579E-06-6.77565E-07
 -1     14738 3.24802E-01-1.82797E-01 2.26946E-03-1.84396E-01 3.89643E-06 1.26603E-06
 -1     14743 3.11944E-01-1.68781E-01 2.66770E-03-1.74634E-01 2.64619E-06 8.59798E-07
 -1     14744 2.74425E-01-1.44455E-01-8.80650E-04-2.09440E-01-6.75738E-07-2.79900E-07
 -1     14745 3.24844E-01-1.82756E-01 2.36723E-03-1.84396E-01 1.55430E-06 5.05023E-07
 -1     14750 3.11963E-01-1.68763E-01 2.71212E-03-1.74634E-01 3.93411E-15 7.82157E-16
 -1     14751 2.74425E-01-1.44455E-01-8.80650E-04-2.09440E-01 6.75738E-07 2.79900E-07
 -1     14752 3.24844E-01-1.82756E-01 2.36723E-03-1.84396E-01-1.55430E-06-5.05023E-07
 -1     14757 3.11944E-01-1.68781E-01 2.66770E-03-1.74634E-01-2.64619E-06-8.59798E-07
 -1     14758 2.74445E-01-1.44435E-01-8.33849E-04-2.09440E-01 1.63579E-06 6.77565E-07
 -1     14759 3.24802E-01-1.82797E-01 2.26946E-03-1.84396E-01-3.89643E-06-1.26603E-06
 -1     14764 3.11882E-01-1.68843E-01 2.52221E-03-1.74634E-01-3.74000E-06-1.21520E-06
 -1     14765 2.74489E-01-1.44391E-01-7.29277E-04-2.09440E-01 1.21866E-06 5.04786E-07
 -1     14766 3.24707E-01-1.82892E-01 2.04712E-03-1.84396E-01-3.33145E-06-1.08245E-06
 -1     14771 3.11759E-01-1.68966E-01 2.23429E-03-1.74634E-01-3.39788E-07-1.10404E-07
 -1     14772 2.74567E-01-1.44313E-01-5.47199E-04-2.09440E-01-3.36861E-06-1.39532E-06
 -1     14773 3.24534E-01-1.83065E-01 1.64195E-03-1.84396E-01 5.10948E-06 1.66017E-06
 -1     14778 3.11536E-01-1.69189E-01 1.71383E-03-1.74633E-01 1.18558E-05 3.85219E-06
 -1     14779 2.74679E-01-1.44202E-01-2.87027E-04-2.09440E-01-1.57268E-05-6.51427E-06
 -1     14780 3.24244E-01-1.83354E-01 9.66631E-04-1.84396E-01 3.11615E-05 1.01250E-05
 -1     14785 3.11117E-01-1.69607E-01 7.43605E-04-1.74633E-01 4.83201E-05 1.57001E-05
 -1     14789 3.53318E-01-2.11807E-01 7.43605E-04-9.18101E-02-5.01812E-05-7.94793E-06
 -1     14790 3.29149E-01-1.98672E-01-2.87027E-04-1.34469E-01 1.65523E-05 3.97385E-06
 -1     14791 3.68803E-01-2.27913E-01 9.66631E-04-9.69425E-02-3.23618E-05-5.12560E-06
 -1     14796 3.53736E-01-2.11389E-01 1.71383E-03-9.18102E-02-1.23125E-05-1.95011E-06
 -1     14797 3.29037E-01-1.98783E-01-5.47199E-04-1.34469E-01 3.54541E-06 8.51178E-07
 -1     14798 3.69094E-01-2.27624E-01 1.64195E-03-9.69427E-02-5.30628E-06-8.40433E-07
 -1     14803 3.53960E-01-2.11166E-01 2.23429E-03-9.18103E-02 3.52875E-07 5.58895E-08
 -1     14804 3.28959E-01-1.98861E-01-7.29277E-04-1.34469E-01-1.28262E-06-3.07931E-07
 -1     14805 3.69267E-01-2.27452E-01 2.04712E-03-9.69428E-02 3.45977E-06 5.47973E-07
 -1     14810 3.54083E-01-2.11044E-01 2.52221E-03-9.18104E-02 3.88405E-06 6.15173E-07
 -1     14811 3.28915E-01-1.98905E-01-8.33849E-04-1.34469E-01-1.72164E-06-4.13330E-07
 -1     14812 3.69362E-01-2.27357E-01 2.26946E-03-9.69429E-02 4.04651E-06 6.40904E-07
 -1     14817 3.54145E-01-2.10982E-01 2.66770E-03-9.18104E-02 2.74811E-06 4.35258E-07
 -1     14818 3.28895E-01-1.98925E-01-8.80650E-04-1.34469E-01-7.11205E-07-1.70745E-07
 -1     14819 3.69403E-01-2.27316E-01 2.36723E-03-9.69429E-02 1.61417E-06 2.55659E-07
 -1     14824 3.54164E-01-2.10963E-01 2.71212E-03-9.18104E-02-1.58514E-14 1.70182E-14
 -1     14825 3.28895E-01-1.98925E-01-8.80650E-04-1.34469E-01 7.11205E-07 1.70745E-07
 -1     14826 3.69403E-01-2.27316E-01 2.36723E-03-9.69429E-02-1.61417E-06-2.55659E-07
 -1     14831 3.54145E-01-2.10982E-01 2.66770E-03-9.18104E-02-2.74811E-06-4.35258E-07
 -1     14832 3.28915E-01-1.98905E-01-8.33849E-04-1.34469E-01 1.72164E-06 4.13330E-07
 -1     14833 3.69362E-01-2.27357E-01 2.26946E-03-9.69429E-02-4.04651E-06-6.40904E-07
 -1     14838 3.54083E-01-2.11044E-01 2.52221E-03-9.18104E-02-3.88405E-06-6.15173E-07
 -1     14839 3.28959E-01-1.98861E-01-7.29277E-04-1.34469E-01 1.28262E-06 3.07931E-07
 -1     14840 3.69267E-01-2.27452E-01 2.04712E-03-9.69428E-02-3.45977E-06-5.47973E-07
 -1     14845 3.53960E-01-2.11166E-01 2.23429E-03-9.18103E-02-3.52875E-07-5.58894E-08
 -1     14846 3.29037E-01-1.98783E-01-5.47199E-04-1.34469E-01-3.54541E-06-8.51178E-07
 -1     14847 3.69094E-01-2.27624E-01 1.64195E-03-9.69427E-02 5.30628E-06 8.40433E-07
 -1     14852 3.53736E-01-2.11389E-01 1.71383E-03-9.18102E-02 1.23125E-05 1.95011E-06
 -1     14853 3.29149E-01-1.98672E-01-2.87027E-04-1.34469E-01-1.65523E-05-3.97385E-06
 -1     14854 3.68803E-01-2.27913E-01 9.66631E-04-9.69425E-02 3.23618E-05 5.12560E-06
 -1     14859 3.53318E-01-2.11807E-01 7.43605E-04-9.18101E-02 5.01812E-05 7.94793E-06
 -1     14863 3.57785E-01-2.27308E-01-2.87027E-04-4.63349E-02 1.69701E-05 1.33558E-06
 -1     14867 3.57674E-01-2.27419E-01-5.47199E-04-4.63348E-02 3.63492E-06 2.86074E-07
 -1     14871 3.57596E-01-2.27497E-01-7.29277E-04-4.63348E-02-1.31500E-06-1.03493E-07
 -1     14875 3.57551E-01-2.27541E-01-8.33849E-04-4.63348E-02-1.76511E-06-1.38917E-07
 -1     14879 3.57531E-01-2.27561E-01-8.80650E-04-4.63348E-02-7.29159E-07-5.73860E-08
 -1     14883 3.57531E-01-2.27561E-01-8.80650E-04-4.63348E-02 7.29159E-07 5.73860E-08
 -1     14887 3.57551E-01-2.27541E-01-8.33849E-04-4.63348E-02 1.76511E-06 1.38917E-07
 -1     14891 3.57596E-01-2.27497E-01-7.29277E-04-4.63348E-02 1.31500E-06 1.03493E-07
 -1     14895 3.57674E-01-2.27419E-01-5.47199E-04-4.63348E-02-3.63492E-06-2.86074E-07
 -1     14899 3.57785E-01-2.27308E-01-2.87027E-04-4.63349E-02-1.69701E-05-1.33558E-06
 -1     14905-1.84723E-01 3.25337E-01 6.33014E-04-8.28642E-02-7.42950E-06-4.69080E-05
 -1     14906-1.98698E-01 3.29385E-01-2.60100E-04-4.18201E-02 1.26218E-06 1.60375E-05
 -1     14907-1.98458E-01 3.38607E-01 8.41262E-04-8.72515E-02-4.89848E-06-3.09278E-05
 -1     14912-1.84361E-01 3.25699E-01 1.47317E-03-8.28643E-02-2.11024E-06-1.33235E-05
 -1     14913-1.98798E-01 3.29284E-01-4.94532E-04-4.18200E-02 3.19651E-07 4.06156E-06
 -1     14914-1.98202E-01 3.38863E-01 1.43803E-03-8.72516E-02-1.03827E-06-6.55541E-06
 -1     14919-1.84163E-01 3.25898E-01 1.93673E-03-8.28644E-02-1.82531E-07-1.15246E-06
 -1     14920-1.98868E-01 3.29214E-01-6.59660E-04-4.18200E-02-4.83347E-08-6.14150E-07
 -1     14921-1.98047E-01 3.39020E-01 1.80336E-03-8.72517E-02 3.10298E-07 1.95914E-06
 -1     14926-1.84051E-01 3.26011E-01 2.19896E-03-8.28645E-02 4.21933E-07 2.66398E-06
 -1     14927-1.98909E-01 3.29173E-01-7.55814E-04-4.18200E-02-1.02446E-07-1.30170E-06
 -1     14928-1.97960E-01 3.39107E-01 2.00755E-03-8.72518E-02 4.86840E-07 3.07379E-06
 -1     14933-1.83994E-01 3.26068E-01 2.33364E-03-8.28646E-02 3.36248E-07 2.12299E-06
 -1     14934-1.98928E-01 3.29154E-01-7.99302E-04-4.18200E-02-4.48867E-08-5.70340E-07
 -1     14935-1.97921E-01 3.39146E-01 2.09849E-03-8.72518E-02 2.03978E-07 1.28787E-06
 -1     14940-1.83976E-01 3.26086E-01 2.37513E-03-8.28646E-02 3.64431E-15-6.29402E-15
 -1     14941-1.98928E-01 3.29154E-01-7.99302E-04-4.18200E-02 4.48867E-08 5.70340E-07
 -1     14942-1.97921E-01 3.39146E-01 2.09849E-03-8.72518E-02-2.03978E-07-1.28787E-06
 -1     14947-1.83994E-01 3.26068E-01 2.33364E-03-8.28646E-02-3.36248E-07-2.12299E-06
 -1     14948-1.98909E-01 3.29173E-01-7.55814E-04-4.18200E-02 1.02446E-07 1.30170E-06
 -1     14949-1.97960E-01 3.39107E-01 2.00755E-03-8.72518E-02-4.86840E-07-3.07379E-06
 -1     14954-1.84051E-01 3.26011E-01 2.19896E-03-8.28645E-02-4.21933E-07-2.66398E-06
 -1     14955-1.98868E-01 3.29214E-01-6.59660E-04-4.18200E-02 4.83347E-08 6.14150E-07
 -1     14956-1.98047E-01 3.39020E-01 1.80336E-03-8.72517E-02-3.10298E-07-1.95914E-06
 -1     14961-1.84163E-01 3.25898E-01 1.93673E-03-8.28644E-02 1.82531E-07 1.15246E-06
 -1     14962-1.98798E-01 3.29284E-01-4.94532E-04-4.18200E-02-3.19651E-07-4.06156E-06
 -1     14963-1.98202E-01 3.38863E-01 1.43803E-03-8.72516E-02 1.03827E-06 6.55541E-06
 -1     14968-1.84361E-01 3.25699E-01 1.47317E-03-8.28643E-02 2.11024E-06 1.33235E-05
 -1     14969-1.98698E-01 3.29385E-01-2.60100E-04-4.18201E-02-1.26218E-06-1.60375E-05
 -1     14970-1.98458E-01 3.38607E-01 8.41262E-04-8.72515E-02 4.89848E-06 3.09278E-05
 -1     14975-1.84723E-01 3.25337E-01 6.33014E-04-8.28642E-02 7.42950E-06 4.69080E-05
 -1     14979-1.46635E-01 2.87248E-01 6.33014E-04-1.57617E-01-1.46761E-05-4.51683E-05
 -1     14980-1.72852E-01 3.03539E-01-2.60100E-04-1.21367E-01 3.75545E-06 1.56426E-05
 -1     14981-1.58353E-01 2.98502E-01 8.41262E-04-1.65962E-01-9.67635E-06-2.97807E-05
 -1     14986-1.46273E-01 2.87611E-01 1.47317E-03-1.57617E-01-4.16851E-06-1.28294E-05
 -1     14987-1.72952E-01 3.03438E-01-4.94532E-04-1.21366E-01 9.51083E-07 3.96155E-06
 -1     14988-1.58097E-01 2.98758E-01 1.43803E-03-1.65962E-01-2.05098E-06-6.31228E-06
 -1     14993-1.46074E-01 2.87810E-01 1.93673E-03-1.57618E-01-3.60568E-07-1.10971E-06
 -1     14994-1.73022E-01 3.03367E-01-6.59660E-04-1.21366E-01-1.43814E-07-5.99028E-07
 -1     14995-1.57941E-01 2.98915E-01 1.80336E-03-1.65963E-01 6.12955E-07 1.88648E-06
 -1     15000-1.45962E-01 2.87922E-01 2.19896E-03-1.57618E-01 8.33478E-07 2.56518E-06
 -1     15001-1.73063E-01 3.03326E-01-7.55814E-04-1.21366E-01-3.04816E-07-1.26965E-06
 -1     15002-1.57855E-01 2.99002E-01 2.00755E-03-1.65963E-01 9.61693E-07 2.95979E-06
 -1     15007-1.45905E-01 2.87979E-01 2.33364E-03-1.57618E-01 6.64217E-07 2.04425E-06
 -1     15008-1.73082E-01 3.03308E-01-7.99302E-04-1.21366E-01-1.33555E-07-5.56296E-07
 -1     15009-1.57816E-01 2.99040E-01 2.09849E-03-1.65963E-01 4.02933E-07 1.24010E-06
 -1     15014-1.45887E-01 2.87997E-01 2.37513E-03-1.57618E-01-3.54027E-15-4.34223E-15
 -1     15015-1.73082E-01 3.03308E-01-7.99302E-04-1.21366E-01 1.33555E-07 5.56296E-07
 -1     15016-1.57816E-01 2.99040E-01 2.09849E-03-1.65963E-01-4.02933E-07-1.24010E-06
 -1     15021-1.45905E-01 2.87979E-01 2.33364E-03-1.57618E-01-6.64217E-07-2.04425E-06
 -1     15022-1.73063E-01 3.03326E-01-7.55814E-04-1.21366E-01 3.04816E-07 1.26965E-06
 -1     15023-1.57855E-01 2.99002E-01 2.00755E-03-1.65963E-01-9.61693E-07-2.95979E-06
 -1     15028-1.45962E-01 2.87922E-01 2.19896E-03-1.57618E-01-8.33478E-07-2.56518E-06
 -1     15029-1.73022E-01 3.03367E-01-6.59660E-04-1.21366E-01 1.43814E-07 5.99028E-07
 -1     15030-1.57941E-01 2.98915E-01 1.80336E-03-1.65963E-01-6.12955E-07-1.88648E-06
 -1     15035-1.46074E-01 2.87810E-01 1.93673E-03-1.57618E-01 3.60568E-07 1.10971E-06
 -1     15036-1.72952E-01 3.03438E-01-4.94532E-04-1.21366E-01-9.51083E-07-3.96155E-06
 -1     15037-1.58097E-01 2.98758E-01 1.43803E-03-1.65962E-01 2.05098E-06 6.31228E-06
 -1     15042-1.46273E-01 2.87611E-01 1.47317E-03-1.57617E-01 4.16851E-06 1.28294E-05
 -1     15043-1.72852E-01 3.03539E-01-2.60100E-04-1.21367E-01-3.75545E-06-1.56426E-05
 -1     15044-1.58353E-01 2.98502E-01 8.41262E-04-1.65962E-01 9.67635E-06 2.97807E-05
 -1     15049-1.46635E-01 2.87248E-01 6.33014E-04-1.57617E-01 1.46761E-05 4.51683E-05
 -1     15053-8.73104E-02 2.27924E-01 6.33014E-04-2.16941E-01-2.15613E-05-4.23164E-05
 -1     15054-1.23689E-01 2.54376E-01-2.60100E-04-1.89033E-01 6.15626E-06 1.48625E-05
 -1     15055-9.58878E-02 2.36037E-01 8.41262E-04-2.28427E-01-1.42160E-05-2.79004E-05
 -1     15060-8.69483E-02 2.28286E-01 1.47317E-03-2.16942E-01-6.12415E-06-1.20193E-05
 -1     15061-1.23789E-01 2.54276E-01-4.94532E-04-1.89033E-01 1.55910E-06 3.76399E-06
 -1     15062-9.56320E-02 2.36293E-01 1.43803E-03-2.28428E-01-3.01319E-06-5.91372E-06
 -1     15067-8.67495E-02 2.28486E-01 1.93673E-03-2.16942E-01-5.29726E-07-1.03965E-06
 -1     15068-1.23860E-01 2.54205E-01-6.59660E-04-1.89032E-01-2.35752E-07-5.69156E-07
 -1     15069-9.54761E-02 2.36449E-01 1.80336E-03-2.28428E-01 9.00519E-07 1.76737E-06
 -1     15074-8.66378E-02 2.28598E-01 2.19896E-03-2.16942E-01 1.22450E-06 2.40321E-06
 -1     15075-1.23901E-01 2.54164E-01-7.55814E-04-1.89032E-01-4.99679E-07-1.20633E-06
 -1     15076-9.53892E-02 2.36536E-01 2.00755E-03-2.28428E-01 1.41287E-06 2.77290E-06
 -1     15081-8.65805E-02 2.28655E-01 2.33364E-03-2.16942E-01 9.75831E-07 1.91518E-06
 -1     15082-1.23919E-01 2.54146E-01-7.99302E-04-1.89032E-01-2.18934E-07-5.28555E-07
 -1     15083-9.53506E-02 2.36575E-01 2.09849E-03-2.28428E-01 5.91967E-07 1.16180E-06
 -1     15088-8.65629E-02 2.28673E-01 2.37513E-03-2.16942E-01 4.34780E-15 1.13826E-14
 -1     15089-1.23919E-01 2.54146E-01-7.99302E-04-1.89032E-01 2.18934E-07 5.28555E-07
 -1     15090-9.53506E-02 2.36575E-01 2.09849E-03-2.28428E-01-5.91967E-07-1.16180E-06
 -1     15095-8.65805E-02 2.28655E-01 2.33364E-03-2.16942E-01-9.75831E-07-1.91518E-06
 -1     15096-1.23901E-01 2.54164E-01-7.55814E-04-1.89032E-01 4.99679E-07 1.20633E-06
 -1     15097-9.53892E-02 2.36536E-01 2.00755E-03-2.28428E-01-1.41287E-06-2.77290E-06
 -1     15102-8.66378E-02 2.28598E-01 2.19896E-03-2.16942E-01-1.22450E-06-2.40321E-06
 -1     15103-1.23860E-01 2.54205E-01-6.59660E-04-1.89032E-01 2.35752E-07 5.69156E-07
 -1     15104-9.54761E-02 2.36449E-01 1.80336E-03-2.28428E-01-9.00519E-07-1.76737E-06
 -1     15109-8.67495E-02 2.28486E-01 1.93673E-03-2.16942E-01 5.29726E-07 1.03965E-06
 -1     15110-1.23789E-01 2.54276E-01-4.94532E-04-1.89033E-01-1.55910E-06-3.76399E-06
 -1     15111-9.56320E-02 2.36293E-01 1.43803E-03-2.28428E-01 3.01319E-06 5.91372E-06
 -1     15116-8.69483E-02 2.28286E-01 1.47317E-03-2.16942E-01 6.12415E-06 1.20193E-05
 -1     15117-1.23689E-01 2.54376E-01-2.60100E-04-1.89033E-01-6.15626E-06-1.48625E-05
 -1     15118-9.58878E-02 2.36037E-01 8.41262E-04-2.28427E-01 1.42160E-05 2.79004E-05
 -1     15123-8.73104E-02 2.27924E-01 6.33014E-04-2.16941E-01 2.15613E-05 4.23164E-05
 -1     15127-1.25575E-02 1.53171E-01 6.33014E-04-2.55030E-01-2.79155E-05-3.84224E-05
 -1     15128-5.60229E-02 1.86710E-01-2.60100E-04-2.38195E-01 8.40547E-06 1.37165E-05
 -1     15129-1.71771E-02 1.57326E-01 8.41262E-04-2.68532E-01-1.84055E-05-2.53330E-05
 -1     15134-1.21953E-02 1.53533E-01 1.47317E-03-2.55030E-01-7.92898E-06-1.09133E-05
 -1     15135-5.61232E-02 1.86610E-01-4.94532E-04-2.38195E-01 2.12872E-06 3.47375E-06
 -1     15136-1.69212E-02 1.57582E-01 1.43803E-03-2.68533E-01-3.90120E-06-5.36954E-06
 -1     15141-1.19965E-02 1.53732E-01 1.93673E-03-2.55031E-01-6.85840E-07-9.43978E-07
 -1     15142-5.61937E-02 1.86539E-01-6.59660E-04-2.38195E-01-3.21885E-07-5.25269E-07
 -1     15143-1.67652E-02 1.57738E-01 1.80336E-03-2.68533E-01 1.16591E-06 1.60474E-06
 -1     15148-1.18846E-02 1.53844E-01 2.19896E-03-2.55031E-01 1.58537E-06 2.18207E-06
 -1     15149-5.62346E-02 1.86498E-01-7.55814E-04-2.38195E-01-6.82240E-07-1.11331E-06
 -1     15150-1.66783E-02 1.57825E-01 2.00755E-03-2.68533E-01 1.82925E-06 2.51774E-06
 -1     15155-1.18273E-02 1.53902E-01 2.33364E-03-2.55031E-01 1.26342E-06 1.73894E-06
 -1     15156-5.62531E-02 1.86479E-01-7.99302E-04-2.38195E-01-2.98923E-07-4.87798E-07
 -1     15157-1.66396E-02 1.57864E-01 2.09849E-03-2.68533E-01 7.66425E-07 1.05489E-06
 -1     15162-1.18097E-02 1.53919E-01 2.37513E-03-2.55031E-01-1.93241E-14 1.44312E-14
 -1     15163-5.62531E-02 1.86479E-01-7.99302E-04-2.38195E-01 2.98923E-07 4.87798E-07
 -1     15164-1.66396E-02 1.57864E-01 2.09849E-03-2.68533E-01-7.66425E-07-1.05489E-06
 -1     15169-1.18273E-02 1.53902E-01 2.33364E-03-2.55031E-01-1.26342E-06-1.73894E-06
 -1     15170-5.62346E-02 1.86498E-01-7.55814E-04-2.38195E-01 6.82240E-07 1.11331E-06
 -1     15171-1.66783E-02 1.57825E-01 2.00755E-03-2.68533E-01-1.82925E-06-2.51774E-06
 -1     15176-1.18846E-02 1.53844E-01 2.19896E-03-2.55031E-01-1.58537E-06-2.18207E-06
 -1     15177-5.61937E-02 1.86539E-01-6.59660E-04-2.38195E-01 3.21885E-07 5.25269E-07
 -1     15178-1.67652E-02 1.57738E-01 1.80336E-03-2.68533E-01-1.16591E-06-1.60474E-06
 -1     15183-1.19965E-02 1.53732E-01 1.93673E-03-2.55031E-01 6.85840E-07 9.43978E-07
 -1     15184-5.61232E-02 1.86610E-01-4.94532E-04-2.38195E-01-2.12872E-06-3.47375E-06
 -1     15185-1.69212E-02 1.57582E-01 1.43803E-03-2.68533E-01 3.90120E-06 5.36954E-06
 -1     15190-1.21953E-02 1.53533E-01 1.47317E-03-2.55030E-01 7.92898E-06 1.09133E-05
 -1     15191-5.60229E-02 1.86710E-01-2.60100E-04-2.38195E-01-8.40547E-06-1.37165E-05
 -1     15192-1.71771E-02 1.57326E-01 8.41262E-04-2.68532E-01 1.84055E-05 2.53330E-05
 -1     15197-1.25575E-02 1.53171E-01 6.33014E-04-2.55030E-01 2.79155E-05 3.84224E-05
 -1     15201 7.03068E-02 7.03068E-02 6.33014E-04-2.68154E-01-3.35824E-05-3.35824E-05
 -1     15202 2.35236E-02 1.07164E-01-2.60100E-04-2.64041E-01 1.04477E-05 1.22327E-05
 -1     15203 7.00744E-02 7.00744E-02 8.41262E-04-2.82352E-01-2.21419E-05-2.21419E-05
 -1     15208 7.06691E-02 7.06691E-02 1.47317E-03-2.68155E-01-9.53858E-06-9.53858E-06
 -1     15209 2.34232E-02 1.07063E-01-4.94532E-04-2.64041E-01 2.64593E-06 3.09798E-06
 -1     15210 7.03305E-02 7.03305E-02 1.43803E-03-2.82352E-01-4.69315E-06-4.69315E-06
 -1     15215 7.08680E-02 7.08680E-02 1.93673E-03-2.68155E-01-8.25067E-07-8.25068E-07
 -1     15216 2.33526E-02 1.06993E-01-6.59660E-04-2.64041E-01-4.00092E-07-4.68448E-07
 -1     15217 7.04866E-02 7.04866E-02 1.80336E-03-2.82353E-01 1.40259E-06 1.40259E-06
 -1     15222 7.09799E-02 7.09799E-02 2.19896E-03-2.68155E-01 1.90720E-06 1.90720E-06
 -1     15223 2.33117E-02 1.06952E-01-7.55814E-04-2.64041E-01-8.48001E-07-9.92881E-07
 -1     15224 7.05735E-02 7.05735E-02 2.00755E-03-2.82353E-01 2.20059E-06 2.20059E-06
 -1     15229 7.10373E-02 7.10373E-02 2.33364E-03-2.68155E-01 1.51989E-06 1.51989E-06
 -1     15230 2.32932E-02 1.06933E-01-7.99302E-04-2.64041E-01-3.71551E-07-4.35031E-07
 -1     15231 7.06122E-02 7.06122E-02 2.09849E-03-2.82353E-01 9.22011E-07 9.22010E-07
 -1     15236 7.10549E-02 7.10549E-02 2.37513E-03-2.68155E-01-3.40282E-14-1.89692E-14
 -1     15237 2.32932E-02 1.06933E-01-7.99302E-04-2.64041E-01 3.71551E-07 4.35031E-07
 -1     15238 7.06122E-02 7.06122E-02 2.09849E-03-2.82353E-01-9.22011E-07-9.22010E-07
 -1     15243 7.10373E-02 7.10373E-02 2.33364E-03-2.68155E-01-1.51989E-06-1.51989E-06
 -1     15244 2.33117E-02 1.06952E-01-7.55814E-04-2.64041E-01 8.48001E-07 9.92881E-07
 -1     15245 7.05735E-02 7.05735E-02 2.00755E-03-2.82353E-01-2.20059E-06-2.20059E-06
 -1     15250 7.09799E-02 7.09799E-02 2.19896E-03-2.68155E-01-1.90720E-06-1.90720E-06
 -1     15251 2.33526E-02 1.06993E-01-6.59660E-04-2.64041E-01 4.00092E-07 4.68448E-07
 -1     15252 7.04866E-02 7.04866E-02 1.80336E-03-2.82353E-01-1.40259E-06-1.40259E-06
 -1     15257 7.08680E-02 7.08680E-02 1.93673E-03-2.68155E-01 8.25067E-07 8.25068E-07
 -1     15258 2.34232E-02 1.07063E-01-4.94532E-04-2.64041E-01-2.64593E-06-3.09798E-06
 -1     15259 7.03305E-02 7.03305E-02 1.43803E-03-2.82352E-01 4.69315E-06 4.69315E-06
 -1     15264 7.06691E-02 7.06691E-02 1.47317E-03-2.68155E-01 9.53858E-06 9.53858E-06
 -1     15265 2.35236E-02 1.07164E-01-2.60100E-04-2.64041E-01-1.04477E-05-1.22327E-05
 -1     15266 7.00744E-02 7.00744E-02 8.41262E-04-2.82352E-01 2.21419E-05 2.21419E-05
 -1     15271 7.03068E-02 7.03068E-02 6.33014E-04-2.68154E-01 3.35824E-05 3.35824E-05
 -1     15275 1.53171E-01-1.25575E-02 6.33014E-04-2.55030E-01-3.84224E-05-2.79155E-05
 -1     15276 1.07164E-01 2.35236E-02-2.60100E-04-2.64041E-01 1.22327E-05 1.04477E-05
 -1     15277 1.57326E-01-1.71771E-02 8.41262E-04-2.68532E-01-2.53330E-05-1.84055E-05
 -1     15282 1.53533E-01-1.21953E-02 1.47317E-03-2.55030E-01-1.09133E-05-7.92898E-06
 -1     15283 1.07063E-01 2.34232E-02-4.94532E-04-2.64041E-01 3.09798E-06 2.64593E-06
 -1     15284 1.57582E-01-1.69212E-02 1.43803E-03-2.68533E-01-5.36954E-06-3.90120E-06
 -1     15289 1.53732E-01-1.19965E-02 1.93673E-03-2.55031E-01-9.43978E-07-6.85840E-07
 -1     15290 1.06993E-01 2.33526E-02-6.59660E-04-2.64041E-01-4.68448E-07-4.00092E-07
 -1     15291 1.57738E-01-1.67652E-02 1.80336E-03-2.68533E-01 1.60474E-06 1.16591E-06
 -1     15296 1.53844E-01-1.18846E-02 2.19896E-03-2.55031E-01 2.18207E-06 1.58537E-06
 -1     15297 1.06952E-01 2.33117E-02-7.55814E-04-2.64041E-01-9.92881E-07-8.48001E-07
 -1     15298 1.57825E-01-1.66783E-02 2.00755E-03-2.68533E-01 2.51774E-06 1.82925E-06
 -1     15303 1.53902E-01-1.18273E-02 2.33364E-03-2.55031E-01 1.73894E-06 1.26342E-06
 -1     15304 1.06933E-01 2.32932E-02-7.99302E-04-2.64041E-01-4.35031E-07-3.71551E-07
 -1     15305 1.57864E-01-1.66396E-02 2.09849E-03-2.68533E-01 1.05489E-06 7.66425E-07
 -1     15310 1.53919E-01-1.18097E-02 2.37513E-03-2.55031E-01-1.60724E-15 3.13356E-14
 -1     15311 1.06933E-01 2.32932E-02-7.99302E-04-2.64041E-01 4.35031E-07 3.71551E-07
 -1     15312 1.57864E-01-1.66396E-02 2.09849E-03-2.68533E-01-1.05489E-06-7.66425E-07
 -1     15317 1.53902E-01-1.18273E-02 2.33364E-03-2.55031E-01-1.73894E-06-1.26342E-06
 -1     15318 1.06952E-01 2.33117E-02-7.55814E-04-2.64041E-01 9.92881E-07 8.48001E-07
 -1     15319 1.57825E-01-1.66783E-02 2.00755E-03-2.68533E-01-2.51774E-06-1.82925E-06
 -1     15324 1.53844E-01-1.18846E-02 2.19896E-03-2.55031E-01-2.18207E-06-1.58537E-06
 -1     15325 1.06993E-01 2.33526E-02-6.59660E-04-2.64041E-01 4.68448E-07 4.00092E-07
 -1     15326 1.57738E-01-1.67652E-02 1.80336E-03-2.68533E-01-1.60474E-06-1.16591E-06
 -1     15331 1.53732E-01-1.19965E-02 1.93673E-03-2.55031E-01 9.43978E-07 6.85841E-07
 -1     15332 1.07063E-01 2.34232E-02-4.94532E-04-2.64041E-01-3.09798E-06-2.64593E-06
 -1     15333 1.57582E-01-1.69212E-02 1.43803E-03-2.68533E-01 5.36954E-06 3.90120E-06
 -1     15338 1.53533E-01-1.21953E-02 1.47317E-03-2.55030E-01 1.09133E-05 7.92898E-06
 -1     15339 1.07164E-01 2.35236E-02-2.60100E-04-2.64041E-01-1.22327E-05-1.04477E-05
 -1     15340 1.57326E-01-1.71771E-02 8.41262E-04-2.68532E-01 2.53330E-05 1.84055E-05
 -1     15345 1.53171E-01-1.25575E-02 6.33014E-04-2.55030E-01 3.84224E-05 2.79155E-05
 -1     15349 2.27924E-01-8.73104E-02 6.33014E-04-2.16941E-01-4.23164E-05-2.15613E-05
 -1     15350 1.86710E-01-5.60229E-02-2.60100E-04-2.38195E-01 1.37165E-05 8.40547E-06
 -1     15351 2.36037E-01-9.58878E-02 8.41262E-04-2.28427E-01-2.79004E-05-1.42159E-05
 -1     15356 2.28286E-01-8.69483E-02 1.47317E-03-2.16942E-01-1.20193E-05-6.12415E-06
 -1     15357 1.86610E-01-5.61232E-02-4.94532E-04-2.38195E-01 3.47375E-06 2.12872E-06
 -1     15358 2.36293E-01-9.56320E-02 1.43803E-03-2.28428E-01-5.91372E-06-3.01319E-06
 -1     15363 2.28486E-01-8.67495E-02 1.93673E-03-2.16942E-01-1.03965E-06-5.29726E-07
 -1     15364 1.86539E-01-5.61937E-02-6.59660E-04-2.38195E-01-5.25268E-07-3.21885E-07
 -1     15365 2.36449E-01-9.54761E-02 1.80336E-03-2.28428E-01 1.76737E-06 9.00519E-07
 -1     15370 2.28598E-01-8.66378E-02 2.19896E-03-2.16942E-01 2.40321E-06 1.22450E-06
 -1     15371 1.86498E-01-5.62346E-02-7.55814E-04-2.38195E-01-1.11331E-06-6.82240E-07
 -1     15372 2.36536E-01-9.53892E-02 2.00755E-03-2.28428E-01 2.77290E-06 1.41287E-06
 -1     15377 2.28655E-01-8.65805E-02 2.33364E-03-2.16942E-01 1.91518E-06 9.75831E-07
 -1     15378 1.86479E-01-5.62531E-02-7.99302E-04-2.38195E-01-4.87798E-07-2.98923E-07
 -1     15379 2.36575E-01-9.53506E-02 2.09849E-03-2.28428E-01 1.16180E-06 5.91967E-07
 -1     15384 2.28673E-01-8.65629E-02 2.37513E-03-2.16942E-01 7.93841E-15-6.17030E-15
 -1     15385 1.86479E-01-5.62531E-02-7.99302E-04-2.38195E-01 4.87798E-07 2.98923E-07
 -1     15386 2.36575E-01-9.53506E-02 2.09849E-03-2.28428E-01-1.16180E-06-5.91967E-07
 -1     15391 2.28655E-01-8.65805E-02 2.33364E-03-2.16942E-01-1.91518E-06-9.75831E-07
 -1     15392 1.86498E-01-5.62346E-02-7.55814E-04-2.38195E-01 1.11331E-06 6.82240E-07
 -1     15393 2.36536E-01-9.53892E-02 2.00755E-03-2.28428E-01-2.77290E-06-1.41287E-06
 -1     15398 2.28598E-01-8.66378E-02 2.19896E-03-2.16942E-01-2.40321E-06-1.22450E-06
 -1     15399 1.86539E-01-5.61937E-02-6.59660E-04-2.38195E-01 5.25268E-07 3.21885E-07
 -1     15400 2.36449E-01-9.54761E-02 1.80336E-03-2.28428E-01-1.76737E-06-9.00519E-07
 -1     15405 2.28486E-01-8.67495E-02 1.93673E-03-2.16942E-01 1.03965E-06 5.29726E-07
 -1     15406 1.86610E-01-5.61232E-02-4.94532E-04-2.38195E-01-3.47375E-06-2.12872E-06
 -1     15407 2.36293E-01-9.56320E-02 1.43803E-03-2.28428E-01 5.91372E-06 3.01319E-06
 -1     15412 2.28286E-01-8.69483E-02 1.47317E-03-2.16942E-01 1.20193E-05 6.12415E-06
 -1     15413 1.86710E-01-5.60229E-02-2.60100E-04-2.38195E-01-1.37165E-05-8.40547E-06
 -1     15414 2.36037E-01-9.58878E-02 8.41262E-04-2.28427E-01 2.79004E-05 1.42159E-05
 -1     15419 2.27924E-01-8.73104E-02 6.33014E-04-2.16941E-01 4.23164E-05 2.15613E-05
 -1     15423 2.87248E-01-1.46635E-01 6.33014E-04-1.57617E-01-4.51683E-05-1.46761E-05
 -1     15424 2.54376E-01-1.23689E-01-2.60100E-04-1.89033E-01 1.48625E-05 6.15626E-06
 -1     15425 2.98502E-01-1.58353E-01 8.41262E-04-1.65962E-01-2.97807E-05-9.67635E-06
 -1     15430 2.87611E-01-1.46273E-01 1.47317E-03-1.57617E-01-1.28294E-05-4.16851E-06
 -1     15431 2.54276E-01-1.23789E-01-4.94532E-04-1.89033E-01 3.76399E-06 1.55910E-06
 -1     15432 2.98758E-01-1.58097E-01 1.43803E-03-1.65962E-01-6.31228E-06-2.05098E-06
 -1     15437 2.87810E-01-1.46074E-01 1.93673E-03-1.57618E-01-1.10971E-06-3.60568E-07
 -1     15438 2.54205E-01-1.23860E-01-6.59660E-04-1.89032E-01-5.69155E-07-2.35752E-07
 -1     15439 2.98915E-01-1.57941E-01 1.80336E-03-1.65963E-01 1.88648E-06 6.12955E-07
 -1     15444 2.87922E-01-1.45962E-01 2.19896E-03-1.57618E-01 2.56518E-06 8.33478E-07
 -1     15445 2.54164E-01-1.23901E-01-7.55814E-04-1.89032E-01-1.20633E-06-4.99679E-07
 -1     15446 2.99002E-01-1.57855E-01 2.00755E-03-1.65963E-01 2.95979E-06 9.61693E-07
 -1     15451 2.87979E-01-1.45905E-01 2.33364E-03-1.57618E-01 2.04425E-06 6.64217E-07
 -1     15452 2.54146E-01-1.23919E-01-7.99302E-04-1.89032E-01-5.28554E-07-2.18934E-07
 -1     15453 2.99040E-01-1.57816E-01 2.09849E-03-1.65963E-01 1.24010E-06 4.02933E-07
 -1     15458 2.87997E-01-1.45887E-01 2.37513E-03-1.57618E-01-3.12389E-14-2.65420E-16
 -1     15459 2.54146E-01-1.23919E-01-7.99302E-04-1.89032E-01 5.28554E-07 2.18934E-07
 -1     15460 2.99040E-01-1.57816E-01 2.09849E-03-1.65963E-01-1.24010E-06-4.02933E-07
 -1     15465 2.87979E-01-1.45905E-01 2.33364E-03-1.57618E-01-2.04425E-06-6.64217E-07
 -1     15466 2.54164E-01-1.23901E-01-7.55814E-04-1.89032E-01 1.20633E-06 4.99680E-07
 -1     15467 2.99002E-01-1.57855E-01 2.00755E-03-1.65963E-01-2.95979E-06-9.61693E-07
 -1     15472 2.87922E-01-1.45962E-01 2.19896E-03-1.57618E-01-2.56518E-06-8.33477E-07
 -1     15473 2.54205E-01-1.23860E-01-6.59660E-04-1.89032E-01 5.69155E-07 2.35752E-07
 -1     15474 2.98915E-01-1.57941E-01 1.80336E-03-1.65963E-01-1.88648E-06-6.12955E-07
 -1     15479 2.87810E-01-1.46074E-01 1.93673E-03-1.57618E-01 1.10971E-06 3.60568E-07
 -1     15480 2.54276E-01-1.23789E-01-4.94532E-04-1.89033E-01-3.76399E-06-1.55910E-06
 -1     15481 2.98758E-01-1.58097E-01 1.43803E-03-1.65962E-01 6.31228E-06 2.05098E-06
 -1     15486 2.87611E-01-1.46273E-01 1.47317E-03-1.57617E-01 1.28294E-05 4.16851E-06
 -1     15487 2.54376E-01-1.23689E-01-2.60100E-04-1.89033E-01-1.48625E-05-6.15626E-06
 -1     15488 2.98502E-01-1.58353E-01 8.41262E-04-1.65962E-01 2.97807E-05 9.67635E-06
 -1     15493 2.87248E-01-1.46635E-01 6.33014E-04-1.57617E-01 4.51683E-05 1.46761E-05
 -1     15497 3.25337E-01-1.84723E-01 6.33014E-04-8.28642E-02-4.69080E-05-7.42950E-06
 -1     15498 3.03539E-01-1.72852E-01-2.60100E-04-1.21367E-01 1.56426E-05 3.75545E-06
 -1     15499 3.38607E-01-1.98458E-01 8.41262E-04-8.72515E-02-3.09278E-05-4.89848E-06
 -1     15504 3.25699E-01-1.84361E-01 1.47317E-03-8.28643E-02-1.33235E-05-2.11024E-06
 -1     15505 3.03438E-01-1.72952E-01-4.94532E-04-1.21366E-01 3.96155E-06 9.51084E-07
 -1     15506 3.38863E-01-1.98202E-01 1.43803E-03-8.72516E-02-6.55541E-06-1.03827E-06
 -1     15511 3.25898E-01-1.84163E-01 1.93673E-03-8.28644E-02-1.15246E-06-1.82532E-07
 -1     15512 3.03367E-01-1.73022E-01-6.59660E-04-1.21366E-01-5.99028E-07-1.43814E-07
 -1     15513 3.39020E-01-1.98047E-01 1.80336E-03-8.72517E-02 1.95914E-06 3.10297E-07
 -1     15518 3.26011E-01-1.84051E-01 2.19896E-03-8.28645E-02 2.66398E-06 4.21933E-07
 -1     15519 3.03326E-01-1.73063E-01-7.55814E-04-1.21366E-01-1.26965E-06-3.04815E-07
 -1     15520 3.39107E-01-1.97960E-01 2.00755E-03-8.72518E-02 3.07379E-06 4.86840E-07
 -1     15525 3.26068E-01-1.83994E-01 2.33364E-03-8.28646E-02 2.12299E-06 3.36248E-07
 -1     15526 3.03308E-01-1.73082E-01-7.99302E-04-1.21366E-01-5.56296E-07-1.33555E-07
 -1     15527 3.39146E-01-1.97921E-01 2.09849E-03-8.72518E-02 1.28787E-06 2.03978E-07
 -1     15532 3.26086E-01-1.83976E-01 2.37513E-03-8.28646E-02 6.06012E-16 3.12399E-15
 -1     15533 3.03308E-01-1.73082E-01-7.99302E-04-1.21366E-01 5.56296E-07 1.33555E-07
 -1     15534 3.39146E-01-1.97921E-01 2.09849E-03-8.72518E-02-1.28787E-06-2.03978E-07
 -1     15539 3.26068E-01-1.83994E-01 2.33364E-03-8.28646E-02-2.12299E-06-3.36248E-07
 -1     15540 3.03326E-01-1.73063E-01-7.55814E-04-1.21366E-01 1.26965E-06 3.04815E-07
 -1     15541 3.39107E-01-1.97960E-01 2.00755E-03-8.72518E-02-3.07379E-06-4.86840E-07
 -1     15546 3.26011E-01-1.84051E-01 2.19896E-03-8.28645E-02-2.66398E-06-4.21933E-07
 -1     15547 3.03367E-01-1.73022E-01-6.59660E-04-1.21366E-01 5.99028E-07 1.43814E-07
 -1     15548 3.39020E-01-1.98047E-01 1.80336E-03-8.72517E-02-1.95914E-06-3.10297E-07
 -1     15553 3.25898E-01-1.84163E-01 1.93673E-03-8.28644E-02 1.15246E-06 1.82532E-07
 -1     15554 3.03438E-01-1.72952E-01-4.94532E-04-1.21366E-01-3.96155E-06-9.51084E-07
 -1     15555 3.38863E-01-1.98202E-01 1.43803E-03-8.72516E-02 6.55541E-06 1.03827E-06
 -1     15560 3.25699E-01-1.84361E-01 1.47317E-03-8.28643E-02 1.33235E-05 2.11024E-06
 -1     15561 3.03539E-01-1.72852E-01-2.60100E-04-1.21367E-01-1.56426E-05-3.75545E-06
 -1     15562 3.38607E-01-1.98458E-01 8.41262E-04-8.72515E-02 3.09278E-05 4.89848E-06
 -1     15567 3.25337E-01-1.84723E-01 6.33014E-04-8.28642E-02 4.69080E-05 7.42950E-06
 -1     15571 3.29385E-01-1.98698E-01-2.60100E-04-4.18201E-02 1.60375E-05 1.26218E-06
 -1     15575 3.29284E-01-1.98798E-01-4.94532E-04-4.18200E-02 4.06156E-06 3.19652E-07
 -1     15579 3.29214E-01-1.98868E-01-6.59660E-04-4.18200E-02-6.14150E-07-4.83345E-08
 -1     15583 3.29173E-01-1.98909E-01-7.55814E-04-4.18200E-02-1.30170E-06-1.02446E-07
 -1     15587 3.29154E-01-1.98928E-01-7.99302E-04-4.18200E-02-5.70340E-07-4.48867E-08
 -1     15591 3.29154E-01-1.98928E-01-7.99302E-04-4.18200E-02 5.70340E-07 4.48867E-08
 -1     15595 3.29173E-01-1.98909E-01-7.55814E-04-4.18200E-02 1.30170E-06 1.02446E-07
 -1     15599 3.29214E-01-1.98868E-01-6.59660E-04-4.18200E-02 6.14150E-07 4.83345E-08
 -1     15603 3.29284E-01-1.98798E-01-4.94532E-04-4.18200E-02-4.06156E-06-3.19652E-07
 -1     15607 3.29385E-01-1.98698E-01-2.60100E-04-4.18201E-02-1.60375E-05-1.26218E-06
 -1     15613-1.61404E-01 3.01262E-01 5.42979E-04-7.51647E-02-6.94415E-06-4.38437E-05
 -1     15614-1.74067E-01 3.04948E-01-2.35386E-04-3.79342E-02 1.19447E-06 1.51772E-05
 -1     15615-1.73211E-01 3.12720E-01 7.35896E-04-7.89443E-02-4.67660E-06-2.95269E-05
 -1     15620-1.61089E-01 3.01578E-01 1.27488E-03-7.51648E-02-2.21488E-06-1.39842E-05
 -1     15621-1.74157E-01 3.04857E-01-4.46700E-04-3.79342E-02 3.46078E-07 4.39733E-06
 -1     15622-1.72985E-01 3.12947E-01 1.26504E-03-7.89444E-02-1.19470E-06-7.54304E-06
 -1     15627-1.60911E-01 3.01756E-01 1.68892E-03-7.51649E-02-3.80123E-07-2.40001E-06
 -1     15628-1.74221E-01 3.04793E-01-5.96483E-04-3.79342E-02-1.36135E-09-1.72979E-08
 -1     15629-1.72844E-01 3.13089E-01 1.59477E-03-7.89445E-02 1.05599E-07 6.66724E-07
 -1     15634-1.60810E-01 3.01858E-01 1.92775E-03-7.51650E-02 2.52896E-07 1.59672E-06
 -1     15635-1.74259E-01 3.04755E-01-6.84768E-04-3.79342E-02-7.01453E-08-8.91281E-07
 -1     15636-1.72764E-01 3.13169E-01 1.78203E-03-7.89446E-02 3.48729E-07 2.20179E-06
 -1     15641-1.60757E-01 3.01911E-01 2.05216E-03-7.51650E-02 2.47126E-07 1.56029E-06
 -1     15642-1.74276E-01 3.04738E-01-7.25064E-04-3.79342E-02-3.36479E-08-4.27537E-07
 -1     15643-1.72728E-01 3.13204E-01 1.86634E-03-7.89446E-02 1.56727E-07 9.89537E-07
 -1     15648-1.60740E-01 3.01928E-01 2.09076E-03-7.51650E-02-8.17899E-15 1.72892E-14
 -1     15649-1.74276E-01 3.04738E-01-7.25064E-04-3.79342E-02 3.36479E-08 4.27537E-07
 -1     15650-1.72728E-01 3.13204E-01 1.86634E-03-7.89446E-02-1.56727E-07-9.89537E-07
 -1     15655-1.60757E-01 3.01911E-01 2.05216E-03-7.51650E-02-2.47126E-07-1.56029E-06
 -1     15656-1.74259E-01 3.04755E-01-6.84768E-04-3.79342E-02 7.01453E-08 8.91281E-07
 -1     15657-1.72764E-01 3.13169E-01 1.78203E-03-7.89446E-02-3.48729E-07-2.20179E-06
 -1     15662-1.60810E-01 3.01858E-01 1.92775E-03-7.51650E-02-2.52896E-07-1.59672E-06
 -1     15663-1.74221E-01 3.04793E-01-5.96483E-04-3.79342E-02 1.36135E-09 1.72979E-08
 -1     15664-1.72844E-01 3.13089E-01 1.59477E-03-7.89445E-02-1.05599E-07-6.66724E-07
 -1     15669-1.60911E-01 3.01756E-01 1.68892E-03-7.51649E-02 3.80123E-07 2.40001E-06
 -1     15670-1.74157E-01 3.04857E-01-4.46700E-04-3.79342E-02-3.46078E-07-4.39733E-06
 -1     15671-1.72985E-01 3.12947E-01 1.26504E-03-7.89444E-02 1.19470E-06 7.54304E-06
 -1     15676-1.61089E-01 3.01578E-01 1.27488E-03-7.51648E-02 2.21488E-06 1.39842E-05
 -1     15677-1.74067E-01 3.04948E-01-2.35386E-04-3.79342E-02-1.19447E-06-1.51772E-05
 -1     15678-1.73211E-01 3.12720E-01 7.35896E-04-7.89443E-02 4.67660E-06 2.95269E-05
 -1     15683-1.61404E-01 3.01262E-01 5.42979E-04-7.51647E-02 6.94415E-06 4.38437E-05
 -1     15687-1.26855E-01 2.66713E-01 5.42979E-04-1.42972E-01-1.37173E-05-4.22176E-05
 -1     15688-1.50622E-01 2.81503E-01-2.35386E-04-1.10089E-01 3.55400E-06 1.48035E-05
 -1     15689-1.36925E-01 2.76433E-01 7.35896E-04-1.50161E-01-9.23805E-06-2.84318E-05
 -1     15694-1.26539E-01 2.67029E-01 1.27488E-03-1.42972E-01-4.37523E-06-1.34656E-05
 -1     15695-1.50712E-01 2.81413E-01-4.46700E-04-1.10089E-01 1.02971E-06 4.28906E-06
 -1     15696-1.36698E-01 2.76661E-01 1.26504E-03-1.50161E-01-2.35998E-06-7.26328E-06
 -1     15701-1.26362E-01 2.67207E-01 1.68892E-03-1.42972E-01-7.50887E-07-2.31099E-06
 -1     15702-1.50776E-01 2.81348E-01-5.96483E-04-1.10089E-01-4.05055E-09-1.68719E-08
 -1     15703-1.36557E-01 2.76802E-01 1.59477E-03-1.50161E-01 2.08597E-07 6.41997E-07
 -1     15708-1.26260E-01 2.67309E-01 1.92775E-03-1.42972E-01 4.99565E-07 1.53750E-06
 -1     15709-1.50814E-01 2.81311E-01-6.84768E-04-1.10089E-01-2.08709E-07-8.69334E-07
 -1     15710-1.36477E-01 2.76882E-01 1.78203E-03-1.50162E-01 6.88870E-07 2.12012E-06
 -1     15715-1.26207E-01 2.67362E-01 2.05216E-03-1.42972E-01 4.88168E-07 1.50243E-06
 -1     15716-1.50831E-01 2.81293E-01-7.25064E-04-1.10089E-01-1.00115E-07-4.17010E-07
 -1     15717-1.36442E-01 2.76918E-01 1.86634E-03-1.50162E-01 3.09595E-07 9.52836E-07
 -1     15722-1.26191E-01 2.67378E-01 2.09076E-03-1.42972E-01-6.56216E-15-6.05848E-15
 -1     15723-1.50831E-01 2.81293E-01-7.25064E-04-1.10089E-01 1.00115E-07 4.17010E-07
 -1     15724-1.36442E-01 2.76918E-01 1.86634E-03-1.50162E-01-3.09595E-07-9.52836E-07
 -1     15729-1.26207E-01 2.67362E-01 2.05216E-03-1.42972E-01-4.88168E-07-1.50243E-06
 -1     15730-1.50814E-01 2.81311E-01-6.84768E-04-1.10089E-01 2.08709E-07 8.69334E-07
 -1     15731-1.36477E-01 2.76882E-01 1.78203E-03-1.50162E-01-6.88870E-07-2.12012E-06
 -1     15736-1.26260E-01 2.67309E-01 1.92775E-03-1.42972E-01-4.99565E-07-1.53750E-06
 -1     15737-1.50776E-01 2.81348E-01-5.96483E-04-1.10089E-01 4.05054E-09 1.68719E-08
 -1     15738-1.36557E-01 2.76802E-01 1.59477E-03-1.50161E-01-2.08597E-07-6.41997E-07
 -1     15743-1.26362E-01 2.67207E-01 1.68892E-03-1.42972E-01 7.50887E-07 2.31099E-06
 -1     15744-1.50712E-01 2.81413E-01-4.46700E-04-1.10089E-01-1.02971E-06-4.28906E-06
 -1     15745-1.36698E-01 2.76661E-01 1.26504E-03-1.50161E-01 2.35998E-06 7.26328E-06
 -1     15750-1.26539E-01 2.67029E-01 1.27488E-03-1.42972E-01 4.37523E-06 1.34656E-05
 -1     15751-1.50622E-01 2.81503E-01-2.35386E-04-1.10089E-01-3.55400E-06-1.48035E-05
 -1     15752-1.36925E-01 2.76433E-01 7.35896E-04-1.50161E-01 9.23805E-06 2.84318E-05
 -1     15757-1.26855E-01 2.66713E-01 5.42979E-04-1.42972E-01 1.37173E-05 4.22176E-05
 -1     15761-7.30429E-02 2.12901E-01 5.42979E-04-1.96784E-01-2.01527E-05-3.95519E-05
 -1     15762-1.06028E-01 2.36909E-01-2.35386E-04-1.71468E-01 5.82602E-06 1.40653E-05
 -1     15763-8.04069E-02 2.19915E-01 7.35896E-04-2.06679E-01-1.35720E-05-2.66366E-05
 -1     15768-7.27274E-02 2.13217E-01 1.27488E-03-1.96784E-01-6.42785E-06-1.26154E-05
 -1     15769-1.06118E-01 2.36818E-01-4.46700E-04-1.71468E-01 1.68799E-06 4.07517E-06
 -1     15770-8.01799E-02 2.20143E-01 1.26504E-03-2.06679E-01-3.46715E-06-6.80467E-06
 -1     15775-7.25498E-02 2.13394E-01 1.68892E-03-1.96784E-01-1.10316E-06-2.16508E-06
 -1     15776-1.06182E-01 2.36754E-01-5.96483E-04-1.71468E-01-6.63999E-09-1.60306E-08
 -1     15777-8.00391E-02 2.20284E-01 1.59477E-03-2.06679E-01 3.06459E-07 6.01461E-07
 -1     15782-7.24479E-02 2.13497E-01 1.92775E-03-1.96784E-01 7.33933E-07 1.44042E-06
 -1     15783-1.06220E-01 2.36716E-01-6.84768E-04-1.71468E-01-3.42133E-07-8.25982E-07
 -1     15784-7.99594E-02 2.20364E-01 1.78203E-03-2.06680E-01 1.01205E-06 1.98626E-06
 -1     15789-7.23950E-02 2.13550E-01 2.05216E-03-1.96784E-01 7.17189E-07 1.40756E-06
 -1     15790-1.06237E-01 2.36699E-01-7.25064E-04-1.71468E-01-1.64117E-07-3.96214E-07
 -1     15791-7.99235E-02 2.20400E-01 1.86634E-03-2.06680E-01 4.54840E-07 8.92674E-07
 -1     15796-7.23786E-02 2.13566E-01 2.09076E-03-1.96785E-01-1.38615E-14 2.34032E-14
 -1     15797-1.06237E-01 2.36699E-01-7.25064E-04-1.71468E-01 1.64117E-07 3.96214E-07
 -1     15798-7.99235E-02 2.20400E-01 1.86634E-03-2.06680E-01-4.54840E-07-8.92674E-07
 -1     15803-7.23950E-02 2.13550E-01 2.05216E-03-1.96784E-01-7.17189E-07-1.40756E-06
 -1     15804-1.06220E-01 2.36716E-01-6.84768E-04-1.71468E-01 3.42133E-07 8.25982E-07
 -1     15805-7.99594E-02 2.20364E-01 1.78203E-03-2.06680E-01-1.01205E-06-1.98626E-06
 -1     15810-7.24479E-02 2.13497E-01 1.92775E-03-1.96784E-01-7.33933E-07-1.44042E-06
 -1     15811-1.06182E-01 2.36754E-01-5.96483E-04-1.71468E-01 6.63999E-09 1.60306E-08
 -1     15812-8.00391E-02 2.20284E-01 1.59477E-03-2.06679E-01-3.06459E-07-6.01461E-07
 -1     15817-7.25498E-02 2.13394E-01 1.68892E-03-1.96784E-01 1.10316E-06 2.16508E-06
 -1     15818-1.06118E-01 2.36818E-01-4.46700E-04-1.71468E-01-1.68799E-06-4.07517E-06
 -1     15819-8.01799E-02 2.20143E-01 1.26504E-03-2.06679E-01 3.46715E-06 6.80467E-06
 -1     15824-7.27274E-02 2.13217E-01 1.27488E-03-1.96784E-01 6.42785E-06 1.26154E-05
 -1     15825-1.06028E-01 2.36909E-01-2.35386E-04-1.71468E-01-5.82602E-06-1.40653E-05
 -1     15826-8.04069E-02 2.19915E-01 7.35896E-04-2.06679E-01 1.35720E-05 2.66366E-05
 -1     15831-7.30429E-02 2.12901E-01 5.42979E-04-1.96784E-01 2.01527E-05 3.95519E-05
 -1     15835-5.23585E-03 1.45094E-01 5.42979E-04-2.31333E-01-2.60919E-05-3.59124E-05
 -1     15836-4.46487E-02 1.75530E-01-2.35386E-04-2.16063E-01 7.95459E-06 1.29807E-05
 -1     15837-9.19019E-03 1.48698E-01 7.35896E-04-2.42966E-01-1.75718E-05-2.41855E-05
 -1     15842-4.92021E-03 1.45409E-01 1.27488E-03-2.31333E-01-8.32219E-06-1.14545E-05
 -1     15843-4.47392E-02 1.75439E-01-4.46700E-04-2.16062E-01 2.30471E-06 3.76094E-06
 -1     15844-8.96308E-03 1.48926E-01 1.26504E-03-2.42966E-01-4.48895E-06-6.17851E-06
 -1     15849-4.74255E-03 1.45587E-01 1.68892E-03-2.31334E-01-1.42827E-06-1.96585E-06
 -1     15850-4.48033E-02 1.75375E-01-5.96483E-04-2.16062E-01-9.06593E-09-1.47945E-08
 -1     15851-8.82218E-03 1.49067E-01 1.59477E-03-2.42966E-01 3.96776E-07 5.46115E-07
 -1     15856-4.64060E-03 1.45689E-01 1.92775E-03-2.31334E-01 9.50229E-07 1.30788E-06
 -1     15857-4.48408E-02 1.75338E-01-6.84768E-04-2.16062E-01-4.67133E-07-7.62292E-07
 -1     15858-8.74243E-03 1.49147E-01 1.78203E-03-2.42966E-01 1.31031E-06 1.80349E-06
 -1     15863-4.58764E-03 1.45742E-01 2.05216E-03-2.31334E-01 9.28550E-07 1.27804E-06
 -1     15864-4.48580E-02 1.75320E-01-7.25064E-04-2.16062E-01-2.24078E-07-3.65663E-07
 -1     15865-8.70659E-03 1.49183E-01 1.86634E-03-2.42967E-01 5.88885E-07 8.10531E-07
 -1     15870-4.57123E-03 1.45759E-01 2.09076E-03-2.31334E-01 4.71136E-14 1.95429E-14
 -1     15871-4.48580E-02 1.75320E-01-7.25064E-04-2.16062E-01 2.24078E-07 3.65663E-07
 -1     15872-8.70659E-03 1.49183E-01 1.86634E-03-2.42967E-01-5.88885E-07-8.10531E-07
 -1     15877-4.58764E-03 1.45742E-01 2.05216E-03-2.31334E-01-9.28550E-07-1.27804E-06
 -1     15878-4.48408E-02 1.75338E-01-6.84768E-04-2.16062E-01 4.67133E-07 7.62292E-07
 -1     15879-8.74243E-03 1.49147E-01 1.78203E-03-2.42966E-01-1.31031E-06-1.80349E-06
 -1     15884-4.64060E-03 1.45689E-01 1.92775E-03-2.31334E-01-9.50229E-07-1.30788E-06
 -1     15885-4.48033E-02 1.75375E-01-5.96483E-04-2.16062E-01 9.06594E-09 1.47945E-08
 -1     15886-8.82218E-03 1.49067E-01 1.59477E-03-2.42966E-01-3.96776E-07-5.46115E-07
 -1     15891-4.74255E-03 1.45587E-01 1.68892E-03-2.31334E-01 1.42827E-06 1.96585E-06
 -1     15892-4.47392E-02 1.75439E-01-4.46700E-04-2.16062E-01-2.30471E-06-3.76094E-06
 -1     15893-8.96308E-03 1.48926E-01 1.26504E-03-2.42966E-01 4.48895E-06 6.17851E-06
 -1     15898-4.92021E-03 1.45409E-01 1.27488E-03-2.31333E-01 8.32219E-06 1.14545E-05
 -1     15899-4.46487E-02 1.75530E-01-2.35386E-04-2.16063E-01-7.95459E-06-1.29807E-05
 -1     15900-9.19019E-03 1.48698E-01 7.35896E-04-2.42966E-01 1.75718E-05 2.41855E-05
 -1     15905-5.23585E-03 1.45094E-01 5.42979E-04-2.31333E-01 2.60919E-05 3.59124E-05
 -1     15909 6.99289E-02 6.99289E-02 5.42979E-04-2.43238E-01-3.13886E-05-3.13886E-05
 -1     15910 2.75065E-02 1.03375E-01-2.35386E-04-2.39507E-01 9.88729E-06 1.15765E-05
 -1     15911 6.97541E-02 6.97541E-02 7.35896E-04-2.55469E-01-2.11389E-05-2.11389E-05
 -1     15916 7.02446E-02 7.02446E-02 1.27488E-03-2.43238E-01-1.00116E-05-1.00116E-05
 -1     15917 2.74159E-02 1.03284E-01-4.46700E-04-2.39507E-01 2.86467E-06 3.35410E-06
 -1     15918 6.99814E-02 6.99814E-02 1.26504E-03-2.55470E-01-5.40022E-06-5.40022E-06
 -1     15923 7.04223E-02 7.04223E-02 1.68892E-03-2.43239E-01-1.71821E-06-1.71821E-06
 -1     15924 2.73518E-02 1.03220E-01-5.96483E-04-2.39507E-01-1.12690E-08-1.31939E-08
 -1     15925 7.01223E-02 7.01223E-02 1.59477E-03-2.55470E-01 4.77322E-07 4.77321E-07
 -1     15930 7.05243E-02 7.05243E-02 1.92775E-03-2.43239E-01 1.14313E-06 1.14313E-06
 -1     15931 2.73142E-02 1.03183E-01-6.84768E-04-2.39507E-01-5.80631E-07-6.79831E-07
 -1     15932 7.02021E-02 7.02021E-02 1.78203E-03-2.55470E-01 1.57630E-06 1.57630E-06
 -1     15937 7.05773E-02 7.05773E-02 2.05216E-03-2.43239E-01 1.11705E-06 1.11705E-06
 -1     15938 2.72971E-02 1.03165E-01-7.25064E-04-2.39507E-01-2.78522E-07-3.26107E-07
 -1     15939 7.02380E-02 7.02380E-02 1.86634E-03-2.55470E-01 7.08430E-07 7.08430E-07
 -1     15944 7.05938E-02 7.05938E-02 2.09076E-03-2.43239E-01-1.79614E-14-2.69214E-14
 -1     15945 2.72971E-02 1.03165E-01-7.25064E-04-2.39507E-01 2.78522E-07 3.26107E-07
 -1     15946 7.02380E-02 7.02380E-02 1.86634E-03-2.55470E-01-7.08430E-07-7.08430E-07
 -1     15951 7.05773E-02 7.05773E-02 2.05216E-03-2.43239E-01-1.11705E-06-1.11705E-06
 -1     15952 2.73142E-02 1.03183E-01-6.84768E-04-2.39507E-01 5.80631E-07 6.79831E-07
 -1     15953 7.02021E-02 7.02021E-02 1.78203E-03-2.55470E-01-1.57630E-06-1.57630E-06
 -1     15958 7.05243E-02 7.05243E-02 1.92775E-03-2.43239E-01-1.14313E-06-1.14313E-06
 -1     15959 2.73518E-02 1.03220E-01-5.96483E-04-2.39507E-01 1.12690E-08 1.31939E-08
 -1     15960 7.01223E-02 7.01223E-02 1.59477E-03-2.55470E-01-4.77322E-07-4.77321E-07
 -1     15965 7.04223E-02 7.04223E-02 1.68892E-03-2.43239E-01 1.71821E-06 1.71821E-06
 -1     15966 2.74159E-02 1.03284E-01-4.46700E-04-2.39507E-01-2.86467E-06-3.35410E-06
 -1     15967 6.99814E-02 6.99814E-02 1.26504E-03-2.55470E-01 5.40022E-06 5.40022E-06
 -1     15972 7.02446E-02 7.02446E-02 1.27488E-03-2.43238E-01 1.00116E-05 1.00116E-05
 -1     15973 2.75065E-02 1.03375E-01-2.35386E-04-2.39507E-01-9.88729E-06-1.15765E-05
 -1     15974 6.97541E-02 6.97541E-02 7.35896E-04-2.55469E-01 2.11389E-05 2.11389E-05
 -1     15979 6.99289E-02 6.99289E-02 5.42979E-04-2.43238E-01 3.13886E-05 3.13886E-05
 -1     15983 1.45094E-01-5.23585E-03 5.42979E-04-2.31333E-01-3.59124E-05-2.60919E-05
 -1     15984 1.03375E-01 2.75065E-02-2.35386E-04-2.39507E-01 1.15765E-05 9.88729E-06
 -1     15985 1.48698E-01-9.19019E-03 7.35896E-04-2.42966E-01-2.41855E-05-1.75718E-05
 -1     15990 1.45409E-01-4.92021E-03 1.27488E-03-2.31333E-01-1.14545E-05-8.32219E-06
 -1     15991 1.03284E-01 2.74159E-02-4.46700E-04-2.39507E-01 3.35410E-06 2.86467E-06
 -1     15992 1.48926E-01-8.96308E-03 1.26504E-03-2.42966E-01-6.17851E-06-4.48895E-06
 -1     15997 1.45587E-01-4.74255E-03 1.68892E-03-2.31334E-01-1.96585E-06-1.42827E-06
 -1     15998 1.03220E-01 2.73518E-02-5.96483E-04-2.39507E-01-1.31942E-08-1.12685E-08
 -1     15999 1.49067E-01-8.82218E-03 1.59477E-03-2.42966E-01 5.46115E-07 3.96776E-07
 -1     16004 1.45689E-01-4.64060E-03 1.92775E-03-2.31334E-01 1.30788E-06 9.50229E-07
 -1     16005 1.03183E-01 2.73142E-02-6.84768E-04-2.39507E-01-6.79831E-07-5.80630E-07
 -1     16006 1.49147E-01-8.74243E-03 1.78203E-03-2.42966E-01 1.80349E-06 1.31031E-06
 -1     16011 1.45742E-01-4.58764E-03 2.05216E-03-2.31334E-01 1.27804E-06 9.28550E-07
 -1     16012 1.03165E-01 2.72971E-02-7.25064E-04-2.39507E-01-3.26107E-07-2.78522E-07
 -1     16013 1.49183E-01-8.70659E-03 1.86634E-03-2.42967E-01 8.10531E-07 5.88885E-07
 -1     16018 1.45759E-01-4.57123E-03 2.09076E-03-2.31334E-01 3.14674E-15 1.68292E-14
 -1     16019 1.03165E-01 2.72971E-02-7.25064E-04-2.39507E-01 3.26107E-07 2.78522E-07
 -1     16020 1.49183E-01-8.70659E-03 1.86634E-03-2.42967E-01-8.10531E-07-5.88885E-07
 -1     16025 1.45742E-01-4.58764E-03 2.05216E-03-2.31334E-01-1.27804E-06-9.28550E-07
 -1     16026 1.03183E-01 2.73142E-02-6.84768E-04-2.39507E-01 6.79831E-07 5.80630E-07
 -1     16027 1.49147E-01-8.74243E-03 1.78203E-03-2.42966E-01-1.80349E-06-1.31031E-06
 -1     16032 1.45689E-01-4.64060E-03 1.92775E-03-2.31334E-01-1.30788E-06-9.50229E-07
 -1     16033 1.03220E-01 2.73518E-02-5.96483E-04-2.39507E-01 1.31942E-08 1.12685E-08
 -1     16034 1.49067E-01-8.82218E-03 1.59477E-03-2.42966E-01-5.46115E-07-3.96775E-07
 -1     16039 1.45587E-01-4.74255E-03 1.68892E-03-2.31334E-01 1.96585E-06 1.42827E-06
 -1     16040 1.03284E-01 2.74159E-02-4.46700E-04-2.39507E-01-3.35410E-06-2.86467E-06
 -1     16041 1.48926E-01-8.96308E-03 1.26504E-03-2.42966E-01 6.17851E-06 4.48895E-06
 -1     16046 1.45409E-01-4.92021E-03 1.27488E-03-2.31333E-01 1.14545E-05 8.32219E-06
 -1     16047 1.03375E-01 2.75065E-02-2.35386E-04-2.39507E-01-1.15765E-05-9.88729E-06
 -1     16048 1.48698E-01-9.19019E-03 7.35896E-04-2.42966E-01 2.41855E-05 1.75718E-05
 -1     16053 1.45094E-01-5.23585E-03 5.42979E-04-2.31333E-01 3.59124E-05 2.60919E-05
 -1     16057 2.12901E-01-7.30429E-02 5.42979E-04-1.96784E-01-3.95519E-05-2.01527E-05
 -1     16058 1.75530E-01-4.46487E-02-2.35386E-04-2.16063E-01 1.29807E-05 7.95459E-06
 -1     16059 2.19915E-01-8.04069E-02 7.35896E-04-2.06679E-01-2.66366E-05-1.35720E-05
 -1     16064 2.13217E-01-7.27274E-02 1.27488E-03-1.96784E-01-1.26154E-05-6.42785E-06
 -1     16065 1.75439E-01-4.47392E-02-4.46700E-04-2.16062E-01 3.76094E-06 2.30471E-06
 -1     16066 2.20143E-01-8.01799E-02 1.26504E-03-2.06679E-01-6.80467E-06-3.46715E-06
 -1     16071 2.13394E-01-7.25498E-02 1.68892E-03-1.96784E-01-2.16508E-06-1.10316E-06
 -1     16072 1.75375E-01-4.48033E-02-5.96483E-04-2.16062E-01-1.47942E-08-9.06611E-09
 -1     16073 2.20284E-01-8.00391E-02 1.59477E-03-2.06679E-01 6.01460E-07 3.06460E-07
 -1     16078 2.13497E-01-7.24479E-02 1.92775E-03-1.96784E-01 1.44042E-06 7.33933E-07
 -1     16079 1.75338E-01-4.48408E-02-6.84768E-04-2.16062E-01-7.62291E-07-4.67133E-07
 -1     16080 2.20364E-01-7.99594E-02 1.78203E-03-2.06680E-01 1.98626E-06 1.01205E-06
 -1     16085 2.13550E-01-7.23950E-02 2.05216E-03-1.96784E-01 1.40756E-06 7.17189E-07
 -1     16086 1.75320E-01-4.48580E-02-7.25064E-04-2.16062E-01-3.65663E-07-2.24078E-07
 -1     16087 2.20400E-01-7.99235E-02 1.86634E-03-2.06680E-01 8.92674E-07 4.54840E-07
 -1     16092 2.13566E-01-7.23786E-02 2.09076E-03-1.96785E-01 3.33100E-14-1.20533E-14
 -1     16093 1.75320E-01-4.48580E-02-7.25064E-04-2.16062E-01 3.65663E-07 2.24078E-07
 -1     16094 2.20400E-01-7.99235E-02 1.86634E-03-2.06680E-01-8.92674E-07-4.54840E-07
 -1     16099 2.13550E-01-7.23950E-02 2.05216E-03-1.96784E-01-1.40756E-06-7.17189E-07
 -1     16100 1.75338E-01-4.48408E-02-6.84768E-04-2.16062E-01 7.62291E-07 4.67133E-07
 -1     16101 2.20364E-01-7.99594E-02 1.78203E-03-2.06680E-01-1.98626E-06-1.01205E-06
 -1     16106 2.13497E-01-7.24479E-02 1.92775E-03-1.96784E-01-1.44042E-06-7.33933E-07
 -1     16107 1.75375E-01-4.48033E-02-5.96483E-04-2.16062E-01 1.47942E-08 9.06611E-09
 -1     16108 2.20284E-01-8.00391E-02 1.59477E-03-2.06679E-01-6.01460E-07-3.06460E-07
 -1     16113 2.13394E-01-7.25498E-02 1.68892E-03-1.96784E-01 2.16508E-06 1.10316E-06
 -1     16114 1.75439E-01-4.47392E-02-4.46700E-04-2.16062E-01-3.76094E-06-2.30471E-06
 -1     16115 2.20143E-01-8.01799E-02 1.26504E-03-2.06679E-01 6.80467E-06 3.46715E-06
 -1     16120 2.13217E-01-7.27274E-02 1.27488E-03-1.96784E-01 1.26154E-05 6.42785E-06
 -1     16121 1.75530E-01-4.46487E-02-2.35386E-04-2.16063E-01-1.29807E-05-7.95459E-06
 -1     16122 2.19915E-01-8.04069E-02 7.35896E-04-2.06679E-01 2.66366E-05 1.35720E-05
 -1     16127 2.12901E-01-7.30429E-02 5.42979E-04-1.96784E-01 3.95519E-05 2.01527E-05
 -1     16131 2.66713E-01-1.26855E-01 5.42979E-04-1.42972E-01-4.22176E-05-1.37173E-05
 -1     16132 2.36909E-01-1.06028E-01-2.35386E-04-1.71468E-01 1.40653E-05 5.82602E-06
 -1     16133 2.76433E-01-1.36925E-01 7.35896E-04-1.50161E-01-2.84318E-05-9.23805E-06
 -1     16138 2.67029E-01-1.26539E-01 1.27488E-03-1.42972E-01-1.34656E-05-4.37523E-06
 -1     16139 2.36818E-01-1.06118E-01-4.46700E-04-1.71468E-01 4.07517E-06 1.68799E-06
 -1     16140 2.76661E-01-1.36698E-01 1.26504E-03-1.50161E-01-7.26328E-06-2.35998E-06
 -1     16145 2.67207E-01-1.26362E-01 1.68892E-03-1.42972E-01-2.31099E-06-7.50887E-07
 -1     16146 2.36754E-01-1.06182E-01-5.96483E-04-1.71468E-01-1.60305E-08-6.64016E-09
 -1     16147 2.76802E-01-1.36557E-01 1.59477E-03-1.50161E-01 6.41997E-07 2.08597E-07
 -1     16152 2.67309E-01-1.26260E-01 1.92775E-03-1.42972E-01 1.53750E-06 4.99565E-07
 -1     16153 2.36716E-01-1.06220E-01-6.84768E-04-1.71468E-01-8.25982E-07-3.42133E-07
 -1     16154 2.76882E-01-1.36477E-01 1.78203E-03-1.50162E-01 2.12012E-06 6.88870E-07
 -1     16159 2.67362E-01-1.26207E-01 2.05216E-03-1.42972E-01 1.50243E-06 4.88168E-07
 -1     16160 2.36699E-01-1.06237E-01-7.25064E-04-1.71468E-01-3.96214E-07-1.64117E-07
 -1     16161 2.76918E-01-1.36442E-01 1.86634E-03-1.50162E-01 9.52836E-07 3.09595E-07
 -1     16166 2.67378E-01-1.26191E-01 2.09076E-03-1.42972E-01 7.32334E-15 5.87838E-16
 -1     16167 2.36699E-01-1.06237E-01-7.25064E-04-1.71468E-01 3.96214E-07 1.64117E-07
 -1     16168 2.76918E-01-1.36442E-01 1.86634E-03-1.50162E-01-9.52836E-07-3.09595E-07
 -1     16173 2.67362E-01-1.26207E-01 2.05216E-03-1.42972E-01-1.50243E-06-4.88168E-07
 -1     16174 2.36716E-01-1.06220E-01-6.84768E-04-1.71468E-01 8.25982E-07 3.42133E-07
 -1     16175 2.76882E-01-1.36477E-01 1.78203E-03-1.50162E-01-2.12012E-06-6.88870E-07
 -1     16180 2.67309E-01-1.26260E-01 1.92775E-03-1.42972E-01-1.53750E-06-4.99565E-07
 -1     16181 2.36754E-01-1.06182E-01-5.96483E-04-1.71468E-01 1.60305E-08 6.64017E-09
 -1     16182 2.76802E-01-1.36557E-01 1.59477E-03-1.50161E-01-6.41997E-07-2.08597E-07
 -1     16187 2.67207E-01-1.26362E-01 1.68892E-03-1.42972E-01 2.31099E-06 7.50887E-07
 -1     16188 2.36818E-01-1.06118E-01-4.46700E-04-1.71468E-01-4.07517E-06-1.68799E-06
 -1     16189 2.76661E-01-1.36698E-01 1.26504E-03-1.50161E-01 7.26328E-06 2.35998E-06
 -1     16194 2.67029E-01-1.26539E-01 1.27488E-03-1.42972E-01 1.34656E-05 4.37523E-06
 -1     16195 2.36909E-01-1.06028E-01-2.35386E-04-1.71468E-01-1.40653E-05-5.82602E-06
 -1     16196 2.76433E-01-1.36925E-01 7.35896E-04-1.50161E-01 2.84318E-05 9.23805E-06
 -1     16201 2.66713E-01-1.26855E-01 5.42979E-04-1.42972E-01 4.22176E-05 1.37173E-05
 -1     16205 3.01262E-01-1.61404E-01 5.42979E-04-7.51647E-02-4.38437E-05-6.94415E-06
 -1     16206 2.81503E-01-1.50622E-01-2.35386E-04-1.10089E-01 1.48035E-05 3.55400E-06
 -1     16207 3.12720E-01-1.73211E-01 7.35896E-04-7.89443E-02-2.95269E-05-4.67660E-06
 -1     16212 3.01578E-01-1.61089E-01 1.27488E-03-7.51648E-02-1.39842E-05-2.21489E-06
 -1     16213 2.81413E-01-1.50712E-01-4.46700E-04-1.10089E-01 4.28906E-06 1.02971E-06
 -1     16214 3.12947E-01-1.72985E-01 1.26504E-03-7.89444E-02-7.54304E-06-1.19470E-06
 -1     16219 3.01756E-01-1.60911E-01 1.68892E-03-7.51649E-02-2.40001E-06-3.80124E-07
 -1     16220 2.81348E-01-1.50776E-01-5.96483E-04-1.10089E-01-1.68720E-08-4.05032E-09
 -1     16221 3.13089E-01-1.72844E-01 1.59477E-03-7.89445E-02 6.66724E-07 1.05598E-07
 -1     16226 3.01858E-01-1.60810E-01 1.92775E-03-7.51650E-02 1.59672E-06 2.52895E-07
 -1     16227 2.81311E-01-1.50814E-01-6.84768E-04-1.10089E-01-8.69334E-07-2.08709E-07
 -1     16228 3.13169E-01-1.72764E-01 1.78203E-03-7.89446E-02 2.20179E-06 3.48728E-07
 -1     16233 3.01911E-01-1.60757E-01 2.05216E-03-7.51650E-02 1.56029E-06 2.47126E-07
 -1     16234 2.81293E-01-1.50831E-01-7.25064E-04-1.10089E-01-4.17010E-07-1.00115E-07
 -1     16235 3.13204E-01-1.72728E-01 1.86634E-03-7.89446E-02 9.89537E-07 1.56727E-07
 -1     16240 3.01928E-01-1.60740E-01 2.09076E-03-7.51650E-02 2.30154E-14 1.01791E-14
 -1     16241 2.81293E-01-1.50831E-01-7.25064E-04-1.10089E-01 4.17010E-07 1.00115E-07
 -1     16242 3.13204E-01-1.72728E-01 1.86634E-03-7.89446E-02-9.89537E-07-1.56727E-07
 -1     16247 3.01911E-01-1.60757E-01 2.05216E-03-7.51650E-02-1.56029E-06-2.47126E-07
 -1     16248 2.81311E-01-1.50814E-01-6.84768E-04-1.10089E-01 8.69334E-07 2.08709E-07
 -1     16249 3.13169E-01-1.72764E-01 1.78203E-03-7.89446E-02-2.20179E-06-3.48728E-07
 -1     16254 3.01858E-01-1.60810E-01 1.92775E-03-7.51650E-02-1.59672E-06-2.52895E-07
 -1     16255 2.81348E-01-1.50776E-01-5.96483E-04-1.10089E-01 1.68720E-08 4.05033E-09
 -1     16256 3.13089E-01-1.72844E-01 1.59477E-03-7.89445E-02-6.66724E-07-1.05598E-07
 -1     16261 3.01756E-01-1.60911E-01 1.68892E-03-7.51649E-02 2.40001E-06 3.80124E-07
 -1     16262 2.81413E-01-1.50712E-01-4.46700E-04-1.10089E-01-4.28906E-06-1.02971E-06
 -1     16263 3.12947E-01-1.72985E-01 1.26504E-03-7.89444E-02 7.54304E-06 1.19470E-06
 -1     16268 3.01578E-01-1.61089E-01 1.27488E-03-7.51648E-02 1.39842E-05 2.21489E-06
 -1     16269 2.81503E-01-1.50622E-01-2.35386E-04-1.10089E-01-1.48035E-05-3.55400E-06
 -1     16270 3.12720E-01-1.73211E-01 7.35896E-04-7.89443E-02 2.95269E-05 4.67660E-06
 -1     16275 3.01262E-01-1.61404E-01 5.42979E-04-7.51647E-02 4.38437E-05 6.94415E-06
 -1     16279 3.04948E-01-1.74067E-01-2.35386E-04-3.79342E-02 1.51772E-05 1.19447E-06
 -1     16283 3.04857E-01-1.74157E-01-4.46700E-04-3.79342E-02 4.39733E-06 3.46078E-07
 -1     16287 3.04793E-01-1.74221E-01-5.96483E-04-3.79342E-02-1.72977E-08-1.36109E-09
 -1     16291 3.04755E-01-1.74259E-01-6.84768E-04-3.79342E-02-8.91281E-07-7.01451E-08
 -1     16295 3.04738E-01-1.74276E-01-7.25064E-04-3.79342E-02-4.27537E-07-3.36479E-08
 -1     16299 3.04738E-01-1.74276E-01-7.25064E-04-3.79342E-02 4.27537E-07 3.36479E-08
 -1     16303 3.04755E-01-1.74259E-01-6.84768E-04-3.79342E-02 8.91281E-07 7.01451E-08
 -1     16307 3.04793E-01-1.74221E-01-5.96483E-04-3.79342E-02 1.72977E-08 1.36109E-09
 -1     16311 3.04857E-01-1.74157E-01-4.46700E-04-3.79342E-02-4.39733E-06-3.46078E-07
 -1     16315 3.04948E-01-1.74067E-01-2.35386E-04-3.79342E-02-1.51772E-05-1.19447E-06
 -1     16321-1.41184E-01 2.80399E-01 4.68930E-04-6.84903E-02-6.49229E-06-4.09907E-05
 -1     16322-1.52710E-01 2.83770E-01-2.12943E-04-3.45658E-02 1.13152E-06 1.43773E-05
 -1     16323-1.51408E-01 2.90360E-01 6.46743E-04-7.17695E-02-4.46091E-06-2.81651E-05
 -1     16328-1.40908E-01 2.80676E-01 1.10999E-03-6.84904E-02-2.27689E-06-1.43757E-05
 -1     16329-1.52792E-01 2.83688E-01-4.03573E-04-3.45658E-02 3.66200E-07 4.65301E-06
 -1     16330-1.51206E-01 2.90562E-01 1.11743E-03-7.17696E-02-1.31523E-06-8.30403E-06
 -1     16335-1.40749E-01 2.80835E-01 1.48077E-03-6.84905E-02-5.42113E-07-3.42276E-06
 -1     16336-1.52850E-01 2.83629E-01-5.39509E-04-3.45657E-02 3.83760E-08 4.87614E-07
 -1     16337-1.51079E-01 2.90690E-01 1.41538E-03-7.17697E-02-6.85868E-08-4.33040E-07
 -1     16342-1.40656E-01 2.80928E-01 1.69835E-03-6.84905E-02 1.06787E-07 6.74224E-07
 -1     16343-1.52884E-01 2.83595E-01-6.20496E-04-3.45657E-02-4.17937E-08-5.31039E-07
 -1     16344-1.51006E-01 2.90763E-01 1.58697E-03-7.17697E-02 2.26704E-07 1.43136E-06
 -1     16349-1.40607E-01 2.80978E-01 1.81307E-03-6.84906E-02 1.68018E-07 1.06082E-06
 -1     16350-1.52900E-01 2.83579E-01-6.57759E-04-3.45657E-02-2.36364E-08-3.00329E-07
 -1     16351-1.50973E-01 2.90797E-01 1.66495E-03-7.17698E-02 1.14281E-07 7.21542E-07
 -1     16356-1.40592E-01 2.80993E-01 1.84890E-03-6.84906E-02-6.52007E-15 3.75653E-14
 -1     16357-1.52900E-01 2.83579E-01-6.57759E-04-3.45657E-02 2.36364E-08 3.00329E-07
 -1     16358-1.50973E-01 2.90797E-01 1.66495E-03-7.17698E-02-1.14281E-07-7.21542E-07
 -1     16363-1.40607E-01 2.80978E-01 1.81307E-03-6.84906E-02-1.68018E-07-1.06082E-06
 -1     16364-1.52884E-01 2.83595E-01-6.20496E-04-3.45657E-02 4.17937E-08 5.31039E-07
 -1     16365-1.51006E-01 2.90763E-01 1.58697E-03-7.17697E-02-2.26704E-07-1.43136E-06
 -1     16370-1.40656E-01 2.80928E-01 1.69835E-03-6.84905E-02-1.06787E-07-6.74224E-07
 -1     16371-1.52850E-01 2.83629E-01-5.39509E-04-3.45657E-02-3.83760E-08-4.87614E-07
 -1     16372-1.51079E-01 2.90690E-01 1.41538E-03-7.17697E-02 6.85868E-08 4.33040E-07
 -1     16377-1.40749E-01 2.80835E-01 1.48077E-03-6.84905E-02 5.42113E-07 3.42276E-06
 -1     16378-1.52792E-01 2.83688E-01-4.03573E-04-3.45658E-02-3.66200E-07-4.65301E-06
 -1     16379-1.51206E-01 2.90562E-01 1.11743E-03-7.17696E-02 1.31523E-06 8.30403E-06
 -1     16384-1.40908E-01 2.80676E-01 1.10999E-03-6.84904E-02 2.27689E-06 1.43757E-05
 -1     16385-1.52710E-01 2.83770E-01-2.12943E-04-3.45658E-02-1.13152E-06-1.43773E-05
 -1     16386-1.51408E-01 2.90360E-01 6.46743E-04-7.17695E-02 4.46091E-06 2.81651E-05
 -1     16391-1.41184E-01 2.80399E-01 4.68930E-04-6.84903E-02 6.49229E-06 4.09907E-05
 -1     16395-1.09703E-01 2.48917E-01 4.68930E-04-1.30276E-01-1.28247E-05-3.94704E-05
 -1     16396-1.31347E-01 2.62407E-01-2.12943E-04-1.00314E-01 3.36669E-06 1.40233E-05
 -1     16397-1.18419E-01 2.57371E-01 6.46743E-04-1.36514E-01-8.81198E-06-2.71205E-05
 -1     16402-1.09426E-01 2.49194E-01 1.10999E-03-1.30276E-01-4.49772E-06-1.38425E-05
 -1     16403-1.31429E-01 2.62325E-01-4.03573E-04-1.00314E-01 1.08958E-06 4.53844E-06
 -1     16404-1.18217E-01 2.57573E-01 1.11743E-03-1.36514E-01-2.59807E-06-7.99605E-06
 -1     16409-1.09267E-01 2.49354E-01 1.48077E-03-1.30277E-01-1.07088E-06-3.29582E-06
 -1     16410-1.31487E-01 2.62266E-01-5.39509E-04-1.00314E-01 1.14183E-07 4.75607E-07
 -1     16411-1.18090E-01 2.57701E-01 1.41538E-03-1.36514E-01-1.35485E-07-4.16979E-07
 -1     16416-1.09174E-01 2.49447E-01 1.69835E-03-1.30277E-01 2.10944E-07 6.49219E-07
 -1     16417-1.31521E-01 2.62232E-01-6.20496E-04-1.00314E-01-1.24352E-07-5.17964E-07
 -1     16418-1.18017E-01 2.57774E-01 1.58697E-03-1.36514E-01 4.47827E-07 1.37827E-06
 -1     16423-1.09125E-01 2.49496E-01 1.81307E-03-1.30277E-01 3.31898E-07 1.02148E-06
 -1     16424-1.31537E-01 2.62216E-01-6.57759E-04-1.00314E-01-7.03272E-08-2.92934E-07
 -1     16425-1.17984E-01 2.57808E-01 1.66495E-03-1.36514E-01 2.25748E-07 6.94781E-07
 -1     16430-1.09110E-01 2.49511E-01 1.84890E-03-1.30277E-01-1.09686E-14-4.63413E-14
 -1     16431-1.31537E-01 2.62216E-01-6.57759E-04-1.00314E-01 7.03272E-08 2.92934E-07
 -1     16432-1.17984E-01 2.57808E-01 1.66495E-03-1.36514E-01-2.25748E-07-6.94781E-07
 -1     16437-1.09125E-01 2.49496E-01 1.81307E-03-1.30277E-01-3.31898E-07-1.02148E-06
 -1     16438-1.31521E-01 2.62232E-01-6.20496E-04-1.00314E-01 1.24352E-07 5.17964E-07
 -1     16439-1.18017E-01 2.57774E-01 1.58697E-03-1.36514E-01-4.47827E-07-1.37827E-06
 -1     16444-1.09174E-01 2.49447E-01 1.69835E-03-1.30277E-01-2.10944E-07-6.49219E-07
 -1     16445-1.31487E-01 2.62266E-01-5.39509E-04-1.00314E-01-1.14183E-07-4.75607E-07
 -1     16446-1.18090E-01 2.57701E-01 1.41538E-03-1.36514E-01 1.35485E-07 4.16979E-07
 -1     16451-1.09267E-01 2.49354E-01 1.48077E-03-1.30277E-01 1.07088E-06 3.29582E-06
 -1     16452-1.31429E-01 2.62325E-01-4.03573E-04-1.00314E-01-1.08958E-06-4.53844E-06
 -1     16453-1.18217E-01 2.57573E-01 1.11743E-03-1.36514E-01 2.59807E-06 7.99605E-06
 -1     16458-1.09426E-01 2.49194E-01 1.10999E-03-1.30276E-01 4.49772E-06 1.38425E-05
 -1     16459-1.31347E-01 2.62407E-01-2.12943E-04-1.00314E-01-3.36669E-06-1.40233E-05
 -1     16460-1.18419E-01 2.57371E-01 6.46743E-04-1.36514E-01 8.81198E-06 2.71205E-05
 -1     16465-1.09703E-01 2.48917E-01 4.68930E-04-1.30276E-01 1.28247E-05 3.94704E-05
 -1     16469-6.06689E-02 1.99884E-01 4.68930E-04-1.79310E-01-1.88414E-05-3.69782E-05
 -1     16470-9.07127E-02 2.21772E-01-2.12943E-04-1.56242E-01 5.51897E-06 1.33240E-05
 -1     16471-6.70379E-02 2.05989E-01 6.46743E-04-1.87895E-01-1.29461E-05-2.54081E-05
 -1     16476-6.03925E-02 2.00161E-01 1.10999E-03-1.79310E-01-6.60779E-06-1.29685E-05
 -1     16477-9.07944E-02 2.21690E-01-4.03573E-04-1.56242E-01 1.78614E-06 4.31211E-06
 -1     16478-6.68358E-02 2.06192E-01 1.11743E-03-1.87895E-01-3.81695E-06-7.49118E-06
 -1     16483-6.02333E-02 2.00320E-01 1.48077E-03-1.79310E-01-1.57327E-06-3.08772E-06
 -1     16484-9.08525E-02 2.21632E-01-5.39509E-04-1.56242E-01 1.87179E-07 4.51889E-07
 -1     16485-6.67085E-02 2.06320E-01 1.41538E-03-1.87895E-01-1.99047E-07-3.90651E-07
 -1     16490-6.01405E-02 2.00413E-01 1.69835E-03-1.79311E-01 3.09907E-07 6.08227E-07
 -1     16491-9.08870E-02 2.21597E-01-6.20496E-04-1.56242E-01-2.03848E-07-4.92134E-07
 -1     16492-6.66354E-02 2.06393E-01 1.58697E-03-1.87896E-01 6.57922E-07 1.29124E-06
 -1     16497-6.00916E-02 2.00462E-01 1.81307E-03-1.79311E-01 4.87606E-07 9.56981E-07
 -1     16498-9.09029E-02 2.21581E-01-6.57759E-04-1.56242E-01-1.15286E-07-2.78326E-07
 -1     16499-6.66023E-02 2.06426E-01 1.66495E-03-1.87896E-01 3.31657E-07 6.50913E-07
 -1     16504-6.00764E-02 2.00477E-01 1.84890E-03-1.79311E-01-4.43286E-15-1.40039E-14
 -1     16505-9.09029E-02 2.21581E-01-6.57759E-04-1.56242E-01 1.15286E-07 2.78326E-07
 -1     16506-6.66023E-02 2.06426E-01 1.66495E-03-1.87896E-01-3.31657E-07-6.50913E-07
 -1     16511-6.00916E-02 2.00462E-01 1.81307E-03-1.79311E-01-4.87606E-07-9.56981E-07
 -1     16512-9.08870E-02 2.21597E-01-6.20496E-04-1.56242E-01 2.03848E-07 4.92134E-07
 -1     16513-6.66354E-02 2.06393E-01 1.58697E-03-1.87896E-01-6.57922E-07-1.29124E-06
 -1     16518-6.01405E-02 2.00413E-01 1.69835E-03-1.79311E-01-3.09907E-07-6.08227E-07
 -1     16519-9.08525E-02 2.21632E-01-5.39509E-04-1.56242E-01-1.87179E-07-4.51889E-07
 -1     16520-6.67085E-02 2.06320E-01 1.41538E-03-1.87895E-01 1.99047E-07 3.90651E-07
 -1     16525-6.02333E-02 2.00320E-01 1.48077E-03-1.79310E-01 1.57327E-06 3.08772E-06
 -1     16526-9.07944E-02 2.21690E-01-4.03573E-04-1.56242E-01-1.78614E-06-4.31211E-06
 -1     16527-6.68358E-02 2.06192E-01 1.11743E-03-1.87895E-01 3.81695E-06 7.49118E-06
 -1     16532-6.03925E-02 2.00161E-01 1.10999E-03-1.79310E-01 6.60779E-06 1.29685E-05
 -1     16533-9.07127E-02 2.21772E-01-2.12943E-04-1.56242E-01-5.51897E-06-1.33240E-05
 -1     16534-6.70379E-02 2.05989E-01 6.46743E-04-1.87895E-01 1.29461E-05 2.54081E-05
 -1     16539-6.06689E-02 1.99884E-01 4.68930E-04-1.79310E-01 1.88414E-05 3.69782E-05
 -1     16543 1.11708E-03 1.38098E-01 4.68930E-04-2.10792E-01-2.43941E-05-3.35755E-05
 -1     16544-3.47841E-02 1.65844E-01-2.12943E-04-1.96877E-01 7.53535E-06 1.22966E-05
 -1     16545-2.29369E-03 1.41245E-01 6.46743E-04-2.20884E-01-1.67614E-05-2.30701E-05
 -1     16550 1.39364E-03 1.38374E-01 1.10999E-03-2.10792E-01-8.55516E-06-1.17752E-05
 -1     16551-3.48659E-02 1.65762E-01-4.03573E-04-1.96877E-01 2.43871E-06 3.97961E-06
 -1     16552-2.09153E-03 1.41448E-01 1.11743E-03-2.20884E-01-4.94183E-06-6.80185E-06
 -1     16557 1.55281E-03 1.38534E-01 1.48077E-03-2.10792E-01-2.03693E-06-2.80359E-06
 -1     16558-3.49240E-02 1.65703E-01-5.39509E-04-1.96877E-01 2.55565E-07 4.17045E-07
 -1     16559-1.96413E-03 1.41575E-01 1.41538E-03-2.20884E-01-2.57707E-07-3.54704E-07
 -1     16564 1.64575E-03 1.38627E-01 1.69835E-03-2.10792E-01 4.01239E-07 5.52258E-07
 -1     16565-3.49585E-02 1.65669E-01-6.20496E-04-1.96877E-01-2.78325E-07-4.54186E-07
 -1     16566-1.89100E-03 1.41648E-01 1.58697E-03-2.20885E-01 8.51817E-07 1.17243E-06
 -1     16571 1.69463E-03 1.38676E-01 1.81307E-03-2.10792E-01 6.31308E-07 8.68920E-07
 -1     16572-3.49744E-02 1.65653E-01-6.57759E-04-1.96877E-01-1.57407E-07-2.56864E-07
 -1     16573-1.85782E-03 1.41682E-01 1.66495E-03-2.20885E-01 4.29398E-07 5.91016E-07
 -1     16578 1.70987E-03 1.38691E-01 1.84890E-03-2.10792E-01-4.27199E-15 1.80025E-14
 -1     16579-3.49744E-02 1.65653E-01-6.57759E-04-1.96877E-01 1.57407E-07 2.56864E-07
 -1     16580-1.85782E-03 1.41682E-01 1.66495E-03-2.20885E-01-4.29398E-07-5.91016E-07
 -1     16585 1.69463E-03 1.38676E-01 1.81307E-03-2.10792E-01-6.31308E-07-8.68920E-07
 -1     16586-3.49585E-02 1.65669E-01-6.20496E-04-1.96877E-01 2.78325E-07 4.54186E-07
 -1     16587-1.89100E-03 1.41648E-01 1.58697E-03-2.20885E-01-8.51817E-07-1.17243E-06
 -1     16592 1.64575E-03 1.38627E-01 1.69835E-03-2.10792E-01-4.01239E-07-5.52258E-07
 -1     16593-3.49240E-02 1.65703E-01-5.39509E-04-1.96877E-01-2.55565E-07-4.17045E-07
 -1     16594-1.96413E-03 1.41575E-01 1.41538E-03-2.20884E-01 2.57707E-07 3.54704E-07
 -1     16599 1.55281E-03 1.38534E-01 1.48077E-03-2.10792E-01 2.03693E-06 2.80359E-06
 -1     16600-3.48659E-02 1.65762E-01-4.03573E-04-1.96877E-01-2.43871E-06-3.97961E-06
 -1     16601-2.09153E-03 1.41448E-01 1.11743E-03-2.20884E-01 4.94183E-06 6.80185E-06
 -1     16606 1.39364E-03 1.38374E-01 1.10999E-03-2.10792E-01 8.55516E-06 1.17752E-05
 -1     16607-3.47841E-02 1.65844E-01-2.12943E-04-1.96877E-01-7.53535E-06-1.22966E-05
 -1     16608-2.29369E-03 1.41245E-01 6.46743E-04-2.20884E-01 1.67614E-05 2.30701E-05
 -1     16613 1.11708E-03 1.38098E-01 4.68930E-04-2.10792E-01 2.43941E-05 3.35755E-05
 -1     16617 6.96074E-02 6.96074E-02 4.68930E-04-2.21639E-01-2.93461E-05-2.93461E-05
 -1     16618 3.09639E-02 1.00096E-01-2.12943E-04-2.18240E-01 9.36619E-06 1.09664E-05
 -1     16619 6.94758E-02 6.94758E-02 6.46743E-04-2.32251E-01-2.01640E-05-2.01640E-05
 -1     16624 6.98840E-02 6.98840E-02 1.10999E-03-2.21640E-01-1.02919E-05-1.02919E-05
 -1     16625 3.08821E-02 1.00014E-01-4.03573E-04-2.18240E-01 3.03123E-06 3.54912E-06
 -1     16626 6.96781E-02 6.96781E-02 1.11743E-03-2.32251E-01-5.94503E-06-5.94503E-06
 -1     16631 7.00433E-02 7.00433E-02 1.48077E-03-2.21640E-01-2.45043E-06-2.45043E-06
 -1     16632 3.08240E-02 9.99554E-02-5.39509E-04-2.18240E-01 3.17659E-07 3.71931E-07
 -1     16633 6.98056E-02 6.98056E-02 1.41538E-03-2.32252E-01-3.10022E-07-3.10023E-07
 -1     16638 7.01363E-02 7.01363E-02 1.69835E-03-2.21640E-01 4.82692E-07 4.82691E-07
 -1     16639 3.07894E-02 9.99209E-02-6.20496E-04-2.18239E-01-3.45949E-07-4.05054E-07
 -1     16640 6.98787E-02 6.98787E-02 1.58697E-03-2.32252E-01 1.02474E-06 1.02474E-06
 -1     16645 7.01852E-02 7.01852E-02 1.81307E-03-2.21640E-01 7.59465E-07 7.59464E-07
 -1     16646 3.07736E-02 9.99050E-02-6.57759E-04-2.18239E-01-1.95651E-07-2.29078E-07
 -1     16647 6.99119E-02 6.99119E-02 1.66495E-03-2.32252E-01 5.16567E-07 5.16567E-07
 -1     16652 7.02005E-02 7.02005E-02 1.84890E-03-2.21640E-01 2.37643E-15 4.28897E-15
 -1     16653 3.07736E-02 9.99050E-02-6.57759E-04-2.18239E-01 1.95651E-07 2.29078E-07
 -1     16654 6.99119E-02 6.99119E-02 1.66495E-03-2.32252E-01-5.16567E-07-5.16567E-07
 -1     16659 7.01852E-02 7.01852E-02 1.81307E-03-2.21640E-01-7.59465E-07-7.59464E-07
 -1     16660 3.07894E-02 9.99209E-02-6.20496E-04-2.18239E-01 3.45949E-07 4.05054E-07
 -1     16661 6.98787E-02 6.98787E-02 1.58697E-03-2.32252E-01-1.02474E-06-1.02474E-06
 -1     16666 7.01363E-02 7.01363E-02 1.69835E-03-2.21640E-01-4.82692E-07-4.82691E-07
 -1     16667 3.08240E-02 9.99554E-02-5.39509E-04-2.18240E-01-3.17659E-07-3.71931E-07
 -1     16668 6.98056E-02 6.98056E-02 1.41538E-03-2.32252E-01 3.10022E-07 3.10023E-07
 -1     16673 7.00433E-02 7.00433E-02 1.48077E-03-2.21640E-01 2.45043E-06 2.45043E-06
 -1     16674 3.08821E-02 1.00014E-01-4.03573E-04-2.18240E-01-3.03123E-06-3.54912E-06
 -1     16675 6.96781E-02 6.96781E-02 1.11743E-03-2.32251E-01 5.94503E-06 5.94503E-06
 -1     16680 6.98840E-02 6.98840E-02 1.10999E-03-2.21640E-01 1.02919E-05 1.02919E-05
 -1     16681 3.09639E-02 1.00096E-01-2.12943E-04-2.18240E-01-9.36619E-06-1.09664E-05
 -1     16682 6.94758E-02 6.94758E-02 6.46743E-04-2.32251E-01 2.01640E-05 2.01640E-05
 -1     16687 6.96074E-02 6.96074E-02 4.68930E-04-2.21639E-01 2.93461E-05 2.93461E-05
 -1     16691 1.38098E-01 1.11708E-03 4.68930E-04-2.10792E-01-3.35755E-05-2.43941E-05
 -1     16692 1.00096E-01 3.09639E-02-2.12943E-04-2.18240E-01 1.09664E-05 9.36619E-06
 -1     16693 1.41245E-01-2.29369E-03 6.46743E-04-2.20884E-01-2.30701E-05-1.67614E-05
 -1     16698 1.38374E-01 1.39363E-03 1.10999E-03-2.10792E-01-1.17752E-05-8.55516E-06
 -1     16699 1.00014E-01 3.08821E-02-4.03573E-04-2.18240E-01 3.54912E-06 3.03123E-06
 -1     16700 1.41448E-01-2.09153E-03 1.11743E-03-2.20884E-01-6.80185E-06-4.94183E-06
 -1     16705 1.38534E-01 1.55281E-03 1.48077E-03-2.10792E-01-2.80359E-06-2.03693E-06
 -1     16706 9.99554E-02 3.08240E-02-5.39509E-04-2.18240E-01 3.71931E-07 3.17659E-07
 -1     16707 1.41575E-01-1.96413E-03 1.41538E-03-2.20884E-01-3.54704E-07-2.57707E-07
 -1     16712 1.38627E-01 1.64575E-03 1.69835E-03-2.10792E-01 5.52258E-07 4.01239E-07
 -1     16713 9.99209E-02 3.07894E-02-6.20496E-04-2.18239E-01-4.05054E-07-3.45949E-07
 -1     16714 1.41648E-01-1.89100E-03 1.58697E-03-2.20885E-01 1.17243E-06 8.51817E-07
 -1     16719 1.38676E-01 1.69463E-03 1.81307E-03-2.10792E-01 8.68920E-07 6.31308E-07
 -1     16720 9.99050E-02 3.07736E-02-6.57759E-04-2.18239E-01-2.29078E-07-1.95651E-07
 -1     16721 1.41682E-01-1.85782E-03 1.66495E-03-2.20885E-01 5.91016E-07 4.29398E-07
 -1     16726 1.38691E-01 1.70987E-03 1.84890E-03-2.10792E-01-6.37532E-15-9.40875E-15
 -1     16727 9.99050E-02 3.07736E-02-6.57759E-04-2.18239E-01 2.29078E-07 1.95651E-07
 -1     16728 1.41682E-01-1.85782E-03 1.66495E-03-2.20885E-01-5.91016E-07-4.29398E-07
 -1     16733 1.38676E-01 1.69463E-03 1.81307E-03-2.10792E-01-8.68920E-07-6.31308E-07
 -1     16734 9.99209E-02 3.07894E-02-6.20496E-04-2.18239E-01 4.05054E-07 3.45949E-07
 -1     16735 1.41648E-01-1.89100E-03 1.58697E-03-2.20885E-01-1.17243E-06-8.51817E-07
 -1     16740 1.38627E-01 1.64575E-03 1.69835E-03-2.10792E-01-5.52258E-07-4.01239E-07
 -1     16741 9.99554E-02 3.08240E-02-5.39509E-04-2.18240E-01-3.71931E-07-3.17659E-07
 -1     16742 1.41575E-01-1.96413E-03 1.41538E-03-2.20884E-01 3.54704E-07 2.57708E-07
 -1     16747 1.38534E-01 1.55281E-03 1.48077E-03-2.10792E-01 2.80359E-06 2.03693E-06
 -1     16748 1.00014E-01 3.08821E-02-4.03573E-04-2.18240E-01-3.54912E-06-3.03123E-06
 -1     16749 1.41448E-01-2.09153E-03 1.11743E-03-2.20884E-01 6.80185E-06 4.94183E-06
 -1     16754 1.38374E-01 1.39363E-03 1.10999E-03-2.10792E-01 1.17752E-05 8.55516E-06
 -1     16755 1.00096E-01 3.09639E-02-2.12943E-04-2.18240E-01-1.09664E-05-9.36619E-06
 -1     16756 1.41245E-01-2.29369E-03 6.46743E-04-2.20884E-01 2.30701E-05 1.67614E-05
 -1     16761 1.38098E-01 1.11708E-03 4.68930E-04-2.10792E-01 3.35755E-05 2.43941E-05
 -1     16765 1.99884E-01-6.06689E-02 4.68930E-04-1.79310E-01-3.69782E-05-1.88414E-05
 -1     16766 1.65844E-01-3.47841E-02-2.12943E-04-1.96877E-01 1.22966E-05 7.53535E-06
 -1     16767 2.05989E-01-6.70379E-02 6.46743E-04-1.87895E-01-2.54081E-05-1.29461E-05
 -1     16772 2.00161E-01-6.03925E-02 1.10999E-03-1.79310E-01-1.29685E-05-6.60779E-06
 -1     16773 1.65762E-01-3.48659E-02-4.03573E-04-1.96877E-01 3.97961E-06 2.43871E-06
 -1     16774 2.06192E-01-6.68358E-02 1.11743E-03-1.87895E-01-7.49118E-06-3.81695E-06
 -1     16779 2.00320E-01-6.02333E-02 1.48077E-03-1.79310E-01-3.08772E-06-1.57327E-06
 -1     16780 1.65703E-01-3.49240E-02-5.39509E-04-1.96877E-01 4.17045E-07 2.55565E-07
 -1     16781 2.06320E-01-6.67085E-02 1.41538E-03-1.87895E-01-3.90651E-07-1.99046E-07
 -1     16786 2.00413E-01-6.01405E-02 1.69835E-03-1.79311E-01 6.08226E-07 3.09907E-07
 -1     16787 1.65669E-01-3.49585E-02-6.20496E-04-1.96877E-01-4.54185E-07-2.78325E-07
 -1     16788 2.06393E-01-6.66354E-02 1.58697E-03-1.87896E-01 1.29124E-06 6.57922E-07
 -1     16793 2.00462E-01-6.00916E-02 1.81307E-03-1.79311E-01 9.56981E-07 4.87606E-07
 -1     16794 1.65653E-01-3.49744E-02-6.57759E-04-1.96877E-01-2.56864E-07-1.57407E-07
 -1     16795 2.06426E-01-6.66023E-02 1.66495E-03-1.87896E-01 6.50913E-07 3.31657E-07
 -1     16800 2.00477E-01-6.00764E-02 1.84890E-03-1.79311E-01-1.36064E-15 2.13465E-14
 -1     16801 1.65653E-01-3.49744E-02-6.57759E-04-1.96877E-01 2.56864E-07 1.57407E-07
 -1     16802 2.06426E-01-6.66023E-02 1.66495E-03-1.87896E-01-6.50913E-07-3.31657E-07
 -1     16807 2.00462E-01-6.00916E-02 1.81307E-03-1.79311E-01-9.56981E-07-4.87606E-07
 -1     16808 1.65669E-01-3.49585E-02-6.20496E-04-1.96877E-01 4.54185E-07 2.78325E-07
 -1     16809 2.06393E-01-6.66354E-02 1.58697E-03-1.87896E-01-1.29124E-06-6.57922E-07
 -1     16814 2.00413E-01-6.01405E-02 1.69835E-03-1.79311E-01-6.08226E-07-3.09907E-07
 -1     16815 1.65703E-01-3.49240E-02-5.39509E-04-1.96877E-01-4.17045E-07-2.55565E-07
 -1     16816 2.06320E-01-6.67085E-02 1.41538E-03-1.87895E-01 3.90651E-07 1.99046E-07
 -1     16821 2.00320E-01-6.02333E-02 1.48077E-03-1.79310E-01 3.08772E-06 1.57327E-06
 -1     16822 1.65762E-01-3.48659E-02-4.03573E-04-1.96877E-01-3.97961E-06-2.43871E-06
 -1     16823 2.06192E-01-6.68358E-02 1.11743E-03-1.87895E-01 7.49118E-06 3.81695E-06
 -1     16828 2.00161E-01-6.03925E-02 1.10999E-03-1.79310E-01 1.29685E-05 6.60779E-06
 -1     16829 1.65844E-01-3.47841E-02-2.12943E-04-1.96877E-01-1.22966E-05-7.53535E-06
 -1     16830 2.05989E-01-6.70379E-02 6.46743E-04-1.87895E-01 2.54081E-05 1.29461E-05
 -1     16835 1.99884E-01-6.06689E-02 4.68930E-04-1.79310E-01 3.69782E-05 1.88414E-05
 -1     16839 2.48917E-01-1.09703E-01 4.68930E-04-1.30276E-01-3.94704E-05-1.28247E-05
 -1     16840 2.21772E-01-9.07127E-02-2.12943E-04-1.56242E-01 1.33240E-05 5.51897E-06
 -1     16841 2.57371E-01-1.18419E-01 6.46743E-04-1.36514E-01-2.71205E-05-8.81198E-06
 -1     16846 2.49194E-01-1.09426E-01 1.10999E-03-1.30276E-01-1.38425E-05-4.49772E-06
 -1     16847 2.21690E-01-9.07944E-02-4.03573E-04-1.56242E-01 4.31211E-06 1.78614E-06
 -1     16848 2.57573E-01-1.18217E-01 1.11743E-03-1.36514E-01-7.99605E-06-2.59807E-06
 -1     16853 2.49354E-01-1.09267E-01 1.48077E-03-1.30277E-01-3.29582E-06-1.07088E-06
 -1     16854 2.21632E-01-9.08525E-02-5.39509E-04-1.56242E-01 4.51889E-07 1.87179E-07
 -1     16855 2.57701E-01-1.18090E-01 1.41538E-03-1.36514E-01-4.16979E-07-1.35485E-07
 -1     16860 2.49447E-01-1.09174E-01 1.69835E-03-1.30277E-01 6.49219E-07 2.10944E-07
 -1     16861 2.21597E-01-9.08870E-02-6.20496E-04-1.56242E-01-4.92133E-07-2.03849E-07
 -1     16862 2.57774E-01-1.18017E-01 1.58697E-03-1.36514E-01 1.37827E-06 4.47827E-07
 -1     16867 2.49496E-01-1.09125E-01 1.81307E-03-1.30277E-01 1.02148E-06 3.31898E-07
 -1     16868 2.21581E-01-9.09029E-02-6.57759E-04-1.56242E-01-2.78326E-07-1.15286E-07
 -1     16869 2.57808E-01-1.17984E-01 1.66495E-03-1.36514E-01 6.94781E-07 2.25748E-07
 -1     16874 2.49511E-01-1.09110E-01 1.84890E-03-1.30277E-01-1.85382E-15 1.42030E-14
 -1     16875 2.21581E-01-9.09029E-02-6.57759E-04-1.56242E-01 2.78326E-07 1.15286E-07
 -1     16876 2.57808E-01-1.17984E-01 1.66495E-03-1.36514E-01-6.94781E-07-2.25748E-07
 -1     16881 2.49496E-01-1.09125E-01 1.81307E-03-1.30277E-01-1.02148E-06-3.31898E-07
 -1     16882 2.21597E-01-9.08870E-02-6.20496E-04-1.56242E-01 4.92134E-07 2.03849E-07
 -1     16883 2.57774E-01-1.18017E-01 1.58697E-03-1.36514E-01-1.37827E-06-4.47827E-07
 -1     16888 2.49447E-01-1.09174E-01 1.69835E-03-1.30277E-01-6.49219E-07-2.10944E-07
 -1     16889 2.21632E-01-9.08525E-02-5.39509E-04-1.56242E-01-4.51889E-07-1.87179E-07
 -1     16890 2.57701E-01-1.18090E-01 1.41538E-03-1.36514E-01 4.16979E-07 1.35485E-07
 -1     16895 2.49354E-01-1.09267E-01 1.48077E-03-1.30277E-01 3.29582E-06 1.07088E-06
 -1     16896 2.21690E-01-9.07944E-02-4.03573E-04-1.56242E-01-4.31211E-06-1.78614E-06
 -1     16897 2.57573E-01-1.18217E-01 1.11743E-03-1.36514E-01 7.99605E-06 2.59807E-06
 -1     16902 2.49194E-01-1.09426E-01 1.10999E-03-1.30276E-01 1.38425E-05 4.49772E-06
 -1     16903 2.21772E-01-9.07127E-02-2.12943E-04-1.56242E-01-1.33240E-05-5.51897E-06
 -1     16904 2.57371E-01-1.18419E-01 6.46743E-04-1.36514E-01 2.71205E-05 8.81198E-06
 -1     16909 2.48917E-01-1.09703E-01 4.68930E-04-1.30276E-01 3.94704E-05 1.28247E-05
 -1     16913 2.80399E-01-1.41184E-01 4.68930E-04-6.84903E-02-4.09907E-05-6.49229E-06
 -1     16914 2.62407E-01-1.31347E-01-2.12943E-04-1.00314E-01 1.40233E-05 3.36669E-06
 -1     16915 2.90360E-01-1.51408E-01 6.46743E-04-7.17695E-02-2.81651E-05-4.46091E-06
 -1     16920 2.80676E-01-1.40908E-01 1.10999E-03-6.84904E-02-1.43757E-05-2.27689E-06
 -1     16921 2.62325E-01-1.31429E-01-4.03573E-04-1.00314E-01 4.53844E-06 1.08958E-06
 -1     16922 2.90562E-01-1.51206E-01 1.11743E-03-7.17696E-02-8.30403E-06-1.31523E-06
 -1     16927 2.80835E-01-1.40749E-01 1.48077E-03-6.84905E-02-3.42276E-06-5.42114E-07
 -1     16928 2.62266E-01-1.31487E-01-5.39509E-04-1.00314E-01 4.75607E-07 1.14183E-07
 -1     16929 2.90690E-01-1.51079E-01 1.41538E-03-7.17697E-02-4.33040E-07-6.85877E-08
 -1     16934 2.80928E-01-1.40656E-01 1.69835E-03-6.84905E-02 6.74225E-07 1.06786E-07
 -1     16935 2.62232E-01-1.31521E-01-6.20496E-04-1.00314E-01-5.17964E-07-1.24352E-07
 -1     16936 2.90763E-01-1.51006E-01 1.58697E-03-7.17697E-02 1.43136E-06 2.26704E-07
 -1     16941 2.80978E-01-1.40607E-01 1.81307E-03-6.84906E-02 1.06082E-06 1.68017E-07
 -1     16942 2.62216E-01-1.31537E-01-6.57759E-04-1.00314E-01-2.92934E-07-7.03272E-08
 -1     16943 2.90797E-01-1.50973E-01 1.66495E-03-7.17698E-02 7.21542E-07 1.14281E-07
 -1     16948 2.80993E-01-1.40592E-01 1.84890E-03-6.84906E-02 6.52934E-15-4.07907E-16
 -1     16949 2.62216E-01-1.31537E-01-6.57759E-04-1.00314E-01 2.92934E-07 7.03272E-08
 -1     16950 2.90797E-01-1.50973E-01 1.66495E-03-7.17698E-02-7.21542E-07-1.14281E-07
 -1     16955 2.80978E-01-1.40607E-01 1.81307E-03-6.84906E-02-1.06082E-06-1.68017E-07
 -1     16956 2.62232E-01-1.31521E-01-6.20496E-04-1.00314E-01 5.17964E-07 1.24352E-07
 -1     16957 2.90763E-01-1.51006E-01 1.58697E-03-7.17697E-02-1.43136E-06-2.26704E-07
 -1     16962 2.80928E-01-1.40656E-01 1.69835E-03-6.84905E-02-6.74225E-07-1.06786E-07
 -1     16963 2.62266E-01-1.31487E-01-5.39509E-04-1.00314E-01-4.75607E-07-1.14183E-07
 -1     16964 2.90690E-01-1.51079E-01 1.41538E-03-7.17697E-02 4.33040E-07 6.85877E-08
 -1     16969 2.80835E-01-1.40749E-01 1.48077E-03-6.84905E-02 3.42276E-06 5.42114E-07
 -1     16970 2.62325E-01-1.31429E-01-4.03573E-04-1.00314E-01-4.53844E-06-1.08958E-06
 -1     16971 2.90562E-01-1.51206E-01 1.11743E-03-7.17696E-02 8.30403E-06 1.31523E-06
 -1     16976 2.80676E-01-1.40908E-01 1.10999E-03-6.84904E-02 1.43757E-05 2.27689E-06
 -1     16977 2.62407E-01-1.31347E-01-2.12943E-04-1.00314E-01-1.40233E-05-3.36669E-06
 -1     16978 2.90360E-01-1.51408E-01 6.46743E-04-7.17695E-02 2.81651E-05 4.46091E-06
 -1     16983 2.80399E-01-1.41184E-01 4.68930E-04-6.84903E-02 4.09907E-05 6.49229E-06
 -1     16987 2.83770E-01-1.52710E-01-2.12943E-04-3.45658E-02 1.43773E-05 1.13152E-06
 -1     16991 2.83688E-01-1.52792E-01-4.03573E-04-3.45658E-02 4.65301E-06 3.66200E-07
 -1     16995 2.83629E-01-1.52850E-01-5.39509E-04-3.45657E-02 4.87614E-07 3.83764E-08
 -1     16999 2.83595E-01-1.52884E-01-6.20496E-04-3.45657E-02-5.31039E-07-4.17935E-08
 -1     17003 2.83579E-01-1.52900E-01-6.57759E-04-3.45657E-02-3.00329E-07-2.36363E-08
 -1     17007 2.83579E-01-1.52900E-01-6.57759E-04-3.45657E-02 3.00329E-07 2.36363E-08
 -1     17011 2.83595E-01-1.52884E-01-6.20496E-04-3.45657E-02 5.31039E-07 4.17935E-08
 -1     17015 2.83629E-01-1.52850E-01-5.39509E-04-3.45657E-02-4.87614E-07-3.83764E-08
 -1     17019 2.83688E-01-1.52792E-01-4.03573E-04-3.45658E-02-4.65301E-06-3.66200E-07
 -1     17023 2.83770E-01-1.52710E-01-2.12943E-04-3.45658E-02-1.43773E-05-1.13152E-06
 -1     17029-1.23537E-01 2.62201E-01 4.07471E-04-6.26669E-02-6.07299E-06-3.83434E-05
 -1     17030-1.34073E-01 2.65295E-01-1.92693E-04-3.16268E-02 1.07265E-06 1.36293E-05
 -1     17031-1.32449E-01 2.70914E-01 5.70838E-04-6.55302E-02-4.25208E-06-2.68466E-05
 -1     17036-1.23294E-01 2.62444E-01 9.71702E-04-6.26670E-02-2.30612E-06-1.45602E-05
 -1     17037-1.34147E-01 2.65221E-01-3.64854E-04-3.16268E-02 3.80814E-07 4.83870E-06
 -1     17038-1.32268E-01 2.71095E-01 9.90803E-04-6.55303E-02-1.40542E-06-8.87348E-06
 -1     17043-1.23151E-01 2.62587E-01 1.30457E-03-6.26670E-02-6.73295E-07-4.25102E-06
 -1     17044-1.34199E-01 2.65168E-01-4.88316E-04-3.16268E-02 7.16866E-08 9.10865E-07
 -1     17045-1.32153E-01 2.71210E-01 1.26037E-03-6.55304E-02-2.15233E-07-1.35893E-06
 -1     17050-1.23066E-01 2.62673E-01 1.50289E-03-6.26671E-02-1.82991E-08-1.15536E-07
 -1     17051-1.34231E-01 2.65136E-01-5.62576E-04-3.16268E-02-1.71448E-08-2.17845E-07
 -1     17052-1.32086E-01 2.71278E-01 1.41753E-03-6.55304E-02 1.20187E-07 7.58830E-07
 -1     17057-1.23021E-01 2.62718E-01 1.60859E-03-6.26671E-02 9.86139E-08 6.22624E-07
 -1     17058-1.34246E-01 2.65121E-01-5.96985E-04-3.16267E-02-1.48110E-08-1.88192E-07
 -1     17059-1.32056E-01 2.71308E-01 1.48956E-03-6.55305E-02 7.66539E-08 4.83974E-07
 -1     17064-1.23007E-01 2.62732E-01 1.64178E-03-6.26671E-02-3.89547E-15 3.50288E-15
 -1     17065-1.34246E-01 2.65121E-01-5.96985E-04-3.16267E-02 1.48110E-08 1.88192E-07
 -1     17066-1.32056E-01 2.71308E-01 1.48956E-03-6.55305E-02-7.66540E-08-4.83974E-07
 -1     17071-1.23021E-01 2.62718E-01 1.60859E-03-6.26671E-02-9.86139E-08-6.22624E-07
 -1     17072-1.34231E-01 2.65136E-01-5.62576E-04-3.16268E-02 1.71448E-08 2.17845E-07
 -1     17073-1.32086E-01 2.71278E-01 1.41753E-03-6.55304E-02-1.20187E-07-7.58830E-07
 -1     17078-1.23066E-01 2.62673E-01 1.50289E-03-6.26671E-02 1.82991E-08 1.15536E-07
 -1     17079-1.34199E-01 2.65168E-01-4.88316E-04-3.16268E-02-7.16866E-08-9.10865E-07
 -1     17080-1.32153E-01 2.71210E-01 1.26037E-03-6.55304E-02 2.15233E-07 1.35893E-06
 -1     17085-1.23151E-01 2.62587E-01 1.30457E-03-6.26670E-02 6.73295E-07 4.25102E-06
 -1     17086-1.34147E-01 2.65221E-01-3.64854E-04-3.16268E-02-3.80814E-07-4.83870E-06
 -1     17087-1.32268E-01 2.71095E-01 9.90803E-04-6.55303E-02 1.40542E-06 8.87348E-06
 -1     17092-1.23294E-01 2.62444E-01 9.71702E-04-6.26670E-02 2.30612E-06 1.45602E-05
 -1     17093-1.34073E-01 2.65295E-01-1.92693E-04-3.16268E-02-1.07265E-06-1.36293E-05
 -1     17094-1.32449E-01 2.70914E-01 5.70838E-04-6.55302E-02 4.25208E-06 2.68466E-05
 -1     17099-1.23537E-01 2.62201E-01 4.07471E-04-6.26669E-02 6.07299E-06 3.83434E-05
 -1     17103-9.47324E-02 2.33396E-01 4.07471E-04-1.19200E-01-1.19965E-05-3.69213E-05
 -1     17104-1.14526E-01 2.45748E-01-1.92693E-04-9.17846E-02 3.19153E-06 1.32937E-05
 -1     17105-1.02328E-01 2.40793E-01 5.70838E-04-1.24646E-01-8.39946E-06-2.58509E-05
 -1     17110-9.44890E-02 2.33639E-01 9.71702E-04-1.19200E-01-4.55545E-06-1.40202E-05
 -1     17111-1.14600E-01 2.45674E-01-3.64854E-04-9.17845E-02 1.13306E-06 4.71955E-06
 -1     17112-1.02147E-01 2.40974E-01 9.90803E-04-1.24646E-01-2.77624E-06-8.54438E-06
 -1     17117-9.43462E-02 2.33783E-01 1.30457E-03-1.19200E-01-1.33001E-06-4.09335E-06
 -1     17118-1.14653E-01 2.45621E-01-4.88316E-04-9.17844E-02 2.13295E-07 8.88437E-07
 -1     17119-1.02032E-01 2.41089E-01 1.26037E-03-1.24646E-01-4.25167E-07-1.30853E-06
 -1     17124-9.42615E-02 2.33868E-01 1.50289E-03-1.19200E-01-3.61477E-08-1.11251E-07
 -1     17125-1.14685E-01 2.45589E-01-5.62576E-04-9.17844E-02-5.10122E-08-2.12481E-07
 -1     17126-1.01965E-01 2.41157E-01 1.41753E-03-1.24646E-01 2.37414E-07 7.30686E-07
 -1     17131-9.42165E-02 2.33913E-01 1.60859E-03-1.19200E-01 1.94800E-07 5.99532E-07
 -1     17132-1.14699E-01 2.45575E-01-5.96985E-04-9.17844E-02-4.40684E-08-1.83558E-07
 -1     17133-1.01935E-01 2.41187E-01 1.48956E-03-1.24646E-01 1.51420E-07 4.66024E-07
 -1     17138-9.42024E-02 2.33927E-01 1.64178E-03-1.19200E-01-2.18564E-14-2.37314E-14
 -1     17139-1.14699E-01 2.45575E-01-5.96985E-04-9.17844E-02 4.40684E-08 1.83558E-07
 -1     17140-1.01935E-01 2.41187E-01 1.48956E-03-1.24646E-01-1.51420E-07-4.66024E-07
 -1     17145-9.42165E-02 2.33913E-01 1.60859E-03-1.19200E-01-1.94800E-07-5.99532E-07
 -1     17146-1.14685E-01 2.45589E-01-5.62576E-04-9.17844E-02 5.10122E-08 2.12481E-07
 -1     17147-1.01965E-01 2.41157E-01 1.41753E-03-1.24646E-01-2.37414E-07-7.30686E-07
 -1     17152-9.42615E-02 2.33868E-01 1.50289E-03-1.19200E-01 3.61477E-08 1.11251E-07
 -1     17153-1.14653E-01 2.45621E-01-4.88316E-04-9.17844E-02-2.13295E-07-8.88437E-07
 -1     17154-1.02032E-01 2.41089E-01 1.26037E-03-1.24646E-01 4.25167E-07 1.30853E-06
 -1     17159-9.43462E-02 2.33783E-01 1.30457E-03-1.19200E-01 1.33001E-06 4.09335E-06
 -1     17160-1.14600E-01 2.45674E-01-3.64854E-04-9.17845E-02-1.13306E-06-4.71955E-06
 -1     17161-1.02147E-01 2.40974E-01 9.90803E-04-1.24646E-01 2.77624E-06 8.54438E-06
 -1     17166-9.44890E-02 2.33639E-01 9.71702E-04-1.19200E-01 4.55545E-06 1.40202E-05
 -1     17167-1.14526E-01 2.45748E-01-1.92693E-04-9.17846E-02-3.19153E-06-1.32937E-05
 -1     17168-1.02328E-01 2.40793E-01 5.70838E-04-1.24646E-01 8.39946E-06 2.58509E-05
 -1     17173-9.47324E-02 2.33396E-01 4.07471E-04-1.19200E-01 1.19965E-05 3.69213E-05
 -1     17177-4.98679E-02 1.88531E-01 4.07471E-04-1.64064E-01-1.76245E-05-3.45901E-05
 -1     17178-7.73468E-02 2.08569E-01-1.92693E-04-1.42958E-01 5.23183E-06 1.26308E-05
 -1     17179-5.54133E-02 1.93879E-01 5.70838E-04-1.71560E-01-1.23400E-05-2.42187E-05
 -1     17184-4.96244E-02 1.88775E-01 9.71702E-04-1.64064E-01-6.69261E-06-1.31350E-05
 -1     17185-7.74207E-02 2.08495E-01-3.64854E-04-1.42958E-01 1.85742E-06 4.48420E-06
 -1     17186-5.52329E-02 1.94059E-01 9.90803E-04-1.71561E-01-4.07869E-06-8.00488E-06
 -1     17191-4.94815E-02 1.88918E-01 1.30457E-03-1.64064E-01-1.95398E-06-3.83490E-06
 -1     17192-7.74735E-02 2.08442E-01-4.88316E-04-1.42958E-01 3.49651E-07 8.44132E-07
 -1     17193-5.51176E-02 1.94175E-01 1.26037E-03-1.71561E-01-6.24632E-07-1.22591E-06
 -1     17198-4.93968E-02 1.89003E-01 1.50289E-03-1.64065E-01-5.31064E-08-1.04227E-07
 -1     17199-7.75051E-02 2.08410E-01-5.62576E-04-1.42958E-01-8.36235E-08-2.01885E-07
 -1     17200-5.50506E-02 1.94242E-01 1.41753E-03-1.71561E-01 3.48796E-07 6.84550E-07
 -1     17205-4.93518E-02 1.89048E-01 1.60859E-03-1.64065E-01 2.86189E-07 5.61677E-07
 -1     17206-7.75198E-02 2.08395E-01-5.96985E-04-1.42958E-01-7.22406E-08-1.74404E-07
 -1     17207-5.50200E-02 1.94273E-01 1.48956E-03-1.71561E-01 2.22458E-07 4.36599E-07
 -1     17212-4.93376E-02 1.89062E-01 1.64178E-03-1.64065E-01 6.29165E-16-3.34019E-14
 -1     17213-7.75198E-02 2.08395E-01-5.96985E-04-1.42958E-01 7.22406E-08 1.74404E-07
 -1     17214-5.50200E-02 1.94273E-01 1.48956E-03-1.71561E-01-2.22458E-07-4.36599E-07
 -1     17219-4.93518E-02 1.89048E-01 1.60859E-03-1.64065E-01-2.86189E-07-5.61677E-07
 -1     17220-7.75051E-02 2.08410E-01-5.62576E-04-1.42958E-01 8.36235E-08 2.01885E-07
 -1     17221-5.50506E-02 1.94242E-01 1.41753E-03-1.71561E-01-3.48796E-07-6.84550E-07
 -1     17226-4.93968E-02 1.89003E-01 1.50289E-03-1.64065E-01 5.31064E-08 1.04227E-07
 -1     17227-7.74735E-02 2.08442E-01-4.88316E-04-1.42958E-01-3.49651E-07-8.44132E-07
 -1     17228-5.51176E-02 1.94175E-01 1.26037E-03-1.71561E-01 6.24632E-07 1.22591E-06
 -1     17233-4.94815E-02 1.88918E-01 1.30457E-03-1.64064E-01 1.95398E-06 3.83490E-06
 -1     17234-7.74207E-02 2.08495E-01-3.64854E-04-1.42958E-01-1.85742E-06-4.48420E-06
 -1     17235-5.52329E-02 1.94059E-01 9.90803E-04-1.71561E-01 4.07869E-06 8.00488E-06
 -1     17240-4.96244E-02 1.88775E-01 9.71702E-04-1.64064E-01 6.69261E-06 1.31350E-05
 -1     17241-7.73468E-02 2.08569E-01-1.92693E-04-1.42958E-01-5.23183E-06-1.26308E-05
 -1     17242-5.54133E-02 1.93879E-01 5.70838E-04-1.71560E-01 1.23400E-05 2.42187E-05
 -1     17247-4.98679E-02 1.88531E-01 4.07471E-04-1.64064E-01 1.76245E-05 3.45901E-05
 -1     17251 6.66476E-03 1.31999E-01 4.07471E-04-1.92869E-01-2.28186E-05-3.14071E-05
 -1     17252-2.61736E-02 1.57396E-01-1.92693E-04-1.80137E-01 7.14331E-06 1.16568E-05
 -1     17253 3.70239E-03 1.34763E-01 5.70838E-04-2.01681E-01-1.59767E-05-2.19901E-05
 -1     17258 6.90825E-03 1.32242E-01 9.71702E-04-1.92869E-01-8.66498E-06-1.19263E-05
 -1     17259-2.62475E-02 1.57322E-01-3.64854E-04-1.80137E-01 2.53603E-06 4.13843E-06
 -1     17260 3.88288E-03 1.34944E-01 9.90803E-04-2.01682E-01-5.28072E-06-7.26828E-06
 -1     17265 7.05122E-03 1.32385E-01 1.30457E-03-1.92869E-01-2.52983E-06-3.48201E-06
 -1     17266-2.63003E-02 1.57269E-01-4.88316E-04-1.80137E-01 4.77398E-07 7.79042E-07
 -1     17267 3.99822E-03 1.35059E-01 1.26037E-03-2.01682E-01-8.08716E-07-1.11310E-06
 -1     17272 7.13599E-03 1.32470E-01 1.50289E-03-1.92869E-01-6.87570E-08-9.46358E-08
 -1     17273-2.63320E-02 1.57237E-01-5.62576E-04-1.80137E-01-1.14176E-07-1.86318E-07
 -1     17274 4.06525E-03 1.35126E-01 1.41753E-03-2.01682E-01 4.51589E-07 6.21559E-07
 -1     17279 7.18105E-03 1.32515E-01 1.60859E-03-1.92870E-01 3.70531E-07 5.09992E-07
 -1     17280-2.63466E-02 1.57222E-01-5.96985E-04-1.80137E-01-9.86340E-08-1.60956E-07
 -1     17281 4.09591E-03 1.35157E-01 1.48956E-03-2.01682E-01 2.88019E-07 3.96424E-07
 -1     17286 7.19519E-03 1.32529E-01 1.64178E-03-1.92870E-01-2.05528E-14-5.46618E-14
 -1     17287-2.63466E-02 1.57222E-01-5.96985E-04-1.80137E-01 9.86341E-08 1.60956E-07
 -1     17288 4.09591E-03 1.35157E-01 1.48956E-03-2.01682E-01-2.88019E-07-3.96424E-07
 -1     17293 7.18105E-03 1.32515E-01 1.60859E-03-1.92870E-01-3.70531E-07-5.09992E-07
 -1     17294-2.63320E-02 1.57237E-01-5.62576E-04-1.80137E-01 1.14176E-07 1.86318E-07
 -1     17295 4.06525E-03 1.35126E-01 1.41753E-03-2.01682E-01-4.51589E-07-6.21559E-07
 -1     17300 7.13599E-03 1.32470E-01 1.50289E-03-1.92869E-01 6.87570E-08 9.46358E-08
 -1     17301-2.63003E-02 1.57269E-01-4.88316E-04-1.80137E-01-4.77398E-07-7.79042E-07
 -1     17302 3.99822E-03 1.35059E-01 1.26037E-03-2.01682E-01 8.08716E-07 1.11310E-06
 -1     17307 7.05122E-03 1.32385E-01 1.30457E-03-1.92869E-01 2.52983E-06 3.48201E-06
 -1     17308-2.62475E-02 1.57322E-01-3.64854E-04-1.80137E-01-2.53603E-06-4.13843E-06
 -1     17309 3.88288E-03 1.34944E-01 9.90803E-04-2.01682E-01 5.28072E-06 7.26828E-06
 -1     17314 6.90825E-03 1.32242E-01 9.71702E-04-1.92869E-01 8.66498E-06 1.19263E-05
 -1     17315-2.61736E-02 1.57396E-01-1.92693E-04-1.80137E-01-7.14331E-06-1.16568E-05
 -1     17316 3.70239E-03 1.34763E-01 5.70838E-04-2.01681E-01 1.59767E-05 2.19901E-05
 -1     17321 6.66476E-03 1.31999E-01 4.07471E-04-1.92869E-01 2.28186E-05 3.14071E-05
 -1     17325 6.93317E-02 6.93317E-02 4.07471E-04-2.02794E-01-2.74508E-05-2.74508E-05
 -1     17326 3.39842E-02 9.72378E-02-1.92693E-04-1.99684E-01 8.87889E-06 1.03958E-05
 -1     17327 6.92326E-02 6.92326E-02 5.70838E-04-2.12060E-01-1.92200E-05-1.92200E-05
 -1     17332 6.95752E-02 6.95752E-02 9.71702E-04-2.02795E-01-1.04240E-05-1.04240E-05
 -1     17333 3.39102E-02 9.71638E-02-3.64854E-04-1.99684E-01 3.15220E-06 3.69075E-06
 -1     17334 6.94132E-02 6.94132E-02 9.90803E-04-2.12061E-01-6.35271E-06-6.35271E-06
 -1     17339 6.97182E-02 6.97182E-02 1.30457E-03-2.02795E-01-3.04339E-06-3.04339E-06
 -1     17340 3.38574E-02 9.71109E-02-4.88316E-04-1.99684E-01 5.93389E-07 6.94769E-07
 -1     17341 6.95286E-02 6.95286E-02 1.26037E-03-2.12061E-01-9.72886E-07-9.72888E-07
 -1     17346 6.98031E-02 6.98031E-02 1.50289E-03-2.02795E-01-8.27142E-08-8.27154E-08
 -1     17347 3.38257E-02 9.70792E-02-5.62576E-04-1.99683E-01-1.41917E-07-1.66163E-07
 -1     17348 6.95957E-02 6.95957E-02 1.41753E-03-2.12061E-01 5.43262E-07 5.43262E-07
 -1     17353 6.98482E-02 6.98482E-02 1.60859E-03-2.02795E-01 4.45750E-07 4.45749E-07
 -1     17354 3.38110E-02 9.70645E-02-5.96985E-04-1.99683E-01-1.22599E-07-1.43545E-07
 -1     17355 6.96264E-02 6.96264E-02 1.48956E-03-2.12061E-01 3.46487E-07 3.46487E-07
 -1     17360 6.98623E-02 6.98623E-02 1.64178E-03-2.02795E-01 3.52611E-14-3.33260E-14
 -1     17361 3.38110E-02 9.70645E-02-5.96985E-04-1.99683E-01 1.22599E-07 1.43545E-07
 -1     17362 6.96264E-02 6.96264E-02 1.48956E-03-2.12061E-01-3.46487E-07-3.46487E-07
 -1     17367 6.98482E-02 6.98482E-02 1.60859E-03-2.02795E-01-4.45750E-07-4.45749E-07
 -1     17368 3.38257E-02 9.70792E-02-5.62576E-04-1.99683E-01 1.41917E-07 1.66163E-07
 -1     17369 6.95957E-02 6.95957E-02 1.41753E-03-2.12061E-01-5.43262E-07-5.43262E-07
 -1     17374 6.98031E-02 6.98031E-02 1.50289E-03-2.02795E-01 8.27142E-08 8.27155E-08
 -1     17375 3.38574E-02 9.71109E-02-4.88316E-04-1.99684E-01-5.93389E-07-6.94769E-07
 -1     17376 6.95286E-02 6.95286E-02 1.26037E-03-2.12061E-01 9.72886E-07 9.72888E-07
 -1     17381 6.97182E-02 6.97182E-02 1.30457E-03-2.02795E-01 3.04339E-06 3.04339E-06
 -1     17382 3.39102E-02 9.71638E-02-3.64854E-04-1.99684E-01-3.15220E-06-3.69075E-06
 -1     17383 6.94132E-02 6.94132E-02 9.90803E-04-2.12061E-01 6.35271E-06 6.35271E-06
 -1     17388 6.95752E-02 6.95752E-02 9.71702E-04-2.02795E-01 1.04240E-05 1.04240E-05
 -1     17389 3.39842E-02 9.72378E-02-1.92693E-04-1.99684E-01-8.87889E-06-1.03958E-05
 -1     17390 6.92326E-02 6.92326E-02 5.70838E-04-2.12060E-01 1.92200E-05 1.92200E-05
 -1     17395 6.93317E-02 6.93317E-02 4.07471E-04-2.02794E-01 2.74508E-05 2.74508E-05
 -1     17399 1.31999E-01 6.66476E-03 4.07471E-04-1.92869E-01-3.14071E-05-2.28186E-05
 -1     17400 9.72378E-02 3.39842E-02-1.92693E-04-1.99684E-01 1.03958E-05 8.87889E-06
 -1     17401 1.34763E-01 3.70239E-03 5.70838E-04-2.01681E-01-2.19901E-05-1.59767E-05
 -1     17406 1.32242E-01 6.90825E-03 9.71702E-04-1.92869E-01-1.19263E-05-8.66498E-06
 -1     17407 9.71638E-02 3.39102E-02-3.64854E-04-1.99684E-01 3.69075E-06 3.15220E-06
 -1     17408 1.34944E-01 3.88288E-03 9.90803E-04-2.01682E-01-7.26828E-06-5.28072E-06
 -1     17413 1.32385E-01 7.05122E-03 1.30457E-03-1.92869E-01-3.48201E-06-2.52983E-06
 -1     17414 9.71109E-02 3.38574E-02-4.88316E-04-1.99684E-01 6.94769E-07 5.93389E-07
 -1     17415 1.35059E-01 3.99822E-03 1.26037E-03-2.01682E-01-1.11310E-06-8.08716E-07
 -1     17420 1.32470E-01 7.13599E-03 1.50289E-03-1.92869E-01-9.46361E-08-6.87572E-08
 -1     17421 9.70792E-02 3.38257E-02-5.62576E-04-1.99683E-01-1.66163E-07-1.41916E-07
 -1     17422 1.35126E-01 4.06525E-03 1.41753E-03-2.01682E-01 6.21558E-07 4.51589E-07
 -1     17427 1.32515E-01 7.18105E-03 1.60859E-03-1.92870E-01 5.09992E-07 3.70531E-07
 -1     17428 9.70645E-02 3.38110E-02-5.96985E-04-1.99683E-01-1.43545E-07-1.22599E-07
 -1     17429 1.35157E-01 4.09591E-03 1.48956E-03-2.01682E-01 3.96424E-07 2.88019E-07
 -1     17434 1.32529E-01 7.19519E-03 1.64178E-03-1.92870E-01 4.22527E-14-8.65590E-15
 -1     17435 9.70645E-02 3.38110E-02-5.96985E-04-1.99683E-01 1.43545E-07 1.22599E-07
 -1     17436 1.35157E-01 4.09591E-03 1.48956E-03-2.01682E-01-3.96424E-07-2.88019E-07
 -1     17441 1.32515E-01 7.18105E-03 1.60859E-03-1.92870E-01-5.09992E-07-3.70531E-07
 -1     17442 9.70792E-02 3.38257E-02-5.62576E-04-1.99683E-01 1.66163E-07 1.41916E-07
 -1     17443 1.35126E-01 4.06525E-03 1.41753E-03-2.01682E-01-6.21558E-07-4.51589E-07
 -1     17448 1.32470E-01 7.13599E-03 1.50289E-03-1.92869E-01 9.46361E-08 6.87573E-08
 -1     17449 9.71109E-02 3.38574E-02-4.88316E-04-1.99684E-01-6.94769E-07-5.93389E-07
 -1     17450 1.35059E-01 3.99822E-03 1.26037E-03-2.01682E-01 1.11310E-06 8.08716E-07
 -1     17455 1.32385E-01 7.05122E-03 1.30457E-03-1.92869E-01 3.48201E-06 2.52983E-06
 -1     17456 9.71638E-02 3.39102E-02-3.64854E-04-1.99684E-01-3.69075E-06-3.15220E-06
 -1     17457 1.34944E-01 3.88288E-03 9.90803E-04-2.01682E-01 7.26828E-06 5.28072E-06
 -1     17462 1.32242E-01 6.90825E-03 9.71702E-04-1.92869E-01 1.19263E-05 8.66498E-06
 -1     17463 9.72378E-02 3.39842E-02-1.92693E-04-1.99684E-01-1.03958E-05-8.87889E-06
 -1     17464 1.34763E-01 3.70239E-03 5.70838E-04-2.01681E-01 2.19901E-05 1.59767E-05
 -1     17469 1.31999E-01 6.66476E-03 4.07471E-04-1.92869E-01 3.14071E-05 2.28186E-05
 -1     17473 1.88531E-01-4.98679E-02 4.07471E-04-1.64064E-01-3.45901E-05-1.76245E-05
 -1     17474 1.57396E-01-2.61736E-02-1.92693E-04-1.80137E-01 1.16568E-05 7.14331E-06
 -1     17475 1.93879E-01-5.54133E-02 5.70838E-04-1.71560E-01-2.42187E-05-1.23400E-05
 -1     17480 1.88775E-01-4.96244E-02 9.71702E-04-1.64064E-01-1.31350E-05-6.69261E-06
 -1     17481 1.57322E-01-2.62475E-02-3.64854E-04-1.80137E-01 4.13843E-06 2.53603E-06
 -1     17482 1.94059E-01-5.52329E-02 9.90803E-04-1.71561E-01-8.00488E-06-4.07869E-06
 -1     17487 1.88918E-01-4.94815E-02 1.30457E-03-1.64064E-01-3.83490E-06-1.95398E-06
 -1     17488 1.57269E-01-2.63003E-02-4.88316E-04-1.80137E-01 7.79042E-07 4.77397E-07
 -1     17489 1.94175E-01-5.51176E-02 1.26037E-03-1.71561E-01-1.22591E-06-6.24631E-07
 -1     17494 1.89003E-01-4.93968E-02 1.50289E-03-1.64065E-01-1.04227E-07-5.31056E-08
 -1     17495 1.57237E-01-2.63320E-02-5.62576E-04-1.80137E-01-1.86318E-07-1.14176E-07
 -1     17496 1.94242E-01-5.50506E-02 1.41753E-03-1.71561E-01 6.84550E-07 3.48796E-07
 -1     17501 1.89048E-01-4.93518E-02 1.60859E-03-1.64065E-01 5.61677E-07 2.86189E-07
 -1     17502 1.57222E-01-2.63466E-02-5.96985E-04-1.80137E-01-1.60956E-07-9.86341E-08
 -1     17503 1.94273E-01-5.50200E-02 1.48956E-03-1.71561E-01 4.36599E-07 2.22459E-07
 -1     17508 1.89062E-01-4.93376E-02 1.64178E-03-1.64065E-01-2.88463E-14 2.77671E-14
 -1     17509 1.57222E-01-2.63466E-02-5.96985E-04-1.80137E-01 1.60956E-07 9.86341E-08
 -1     17510 1.94273E-01-5.50200E-02 1.48956E-03-1.71561E-01-4.36599E-07-2.22459E-07
 -1     17515 1.89048E-01-4.93518E-02 1.60859E-03-1.64065E-01-5.61677E-07-2.86189E-07
 -1     17516 1.57237E-01-2.63320E-02-5.62576E-04-1.80137E-01 1.86318E-07 1.14176E-07
 -1     17517 1.94242E-01-5.50506E-02 1.41753E-03-1.71561E-01-6.84550E-07-3.48796E-07
 -1     17522 1.89003E-01-4.93968E-02 1.50289E-03-1.64065E-01 1.04227E-07 5.31056E-08
 -1     17523 1.57269E-01-2.63003E-02-4.88316E-04-1.80137E-01-7.79042E-07-4.77397E-07
 -1     17524 1.94175E-01-5.51176E-02 1.26037E-03-1.71561E-01 1.22591E-06 6.24631E-07
 -1     17529 1.88918E-01-4.94815E-02 1.30457E-03-1.64064E-01 3.83490E-06 1.95398E-06
 -1     17530 1.57322E-01-2.62475E-02-3.64854E-04-1.80137E-01-4.13843E-06-2.53603E-06
 -1     17531 1.94059E-01-5.52329E-02 9.90803E-04-1.71561E-01 8.00488E-06 4.07869E-06
 -1     17536 1.88775E-01-4.96244E-02 9.71702E-04-1.64064E-01 1.31350E-05 6.69261E-06
 -1     17537 1.57396E-01-2.61736E-02-1.92693E-04-1.80137E-01-1.16568E-05-7.14331E-06
 -1     17538 1.93879E-01-5.54133E-02 5.70838E-04-1.71560E-01 2.42187E-05 1.23400E-05
 -1     17543 1.88531E-01-4.98679E-02 4.07471E-04-1.64064E-01 3.45901E-05 1.76245E-05
 -1     17547 2.33396E-01-9.47324E-02 4.07471E-04-1.19200E-01-3.69213E-05-1.19965E-05
 -1     17548 2.08569E-01-7.73468E-02-1.92693E-04-1.42958E-01 1.26308E-05 5.23183E-06
 -1     17549 2.40793E-01-1.02328E-01 5.70838E-04-1.24646E-01-2.58509E-05-8.39946E-06
 -1     17554 2.33639E-01-9.44890E-02 9.71702E-04-1.19200E-01-1.40202E-05-4.55545E-06
 -1     17555 2.08495E-01-7.74207E-02-3.64854E-04-1.42958E-01 4.48420E-06 1.85742E-06
 -1     17556 2.40974E-01-1.02147E-01 9.90803E-04-1.24646E-01-8.54438E-06-2.77624E-06
 -1     17561 2.33783E-01-9.43462E-02 1.30457E-03-1.19200E-01-4.09335E-06-1.33001E-06
 -1     17562 2.08442E-01-7.74735E-02-4.88316E-04-1.42958E-01 8.44132E-07 3.49651E-07
 -1     17563 2.41089E-01-1.02032E-01 1.26037E-03-1.24646E-01-1.30853E-06-4.25167E-07
 -1     17568 2.33868E-01-9.42615E-02 1.50289E-03-1.19200E-01-1.11251E-07-3.61477E-08
 -1     17569 2.08410E-01-7.75051E-02-5.62576E-04-1.42958E-01-2.01885E-07-8.36238E-08
 -1     17570 2.41157E-01-1.01965E-01 1.41753E-03-1.24646E-01 7.30686E-07 2.37414E-07
 -1     17575 2.33913E-01-9.42165E-02 1.60859E-03-1.19200E-01 5.99532E-07 1.94800E-07
 -1     17576 2.08395E-01-7.75198E-02-5.96985E-04-1.42958E-01-1.74404E-07-7.22407E-08
 -1     17577 2.41187E-01-1.01935E-01 1.48956E-03-1.24646E-01 4.66024E-07 1.51420E-07
 -1     17582 2.33927E-01-9.42024E-02 1.64178E-03-1.19200E-01-5.58291E-14-1.32183E-15
 -1     17583 2.08395E-01-7.75198E-02-5.96985E-04-1.42958E-01 1.74404E-07 7.22407E-08
 -1     17584 2.41187E-01-1.01935E-01 1.48956E-03-1.24646E-01-4.66024E-07-1.51420E-07
 -1     17589 2.33913E-01-9.42165E-02 1.60859E-03-1.19200E-01-5.99532E-07-1.94800E-07
 -1     17590 2.08410E-01-7.75051E-02-5.62576E-04-1.42958E-01 2.01885E-07 8.36238E-08
 -1     17591 2.41157E-01-1.01965E-01 1.41753E-03-1.24646E-01-7.30686E-07-2.37414E-07
 -1     17596 2.33868E-01-9.42615E-02 1.50289E-03-1.19200E-01 1.11251E-07 3.61477E-08
 -1     17597 2.08442E-01-7.74735E-02-4.88316E-04-1.42958E-01-8.44132E-07-3.49651E-07
 -1     17598 2.41089E-01-1.02032E-01 1.26037E-03-1.24646E-01 1.30853E-06 4.25167E-07
 -1     17603 2.33783E-01-9.43462E-02 1.30457E-03-1.19200E-01 4.09335E-06 1.33001E-06
 -1     17604 2.08495E-01-7.74207E-02-3.64854E-04-1.42958E-01-4.48420E-06-1.85742E-06
 -1     17605 2.40974E-01-1.02147E-01 9.90803E-04-1.24646E-01 8.54438E-06 2.77624E-06
 -1     17610 2.33639E-01-9.44890E-02 9.71702E-04-1.19200E-01 1.40202E-05 4.55545E-06
 -1     17611 2.08569E-01-7.73468E-02-1.92693E-04-1.42958E-01-1.26308E-05-5.23183E-06
 -1     17612 2.40793E-01-1.02328E-01 5.70838E-04-1.24646E-01 2.58509E-05 8.39946E-06
 -1     17617 2.33396E-01-9.47324E-02 4.07471E-04-1.19200E-01 3.69213E-05 1.19965E-05
 -1     17621 2.62201E-01-1.23537E-01 4.07471E-04-6.26669E-02-3.83434E-05-6.07299E-06
 -1     17622 2.45748E-01-1.14526E-01-1.92693E-04-9.17846E-02 1.32937E-05 3.19153E-06
 -1     17623 2.70914E-01-1.32449E-01 5.70838E-04-6.55302E-02-2.68466E-05-4.25208E-06
 -1     17628 2.62444E-01-1.23294E-01 9.71702E-04-6.26670E-02-1.45602E-05-2.30612E-06
 -1     17629 2.45674E-01-1.14600E-01-3.64854E-04-9.17845E-02 4.71955E-06 1.13307E-06
 -1     17630 2.71095E-01-1.32268E-01 9.90803E-04-6.55303E-02-8.87348E-06-1.40542E-06
 -1     17635 2.62587E-01-1.23151E-01 1.30457E-03-6.26670E-02-4.25102E-06-6.73296E-07
 -1     17636 2.45621E-01-1.14653E-01-4.88316E-04-9.17844E-02 8.88436E-07 2.13295E-07
 -1     17637 2.71210E-01-1.32153E-01 1.26037E-03-6.55304E-02-1.35893E-06-2.15235E-07
 -1     17642 2.62673E-01-1.23066E-01 1.50289E-03-6.26671E-02-1.15536E-07-1.83003E-08
 -1     17643 2.45589E-01-1.14685E-01-5.62576E-04-9.17844E-02-2.12481E-07-5.10120E-08
 -1     17644 2.71278E-01-1.32086E-01 1.41753E-03-6.55304E-02 7.58830E-07 1.20186E-07
 -1     17649 2.62718E-01-1.23021E-01 1.60859E-03-6.26671E-02 6.22624E-07 9.86134E-08
 -1     17650 2.45575E-01-1.14699E-01-5.96985E-04-9.17844E-02-1.83558E-07-4.40683E-08
 -1     17651 2.71308E-01-1.32056E-01 1.48956E-03-6.55305E-02 4.83974E-07 7.66537E-08
 -1     17656 2.62732E-01-1.23007E-01 1.64178E-03-6.26671E-02-2.01572E-14-3.58074E-15
 -1     17657 2.45575E-01-1.14699E-01-5.96985E-04-9.17844E-02 1.83558E-07 4.40683E-08
 -1     17658 2.71308E-01-1.32056E-01 1.48956E-03-6.55305E-02-4.83974E-07-7.66537E-08
 -1     17663 2.62718E-01-1.23021E-01 1.60859E-03-6.26671E-02-6.22624E-07-9.86133E-08
 -1     17664 2.45589E-01-1.14685E-01-5.62576E-04-9.17844E-02 2.12481E-07 5.10120E-08
 -1     17665 2.71278E-01-1.32086E-01 1.41753E-03-6.55304E-02-7.58830E-07-1.20186E-07
 -1     17670 2.62673E-01-1.23066E-01 1.50289E-03-6.26671E-02 1.15536E-07 1.83003E-08
 -1     17671 2.45621E-01-1.14653E-01-4.88316E-04-9.17844E-02-8.88436E-07-2.13295E-07
 -1     17672 2.71210E-01-1.32153E-01 1.26037E-03-6.55304E-02 1.35893E-06 2.15235E-07
 -1     17677 2.62587E-01-1.23151E-01 1.30457E-03-6.26670E-02 4.25102E-06 6.73296E-07
 -1     17678 2.45674E-01-1.14600E-01-3.64854E-04-9.17845E-02-4.71955E-06-1.13307E-06
 -1     17679 2.71095E-01-1.32268E-01 9.90803E-04-6.55303E-02 8.87348E-06 1.40542E-06
 -1     17684 2.62444E-01-1.23294E-01 9.71702E-04-6.26670E-02 1.45602E-05 2.30612E-06
 -1     17685 2.45748E-01-1.14526E-01-1.92693E-04-9.17846E-02-1.32937E-05-3.19153E-06
 -1     17686 2.70914E-01-1.32449E-01 5.70838E-04-6.55302E-02 2.68466E-05 4.25208E-06
 -1     17691 2.62201E-01-1.23537E-01 4.07471E-04-6.26669E-02 3.83434E-05 6.07299E-06
 -1     17695 2.65295E-01-1.34073E-01-1.92693E-04-3.16268E-02 1.36293E-05 1.07265E-06
 -1     17699 2.65221E-01-1.34147E-01-3.64854E-04-3.16268E-02 4.83870E-06 3.80814E-07
 -1     17703 2.65168E-01-1.34199E-01-4.88316E-04-3.16268E-02 9.10865E-07 7.16871E-08
 -1     17707 2.65136E-01-1.34231E-01-5.62576E-04-3.16268E-02-2.17845E-07-1.71445E-08
 -1     17711 2.65121E-01-1.34246E-01-5.96985E-04-3.16267E-02-1.88192E-07-1.48109E-08
 -1     17715 2.65121E-01-1.34246E-01-5.96985E-04-3.16267E-02 1.88192E-07 1.48109E-08
 -1     17719 2.65136E-01-1.34231E-01-5.62576E-04-3.16268E-02 2.17845E-07 1.71445E-08
 -1     17723 2.65168E-01-1.34199E-01-4.88316E-04-3.16268E-02-9.10865E-07-7.16871E-08
 -1     17727 2.65221E-01-1.34147E-01-3.64854E-04-3.16268E-02-4.83870E-06-3.80814E-07
 -1     17731 2.65295E-01-1.34073E-01-1.92693E-04-3.16268E-02-1.36293E-05-1.07265E-06
 -1     17737-1.08045E-01 2.46232E-01 3.56038E-04-5.75557E-02-5.68459E-06-3.58911E-05
 -1     17738-1.17712E-01 2.49082E-01-1.74490E-04-2.90473E-02 1.01736E-06 1.29268E-05
 -1     17739-1.15859E-01 2.53897E-01 5.05840E-04-6.00706E-02-4.05064E-06-2.55748E-05
 -1     17744-1.07830E-01 2.46447E-01 8.54856E-04-5.75557E-02-2.31010E-06-1.45854E-05
 -1     17745-1.17779E-01 2.49015E-01-3.30174E-04-2.90473E-02 3.90661E-07 4.96381E-06
 -1     17746-1.15698E-01 2.54059E-01 8.81623E-04-6.00707E-02-1.47011E-06-9.28189E-06
 -1     17751-1.07701E-01 2.46576E-01 1.15441E-03-5.75558E-02-7.78009E-07-4.91215E-06
 -1     17752-1.17827E-01 2.48967E-01-4.42411E-04-2.90472E-02 9.93118E-08 1.26188E-06
 -1     17753-1.15594E-01 2.54164E-01 1.12585E-03-6.00708E-02-3.37417E-07-2.13037E-06
 -1     17758-1.07624E-01 2.46654E-01 1.33528E-03-5.75559E-02-1.24387E-07-7.85348E-07
 -1     17759-1.17856E-01 2.48938E-01-5.10495E-04-2.90472E-02 4.07488E-09 5.17761E-08
 -1     17760-1.15532E-01 2.54226E-01 1.26978E-03-6.00708E-02 2.81537E-08 1.77756E-07
 -1     17765-1.07582E-01 2.46695E-01 1.43260E-03-5.75559E-02 3.83262E-08 2.41982E-07
 -1     17766-1.17870E-01 2.48924E-01-5.42239E-04-2.90472E-02-7.10874E-09-9.03251E-08
 -1     17767-1.15504E-01 2.54254E-01 1.33622E-03-6.00708E-02 4.36687E-08 2.75713E-07
 -1     17772-1.07569E-01 2.46708E-01 1.46331E-03-5.75559E-02 6.74670E-15-1.70559E-14
 -1     17773-1.17870E-01 2.48924E-01-5.42239E-04-2.90472E-02 7.10874E-09 9.03251E-08
 -1     17774-1.15504E-01 2.54254E-01 1.33622E-03-6.00708E-02-4.36687E-08-2.75713E-07
 -1     17779-1.07582E-01 2.46695E-01 1.43260E-03-5.75559E-02-3.83262E-08-2.41982E-07
 -1     17780-1.17856E-01 2.48938E-01-5.10495E-04-2.90472E-02-4.07487E-09-5.17761E-08
 -1     17781-1.15532E-01 2.54226E-01 1.26978E-03-6.00708E-02-2.81537E-08-1.77756E-07
 -1     17786-1.07624E-01 2.46654E-01 1.33528E-03-5.75559E-02 1.24387E-07 7.85348E-07
 -1     17787-1.17827E-01 2.48967E-01-4.42411E-04-2.90472E-02-9.93118E-08-1.26188E-06
 -1     17788-1.15594E-01 2.54164E-01 1.12585E-03-6.00708E-02 3.37417E-07 2.13037E-06
 -1     17793-1.07701E-01 2.46576E-01 1.15441E-03-5.75558E-02 7.78009E-07 4.91215E-06
 -1     17794-1.17779E-01 2.49015E-01-3.30174E-04-2.90473E-02-3.90661E-07-4.96381E-06
 -1     17795-1.15698E-01 2.54059E-01 8.81623E-04-6.00707E-02 1.47011E-06 9.28189E-06
 -1     17800-1.07830E-01 2.46447E-01 8.54856E-04-5.75557E-02 2.31010E-06 1.45854E-05
 -1     17801-1.17712E-01 2.49082E-01-1.74490E-04-2.90473E-02-1.01736E-06-1.29268E-05
 -1     17802-1.15859E-01 2.53897E-01 5.05840E-04-6.00706E-02 4.05064E-06 2.55748E-05
 -1     17807-1.08045E-01 2.46232E-01 3.56038E-04-5.75557E-02 5.68459E-06 3.58911E-05
 -1     17811-8.15895E-02 2.19776E-01 3.56038E-04-1.09477E-01-1.12292E-05-3.45599E-05
 -1     17812-9.97600E-02 2.31130E-01-1.74490E-04-8.42985E-02 3.02703E-06 1.26085E-05
 -1     17813-8.82479E-02 2.26286E-01 5.05840E-04-1.14261E-01-8.00155E-06-2.46262E-05
 -1     17818-8.13742E-02 2.19992E-01 8.54856E-04-1.09478E-01-4.56331E-06-1.40444E-05
 -1     17819-9.98268E-02 2.31063E-01-3.30174E-04-8.42984E-02 1.16236E-06 4.84159E-06
 -1     17820-8.80865E-02 2.26448E-01 8.81623E-04-1.14261E-01-2.90401E-06-8.93764E-06
 -1     17825-8.12456E-02 2.20120E-01 1.15441E-03-1.09478E-01-1.53686E-06-4.72997E-06
 -1     17826-9.98748E-02 2.31015E-01-4.42411E-04-8.42984E-02 2.95490E-07 1.23080E-06
 -1     17827-8.79820E-02 2.26553E-01 1.12585E-03-1.14261E-01-6.66525E-07-2.05135E-06
 -1     17832-8.11683E-02 2.20198E-01 1.33528E-03-1.09478E-01-2.45711E-07-7.56221E-07
 -1     17833-9.99039E-02 2.30986E-01-5.10495E-04-8.42983E-02 1.21243E-08 5.05012E-08
 -1     17834-8.79207E-02 2.26614E-01 1.26978E-03-1.14261E-01 5.56142E-08 1.71163E-07
 -1     17839-8.11268E-02 2.20240E-01 1.43260E-03-1.09478E-01 7.57086E-08 2.33007E-07
 -1     17840-9.99174E-02 2.30972E-01-5.42239E-04-8.42983E-02-2.11512E-08-8.81010E-08
 -1     17841-8.78924E-02 2.26643E-01 1.33622E-03-1.14262E-01 8.62621E-08 2.65487E-07
 -1     17846-8.11138E-02 2.20253E-01 1.46331E-03-1.09478E-01-1.27018E-15-3.86532E-15
 -1     17847-9.99174E-02 2.30972E-01-5.42239E-04-8.42983E-02 2.11512E-08 8.81010E-08
 -1     17848-8.78924E-02 2.26643E-01 1.33622E-03-1.14262E-01-8.62621E-08-2.65487E-07
 -1     17853-8.11268E-02 2.20240E-01 1.43260E-03-1.09478E-01-7.57086E-08-2.33007E-07
 -1     17854-9.99039E-02 2.30986E-01-5.10495E-04-8.42983E-02-1.21243E-08-5.05013E-08
 -1     17855-8.79207E-02 2.26614E-01 1.26978E-03-1.14261E-01-5.56142E-08-1.71163E-07
 -1     17860-8.11683E-02 2.20198E-01 1.33528E-03-1.09478E-01 2.45711E-07 7.56221E-07
 -1     17861-9.98748E-02 2.31015E-01-4.42411E-04-8.42984E-02-2.95490E-07-1.23080E-06
 -1     17862-8.79820E-02 2.26553E-01 1.12585E-03-1.14261E-01 6.66525E-07 2.05135E-06
 -1     17867-8.12456E-02 2.20120E-01 1.15441E-03-1.09478E-01 1.53686E-06 4.72997E-06
 -1     17868-9.98268E-02 2.31063E-01-3.30174E-04-8.42984E-02-1.16236E-06-4.84159E-06
 -1     17869-8.80865E-02 2.26448E-01 8.81623E-04-1.14261E-01 2.90401E-06 8.93764E-06
 -1     17874-8.13742E-02 2.19992E-01 8.54856E-04-1.09478E-01 4.56331E-06 1.40444E-05
 -1     17875-9.97600E-02 2.31130E-01-1.74490E-04-8.42985E-02-3.02703E-06-1.26085E-05
 -1     17876-8.82479E-02 2.26286E-01 5.05840E-04-1.14261E-01 8.00155E-06 2.46262E-05
 -1     17881-8.15895E-02 2.19776E-01 3.56038E-04-1.09477E-01 1.12292E-05 3.45599E-05
 -1     17885-4.03842E-02 1.78571E-01 3.56038E-04-1.50683E-01-1.64973E-05-3.23778E-05
 -1     17886-6.56129E-02 1.96983E-01-1.74490E-04-1.31298E-01 4.96217E-06 1.19797E-05
 -1     17887-4.52421E-02 1.83280E-01 5.05840E-04-1.57267E-01-1.17554E-05-2.30713E-05
 -1     17892-4.01689E-02 1.78786E-01 8.54856E-04-1.50683E-01-6.70416E-06-1.31577E-05
 -1     17893-6.56797E-02 1.96916E-01-3.30174E-04-1.31298E-01 1.90544E-06 4.60015E-06
 -1     17894-4.50806E-02 1.83442E-01 8.81623E-04-1.57267E-01-4.26642E-06-8.37331E-06
 -1     17899-4.00402E-02 1.78915E-01 1.15441E-03-1.50683E-01-2.25787E-06-4.43132E-06
 -1     17900-6.57278E-02 1.96868E-01-4.42411E-04-1.31298E-01 4.84392E-07 1.16943E-06
 -1     17901-4.49761E-02 1.83547E-01 1.12585E-03-1.57267E-01-9.79222E-07-1.92183E-06
 -1     17906-3.99629E-02 1.78993E-01 1.33528E-03-1.50683E-01-3.60985E-07-7.08473E-07
 -1     17907-6.57568E-02 1.96839E-01-5.10495E-04-1.31298E-01 1.98752E-08 4.79829E-08
 -1     17908-4.49147E-02 1.83608E-01 1.26978E-03-1.57267E-01 8.17052E-08 1.60356E-07
 -1     17913-3.99214E-02 1.79034E-01 1.43260E-03-1.50683E-01 1.11227E-07 2.18295E-07
 -1     17914-6.57703E-02 1.96825E-01-5.42239E-04-1.31298E-01-3.46728E-08-8.37076E-08
 -1     17915-4.48864E-02 1.83637E-01 1.33622E-03-1.57267E-01 1.26731E-07 2.48724E-07
 -1     17920-3.99083E-02 1.79047E-01 1.46331E-03-1.50683E-01-2.94959E-15 7.83088E-15
 -1     17921-6.57703E-02 1.96825E-01-5.42239E-04-1.31298E-01 3.46728E-08 8.37076E-08
 -1     17922-4.48864E-02 1.83637E-01 1.33622E-03-1.57267E-01-1.26731E-07-2.48724E-07
 -1     17927-3.99214E-02 1.79034E-01 1.43260E-03-1.50683E-01-1.11227E-07-2.18295E-07
 -1     17928-6.57568E-02 1.96839E-01-5.10495E-04-1.31298E-01-1.98752E-08-4.79828E-08
 -1     17929-4.49147E-02 1.83608E-01 1.26978E-03-1.57267E-01-8.17052E-08-1.60356E-07
 -1     17934-3.99629E-02 1.78993E-01 1.33528E-03-1.50683E-01 3.60985E-07 7.08473E-07
 -1     17935-6.57278E-02 1.96868E-01-4.42411E-04-1.31298E-01-4.84392E-07-1.16943E-06
 -1     17936-4.49761E-02 1.83547E-01 1.12585E-03-1.57267E-01 9.79222E-07 1.92183E-06
 -1     17941-4.00402E-02 1.78915E-01 1.15441E-03-1.50683E-01 2.25787E-06 4.43132E-06
 -1     17942-6.56797E-02 1.96916E-01-3.30174E-04-1.31298E-01-1.90544E-06-4.60015E-06
 -1     17943-4.50806E-02 1.83442E-01 8.81623E-04-1.57267E-01 4.26642E-06 8.37331E-06
 -1     17948-4.01689E-02 1.78786E-01 8.54856E-04-1.50683E-01 6.70416E-06 1.31577E-05
 -1     17949-6.56129E-02 1.96983E-01-1.74490E-04-1.31298E-01-4.96217E-06-1.19797E-05
 -1     17950-4.52421E-02 1.83280E-01 5.05840E-04-1.57267E-01 1.17554E-05 2.30713E-05
 -1     17955-4.03842E-02 1.78571E-01 3.56038E-04-1.50683E-01 1.64973E-05 3.23778E-05
 -1     17959 1.15376E-02 1.26649E-01 3.56038E-04-1.77138E-01-2.13592E-05-2.93984E-05
 -1     17960-1.86134E-02 1.49984E-01-1.74490E-04-1.65445E-01 6.77512E-06 1.10560E-05
 -1     17961 8.94837E-03 1.29090E-01 5.05840E-04-1.84878E-01-1.52198E-05-2.09483E-05
 -1     17966 1.17529E-02 1.26864E-01 8.54856E-04-1.77138E-01-8.67993E-06-1.19469E-05
 -1     17967-1.86803E-02 1.49917E-01-3.30174E-04-1.65445E-01 2.60161E-06 4.24543E-06
 -1     17968 9.10996E-03 1.29251E-01 8.81623E-04-1.84879E-01-5.52376E-06-7.60281E-06
 -1     17973 1.18816E-02 1.26993E-01 1.15441E-03-1.77139E-01-2.92328E-06-4.02355E-06
 -1     17974-1.87283E-02 1.49868E-01-4.42411E-04-1.65445E-01 6.61367E-07 1.07925E-06
 -1     17975 9.21453E-03 1.29356E-01 1.12585E-03-1.84879E-01-1.26781E-06-1.74499E-06
 -1     17980 1.19590E-02 1.27071E-01 1.33528E-03-1.77139E-01-4.67370E-07-6.43280E-07
 -1     17981-1.87574E-02 1.49839E-01-5.10495E-04-1.65445E-01 2.71368E-08 4.42829E-08
 -1     17982 9.27596E-03 1.29418E-01 1.26978E-03-1.84879E-01 1.05785E-07 1.45600E-07
 -1     17987 1.20005E-02 1.27112E-01 1.43260E-03-1.77139E-01 1.44006E-07 1.98208E-07
 -1     17988-1.87709E-02 1.49826E-01-5.42239E-04-1.65445E-01-4.73406E-08-7.72530E-08
 -1     17989 9.30427E-03 1.29446E-01 1.33622E-03-1.84879E-01 1.64080E-07 2.25837E-07
 -1     17994 1.20136E-02 1.27125E-01 1.46331E-03-1.77139E-01-1.24756E-14-4.00231E-14
 -1     17995-1.87709E-02 1.49826E-01-5.42239E-04-1.65445E-01 4.73406E-08 7.72530E-08
 -1     17996 9.30427E-03 1.29446E-01 1.33622E-03-1.84879E-01-1.64080E-07-2.25837E-07
 -1     18001 1.20005E-02 1.27112E-01 1.43260E-03-1.77139E-01-1.44006E-07-1.98208E-07
 -1     18002-1.87574E-02 1.49839E-01-5.10495E-04-1.65445E-01-2.71368E-08-4.42829E-08
 -1     18003 9.27596E-03 1.29418E-01 1.26978E-03-1.84879E-01-1.05785E-07-1.45600E-07
 -1     18008 1.19590E-02 1.27071E-01 1.33528E-03-1.77139E-01 4.67370E-07 6.43280E-07
 -1     18009-1.87283E-02 1.49868E-01-4.42411E-04-1.65445E-01-6.61367E-07-1.07925E-06
 -1     18010 9.21453E-03 1.29356E-01 1.12585E-03-1.84879E-01 1.26781E-06 1.74499E-06
 -1     18015 1.18816E-02 1.26993E-01 1.15441E-03-1.77139E-01 2.92328E-06 4.02355E-06
 -1     18016-1.86803E-02 1.49917E-01-3.30174E-04-1.65445E-01-2.60161E-06-4.24543E-06
 -1     18017 9.10996E-03 1.29251E-01 8.81623E-04-1.84879E-01 5.52376E-06 7.60281E-06
 -1     18022 1.17529E-02 1.26864E-01 8.54856E-04-1.77138E-01 8.67993E-06 1.19469E-05
 -1     18023-1.86134E-02 1.49984E-01-1.74490E-04-1.65445E-01-6.77512E-06-1.10560E-05
 -1     18024 8.94837E-03 1.29090E-01 5.05840E-04-1.84878E-01 1.52198E-05 2.09483E-05
 -1     18029 1.15376E-02 1.26649E-01 3.56038E-04-1.77138E-01 2.13592E-05 2.93984E-05
 -1     18033 6.90933E-02 6.90933E-02 3.56038E-04-1.86254E-01-2.56952E-05-2.56952E-05
 -1     18034 3.66378E-02 9.47324E-02-1.74490E-04-1.83397E-01 8.42124E-06 9.86001E-06
 -1     18035 6.90190E-02 6.90190E-02 5.05840E-04-1.94393E-01-1.83095E-05-1.83095E-05
 -1     18040 6.93087E-02 6.93087E-02 8.54856E-04-1.86254E-01-1.04420E-05-1.04420E-05
 -1     18041 3.65709E-02 9.46654E-02-3.30174E-04-1.83397E-01 3.23371E-06 3.78619E-06
 -1     18042 6.91807E-02 6.91807E-02 8.81623E-04-1.94393E-01-6.64510E-06-6.64510E-06
 -1     18047 6.94374E-02 6.94374E-02 1.15441E-03-1.86254E-01-3.51671E-06-3.51671E-06
 -1     18048 3.65228E-02 9.46173E-02-4.42411E-04-1.83397E-01 8.22057E-07 9.62506E-07
 -1     18049 6.92853E-02 6.92853E-02 1.12585E-03-1.94393E-01-1.52517E-06-1.52517E-06
 -1     18054 6.95149E-02 6.95149E-02 1.33528E-03-1.86255E-01-5.62246E-07-5.62248E-07
 -1     18055 3.64937E-02 9.45882E-02-5.10495E-04-1.83397E-01 3.37297E-08 3.94928E-08
 -1     18056 6.93468E-02 6.93468E-02 1.26978E-03-1.94393E-01 1.27260E-07 1.27259E-07
 -1     18061 6.95564E-02 6.95564E-02 1.43260E-03-1.86255E-01 1.73240E-07 1.73239E-07
 -1     18062 3.64802E-02 9.45746E-02-5.42239E-04-1.83397E-01-5.88429E-08-6.88961E-08
 -1     18063 6.93751E-02 6.93751E-02 1.33622E-03-1.94393E-01 1.97389E-07 1.97389E-07
 -1     18068 6.95695E-02 6.95695E-02 1.46331E-03-1.86255E-01 1.39577E-14-2.12672E-14
 -1     18069 3.64802E-02 9.45746E-02-5.42239E-04-1.83397E-01 5.88429E-08 6.88961E-08
 -1     18070 6.93751E-02 6.93751E-02 1.33622E-03-1.94393E-01-1.97389E-07-1.97389E-07
 -1     18075 6.95564E-02 6.95564E-02 1.43260E-03-1.86255E-01-1.73240E-07-1.73240E-07
 -1     18076 3.64937E-02 9.45882E-02-5.10495E-04-1.83397E-01-3.37297E-08-3.94927E-08
 -1     18077 6.93468E-02 6.93468E-02 1.26978E-03-1.94393E-01-1.27260E-07-1.27259E-07
 -1     18082 6.95149E-02 6.95149E-02 1.33528E-03-1.86255E-01 5.62246E-07 5.62248E-07
 -1     18083 3.65228E-02 9.46173E-02-4.42411E-04-1.83397E-01-8.22057E-07-9.62506E-07
 -1     18084 6.92853E-02 6.92853E-02 1.12585E-03-1.94393E-01 1.52517E-06 1.52517E-06
 -1     18089 6.94374E-02 6.94374E-02 1.15441E-03-1.86254E-01 3.51671E-06 3.51671E-06
 -1     18090 3.65709E-02 9.46654E-02-3.30174E-04-1.83397E-01-3.23371E-06-3.78619E-06
 -1     18091 6.91807E-02 6.91807E-02 8.81623E-04-1.94393E-01 6.64510E-06 6.64510E-06
 -1     18096 6.93087E-02 6.93087E-02 8.54856E-04-1.86254E-01 1.04420E-05 1.04420E-05
 -1     18097 3.66378E-02 9.47324E-02-1.74490E-04-1.83397E-01-8.42124E-06-9.86001E-06
 -1     18098 6.90190E-02 6.90190E-02 5.05840E-04-1.94393E-01 1.83095E-05 1.83095E-05
 -1     18103 6.90933E-02 6.90933E-02 3.56038E-04-1.86254E-01 2.56952E-05 2.56952E-05
 -1     18107 1.26649E-01 1.15376E-02 3.56038E-04-1.77138E-01-2.93984E-05-2.13592E-05
 -1     18108 9.47324E-02 3.66378E-02-1.74490E-04-1.83397E-01 9.86001E-06 8.42124E-06
 -1     18109 1.29090E-01 8.94837E-03 5.05840E-04-1.84878E-01-2.09483E-05-1.52198E-05
 -1     18114 1.26864E-01 1.17529E-02 8.54856E-04-1.77138E-01-1.19469E-05-8.67993E-06
 -1     18115 9.46654E-02 3.65709E-02-3.30174E-04-1.83397E-01 3.78618E-06 3.23371E-06
 -1     18116 1.29251E-01 9.10996E-03 8.81623E-04-1.84879E-01-7.60281E-06-5.52376E-06
 -1     18121 1.26993E-01 1.18816E-02 1.15441E-03-1.77139E-01-4.02355E-06-2.92328E-06
 -1     18122 9.46173E-02 3.65228E-02-4.42411E-04-1.83397E-01 9.62505E-07 8.22058E-07
 -1     18123 1.29356E-01 9.21453E-03 1.12585E-03-1.84879E-01-1.74499E-06-1.26781E-06
 -1     18128 1.27071E-01 1.19590E-02 1.33528E-03-1.77139E-01-6.43280E-07-4.67370E-07
 -1     18129 9.45882E-02 3.64937E-02-5.10495E-04-1.83397E-01 3.94924E-08 3.37302E-08
 -1     18130 1.29418E-01 9.27596E-03 1.26978E-03-1.84879E-01 1.45600E-07 1.05784E-07
 -1     18135 1.27112E-01 1.20005E-02 1.43260E-03-1.77139E-01 1.98208E-07 1.44006E-07
 -1     18136 9.45746E-02 3.64802E-02-5.42239E-04-1.83397E-01-6.88962E-08-5.88428E-08
 -1     18137 1.29446E-01 9.30427E-03 1.33622E-03-1.84879E-01 2.25837E-07 1.64080E-07
 -1     18142 1.27125E-01 1.20136E-02 1.46331E-03-1.77139E-01-7.13633E-15-9.77329E-15
 -1     18143 9.45746E-02 3.64802E-02-5.42239E-04-1.83397E-01 6.88962E-08 5.88428E-08
 -1     18144 1.29446E-01 9.30427E-03 1.33622E-03-1.84879E-01-2.25837E-07-1.64080E-07
 -1     18149 1.27112E-01 1.20005E-02 1.43260E-03-1.77139E-01-1.98208E-07-1.44006E-07
 -1     18150 9.45882E-02 3.64937E-02-5.10495E-04-1.83397E-01-3.94924E-08-3.37302E-08
 -1     18151 1.29418E-01 9.27596E-03 1.26978E-03-1.84879E-01-1.45600E-07-1.05784E-07
 -1     18156 1.27071E-01 1.19590E-02 1.33528E-03-1.77139E-01 6.43280E-07 4.67370E-07
 -1     18157 9.46173E-02 3.65228E-02-4.42411E-04-1.83397E-01-9.62505E-07-8.22058E-07
 -1     18158 1.29356E-01 9.21453E-03 1.12585E-03-1.84879E-01 1.74499E-06 1.26781E-06
 -1     18163 1.26993E-01 1.18816E-02 1.15441E-03-1.77139E-01 4.02355E-06 2.92328E-06
 -1     18164 9.46654E-02 3.65709E-02-3.30174E-04-1.83397E-01-3.78618E-06-3.23371E-06
 -1     18165 1.29251E-01 9.10996E-03 8.81623E-04-1.84879E-01 7.60281E-06 5.52376E-06
 -1     18170 1.26864E-01 1.17529E-02 8.54856E-04-1.77138E-01 1.19469E-05 8.67993E-06
 -1     18171 9.47324E-02 3.66378E-02-1.74490E-04-1.83397E-01-9.86001E-06-8.42124E-06
 -1     18172 1.29090E-01 8.94837E-03 5.05840E-04-1.84878E-01 2.09483E-05 1.52198E-05
 -1     18177 1.26649E-01 1.15376E-02 3.56038E-04-1.77138E-01 2.93984E-05 2.13592E-05
 -1     18181 1.78571E-01-4.03842E-02 3.56038E-04-1.50683E-01-3.23778E-05-1.64973E-05
 -1     18182 1.49984E-01-1.86134E-02-1.74490E-04-1.65445E-01 1.10560E-05 6.77512E-06
 -1     18183 1.83280E-01-4.52421E-02 5.05840E-04-1.57267E-01-2.30713E-05-1.17554E-05
 -1     18188 1.78786E-01-4.01689E-02 8.54856E-04-1.50683E-01-1.31577E-05-6.70416E-06
 -1     18189 1.49917E-01-1.86803E-02-3.30174E-04-1.65445E-01 4.24543E-06 2.60161E-06
 -1     18190 1.83442E-01-4.50806E-02 8.81623E-04-1.57267E-01-8.37331E-06-4.26641E-06
 -1     18195 1.78915E-01-4.00402E-02 1.15441E-03-1.50683E-01-4.43132E-06-2.25787E-06
 -1     18196 1.49868E-01-1.87283E-02-4.42411E-04-1.65445E-01 1.07925E-06 6.61367E-07
 -1     18197 1.83547E-01-4.49761E-02 1.12585E-03-1.57267E-01-1.92183E-06-9.79221E-07
 -1     18202 1.78993E-01-3.99629E-02 1.33528E-03-1.50683E-01-7.08473E-07-3.60984E-07
 -1     18203 1.49839E-01-1.87574E-02-5.10495E-04-1.65445E-01 4.42832E-08 2.71365E-08
 -1     18204 1.83608E-01-4.49147E-02 1.26978E-03-1.57267E-01 1.60355E-07 8.17059E-08
 -1     18209 1.79034E-01-3.99214E-02 1.43260E-03-1.50683E-01 2.18295E-07 1.11227E-07
 -1     18210 1.49826E-01-1.87709E-02-5.42239E-04-1.65445E-01-7.72529E-08-4.73407E-08
 -1     18211 1.83637E-01-4.48864E-02 1.33622E-03-1.57267E-01 2.48724E-07 1.26732E-07
 -1     18216 1.79047E-01-3.99083E-02 1.46331E-03-1.50683E-01-5.05704E-14 1.43269E-14
 -1     18217 1.49826E-01-1.87709E-02-5.42239E-04-1.65445E-01 7.72529E-08 4.73408E-08
 -1     18218 1.83637E-01-4.48864E-02 1.33622E-03-1.57267E-01-2.48724E-07-1.26732E-07
 -1     18223 1.79034E-01-3.99214E-02 1.43260E-03-1.50683E-01-2.18295E-07-1.11227E-07
 -1     18224 1.49839E-01-1.87574E-02-5.10495E-04-1.65445E-01-4.42832E-08-2.71365E-08
 -1     18225 1.83608E-01-4.49147E-02 1.26978E-03-1.57267E-01-1.60355E-07-8.17058E-08
 -1     18230 1.78993E-01-3.99629E-02 1.33528E-03-1.50683E-01 7.08473E-07 3.60984E-07
 -1     18231 1.49868E-01-1.87283E-02-4.42411E-04-1.65445E-01-1.07925E-06-6.61367E-07
 -1     18232 1.83547E-01-4.49761E-02 1.12585E-03-1.57267E-01 1.92183E-06 9.79221E-07
 -1     18237 1.78915E-01-4.00402E-02 1.15441E-03-1.50683E-01 4.43132E-06 2.25787E-06
 -1     18238 1.49917E-01-1.86803E-02-3.30174E-04-1.65445E-01-4.24543E-06-2.60161E-06
 -1     18239 1.83442E-01-4.50806E-02 8.81623E-04-1.57267E-01 8.37331E-06 4.26641E-06
 -1     18244 1.78786E-01-4.01689E-02 8.54856E-04-1.50683E-01 1.31577E-05 6.70416E-06
 -1     18245 1.49984E-01-1.86134E-02-1.74490E-04-1.65445E-01-1.10560E-05-6.77512E-06
 -1     18246 1.83280E-01-4.52421E-02 5.05840E-04-1.57267E-01 2.30713E-05 1.17554E-05
 -1     18251 1.78571E-01-4.03842E-02 3.56038E-04-1.50683E-01 3.23778E-05 1.64973E-05
 -1     18255 2.19776E-01-8.15895E-02 3.56038E-04-1.09477E-01-3.45599E-05-1.12292E-05
 -1     18256 1.96983E-01-6.56129E-02-1.74490E-04-1.31298E-01 1.19797E-05 4.96217E-06
 -1     18257 2.26286E-01-8.82479E-02 5.05840E-04-1.14261E-01-2.46262E-05-8.00155E-06
 -1     18262 2.19992E-01-8.13742E-02 8.54856E-04-1.09478E-01-1.40444E-05-4.56331E-06
 -1     18263 1.96916E-01-6.56797E-02-3.30174E-04-1.31298E-01 4.60015E-06 1.90544E-06
 -1     18264 2.26448E-01-8.80865E-02 8.81623E-04-1.14261E-01-8.93764E-06-2.90401E-06
 -1     18269 2.20120E-01-8.12456E-02 1.15441E-03-1.09478E-01-4.72997E-06-1.53686E-06
 -1     18270 1.96868E-01-6.57278E-02-4.42411E-04-1.31298E-01 1.16943E-06 4.84392E-07
 -1     18271 2.26553E-01-8.79820E-02 1.12585E-03-1.14261E-01-2.05135E-06-6.66525E-07
 -1     18276 2.20198E-01-8.11683E-02 1.33528E-03-1.09478E-01-7.56220E-07-2.45711E-07
 -1     18277 1.96839E-01-6.57568E-02-5.10495E-04-1.31298E-01 4.79829E-08 1.98749E-08
 -1     18278 2.26614E-01-8.79207E-02 1.26978E-03-1.14261E-01 1.71163E-07 5.56143E-08
 -1     18283 2.20240E-01-8.11268E-02 1.43260E-03-1.09478E-01 2.33007E-07 7.57087E-08
 -1     18284 1.96825E-01-6.57703E-02-5.42239E-04-1.31298E-01-8.37076E-08-3.46729E-08
 -1     18285 2.26643E-01-8.78924E-02 1.33622E-03-1.14262E-01 2.65487E-07 8.62621E-08
 -1     18290 2.20253E-01-8.11138E-02 1.46331E-03-1.09478E-01-3.35977E-14-4.53216E-15
 -1     18291 1.96825E-01-6.57703E-02-5.42239E-04-1.31298E-01 8.37075E-08 3.46729E-08
 -1     18292 2.26643E-01-8.78924E-02 1.33622E-03-1.14262E-01-2.65487E-07-8.62621E-08
 -1     18297 2.20240E-01-8.11268E-02 1.43260E-03-1.09478E-01-2.33007E-07-7.57086E-08
 -1     18298 1.96839E-01-6.57568E-02-5.10495E-04-1.31298E-01-4.79829E-08-1.98749E-08
 -1     18299 2.26614E-01-8.79207E-02 1.26978E-03-1.14261E-01-1.71163E-07-5.56143E-08
 -1     18304 2.20198E-01-8.11683E-02 1.33528E-03-1.09478E-01 7.56220E-07 2.45711E-07
 -1     18305 1.96868E-01-6.57278E-02-4.42411E-04-1.31298E-01-1.16943E-06-4.84392E-07
 -1     18306 2.26553E-01-8.79820E-02 1.12585E-03-1.14261E-01 2.05135E-06 6.66525E-07
 -1     18311 2.20120E-01-8.12456E-02 1.15441E-03-1.09478E-01 4.72997E-06 1.53686E-06
 -1     18312 1.96916E-01-6.56797E-02-3.30174E-04-1.31298E-01-4.60015E-06-1.90544E-06
 -1     18313 2.26448E-01-8.80865E-02 8.81623E-04-1.14261E-01 8.93764E-06 2.90401E-06
 -1     18318 2.19992E-01-8.13742E-02 8.54856E-04-1.09478E-01 1.40444E-05 4.56331E-06
 -1     18319 1.96983E-01-6.56129E-02-1.74490E-04-1.31298E-01-1.19797E-05-4.96217E-06
 -1     18320 2.26286E-01-8.82479E-02 5.05840E-04-1.14261E-01 2.46262E-05 8.00155E-06
 -1     18325 2.19776E-01-8.15895E-02 3.56038E-04-1.09477E-01 3.45599E-05 1.12292E-05
 -1     18329 2.46232E-01-1.08045E-01 3.56038E-04-5.75557E-02-3.58911E-05-5.68459E-06
 -1     18330 2.31130E-01-9.97600E-02-1.74490E-04-8.42985E-02 1.26085E-05 3.02703E-06
 -1     18331 2.53897E-01-1.15859E-01 5.05840E-04-6.00706E-02-2.55748E-05-4.05065E-06
 -1     18336 2.46447E-01-1.07830E-01 8.54856E-04-5.75557E-02-1.45854E-05-2.31010E-06
 -1     18337 2.31063E-01-9.98268E-02-3.30174E-04-8.42984E-02 4.84159E-06 1.16236E-06
 -1     18338 2.54059E-01-1.15698E-01 8.81623E-04-6.00707E-02-9.28189E-06-1.47011E-06
 -1     18343 2.46576E-01-1.07701E-01 1.15441E-03-5.75558E-02-4.91215E-06-7.78011E-07
 -1     18344 2.31015E-01-9.98748E-02-4.42411E-04-8.42984E-02 1.23080E-06 2.95491E-07
 -1     18345 2.54164E-01-1.15594E-01 1.12585E-03-6.00708E-02-2.13037E-06-3.37418E-07
 -1     18350 2.46654E-01-1.07624E-01 1.33528E-03-5.75559E-02-7.85348E-07-1.24388E-07
 -1     18351 2.30986E-01-9.99039E-02-5.10495E-04-8.42983E-02 5.05011E-08 1.21246E-08
 -1     18352 2.54226E-01-1.15532E-01 1.26978E-03-6.00708E-02 1.77756E-07 2.81527E-08
 -1     18357 2.46695E-01-1.07582E-01 1.43260E-03-5.75559E-02 2.41982E-07 3.83254E-08
 -1     18358 2.30972E-01-9.99174E-02-5.42239E-04-8.42983E-02-8.81011E-08-2.11511E-08
 -1     18359 2.54254E-01-1.15504E-01 1.33622E-03-6.00708E-02 2.75713E-07 4.36683E-08
 -1     18364 2.46708E-01-1.07569E-01 1.46331E-03-5.75559E-02 1.61417E-14 1.11926E-14
 -1     18365 2.30972E-01-9.99174E-02-5.42239E-04-8.42983E-02 8.81011E-08 2.11511E-08
 -1     18366 2.54254E-01-1.15504E-01 1.33622E-03-6.00708E-02-2.75713E-07-4.36683E-08
 -1     18371 2.46695E-01-1.07582E-01 1.43260E-03-5.75559E-02-2.41982E-07-3.83254E-08
 -1     18372 2.30986E-01-9.99039E-02-5.10495E-04-8.42983E-02-5.05011E-08-1.21246E-08
 -1     18373 2.54226E-01-1.15532E-01 1.26978E-03-6.00708E-02-1.77756E-07-2.81527E-08
 -1     18378 2.46654E-01-1.07624E-01 1.33528E-03-5.75559E-02 7.85348E-07 1.24388E-07
 -1     18379 2.31015E-01-9.98748E-02-4.42411E-04-8.42984E-02-1.23080E-06-2.95491E-07
 -1     18380 2.54164E-01-1.15594E-01 1.12585E-03-6.00708E-02 2.13037E-06 3.37418E-07
 -1     18385 2.46576E-01-1.07701E-01 1.15441E-03-5.75558E-02 4.91215E-06 7.78011E-07
 -1     18386 2.31063E-01-9.98268E-02-3.30174E-04-8.42984E-02-4.84159E-06-1.16236E-06
 -1     18387 2.54059E-01-1.15698E-01 8.81623E-04-6.00707E-02 9.28189E-06 1.47011E-06
 -1     18392 2.46447E-01-1.07830E-01 8.54856E-04-5.75557E-02 1.45854E-05 2.31010E-06
 -1     18393 2.31130E-01-9.97600E-02-1.74490E-04-8.42985E-02-1.26085E-05-3.02703E-06
 -1     18394 2.53897E-01-1.15859E-01 5.05840E-04-6.00706E-02 2.55748E-05 4.05065E-06
 -1     18399 2.46232E-01-1.08045E-01 3.56038E-04-5.75557E-02 3.58911E-05 5.68459E-06
 -1     18403 2.49082E-01-1.17712E-01-1.74490E-04-2.90473E-02 1.29268E-05 1.01736E-06
 -1     18407 2.49015E-01-1.17779E-01-3.30174E-04-2.90473E-02 4.96381E-06 3.90661E-07
 -1     18411 2.48967E-01-1.17827E-01-4.42411E-04-2.90472E-02 1.26188E-06 9.93125E-08
 -1     18415 2.48938E-01-1.17856E-01-5.10495E-04-2.90472E-02 5.17762E-08 4.07531E-09
 -1     18419 2.48924E-01-1.17870E-01-5.42239E-04-2.90472E-02-9.03251E-08-7.10859E-09
 -1     18423 2.48924E-01-1.17870E-01-5.42239E-04-2.90472E-02 9.03251E-08 7.10860E-09
 -1     18427 2.48938E-01-1.17856E-01-5.10495E-04-2.90472E-02-5.17762E-08-4.07530E-09
 -1     18431 2.48967E-01-1.17827E-01-4.42411E-04-2.90472E-02-1.26188E-06-9.93125E-08
 -1     18435 2.49015E-01-1.17779E-01-3.30174E-04-2.90473E-02-4.96381E-06-3.90661E-07
 -1     18439 2.49082E-01-1.17712E-01-1.74490E-04-2.90473E-02-1.29268E-05-1.01736E-06
 -1     18445-9.43704E-02 2.32142E-01 3.12672E-04-5.30452E-02-5.32505E-06-3.36210E-05
 -1     18446-1.03272E-01 2.34777E-01-1.58162E-04-2.67709E-02 9.65286E-07 1.22651E-05
 -1     18447-1.01261E-01 2.38922E-01 4.49888E-04-5.52660E-02-3.85693E-06-2.43517E-05
 -1     18452-9.41793E-02 2.32333E-01 7.55450E-04-5.30452E-02-2.29465E-06-1.44878E-05
 -1     18453-1.03333E-01 2.34716E-01-2.99145E-04-2.67709E-02 3.96433E-07 5.03716E-06
 -1     18454-1.01116E-01 2.39067E-01 7.87046E-04-5.52660E-02-1.51349E-06-9.55580E-06
 -1     18459-9.40632E-02 2.32450E-01 1.02562E-03-5.30452E-02-8.60087E-07-5.43038E-06
 -1     18460-1.03376E-01 2.34673E-01-4.01285E-04-2.67708E-02 1.21942E-07 1.54942E-06
 -1     18461-1.01021E-01 2.39162E-01 1.00862E-03-5.52661E-02-4.38074E-07-2.76589E-06
 -1     18466-9.39927E-02 2.32521E-01 1.19073E-03-5.30453E-02-2.13505E-07-1.34802E-06
 -1     18467-1.03403E-01 2.34646E-01-4.63715E-04-2.67708E-02 2.21650E-08 2.81633E-07
 -1     18468-1.00965E-01 2.39219E-01 1.14047E-03-5.52661E-02-5.06079E-08-3.19526E-07
 -1     18473-9.39545E-02 2.32559E-01 1.28030E-03-5.30453E-02-1.35564E-08-8.55921E-08
 -1     18474-1.03416E-01 2.34633E-01-4.92985E-04-2.67708E-02-4.50788E-10-5.72785E-09
 -1     18475-1.00939E-01 2.39245E-01 1.20172E-03-5.52662E-02 1.50340E-08 9.49212E-08
 -1     18480-9.39424E-02 2.32571E-01 1.30869E-03-5.30453E-02-1.22310E-15 1.68046E-14
 -1     18481-1.03416E-01 2.34633E-01-4.92985E-04-2.67708E-02 4.50788E-10 5.72786E-09
 -1     18482-1.00939E-01 2.39245E-01 1.20172E-03-5.52662E-02-1.50340E-08-9.49211E-08
 -1     18487-9.39545E-02 2.32559E-01 1.28030E-03-5.30453E-02 1.35564E-08 8.55921E-08
 -1     18488-1.03403E-01 2.34646E-01-4.63715E-04-2.67708E-02-2.21650E-08-2.81633E-07
 -1     18489-1.00965E-01 2.39219E-01 1.14047E-03-5.52661E-02 5.06079E-08 3.19526E-07
 -1     18494-9.39927E-02 2.32521E-01 1.19073E-03-5.30453E-02 2.13505E-07 1.34802E-06
 -1     18495-1.03376E-01 2.34673E-01-4.01285E-04-2.67708E-02-1.21942E-07-1.54942E-06
 -1     18496-1.01021E-01 2.39162E-01 1.00862E-03-5.52661E-02 4.38074E-07 2.76589E-06
 -1     18501-9.40632E-02 2.32450E-01 1.02562E-03-5.30452E-02 8.60087E-07 5.43038E-06
 -1     18502-1.03333E-01 2.34716E-01-2.99145E-04-2.67709E-02-3.96433E-07-5.03716E-06
 -1     18503-1.01116E-01 2.39067E-01 7.87046E-04-5.52660E-02 1.51349E-06 9.55580E-06
 -1     18508-9.41793E-02 2.32333E-01 7.55450E-04-5.30452E-02 2.29465E-06 1.44878E-05
 -1     18509-1.03272E-01 2.34777E-01-1.58162E-04-2.67709E-02-9.65286E-07-1.22651E-05
 -1     18510-1.01261E-01 2.38922E-01 4.49888E-04-5.52660E-02 3.85693E-06 2.43517E-05
 -1     18515-9.43704E-02 2.32142E-01 3.12672E-04-5.30452E-02 5.32505E-06 3.36210E-05
 -1     18519-6.99882E-02 2.07760E-01 3.12672E-04-1.00898E-01-1.05190E-05-3.23741E-05
 -1     18520-8.67268E-02 2.18232E-01-1.58162E-04-7.76921E-02 2.87209E-06 1.19631E-05
 -1     18521-7.58578E-02 2.13519E-01 4.49888E-04-1.05122E-01-7.61888E-06-2.34485E-05
 -1     18526-6.97971E-02 2.07951E-01 7.55450E-04-1.00898E-01-4.53280E-06-1.39505E-05
 -1     18527-8.67874E-02 2.18171E-01-2.99145E-04-7.76921E-02 1.17954E-06 4.91313E-06
 -1     18528-7.57128E-02 2.13664E-01 7.87046E-04-1.05122E-01-2.98971E-06-9.20139E-06
 -1     18533-6.96810E-02 2.08067E-01 1.02562E-03-1.00898E-01-1.69900E-06-5.22897E-06
 -1     18534-8.68311E-02 2.18127E-01-4.01285E-04-7.76920E-02 3.62824E-07 1.51127E-06
 -1     18535-7.56180E-02 2.13759E-01 1.00862E-03-1.05122E-01-8.65361E-07-2.66331E-06
 -1     18540-6.96104E-02 2.08138E-01 1.19073E-03-1.00898E-01-4.21753E-07-1.29802E-06
 -1     18541-8.68578E-02 2.18101E-01-4.63715E-04-7.76920E-02 6.59491E-08 2.74698E-07
 -1     18542-7.55618E-02 2.13816E-01 1.14047E-03-1.05122E-01-9.99697E-08-3.07675E-07
 -1     18547-6.95722E-02 2.08177E-01 1.28030E-03-1.00898E-01-2.67791E-08-8.24176E-08
 -1     18548-8.68702E-02 2.18088E-01-4.92985E-04-7.76920E-02-1.34128E-09-5.58681E-09
 -1     18549-7.55357E-02 2.13842E-01 1.20172E-03-1.05122E-01 2.96979E-08 9.14007E-08
 -1     18554-6.95601E-02 2.08189E-01 1.30869E-03-1.00898E-01-4.59190E-14-1.39786E-14
 -1     18555-8.68702E-02 2.18088E-01-4.92985E-04-7.76920E-02 1.34128E-09 5.58681E-09
 -1     18556-7.55357E-02 2.13842E-01 1.20172E-03-1.05122E-01-2.96979E-08-9.14007E-08
 -1     18561-6.95722E-02 2.08177E-01 1.28030E-03-1.00898E-01 2.67791E-08 8.24176E-08
 -1     18562-8.68578E-02 2.18101E-01-4.63715E-04-7.76920E-02-6.59491E-08-2.74698E-07
 -1     18563-7.55618E-02 2.13816E-01 1.14047E-03-1.05122E-01 9.99697E-08 3.07675E-07
 -1     18568-6.96104E-02 2.08138E-01 1.19073E-03-1.00898E-01 4.21753E-07 1.29802E-06
 -1     18569-8.68311E-02 2.18127E-01-4.01285E-04-7.76920E-02-3.62824E-07-1.51127E-06
 -1     18570-7.56180E-02 2.13759E-01 1.00862E-03-1.05122E-01 8.65361E-07 2.66331E-06
 -1     18575-6.96810E-02 2.08067E-01 1.02562E-03-1.00898E-01 1.69900E-06 5.22897E-06
 -1     18576-8.67874E-02 2.18171E-01-2.99145E-04-7.76921E-02-1.17954E-06-4.91313E-06
 -1     18577-7.57128E-02 2.13664E-01 7.87046E-04-1.05122E-01 2.98971E-06 9.20139E-06
 -1     18582-6.97971E-02 2.07951E-01 7.55450E-04-1.00898E-01 4.53280E-06 1.39505E-05
 -1     18583-8.67268E-02 2.18232E-01-1.58162E-04-7.76921E-02-2.87209E-06-1.19631E-05
 -1     18584-7.58578E-02 2.13519E-01 4.49888E-04-1.05122E-01 7.61888E-06 2.34485E-05
 -1     18589-6.99882E-02 2.07760E-01 3.12672E-04-1.00898E-01 1.05190E-05 3.23741E-05
 -1     18593-3.20121E-02 1.69784E-01 3.12672E-04-1.38874E-01-1.54539E-05-3.03300E-05
 -1     18594-5.52558E-02 1.86761E-01-1.58162E-04-1.21008E-01 4.70817E-06 1.13665E-05
 -1     18595-3.62917E-02 1.73953E-01 4.49888E-04-1.44688E-01-1.11932E-05-2.19680E-05
 -1     18600-3.18209E-02 1.69975E-01 7.55450E-04-1.38874E-01-6.65933E-06-1.30697E-05
 -1     18601-5.53164E-02 1.86700E-01-2.99145E-04-1.21008E-01 1.93360E-06 4.66812E-06
 -1     18602-3.61467E-02 1.74098E-01 7.87046E-04-1.44688E-01-4.39232E-06-8.62042E-06
 -1     18607-3.17048E-02 1.70091E-01 1.02562E-03-1.38874E-01-2.49607E-06-4.89881E-06
 -1     18608-5.53601E-02 1.86656E-01-4.01285E-04-1.21008E-01 5.94772E-07 1.43591E-06
 -1     18609-3.60518E-02 1.74193E-01 1.00862E-03-1.44689E-01-1.27134E-06-2.49515E-06
 -1     18614-3.16342E-02 1.70162E-01 1.19073E-03-1.38874E-01-6.19616E-07-1.21606E-06
 -1     18615-5.53868E-02 1.86629E-01-4.63715E-04-1.21008E-01 1.08109E-07 2.60999E-07
 -1     18616-3.59956E-02 1.74249E-01 1.14047E-03-1.44689E-01-1.46870E-07-2.88248E-07
 -1     18621-3.15960E-02 1.70200E-01 1.28030E-03-1.38874E-01-3.93424E-08-7.72137E-08
 -1     18622-5.53992E-02 1.86617E-01-4.92985E-04-1.21008E-01-2.19871E-09-5.30817E-09
 -1     18623-3.59695E-02 1.74276E-01 1.20172E-03-1.44689E-01 4.36304E-08 8.56296E-08
 -1     18628-3.15839E-02 1.70213E-01 1.30869E-03-1.38874E-01-1.52706E-14-5.75161E-14
 -1     18629-5.53992E-02 1.86617E-01-4.92985E-04-1.21008E-01 2.19873E-09 5.30818E-09
 -1     18630-3.59695E-02 1.74276E-01 1.20172E-03-1.44689E-01-4.36304E-08-8.56297E-08
 -1     18635-3.15960E-02 1.70200E-01 1.28030E-03-1.38874E-01 3.93425E-08 7.72137E-08
 -1     18636-5.53868E-02 1.86629E-01-4.63715E-04-1.21008E-01-1.08109E-07-2.60999E-07
 -1     18637-3.59956E-02 1.74249E-01 1.14047E-03-1.44689E-01 1.46870E-07 2.88248E-07
 -1     18642-3.16342E-02 1.70162E-01 1.19073E-03-1.38874E-01 6.19616E-07 1.21606E-06
 -1     18643-5.53601E-02 1.86656E-01-4.01285E-04-1.21008E-01-5.94772E-07-1.43591E-06
 -1     18644-3.60518E-02 1.74193E-01 1.00862E-03-1.44689E-01 1.27134E-06 2.49515E-06
 -1     18649-3.17048E-02 1.70091E-01 1.02562E-03-1.38874E-01 2.49607E-06 4.89881E-06
 -1     18650-5.53164E-02 1.86700E-01-2.99145E-04-1.21008E-01-1.93360E-06-4.66812E-06
 -1     18651-3.61467E-02 1.74098E-01 7.87046E-04-1.44688E-01 4.39232E-06 8.62042E-06
 -1     18656-3.18209E-02 1.69975E-01 7.55450E-04-1.38874E-01 6.65933E-06 1.30697E-05
 -1     18657-5.52558E-02 1.86761E-01-1.58162E-04-1.21008E-01-4.70817E-06-1.13665E-05
 -1     18658-3.62917E-02 1.73953E-01 4.49888E-04-1.44688E-01 1.11932E-05 2.19680E-05
 -1     18663-3.20121E-02 1.69784E-01 3.12672E-04-1.38874E-01 1.54539E-05 3.03300E-05
 -1     18667 1.58406E-02 1.21931E-01 3.12672E-04-1.63256E-01-2.00083E-05-2.75390E-05
 -1     18668-1.19396E-02 1.43445E-01-1.58162E-04-1.52479E-01 6.42832E-06 1.04901E-05
 -1     18669 1.35644E-02 1.24096E-01 4.49888E-04-1.70091E-01-1.44920E-05-1.99465E-05
 -1     18674 1.60318E-02 1.22122E-01 7.55450E-04-1.63256E-01-8.62189E-06-1.18670E-05
 -1     18675-1.20002E-02 1.43384E-01-2.99145E-04-1.52479E-01 2.64005E-06 4.30816E-06
 -1     18676 1.37095E-02 1.24242E-01 7.87046E-04-1.70091E-01-5.68677E-06-7.82717E-06
 -1     18681 1.61480E-02 1.22238E-01 1.02562E-03-1.63256E-01-3.23168E-06-4.44803E-06
 -1     18682-1.20440E-02 1.43340E-01-4.01285E-04-1.52479E-01 8.12075E-07 1.32519E-06
 -1     18683 1.38044E-02 1.24337E-01 1.00862E-03-1.70092E-01-1.64601E-06-2.26554E-06
 -1     18688 1.62187E-02 1.22309E-01 1.19073E-03-1.63257E-01-8.02222E-07-1.10416E-06
 -1     18689-1.20706E-02 1.43313E-01-4.63715E-04-1.52479E-01 1.47608E-07 2.40874E-07
 -1     18690 1.38607E-02 1.24393E-01 1.14047E-03-1.70092E-01-1.90154E-07-2.61724E-07
 -1     18695 1.62569E-02 1.22348E-01 1.28030E-03-1.63257E-01-5.09370E-08-7.01085E-08
 -1     18696-1.20831E-02 1.43301E-01-4.92985E-04-1.52479E-01-3.00196E-09-4.89891E-09
 -1     18697 1.38869E-02 1.24419E-01 1.20172E-03-1.70092E-01 5.64887E-08 7.77501E-08
 -1     18702 1.62690E-02 1.22360E-01 1.30869E-03-1.63257E-01-5.32483E-15-2.08899E-14
 -1     18703-1.20831E-02 1.43301E-01-4.92985E-04-1.52479E-01 3.00199E-09 4.89890E-09
 -1     18704 1.38869E-02 1.24419E-01 1.20172E-03-1.70092E-01-5.64887E-08-7.77501E-08
 -1     18709 1.62569E-02 1.22348E-01 1.28030E-03-1.63257E-01 5.09369E-08 7.01085E-08
 -1     18710-1.20706E-02 1.43313E-01-4.63715E-04-1.52479E-01-1.47608E-07-2.40874E-07
 -1     18711 1.38607E-02 1.24393E-01 1.14047E-03-1.70092E-01 1.90154E-07 2.61724E-07
 -1     18716 1.62187E-02 1.22309E-01 1.19073E-03-1.63257E-01 8.02222E-07 1.10416E-06
 -1     18717-1.20440E-02 1.43340E-01-4.01285E-04-1.52479E-01-8.12075E-07-1.32519E-06
 -1     18718 1.38044E-02 1.24337E-01 1.00862E-03-1.70092E-01 1.64601E-06 2.26554E-06
 -1     18723 1.61480E-02 1.22238E-01 1.02562E-03-1.63256E-01 3.23168E-06 4.44803E-06
 -1     18724-1.20002E-02 1.43384E-01-2.99145E-04-1.52479E-01-2.64005E-06-4.30816E-06
 -1     18725 1.37095E-02 1.24242E-01 7.87046E-04-1.70091E-01 5.68677E-06 7.82717E-06
 -1     18730 1.60318E-02 1.22122E-01 7.55450E-04-1.63256E-01 8.62189E-06 1.18670E-05
 -1     18731-1.19396E-02 1.43445E-01-1.58162E-04-1.52479E-01-6.42832E-06-1.04901E-05
 -1     18732 1.35644E-02 1.24096E-01 4.49888E-04-1.70091E-01 1.44920E-05 1.99465E-05
 -1     18737 1.58406E-02 1.21931E-01 3.12672E-04-1.63256E-01 2.00083E-05 2.75390E-05
 -1     18741 6.88858E-02 6.88858E-02 3.12672E-04-1.71658E-01-2.40700E-05-2.40700E-05
 -1     18742 3.89817E-02 9.25234E-02-1.58162E-04-1.69025E-01 7.99019E-06 9.35531E-06
 -1     18743 6.88304E-02 6.88304E-02 4.49888E-04-1.78844E-01-1.74339E-05-1.74339E-05
 -1     18748 6.90770E-02 6.90770E-02 7.55450E-04-1.71658E-01-1.03722E-05-1.03722E-05
 -1     18749 3.89210E-02 9.24627E-02-2.99145E-04-1.69025E-01 3.28149E-06 3.84213E-06
 -1     18750 6.89756E-02 6.89756E-02 7.87046E-04-1.78845E-01-6.84120E-06-6.84120E-06
 -1     18755 6.91932E-02 6.91932E-02 1.02562E-03-1.71658E-01-3.88772E-06-3.88772E-06
 -1     18756 3.88772E-02 9.24189E-02-4.01285E-04-1.69024E-01 1.00938E-06 1.18183E-06
 -1     18757 6.90705E-02 6.90705E-02 1.00862E-03-1.78845E-01-1.98016E-06-1.98016E-06
 -1     18762 6.92639E-02 6.92639E-02 1.19073E-03-1.71658E-01-9.65073E-07-9.65075E-07
 -1     18763 3.88505E-02 9.23922E-02-4.63715E-04-1.69024E-01 1.83471E-07 2.14818E-07
 -1     18764 6.91269E-02 6.91269E-02 1.14047E-03-1.78845E-01-2.28755E-07-2.28756E-07
 -1     18769 6.93022E-02 6.93022E-02 1.28030E-03-1.71658E-01-6.12767E-08-6.12775E-08
 -1     18770 3.88380E-02 9.23797E-02-4.92985E-04-1.69024E-01-3.73150E-09-4.36891E-09
 -1     18771 6.91530E-02 6.91530E-02 1.20172E-03-1.78845E-01 6.79563E-08 6.79559E-08
 -1     18776 6.93143E-02 6.93143E-02 1.30869E-03-1.71658E-01 2.00558E-14 3.30506E-14
 -1     18777 3.88380E-02 9.23797E-02-4.92985E-04-1.69024E-01 3.73152E-09 4.36892E-09
 -1     18778 6.91530E-02 6.91530E-02 1.20172E-03-1.78845E-01-6.79563E-08-6.79559E-08
 -1     18783 6.93022E-02 6.93022E-02 1.28030E-03-1.71658E-01 6.12767E-08 6.12775E-08
 -1     18784 3.88505E-02 9.23922E-02-4.63715E-04-1.69024E-01-1.83471E-07-2.14817E-07
 -1     18785 6.91269E-02 6.91269E-02 1.14047E-03-1.78845E-01 2.28755E-07 2.28756E-07
 -1     18790 6.92639E-02 6.92639E-02 1.19073E-03-1.71658E-01 9.65073E-07 9.65075E-07
 -1     18791 3.88772E-02 9.24189E-02-4.01285E-04-1.69024E-01-1.00938E-06-1.18183E-06
 -1     18792 6.90705E-02 6.90705E-02 1.00862E-03-1.78845E-01 1.98016E-06 1.98016E-06
 -1     18797 6.91932E-02 6.91932E-02 1.02562E-03-1.71658E-01 3.88772E-06 3.88772E-06
 -1     18798 3.89210E-02 9.24627E-02-2.99145E-04-1.69025E-01-3.28149E-06-3.84213E-06
 -1     18799 6.89756E-02 6.89756E-02 7.87046E-04-1.78845E-01 6.84120E-06 6.84120E-06
 -1     18804 6.90770E-02 6.90770E-02 7.55450E-04-1.71658E-01 1.03722E-05 1.03722E-05
 -1     18805 3.89817E-02 9.25234E-02-1.58162E-04-1.69025E-01-7.99019E-06-9.35531E-06
 -1     18806 6.88304E-02 6.88304E-02 4.49888E-04-1.78844E-01 1.74339E-05 1.74339E-05
 -1     18811 6.88858E-02 6.88858E-02 3.12672E-04-1.71658E-01 2.40700E-05 2.40700E-05
 -1     18815 1.21931E-01 1.58406E-02 3.12672E-04-1.63256E-01-2.75390E-05-2.00083E-05
 -1     18816 9.25234E-02 3.89817E-02-1.58162E-04-1.69025E-01 9.35531E-06 7.99019E-06
 -1     18817 1.24096E-01 1.35644E-02 4.49888E-04-1.70091E-01-1.99465E-05-1.44920E-05
 -1     18822 1.22122E-01 1.60318E-02 7.55450E-04-1.63256E-01-1.18670E-05-8.62189E-06
 -1     18823 9.24627E-02 3.89210E-02-2.99145E-04-1.69025E-01 3.84213E-06 3.28149E-06
 -1     18824 1.24242E-01 1.37095E-02 7.87046E-04-1.70091E-01-7.82717E-06-5.68677E-06
 -1     18829 1.22238E-01 1.61480E-02 1.02562E-03-1.63256E-01-4.44803E-06-3.23168E-06
 -1     18830 9.24189E-02 3.88772E-02-4.01285E-04-1.69024E-01 1.18183E-06 1.00938E-06
 -1     18831 1.24337E-01 1.38044E-02 1.00862E-03-1.70092E-01-2.26554E-06-1.64601E-06
 -1     18836 1.22309E-01 1.62187E-02 1.19073E-03-1.63257E-01-1.10416E-06-8.02222E-07
 -1     18837 9.23922E-02 3.88505E-02-4.63715E-04-1.69024E-01 2.14817E-07 1.83472E-07
 -1     18838 1.24393E-01 1.38607E-02 1.14047E-03-1.70092E-01-2.61724E-07-1.90154E-07
 -1     18843 1.22348E-01 1.62569E-02 1.28030E-03-1.63257E-01-7.01087E-08-5.09371E-08
 -1     18844 9.23797E-02 3.88380E-02-4.92985E-04-1.69024E-01-4.36906E-09-3.73130E-09
 -1     18845 1.24419E-01 1.38869E-02 1.20172E-03-1.70092E-01 7.77500E-08 5.64887E-08
 -1     18850 1.22360E-01 1.62690E-02 1.30869E-03-1.63257E-01-1.28185E-14 4.10589E-14
 -1     18851 9.23797E-02 3.88380E-02-4.92985E-04-1.69024E-01 4.36907E-09 3.73131E-09
 -1     18852 1.24419E-01 1.38869E-02 1.20172E-03-1.70092E-01-7.77500E-08-5.64886E-08
 -1     18857 1.22348E-01 1.62569E-02 1.28030E-03-1.63257E-01 7.01086E-08 5.09371E-08
 -1     18858 9.23922E-02 3.88505E-02-4.63715E-04-1.69024E-01-2.14817E-07-1.83472E-07
 -1     18859 1.24393E-01 1.38607E-02 1.14047E-03-1.70092E-01 2.61724E-07 1.90154E-07
 -1     18864 1.22309E-01 1.62187E-02 1.19073E-03-1.63257E-01 1.10416E-06 8.02222E-07
 -1     18865 9.24189E-02 3.88772E-02-4.01285E-04-1.69024E-01-1.18183E-06-1.00938E-06
 -1     18866 1.24337E-01 1.38044E-02 1.00862E-03-1.70092E-01 2.26554E-06 1.64601E-06
 -1     18871 1.22238E-01 1.61480E-02 1.02562E-03-1.63256E-01 4.44803E-06 3.23168E-06
 -1     18872 9.24627E-02 3.89210E-02-2.99145E-04-1.69025E-01-3.84213E-06-3.28149E-06
 -1     18873 1.24242E-01 1.37095E-02 7.87046E-04-1.70091E-01 7.82717E-06 5.68677E-06
 -1     18878 1.22122E-01 1.60318E-02 7.55450E-04-1.63256E-01 1.18670E-05 8.62189E-06
 -1     18879 9.25234E-02 3.89817E-02-1.58162E-04-1.69025E-01-9.35531E-06-7.99019E-06
 -1     18880 1.24096E-01 1.35644E-02 4.49888E-04-1.70091E-01 1.99465E-05 1.44920E-05
 -1     18885 1.21931E-01 1.58406E-02 3.12672E-04-1.63256E-01 2.75390E-05 2.00083E-05
 -1     18889 1.69784E-01-3.20121E-02 3.12672E-04-1.38874E-01-3.03300E-05-1.54539E-05
 -1     18890 1.43445E-01-1.19396E-02-1.58162E-04-1.52479E-01 1.04901E-05 6.42832E-06
 -1     18891 1.73953E-01-3.62917E-02 4.49888E-04-1.44688E-01-2.19680E-05-1.11932E-05
 -1     18896 1.69975E-01-3.18209E-02 7.55450E-04-1.38874E-01-1.30697E-05-6.65933E-06
 -1     18897 1.43384E-01-1.20002E-02-2.99145E-04-1.52479E-01 4.30817E-06 2.64005E-06
 -1     18898 1.74098E-01-3.61467E-02 7.87046E-04-1.44688E-01-8.62042E-06-4.39232E-06
 -1     18903 1.70091E-01-3.17048E-02 1.02562E-03-1.38874E-01-4.89882E-06-2.49607E-06
 -1     18904 1.43340E-01-1.20440E-02-4.01285E-04-1.52479E-01 1.32519E-06 8.12074E-07
 -1     18905 1.74193E-01-3.60518E-02 1.00862E-03-1.44689E-01-2.49515E-06-1.27134E-06
 -1     18910 1.70162E-01-3.16342E-02 1.19073E-03-1.38874E-01-1.21606E-06-6.19614E-07
 -1     18911 1.43313E-01-1.20706E-02-4.63715E-04-1.52479E-01 2.40874E-07 1.47608E-07
 -1     18912 1.74249E-01-3.59956E-02 1.14047E-03-1.44689E-01-2.88249E-07-1.46869E-07
 -1     18917 1.70200E-01-3.15960E-02 1.28030E-03-1.38874E-01-7.72141E-08-3.93417E-08
 -1     18918 1.43301E-01-1.20831E-02-4.92985E-04-1.52479E-01-4.89879E-09-3.00209E-09
 -1     18919 1.74276E-01-3.59695E-02 1.20172E-03-1.44689E-01 8.56295E-08 4.36307E-08
 -1     18924 1.70213E-01-3.15839E-02 1.30869E-03-1.38874E-01-1.50228E-14 6.90488E-15
 -1     18925 1.43301E-01-1.20831E-02-4.92985E-04-1.52479E-01 4.89879E-09 3.00211E-09
 -1     18926 1.74276E-01-3.59695E-02 1.20172E-03-1.44689E-01-8.56295E-08-4.36307E-08
 -1     18931 1.70200E-01-3.15960E-02 1.28030E-03-1.38874E-01 7.72141E-08 3.93418E-08
 -1     18932 1.43313E-01-1.20706E-02-4.63715E-04-1.52479E-01-2.40874E-07-1.47608E-07
 -1     18933 1.74249E-01-3.59956E-02 1.14047E-03-1.44689E-01 2.88249E-07 1.46869E-07
 -1     18938 1.70162E-01-3.16342E-02 1.19073E-03-1.38874E-01 1.21606E-06 6.19615E-07
 -1     18939 1.43340E-01-1.20440E-02-4.01285E-04-1.52479E-01-1.32519E-06-8.12074E-07
 -1     18940 1.74193E-01-3.60518E-02 1.00862E-03-1.44689E-01 2.49515E-06 1.27134E-06
 -1     18945 1.70091E-01-3.17048E-02 1.02562E-03-1.38874E-01 4.89882E-06 2.49607E-06
 -1     18946 1.43384E-01-1.20002E-02-2.99145E-04-1.52479E-01-4.30817E-06-2.64005E-06
 -1     18947 1.74098E-01-3.61467E-02 7.87046E-04-1.44688E-01 8.62042E-06 4.39232E-06
 -1     18952 1.69975E-01-3.18209E-02 7.55450E-04-1.38874E-01 1.30697E-05 6.65933E-06
 -1     18953 1.43445E-01-1.19396E-02-1.58162E-04-1.52479E-01-1.04901E-05-6.42832E-06
 -1     18954 1.73953E-01-3.62917E-02 4.49888E-04-1.44688E-01 2.19680E-05 1.11932E-05
 -1     18959 1.69784E-01-3.20121E-02 3.12672E-04-1.38874E-01 3.03300E-05 1.54539E-05
 -1     18963 2.07760E-01-6.99882E-02 3.12672E-04-1.00898E-01-3.23741E-05-1.05190E-05
 -1     18964 1.86761E-01-5.52558E-02-1.58162E-04-1.21008E-01 1.13665E-05 4.70817E-06
 -1     18965 2.13519E-01-7.58578E-02 4.49888E-04-1.05122E-01-2.34485E-05-7.61888E-06
 -1     18970 2.07951E-01-6.97971E-02 7.55450E-04-1.00898E-01-1.39505E-05-4.53280E-06
 -1     18971 1.86700E-01-5.53164E-02-2.99145E-04-1.21008E-01 4.66812E-06 1.93360E-06
 -1     18972 2.13664E-01-7.57128E-02 7.87046E-04-1.05122E-01-9.20139E-06-2.98971E-06
 -1     18977 2.08067E-01-6.96810E-02 1.02562E-03-1.00898E-01-5.22897E-06-1.69900E-06
 -1     18978 1.86656E-01-5.53601E-02-4.01285E-04-1.21008E-01 1.43591E-06 5.94771E-07
 -1     18979 2.13759E-01-7.56180E-02 1.00862E-03-1.05122E-01-2.66331E-06-8.65361E-07
 -1     18984 2.08138E-01-6.96104E-02 1.19073E-03-1.00898E-01-1.29802E-06-4.21753E-07
 -1     18985 1.86629E-01-5.53868E-02-4.63715E-04-1.21008E-01 2.60999E-07 1.08109E-07
 -1     18986 2.13816E-01-7.55618E-02 1.14047E-03-1.05122E-01-3.07675E-07-9.99696E-08
 -1     18991 2.08177E-01-6.95722E-02 1.28030E-03-1.00898E-01-8.24175E-08-2.67790E-08
 -1     18992 1.86617E-01-5.53992E-02-4.92985E-04-1.21008E-01-5.30815E-09-2.19887E-09
 -1     18993 2.13842E-01-7.55357E-02 1.20172E-03-1.05122E-01 9.14007E-08 2.96979E-08
 -1     18998 2.08189E-01-6.95601E-02 1.30869E-03-1.00898E-01 2.73502E-15-1.63872E-14
 -1     18999 1.86617E-01-5.53992E-02-4.92985E-04-1.21008E-01 5.30815E-09 2.19887E-09
 -1     19000 2.13842E-01-7.55357E-02 1.20172E-03-1.05122E-01-9.14007E-08-2.96979E-08
 -1     19005 2.08177E-01-6.95722E-02 1.28030E-03-1.00898E-01 8.24175E-08 2.67790E-08
 -1     19006 1.86629E-01-5.53868E-02-4.63715E-04-1.21008E-01-2.60999E-07-1.08109E-07
 -1     19007 2.13816E-01-7.55618E-02 1.14047E-03-1.05122E-01 3.07675E-07 9.99696E-08
 -1     19012 2.08138E-01-6.96104E-02 1.19073E-03-1.00898E-01 1.29802E-06 4.21753E-07
 -1     19013 1.86656E-01-5.53601E-02-4.01285E-04-1.21008E-01-1.43591E-06-5.94771E-07
 -1     19014 2.13759E-01-7.56180E-02 1.00862E-03-1.05122E-01 2.66331E-06 8.65361E-07
 -1     19019 2.08067E-01-6.96810E-02 1.02562E-03-1.00898E-01 5.22897E-06 1.69900E-06
 -1     19020 1.86700E-01-5.53164E-02-2.99145E-04-1.21008E-01-4.66812E-06-1.93360E-06
 -1     19021 2.13664E-01-7.57128E-02 7.87046E-04-1.05122E-01 9.20139E-06 2.98971E-06
 -1     19026 2.07951E-01-6.97971E-02 7.55450E-04-1.00898E-01 1.39505E-05 4.53280E-06
 -1     19027 1.86761E-01-5.52558E-02-1.58162E-04-1.21008E-01-1.13665E-05-4.70817E-06
 -1     19028 2.13519E-01-7.58578E-02 4.49888E-04-1.05122E-01 2.34485E-05 7.61888E-06
 -1     19033 2.07760E-01-6.99882E-02 3.12672E-04-1.00898E-01 3.23741E-05 1.05190E-05
 -1     19037 2.32142E-01-9.43704E-02 3.12672E-04-5.30452E-02-3.36210E-05-5.32505E-06
 -1     19038 2.18232E-01-8.67268E-02-1.58162E-04-7.76921E-02 1.19631E-05 2.87209E-06
 -1     19039 2.38922E-01-1.01261E-01 4.49888E-04-5.52660E-02-2.43517E-05-3.85693E-06
 -1     19044 2.32333E-01-9.41793E-02 7.55450E-04-5.30452E-02-1.44878E-05-2.29465E-06
 -1     19045 2.18171E-01-8.67874E-02-2.99145E-04-7.76921E-02 4.91313E-06 1.17954E-06
 -1     19046 2.39067E-01-1.01116E-01 7.87046E-04-5.52660E-02-9.55580E-06-1.51349E-06
 -1     19051 2.32450E-01-9.40632E-02 1.02562E-03-5.30452E-02-5.43038E-06-8.60090E-07
 -1     19052 2.18127E-01-8.68311E-02-4.01285E-04-7.76920E-02 1.51127E-06 3.62825E-07
 -1     19053 2.39162E-01-1.01021E-01 1.00862E-03-5.52661E-02-2.76589E-06-4.38076E-07
 -1     19058 2.32521E-01-9.39927E-02 1.19073E-03-5.30453E-02-1.34802E-06-2.13507E-07
 -1     19059 2.18101E-01-8.68578E-02-4.63715E-04-7.76920E-02 2.74698E-07 6.59496E-08
 -1     19060 2.39219E-01-1.00965E-01 1.14047E-03-5.52661E-02-3.19526E-07-5.06092E-08
 -1     19065 2.32559E-01-9.39545E-02 1.28030E-03-5.30453E-02-8.55919E-08-1.35574E-08
 -1     19066 2.18088E-01-8.68702E-02-4.92985E-04-7.76920E-02-5.58687E-09-1.34113E-09
 -1     19067 2.39245E-01-1.00939E-01 1.20172E-03-5.52662E-02 9.49212E-08 1.50336E-08
 -1     19072 2.32571E-01-9.39424E-02 1.30869E-03-5.30453E-02 3.60858E-14-1.10503E-14
 -1     19073 2.18088E-01-8.68702E-02-4.92985E-04-7.76920E-02 5.58687E-09 1.34112E-09
 -1     19074 2.39245E-01-1.00939E-01 1.20172E-03-5.52662E-02-9.49212E-08-1.50336E-08
 -1     19079 2.32559E-01-9.39545E-02 1.28030E-03-5.30453E-02 8.55919E-08 1.35574E-08
 -1     19080 2.18101E-01-8.68578E-02-4.63715E-04-7.76920E-02-2.74698E-07-6.59496E-08
 -1     19081 2.39219E-01-1.00965E-01 1.14047E-03-5.52661E-02 3.19526E-07 5.06092E-08
 -1     19086 2.32521E-01-9.39927E-02 1.19073E-03-5.30453E-02 1.34802E-06 2.13507E-07
 -1     19087 2.18127E-01-8.68311E-02-4.01285E-04-7.76920E-02-1.51127E-06-3.62825E-07
 -1     19088 2.39162E-01-1.01021E-01 1.00862E-03-5.52661E-02 2.76589E-06 4.38076E-07
 -1     19093 2.32450E-01-9.40632E-02 1.02562E-03-5.30452E-02 5.43038E-06 8.60090E-07
 -1     19094 2.18171E-01-8.67874E-02-2.99145E-04-7.76921E-02-4.91313E-06-1.17954E-06
 -1     19095 2.39067E-01-1.01116E-01 7.87046E-04-5.52660E-02 9.55580E-06 1.51349E-06
 -1     19100 2.32333E-01-9.41793E-02 7.55450E-04-5.30452E-02 1.44878E-05 2.29465E-06
 -1     19101 2.18232E-01-8.67268E-02-1.58162E-04-7.76921E-02-1.19631E-05-2.87209E-06
 -1     19102 2.38922E-01-1.01261E-01 4.49888E-04-5.52660E-02 2.43517E-05 3.85693E-06
 -1     19107 2.32142E-01-9.43704E-02 3.12672E-04-5.30452E-02 3.36210E-05 5.32505E-06
 -1     19111 2.34777E-01-1.03272E-01-1.58162E-04-2.67709E-02 1.22651E-05 9.65286E-07
 -1     19115 2.34716E-01-1.03333E-01-2.99145E-04-2.67709E-02 5.03716E-06 3.96434E-07
 -1     19119 2.34673E-01-1.03376E-01-4.01285E-04-2.67708E-02 1.54942E-06 1.21943E-07
 -1     19123 2.34646E-01-1.03403E-01-4.63715E-04-2.67708E-02 2.81633E-07 2.21655E-08
 -1     19127 2.34633E-01-1.03416E-01-4.92985E-04-2.67708E-02-5.72783E-09-4.50591E-10
 -1     19131 2.34633E-01-1.03416E-01-4.92985E-04-2.67708E-02 5.72780E-09 4.50604E-10
 -1     19135 2.34646E-01-1.03403E-01-4.63715E-04-2.67708E-02-2.81633E-07-2.21655E-08
 -1     19139 2.34673E-01-1.03376E-01-4.01285E-04-2.67708E-02-1.54942E-06-1.21943E-07
 -1     19143 2.34716E-01-1.03333E-01-2.99145E-04-2.67709E-02-5.03716E-06-3.96434E-07
 -1     19147 2.34777E-01-1.03272E-01-1.58162E-04-2.67709E-02-1.22651E-05-9.65286E-07
 -1     19153-8.22401E-02 2.19648E-01 2.75859E-04-4.90447E-02-4.99227E-06-3.15200E-05
 -1     19154-9.04636E-02 2.22092E-01-1.43529E-04-2.47519E-02 9.16143E-07 1.16407E-05
 -1     19155-8.83466E-02 2.25673E-01 4.01486E-04-5.10156E-02-3.67111E-06-2.31785E-05
 -1     19160-8.20697E-02 2.19819E-01 6.70354E-04-4.90447E-02-2.26433E-06-1.42964E-05
 -1     19161-9.05185E-02 2.22036E-01-2.71389E-04-2.47519E-02 3.98765E-07 5.06679E-06
 -1     19162-8.82161E-02 2.25804E-01 7.04765E-04-5.10156E-02-1.53918E-06-9.71798E-06
 -1     19167-8.19648E-02 2.19924E-01 9.14556E-04-4.90448E-02-9.22895E-07-5.82693E-06
 -1     19168-9.05584E-02 2.21996E-01-3.64445E-04-2.47519E-02 1.40217E-07 1.78162E-06
 -1     19169-8.81300E-02 2.25890E-01 9.06074E-04-5.10157E-02-5.19932E-07-3.28272E-06
 -1     19174-8.19003E-02 2.19989E-01 1.06539E-03-4.90448E-02-2.87598E-07-1.81582E-06
 -1     19175-9.05828E-02 2.21972E-01-4.21712E-04-2.47519E-02 3.74351E-08 4.75657E-07
 -1     19176-8.80784E-02 2.25942E-01 1.02689E-03-5.10157E-02-1.17374E-07-7.41073E-07
 -1     19181-8.18651E-02 2.20024E-01 1.14783E-03-4.90449E-02-5.78003E-08-3.64937E-07
 -1     19182-9.05943E-02 2.21960E-01-4.48693E-04-2.47519E-02 5.25152E-09 6.67268E-08
 -1     19183-8.80543E-02 2.25966E-01 1.08334E-03-5.10157E-02-9.59517E-09-6.05817E-08
 -1     19188-8.18539E-02 2.20035E-01 1.17406E-03-4.90449E-02 6.54568E-15-2.01544E-14
 -1     19189-9.05943E-02 2.21960E-01-4.48693E-04-2.47519E-02-5.25151E-09-6.67268E-08
 -1     19190-8.80543E-02 2.25966E-01 1.08334E-03-5.10157E-02 9.59518E-09 6.05816E-08
 -1     19195-8.18651E-02 2.20024E-01 1.14783E-03-4.90449E-02 5.78003E-08 3.64937E-07
 -1     19196-9.05828E-02 2.21972E-01-4.21712E-04-2.47519E-02-3.74351E-08-4.75657E-07
 -1     19197-8.80784E-02 2.25942E-01 1.02689E-03-5.10157E-02 1.17374E-07 7.41073E-07
 -1     19202-8.19003E-02 2.19989E-01 1.06539E-03-4.90448E-02 2.87598E-07 1.81582E-06
 -1     19203-9.05584E-02 2.21996E-01-3.64445E-04-2.47519E-02-1.40217E-07-1.78162E-06
 -1     19204-8.81300E-02 2.25890E-01 9.06074E-04-5.10157E-02 5.19932E-07 3.28272E-06
 -1     19209-8.19648E-02 2.19924E-01 9.14556E-04-4.90448E-02 9.22895E-07 5.82693E-06
 -1     19210-9.05185E-02 2.22036E-01-2.71389E-04-2.47519E-02-3.98765E-07-5.06679E-06
 -1     19211-8.82161E-02 2.25804E-01 7.04765E-04-5.10156E-02 1.53918E-06 9.71798E-06
 -1     19216-8.20697E-02 2.19819E-01 6.70354E-04-4.90447E-02 2.26433E-06 1.42964E-05
 -1     19217-9.04636E-02 2.22092E-01-1.43529E-04-2.47519E-02-9.16143E-07-1.16407E-05
 -1     19218-8.83466E-02 2.25673E-01 4.01486E-04-5.10156E-02 3.67111E-06 2.31785E-05
 -1     19223-8.22401E-02 2.19648E-01 2.75859E-04-4.90447E-02 4.99227E-06 3.15200E-05
 -1     19227-5.96967E-02 1.97105E-01 2.75859E-04-9.32886E-02-9.86161E-06-3.03509E-05
 -1     19228-7.51660E-02 2.06794E-01-1.43529E-04-7.18329E-02 2.72587E-06 1.13541E-05
 -1     19229-6.48973E-02 2.02224E-01 4.01486E-04-9.70374E-02-7.25182E-06-2.23188E-05
 -1     19234-5.95263E-02 1.97275E-01 6.70354E-04-9.32887E-02-4.47290E-06-1.37662E-05
 -1     19235-7.52210E-02 2.06739E-01-2.71389E-04-7.18329E-02 1.18648E-06 4.94203E-06
 -1     19236-6.47668E-02 2.02354E-01 7.04765E-04-9.70375E-02-3.04045E-06-9.35755E-06
 -1     19241-5.94214E-02 1.97380E-01 9.14556E-04-9.32887E-02-1.82307E-06-5.61082E-06
 -1     19242-7.52609E-02 2.06699E-01-3.64445E-04-7.18328E-02 4.17197E-07 1.73775E-06
 -1     19243-6.46806E-02 2.02441E-01 9.06074E-04-9.70376E-02-1.02706E-06-3.16097E-06
 -1     19248-5.93568E-02 1.97445E-01 1.06539E-03-9.32888E-02-5.68114E-07-1.74848E-06
 -1     19249-7.52853E-02 2.06674E-01-4.21712E-04-7.18328E-02 1.11383E-07 4.63945E-07
 -1     19250-6.46290E-02 2.02493E-01 1.02689E-03-9.70377E-02-2.31859E-07-7.13587E-07
 -1     19255-5.93217E-02 1.97481E-01 1.14783E-03-9.32889E-02-1.14177E-07-3.51402E-07
 -1     19256-7.52968E-02 2.06663E-01-4.48693E-04-7.18328E-02 1.56252E-08 6.50838E-08
 -1     19257-6.46050E-02 2.02517E-01 1.08334E-03-9.70377E-02-1.89541E-08-5.83347E-08
 -1     19262-5.93105E-02 1.97492E-01 1.17406E-03-9.32889E-02 9.71977E-16 7.12558E-15
 -1     19263-7.52968E-02 2.06663E-01-4.48693E-04-7.18328E-02-1.56252E-08-6.50838E-08
 -1     19264-6.46050E-02 2.02517E-01 1.08334E-03-9.70377E-02 1.89541E-08 5.83347E-08
 -1     19269-5.93217E-02 1.97481E-01 1.14783E-03-9.32889E-02 1.14177E-07 3.51402E-07
 -1     19270-7.52853E-02 2.06674E-01-4.21712E-04-7.18328E-02-1.11383E-07-4.63945E-07
 -1     19271-6.46290E-02 2.02493E-01 1.02689E-03-9.70377E-02 2.31859E-07 7.13587E-07
 -1     19276-5.93568E-02 1.97445E-01 1.06539E-03-9.32888E-02 5.68114E-07 1.74848E-06
 -1     19277-7.52609E-02 2.06699E-01-3.64445E-04-7.18328E-02-4.17197E-07-1.73775E-06
 -1     19278-6.46806E-02 2.02441E-01 9.06074E-04-9.70376E-02 1.02706E-06 3.16097E-06
 -1     19283-5.94214E-02 1.97380E-01 9.14556E-04-9.32887E-02 1.82307E-06 5.61082E-06
 -1     19284-7.52210E-02 2.06739E-01-2.71389E-04-7.18329E-02-1.18648E-06-4.94203E-06
 -1     19285-6.47668E-02 2.02354E-01 7.04765E-04-9.70375E-02 3.04045E-06 9.35755E-06
 -1     19290-5.95263E-02 1.97275E-01 6.70354E-04-9.32887E-02 4.47290E-06 1.37662E-05
 -1     19291-7.51660E-02 2.06794E-01-1.43529E-04-7.18329E-02-2.72587E-06-1.13541E-05
 -1     19292-6.48973E-02 2.02224E-01 4.01486E-04-9.70374E-02 7.25182E-06 2.23188E-05
 -1     19297-5.96967E-02 1.97105E-01 2.75859E-04-9.32886E-02 9.86161E-06 3.03509E-05
 -1     19301-2.45846E-02 1.61993E-01 2.75859E-04-1.28401E-01-1.44881E-05-2.84346E-05
 -1     19302-4.60684E-02 1.77696E-01-1.43529E-04-1.11882E-01 4.46848E-06 1.07879E-05
 -1     19303-2.83742E-02 1.65701E-01 4.01486E-04-1.33561E-01-1.06540E-05-2.09096E-05
 -1     19308-2.44142E-02 1.62163E-01 6.70354E-04-1.28401E-01-6.57133E-06-1.28970E-05
 -1     19309-4.61234E-02 1.77641E-01-2.71389E-04-1.11882E-01 1.94497E-06 4.69558E-06
 -1     19310-2.82437E-02 1.65831E-01 7.04765E-04-1.33561E-01-4.46686E-06-8.76671E-06
 -1     19315-2.43092E-02 1.62268E-01 9.14556E-04-1.28401E-01-2.67835E-06-5.25655E-06
 -1     19316-4.61633E-02 1.77601E-01-3.64445E-04-1.11882E-01 6.83905E-07 1.65109E-06
 -1     19317-2.81574E-02 1.65918E-01 9.06074E-04-1.33561E-01-1.50890E-06-2.96139E-06
 -1     19322-2.42446E-02 1.62333E-01 1.06539E-03-1.28401E-01-8.34642E-07-1.63808E-06
 -1     19323-4.61877E-02 1.77577E-01-4.21712E-04-1.11882E-01 1.82589E-07 4.40809E-07
 -1     19324-2.81058E-02 1.65970E-01 1.02689E-03-1.33561E-01-3.40634E-07-6.68531E-07
 -1     19329-2.42094E-02 1.62368E-01 1.14783E-03-1.28401E-01-1.67743E-07-3.29214E-07
 -1     19330-4.61992E-02 1.77565E-01-4.48693E-04-1.11882E-01 2.56142E-08 6.18382E-08
 -1     19331-2.80817E-02 1.65994E-01 1.08334E-03-1.33561E-01-2.78464E-08-5.46515E-08
 -1     19336-2.41982E-02 1.62380E-01 1.17406E-03-1.28401E-01-1.31285E-14-7.90445E-15
 -1     19337-4.61992E-02 1.77565E-01-4.48693E-04-1.11882E-01-2.56142E-08-6.18382E-08
 -1     19338-2.80817E-02 1.65994E-01 1.08334E-03-1.33561E-01 2.78464E-08 5.46514E-08
 -1     19343-2.42094E-02 1.62368E-01 1.14783E-03-1.28401E-01 1.67743E-07 3.29214E-07
 -1     19344-4.61877E-02 1.77577E-01-4.21712E-04-1.11882E-01-1.82589E-07-4.40809E-07
 -1     19345-2.81058E-02 1.65970E-01 1.02689E-03-1.33561E-01 3.40634E-07 6.68531E-07
 -1     19350-2.42446E-02 1.62333E-01 1.06539E-03-1.28401E-01 8.34642E-07 1.63808E-06
 -1     19351-4.61633E-02 1.77601E-01-3.64445E-04-1.11882E-01-6.83905E-07-1.65109E-06
 -1     19352-2.81574E-02 1.65918E-01 9.06074E-04-1.33561E-01 1.50890E-06 2.96139E-06
 -1     19357-2.43092E-02 1.62268E-01 9.14556E-04-1.28401E-01 2.67835E-06 5.25655E-06
 -1     19358-4.61234E-02 1.77641E-01-2.71389E-04-1.11882E-01-1.94497E-06-4.69558E-06
 -1     19359-2.82437E-02 1.65831E-01 7.04765E-04-1.33561E-01 4.46686E-06 8.76671E-06
 -1     19364-2.44142E-02 1.62163E-01 6.70354E-04-1.28401E-01 6.57133E-06 1.28970E-05
 -1     19365-4.60684E-02 1.77696E-01-1.43529E-04-1.11882E-01-4.46848E-06-1.07879E-05
 -1     19366-2.83742E-02 1.65701E-01 4.01486E-04-1.33561E-01 1.06540E-05 2.09096E-05
 -1     19371-2.45846E-02 1.61993E-01 2.75859E-04-1.28401E-01 1.44881E-05 2.84346E-05
 -1     19375 1.96593E-02 1.17749E-01 2.75859E-04-1.50944E-01-1.87579E-05-2.58180E-05
 -1     19376-6.01892E-03 1.37647E-01-1.43529E-04-1.40980E-01 6.10105E-06 9.95601E-06
 -1     19377 1.76476E-02 1.19679E-01 4.01486E-04-1.57010E-01-1.37938E-05-1.89855E-05
 -1     19382 1.98297E-02 1.17919E-01 6.70354E-04-1.50944E-01-8.50795E-06-1.17102E-05
 -1     19383-6.07394E-03 1.37592E-01-2.71389E-04-1.40980E-01 2.65558E-06 4.33351E-06
 -1     19384 1.77782E-02 1.19809E-01 7.04765E-04-1.57010E-01-5.78328E-06-7.96001E-06
 -1     19389 1.99347E-02 1.18024E-01 9.14556E-04-1.50944E-01-3.46768E-06-4.77285E-06
 -1     19390-6.11384E-03 1.37552E-01-3.64445E-04-1.40980E-01 9.33773E-07 1.52378E-06
 -1     19391 1.78645E-02 1.19896E-01 9.06074E-04-1.57010E-01-1.95359E-06-2.68888E-06
 -1     19396 1.99994E-02 1.18089E-01 1.06539E-03-1.50944E-01-1.08062E-06-1.48734E-06
 -1     19397-6.13831E-03 1.37527E-01-4.21712E-04-1.40980E-01 2.49299E-07 4.06819E-07
 -1     19398 1.79161E-02 1.19948E-01 1.02689E-03-1.57010E-01-4.41021E-07-6.07014E-07
 -1     19403 2.00346E-02 1.18124E-01 1.14783E-03-1.50945E-01-2.17179E-07-2.98920E-07
 -1     19404-6.14983E-03 1.37516E-01-4.48693E-04-1.40980E-01 3.49726E-08 5.70699E-08
 -1     19405 1.79402E-02 1.19972E-01 1.08334E-03-1.57010E-01-3.60529E-08-4.96225E-08
 -1     19410 2.00458E-02 1.18135E-01 1.17406E-03-1.50945E-01-1.27391E-14-8.74898E-15
 -1     19411-6.14983E-03 1.37516E-01-4.48693E-04-1.40980E-01-3.49726E-08-5.70699E-08
 -1     19412 1.79402E-02 1.19972E-01 1.08334E-03-1.57010E-01 3.60529E-08 4.96224E-08
 -1     19417 2.00346E-02 1.18124E-01 1.14783E-03-1.50945E-01 2.17179E-07 2.98920E-07
 -1     19418-6.13831E-03 1.37527E-01-4.21712E-04-1.40980E-01-2.49299E-07-4.06819E-07
 -1     19419 1.79161E-02 1.19948E-01 1.02689E-03-1.57010E-01 4.41021E-07 6.07014E-07
 -1     19424 1.99994E-02 1.18089E-01 1.06539E-03-1.50944E-01 1.08062E-06 1.48734E-06
 -1     19425-6.11384E-03 1.37552E-01-3.64445E-04-1.40980E-01-9.33773E-07-1.52378E-06
 -1     19426 1.78645E-02 1.19896E-01 9.06074E-04-1.57010E-01 1.95359E-06 2.68888E-06
 -1     19431 1.99347E-02 1.18024E-01 9.14556E-04-1.50944E-01 3.46768E-06 4.77285E-06
 -1     19432-6.07394E-03 1.37592E-01-2.71389E-04-1.40980E-01-2.65558E-06-4.33351E-06
 -1     19433 1.77782E-02 1.19809E-01 7.04765E-04-1.57010E-01 5.78328E-06 7.96001E-06
 -1     19438 1.98297E-02 1.17919E-01 6.70354E-04-1.50944E-01 8.50795E-06 1.17102E-05
 -1     19439-6.01892E-03 1.37647E-01-1.43529E-04-1.40980E-01-6.10105E-06-9.95601E-06
 -1     19440 1.76476E-02 1.19679E-01 4.01486E-04-1.57010E-01 1.37938E-05 1.89855E-05
 -1     19445 1.96593E-02 1.17749E-01 2.75859E-04-1.50944E-01 1.87579E-05 2.58180E-05
 -1     19449 6.87040E-02 6.87040E-02 2.75859E-04-1.58712E-01-2.25658E-05-2.25658E-05
 -1     19450 4.10620E-02 9.05659E-02-1.43529E-04-1.56278E-01 7.58340E-06 8.87902E-06
 -1     19451 6.86632E-02 6.86632E-02 4.01486E-04-1.65090E-01-1.65940E-05-1.65940E-05
 -1     19456 6.88745E-02 6.88745E-02 6.70354E-04-1.58712E-01-1.02351E-05-1.02351E-05
 -1     19457 4.10070E-02 9.05108E-02-2.71389E-04-1.56277E-01 3.30079E-06 3.86473E-06
 -1     19458 6.87938E-02 6.87938E-02 7.04765E-04-1.65090E-01-6.95730E-06-6.95730E-06
 -1     19463 6.89795E-02 6.89795E-02 9.14556E-04-1.58712E-01-4.17162E-06-4.17162E-06
 -1     19464 4.09671E-02 9.04709E-02-3.64445E-04-1.56277E-01 1.16065E-06 1.35894E-06
 -1     19465 6.88802E-02 6.88802E-02 9.06074E-04-1.65090E-01-2.35017E-06-2.35017E-06
 -1     19470 6.90442E-02 6.90442E-02 1.06539E-03-1.58712E-01-1.29998E-06-1.29999E-06
 -1     19471 4.09426E-02 9.04464E-02-4.21712E-04-1.56277E-01 3.09870E-07 3.62811E-07
 -1     19472 6.89318E-02 6.89318E-02 1.02689E-03-1.65090E-01-5.30549E-07-5.30550E-07
 -1     19477 6.90794E-02 6.90794E-02 1.14783E-03-1.58712E-01-2.61265E-07-2.61267E-07
 -1     19478 4.09311E-02 9.04349E-02-4.48693E-04-1.56277E-01 4.34696E-08 5.08964E-08
 -1     19479 6.89560E-02 6.89560E-02 1.08334E-03-1.65090E-01-4.33714E-08-4.33719E-08
 -1     19484 6.90906E-02 6.90906E-02 1.17406E-03-1.58713E-01 4.17873E-16-2.98069E-14
 -1     19485 4.09311E-02 9.04349E-02-4.48693E-04-1.56277E-01-4.34695E-08-5.08964E-08
 -1     19486 6.89560E-02 6.89560E-02 1.08334E-03-1.65090E-01 4.33714E-08 4.33719E-08
 -1     19491 6.90794E-02 6.90794E-02 1.14783E-03-1.58712E-01 2.61266E-07 2.61266E-07
 -1     19492 4.09426E-02 9.04464E-02-4.21712E-04-1.56277E-01-3.09870E-07-3.62811E-07
 -1     19493 6.89318E-02 6.89318E-02 1.02689E-03-1.65090E-01 5.30549E-07 5.30550E-07
 -1     19498 6.90442E-02 6.90442E-02 1.06539E-03-1.58712E-01 1.29998E-06 1.29999E-06
 -1     19499 4.09671E-02 9.04709E-02-3.64445E-04-1.56277E-01-1.16065E-06-1.35894E-06
 -1     19500 6.88802E-02 6.88802E-02 9.06074E-04-1.65090E-01 2.35017E-06 2.35017E-06
 -1     19505 6.89795E-02 6.89795E-02 9.14556E-04-1.58712E-01 4.17162E-06 4.17162E-06
 -1     19506 4.10070E-02 9.05108E-02-2.71389E-04-1.56277E-01-3.30079E-06-3.86473E-06
 -1     19507 6.87938E-02 6.87938E-02 7.04765E-04-1.65090E-01 6.95730E-06 6.95730E-06
 -1     19512 6.88745E-02 6.88745E-02 6.70354E-04-1.58712E-01 1.02351E-05 1.02351E-05
 -1     19513 4.10620E-02 9.05659E-02-1.43529E-04-1.56278E-01-7.58340E-06-8.87902E-06
 -1     19514 6.86632E-02 6.86632E-02 4.01486E-04-1.65090E-01 1.65940E-05 1.65940E-05
 -1     19519 6.87040E-02 6.87040E-02 2.75859E-04-1.58712E-01 2.25658E-05 2.25658E-05
 -1     19523 1.17749E-01 1.96593E-02 2.75859E-04-1.50944E-01-2.58180E-05-1.87579E-05
 -1     19524 9.05659E-02 4.10620E-02-1.43529E-04-1.56278E-01 8.87902E-06 7.58340E-06
 -1     19525 1.19679E-01 1.76476E-02 4.01486E-04-1.57010E-01-1.89855E-05-1.37938E-05
 -1     19530 1.17919E-01 1.98297E-02 6.70354E-04-1.50944E-01-1.17102E-05-8.50795E-06
 -1     19531 9.05108E-02 4.10070E-02-2.71389E-04-1.56277E-01 3.86473E-06 3.30079E-06
 -1     19532 1.19809E-01 1.77782E-02 7.04765E-04-1.57010E-01-7.96001E-06-5.78328E-06
 -1     19537 1.18024E-01 1.99347E-02 9.14556E-04-1.50944E-01-4.77285E-06-3.46768E-06
 -1     19538 9.04709E-02 4.09671E-02-3.64445E-04-1.56277E-01 1.35894E-06 1.16065E-06
 -1     19539 1.19896E-01 1.78645E-02 9.06074E-04-1.57010E-01-2.68888E-06-1.95359E-06
 -1     19544 1.18089E-01 1.99994E-02 1.06539E-03-1.50944E-01-1.48734E-06-1.08062E-06
 -1     19545 9.04464E-02 4.09426E-02-4.21712E-04-1.56277E-01 3.62811E-07 3.09870E-07
 -1     19546 1.19948E-01 1.79161E-02 1.02689E-03-1.57010E-01-6.07014E-07-4.41022E-07
 -1     19551 1.18124E-01 2.00346E-02 1.14783E-03-1.50945E-01-2.98920E-07-2.17179E-07
 -1     19552 9.04349E-02 4.09311E-02-4.48693E-04-1.56277E-01 5.08963E-08 4.34698E-08
 -1     19553 1.19972E-01 1.79402E-02 1.08334E-03-1.57010E-01-4.96225E-08-3.60530E-08
 -1     19558 1.18135E-01 2.00458E-02 1.17406E-03-1.50945E-01-2.18600E-14 2.86363E-15
 -1     19559 9.04349E-02 4.09311E-02-4.48693E-04-1.56277E-01-5.08962E-08-4.34698E-08
 -1     19560 1.19972E-01 1.79402E-02 1.08334E-03-1.57010E-01 4.96225E-08 3.60530E-08
 -1     19565 1.18124E-01 2.00346E-02 1.14783E-03-1.50945E-01 2.98920E-07 2.17179E-07
 -1     19566 9.04464E-02 4.09426E-02-4.21712E-04-1.56277E-01-3.62811E-07-3.09870E-07
 -1     19567 1.19948E-01 1.79161E-02 1.02689E-03-1.57010E-01 6.07014E-07 4.41022E-07
 -1     19572 1.18089E-01 1.99994E-02 1.06539E-03-1.50944E-01 1.48734E-06 1.08062E-06
 -1     19573 9.04709E-02 4.09671E-02-3.64445E-04-1.56277E-01-1.35894E-06-1.16065E-06
 -1     19574 1.19896E-01 1.78645E-02 9.06074E-04-1.57010E-01 2.68888E-06 1.95359E-06
 -1     19579 1.18024E-01 1.99347E-02 9.14556E-04-1.50944E-01 4.77285E-06 3.46768E-06
 -1     19580 9.05108E-02 4.10070E-02-2.71389E-04-1.56277E-01-3.86473E-06-3.30079E-06
 -1     19581 1.19809E-01 1.77782E-02 7.04765E-04-1.57010E-01 7.96001E-06 5.78328E-06
 -1     19586 1.17919E-01 1.98297E-02 6.70354E-04-1.50944E-01 1.17102E-05 8.50795E-06
 -1     19587 9.05659E-02 4.10620E-02-1.43529E-04-1.56278E-01-8.87902E-06-7.58340E-06
 -1     19588 1.19679E-01 1.76476E-02 4.01486E-04-1.57010E-01 1.89855E-05 1.37938E-05
 -1     19593 1.17749E-01 1.96593E-02 2.75859E-04-1.50944E-01 2.58180E-05 1.87579E-05
 -1     19597 1.61993E-01-2.45846E-02 2.75859E-04-1.28401E-01-2.84346E-05-1.44881E-05
 -1     19598 1.37647E-01-6.01892E-03-1.43529E-04-1.40980E-01 9.95601E-06 6.10105E-06
 -1     19599 1.65701E-01-2.83742E-02 4.01486E-04-1.33561E-01-2.09096E-05-1.06540E-05
 -1     19604 1.62163E-01-2.44142E-02 6.70354E-04-1.28401E-01-1.28970E-05-6.57133E-06
 -1     19605 1.37592E-01-6.07394E-03-2.71389E-04-1.40980E-01 4.33351E-06 2.65558E-06
 -1     19606 1.65831E-01-2.82437E-02 7.04765E-04-1.33561E-01-8.76671E-06-4.46686E-06
 -1     19611 1.62268E-01-2.43092E-02 9.14556E-04-1.28401E-01-5.25655E-06-2.67834E-06
 -1     19612 1.37552E-01-6.11384E-03-3.64445E-04-1.40980E-01 1.52378E-06 9.33772E-07
 -1     19613 1.65918E-01-2.81574E-02 9.06074E-04-1.33561E-01-2.96139E-06-1.50890E-06
 -1     19618 1.62333E-01-2.42446E-02 1.06539E-03-1.28401E-01-1.63808E-06-8.34640E-07
 -1     19619 1.37527E-01-6.13831E-03-4.21712E-04-1.40980E-01 4.06819E-07 2.49299E-07
 -1     19620 1.65970E-01-2.81058E-02 1.02689E-03-1.33561E-01-6.68532E-07-3.40633E-07
 -1     19625 1.62368E-01-2.42094E-02 1.14783E-03-1.28401E-01-3.29215E-07-1.67742E-07
 -1     19626 1.37516E-01-6.14983E-03-4.48693E-04-1.40980E-01 5.70700E-08 3.49724E-08
 -1     19627 1.65994E-01-2.80818E-02 1.08334E-03-1.33561E-01-5.46517E-08-2.78460E-08
 -1     19632 1.62380E-01-2.41982E-02 1.17406E-03-1.28401E-01-5.16333E-15-2.09979E-16
 -1     19633 1.37516E-01-6.14983E-03-4.48693E-04-1.40980E-01-5.70700E-08-3.49724E-08
 -1     19634 1.65994E-01-2.80818E-02 1.08334E-03-1.33561E-01 5.46517E-08 2.78460E-08
 -1     19639 1.62368E-01-2.42094E-02 1.14783E-03-1.28401E-01 3.29215E-07 1.67742E-07
 -1     19640 1.37527E-01-6.13831E-03-4.21712E-04-1.40980E-01-4.06819E-07-2.49299E-07
 -1     19641 1.65970E-01-2.81058E-02 1.02689E-03-1.33561E-01 6.68532E-07 3.40633E-07
 -1     19646 1.62333E-01-2.42446E-02 1.06539E-03-1.28401E-01 1.63808E-06 8.34640E-07
 -1     19647 1.37552E-01-6.11384E-03-3.64445E-04-1.40980E-01-1.52378E-06-9.33772E-07
 -1     19648 1.65918E-01-2.81574E-02 9.06074E-04-1.33561E-01 2.96139E-06 1.50890E-06
 -1     19653 1.62268E-01-2.43092E-02 9.14556E-04-1.28401E-01 5.25655E-06 2.67834E-06
 -1     19654 1.37592E-01-6.07394E-03-2.71389E-04-1.40980E-01-4.33351E-06-2.65558E-06
 -1     19655 1.65831E-01-2.82437E-02 7.04765E-04-1.33561E-01 8.76671E-06 4.46686E-06
 -1     19660 1.62163E-01-2.44142E-02 6.70354E-04-1.28401E-01 1.28970E-05 6.57133E-06
 -1     19661 1.37647E-01-6.01892E-03-1.43529E-04-1.40980E-01-9.95601E-06-6.10105E-06
 -1     19662 1.65701E-01-2.83742E-02 4.01486E-04-1.33561E-01 2.09096E-05 1.06540E-05
 -1     19667 1.61993E-01-2.45846E-02 2.75859E-04-1.28401E-01 2.84346E-05 1.44881E-05
 -1     19671 1.97105E-01-5.96967E-02 2.75859E-04-9.32886E-02-3.03509E-05-9.86161E-06
 -1     19672 1.77696E-01-4.60684E-02-1.43529E-04-1.11882E-01 1.07879E-05 4.46848E-06
 -1     19673 2.02224E-01-6.48973E-02 4.01486E-04-9.70374E-02-2.23188E-05-7.25182E-06
 -1     19678 1.97275E-01-5.95263E-02 6.70354E-04-9.32887E-02-1.37662E-05-4.47290E-06
 -1     19679 1.77641E-01-4.61234E-02-2.71389E-04-1.11882E-01 4.69558E-06 1.94497E-06
 -1     19680 2.02354E-01-6.47668E-02 7.04765E-04-9.70375E-02-9.35755E-06-3.04045E-06
 -1     19685 1.97380E-01-5.94214E-02 9.14556E-04-9.32887E-02-5.61082E-06-1.82306E-06
 -1     19686 1.77601E-01-4.61633E-02-3.64445E-04-1.11882E-01 1.65109E-06 6.83904E-07
 -1     19687 2.02441E-01-6.46806E-02 9.06074E-04-9.70376E-02-3.16097E-06-1.02706E-06
 -1     19692 1.97445E-01-5.93568E-02 1.06539E-03-9.32888E-02-1.74848E-06-5.68114E-07
 -1     19693 1.77577E-01-4.61877E-02-4.21712E-04-1.11882E-01 4.40809E-07 1.82589E-07
 -1     19694 2.02493E-01-6.46290E-02 1.02689E-03-9.70377E-02-7.13587E-07-2.31858E-07
 -1     19699 1.97481E-01-5.93217E-02 1.14783E-03-9.32889E-02-3.51402E-07-1.14177E-07
 -1     19700 1.77565E-01-4.61992E-02-4.48693E-04-1.11882E-01 6.18382E-08 2.56140E-08
 -1     19701 2.02517E-01-6.46050E-02 1.08334E-03-9.70377E-02-5.83347E-08-1.89541E-08
 -1     19706 1.97492E-01-5.93105E-02 1.17406E-03-9.32889E-02-4.15176E-14-8.12900E-15
 -1     19707 1.77565E-01-4.61992E-02-4.48693E-04-1.11882E-01-6.18382E-08-2.56140E-08
 -1     19708 2.02517E-01-6.46050E-02 1.08334E-03-9.70377E-02 5.83347E-08 1.89541E-08
 -1     19713 1.97481E-01-5.93217E-02 1.14783E-03-9.32889E-02 3.51402E-07 1.14177E-07
 -1     19714 1.77577E-01-4.61877E-02-4.21712E-04-1.11882E-01-4.40809E-07-1.82589E-07
 -1     19715 2.02493E-01-6.46290E-02 1.02689E-03-9.70377E-02 7.13587E-07 2.31858E-07
 -1     19720 1.97445E-01-5.93568E-02 1.06539E-03-9.32888E-02 1.74848E-06 5.68114E-07
 -1     19721 1.77601E-01-4.61633E-02-3.64445E-04-1.11882E-01-1.65109E-06-6.83904E-07
 -1     19722 2.02441E-01-6.46806E-02 9.06074E-04-9.70376E-02 3.16097E-06 1.02706E-06
 -1     19727 1.97380E-01-5.94214E-02 9.14556E-04-9.32887E-02 5.61082E-06 1.82306E-06
 -1     19728 1.77641E-01-4.61234E-02-2.71389E-04-1.11882E-01-4.69558E-06-1.94497E-06
 -1     19729 2.02354E-01-6.47668E-02 7.04765E-04-9.70375E-02 9.35755E-06 3.04045E-06
 -1     19734 1.97275E-01-5.95263E-02 6.70354E-04-9.32887E-02 1.37662E-05 4.47290E-06
 -1     19735 1.77696E-01-4.60684E-02-1.43529E-04-1.11882E-01-1.07879E-05-4.46848E-06
 -1     19736 2.02224E-01-6.48973E-02 4.01486E-04-9.70374E-02 2.23188E-05 7.25182E-06
 -1     19741 1.97105E-01-5.96967E-02 2.75859E-04-9.32886E-02 3.03509E-05 9.86161E-06
 -1     19745 2.19648E-01-8.22401E-02 2.75859E-04-4.90447E-02-3.15200E-05-4.99227E-06
 -1     19746 2.06794E-01-7.51660E-02-1.43529E-04-7.18329E-02 1.13541E-05 2.72587E-06
 -1     19747 2.25673E-01-8.83466E-02 4.01486E-04-5.10156E-02-2.31785E-05-3.67111E-06
 -1     19752 2.19819E-01-8.20697E-02 6.70354E-04-4.90447E-02-1.42964E-05-2.26433E-06
 -1     19753 2.06739E-01-7.52210E-02-2.71389E-04-7.18329E-02 4.94203E-06 1.18648E-06
 -1     19754 2.25804E-01-8.82161E-02 7.04765E-04-5.10156E-02-9.71797E-06-1.53918E-06
 -1     19759 2.19924E-01-8.19648E-02 9.14556E-04-4.90448E-02-5.82693E-06-9.22898E-07
 -1     19760 2.06699E-01-7.52609E-02-3.64445E-04-7.18328E-02 1.73775E-06 4.17198E-07
 -1     19761 2.25890E-01-8.81300E-02 9.06074E-04-5.10157E-02-3.28272E-06-5.19934E-07
 -1     19766 2.19989E-01-8.19003E-02 1.06539E-03-4.90448E-02-1.81582E-06-2.87600E-07
 -1     19767 2.06674E-01-7.52853E-02-4.21712E-04-7.18328E-02 4.63945E-07 1.11384E-07
 -1     19768 2.25942E-01-8.80784E-02 1.02689E-03-5.10157E-02-7.41072E-07-1.17376E-07
 -1     19773 2.20024E-01-8.18651E-02 1.14783E-03-4.90449E-02-3.64937E-07-5.78016E-08
 -1     19774 2.06663E-01-7.52968E-02-4.48693E-04-7.18328E-02 6.50837E-08 1.56254E-08
 -1     19775 2.25966E-01-8.80543E-02 1.08334E-03-5.10157E-02-6.05815E-08-9.59574E-09
 -1     19780 2.20035E-01-8.18539E-02 1.17406E-03-4.90449E-02 2.96803E-15 5.01042E-15
 -1     19781 2.06663E-01-7.52968E-02-4.48693E-04-7.18328E-02-6.50837E-08-1.56254E-08
 -1     19782 2.25966E-01-8.80543E-02 1.08334E-03-5.10157E-02 6.05815E-08 9.59575E-09
 -1     19787 2.20024E-01-8.18651E-02 1.14783E-03-4.90449E-02 3.64937E-07 5.78016E-08
 -1     19788 2.06674E-01-7.52853E-02-4.21712E-04-7.18328E-02-4.63945E-07-1.11384E-07
 -1     19789 2.25942E-01-8.80784E-02 1.02689E-03-5.10157E-02 7.41072E-07 1.17376E-07
 -1     19794 2.19989E-01-8.19003E-02 1.06539E-03-4.90448E-02 1.81582E-06 2.87600E-07
 -1     19795 2.06699E-01-7.52609E-02-3.64445E-04-7.18328E-02-1.73775E-06-4.17198E-07
 -1     19796 2.25890E-01-8.81300E-02 9.06074E-04-5.10157E-02 3.28272E-06 5.19934E-07
 -1     19801 2.19924E-01-8.19648E-02 9.14556E-04-4.90448E-02 5.82693E-06 9.22898E-07
 -1     19802 2.06739E-01-7.52210E-02-2.71389E-04-7.18329E-02-4.94203E-06-1.18648E-06
 -1     19803 2.25804E-01-8.82161E-02 7.04765E-04-5.10156E-02 9.71797E-06 1.53918E-06
 -1     19808 2.19819E-01-8.20697E-02 6.70354E-04-4.90447E-02 1.42964E-05 2.26433E-06
 -1     19809 2.06794E-01-7.51660E-02-1.43529E-04-7.18329E-02-1.13541E-05-2.72587E-06
 -1     19810 2.25673E-01-8.83466E-02 4.01486E-04-5.10156E-02 2.31785E-05 3.67111E-06
 -1     19815 2.19648E-01-8.22401E-02 2.75859E-04-4.90447E-02 3.15200E-05 4.99227E-06
 -1     19819 2.22092E-01-9.04636E-02-1.43529E-04-2.47519E-02 1.16407E-05 9.16143E-07
 -1     19823 2.22036E-01-9.05185E-02-2.71389E-04-2.47519E-02 5.06679E-06 3.98766E-07
 -1     19827 2.21996E-01-9.05584E-02-3.64445E-04-2.47519E-02 1.78162E-06 1.40218E-07
 -1     19831 2.21972E-01-9.05828E-02-4.21712E-04-2.47519E-02 4.75657E-07 3.74358E-08
 -1     19835 2.21960E-01-9.05943E-02-4.48693E-04-2.47519E-02 6.67268E-08 5.25177E-09
 -1     19839 2.21960E-01-9.05943E-02-4.48693E-04-2.47519E-02-6.67268E-08-5.25176E-09
 -1     19843 2.21972E-01-9.05828E-02-4.21712E-04-2.47519E-02-4.75657E-07-3.74358E-08
 -1     19847 2.21996E-01-9.05584E-02-3.64445E-04-2.47519E-02-1.78162E-06-1.40218E-07
 -1     19851 2.22036E-01-9.05185E-02-2.71389E-04-2.47519E-02-5.06679E-06-3.98766E-07
 -1     19855 2.22092E-01-9.04636E-02-1.43529E-04-2.47519E-02-1.16407E-05-9.16143E-07
 -1     19861-7.14300E-02 2.08518E-01 2.44411E-04-4.54803E-02-4.68417E-06-2.95747E-05
 -1     19862-7.90497E-02 2.10790E-01-1.30417E-04-2.29530E-02 8.69713E-07 1.10508E-05
 -1     19863-7.68672E-02 2.13896E-01 3.59427E-04-4.72373E-02-3.49325E-06-2.20555E-05
 -1     19868-7.12777E-02 2.08670E-01 5.97096E-04-4.54803E-02-2.22272E-06-1.40337E-05
 -1     19869-7.90997E-02 2.10740E-01-2.46553E-04-2.29530E-02 3.98229E-07 5.05998E-06
 -1     19870-7.67495E-02 2.14014E-01 6.32891E-04-4.72374E-02-1.55025E-06-9.78786E-06
 -1     19875-7.11826E-02 2.08766E-01 8.18276E-04-4.54803E-02-9.69381E-07-6.12043E-06
 -1     19876-7.91361E-02 2.10703E-01-3.31433E-04-2.29530E-02 1.54720E-07 1.96590E-06
 -1     19877-7.66711E-02 2.14093E-01 8.16052E-04-4.72374E-02-5.85479E-07-3.69657E-06
 -1     19882-7.11236E-02 2.08825E-01 9.56214E-04-4.54804E-02-3.48496E-07-2.20032E-06
 -1     19883-7.91585E-02 2.10681E-01-3.83989E-04-2.29530E-02 5.01925E-08 6.37756E-07
 -1     19884-7.66238E-02 2.14140E-01 9.26824E-04-4.72375E-02-1.73417E-07-1.09491E-06
 -1     19889-7.10912E-02 2.08857E-01 1.03210E-03-4.54804E-02-9.51842E-08-6.00969E-07
 -1     19890-7.91691E-02 2.10670E-01-4.08860E-04-2.29530E-02 1.00910E-08 1.28218E-07
 -1     19891-7.66016E-02 2.14162E-01 9.78839E-04-4.72375E-02-3.05881E-08-1.93126E-07
 -1     19896-7.10808E-02 2.08868E-01 1.05633E-03-4.54804E-02 5.25884E-17 1.63480E-14
 -1     19897-7.91691E-02 2.10670E-01-4.08860E-04-2.29530E-02-1.00910E-08-1.28218E-07
 -1     19898-7.66016E-02 2.14162E-01 9.78839E-04-4.72375E-02 3.05881E-08 1.93126E-07
 -1     19903-7.10912E-02 2.08857E-01 1.03210E-03-4.54804E-02 9.51842E-08 6.00969E-07
 -1     19904-7.91585E-02 2.10681E-01-3.83989E-04-2.29530E-02-5.01925E-08-6.37756E-07
 -1     19905-7.66238E-02 2.14140E-01 9.26824E-04-4.72375E-02 1.73417E-07 1.09491E-06
 -1     19910-7.11236E-02 2.08825E-01 9.56214E-04-4.54804E-02 3.48496E-07 2.20032E-06
 -1     19911-7.91361E-02 2.10703E-01-3.31433E-04-2.29530E-02-1.54720E-07-1.96590E-06
 -1     19912-7.66711E-02 2.14093E-01 8.16052E-04-4.72374E-02 5.85479E-07 3.69657E-06
 -1     19917-7.11826E-02 2.08766E-01 8.18276E-04-4.54803E-02 9.69381E-07 6.12043E-06
 -1     19918-7.90997E-02 2.10740E-01-2.46553E-04-2.29530E-02-3.98229E-07-5.05998E-06
 -1     19919-7.67495E-02 2.14014E-01 6.32891E-04-4.72374E-02 1.55025E-06 9.78786E-06
 -1     19924-7.12777E-02 2.08670E-01 5.97096E-04-4.54803E-02 2.22272E-06 1.40337E-05
 -1     19925-7.90497E-02 2.10790E-01-1.30417E-04-2.29530E-02-8.69713E-07-1.10508E-05
 -1     19926-7.68672E-02 2.13896E-01 3.59427E-04-4.72373E-02 3.49325E-06 2.20555E-05
 -1     19931-7.14300E-02 2.08518E-01 2.44411E-04-4.54803E-02 4.68417E-06 2.95747E-05
 -1     19935-5.05250E-02 1.87613E-01 2.44411E-04-8.65087E-02-9.25300E-06-2.84778E-05
 -1     19936-6.48640E-02 1.96604E-01-1.30417E-04-6.66123E-02 2.58772E-06 1.07786E-05
 -1     19937-5.51546E-02 1.92183E-01 3.59427E-04-8.98507E-02-6.90048E-06-2.12375E-05
 -1     19942-5.03727E-02 1.87765E-01 5.97096E-04-8.65087E-02-4.39071E-06-1.35132E-05
 -1     19943-6.49139E-02 1.96554E-01-2.46553E-04-6.66122E-02 1.18488E-06 4.93538E-06
 -1     19944-5.50369E-02 1.92301E-01 6.32891E-04-8.98508E-02-3.06232E-06-9.42485E-06
 -1     19949-5.02776E-02 1.87861E-01 8.18276E-04-8.65088E-02-1.91489E-06-5.89343E-06
 -1     19950-6.49503E-02 1.96517E-01-3.31433E-04-6.66122E-02 4.60349E-07 1.91749E-06
 -1     19951-5.49584E-02 1.92380E-01 8.16052E-04-8.98509E-02-1.15654E-06-3.55947E-06
 -1     19956-5.02185E-02 1.87920E-01 9.56214E-04-8.65088E-02-6.88411E-07-2.11871E-06
 -1     19957-6.49728E-02 1.96495E-01-3.83989E-04-6.66122E-02 1.49341E-07 6.22052E-07
 -1     19958-5.49111E-02 1.92427E-01 9.26824E-04-8.98510E-02-3.42564E-07-1.05430E-06
 -1     19963-5.01861E-02 1.87952E-01 1.03210E-03-8.65089E-02-1.88025E-07-5.78680E-07
 -1     19964-6.49834E-02 1.96484E-01-4.08860E-04-6.66122E-02 3.00244E-08 1.25061E-07
 -1     19965-5.48889E-02 1.92450E-01 9.78839E-04-8.98510E-02-6.04230E-08-1.85963E-07
 -1     19970-5.01758E-02 1.87963E-01 1.05633E-03-8.65089E-02-7.26832E-16 1.44044E-14
 -1     19971-6.49834E-02 1.96484E-01-4.08860E-04-6.66122E-02-3.00244E-08-1.25061E-07
 -1     19972-5.48889E-02 1.92450E-01 9.78839E-04-8.98510E-02 6.04230E-08 1.85963E-07
 -1     19977-5.01861E-02 1.87952E-01 1.03210E-03-8.65089E-02 1.88025E-07 5.78680E-07
 -1     19978-6.49728E-02 1.96495E-01-3.83989E-04-6.66122E-02-1.49341E-07-6.22052E-07
 -1     19979-5.49111E-02 1.92427E-01 9.26824E-04-8.98510E-02 3.42564E-07 1.05430E-06
 -1     19984-5.02185E-02 1.87920E-01 9.56214E-04-8.65088E-02 6.88411E-07 2.11871E-06
 -1     19985-6.49503E-02 1.96517E-01-3.31433E-04-6.66122E-02-4.60349E-07-1.91749E-06
 -1     19986-5.49584E-02 1.92380E-01 8.16052E-04-8.98509E-02 1.15654E-06 3.55947E-06
 -1     19991-5.02776E-02 1.87861E-01 8.18276E-04-8.65088E-02 1.91489E-06 5.89343E-06
 -1     19992-6.49139E-02 1.96554E-01-2.46553E-04-6.66122E-02-1.18488E-06-4.93538E-06
 -1     19993-5.50369E-02 1.92301E-01 6.32891E-04-8.98508E-02 3.06232E-06 9.42485E-06
 -1     19998-5.03727E-02 1.87765E-01 5.97096E-04-8.65087E-02 4.39071E-06 1.35132E-05
 -1     19999-6.48640E-02 1.96604E-01-1.30417E-04-6.66123E-02-2.58772E-06-1.07786E-05
 -1     20000-5.51546E-02 1.92183E-01 3.59427E-04-8.98507E-02 6.90048E-06 2.12375E-05
 -1     20005-5.05250E-02 1.87613E-01 2.44411E-04-8.65087E-02 9.25300E-06 2.84778E-05
 -1     20009-1.79647E-02 1.55053E-01 2.44411E-04-1.19069E-01-1.35940E-05-2.66797E-05
 -1     20010-3.78811E-02 1.69621E-01-1.30417E-04-1.03751E-01 4.24202E-06 1.02411E-05
 -1     20011-2.13364E-02 1.58365E-01 3.59427E-04-1.23669E-01-1.01378E-05-1.98965E-05
 -1     20016-1.78124E-02 1.55205E-01 5.97096E-04-1.19069E-01-6.45059E-06-1.26600E-05
 -1     20017-3.79311E-02 1.69571E-01-2.46553E-04-1.03751E-01 1.94236E-06 4.68927E-06
 -1     20018-2.12187E-02 1.58483E-01 6.32891E-04-1.23669E-01-4.49899E-06-8.82976E-06
 -1     20023-1.77172E-02 1.55300E-01 8.18276E-04-1.19069E-01-2.81325E-06-5.52132E-06
 -1     20024-3.79674E-02 1.69534E-01-3.31433E-04-1.03751E-01 7.54643E-07 1.82187E-06
 -1     20025-2.11402E-02 1.58562E-01 8.16052E-04-1.23669E-01-1.69913E-06-3.33472E-06
 -1     20030-1.76582E-02 1.55360E-01 9.56214E-04-1.19069E-01-1.01138E-06-1.98493E-06
 -1     20031-3.79899E-02 1.69512E-01-3.83989E-04-1.03751E-01 2.44813E-07 5.91031E-07
 -1     20032-2.10928E-02 1.58609E-01 9.26824E-04-1.23669E-01-5.03277E-07-9.87736E-07
 -1     20037-1.76257E-02 1.55392E-01 1.03210E-03-1.19069E-01-2.76235E-07-5.42142E-07
 -1     20038-3.80005E-02 1.69501E-01-4.08860E-04-1.03751E-01 4.92186E-08 1.18824E-07
 -1     20039-2.10706E-02 1.58631E-01 9.78839E-04-1.23669E-01-8.87703E-08-1.74221E-07
 -1     20044-1.76154E-02 1.55402E-01 1.05633E-03-1.19069E-01-3.01145E-16 1.04015E-14
 -1     20045-3.80005E-02 1.69501E-01-4.08860E-04-1.03751E-01-4.92186E-08-1.18824E-07
 -1     20046-2.10706E-02 1.58631E-01 9.78839E-04-1.23669E-01 8.87703E-08 1.74221E-07
 -1     20051-1.76257E-02 1.55392E-01 1.03210E-03-1.19069E-01 2.76235E-07 5.42142E-07
 -1     20052-3.79899E-02 1.69512E-01-3.83989E-04-1.03751E-01-2.44813E-07-5.91031E-07
 -1     20053-2.10928E-02 1.58609E-01 9.26824E-04-1.23669E-01 5.03277E-07 9.87736E-07
 -1     20058-1.76582E-02 1.55360E-01 9.56214E-04-1.19069E-01 1.01138E-06 1.98493E-06
 -1     20059-3.79674E-02 1.69534E-01-3.31433E-04-1.03751E-01-7.54643E-07-1.82187E-06
 -1     20060-2.11402E-02 1.58562E-01 8.16052E-04-1.23669E-01 1.69913E-06 3.33472E-06
 -1     20065-1.77172E-02 1.55300E-01 8.18276E-04-1.19069E-01 2.81325E-06 5.52132E-06
 -1     20066-3.79311E-02 1.69571E-01-2.46553E-04-1.03751E-01-1.94236E-06-4.68927E-06
 -1     20067-2.12187E-02 1.58483E-01 6.32891E-04-1.23669E-01 4.49899E-06 8.82976E-06
 -1     20072-1.78124E-02 1.55205E-01 5.97096E-04-1.19069E-01 6.45059E-06 1.26600E-05
 -1     20073-3.78811E-02 1.69621E-01-1.30417E-04-1.03751E-01-4.24202E-06-1.02411E-05
 -1     20074-2.13364E-02 1.58365E-01 3.59427E-04-1.23669E-01 1.01378E-05 1.98965E-05
 -1     20079-1.79647E-02 1.55053E-01 2.44411E-04-1.19069E-01 1.35940E-05 2.66797E-05
 -1     20083 2.30636E-02 1.14024E-01 2.44411E-04-1.39974E-01-1.76003E-05-2.42247E-05
 -1     20084-7.42287E-04 1.32482E-01-1.30417E-04-1.30734E-01 5.79186E-06 9.45145E-06
 -1     20085 2.12770E-02 1.15752E-01 3.59427E-04-1.45382E-01-1.31255E-05-1.80657E-05
 -1     20090 2.32160E-02 1.14177E-01 5.97096E-04-1.39974E-01-8.35163E-06-1.14950E-05
 -1     20091-7.92294E-04 1.32432E-01-2.46553E-04-1.30734E-01 2.65201E-06 4.32768E-06
 -1     20092 2.13948E-02 1.15870E-01 6.32891E-04-1.45382E-01-5.82488E-06-8.01725E-06
 -1     20097 2.33112E-02 1.14272E-01 8.18276E-04-1.39974E-01-3.64234E-06-5.01325E-06
 -1     20098-8.28708E-04 1.32396E-01-3.31433E-04-1.30734E-01 1.03036E-06 1.68139E-06
 -1     20099 2.14733E-02 1.15948E-01 8.16052E-04-1.45382E-01-2.19987E-06-3.02786E-06
 -1     20104 2.33703E-02 1.14331E-01 9.56214E-04-1.39974E-01-1.30944E-06-1.80228E-06
 -1     20105-8.51184E-04 1.32373E-01-3.83989E-04-1.30734E-01 3.34257E-07 5.45457E-07
 -1     20106 2.15207E-02 1.15996E-01 9.26824E-04-1.45382E-01-6.51596E-07-8.96845E-07
 -1     20111 2.34027E-02 1.14364E-01 1.03210E-03-1.39974E-01-3.57644E-07-4.92255E-07
 -1     20112-8.61804E-04 1.32363E-01-4.08860E-04-1.30734E-01 6.72009E-08 1.09662E-07
 -1     20113 2.15429E-02 1.16018E-01 9.78839E-04-1.45382E-01-1.14932E-07-1.58190E-07
 -1     20118 2.34131E-02 1.14374E-01 1.05633E-03-1.39974E-01 1.44890E-14-1.37582E-14
 -1     20119-8.61804E-04 1.32363E-01-4.08860E-04-1.30734E-01-6.72009E-08-1.09662E-07
 -1     20120 2.15429E-02 1.16018E-01 9.78839E-04-1.45382E-01 1.14932E-07 1.58190E-07
 -1     20125 2.34027E-02 1.14364E-01 1.03210E-03-1.39974E-01 3.57644E-07 4.92255E-07
 -1     20126-8.51184E-04 1.32373E-01-3.83989E-04-1.30734E-01-3.34257E-07-5.45457E-07
 -1     20127 2.15207E-02 1.15996E-01 9.26824E-04-1.45382E-01 6.51597E-07 8.96845E-07
 -1     20132 2.33703E-02 1.14331E-01 9.56214E-04-1.39974E-01 1.30944E-06 1.80228E-06
 -1     20133-8.28708E-04 1.32396E-01-3.31433E-04-1.30734E-01-1.03036E-06-1.68139E-06
 -1     20134 2.14733E-02 1.15948E-01 8.16052E-04-1.45382E-01 2.19987E-06 3.02786E-06
 -1     20139 2.33112E-02 1.14272E-01 8.18276E-04-1.39974E-01 3.64234E-06 5.01325E-06
 -1     20140-7.92294E-04 1.32432E-01-2.46553E-04-1.30734E-01-2.65201E-06-4.32768E-06
 -1     20141 2.13948E-02 1.15870E-01 6.32891E-04-1.45382E-01 5.82488E-06 8.01725E-06
 -1     20146 2.32160E-02 1.14177E-01 5.97096E-04-1.39974E-01 8.35163E-06 1.14950E-05
 -1     20147-7.42287E-04 1.32482E-01-1.30417E-04-1.30734E-01-5.79186E-06-9.45145E-06
 -1     20148 2.12770E-02 1.15752E-01 3.59427E-04-1.45382E-01 1.31255E-05 1.80657E-05
 -1     20153 2.30636E-02 1.14024E-01 2.44411E-04-1.39974E-01 1.76003E-05 2.42247E-05
 -1     20157 6.85439E-02 6.85439E-02 2.44411E-04-1.47177E-01-2.11731E-05-2.11731E-05
 -1     20158 4.29170E-02 8.88230E-02-1.30417E-04-1.44920E-01 7.19908E-06 8.42904E-06
 -1     20159 6.85143E-02 6.85143E-02 3.59427E-04-1.52863E-01-1.57900E-05-1.57900E-05
 -1     20164 6.86963E-02 6.86963E-02 5.97096E-04-1.47177E-01-1.00470E-05-1.00470E-05
 -1     20165 4.28669E-02 8.87730E-02-2.46553E-04-1.44920E-01 3.29635E-06 3.85954E-06
 -1     20166 6.86321E-02 6.86321E-02 6.32891E-04-1.52863E-01-7.00734E-06-7.00734E-06
 -1     20171 6.87915E-02 6.87915E-02 8.18276E-04-1.47177E-01-4.38174E-06-4.38174E-06
 -1     20172 4.28305E-02 8.87365E-02-3.31433E-04-1.44920E-01 1.28070E-06 1.49950E-06
 -1     20173 6.87108E-02 6.87108E-02 8.16052E-04-1.52864E-01-2.64645E-06-2.64645E-06
 -1     20178 6.88507E-02 6.88507E-02 9.56214E-04-1.47178E-01-1.57525E-06-1.57525E-06
 -1     20179 4.28080E-02 8.87140E-02-3.83989E-04-1.44920E-01 4.15470E-07 4.86453E-07
 -1     20180 6.87582E-02 6.87582E-02 9.26824E-04-1.52864E-01-7.83871E-07-7.83872E-07
 -1     20185 6.88831E-02 6.88831E-02 1.03210E-03-1.47178E-01-4.30246E-07-4.30247E-07
 -1     20186 4.27974E-02 8.87034E-02-4.08860E-04-1.44919E-01 8.35283E-08 9.77991E-08
 -1     20187 6.87804E-02 6.87804E-02 9.78839E-04-1.52864E-01-1.38263E-07-1.38263E-07
 -1     20192 6.88935E-02 6.88935E-02 1.05633E-03-1.47178E-01 1.58715E-14 8.43769E-15
 -1     20193 4.27974E-02 8.87034E-02-4.08860E-04-1.44919E-01-8.35282E-08-9.77991E-08
 -1     20194 6.87804E-02 6.87804E-02 9.78839E-04-1.52864E-01 1.38263E-07 1.38263E-07
 -1     20199 6.88831E-02 6.88831E-02 1.03210E-03-1.47178E-01 4.30246E-07 4.30247E-07
 -1     20200 4.28080E-02 8.87140E-02-3.83989E-04-1.44920E-01-4.15470E-07-4.86453E-07
 -1     20201 6.87582E-02 6.87582E-02 9.26824E-04-1.52864E-01 7.83871E-07 7.83872E-07
 -1     20206 6.88507E-02 6.88507E-02 9.56214E-04-1.47178E-01 1.57525E-06 1.57525E-06
 -1     20207 4.28305E-02 8.87365E-02-3.31433E-04-1.44920E-01-1.28070E-06-1.49950E-06
 -1     20208 6.87108E-02 6.87108E-02 8.16052E-04-1.52864E-01 2.64645E-06 2.64645E-06
 -1     20213 6.87915E-02 6.87915E-02 8.18276E-04-1.47177E-01 4.38174E-06 4.38174E-06
 -1     20214 4.28669E-02 8.87730E-02-2.46553E-04-1.44920E-01-3.29635E-06-3.85954E-06
 -1     20215 6.86321E-02 6.86321E-02 6.32891E-04-1.52863E-01 7.00734E-06 7.00734E-06
 -1     20220 6.86963E-02 6.86963E-02 5.97096E-04-1.47177E-01 1.00470E-05 1.00470E-05
 -1     20221 4.29170E-02 8.88230E-02-1.30417E-04-1.44920E-01-7.19908E-06-8.42904E-06
 -1     20222 6.85143E-02 6.85143E-02 3.59427E-04-1.52863E-01 1.57900E-05 1.57900E-05
 -1     20227 6.85439E-02 6.85439E-02 2.44411E-04-1.47177E-01 2.11731E-05 2.11731E-05
 -1     20231 1.14024E-01 2.30636E-02 2.44411E-04-1.39974E-01-2.42247E-05-1.76003E-05
 -1     20232 8.88230E-02 4.29170E-02-1.30417E-04-1.44920E-01 8.42904E-06 7.19908E-06
 -1     20233 1.15752E-01 2.12770E-02 3.59427E-04-1.45382E-01-1.80657E-05-1.31255E-05
 -1     20238 1.14177E-01 2.32160E-02 5.97096E-04-1.39974E-01-1.14950E-05-8.35163E-06
 -1     20239 8.87730E-02 4.28669E-02-2.46553E-04-1.44920E-01 3.85953E-06 3.29636E-06
 -1     20240 1.15870E-01 2.13948E-02 6.32891E-04-1.45382E-01-8.01725E-06-5.82488E-06
 -1     20245 1.14272E-01 2.33112E-02 8.18276E-04-1.39974E-01-5.01325E-06-3.64234E-06
 -1     20246 8.87365E-02 4.28305E-02-3.31433E-04-1.44920E-01 1.49950E-06 1.28070E-06
 -1     20247 1.15948E-01 2.14733E-02 8.16052E-04-1.45382E-01-3.02786E-06-2.19987E-06
 -1     20252 1.14331E-01 2.33703E-02 9.56214E-04-1.39974E-01-1.80228E-06-1.30944E-06
 -1     20253 8.87140E-02 4.28080E-02-3.83989E-04-1.44920E-01 4.86452E-07 4.15470E-07
 -1     20254 1.15996E-01 2.15207E-02 9.26824E-04-1.45382E-01-8.96845E-07-6.51597E-07
 -1     20259 1.14364E-01 2.34027E-02 1.03210E-03-1.39974E-01-4.92255E-07-3.57644E-07
 -1     20260 8.87034E-02 4.27974E-02-4.08860E-04-1.44919E-01 9.77989E-08 8.35285E-08
 -1     20261 1.16018E-01 2.15429E-02 9.78839E-04-1.45382E-01-1.58190E-07-1.14932E-07
 -1     20266 1.14374E-01 2.34131E-02 1.05633E-03-1.39974E-01 2.29550E-14-6.63469E-15
 -1     20267 8.87034E-02 4.27974E-02-4.08860E-04-1.44919E-01-9.77989E-08-8.35285E-08
 -1     20268 1.16018E-01 2.15429E-02 9.78839E-04-1.45382E-01 1.58190E-07 1.14932E-07
 -1     20273 1.14364E-01 2.34027E-02 1.03210E-03-1.39974E-01 4.92255E-07 3.57644E-07
 -1     20274 8.87140E-02 4.28080E-02-3.83989E-04-1.44920E-01-4.86452E-07-4.15470E-07
 -1     20275 1.15996E-01 2.15207E-02 9.26824E-04-1.45382E-01 8.96845E-07 6.51597E-07
 -1     20280 1.14331E-01 2.33703E-02 9.56214E-04-1.39974E-01 1.80228E-06 1.30944E-06
 -1     20281 8.87365E-02 4.28305E-02-3.31433E-04-1.44920E-01-1.49950E-06-1.28070E-06
 -1     20282 1.15948E-01 2.14733E-02 8.16052E-04-1.45382E-01 3.02786E-06 2.19987E-06
 -1     20287 1.14272E-01 2.33112E-02 8.18276E-04-1.39974E-01 5.01325E-06 3.64234E-06
 -1     20288 8.87730E-02 4.28669E-02-2.46553E-04-1.44920E-01-3.85953E-06-3.29636E-06
 -1     20289 1.15870E-01 2.13948E-02 6.32891E-04-1.45382E-01 8.01725E-06 5.82488E-06
 -1     20294 1.14177E-01 2.32160E-02 5.97096E-04-1.39974E-01 1.14950E-05 8.35163E-06
 -1     20295 8.88230E-02 4.29170E-02-1.30417E-04-1.44920E-01-8.42904E-06-7.19908E-06
 -1     20296 1.15752E-01 2.12770E-02 3.59427E-04-1.45382E-01 1.80657E-05 1.31255E-05
 -1     20301 1.14024E-01 2.30636E-02 2.44411E-04-1.39974E-01 2.42247E-05 1.76003E-05
 -1     20305 1.55053E-01-1.79647E-02 2.44411E-04-1.19069E-01-2.66797E-05-1.35940E-05
 -1     20306 1.32482E-01-7.42288E-04-1.30417E-04-1.30734E-01 9.45145E-06 5.79186E-06
 -1     20307 1.58365E-01-2.13364E-02 3.59427E-04-1.23669E-01-1.98965E-05-1.01378E-05
 -1     20312 1.55205E-01-1.78124E-02 5.97096E-04-1.19069E-01-1.26600E-05-6.45058E-06
 -1     20313 1.32432E-01-7.92294E-04-2.46553E-04-1.30734E-01 4.32768E-06 2.65201E-06
 -1     20314 1.58483E-01-2.12187E-02 6.32891E-04-1.23669E-01-8.82976E-06-4.49899E-06
 -1     20319 1.55300E-01-1.77172E-02 8.18276E-04-1.19069E-01-5.52132E-06-2.81325E-06
 -1     20320 1.32396E-01-8.28709E-04-3.31433E-04-1.30734E-01 1.68139E-06 1.03036E-06
 -1     20321 1.58562E-01-2.11402E-02 8.16052E-04-1.23669E-01-3.33472E-06-1.69912E-06
 -1     20326 1.55360E-01-1.76582E-02 9.56214E-04-1.19069E-01-1.98494E-06-1.01137E-06
 -1     20327 1.32373E-01-8.51185E-04-3.83989E-04-1.30734E-01 5.45458E-07 3.34257E-07
 -1     20328 1.58609E-01-2.10928E-02 9.26824E-04-1.23669E-01-9.87736E-07-5.03275E-07
 -1     20333 1.55392E-01-1.76257E-02 1.03210E-03-1.19069E-01-5.42143E-07-2.76234E-07
 -1     20334 1.32363E-01-8.61805E-04-4.08860E-04-1.30734E-01 1.09662E-07 6.72007E-08
 -1     20335 1.58631E-01-2.10706E-02 9.78839E-04-1.23669E-01-1.74222E-07-8.87697E-08
 -1     20340 1.55402E-01-1.76154E-02 1.05633E-03-1.19069E-01 4.79112E-14 2.97143E-14
 -1     20341 1.32363E-01-8.61805E-04-4.08860E-04-1.30734E-01-1.09662E-07-6.72007E-08
 -1     20342 1.58631E-01-2.10706E-02 9.78839E-04-1.23669E-01 1.74222E-07 8.87698E-08
 -1     20347 1.55392E-01-1.76257E-02 1.03210E-03-1.19069E-01 5.42143E-07 2.76234E-07
 -1     20348 1.32373E-01-8.51185E-04-3.83989E-04-1.30734E-01-5.45458E-07-3.34256E-07
 -1     20349 1.58609E-01-2.10928E-02 9.26824E-04-1.23669E-01 9.87736E-07 5.03275E-07
 -1     20354 1.55360E-01-1.76582E-02 9.56214E-04-1.19069E-01 1.98494E-06 1.01137E-06
 -1     20355 1.32396E-01-8.28709E-04-3.31433E-04-1.30734E-01-1.68139E-06-1.03036E-06
 -1     20356 1.58562E-01-2.11402E-02 8.16052E-04-1.23669E-01 3.33472E-06 1.69912E-06
 -1     20361 1.55300E-01-1.77172E-02 8.18276E-04-1.19069E-01 5.52132E-06 2.81325E-06
 -1     20362 1.32432E-01-7.92294E-04-2.46553E-04-1.30734E-01-4.32768E-06-2.65201E-06
 -1     20363 1.58483E-01-2.12187E-02 6.32891E-04-1.23669E-01 8.82976E-06 4.49899E-06
 -1     20368 1.55205E-01-1.78124E-02 5.97096E-04-1.19069E-01 1.26600E-05 6.45058E-06
 -1     20369 1.32482E-01-7.42288E-04-1.30417E-04-1.30734E-01-9.45145E-06-5.79186E-06
 -1     20370 1.58365E-01-2.13364E-02 3.59427E-04-1.23669E-01 1.98965E-05 1.01378E-05
 -1     20375 1.55053E-01-1.79647E-02 2.44411E-04-1.19069E-01 2.66797E-05 1.35940E-05
 -1     20379 1.87613E-01-5.05250E-02 2.44411E-04-8.65087E-02-2.84778E-05-9.25300E-06
 -1     20380 1.69621E-01-3.78811E-02-1.30417E-04-1.03751E-01 1.02411E-05 4.24202E-06
 -1     20381 1.92183E-01-5.51546E-02 3.59427E-04-8.98507E-02-2.12375E-05-6.90048E-06
 -1     20386 1.87765E-01-5.03727E-02 5.97096E-04-8.65087E-02-1.35132E-05-4.39071E-06
 -1     20387 1.69571E-01-3.79311E-02-2.46553E-04-1.03751E-01 4.68927E-06 1.94236E-06
 -1     20388 1.92301E-01-5.50369E-02 6.32891E-04-8.98508E-02-9.42485E-06-3.06232E-06
 -1     20393 1.87861E-01-5.02776E-02 8.18276E-04-8.65088E-02-5.89343E-06-1.91489E-06
 -1     20394 1.69534E-01-3.79675E-02-3.31433E-04-1.03751E-01 1.82187E-06 7.54642E-07
 -1     20395 1.92380E-01-5.49584E-02 8.16052E-04-8.98509E-02-3.55947E-06-1.15654E-06
 -1     20400 1.87920E-01-5.02185E-02 9.56214E-04-8.65088E-02-2.11871E-06-6.88411E-07
 -1     20401 1.69512E-01-3.79899E-02-3.83989E-04-1.03751E-01 5.91032E-07 2.44813E-07
 -1     20402 1.92427E-01-5.49111E-02 9.26824E-04-8.98510E-02-1.05430E-06-3.42564E-07
 -1     20407 1.87952E-01-5.01861E-02 1.03210E-03-8.65089E-02-5.78680E-07-1.88024E-07
 -1     20408 1.69501E-01-3.80005E-02-4.08860E-04-1.03751E-01 1.18824E-07 4.92183E-08
 -1     20409 1.92450E-01-5.48889E-02 9.78839E-04-8.98510E-02-1.85963E-07-6.04230E-08
 -1     20414 1.87963E-01-5.01758E-02 1.05633E-03-8.65089E-02-1.68612E-15-1.25537E-14
 -1     20415 1.69501E-01-3.80005E-02-4.08860E-04-1.03751E-01-1.18824E-07-4.92183E-08
 -1     20416 1.92450E-01-5.48889E-02 9.78839E-04-8.98510E-02 1.85963E-07 6.04230E-08
 -1     20421 1.87952E-01-5.01861E-02 1.03210E-03-8.65089E-02 5.78680E-07 1.88024E-07
 -1     20422 1.69512E-01-3.79899E-02-3.83989E-04-1.03751E-01-5.91032E-07-2.44813E-07
 -1     20423 1.92427E-01-5.49111E-02 9.26824E-04-8.98510E-02 1.05430E-06 3.42564E-07
 -1     20428 1.87920E-01-5.02185E-02 9.56214E-04-8.65088E-02 2.11871E-06 6.88411E-07
 -1     20429 1.69534E-01-3.79675E-02-3.31433E-04-1.03751E-01-1.82187E-06-7.54642E-07
 -1     20430 1.92380E-01-5.49584E-02 8.16052E-04-8.98509E-02 3.55947E-06 1.15654E-06
 -1     20435 1.87861E-01-5.02776E-02 8.18276E-04-8.65088E-02 5.89343E-06 1.91489E-06
 -1     20436 1.69571E-01-3.79311E-02-2.46553E-04-1.03751E-01-4.68927E-06-1.94236E-06
 -1     20437 1.92301E-01-5.50369E-02 6.32891E-04-8.98508E-02 9.42485E-06 3.06232E-06
 -1     20442 1.87765E-01-5.03727E-02 5.97096E-04-8.65087E-02 1.35132E-05 4.39071E-06
 -1     20443 1.69621E-01-3.78811E-02-1.30417E-04-1.03751E-01-1.02411E-05-4.24202E-06
 -1     20444 1.92183E-01-5.51546E-02 3.59427E-04-8.98507E-02 2.12375E-05 6.90048E-06
 -1     20449 1.87613E-01-5.05250E-02 2.44411E-04-8.65087E-02 2.84778E-05 9.25300E-06
 -1     20453 2.08518E-01-7.14300E-02 2.44411E-04-4.54803E-02-2.95747E-05-4.68417E-06
 -1     20454 1.96604E-01-6.48640E-02-1.30417E-04-6.66123E-02 1.07786E-05 2.58772E-06
 -1     20455 2.13896E-01-7.68672E-02 3.59427E-04-4.72373E-02-2.20555E-05-3.49325E-06
 -1     20460 2.08670E-01-7.12777E-02 5.97096E-04-4.54803E-02-1.40337E-05-2.22272E-06
 -1     20461 1.96554E-01-6.49139E-02-2.46553E-04-6.66122E-02 4.93538E-06 1.18488E-06
 -1     20462 2.14014E-01-7.67495E-02 6.32891E-04-4.72374E-02-9.78786E-06-1.55025E-06
 -1     20467 2.08766E-01-7.11826E-02 8.18276E-04-4.54803E-02-6.12043E-06-9.69385E-07
 -1     20468 1.96517E-01-6.49503E-02-3.31433E-04-6.66122E-02 1.91749E-06 4.60350E-07
 -1     20469 2.14093E-01-7.66711E-02 8.16052E-04-4.72374E-02-3.69657E-06-5.85482E-07
 -1     20474 2.08825E-01-7.11236E-02 9.56214E-04-4.54804E-02-2.20032E-06-3.48499E-07
 -1     20475 1.96495E-01-6.49728E-02-3.83989E-04-6.66122E-02 6.22052E-07 1.49342E-07
 -1     20476 2.14140E-01-7.66238E-02 9.26824E-04-4.72375E-02-1.09491E-06-1.73419E-07
 -1     20481 2.08857E-01-7.10912E-02 1.03210E-03-4.54804E-02-6.00969E-07-9.51857E-08
 -1     20482 1.96484E-01-6.49834E-02-4.08860E-04-6.66122E-02 1.25061E-07 3.00246E-08
 -1     20483 2.14162E-01-7.66016E-02 9.78839E-04-4.72375E-02-1.93126E-07-3.05888E-08
 -1     20488 2.08868E-01-7.10808E-02 1.05633E-03-4.54804E-02 1.57567E-14 2.64785E-15
 -1     20489 1.96484E-01-6.49834E-02-4.08860E-04-6.66122E-02-1.25061E-07-3.00246E-08
 -1     20490 2.14162E-01-7.66016E-02 9.78839E-04-4.72375E-02 1.93126E-07 3.05888E-08
 -1     20495 2.08857E-01-7.10912E-02 1.03210E-03-4.54804E-02 6.00969E-07 9.51857E-08
 -1     20496 1.96495E-01-6.49728E-02-3.83989E-04-6.66122E-02-6.22052E-07-1.49342E-07
 -1     20497 2.14140E-01-7.66238E-02 9.26824E-04-4.72375E-02 1.09491E-06 1.73419E-07
 -1     20502 2.08825E-01-7.11236E-02 9.56214E-04-4.54804E-02 2.20032E-06 3.48499E-07
 -1     20503 1.96517E-01-6.49503E-02-3.31433E-04-6.66122E-02-1.91749E-06-4.60350E-07
 -1     20504 2.14093E-01-7.66711E-02 8.16052E-04-4.72374E-02 3.69657E-06 5.85482E-07
 -1     20509 2.08766E-01-7.11826E-02 8.18276E-04-4.54803E-02 6.12043E-06 9.69385E-07
 -1     20510 1.96554E-01-6.49139E-02-2.46553E-04-6.66122E-02-4.93538E-06-1.18488E-06
 -1     20511 2.14014E-01-7.67495E-02 6.32891E-04-4.72374E-02 9.78786E-06 1.55025E-06
 -1     20516 2.08670E-01-7.12777E-02 5.97096E-04-4.54803E-02 1.40337E-05 2.22272E-06
 -1     20517 1.96604E-01-6.48640E-02-1.30417E-04-6.66123E-02-1.07786E-05-2.58772E-06
 -1     20518 2.13896E-01-7.68672E-02 3.59427E-04-4.72373E-02 2.20555E-05 3.49325E-06
 -1     20523 2.08518E-01-7.14300E-02 2.44411E-04-4.54803E-02 2.95747E-05 4.68417E-06
 -1     20527 2.10790E-01-7.90497E-02-1.30417E-04-2.29530E-02 1.10508E-05 8.69714E-07
 -1     20531 2.10740E-01-7.90997E-02-2.46553E-04-2.29530E-02 5.05998E-06 3.98230E-07
 -1     20535 2.10703E-01-7.91361E-02-3.31433E-04-2.29530E-02 1.96590E-06 1.54721E-07
 -1     20539 2.10681E-01-7.91585E-02-3.83989E-04-2.29530E-02 6.37756E-07 5.01934E-08
 -1     20543 2.10670E-01-7.91691E-02-4.08860E-04-2.29530E-02 1.28218E-07 1.00913E-08
 -1     20547 2.10670E-01-7.91691E-02-4.08860E-04-2.29530E-02-1.28218E-07-1.00913E-08
 -1     20551 2.10681E-01-7.91585E-02-3.83989E-04-2.29530E-02-6.37756E-07-5.01934E-08
 -1     20555 2.10703E-01-7.91361E-02-3.31433E-04-2.29530E-02-1.96590E-06-1.54721E-07
 -1     20559 2.10740E-01-7.90997E-02-2.46553E-04-2.29530E-02-5.05998E-06-3.98230E-07
 -1     20563 2.10790E-01-7.90497E-02-1.30417E-04-2.29530E-02-1.10508E-05-8.69714E-07
 -1     20569-6.17554E-02 1.98560E-01 2.17392E-04-4.22907E-02-4.39880E-06-2.77729E-05
 -1     20570-6.88353E-02 2.00677E-01-1.18662E-04-2.13433E-02 8.25824E-07 1.04931E-05
 -1     20571-6.66177E-02 2.03380E-01 3.22724E-04-4.38638E-02-3.32331E-06-2.09825E-05
 -1     20576-6.16188E-02 1.98696E-01 5.33697E-04-4.22908E-02-2.17272E-06-1.37180E-05
 -1     20577-6.88808E-02 2.00632E-01-2.24311E-04-2.13433E-02 3.95338E-07 5.02324E-06
 -1     20578-6.65113E-02 2.03487E-01 5.69872E-04-4.38638E-02-1.54934E-06-9.78214E-06
 -1     20583-6.15324E-02 1.98783E-01 7.34420E-04-4.22908E-02-1.00215E-06-6.32731E-06
 -1     20584-6.89140E-02 2.00599E-01-3.01828E-04-2.13433E-02 1.65986E-07 2.10905E-06
 -1     20585-6.64397E-02 2.03559E-01 7.36759E-04-4.38639E-02-6.36969E-07-4.02166E-06
 -1     20590-6.14783E-02 1.98837E-01 8.60688E-04-4.22908E-02-3.97912E-07-2.51231E-06
 -1     20591-6.89346E-02 2.00578E-01-3.50092E-04-2.13433E-02 6.07358E-08 7.71721E-07
 -1     20592-6.63963E-02 2.03602E-01 8.38386E-04-4.38639E-02-2.19967E-07-1.38882E-06
 -1     20597-6.14485E-02 1.98867E-01 9.30569E-04-4.22908E-02-1.26479E-07-7.98558E-07
 -1     20598-6.89444E-02 2.00568E-01-3.73022E-04-2.13433E-02 1.41611E-08 1.79934E-07
 -1     20599-6.63759E-02 2.03623E-01 8.86323E-04-4.38639E-02-4.83193E-08-3.05076E-07
 -1     20604-6.14389E-02 1.98877E-01 9.52947E-04-4.22908E-02 4.22797E-15 1.35762E-14
 -1     20605-6.89444E-02 2.00568E-01-3.73022E-04-2.13433E-02-1.41611E-08-1.79934E-07
 -1     20606-6.63759E-02 2.03623E-01 8.86323E-04-4.38639E-02 4.83193E-08 3.05076E-07
 -1     20611-6.14485E-02 1.98867E-01 9.30569E-04-4.22908E-02 1.26479E-07 7.98558E-07
 -1     20612-6.89346E-02 2.00578E-01-3.50092E-04-2.13433E-02-6.07358E-08-7.71721E-07
 -1     20613-6.63963E-02 2.03602E-01 8.38386E-04-4.38639E-02 2.19967E-07 1.38882E-06
 -1     20618-6.14783E-02 1.98837E-01 8.60688E-04-4.22908E-02 3.97912E-07 2.51231E-06
 -1     20619-6.89140E-02 2.00599E-01-3.01828E-04-2.13433E-02-1.65986E-07-2.10905E-06
 -1     20620-6.64397E-02 2.03559E-01 7.36759E-04-4.38639E-02 6.36969E-07 4.02166E-06
 -1     20625-6.15324E-02 1.98783E-01 7.34420E-04-4.22908E-02 1.00215E-06 6.32731E-06
 -1     20626-6.88808E-02 2.00632E-01-2.24311E-04-2.13433E-02-3.95338E-07-5.02324E-06
 -1     20627-6.65113E-02 2.03487E-01 5.69872E-04-4.38638E-02 1.54934E-06 9.78214E-06
 -1     20632-6.16188E-02 1.98696E-01 5.33697E-04-4.22908E-02 2.17272E-06 1.37180E-05
 -1     20633-6.88353E-02 2.00677E-01-1.18662E-04-2.13433E-02-8.25824E-07-1.04931E-05
 -1     20634-6.66177E-02 2.03380E-01 3.22724E-04-4.38638E-02 3.32331E-06 2.09825E-05
 -1     20639-6.17554E-02 1.98560E-01 2.17392E-04-4.22907E-02 4.39880E-06 2.77729E-05
 -1     20643-4.23165E-02 1.79121E-01 2.17392E-04-8.04418E-02-8.68928E-06-2.67429E-05
 -1     20644-5.56444E-02 1.87487E-01-1.18662E-04-6.19407E-02 2.45714E-06 1.02347E-05
 -1     20645-4.64557E-02 1.83218E-01 3.22724E-04-8.34339E-02-6.56479E-06-2.02043E-05
 -1     20650-4.21798E-02 1.79257E-01 5.33697E-04-8.04418E-02-4.29195E-06-1.32093E-05
 -1     20651-5.56899E-02 1.87441E-01-2.24311E-04-6.19407E-02 1.17628E-06 4.89955E-06
 -1     20652-4.63493E-02 1.83325E-01 5.69872E-04-8.34340E-02-3.06053E-06-9.41933E-06
 -1     20657-4.20935E-02 1.79344E-01 7.34420E-04-8.04419E-02-1.97962E-06-6.09264E-06
 -1     20658-5.57231E-02 1.87408E-01-3.01828E-04-6.19407E-02 4.93870E-07 2.05712E-06
 -1     20659-4.62777E-02 1.83397E-01 7.36759E-04-8.34341E-02-1.25825E-06-3.87251E-06
 -1     20664-4.20394E-02 1.79398E-01 8.60688E-04-8.04419E-02-7.86025E-07-2.41914E-06
 -1     20665-5.57438E-02 1.87387E-01-3.50092E-04-6.19406E-02 1.80712E-07 7.52719E-07
 -1     20666-4.62343E-02 1.83440E-01 8.38386E-04-8.34341E-02-4.34518E-07-1.33731E-06
 -1     20671-4.20095E-02 1.79428E-01 9.30569E-04-8.04420E-02-2.49844E-07-7.68941E-07
 -1     20672-5.57536E-02 1.87377E-01-3.73022E-04-6.19406E-02 4.21347E-08 1.75504E-07
 -1     20673-4.62138E-02 1.83461E-01 8.86323E-04-8.34341E-02-9.54488E-08-2.93761E-07
 -1     20678-4.20000E-02 1.79438E-01 9.52947E-04-8.04420E-02 1.93092E-15-1.35167E-14
 -1     20679-5.57536E-02 1.87377E-01-3.73022E-04-6.19406E-02-4.21347E-08-1.75504E-07
 -1     20680-4.62138E-02 1.83461E-01 8.86323E-04-8.34341E-02 9.54488E-08 2.93761E-07
 -1     20685-4.20095E-02 1.79428E-01 9.30569E-04-8.04420E-02 2.49844E-07 7.68941E-07
 -1     20686-5.57438E-02 1.87387E-01-3.50092E-04-6.19406E-02-1.80712E-07-7.52719E-07
 -1     20687-4.62343E-02 1.83440E-01 8.38386E-04-8.34341E-02 4.34518E-07 1.33731E-06
 -1     20692-4.20394E-02 1.79398E-01 8.60688E-04-8.04419E-02 7.86025E-07 2.41914E-06
 -1     20693-5.57231E-02 1.87408E-01-3.01828E-04-6.19407E-02-4.93870E-07-2.05711E-06
 -1     20694-4.62777E-02 1.83397E-01 7.36759E-04-8.34341E-02 1.25825E-06 3.87251E-06
 -1     20699-4.20935E-02 1.79344E-01 7.34420E-04-8.04419E-02 1.97962E-06 6.09264E-06
 -1     20700-5.56899E-02 1.87441E-01-2.24311E-04-6.19407E-02-1.17628E-06-4.89955E-06
 -1     20701-4.63493E-02 1.83325E-01 5.69872E-04-8.34340E-02 3.06053E-06 9.41933E-06
 -1     20706-4.21798E-02 1.79257E-01 5.33697E-04-8.04418E-02 4.29195E-06 1.32093E-05
 -1     20707-5.56444E-02 1.87487E-01-1.18662E-04-6.19407E-02-2.45714E-06-1.02347E-05
 -1     20708-4.64557E-02 1.83218E-01 3.22724E-04-8.34339E-02 6.56479E-06 2.02043E-05
 -1     20713-4.23165E-02 1.79121E-01 2.17392E-04-8.04418E-02 8.68928E-06 2.67429E-05
 -1     20717-1.20397E-02 1.48844E-01 2.17392E-04-1.10719E-01-1.27658E-05-2.50543E-05
 -1     20718-3.05538E-02 1.62396E-01-1.18662E-04-9.64749E-02 4.02795E-06 9.72433E-06
 -1     20719-1.50527E-02 1.51815E-01 3.22724E-04-1.14837E-01-9.64462E-06-1.89286E-05
 -1     20724-1.19030E-02 1.48981E-01 5.33697E-04-1.10719E-01-6.30549E-06-1.23752E-05
 -1     20725-3.05993E-02 1.62350E-01-2.24311E-04-9.64749E-02 1.92825E-06 4.65522E-06
 -1     20726-1.49463E-02 1.51922E-01 5.69872E-04-1.14837E-01-4.49636E-06-8.82459E-06
 -1     20731-1.18166E-02 1.49067E-01 7.34420E-04-1.10719E-01-2.90834E-06-5.70795E-06
 -1     20732-3.06326E-02 1.62317E-01-3.01828E-04-9.64748E-02 8.09593E-07 1.95453E-06
 -1     20733-1.48747E-02 1.51993E-01 7.36759E-04-1.14837E-01-1.84856E-06-3.62799E-06
 -1     20738-1.17625E-02 1.49121E-01 8.60688E-04-1.10719E-01-1.15478E-06-2.26639E-06
 -1     20739-3.06532E-02 1.62296E-01-3.50092E-04-9.64748E-02 2.96238E-07 7.15182E-07
 -1     20740-1.48312E-02 1.52037E-01 8.38386E-04-1.14837E-01-6.38370E-07-1.25287E-06
 -1     20745-1.17326E-02 1.49151E-01 9.30569E-04-1.10719E-01-3.67057E-07-7.20390E-07
 -1     20746-3.06630E-02 1.62287E-01-3.73022E-04-9.64748E-02 6.90707E-08 1.66752E-07
 -1     20747-1.48107E-02 1.52058E-01 8.86323E-04-1.14837E-01-1.40228E-07-2.75213E-07
 -1     20752-1.17231E-02 1.49161E-01 9.52947E-04-1.10719E-01 1.02393E-14-1.89317E-14
 -1     20753-3.06630E-02 1.62287E-01-3.73022E-04-9.64748E-02-6.90707E-08-1.66751E-07
 -1     20754-1.48107E-02 1.52058E-01 8.86323E-04-1.14837E-01 1.40228E-07 2.75213E-07
 -1     20759-1.17326E-02 1.49151E-01 9.30569E-04-1.10719E-01 3.67057E-07 7.20390E-07
 -1     20760-3.06532E-02 1.62296E-01-3.50092E-04-9.64748E-02-2.96238E-07-7.15182E-07
 -1     20761-1.48312E-02 1.52037E-01 8.38386E-04-1.14837E-01 6.38370E-07 1.25287E-06
 -1     20766-1.17625E-02 1.49121E-01 8.60688E-04-1.10719E-01 1.15478E-06 2.26639E-06
 -1     20767-3.06326E-02 1.62317E-01-3.01828E-04-9.64748E-02-8.09593E-07-1.95453E-06
 -1     20768-1.48747E-02 1.51993E-01 7.36759E-04-1.14837E-01 1.84856E-06 3.62799E-06
 -1     20773-1.18166E-02 1.49067E-01 7.34420E-04-1.10719E-01 2.90834E-06 5.70795E-06
 -1     20774-3.05993E-02 1.62350E-01-2.24311E-04-9.64749E-02-1.92825E-06-4.65522E-06
 -1     20775-1.49463E-02 1.51922E-01 5.69872E-04-1.14837E-01 4.49636E-06 8.82459E-06
 -1     20780-1.19030E-02 1.48981E-01 5.33697E-04-1.10719E-01 6.30549E-06 1.23752E-05
 -1     20781-3.05538E-02 1.62396E-01-1.18662E-04-9.64749E-02-4.02795E-06-9.72433E-06
 -1     20782-1.50527E-02 1.51815E-01 3.22724E-04-1.14837E-01 9.64462E-06 1.89286E-05
 -1     20787-1.20397E-02 1.48844E-01 2.17392E-04-1.10719E-01 1.27658E-05 2.50543E-05
 -1     20791 2.61113E-02 1.10693E-01 2.17392E-04-1.30158E-01-1.65280E-05-2.27488E-05
 -1     20792 3.98039E-03 1.27862E-01-1.18662E-04-1.21565E-01 5.49958E-06 8.97450E-06
 -1     20793 2.45174E-02 1.12245E-01 3.22724E-04-1.34999E-01-1.24870E-05-1.71868E-05
 -1     20798 2.62480E-02 1.10830E-01 5.33697E-04-1.30158E-01-8.16377E-06-1.12365E-05
 -1     20799 3.93487E-03 1.27816E-01-2.24311E-04-1.21565E-01 2.63275E-06 4.29626E-06
 -1     20800 2.46239E-02 1.12352E-01 5.69872E-04-1.34999E-01-5.82147E-06-8.01256E-06
 -1     20805 2.63344E-02 1.10916E-01 7.34420E-04-1.30158E-01-3.76546E-06-5.18271E-06
 -1     20806 3.90160E-03 1.27783E-01-3.01828E-04-1.21565E-01 1.10538E-06 1.80382E-06
 -1     20807 2.46955E-02 1.12423E-01 7.36759E-04-1.34999E-01-2.39334E-06-3.29415E-06
 -1     20812 2.63886E-02 1.10970E-01 8.60688E-04-1.30158E-01-1.49511E-06-2.05784E-06
 -1     20813 3.88094E-03 1.27762E-01-3.50092E-04-1.21565E-01 4.04470E-07 6.60035E-07
 -1     20814 2.47390E-02 1.12467E-01 8.38386E-04-1.34999E-01-8.26504E-07-1.13758E-06
 -1     20819 2.64185E-02 1.11000E-01 9.30569E-04-1.30158E-01-4.75232E-07-6.54100E-07
 -1     20820 3.87115E-03 1.27752E-01-3.73022E-04-1.21565E-01 9.43061E-08 1.53893E-07
 -1     20821 2.47595E-02 1.12487E-01 8.86323E-04-1.34999E-01-1.81555E-07-2.49888E-07
 -1     20826 2.64281E-02 1.11010E-01 9.52947E-04-1.30158E-01 1.88353E-15-3.37732E-15
 -1     20827 3.87115E-03 1.27752E-01-3.73022E-04-1.21565E-01-9.43061E-08-1.53893E-07
 -1     20828 2.47595E-02 1.12487E-01 8.86323E-04-1.34999E-01 1.81555E-07 2.49888E-07
 -1     20833 2.64185E-02 1.11000E-01 9.30569E-04-1.30158E-01 4.75232E-07 6.54100E-07
 -1     20834 3.88094E-03 1.27762E-01-3.50092E-04-1.21565E-01-4.04470E-07-6.60035E-07
 -1     20835 2.47390E-02 1.12467E-01 8.38386E-04-1.34999E-01 8.26504E-07 1.13758E-06
 -1     20840 2.63886E-02 1.10970E-01 8.60688E-04-1.30158E-01 1.49511E-06 2.05784E-06
 -1     20841 3.90160E-03 1.27783E-01-3.01828E-04-1.21565E-01-1.10538E-06-1.80382E-06
 -1     20842 2.46955E-02 1.12423E-01 7.36759E-04-1.34999E-01 2.39334E-06 3.29415E-06
 -1     20847 2.63344E-02 1.10916E-01 7.34420E-04-1.30158E-01 3.76546E-06 5.18271E-06
 -1     20848 3.93487E-03 1.27816E-01-2.24311E-04-1.21565E-01-2.63275E-06-4.29626E-06
 -1     20849 2.46239E-02 1.12352E-01 5.69872E-04-1.34999E-01 5.82147E-06 8.01256E-06
 -1     20854 2.62480E-02 1.10830E-01 5.33697E-04-1.30158E-01 8.16377E-06 1.12365E-05
 -1     20855 3.98039E-03 1.27862E-01-1.18662E-04-1.21565E-01-5.49958E-06-8.97450E-06
 -1     20856 2.45174E-02 1.12245E-01 3.22724E-04-1.34999E-01 1.24870E-05 1.71868E-05
 -1     20861 2.61113E-02 1.10693E-01 2.17392E-04-1.30158E-01 1.65280E-05 2.27488E-05
 -1     20865 6.84021E-02 6.84021E-02 2.17392E-04-1.36856E-01-1.98832E-05-1.98832E-05
 -1     20866 4.45778E-02 8.72644E-02-1.18662E-04-1.34756E-01 6.83579E-06 8.00368E-06
 -1     20867 6.83812E-02 6.83812E-02 3.22724E-04-1.41946E-01-1.50218E-05-1.50218E-05
 -1     20872 6.85388E-02 6.85388E-02 5.33697E-04-1.36856E-01-9.82103E-06-9.82104E-06
 -1     20873 4.45323E-02 8.72189E-02-2.24311E-04-1.34756E-01 3.27242E-06 3.83151E-06
 -1     20874 6.84877E-02 6.84877E-02 5.69872E-04-1.41946E-01-7.00324E-06-7.00324E-06
 -1     20879 6.86252E-02 6.86252E-02 7.34420E-04-1.36856E-01-4.52985E-06-4.52985E-06
 -1     20880 4.44990E-02 8.71856E-02-3.01828E-04-1.34756E-01 1.37395E-06 1.60869E-06
 -1     20881 6.85594E-02 6.85594E-02 7.36759E-04-1.41946E-01-2.87919E-06-2.87919E-06
 -1     20886 6.86794E-02 6.86794E-02 8.60688E-04-1.36856E-01-1.79862E-06-1.79862E-06
 -1     20887 4.44783E-02 8.71649E-02-3.50092E-04-1.34756E-01 5.02743E-07 5.88636E-07
 -1     20888 6.86029E-02 6.86029E-02 8.38386E-04-1.41947E-01-9.94284E-07-9.94286E-07
 -1     20893 6.87093E-02 6.87093E-02 9.30569E-04-1.36856E-01-5.71704E-07-5.71705E-07
 -1     20894 4.44685E-02 8.71551E-02-3.73022E-04-1.34756E-01 1.17219E-07 1.37246E-07
 -1     20895 6.86234E-02 6.86234E-02 8.86323E-04-1.41947E-01-2.18410E-07-2.18411E-07
 -1     20900 6.87189E-02 6.87189E-02 9.52947E-04-1.36856E-01 3.07005E-15-1.45109E-14
 -1     20901 4.44685E-02 8.71551E-02-3.73022E-04-1.34756E-01-1.17219E-07-1.37246E-07
 -1     20902 6.86234E-02 6.86234E-02 8.86323E-04-1.41947E-01 2.18410E-07 2.18411E-07
 -1     20907 6.87093E-02 6.87093E-02 9.30569E-04-1.36856E-01 5.71704E-07 5.71705E-07
 -1     20908 4.44783E-02 8.71649E-02-3.50092E-04-1.34756E-01-5.02743E-07-5.88636E-07
 -1     20909 6.86029E-02 6.86029E-02 8.38386E-04-1.41947E-01 9.94284E-07 9.94286E-07
 -1     20914 6.86794E-02 6.86794E-02 8.60688E-04-1.36856E-01 1.79862E-06 1.79862E-06
 -1     20915 4.44990E-02 8.71856E-02-3.01828E-04-1.34756E-01-1.37395E-06-1.60869E-06
 -1     20916 6.85594E-02 6.85594E-02 7.36759E-04-1.41946E-01 2.87919E-06 2.87919E-06
 -1     20921 6.86252E-02 6.86252E-02 7.34420E-04-1.36856E-01 4.52985E-06 4.52985E-06
 -1     20922 4.45323E-02 8.72189E-02-2.24311E-04-1.34756E-01-3.27242E-06-3.83151E-06
 -1     20923 6.84877E-02 6.84877E-02 5.69872E-04-1.41946E-01 7.00324E-06 7.00324E-06
 -1     20928 6.85388E-02 6.85388E-02 5.33697E-04-1.36856E-01 9.82103E-06 9.82104E-06
 -1     20929 4.45778E-02 8.72644E-02-1.18662E-04-1.34756E-01-6.83579E-06-8.00368E-06
 -1     20930 6.83812E-02 6.83812E-02 3.22724E-04-1.41946E-01 1.50218E-05 1.50218E-05
 -1     20935 6.84021E-02 6.84021E-02 2.17392E-04-1.36856E-01 1.98832E-05 1.98832E-05
 -1     20939 1.10693E-01 2.61113E-02 2.17392E-04-1.30158E-01-2.27488E-05-1.65280E-05
 -1     20940 8.72644E-02 4.45778E-02-1.18662E-04-1.34756E-01 8.00368E-06 6.83579E-06
 -1     20941 1.12245E-01 2.45174E-02 3.22724E-04-1.34999E-01-1.71868E-05-1.24870E-05
 -1     20946 1.10830E-01 2.62480E-02 5.33697E-04-1.30158E-01-1.12365E-05-8.16377E-06
 -1     20947 8.72189E-02 4.45323E-02-2.24311E-04-1.34756E-01 3.83151E-06 3.27242E-06
 -1     20948 1.12352E-01 2.46239E-02 5.69872E-04-1.34999E-01-8.01256E-06-5.82147E-06
 -1     20953 1.10916E-01 2.63344E-02 7.34420E-04-1.30158E-01-5.18271E-06-3.76546E-06
 -1     20954 8.71856E-02 4.44990E-02-3.01828E-04-1.34756E-01 1.60869E-06 1.37395E-06
 -1     20955 1.12423E-01 2.46955E-02 7.36759E-04-1.34999E-01-3.29415E-06-2.39334E-06
 -1     20960 1.10970E-01 2.63886E-02 8.60688E-04-1.30158E-01-2.05784E-06-1.49511E-06
 -1     20961 8.71649E-02 4.44783E-02-3.50092E-04-1.34756E-01 5.88635E-07 5.02743E-07
 -1     20962 1.12467E-01 2.47390E-02 8.38386E-04-1.34999E-01-1.13758E-06-8.26504E-07
 -1     20967 1.11000E-01 2.64185E-02 9.30569E-04-1.30158E-01-6.54100E-07-4.75232E-07
 -1     20968 8.71551E-02 4.44685E-02-3.73022E-04-1.34756E-01 1.37246E-07 1.17219E-07
 -1     20969 1.12487E-01 2.47595E-02 8.86323E-04-1.34999E-01-2.49888E-07-1.81555E-07
 -1     20974 1.11010E-01 2.64281E-02 9.52947E-04-1.30158E-01-1.27500E-15-1.53383E-14
 -1     20975 8.71551E-02 4.44685E-02-3.73022E-04-1.34756E-01-1.37246E-07-1.17219E-07
 -1     20976 1.12487E-01 2.47595E-02 8.86323E-04-1.34999E-01 2.49888E-07 1.81555E-07
 -1     20981 1.11000E-01 2.64185E-02 9.30569E-04-1.30158E-01 6.54100E-07 4.75232E-07
 -1     20982 8.71649E-02 4.44783E-02-3.50092E-04-1.34756E-01-5.88635E-07-5.02743E-07
 -1     20983 1.12467E-01 2.47390E-02 8.38386E-04-1.34999E-01 1.13758E-06 8.26504E-07
 -1     20988 1.10970E-01 2.63886E-02 8.60688E-04-1.30158E-01 2.05784E-06 1.49511E-06
 -1     20989 8.71856E-02 4.44990E-02-3.01828E-04-1.34756E-01-1.60869E-06-1.37395E-06
 -1     20990 1.12423E-01 2.46955E-02 7.36759E-04-1.34999E-01 3.29415E-06 2.39334E-06
 -1     20995 1.10916E-01 2.63344E-02 7.34420E-04-1.30158E-01 5.18271E-06 3.76546E-06
 -1     20996 8.72189E-02 4.45323E-02-2.24311E-04-1.34756E-01-3.83151E-06-3.27242E-06
 -1     20997 1.12352E-01 2.46239E-02 5.69872E-04-1.34999E-01 8.01256E-06 5.82147E-06
 -1     21002 1.10830E-01 2.62480E-02 5.33697E-04-1.30158E-01 1.12365E-05 8.16377E-06
 -1     21003 8.72644E-02 4.45778E-02-1.18662E-04-1.34756E-01-8.00368E-06-6.83579E-06
 -1     21004 1.12245E-01 2.45174E-02 3.22724E-04-1.34999E-01 1.71868E-05 1.24870E-05
 -1     21009 1.10693E-01 2.61113E-02 2.17392E-04-1.30158E-01 2.27488E-05 1.65280E-05
 -1     21013 1.48844E-01-1.20397E-02 2.17392E-04-1.10719E-01-2.50543E-05-1.27658E-05
 -1     21014 1.27862E-01 3.98039E-03-1.18662E-04-1.21565E-01 8.97450E-06 5.49958E-06
 -1     21015 1.51815E-01-1.50527E-02 3.22724E-04-1.14837E-01-1.89286E-05-9.64461E-06
 -1     21020 1.48981E-01-1.19030E-02 5.33697E-04-1.10719E-01-1.23752E-05-6.30549E-06
 -1     21021 1.27816E-01 3.93487E-03-2.24311E-04-1.21565E-01 4.29626E-06 2.63275E-06
 -1     21022 1.51922E-01-1.49463E-02 5.69872E-04-1.14837E-01-8.82460E-06-4.49635E-06
 -1     21027 1.49067E-01-1.18166E-02 7.34420E-04-1.10719E-01-5.70795E-06-2.90834E-06
 -1     21028 1.27783E-01 3.90160E-03-3.01828E-04-1.21565E-01 1.80382E-06 1.10538E-06
 -1     21029 1.51993E-01-1.48747E-02 7.36759E-04-1.14837E-01-3.62800E-06-1.84855E-06
 -1     21034 1.49121E-01-1.17625E-02 8.60688E-04-1.10719E-01-2.26639E-06-1.15478E-06
 -1     21035 1.27762E-01 3.88094E-03-3.50092E-04-1.21565E-01 6.60036E-07 4.04470E-07
 -1     21036 1.52037E-01-1.48312E-02 8.38386E-04-1.14837E-01-1.25287E-06-6.38369E-07
 -1     21041 1.49151E-01-1.17326E-02 9.30569E-04-1.10719E-01-7.20391E-07-3.67056E-07
 -1     21042 1.27752E-01 3.87115E-03-3.73022E-04-1.21565E-01 1.53894E-07 9.43059E-08
 -1     21043 1.52058E-01-1.48107E-02 8.86323E-04-1.14837E-01-2.75214E-07-1.40228E-07
 -1     21048 1.49161E-01-1.17231E-02 9.52947E-04-1.10719E-01 1.67232E-14 1.87701E-14
 -1     21049 1.27752E-01 3.87115E-03-3.73022E-04-1.21565E-01-1.53894E-07-9.43059E-08
 -1     21050 1.52058E-01-1.48107E-02 8.86323E-04-1.14837E-01 2.75214E-07 1.40228E-07
 -1     21055 1.49151E-01-1.17326E-02 9.30569E-04-1.10719E-01 7.20391E-07 3.67056E-07
 -1     21056 1.27762E-01 3.88094E-03-3.50092E-04-1.21565E-01-6.60036E-07-4.04470E-07
 -1     21057 1.52037E-01-1.48312E-02 8.38386E-04-1.14837E-01 1.25287E-06 6.38369E-07
 -1     21062 1.49121E-01-1.17625E-02 8.60688E-04-1.10719E-01 2.26639E-06 1.15478E-06
 -1     21063 1.27783E-01 3.90160E-03-3.01828E-04-1.21565E-01-1.80382E-06-1.10538E-06
 -1     21064 1.51993E-01-1.48747E-02 7.36759E-04-1.14837E-01 3.62800E-06 1.84855E-06
 -1     21069 1.49067E-01-1.18166E-02 7.34420E-04-1.10719E-01 5.70795E-06 2.90834E-06
 -1     21070 1.27816E-01 3.93487E-03-2.24311E-04-1.21565E-01-4.29626E-06-2.63275E-06
 -1     21071 1.51922E-01-1.49463E-02 5.69872E-04-1.14837E-01 8.82460E-06 4.49635E-06
 -1     21076 1.48981E-01-1.19030E-02 5.33697E-04-1.10719E-01 1.23752E-05 6.30549E-06
 -1     21077 1.27862E-01 3.98039E-03-1.18662E-04-1.21565E-01-8.97450E-06-5.49958E-06
 -1     21078 1.51815E-01-1.50527E-02 3.22724E-04-1.14837E-01 1.89286E-05 9.64461E-06
 -1     21083 1.48844E-01-1.20397E-02 2.17392E-04-1.10719E-01 2.50543E-05 1.27658E-05
 -1     21087 1.79121E-01-4.23165E-02 2.17392E-04-8.04418E-02-2.67429E-05-8.68928E-06
 -1     21088 1.62396E-01-3.05538E-02-1.18662E-04-9.64749E-02 9.72433E-06 4.02795E-06
 -1     21089 1.83218E-01-4.64557E-02 3.22724E-04-8.34339E-02-2.02043E-05-6.56479E-06
 -1     21094 1.79257E-01-4.21798E-02 5.33697E-04-8.04418E-02-1.32093E-05-4.29195E-06
 -1     21095 1.62350E-01-3.05993E-02-2.24311E-04-9.64749E-02 4.65522E-06 1.92825E-06
 -1     21096 1.83325E-01-4.63493E-02 5.69872E-04-8.34340E-02-9.41933E-06-3.06053E-06
 -1     21101 1.79344E-01-4.20935E-02 7.34420E-04-8.04419E-02-6.09264E-06-1.97962E-06
 -1     21102 1.62317E-01-3.06326E-02-3.01828E-04-9.64748E-02 1.95453E-06 8.09592E-07
 -1     21103 1.83397E-01-4.62777E-02 7.36759E-04-8.34341E-02-3.87251E-06-1.25825E-06
 -1     21108 1.79398E-01-4.20394E-02 8.60688E-04-8.04419E-02-2.41914E-06-7.86025E-07
 -1     21109 1.62296E-01-3.06532E-02-3.50092E-04-9.64748E-02 7.15183E-07 2.96237E-07
 -1     21110 1.83440E-01-4.62343E-02 8.38386E-04-8.34341E-02-1.33731E-06-4.34518E-07
 -1     21115 1.79428E-01-4.20095E-02 9.30569E-04-8.04420E-02-7.68941E-07-2.49844E-07
 -1     21116 1.62287E-01-3.06630E-02-3.73022E-04-9.64748E-02 1.66752E-07 6.90704E-08
 -1     21117 1.83461E-01-4.62138E-02 8.86323E-04-8.34341E-02-2.93761E-07-9.54488E-08
 -1     21122 1.79438E-01-4.20000E-02 9.52947E-04-8.04420E-02 2.57841E-14 1.44422E-14
 -1     21123 1.62287E-01-3.06630E-02-3.73022E-04-9.64748E-02-1.66752E-07-6.90704E-08
 -1     21124 1.83461E-01-4.62138E-02 8.86323E-04-8.34341E-02 2.93761E-07 9.54488E-08
 -1     21129 1.79428E-01-4.20095E-02 9.30569E-04-8.04420E-02 7.68941E-07 2.49844E-07
 -1     21130 1.62296E-01-3.06532E-02-3.50092E-04-9.64748E-02-7.15183E-07-2.96237E-07
 -1     21131 1.83440E-01-4.62343E-02 8.38386E-04-8.34341E-02 1.33731E-06 4.34518E-07
 -1     21136 1.79398E-01-4.20394E-02 8.60688E-04-8.04419E-02 2.41914E-06 7.86025E-07
 -1     21137 1.62317E-01-3.06326E-02-3.01828E-04-9.64748E-02-1.95453E-06-8.09592E-07
 -1     21138 1.83397E-01-4.62777E-02 7.36759E-04-8.34341E-02 3.87251E-06 1.25825E-06
 -1     21143 1.79344E-01-4.20935E-02 7.34420E-04-8.04419E-02 6.09264E-06 1.97962E-06
 -1     21144 1.62350E-01-3.05993E-02-2.24311E-04-9.64749E-02-4.65522E-06-1.92825E-06
 -1     21145 1.83325E-01-4.63493E-02 5.69872E-04-8.34340E-02 9.41933E-06 3.06053E-06
 -1     21150 1.79257E-01-4.21798E-02 5.33697E-04-8.04418E-02 1.32093E-05 4.29195E-06
 -1     21151 1.62396E-01-3.05538E-02-1.18662E-04-9.64749E-02-9.72433E-06-4.02795E-06
 -1     21152 1.83218E-01-4.64557E-02 3.22724E-04-8.34339E-02 2.02043E-05 6.56479E-06
 -1     21157 1.79121E-01-4.23165E-02 2.17392E-04-8.04418E-02 2.67429E-05 8.68928E-06
 -1     21161 1.98560E-01-6.17554E-02 2.17392E-04-4.22907E-02-2.77729E-05-4.39880E-06
 -1     21162 1.87487E-01-5.56444E-02-1.18662E-04-6.19407E-02 1.02347E-05 2.45714E-06
 -1     21163 2.03380E-01-6.66177E-02 3.22724E-04-4.38638E-02-2.09825E-05-3.32331E-06
 -1     21168 1.98696E-01-6.16188E-02 5.33697E-04-4.22908E-02-1.37180E-05-2.17273E-06
 -1     21169 1.87441E-01-5.56899E-02-2.24311E-04-6.19407E-02 4.89955E-06 1.17628E-06
 -1     21170 2.03487E-01-6.65113E-02 5.69872E-04-4.38638E-02-9.78214E-06-1.54934E-06
 -1     21175 1.98783E-01-6.15324E-02 7.34420E-04-4.22908E-02-6.32731E-06-1.00215E-06
 -1     21176 1.87408E-01-5.57231E-02-3.01828E-04-6.19407E-02 2.05711E-06 4.93871E-07
 -1     21177 2.03559E-01-6.64397E-02 7.36759E-04-4.38639E-02-4.02166E-06-6.36972E-07
 -1     21182 1.98837E-01-6.14783E-02 8.60688E-04-4.22908E-02-2.51231E-06-3.97915E-07
 -1     21183 1.87387E-01-5.57438E-02-3.50092E-04-6.19406E-02 7.52719E-07 1.80713E-07
 -1     21184 2.03602E-01-6.63963E-02 8.38386E-04-4.38639E-02-1.38882E-06-2.19970E-07
 -1     21189 1.98867E-01-6.14485E-02 9.30569E-04-4.22908E-02-7.98558E-07-1.26481E-07
 -1     21190 1.87377E-01-5.57536E-02-3.73022E-04-6.19406E-02 1.75503E-07 4.21350E-08
 -1     21191 2.03623E-01-6.63759E-02 8.86323E-04-4.38639E-02-3.05076E-07-4.83201E-08
 -1     21196 1.98877E-01-6.14389E-02 9.52947E-04-4.22908E-02-7.74587E-15 1.21123E-14
 -1     21197 1.87377E-01-5.57536E-02-3.73022E-04-6.19406E-02-1.75503E-07-4.21349E-08
 -1     21198 2.03623E-01-6.63759E-02 8.86323E-04-4.38639E-02 3.05076E-07 4.83201E-08
 -1     21203 1.98867E-01-6.14485E-02 9.30569E-04-4.22908E-02 7.98558E-07 1.26481E-07
 -1     21204 1.87387E-01-5.57438E-02-3.50092E-04-6.19406E-02-7.52719E-07-1.80713E-07
 -1     21205 2.03602E-01-6.63963E-02 8.38386E-04-4.38639E-02 1.38882E-06 2.19970E-07
 -1     21210 1.98837E-01-6.14783E-02 8.60688E-04-4.22908E-02 2.51231E-06 3.97915E-07
 -1     21211 1.87408E-01-5.57231E-02-3.01828E-04-6.19407E-02-2.05711E-06-4.93871E-07
 -1     21212 2.03559E-01-6.64397E-02 7.36759E-04-4.38639E-02 4.02166E-06 6.36972E-07
 -1     21217 1.98783E-01-6.15324E-02 7.34420E-04-4.22908E-02 6.32731E-06 1.00215E-06
 -1     21218 1.87441E-01-5.56899E-02-2.24311E-04-6.19407E-02-4.89955E-06-1.17628E-06
 -1     21219 2.03487E-01-6.65113E-02 5.69872E-04-4.38638E-02 9.78214E-06 1.54934E-06
 -1     21224 1.98696E-01-6.16188E-02 5.33697E-04-4.22908E-02 1.37180E-05 2.17273E-06
 -1     21225 1.87487E-01-5.56444E-02-1.18662E-04-6.19407E-02-1.02347E-05-2.45714E-06
 -1     21226 2.03380E-01-6.66177E-02 3.22724E-04-4.38638E-02 2.09825E-05 3.32331E-06
 -1     21231 1.98560E-01-6.17554E-02 2.17392E-04-4.22907E-02 2.77729E-05 4.39880E-06
 -1     21235 2.00677E-01-6.88353E-02-1.18662E-04-2.13433E-02 1.04931E-05 8.25825E-07
 -1     21239 2.00632E-01-6.88808E-02-2.24311E-04-2.13433E-02 5.02324E-06 3.95339E-07
 -1     21243 2.00599E-01-6.89140E-02-3.01828E-04-2.13433E-02 2.10905E-06 1.65987E-07
 -1     21247 2.00578E-01-6.89346E-02-3.50092E-04-2.13433E-02 7.71721E-07 6.07369E-08
 -1     21251 2.00568E-01-6.89444E-02-3.73022E-04-2.13433E-02 1.79934E-07 1.41615E-08
 -1     21255 2.00568E-01-6.89444E-02-3.73022E-04-2.13433E-02-1.79934E-07-1.41615E-08
 -1     21259 2.00578E-01-6.89346E-02-3.50092E-04-2.13433E-02-7.71721E-07-6.07369E-08
 -1     21263 2.00599E-01-6.89140E-02-3.01828E-04-2.13433E-02-2.10905E-06-1.65987E-07
 -1     21267 2.00632E-01-6.88808E-02-2.24311E-04-2.13433E-02-5.02324E-06-3.95339E-07
 -1     21271 2.00677E-01-6.88353E-02-1.18662E-04-2.13433E-02-1.04931E-05-8.25825E-07
 -1     21277-5.30628E-02 1.89614E-01 1.94052E-04-3.94253E-02-4.13437E-06-2.61034E-05
 -1     21278-5.96580E-02 1.91594E-01-1.08115E-04-1.98972E-02 7.84343E-07 9.96603E-06
 -1     21279-5.74284E-02 1.93952E-01 2.90568E-04-4.08392E-02-3.16120E-06-1.99590E-05
 -1     21284-5.29398E-02 1.89737E-01 4.78564E-04-3.94253E-02-2.11673E-06-1.33645E-05
 -1     21285-5.96994E-02 1.91552E-01-2.04370E-04-1.98972E-02 3.90559E-07 4.96252E-06
 -1     21286-5.73320E-02 1.94048E-01 5.14419E-04-4.08392E-02-1.53873E-06-9.71518E-06
 -1     21291-5.28612E-02 1.89816E-01 6.61063E-04-3.94253E-02-1.02354E-06-6.46236E-06
 -1     21292-5.97298E-02 1.91522E-01-2.75249E-04-1.98972E-02 1.74509E-07 2.21734E-06
 -1     21293-5.72666E-02 1.94114E-01 6.66693E-04-4.08393E-02-6.76450E-07-4.27094E-06
 -1     21298-5.28116E-02 1.89866E-01 7.76768E-04-3.94254E-02-4.37467E-07-2.76206E-06
 -1     21299-5.97488E-02 1.91502E-01-3.19602E-04-1.98971E-02 6.93557E-08 8.81248E-07
 -1     21300-5.72267E-02 1.94154E-01 7.59999E-04-4.08393E-02-2.58205E-07-1.63024E-06
 -1     21305-5.27841E-02 1.89894E-01 8.41146E-04-3.94254E-02-1.52451E-07-9.62539E-07
 -1     21306-5.97578E-02 1.91493E-01-3.40749E-04-1.98971E-02 1.75559E-08 2.23068E-07
 -1     21307-5.72079E-02 1.94173E-01 8.04190E-04-4.08393E-02-6.31609E-08-3.98782E-07
 -1     21312-5.27753E-02 1.89902E-01 8.61818E-04-3.94254E-02 4.59899E-15 5.70056E-15
 -1     21313-5.97578E-02 1.91493E-01-3.40749E-04-1.98971E-02-1.75559E-08-2.23068E-07
 -1     21314-5.72079E-02 1.94173E-01 8.04190E-04-4.08393E-02 6.31609E-08 3.98782E-07
 -1     21319-5.27841E-02 1.89894E-01 8.41146E-04-3.94254E-02 1.52451E-07 9.62539E-07
 -1     21320-5.97488E-02 1.91502E-01-3.19602E-04-1.98971E-02-6.93557E-08-8.81248E-07
 -1     21321-5.72267E-02 1.94154E-01 7.59999E-04-4.08393E-02 2.58205E-07 1.63024E-06
 -1     21326-5.28116E-02 1.89866E-01 7.76768E-04-3.94254E-02 4.37467E-07 2.76206E-06
 -1     21327-5.97298E-02 1.91522E-01-2.75249E-04-1.98972E-02-1.74509E-07-2.21734E-06
 -1     21328-5.72666E-02 1.94114E-01 6.66693E-04-4.08393E-02 6.76450E-07 4.27094E-06
 -1     21333-5.28612E-02 1.89816E-01 6.61063E-04-3.94253E-02 1.02354E-06 6.46236E-06
 -1     21334-5.96994E-02 1.91552E-01-2.04370E-04-1.98972E-02-3.90559E-07-4.96252E-06
 -1     21335-5.73320E-02 1.94048E-01 5.14419E-04-4.08392E-02 1.53873E-06 9.71518E-06
 -1     21340-5.29398E-02 1.89737E-01 4.78564E-04-3.94253E-02 2.11673E-06 1.33645E-05
 -1     21341-5.96580E-02 1.91594E-01-1.08115E-04-1.98972E-02-7.84343E-07-9.96603E-06
 -1     21342-5.74284E-02 1.93952E-01 2.90568E-04-4.08392E-02 3.16120E-06 1.99590E-05
 -1     21347-5.30628E-02 1.89614E-01 1.94052E-04-3.94253E-02 4.13437E-06 2.61034E-05
 -1     21351-3.49409E-02 1.71493E-01 1.94052E-04-7.49914E-02-8.16693E-06-2.51352E-05
 -1     21352-4.73608E-02 1.79296E-01-1.08115E-04-5.77438E-02 2.33372E-06 9.72063E-06
 -1     21353-3.86567E-02 1.75180E-01 2.90568E-04-7.76808E-02-6.24456E-06-1.92188E-05
 -1     21358-3.48180E-02 1.71616E-01 4.78564E-04-7.49914E-02-4.18135E-06-1.28689E-05
 -1     21359-4.74023E-02 1.79255E-01-2.04370E-04-5.77438E-02 1.16206E-06 4.84033E-06
 -1     21360-3.85602E-02 1.75277E-01 5.14419E-04-7.76808E-02-3.03958E-06-9.35486E-06
 -1     21365-3.47394E-02 1.71694E-01 6.61063E-04-7.49914E-02-2.02187E-06-6.22268E-06
 -1     21366-4.74327E-02 1.79224E-01-2.75249E-04-5.77438E-02 5.19229E-07 2.16274E-06
 -1     21367-3.84949E-02 1.75342E-01 6.66693E-04-7.76809E-02-1.33624E-06-4.11253E-06
 -1     21372-3.46898E-02 1.71744E-01 7.76768E-04-7.49915E-02-8.64162E-07-2.65962E-06
 -1     21373-4.74517E-02 1.79205E-01-3.19602E-04-5.77438E-02 2.06359E-07 8.59548E-07
 -1     21374-3.84550E-02 1.75382E-01 7.59999E-04-7.76809E-02-5.10052E-07-1.56978E-06
 -1     21379-3.46623E-02 1.71772E-01 8.41146E-04-7.49915E-02-3.01148E-07-9.26840E-07
 -1     21380-4.74607E-02 1.79196E-01-3.40749E-04-5.77438E-02 5.22353E-08 2.17576E-07
 -1     21381-3.84361E-02 1.75401E-01 8.04190E-04-7.76809E-02-1.24766E-07-3.83992E-07
 -1     21386-3.46534E-02 1.71781E-01 8.61818E-04-7.49915E-02 1.09998E-15-1.66420E-14
 -1     21387-4.74607E-02 1.79196E-01-3.40749E-04-5.77438E-02-5.22353E-08-2.17576E-07
 -1     21388-3.84361E-02 1.75401E-01 8.04190E-04-7.76809E-02 1.24766E-07 3.83992E-07
 -1     21393-3.46623E-02 1.71772E-01 8.41146E-04-7.49915E-02 3.01148E-07 9.26840E-07
 -1     21394-4.74517E-02 1.79205E-01-3.19602E-04-5.77438E-02-2.06359E-07-8.59548E-07
 -1     21395-3.84550E-02 1.75382E-01 7.59999E-04-7.76809E-02 5.10052E-07 1.56978E-06
 -1     21400-3.46898E-02 1.71744E-01 7.76768E-04-7.49915E-02 8.64162E-07 2.65962E-06
 -1     21401-4.74327E-02 1.79224E-01-2.75249E-04-5.77438E-02-5.19229E-07-2.16274E-06
 -1     21402-3.84949E-02 1.75342E-01 6.66693E-04-7.76809E-02 1.33624E-06 4.11253E-06
 -1     21407-3.47394E-02 1.71694E-01 6.61063E-04-7.49914E-02 2.02187E-06 6.22268E-06
 -1     21408-4.74023E-02 1.79255E-01-2.04370E-04-5.77438E-02-1.16206E-06-4.84033E-06
 -1     21409-3.85602E-02 1.75277E-01 5.14419E-04-7.76808E-02 3.03958E-06 9.35486E-06
 -1     21414-3.48180E-02 1.71616E-01 4.78564E-04-7.49914E-02 4.18135E-06 1.28689E-05
 -1     21415-4.73608E-02 1.79296E-01-1.08115E-04-5.77438E-02-2.33372E-06-9.72063E-06
 -1     21416-3.86567E-02 1.75180E-01 2.90568E-04-7.76808E-02 6.24456E-06 1.92188E-05
 -1     21421-3.49409E-02 1.71493E-01 1.94052E-04-7.49914E-02 8.16693E-06 2.51352E-05
 -1     21425-6.71554E-03 1.43267E-01 1.94052E-04-1.03217E-01-1.19984E-05-2.35482E-05
 -1     21426-2.39703E-02 1.55906E-01-1.08115E-04-8.99381E-02 3.82563E-06 9.23588E-06
 -1     21427-9.41906E-03 1.45942E-01 2.90568E-04-1.06918E-01-9.17416E-06-1.80053E-05
 -1     21432-6.59255E-03 1.43390E-01 4.78564E-04-1.03217E-01-6.14300E-06-1.20563E-05
 -1     21433-2.40118E-02 1.55864E-01-2.04370E-04-8.99381E-02 1.90495E-06 4.59895E-06
 -1     21434-9.32259E-03 1.46039E-01 5.14419E-04-1.06918E-01-4.46558E-06-8.76419E-06
 -1     21439-6.51398E-03 1.43469E-01 6.61063E-04-1.03217E-01-2.97042E-06-5.82978E-06
 -1     21440-2.40422E-02 1.55834E-01-2.75249E-04-8.99381E-02 8.51164E-07 2.05489E-06
 -1     21441-9.25723E-03 1.46105E-01 6.66693E-04-1.06919E-01-1.96313E-06-3.85287E-06
 -1     21446-6.46436E-03 1.43519E-01 7.76768E-04-1.03217E-01-1.26958E-06-2.49169E-06
 -1     21447-2.40612E-02 1.55815E-01-3.19602E-04-8.99380E-02 3.38282E-07 8.16684E-07
 -1     21448-9.21729E-03 1.46145E-01 7.59999E-04-1.06919E-01-7.49340E-07-1.47066E-06
 -1     21453-6.43681E-03 1.43546E-01 8.41146E-04-1.03217E-01-4.42431E-07-8.68319E-07
 -1     21454-2.40702E-02 1.55806E-01-3.40749E-04-8.99380E-02 8.56285E-08 2.06726E-07
 -1     21455-9.19841E-03 1.46163E-01 8.04190E-04-1.06919E-01-1.83300E-07-3.59747E-07
 -1     21460-6.42797E-03 1.43555E-01 8.61818E-04-1.03217E-01 2.15220E-14-7.36423E-16
 -1     21461-2.40702E-02 1.55806E-01-3.40749E-04-8.99380E-02-8.56285E-08-2.06726E-07
 -1     21462-9.19841E-03 1.46163E-01 8.04190E-04-1.06919E-01 1.83300E-07 3.59747E-07
 -1     21467-6.43681E-03 1.43546E-01 8.41146E-04-1.03217E-01 4.42431E-07 8.68319E-07
 -1     21468-2.40612E-02 1.55815E-01-3.19602E-04-8.99380E-02-3.38282E-07-8.16684E-07
 -1     21469-9.21729E-03 1.46145E-01 7.59999E-04-1.06919E-01 7.49340E-07 1.47066E-06
 -1     21474-6.46436E-03 1.43519E-01 7.76768E-04-1.03217E-01 1.26958E-06 2.49169E-06
 -1     21475-2.40422E-02 1.55834E-01-2.75249E-04-8.99381E-02-8.51164E-07-2.05489E-06
 -1     21476-9.25723E-03 1.46105E-01 6.66693E-04-1.06919E-01 1.96313E-06 3.85287E-06
 -1     21481-6.51398E-03 1.43469E-01 6.61063E-04-1.03217E-01 2.97042E-06 5.82978E-06
 -1     21482-2.40118E-02 1.55864E-01-2.04370E-04-8.99381E-02-1.90495E-06-4.59895E-06
 -1     21483-9.32259E-03 1.46039E-01 5.14419E-04-1.06918E-01 4.46558E-06 8.76419E-06
 -1     21488-6.59255E-03 1.43390E-01 4.78564E-04-1.03217E-01 6.14300E-06 1.20563E-05
 -1     21489-2.39703E-02 1.55906E-01-1.08115E-04-8.99381E-02-3.82563E-06-9.23588E-06
 -1     21490-9.41906E-03 1.45942E-01 2.90568E-04-1.06918E-01 9.17416E-06 1.80053E-05
 -1     21495-6.71554E-03 1.43267E-01 1.94052E-04-1.03217E-01 1.19984E-05 2.35482E-05
 -1     21499 2.88505E-02 1.07701E-01 1.94052E-04-1.21339E-01-1.55344E-05-2.13813E-05
 -1     21500 8.22399E-03 1.23712E-01-1.08115E-04-1.13329E-01 5.22334E-06 8.52371E-06
 -1     21501 2.74225E-02 1.09101E-01 2.90568E-04-1.25690E-01-1.18779E-05-1.63485E-05
 -1     21506 2.89735E-02 1.07824E-01 4.78564E-04-1.21339E-01-7.95339E-06-1.09469E-05
 -1     21507 8.18250E-03 1.23670E-01-2.04370E-04-1.13329E-01 2.60093E-06 4.24433E-06
 -1     21508 2.75190E-02 1.09197E-01 5.14419E-04-1.25690E-01-5.78162E-06-7.95771E-06
 -1     21513 2.90521E-02 1.07903E-01 6.61063E-04-1.21339E-01-3.84583E-06-5.29333E-06
 -1     21514 8.15205E-03 1.23640E-01-2.75249E-04-1.13329E-01 1.16214E-06 1.89644E-06
 -1     21515 2.75844E-02 1.09263E-01 6.66693E-04-1.25690E-01-2.54169E-06-3.49833E-06
 -1     21520 2.91018E-02 1.07952E-01 7.76768E-04-1.21339E-01-1.64373E-06-2.26241E-06
 -1     21521 8.13306E-03 1.23621E-01-3.19602E-04-1.13329E-01 4.61875E-07 7.53710E-07
 -1     21522 2.76244E-02 1.09303E-01 7.59999E-04-1.25690E-01-9.70177E-07-1.33533E-06
 -1     21527 2.91293E-02 1.07980E-01 8.41146E-04-1.21339E-01-5.72819E-07-7.88417E-07
 -1     21528 8.12402E-03 1.23612E-01-3.40749E-04-1.13329E-01 1.16913E-07 1.90785E-07
 -1     21529 2.76432E-02 1.09322E-01 8.04190E-04-1.25690E-01-2.37320E-07-3.26643E-07
 -1     21534 2.91382E-02 1.07989E-01 8.61818E-04-1.21339E-01 1.13940E-14 2.62356E-16
 -1     21535 8.12402E-03 1.23612E-01-3.40749E-04-1.13329E-01-1.16913E-07-1.90785E-07
 -1     21536 2.76432E-02 1.09322E-01 8.04190E-04-1.25690E-01 2.37320E-07 3.26643E-07
 -1     21541 2.91293E-02 1.07980E-01 8.41146E-04-1.21339E-01 5.72819E-07 7.88417E-07
 -1     21542 8.13306E-03 1.23621E-01-3.19602E-04-1.13329E-01-4.61875E-07-7.53710E-07
 -1     21543 2.76244E-02 1.09303E-01 7.59999E-04-1.25690E-01 9.70177E-07 1.33533E-06
 -1     21548 2.91018E-02 1.07952E-01 7.76768E-04-1.21339E-01 1.64373E-06 2.26241E-06
 -1     21549 8.15205E-03 1.23640E-01-2.75249E-04-1.13329E-01-1.16214E-06-1.89644E-06
 -1     21550 2.75844E-02 1.09263E-01 6.66693E-04-1.25690E-01 2.54169E-06 3.49833E-06
 -1     21555 2.90521E-02 1.07903E-01 6.61063E-04-1.21339E-01 3.84583E-06 5.29333E-06
 -1     21556 8.18250E-03 1.23670E-01-2.04370E-04-1.13329E-01-2.60093E-06-4.24433E-06
 -1     21557 2.75190E-02 1.09197E-01 5.14419E-04-1.25690E-01 5.78162E-06 7.95771E-06
 -1     21562 2.89735E-02 1.07824E-01 4.78564E-04-1.21339E-01 7.95339E-06 1.09469E-05
 -1     21563 8.22399E-03 1.23712E-01-1.08115E-04-1.13329E-01-5.22334E-06-8.52371E-06
 -1     21564 2.74225E-02 1.09101E-01 2.90568E-04-1.25690E-01 1.18779E-05 1.63485E-05
 -1     21569 2.88505E-02 1.07701E-01 1.94052E-04-1.21339E-01 1.55344E-05 2.13813E-05
 -1     21573 6.82758E-02 6.82758E-02 1.94052E-04-1.27583E-01-1.86879E-05-1.86879E-05
 -1     21574 4.60707E-02 8.58650E-02-1.08115E-04-1.25626E-01 6.49243E-06 7.60166E-06
 -1     21575 6.82617E-02 6.82617E-02 2.90568E-04-1.32158E-01-1.42891E-05-1.42891E-05
 -1     21580 6.83988E-02 6.83988E-02 4.78564E-04-1.27583E-01-9.56795E-06-9.56795E-06
 -1     21581 4.60291E-02 8.58235E-02-2.04370E-04-1.25626E-01 3.23287E-06 3.78520E-06
 -1     21582 6.83582E-02 6.83582E-02 5.14419E-04-1.32158E-01-6.95530E-06-6.95530E-06
 -1     21587 6.84775E-02 6.84775E-02 6.61063E-04-1.27583E-01-4.62654E-06-4.62654E-06
 -1     21588 4.59987E-02 8.57930E-02-2.75249E-04-1.25626E-01 1.44450E-06 1.69129E-06
 -1     21589 6.84236E-02 6.84236E-02 6.66693E-04-1.32159E-01-3.05765E-06-3.05765E-06
 -1     21594 6.85271E-02 6.85271E-02 7.76768E-04-1.27583E-01-1.97741E-06-1.97742E-06
 -1     21595 4.59797E-02 8.57740E-02-3.19602E-04-1.25626E-01 5.74094E-07 6.72178E-07
 -1     21596 6.84636E-02 6.84636E-02 7.59999E-04-1.32159E-01-1.16712E-06-1.16712E-06
 -1     21601 6.85547E-02 6.85547E-02 8.41146E-04-1.27583E-01-6.89101E-07-6.89102E-07
 -1     21602 4.59706E-02 8.57649E-02-3.40749E-04-1.25626E-01 1.45319E-07 1.70147E-07
 -1     21603 6.84825E-02 6.84825E-02 8.04190E-04-1.32159E-01-2.85496E-07-2.85497E-07
 -1     21608 6.85636E-02 6.85636E-02 8.61818E-04-1.27583E-01-1.60982E-14 4.34200E-14
 -1     21609 4.59706E-02 8.57649E-02-3.40749E-04-1.25626E-01-1.45319E-07-1.70147E-07
 -1     21610 6.84825E-02 6.84825E-02 8.04190E-04-1.32159E-01 2.85496E-07 2.85497E-07
 -1     21615 6.85547E-02 6.85547E-02 8.41146E-04-1.27583E-01 6.89101E-07 6.89102E-07
 -1     21616 4.59797E-02 8.57740E-02-3.19602E-04-1.25626E-01-5.74094E-07-6.72178E-07
 -1     21617 6.84636E-02 6.84636E-02 7.59999E-04-1.32159E-01 1.16712E-06 1.16712E-06
 -1     21622 6.85271E-02 6.85271E-02 7.76768E-04-1.27583E-01 1.97741E-06 1.97742E-06
 -1     21623 4.59987E-02 8.57930E-02-2.75249E-04-1.25626E-01-1.44450E-06-1.69129E-06
 -1     21624 6.84236E-02 6.84236E-02 6.66693E-04-1.32159E-01 3.05765E-06 3.05765E-06
 -1     21629 6.84775E-02 6.84775E-02 6.61063E-04-1.27583E-01 4.62654E-06 4.62654E-06
 -1     21630 4.60291E-02 8.58235E-02-2.04370E-04-1.25626E-01-3.23287E-06-3.78520E-06
 -1     21631 6.83582E-02 6.83582E-02 5.14419E-04-1.32158E-01 6.95530E-06 6.95530E-06
 -1     21636 6.83988E-02 6.83988E-02 4.78564E-04-1.27583E-01 9.56795E-06 9.56795E-06
 -1     21637 4.60707E-02 8.58650E-02-1.08115E-04-1.25626E-01-6.49243E-06-7.60166E-06
 -1     21638 6.82617E-02 6.82617E-02 2.90568E-04-1.32158E-01 1.42891E-05 1.42891E-05
 -1     21643 6.82758E-02 6.82758E-02 1.94052E-04-1.27583E-01 1.86879E-05 1.86879E-05
 -1     21647 1.07701E-01 2.88505E-02 1.94052E-04-1.21339E-01-2.13813E-05-1.55344E-05
 -1     21648 8.58650E-02 4.60707E-02-1.08115E-04-1.25626E-01 7.60166E-06 6.49243E-06
 -1     21649 1.09101E-01 2.74225E-02 2.90568E-04-1.25690E-01-1.63485E-05-1.18779E-05
 -1     21654 1.07824E-01 2.89735E-02 4.78564E-04-1.21339E-01-1.09469E-05-7.95339E-06
 -1     21655 8.58235E-02 4.60291E-02-2.04370E-04-1.25626E-01 3.78520E-06 3.23287E-06
 -1     21656 1.09197E-01 2.75190E-02 5.14419E-04-1.25690E-01-7.95771E-06-5.78162E-06
 -1     21661 1.07903E-01 2.90521E-02 6.61063E-04-1.21339E-01-5.29333E-06-3.84583E-06
 -1     21662 8.57930E-02 4.59987E-02-2.75249E-04-1.25626E-01 1.69129E-06 1.44450E-06
 -1     21663 1.09263E-01 2.75844E-02 6.66693E-04-1.25690E-01-3.49833E-06-2.54169E-06
 -1     21668 1.07952E-01 2.91018E-02 7.76768E-04-1.21339E-01-2.26240E-06-1.64373E-06
 -1     21669 8.57740E-02 4.59797E-02-3.19602E-04-1.25626E-01 6.72177E-07 5.74095E-07
 -1     21670 1.09303E-01 2.76244E-02 7.59999E-04-1.25690E-01-1.33533E-06-9.70177E-07
 -1     21675 1.07980E-01 2.91293E-02 8.41146E-04-1.21339E-01-7.88417E-07-5.72819E-07
 -1     21676 8.57649E-02 4.59706E-02-3.40749E-04-1.25626E-01 1.70147E-07 1.45320E-07
 -1     21677 1.09322E-01 2.76432E-02 8.04190E-04-1.25690E-01-3.26643E-07-2.37320E-07
 -1     21682 1.07989E-01 2.91382E-02 8.61818E-04-1.21339E-01-1.30598E-14-2.35077E-14
 -1     21683 8.57649E-02 4.59706E-02-3.40749E-04-1.25626E-01-1.70147E-07-1.45320E-07
 -1     21684 1.09322E-01 2.76432E-02 8.04190E-04-1.25690E-01 3.26643E-07 2.37320E-07
 -1     21689 1.07980E-01 2.91293E-02 8.41146E-04-1.21339E-01 7.88417E-07 5.72819E-07
 -1     21690 8.57740E-02 4.59797E-02-3.19602E-04-1.25626E-01-6.72177E-07-5.74095E-07
 -1     21691 1.09303E-01 2.76244E-02 7.59999E-04-1.25690E-01 1.33533E-06 9.70177E-07
 -1     21696 1.07952E-01 2.91018E-02 7.76768E-04-1.21339E-01 2.26240E-06 1.64373E-06
 -1     21697 8.57930E-02 4.59987E-02-2.75249E-04-1.25626E-01-1.69129E-06-1.44450E-06
 -1     21698 1.09263E-01 2.75844E-02 6.66693E-04-1.25690E-01 3.49833E-06 2.54169E-06
 -1     21703 1.07903E-01 2.90521E-02 6.61063E-04-1.21339E-01 5.29333E-06 3.84583E-06
 -1     21704 8.58235E-02 4.60291E-02-2.04370E-04-1.25626E-01-3.78520E-06-3.23287E-06
 -1     21705 1.09197E-01 2.75190E-02 5.14419E-04-1.25690E-01 7.95771E-06 5.78162E-06
 -1     21710 1.07824E-01 2.89735E-02 4.78564E-04-1.21339E-01 1.09469E-05 7.95339E-06
 -1     21711 8.58650E-02 4.60707E-02-1.08115E-04-1.25626E-01-7.60166E-06-6.49243E-06
 -1     21712 1.09101E-01 2.74225E-02 2.90568E-04-1.25690E-01 1.63485E-05 1.18779E-05
 -1     21717 1.07701E-01 2.88505E-02 1.94052E-04-1.21339E-01 2.13813E-05 1.55344E-05
 -1     21721 1.43267E-01-6.71554E-03 1.94052E-04-1.03217E-01-2.35482E-05-1.19984E-05
 -1     21722 1.23712E-01 8.22399E-03-1.08115E-04-1.13329E-01 8.52371E-06 5.22334E-06
 -1     21723 1.45942E-01-9.41907E-03 2.90568E-04-1.06918E-01-1.80053E-05-9.17416E-06
 -1     21728 1.43390E-01-6.59255E-03 4.78564E-04-1.03217E-01-1.20563E-05-6.14300E-06
 -1     21729 1.23670E-01 8.18250E-03-2.04370E-04-1.13329E-01 4.24433E-06 2.60093E-06
 -1     21730 1.46039E-01-9.32259E-03 5.14419E-04-1.06918E-01-8.76419E-06-4.46557E-06
 -1     21735 1.43469E-01-6.51398E-03 6.61063E-04-1.03217E-01-5.82978E-06-2.97042E-06
 -1     21736 1.23640E-01 8.15205E-03-2.75249E-04-1.13329E-01 1.89644E-06 1.16214E-06
 -1     21737 1.46105E-01-9.25723E-03 6.66693E-04-1.06919E-01-3.85287E-06-1.96313E-06
 -1     21742 1.43519E-01-6.46436E-03 7.76768E-04-1.03217E-01-2.49169E-06-1.26958E-06
 -1     21743 1.23621E-01 8.13306E-03-3.19602E-04-1.13329E-01 7.53711E-07 4.61874E-07
 -1     21744 1.46145E-01-9.21729E-03 7.59999E-04-1.06919E-01-1.47066E-06-7.49338E-07
 -1     21749 1.43546E-01-6.43681E-03 8.41146E-04-1.03217E-01-8.68319E-07-4.42429E-07
 -1     21750 1.23612E-01 8.12401E-03-3.40749E-04-1.13329E-01 1.90785E-07 1.16913E-07
 -1     21751 1.46163E-01-9.19841E-03 8.04190E-04-1.06919E-01-3.59747E-07-1.83299E-07
 -1     21756 1.43555E-01-6.42797E-03 8.61818E-04-1.03217E-01 6.16754E-15-6.70964E-15
 -1     21757 1.23612E-01 8.12401E-03-3.40749E-04-1.13329E-01-1.90785E-07-1.16913E-07
 -1     21758 1.46163E-01-9.19841E-03 8.04190E-04-1.06919E-01 3.59747E-07 1.83299E-07
 -1     21763 1.43546E-01-6.43681E-03 8.41146E-04-1.03217E-01 8.68319E-07 4.42429E-07
 -1     21764 1.23621E-01 8.13306E-03-3.19602E-04-1.13329E-01-7.53711E-07-4.61874E-07
 -1     21765 1.46145E-01-9.21729E-03 7.59999E-04-1.06919E-01 1.47066E-06 7.49338E-07
 -1     21770 1.43519E-01-6.46436E-03 7.76768E-04-1.03217E-01 2.49169E-06 1.26958E-06
 -1     21771 1.23640E-01 8.15205E-03-2.75249E-04-1.13329E-01-1.89644E-06-1.16214E-06
 -1     21772 1.46105E-01-9.25723E-03 6.66693E-04-1.06919E-01 3.85287E-06 1.96313E-06
 -1     21777 1.43469E-01-6.51398E-03 6.61063E-04-1.03217E-01 5.82978E-06 2.97042E-06
 -1     21778 1.23670E-01 8.18250E-03-2.04370E-04-1.13329E-01-4.24433E-06-2.60093E-06
 -1     21779 1.46039E-01-9.32259E-03 5.14419E-04-1.06918E-01 8.76419E-06 4.46557E-06
 -1     21784 1.43390E-01-6.59255E-03 4.78564E-04-1.03217E-01 1.20563E-05 6.14300E-06
 -1     21785 1.23712E-01 8.22399E-03-1.08115E-04-1.13329E-01-8.52371E-06-5.22334E-06
 -1     21786 1.45942E-01-9.41907E-03 2.90568E-04-1.06918E-01 1.80053E-05 9.17416E-06
 -1     21791 1.43267E-01-6.71554E-03 1.94052E-04-1.03217E-01 2.35482E-05 1.19984E-05
 -1     21795 1.71493E-01-3.49409E-02 1.94052E-04-7.49914E-02-2.51352E-05-8.16693E-06
 -1     21796 1.55906E-01-2.39703E-02-1.08115E-04-8.99381E-02 9.23588E-06 3.82563E-06
 -1     21797 1.75180E-01-3.86567E-02 2.90568E-04-7.76808E-02-1.92188E-05-6.24456E-06
 -1     21802 1.71616E-01-3.48180E-02 4.78564E-04-7.49914E-02-1.28689E-05-4.18135E-06
 -1     21803 1.55864E-01-2.40118E-02-2.04370E-04-8.99381E-02 4.59895E-06 1.90495E-06
 -1     21804 1.75277E-01-3.85602E-02 5.14419E-04-7.76808E-02-9.35486E-06-3.03958E-06
 -1     21809 1.71694E-01-3.47394E-02 6.61063E-04-7.49914E-02-6.22268E-06-2.02187E-06
 -1     21810 1.55834E-01-2.40422E-02-2.75249E-04-8.99381E-02 2.05489E-06 8.51163E-07
 -1     21811 1.75342E-01-3.84949E-02 6.66693E-04-7.76809E-02-4.11253E-06-1.33624E-06
 -1     21816 1.71744E-01-3.46898E-02 7.76768E-04-7.49915E-02-2.65962E-06-8.64162E-07
 -1     21817 1.55815E-01-2.40612E-02-3.19602E-04-8.99380E-02 8.16685E-07 3.38281E-07
 -1     21818 1.75382E-01-3.84550E-02 7.59999E-04-7.76809E-02-1.56978E-06-5.10052E-07
 -1     21823 1.71772E-01-3.46623E-02 8.41146E-04-7.49915E-02-9.26840E-07-3.01148E-07
 -1     21824 1.55806E-01-2.40702E-02-3.40749E-04-8.99380E-02 2.06726E-07 8.56282E-08
 -1     21825 1.75401E-01-3.84361E-02 8.04190E-04-7.76809E-02-3.83992E-07-1.24766E-07
 -1     21830 1.71781E-01-3.46534E-02 8.61818E-04-7.49915E-02-5.52929E-15-8.96279E-15
 -1     21831 1.55806E-01-2.40702E-02-3.40749E-04-8.99380E-02-2.06726E-07-8.56282E-08
 -1     21832 1.75401E-01-3.84361E-02 8.04190E-04-7.76809E-02 3.83992E-07 1.24766E-07
 -1     21837 1.71772E-01-3.46623E-02 8.41146E-04-7.49915E-02 9.26840E-07 3.01148E-07
 -1     21838 1.55815E-01-2.40612E-02-3.19602E-04-8.99380E-02-8.16685E-07-3.38281E-07
 -1     21839 1.75382E-01-3.84550E-02 7.59999E-04-7.76809E-02 1.56978E-06 5.10052E-07
 -1     21844 1.71744E-01-3.46898E-02 7.76768E-04-7.49915E-02 2.65962E-06 8.64162E-07
 -1     21845 1.55834E-01-2.40422E-02-2.75249E-04-8.99381E-02-2.05489E-06-8.51163E-07
 -1     21846 1.75342E-01-3.84949E-02 6.66693E-04-7.76809E-02 4.11253E-06 1.33624E-06
 -1     21851 1.71694E-01-3.47394E-02 6.61063E-04-7.49914E-02 6.22268E-06 2.02187E-06
 -1     21852 1.55864E-01-2.40118E-02-2.04370E-04-8.99381E-02-4.59895E-06-1.90495E-06
 -1     21853 1.75277E-01-3.85602E-02 5.14419E-04-7.76808E-02 9.35486E-06 3.03958E-06
 -1     21858 1.71616E-01-3.48180E-02 4.78564E-04-7.49914E-02 1.28689E-05 4.18135E-06
 -1     21859 1.55906E-01-2.39703E-02-1.08115E-04-8.99381E-02-9.23588E-06-3.82563E-06
 -1     21860 1.75180E-01-3.86567E-02 2.90568E-04-7.76808E-02 1.92188E-05 6.24456E-06
 -1     21865 1.71493E-01-3.49409E-02 1.94052E-04-7.49914E-02 2.51352E-05 8.16693E-06
 -1     21869 1.89614E-01-5.30628E-02 1.94052E-04-3.94253E-02-2.61034E-05-4.13437E-06
 -1     21870 1.79296E-01-4.73608E-02-1.08115E-04-5.77438E-02 9.72063E-06 2.33372E-06
 -1     21871 1.93952E-01-5.74284E-02 2.90568E-04-4.08392E-02-1.99590E-05-3.16120E-06
 -1     21876 1.89737E-01-5.29398E-02 4.78564E-04-3.94253E-02-1.33645E-05-2.11674E-06
 -1     21877 1.79255E-01-4.74023E-02-2.04370E-04-5.77438E-02 4.84033E-06 1.16206E-06
 -1     21878 1.94048E-01-5.73320E-02 5.14419E-04-4.08392E-02-9.71518E-06-1.53874E-06
 -1     21883 1.89816E-01-5.28612E-02 6.61063E-04-3.94253E-02-6.46236E-06-1.02354E-06
 -1     21884 1.79224E-01-4.74327E-02-2.75249E-04-5.77438E-02 2.16274E-06 5.19230E-07
 -1     21885 1.94114E-01-5.72666E-02 6.66693E-04-4.08393E-02-4.27093E-06-6.76454E-07
 -1     21890 1.89866E-01-5.28116E-02 7.76768E-04-3.94254E-02-2.76206E-06-4.37471E-07
 -1     21891 1.79205E-01-4.74517E-02-3.19602E-04-5.77438E-02 8.59548E-07 2.06360E-07
 -1     21892 1.94154E-01-5.72267E-02 7.59999E-04-4.08393E-02-1.63024E-06-2.58208E-07
 -1     21897 1.89894E-01-5.27841E-02 8.41146E-04-3.94254E-02-9.62538E-07-1.52453E-07
 -1     21898 1.79196E-01-4.74607E-02-3.40749E-04-5.77438E-02 2.17576E-07 5.22356E-08
 -1     21899 1.94173E-01-5.72079E-02 8.04190E-04-4.08393E-02-3.98782E-07-6.31618E-08
 -1     21904 1.89902E-01-5.27753E-02 8.61818E-04-3.94254E-02-3.42552E-14 1.06168E-14
 -1     21905 1.79196E-01-4.74607E-02-3.40749E-04-5.77438E-02-2.17576E-07-5.22356E-08
 -1     21906 1.94173E-01-5.72079E-02 8.04190E-04-4.08393E-02 3.98782E-07 6.31618E-08
 -1     21911 1.89894E-01-5.27841E-02 8.41146E-04-3.94254E-02 9.62538E-07 1.52453E-07
 -1     21912 1.79205E-01-4.74517E-02-3.19602E-04-5.77438E-02-8.59548E-07-2.06360E-07
 -1     21913 1.94154E-01-5.72267E-02 7.59999E-04-4.08393E-02 1.63024E-06 2.58208E-07
 -1     21918 1.89866E-01-5.28116E-02 7.76768E-04-3.94254E-02 2.76206E-06 4.37471E-07
 -1     21919 1.79224E-01-4.74327E-02-2.75249E-04-5.77438E-02-2.16274E-06-5.19230E-07
 -1     21920 1.94114E-01-5.72666E-02 6.66693E-04-4.08393E-02 4.27093E-06 6.76454E-07
 -1     21925 1.89816E-01-5.28612E-02 6.61063E-04-3.94253E-02 6.46236E-06 1.02354E-06
 -1     21926 1.79255E-01-4.74023E-02-2.04370E-04-5.77438E-02-4.84033E-06-1.16206E-06
 -1     21927 1.94048E-01-5.73320E-02 5.14419E-04-4.08392E-02 9.71518E-06 1.53874E-06
 -1     21932 1.89737E-01-5.29398E-02 4.78564E-04-3.94253E-02 1.33645E-05 2.11674E-06
 -1     21933 1.79296E-01-4.73608E-02-1.08115E-04-5.77438E-02-9.72063E-06-2.33372E-06
 -1     21934 1.93952E-01-5.74284E-02 2.90568E-04-4.08392E-02 1.99590E-05 3.16120E-06
 -1     21939 1.89614E-01-5.30628E-02 1.94052E-04-3.94253E-02 2.61034E-05 4.13437E-06
 -1     21943 1.91594E-01-5.96580E-02-1.08115E-04-1.98972E-02 9.96603E-06 7.84345E-07
 -1     21947 1.91552E-01-5.96994E-02-2.04370E-04-1.98972E-02 4.96252E-06 3.90561E-07
 -1     21951 1.91522E-01-5.97298E-02-2.75249E-04-1.98972E-02 2.21734E-06 1.74511E-07
 -1     21955 1.91502E-01-5.97488E-02-3.19602E-04-1.98971E-02 8.81247E-07 6.93570E-08
 -1     21959 1.91493E-01-5.97578E-02-3.40749E-04-1.98971E-02 2.23068E-07 1.75563E-08
 -1     21963 1.91493E-01-5.97578E-02-3.40749E-04-1.98971E-02-2.23068E-07-1.75563E-08
 -1     21967 1.91502E-01-5.97488E-02-3.19602E-04-1.98971E-02-8.81247E-07-6.93570E-08
 -1     21971 1.91522E-01-5.97298E-02-2.75249E-04-1.98972E-02-2.21734E-06-1.74511E-07
 -1     21975 1.91552E-01-5.96994E-02-2.04370E-04-1.98972E-02-4.96252E-06-3.90561E-07
 -1     21979 1.91594E-01-5.96580E-02-1.08115E-04-1.98972E-02-9.96603E-06-7.84345E-07
 -1     21985-4.52236E-02 1.81549E-01 1.73781E-04-3.68415E-02-3.88932E-06-2.45562E-05
 -1     21986-5.13819E-02 1.83403E-01-9.86357E-05-1.85932E-02 7.45182E-07 9.46844E-06
 -1     21987-4.91580E-02 1.85466E-01 2.62291E-04-3.81170E-02-3.00678E-06-1.89841E-05
 -1     21992-4.51126E-02 1.81660E-01 4.30391E-04-3.68415E-02-2.05686E-06-1.29865E-05
 -1     21993-5.14198E-02 1.83365E-01-1.86460E-04-1.85931E-02 3.84342E-07 4.88352E-06
 -1     21994-4.90704E-02 1.85554E-01 4.65457E-04-3.81170E-02-1.52044E-06-9.59966E-06
 -1     21999-4.50411E-02 1.81732E-01 5.96613E-04-3.68415E-02-1.03577E-06-6.53961E-06
 -1     22000-5.14477E-02 1.83337E-01-2.51349E-04-1.85931E-02 1.80766E-07 2.29685E-06
 -1     22001-4.90107E-02 1.85614E-01 6.04590E-04-3.81170E-02-7.05819E-07-4.45637E-06
 -1     22006-4.49955E-02 1.81778E-01 7.02750E-04-3.68415E-02-4.68774E-07-2.95973E-06
 -1     22007-5.14651E-02 1.83320E-01-2.92139E-04-1.85931E-02 7.63461E-08 9.70070E-07
 -1     22008-4.89740E-02 1.85651E-01 6.90323E-04-3.81171E-02-2.89277E-07-1.82642E-06
 -1     22013-4.49701E-02 1.81803E-01 7.62089E-04-3.68416E-02-1.73890E-07-1.09790E-06
 -1     22014-5.14735E-02 1.83311E-01-3.11650E-04-1.85931E-02 2.03723E-08 2.58854E-07
 -1     22015-4.89566E-02 1.85668E-01 7.31076E-04-3.81171E-02-7.54854E-08-4.76596E-07
 -1     22020-4.49620E-02 1.81811E-01 7.81190E-04-3.68416E-02 1.12495E-14 3.30271E-14
 -1     22021-5.14735E-02 1.83311E-01-3.11650E-04-1.85931E-02-2.03723E-08-2.58854E-07
 -1     22022-4.89566E-02 1.85668E-01 7.31076E-04-3.81171E-02 7.54854E-08 4.76596E-07
 -1     22027-4.49701E-02 1.81803E-01 7.62089E-04-3.68416E-02 1.73890E-07 1.09790E-06
 -1     22028-5.14651E-02 1.83320E-01-2.92139E-04-1.85931E-02-7.63461E-08-9.70070E-07
 -1     22029-4.89740E-02 1.85651E-01 6.90323E-04-3.81171E-02 2.89277E-07 1.82642E-06
 -1     22034-4.49955E-02 1.81778E-01 7.02750E-04-3.68415E-02 4.68774E-07 2.95973E-06
 -1     22035-5.14477E-02 1.83337E-01-2.51349E-04-1.85931E-02-1.80766E-07-2.29685E-06
 -1     22036-4.90107E-02 1.85614E-01 6.04590E-04-3.81170E-02 7.05819E-07 4.45637E-06
 -1     22041-4.50411E-02 1.81732E-01 5.96613E-04-3.68415E-02 1.03577E-06 6.53961E-06
 -1     22042-5.14198E-02 1.83365E-01-1.86460E-04-1.85931E-02-3.84342E-07-4.88352E-06
 -1     22043-4.90704E-02 1.85554E-01 4.65457E-04-3.81170E-02 1.52044E-06 9.59966E-06
 -1     22048-4.51126E-02 1.81660E-01 4.30391E-04-3.68415E-02 2.05686E-06 1.29865E-05
 -1     22049-5.13819E-02 1.83403E-01-9.86357E-05-1.85932E-02-7.45182E-07-9.46844E-06
 -1     22050-4.91580E-02 1.85466E-01 2.62291E-04-3.81170E-02 3.00678E-06 1.89841E-05
 -1     22055-4.52236E-02 1.81549E-01 1.73781E-04-3.68415E-02 3.88932E-06 2.45562E-05
 -1     22059-2.82894E-02 1.64615E-01 1.73781E-04-7.00767E-02-7.68286E-06-2.36454E-05
 -1     22060-3.98907E-02 1.71912E-01-9.86357E-05-5.39594E-02 2.21720E-06 9.23530E-06
 -1     22061-3.16375E-02 1.67946E-01 2.62291E-04-7.25028E-02-5.93953E-06-1.82800E-05
 -1     22066-2.81785E-02 1.64726E-01 4.30391E-04-7.00767E-02-4.06307E-06-1.25049E-05
 -1     22067-3.99286E-02 1.71874E-01-1.86460E-04-5.39594E-02 1.14356E-06 4.76328E-06
 -1     22068-3.15500E-02 1.68033E-01 4.65457E-04-7.25029E-02-3.00343E-06-9.24362E-06
 -1     22073-2.81069E-02 1.64798E-01 5.96613E-04-7.00767E-02-2.04604E-06-6.29707E-06
 -1     22074-3.99565E-02 1.71846E-01-2.51349E-04-5.39594E-02 5.37847E-07 2.24030E-06
 -1     22075-3.14902E-02 1.68093E-01 6.04590E-04-7.25029E-02-1.39426E-06-4.29109E-06
 -1     22080-2.80613E-02 1.64844E-01 7.02750E-04-7.00768E-02-9.26006E-07-2.84995E-06
 -1     22081-3.99739E-02 1.71829E-01-2.92139E-04-5.39594E-02 2.27158E-07 9.46183E-07
 -1     22082-3.14535E-02 1.68130E-01 6.90323E-04-7.25030E-02-5.71431E-07-1.75869E-06
 -1     22087-2.80359E-02 1.64869E-01 7.62089E-04-7.00768E-02-3.43498E-07-1.05718E-06
 -1     22088-3.99823E-02 1.71820E-01-3.11650E-04-5.39594E-02 6.06151E-08 2.52480E-07
 -1     22089-3.14361E-02 1.68147E-01 7.31076E-04-7.25030E-02-1.49112E-07-4.58920E-07
 -1     22094-2.80278E-02 1.64877E-01 7.81190E-04-7.00768E-02 2.90102E-15 2.35294E-14
 -1     22095-3.99823E-02 1.71820E-01-3.11650E-04-5.39594E-02-6.06152E-08-2.52480E-07
 -1     22096-3.14361E-02 1.68147E-01 7.31076E-04-7.25030E-02 1.49112E-07 4.58920E-07
 -1     22101-2.80359E-02 1.64869E-01 7.62089E-04-7.00768E-02 3.43498E-07 1.05718E-06
 -1     22102-3.99739E-02 1.71829E-01-2.92139E-04-5.39594E-02-2.27158E-07-9.46183E-07
 -1     22103-3.14535E-02 1.68130E-01 6.90323E-04-7.25030E-02 5.71431E-07 1.75869E-06
 -1     22108-2.80613E-02 1.64844E-01 7.02750E-04-7.00768E-02 9.26006E-07 2.84995E-06
 -1     22109-3.99565E-02 1.71846E-01-2.51349E-04-5.39594E-02-5.37847E-07-2.24030E-06
 -1     22110-3.14902E-02 1.68093E-01 6.04590E-04-7.25029E-02 1.39426E-06 4.29109E-06
 -1     22115-2.81069E-02 1.64798E-01 5.96613E-04-7.00767E-02 2.04604E-06 6.29707E-06
 -1     22116-3.99286E-02 1.71874E-01-1.86460E-04-5.39594E-02-1.14356E-06-4.76328E-06
 -1     22117-3.15500E-02 1.68033E-01 4.65457E-04-7.25029E-02 3.00343E-06 9.24362E-06
 -1     22122-2.81785E-02 1.64726E-01 4.30391E-04-7.00767E-02 4.06307E-06 1.25049E-05
 -1     22123-3.98907E-02 1.71912E-01-9.86357E-05-5.39594E-02-2.21720E-06-9.23530E-06
 -1     22124-3.16375E-02 1.67946E-01 2.62291E-04-7.25028E-02 5.93953E-06 1.82800E-05
 -1     22129-2.82894E-02 1.64615E-01 1.73781E-04-7.00767E-02 7.68286E-06 2.36454E-05
 -1     22133-1.91382E-03 1.38240E-01 1.73781E-04-9.64523E-02-1.12872E-05-2.21524E-05
 -1     22134-1.80332E-02 1.50054E-01-9.86357E-05-8.40438E-02 3.63462E-06 8.77475E-06
 -1     22135-4.34879E-03 1.40657E-01 2.62291E-04-9.97916E-02-8.72602E-06-1.71258E-05
 -1     22140-1.80285E-03 1.38351E-01 4.30391E-04-9.64523E-02-5.96924E-06-1.17153E-05
 -1     22141-1.80711E-02 1.50016E-01-1.86460E-04-8.40438E-02 1.87462E-06 4.52574E-06
 -1     22142-4.26118E-03 1.40745E-01 4.65457E-04-9.97916E-02-4.41248E-06-8.65997E-06
 -1     22147-1.73125E-03 1.38422E-01 5.96613E-04-9.64524E-02-3.00593E-06-5.89947E-06
 -1     22148-1.80989E-02 1.49989E-01-2.51349E-04-8.40437E-02 8.81685E-07 2.12858E-06
 -1     22149-4.20143E-03 1.40804E-01 6.04590E-04-9.97917E-02-2.04837E-06-4.02015E-06
 -1     22154-1.68570E-03 1.38468E-01 7.02750E-04-9.64524E-02-1.36044E-06-2.67001E-06
 -1     22155-1.81164E-02 1.49971E-01-2.92139E-04-8.40437E-02 3.72377E-07 8.98999E-07
 -1     22156-4.16471E-03 1.40841E-01 6.90323E-04-9.97918E-02-8.39515E-07-1.64764E-06
 -1     22161-1.66029E-03 1.38493E-01 7.62089E-04-9.64525E-02-5.04648E-07-9.90427E-07
 -1     22162-1.81247E-02 1.49963E-01-3.11650E-04-8.40437E-02 9.93655E-08 2.39890E-07
 -1     22163-4.14728E-03 1.40859E-01 7.31076E-04-9.97918E-02-2.19067E-07-4.29943E-07
 -1     22168-1.65212E-03 1.38502E-01 7.81190E-04-9.64525E-02 1.46910E-14 2.21939E-14
 -1     22169-1.81247E-02 1.49963E-01-3.11650E-04-8.40437E-02-9.93655E-08-2.39890E-07
 -1     22170-4.14728E-03 1.40859E-01 7.31076E-04-9.97918E-02 2.19067E-07 4.29943E-07
 -1     22175-1.66029E-03 1.38493E-01 7.62089E-04-9.64525E-02 5.04648E-07 9.90427E-07
 -1     22176-1.81164E-02 1.49971E-01-2.92139E-04-8.40437E-02-3.72377E-07-8.98999E-07
 -1     22177-4.16471E-03 1.40841E-01 6.90323E-04-9.97918E-02 8.39515E-07 1.64764E-06
 -1     22182-1.68570E-03 1.38468E-01 7.02750E-04-9.64524E-02 1.36044E-06 2.67001E-06
 -1     22183-1.80989E-02 1.49989E-01-2.51349E-04-8.40437E-02-8.81685E-07-2.12858E-06
 -1     22184-4.20143E-03 1.40804E-01 6.04590E-04-9.97917E-02 2.04837E-06 4.02015E-06
 -1     22189-1.73125E-03 1.38422E-01 5.96613E-04-9.64524E-02 3.00593E-06 5.89947E-06
 -1     22190-1.80711E-02 1.50016E-01-1.86460E-04-8.40438E-02-1.87462E-06-4.52574E-06
 -1     22191-4.26118E-03 1.40745E-01 4.65457E-04-9.97916E-02 4.41248E-06 8.65997E-06
 -1     22196-1.80285E-03 1.38351E-01 4.30391E-04-9.64523E-02 5.96924E-06 1.17153E-05
 -1     22197-1.80332E-02 1.50054E-01-9.86357E-05-8.40438E-02-3.63462E-06-8.77475E-06
 -1     22198-4.34879E-03 1.40657E-01 2.62291E-04-9.97916E-02 8.72602E-06 1.71258E-05
 -1     22203-1.91382E-03 1.38240E-01 1.73781E-04-9.64523E-02 1.12872E-05 2.21524E-05
 -1     22207 3.13214E-02 1.05004E-01 1.73781E-04-1.13386E-01-1.46137E-05-2.01140E-05
 -1     22208 1.20512E-02 1.19970E-01-9.86357E-05-1.05901E-01 4.96255E-06 8.09814E-06
 -1     22209 3.00370E-02 1.06271E-01 2.62291E-04-1.17312E-01-1.12976E-05-1.55499E-05
 -1     22214 3.14323E-02 1.05115E-01 4.30391E-04-1.13386E-01-7.72843E-06-1.06373E-05
 -1     22215 1.20133E-02 1.19932E-01-1.86460E-04-1.05901E-01 2.55953E-06 4.17676E-06
 -1     22216 3.01247E-02 1.06359E-01 4.65457E-04-1.17312E-01-5.71287E-06-7.86309E-06
 -1     22221 3.15040E-02 1.05187E-01 5.96613E-04-1.13387E-01-3.89180E-06-5.35660E-06
 -1     22222 1.19854E-02 1.19904E-01-2.51349E-04-1.05901E-01 1.20381E-06 1.96444E-06
 -1     22223 3.01845E-02 1.06419E-01 6.04590E-04-1.17312E-01-2.65204E-06-3.65022E-06
 -1     22228 3.15495E-02 1.05233E-01 7.02750E-04-1.13387E-01-1.76137E-06-2.42432E-06
 -1     22229 1.19679E-02 1.19887E-01-2.92139E-04-1.05901E-01 5.08428E-07 8.29678E-07
 -1     22230 3.02212E-02 1.06455E-01 6.90323E-04-1.17312E-01-1.08693E-06-1.49603E-06
 -1     22235 3.15750E-02 1.05258E-01 7.62089E-04-1.13387E-01-6.53372E-07-8.99289E-07
 -1     22236 1.19596E-02 1.19878E-01-3.11650E-04-1.05901E-01 1.35669E-07 2.21392E-07
 -1     22237 3.02386E-02 1.06473E-01 7.31076E-04-1.17312E-01-2.83628E-07-3.90380E-07
 -1     22242 3.15831E-02 1.05266E-01 7.81190E-04-1.13387E-01-1.59851E-14-1.57983E-14
 -1     22243 1.19596E-02 1.19878E-01-3.11650E-04-1.05901E-01-1.35669E-07-2.21392E-07
 -1     22244 3.02386E-02 1.06473E-01 7.31076E-04-1.17312E-01 2.83628E-07 3.90380E-07
 -1     22249 3.15750E-02 1.05258E-01 7.62089E-04-1.13387E-01 6.53372E-07 8.99289E-07
 -1     22250 1.19679E-02 1.19887E-01-2.92139E-04-1.05901E-01-5.08428E-07-8.29678E-07
 -1     22251 3.02212E-02 1.06455E-01 6.90323E-04-1.17312E-01 1.08693E-06 1.49603E-06
 -1     22256 3.15495E-02 1.05233E-01 7.02750E-04-1.13387E-01 1.76137E-06 2.42432E-06
 -1     22257 1.19854E-02 1.19904E-01-2.51349E-04-1.05901E-01-1.20381E-06-1.96444E-06
 -1     22258 3.01845E-02 1.06419E-01 6.04590E-04-1.17312E-01 2.65204E-06 3.65022E-06
 -1     22263 3.15040E-02 1.05187E-01 5.96613E-04-1.13387E-01 3.89180E-06 5.35660E-06
 -1     22264 1.20133E-02 1.19932E-01-1.86460E-04-1.05901E-01-2.55953E-06-4.17676E-06
 -1     22265 3.01247E-02 1.06359E-01 4.65457E-04-1.17312E-01 5.71287E-06 7.86309E-06
 -1     22270 3.14323E-02 1.05115E-01 4.30391E-04-1.13386E-01 7.72843E-06 1.06373E-05
 -1     22271 1.20512E-02 1.19970E-01-9.86357E-05-1.05901E-01-4.96255E-06-8.09814E-06
 -1     22272 3.00370E-02 1.06271E-01 2.62291E-04-1.17312E-01 1.12976E-05 1.55499E-05
 -1     22277 3.13214E-02 1.05004E-01 1.73781E-04-1.13386E-01 1.46137E-05 2.01140E-05
 -1     22281 6.81629E-02 6.81629E-02 1.73781E-04-1.19222E-01-1.75803E-05-1.75803E-05
 -1     22282 4.74175E-02 8.46038E-02-9.86357E-05-1.17393E-01 6.16828E-06 7.22212E-06
 -1     22283 6.81540E-02 6.81540E-02 2.62291E-04-1.23349E-01-1.35911E-05-1.35911E-05
 -1     22288 6.82738E-02 6.82738E-02 4.30391E-04-1.19222E-01-9.29731E-06-9.29731E-06
 -1     22289 4.73796E-02 8.45659E-02-1.86460E-04-1.17393E-01 3.18140E-06 3.72494E-06
 -1     22290 6.82417E-02 6.82417E-02 4.65457E-04-1.23349E-01-6.87259E-06-6.87260E-06
 -1     22295 6.83455E-02 6.83455E-02 5.96613E-04-1.19222E-01-4.68184E-06-4.68184E-06
 -1     22296 4.73517E-02 8.45380E-02-2.51349E-04-1.17392E-01 1.49630E-06 1.75194E-06
 -1     22297 6.83015E-02 6.83015E-02 6.04590E-04-1.23349E-01-3.19041E-06-3.19041E-06
 -1     22302 6.83911E-02 6.83911E-02 7.02750E-04-1.19222E-01-2.11893E-06-2.11893E-06
 -1     22303 4.73342E-02 8.45205E-02-2.92139E-04-1.17392E-01 6.31958E-07 7.39928E-07
 -1     22304 6.83383E-02 6.83383E-02 6.90323E-04-1.23349E-01-1.30757E-06-1.30758E-06
 -1     22309 6.84165E-02 6.84165E-02 7.62089E-04-1.19222E-01-7.86007E-07-7.86008E-07
 -1     22310 4.73258E-02 8.45121E-02-3.11650E-04-1.17392E-01 1.68632E-07 1.97443E-07
 -1     22311 6.83557E-02 6.83557E-02 7.31076E-04-1.23349E-01-3.41205E-07-3.41205E-07
 -1     22316 6.84247E-02 6.84247E-02 7.81190E-04-1.19222E-01 4.00868E-14-1.52977E-15
 -1     22317 4.73258E-02 8.45121E-02-3.11650E-04-1.17392E-01-1.68632E-07-1.97443E-07
 -1     22318 6.83557E-02 6.83557E-02 7.31076E-04-1.23349E-01 3.41205E-07 3.41205E-07
 -1     22323 6.84165E-02 6.84165E-02 7.62089E-04-1.19222E-01 7.86007E-07 7.86008E-07
 -1     22324 4.73342E-02 8.45205E-02-2.92139E-04-1.17392E-01-6.31958E-07-7.39928E-07
 -1     22325 6.83383E-02 6.83383E-02 6.90323E-04-1.23349E-01 1.30757E-06 1.30758E-06
 -1     22330 6.83911E-02 6.83911E-02 7.02750E-04-1.19222E-01 2.11893E-06 2.11893E-06
 -1     22331 4.73517E-02 8.45380E-02-2.51349E-04-1.17392E-01-1.49630E-06-1.75194E-06
 -1     22332 6.83015E-02 6.83015E-02 6.04590E-04-1.23349E-01 3.19041E-06 3.19041E-06
 -1     22337 6.83455E-02 6.83455E-02 5.96613E-04-1.19222E-01 4.68184E-06 4.68184E-06
 -1     22338 4.73796E-02 8.45659E-02-1.86460E-04-1.17393E-01-3.18140E-06-3.72494E-06
 -1     22339 6.82417E-02 6.82417E-02 4.65457E-04-1.23349E-01 6.87259E-06 6.87260E-06
 -1     22344 6.82738E-02 6.82738E-02 4.30391E-04-1.19222E-01 9.29731E-06 9.29731E-06
 -1     22345 4.74175E-02 8.46038E-02-9.86357E-05-1.17393E-01-6.16828E-06-7.22212E-06
 -1     22346 6.81540E-02 6.81540E-02 2.62291E-04-1.23349E-01 1.35911E-05 1.35911E-05
 -1     22351 6.81629E-02 6.81629E-02 1.73781E-04-1.19222E-01 1.75803E-05 1.75803E-05
 -1     22355 1.05004E-01 3.13214E-02 1.73781E-04-1.13386E-01-2.01140E-05-1.46137E-05
 -1     22356 8.46038E-02 4.74175E-02-9.86357E-05-1.17393E-01 7.22212E-06 6.16828E-06
 -1     22357 1.06271E-01 3.00370E-02 2.62291E-04-1.17312E-01-1.55499E-05-1.12976E-05
 -1     22362 1.05115E-01 3.14323E-02 4.30391E-04-1.13386E-01-1.06373E-05-7.72843E-06
 -1     22363 8.45659E-02 4.73796E-02-1.86460E-04-1.17393E-01 3.72494E-06 3.18140E-06
 -1     22364 1.06359E-01 3.01247E-02 4.65457E-04-1.17312E-01-7.86309E-06-5.71287E-06
 -1     22369 1.05187E-01 3.15040E-02 5.96613E-04-1.13387E-01-5.35660E-06-3.89180E-06
 -1     22370 8.45380E-02 4.73517E-02-2.51349E-04-1.17392E-01 1.75194E-06 1.49630E-06
 -1     22371 1.06419E-01 3.01845E-02 6.04590E-04-1.17312E-01-3.65022E-06-2.65204E-06
 -1     22376 1.05233E-01 3.15495E-02 7.02750E-04-1.13387E-01-2.42431E-06-1.76137E-06
 -1     22377 8.45205E-02 4.73342E-02-2.92139E-04-1.17392E-01 7.39927E-07 6.31959E-07
 -1     22378 1.06455E-01 3.02212E-02 6.90323E-04-1.17312E-01-1.49603E-06-1.08693E-06
 -1     22383 1.05258E-01 3.15750E-02 7.62089E-04-1.13387E-01-8.99288E-07-6.53372E-07
 -1     22384 8.45121E-02 4.73258E-02-3.11650E-04-1.17392E-01 1.97443E-07 1.68632E-07
 -1     22385 1.06473E-01 3.02386E-02 7.31076E-04-1.17312E-01-3.90380E-07-2.83628E-07
 -1     22390 1.05266E-01 3.15831E-02 7.81190E-04-1.13387E-01-2.62537E-14 1.92192E-14
 -1     22391 8.45121E-02 4.73258E-02-3.11650E-04-1.17392E-01-1.97443E-07-1.68632E-07
 -1     22392 1.06473E-01 3.02386E-02 7.31076E-04-1.17312E-01 3.90380E-07 2.83628E-07
 -1     22397 1.05258E-01 3.15750E-02 7.62089E-04-1.13387E-01 8.99288E-07 6.53372E-07
 -1     22398 8.45205E-02 4.73342E-02-2.92139E-04-1.17392E-01-7.39927E-07-6.31959E-07
 -1     22399 1.06455E-01 3.02212E-02 6.90323E-04-1.17312E-01 1.49603E-06 1.08693E-06
 -1     22404 1.05233E-01 3.15495E-02 7.02750E-04-1.13387E-01 2.42431E-06 1.76137E-06
 -1     22405 8.45380E-02 4.73517E-02-2.51349E-04-1.17392E-01-1.75194E-06-1.49630E-06
 -1     22406 1.06419E-01 3.01845E-02 6.04590E-04-1.17312E-01 3.65022E-06 2.65204E-06
 -1     22411 1.05187E-01 3.15040E-02 5.96613E-04-1.13387E-01 5.35660E-06 3.89180E-06
 -1     22412 8.45659E-02 4.73796E-02-1.86460E-04-1.17393E-01-3.72494E-06-3.18140E-06
 -1     22413 1.06359E-01 3.01247E-02 4.65457E-04-1.17312E-01 7.86309E-06 5.71287E-06
 -1     22418 1.05115E-01 3.14323E-02 4.30391E-04-1.13386E-01 1.06373E-05 7.72843E-06
 -1     22419 8.46038E-02 4.74175E-02-9.86357E-05-1.17393E-01-7.22212E-06-6.16828E-06
 -1     22420 1.06271E-01 3.00370E-02 2.62291E-04-1.17312E-01 1.55499E-05 1.12976E-05
 -1     22425 1.05004E-01 3.13214E-02 1.73781E-04-1.13386E-01 2.01140E-05 1.46137E-05
 -1     22429 1.38240E-01-1.91382E-03 1.73781E-04-9.64523E-02-2.21524E-05-1.12872E-05
 -1     22430 1.19970E-01 1.20512E-02-9.86357E-05-1.05901E-01 8.09814E-06 4.96254E-06
 -1     22431 1.40657E-01-4.34879E-03 2.62291E-04-9.97916E-02-1.71258E-05-8.72602E-06
 -1     22436 1.38351E-01-1.80286E-03 4.30391E-04-9.64523E-02-1.17153E-05-5.96924E-06
 -1     22437 1.19932E-01 1.20133E-02-1.86460E-04-1.05901E-01 4.17676E-06 2.55952E-06
 -1     22438 1.40745E-01-4.26119E-03 4.65457E-04-9.97916E-02-8.65998E-06-4.41247E-06
 -1     22443 1.38422E-01-1.73125E-03 5.96613E-04-9.64524E-02-5.89947E-06-3.00593E-06
 -1     22444 1.19904E-01 1.19854E-02-2.51349E-04-1.05901E-01 1.96444E-06 1.20381E-06
 -1     22445 1.40804E-01-4.20143E-03 6.04590E-04-9.97917E-02-4.02015E-06-2.04836E-06
 -1     22450 1.38468E-01-1.68570E-03 7.02750E-04-9.64524E-02-2.67001E-06-1.36043E-06
 -1     22451 1.19887E-01 1.19679E-02-2.92139E-04-1.05901E-01 8.29678E-07 5.08426E-07
 -1     22452 1.40841E-01-4.16471E-03 6.90323E-04-9.97918E-02-1.64764E-06-8.39513E-07
 -1     22457 1.38493E-01-1.66029E-03 7.62089E-04-9.64525E-02-9.90428E-07-5.04646E-07
 -1     22458 1.19878E-01 1.19596E-02-3.11650E-04-1.05901E-01 2.21392E-07 1.35669E-07
 -1     22459 1.40859E-01-4.14728E-03 7.31076E-04-9.97918E-02-4.29944E-07-2.19066E-07
 -1     22464 1.38502E-01-1.65212E-03 7.81190E-04-9.64525E-02-3.16752E-14 6.04993E-15
 -1     22465 1.19878E-01 1.19596E-02-3.11650E-04-1.05901E-01-2.21392E-07-1.35669E-07
 -1     22466 1.40859E-01-4.14728E-03 7.31076E-04-9.97918E-02 4.29944E-07 2.19066E-07
 -1     22471 1.38493E-01-1.66029E-03 7.62089E-04-9.64525E-02 9.90428E-07 5.04646E-07
 -1     22472 1.19887E-01 1.19679E-02-2.92139E-04-1.05901E-01-8.29678E-07-5.08426E-07
 -1     22473 1.40841E-01-4.16471E-03 6.90323E-04-9.97918E-02 1.64764E-06 8.39513E-07
 -1     22478 1.38468E-01-1.68570E-03 7.02750E-04-9.64524E-02 2.67001E-06 1.36043E-06
 -1     22479 1.19904E-01 1.19854E-02-2.51349E-04-1.05901E-01-1.96444E-06-1.20381E-06
 -1     22480 1.40804E-01-4.20143E-03 6.04590E-04-9.97917E-02 4.02015E-06 2.04836E-06
 -1     22485 1.38422E-01-1.73125E-03 5.96613E-04-9.64524E-02 5.89947E-06 3.00593E-06
 -1     22486 1.19932E-01 1.20133E-02-1.86460E-04-1.05901E-01-4.17676E-06-2.55952E-06
 -1     22487 1.40745E-01-4.26119E-03 4.65457E-04-9.97916E-02 8.65998E-06 4.41247E-06
 -1     22492 1.38351E-01-1.80286E-03 4.30391E-04-9.64523E-02 1.17153E-05 5.96924E-06
 -1     22493 1.19970E-01 1.20512E-02-9.86357E-05-1.05901E-01-8.09814E-06-4.96254E-06
 -1     22494 1.40657E-01-4.34879E-03 2.62291E-04-9.97916E-02 1.71258E-05 8.72602E-06
 -1     22499 1.38240E-01-1.91382E-03 1.73781E-04-9.64523E-02 2.21524E-05 1.12872E-05
 -1     22503 1.64615E-01-2.82894E-02 1.73781E-04-7.00767E-02-2.36454E-05-7.68286E-06
 -1     22504 1.50054E-01-1.80332E-02-9.86357E-05-8.40438E-02 8.77475E-06 3.63462E-06
 -1     22505 1.67946E-01-3.16375E-02 2.62291E-04-7.25028E-02-1.82800E-05-5.93953E-06
 -1     22510 1.64726E-01-2.81785E-02 4.30391E-04-7.00767E-02-1.25049E-05-4.06307E-06
 -1     22511 1.50016E-01-1.80711E-02-1.86460E-04-8.40438E-02 4.52574E-06 1.87462E-06
 -1     22512 1.68033E-01-3.15500E-02 4.65457E-04-7.25029E-02-9.24362E-06-3.00343E-06
 -1     22517 1.64798E-01-2.81069E-02 5.96613E-04-7.00767E-02-6.29707E-06-2.04604E-06
 -1     22518 1.49989E-01-1.80989E-02-2.51349E-04-8.40437E-02 2.12858E-06 8.81683E-07
 -1     22519 1.68093E-01-3.14902E-02 6.04590E-04-7.25029E-02-4.29109E-06-1.39426E-06
 -1     22524 1.64844E-01-2.80613E-02 7.02750E-04-7.00768E-02-2.84996E-06-9.26006E-07
 -1     22525 1.49971E-01-1.81164E-02-2.92139E-04-8.40437E-02 8.99000E-07 3.72376E-07
 -1     22526 1.68130E-01-3.14535E-02 6.90323E-04-7.25030E-02-1.75869E-06-5.71431E-07
 -1     22531 1.64869E-01-2.80359E-02 7.62089E-04-7.00768E-02-1.05718E-06-3.43498E-07
 -1     22532 1.49963E-01-1.81247E-02-3.11650E-04-8.40437E-02 2.39890E-07 9.93652E-08
 -1     22533 1.68147E-01-3.14361E-02 7.31076E-04-7.25030E-02-4.58920E-07-1.49112E-07
 -1     22538 1.64877E-01-2.80278E-02 7.81190E-04-7.00768E-02-4.08076E-14 1.15968E-15
 -1     22539 1.49963E-01-1.81247E-02-3.11650E-04-8.40437E-02-2.39890E-07-9.93652E-08
 -1     22540 1.68147E-01-3.14361E-02 7.31076E-04-7.25030E-02 4.58920E-07 1.49112E-07
 -1     22545 1.64869E-01-2.80359E-02 7.62089E-04-7.00768E-02 1.05718E-06 3.43498E-07
 -1     22546 1.49971E-01-1.81164E-02-2.92139E-04-8.40437E-02-8.99000E-07-3.72376E-07
 -1     22547 1.68130E-01-3.14535E-02 6.90323E-04-7.25030E-02 1.75869E-06 5.71431E-07
 -1     22552 1.64844E-01-2.80613E-02 7.02750E-04-7.00768E-02 2.84996E-06 9.26006E-07
 -1     22553 1.49989E-01-1.80989E-02-2.51349E-04-8.40437E-02-2.12858E-06-8.81683E-07
 -1     22554 1.68093E-01-3.14902E-02 6.04590E-04-7.25029E-02 4.29109E-06 1.39426E-06
 -1     22559 1.64798E-01-2.81069E-02 5.96613E-04-7.00767E-02 6.29707E-06 2.04604E-06
 -1     22560 1.50016E-01-1.80711E-02-1.86460E-04-8.40438E-02-4.52574E-06-1.87462E-06
 -1     22561 1.68033E-01-3.15500E-02 4.65457E-04-7.25029E-02 9.24362E-06 3.00343E-06
 -1     22566 1.64726E-01-2.81785E-02 4.30391E-04-7.00767E-02 1.25049E-05 4.06307E-06
 -1     22567 1.50054E-01-1.80332E-02-9.86357E-05-8.40438E-02-8.77475E-06-3.63462E-06
 -1     22568 1.67946E-01-3.16375E-02 2.62291E-04-7.25028E-02 1.82800E-05 5.93953E-06
 -1     22573 1.64615E-01-2.82894E-02 1.73781E-04-7.00767E-02 2.36454E-05 7.68286E-06
 -1     22577 1.81549E-01-4.52236E-02 1.73781E-04-3.68415E-02-2.45562E-05-3.88932E-06
 -1     22578 1.71912E-01-3.98907E-02-9.86357E-05-5.39594E-02 9.23530E-06 2.21720E-06
 -1     22579 1.85466E-01-4.91580E-02 2.62291E-04-3.81170E-02-1.89841E-05-3.00679E-06
 -1     22584 1.81660E-01-4.51126E-02 4.30391E-04-3.68415E-02-1.29865E-05-2.05687E-06
 -1     22585 1.71874E-01-3.99286E-02-1.86460E-04-5.39594E-02 4.76328E-06 1.14356E-06
 -1     22586 1.85554E-01-4.90704E-02 4.65457E-04-3.81170E-02-9.59965E-06-1.52044E-06
 -1     22591 1.81732E-01-4.50411E-02 5.96613E-04-3.68415E-02-6.53961E-06-1.03578E-06
 -1     22592 1.71846E-01-3.99565E-02-2.51349E-04-5.39594E-02 2.24030E-06 5.37849E-07
 -1     22593 1.85614E-01-4.90107E-02 6.04590E-04-3.81170E-02-4.45637E-06-7.05824E-07
 -1     22598 1.81778E-01-4.49955E-02 7.02750E-04-3.68415E-02-2.95972E-06-4.68778E-07
 -1     22599 1.71829E-01-3.99739E-02-2.92139E-04-5.39594E-02 9.46184E-07 2.27160E-07
 -1     22600 1.85651E-01-4.89740E-02 6.90323E-04-3.81171E-02-1.82642E-06-2.89280E-07
 -1     22605 1.81803E-01-4.49701E-02 7.62089E-04-3.68416E-02-1.09790E-06-1.73892E-07
 -1     22606 1.71820E-01-3.99823E-02-3.11650E-04-5.39594E-02 2.52480E-07 6.06155E-08
 -1     22607 1.85668E-01-4.89566E-02 7.31076E-04-3.81171E-02-4.76596E-07-7.54863E-08
 -1     22612 1.81811E-01-4.49620E-02 7.81190E-04-3.68416E-02-3.73091E-14 1.10948E-14
 -1     22613 1.71820E-01-3.99823E-02-3.11650E-04-5.39594E-02-2.52481E-07-6.06155E-08
 -1     22614 1.85668E-01-4.89566E-02 7.31076E-04-3.81171E-02 4.76596E-07 7.54863E-08
 -1     22619 1.81803E-01-4.49701E-02 7.62089E-04-3.68416E-02 1.09790E-06 1.73892E-07
 -1     22620 1.71829E-01-3.99739E-02-2.92139E-04-5.39594E-02-9.46184E-07-2.27160E-07
 -1     22621 1.85651E-01-4.89740E-02 6.90323E-04-3.81171E-02 1.82642E-06 2.89280E-07
 -1     22626 1.81778E-01-4.49955E-02 7.02750E-04-3.68415E-02 2.95972E-06 4.68778E-07
 -1     22627 1.71846E-01-3.99565E-02-2.51349E-04-5.39594E-02-2.24030E-06-5.37849E-07
 -1     22628 1.85614E-01-4.90107E-02 6.04590E-04-3.81170E-02 4.45637E-06 7.05824E-07
 -1     22633 1.81732E-01-4.50411E-02 5.96613E-04-3.68415E-02 6.53961E-06 1.03578E-06
 -1     22634 1.71874E-01-3.99286E-02-1.86460E-04-5.39594E-02-4.76328E-06-1.14356E-06
 -1     22635 1.85554E-01-4.90704E-02 4.65457E-04-3.81170E-02 9.59965E-06 1.52044E-06
 -1     22640 1.81660E-01-4.51126E-02 4.30391E-04-3.68415E-02 1.29865E-05 2.05687E-06
 -1     22641 1.71912E-01-3.98907E-02-9.86357E-05-5.39594E-02-9.23530E-06-2.21720E-06
 -1     22642 1.85466E-01-4.91580E-02 2.62291E-04-3.81170E-02 1.89841E-05 3.00679E-06
 -1     22647 1.81549E-01-4.52236E-02 1.73781E-04-3.68415E-02 2.45562E-05 3.88932E-06
 -1     22651 1.83403E-01-5.13819E-02-9.86357E-05-1.85932E-02 9.46844E-06 7.45185E-07
 -1     22655 1.83365E-01-5.14198E-02-1.86460E-04-1.85931E-02 4.88352E-06 3.84344E-07
 -1     22659 1.83337E-01-5.14477E-02-2.51349E-04-1.85931E-02 2.29685E-06 1.80768E-07
 -1     22663 1.83320E-01-5.14651E-02-2.92139E-04-1.85931E-02 9.70069E-07 7.63476E-08
 -1     22667 1.83311E-01-5.14735E-02-3.11650E-04-1.85931E-02 2.58854E-07 2.03728E-08
 -1     22671 1.83311E-01-5.14735E-02-3.11650E-04-1.85931E-02-2.58854E-07-2.03728E-08
 -1     22675 1.83320E-01-5.14651E-02-2.92139E-04-1.85931E-02-9.70069E-07-7.63476E-08
 -1     22679 1.83337E-01-5.14477E-02-2.51349E-04-1.85931E-02-2.29685E-06-1.80768E-07
 -1     22683 1.83365E-01-5.14198E-02-1.86460E-04-1.85931E-02-4.88352E-06-3.84345E-07
 -1     22687 1.83403E-01-5.13819E-02-9.86357E-05-1.85932E-02-9.46844E-06-7.45185E-07
 -1     22693-3.81300E-02 1.74253E-01 1.56074E-04-3.45036E-02-3.66239E-06-2.31235E-05
 -1     22694-4.38929E-02 1.75993E-01-9.00922E-05-1.74132E-02 7.08320E-07 9.00005E-06
 -1     22695-4.16880E-02 1.77801E-01 2.37331E-04-3.56582E-02-2.85988E-06-1.80566E-05
 -1     22700-3.80296E-02 1.74353E-01 3.88090E-04-3.45036E-02-1.99521E-06-1.25973E-05
 -1     22701-4.39275E-02 1.75958E-01-1.70335E-04-1.74132E-02 3.77162E-07 4.79230E-06
 -1     22702-4.16083E-02 1.77881E-01 4.22073E-04-3.56582E-02-1.49632E-06-9.44737E-06
 -1     22707-3.79643E-02 1.74418E-01 5.39735E-04-3.45037E-02-1.04119E-06-6.57384E-06
 -1     22708-4.39531E-02 1.75932E-01-2.29808E-04-1.74132E-02 1.85263E-07 2.35398E-06
 -1     22709-4.15536E-02 1.77936E-01 5.49366E-04-3.56582E-02-7.26930E-07-4.58965E-06
 -1     22714-3.79224E-02 1.74460E-01 6.37192E-04-3.45037E-02-4.93588E-07-3.11639E-06
 -1     22715-4.39692E-02 1.75916E-01-2.67349E-04-1.74132E-02 8.20295E-08 1.04228E-06
 -1     22716-4.15199E-02 1.77970E-01 6.28204E-04-3.56583E-02-3.14362E-07-1.98480E-06
 -1     22721-3.78990E-02 1.74484E-01 6.91916E-04-3.45037E-02-1.91697E-07-1.21032E-06
 -1     22722-4.39769E-02 1.75909E-01-2.85358E-04-1.74132E-02 2.27201E-08 2.88686E-07
 -1     22723-4.15038E-02 1.77986E-01 6.65803E-04-3.56583E-02-8.56873E-08-5.41008E-07
 -1     22728-3.78915E-02 1.74491E-01 7.09570E-04-3.45037E-02 4.56064E-15 3.46888E-14
 -1     22729-4.39769E-02 1.75909E-01-2.85358E-04-1.74132E-02-2.27201E-08-2.88686E-07
 -1     22730-4.15038E-02 1.77986E-01 6.65803E-04-3.56583E-02 8.56873E-08 5.41008E-07
 -1     22735-3.78990E-02 1.74484E-01 6.91916E-04-3.45037E-02 1.91697E-07 1.21032E-06
 -1     22736-4.39692E-02 1.75916E-01-2.67349E-04-1.74132E-02-8.20295E-08-1.04228E-06
 -1     22737-4.15199E-02 1.77970E-01 6.28204E-04-3.56583E-02 3.14362E-07 1.98480E-06
 -1     22742-3.79224E-02 1.74460E-01 6.37192E-04-3.45037E-02 4.93588E-07 3.11639E-06
 -1     22743-4.39531E-02 1.75932E-01-2.29808E-04-1.74132E-02-1.85263E-07-2.35398E-06
 -1     22744-4.15536E-02 1.77936E-01 5.49366E-04-3.56582E-02 7.26930E-07 4.58965E-06
 -1     22749-3.79643E-02 1.74418E-01 5.39735E-04-3.45037E-02 1.04119E-06 6.57384E-06
 -1     22750-4.39275E-02 1.75958E-01-1.70335E-04-1.74132E-02-3.77162E-07-4.79230E-06
 -1     22751-4.16083E-02 1.77881E-01 4.22073E-04-3.56582E-02 1.49632E-06 9.44737E-06
 -1     22756-3.80296E-02 1.74353E-01 3.88090E-04-3.45036E-02 1.99521E-06 1.25973E-05
 -1     22757-4.38929E-02 1.75993E-01-9.00922E-05-1.74132E-02-7.08320E-07-9.00005E-06
 -1     22758-4.16880E-02 1.77801E-01 2.37331E-04-3.56582E-02 2.85988E-06 1.80566E-05
 -1     22763-3.81300E-02 1.74253E-01 1.56074E-04-3.45036E-02 3.66239E-06 2.31235E-05
 -1     22767-2.22705E-02 1.58393E-01 1.56074E-04-6.56298E-02-7.23461E-06-2.22658E-05
 -1     22768-3.31309E-02 1.65231E-01-9.00922E-05-5.05352E-02 2.10752E-06 8.77844E-06
 -1     22769-2.52977E-02 1.61411E-01 2.37331E-04-6.78259E-02-5.64935E-06-1.73869E-05
 -1     22774-2.21701E-02 1.58493E-01 3.88090E-04-6.56298E-02-3.94129E-06-1.21301E-05
 -1     22775-3.31656E-02 1.65196E-01-1.70335E-04-5.05352E-02 1.12220E-06 4.67430E-06
 -1     22776-2.52180E-02 1.61491E-01 4.22073E-04-6.78260E-02-2.95579E-06-9.09698E-06
 -1     22781-2.21047E-02 1.58559E-01 5.39735E-04-6.56299E-02-2.05675E-06-6.33003E-06
 -1     22782-3.31911E-02 1.65171E-01-2.29808E-04-5.05352E-02 5.51226E-07 2.29602E-06
 -1     22783-2.51634E-02 1.61546E-01 5.49366E-04-6.78260E-02-1.43596E-06-4.41943E-06
 -1     22788-2.20629E-02 1.58601E-01 6.37192E-04-6.56299E-02-9.75022E-07-3.00081E-06
 -1     22789-3.32072E-02 1.65154E-01-2.67349E-04-5.05351E-02 2.44069E-07 1.01662E-06
 -1     22790-2.51296E-02 1.61579E-01 6.28204E-04-6.78260E-02-6.20982E-07-1.91119E-06
 -1     22795-2.20394E-02 1.58624E-01 6.91916E-04-6.56299E-02-3.78673E-07-1.16544E-06
 -1     22796-3.32149E-02 1.65147E-01-2.85358E-04-5.05351E-02 6.76009E-08 2.81578E-07
 -1     22797-2.51135E-02 1.61596E-01 6.65803E-04-6.78261E-02-1.69265E-07-5.20943E-07
 -1     22802-2.20318E-02 1.58632E-01 7.09570E-04-6.56299E-02-2.40741E-14 5.29292E-14
 -1     22803-3.32149E-02 1.65147E-01-2.85358E-04-5.05351E-02-6.76009E-08-2.81578E-07
 -1     22804-2.51135E-02 1.61596E-01 6.65803E-04-6.78261E-02 1.69265E-07 5.20943E-07
 -1     22809-2.20394E-02 1.58624E-01 6.91916E-04-6.56299E-02 3.78673E-07 1.16544E-06
 -1     22810-3.32072E-02 1.65154E-01-2.67349E-04-5.05351E-02-2.44069E-07-1.01662E-06
 -1     22811-2.51296E-02 1.61579E-01 6.28204E-04-6.78260E-02 6.20982E-07 1.91119E-06
 -1     22816-2.20629E-02 1.58601E-01 6.37192E-04-6.56299E-02 9.75022E-07 3.00081E-06
 -1     22817-3.31911E-02 1.65171E-01-2.29808E-04-5.05352E-02-5.51226E-07-2.29602E-06
 -1     22818-2.51634E-02 1.61546E-01 5.49366E-04-6.78260E-02 1.43596E-06 4.41943E-06
 -1     22823-2.21047E-02 1.58559E-01 5.39735E-04-6.56299E-02 2.05675E-06 6.33003E-06
 -1     22824-3.31656E-02 1.65196E-01-1.70335E-04-5.05352E-02-1.12220E-06-4.67430E-06
 -1     22825-2.52180E-02 1.61491E-01 4.22073E-04-6.78260E-02 2.95579E-06 9.09698E-06
 -1     22830-2.21701E-02 1.58493E-01 3.88090E-04-6.56298E-02 3.94129E-06 1.21301E-05
 -1     22831-3.31309E-02 1.65231E-01-9.00922E-05-5.05352E-02-2.10752E-06-8.77844E-06
 -1     22832-2.52977E-02 1.61411E-01 2.37331E-04-6.78259E-02 5.64935E-06 1.73869E-05
 -1     22837-2.22705E-02 1.58393E-01 1.56074E-04-6.56298E-02 7.23461E-06 2.22658E-05
 -1     22841 2.43143E-03 1.33691E-01 1.56074E-04-9.03317E-02-1.06287E-05-2.08600E-05
 -1     22842-1.26604E-02 1.44760E-01-9.00922E-05-7.87104E-02 3.45482E-06 8.34068E-06
 -1     22843 2.30712E-04 1.35883E-01 2.37331E-04-9.33544E-02-8.29970E-06-1.62891E-05
 -1     22848 2.53182E-03 1.33791E-01 3.88090E-04-9.03317E-02-5.79033E-06-1.13642E-05
 -1     22849-1.26951E-02 1.44726E-01-1.70335E-04-7.87104E-02 1.83961E-06 4.44120E-06
 -1     22850 3.10420E-04 1.35962E-01 4.22073E-04-9.33544E-02-4.34248E-06-8.52260E-06
 -1     22855 2.59719E-03 1.33857E-01 5.39735E-04-9.03317E-02-3.02166E-06-5.93035E-06
 -1     22856-1.27207E-02 1.44700E-01-2.29808E-04-7.87103E-02 9.03616E-07 2.18152E-06
 -1     22857 3.65131E-04 1.36017E-01 5.49366E-04-9.33545E-02-2.10963E-06-4.14039E-06
 -1     22862 2.63905E-03 1.33899E-01 6.37192E-04-9.03318E-02-1.43245E-06-2.81134E-06
 -1     22863-1.27367E-02 1.44684E-01-2.67349E-04-7.87103E-02 4.00098E-07 9.65922E-07
 -1     22864 3.98923E-04 1.36051E-01 6.28204E-04-9.33545E-02-9.12313E-07-1.79051E-06
 -1     22869 2.66251E-03 1.33922E-01 6.91916E-04-9.03318E-02-5.56325E-07-1.09185E-06
 -1     22870-1.27445E-02 1.44676E-01-2.85358E-04-7.87103E-02 1.10817E-07 2.67536E-07
 -1     22871 4.15014E-04 1.36067E-01 6.65803E-04-9.33546E-02-2.48674E-07-4.88051E-07
 -1     22876 2.67007E-03 1.33930E-01 7.09570E-04-9.03318E-02 7.66873E-16-9.65801E-15
 -1     22877-1.27445E-02 1.44676E-01-2.85358E-04-7.87103E-02-1.10817E-07-2.67536E-07
 -1     22878 4.15014E-04 1.36067E-01 6.65803E-04-9.33546E-02 2.48674E-07 4.88051E-07
 -1     22883 2.66251E-03 1.33922E-01 6.91916E-04-9.03318E-02 5.56325E-07 1.09185E-06
 -1     22884-1.27367E-02 1.44684E-01-2.67349E-04-7.87103E-02-4.00098E-07-9.65922E-07
 -1     22885 3.98923E-04 1.36051E-01 6.28204E-04-9.33545E-02 9.12313E-07 1.79051E-06
 -1     22890 2.63905E-03 1.33899E-01 6.37192E-04-9.03318E-02 1.43245E-06 2.81134E-06
 -1     22891-1.27207E-02 1.44700E-01-2.29808E-04-7.87103E-02-9.03616E-07-2.18152E-06
 -1     22892 3.65131E-04 1.36017E-01 5.49366E-04-9.33545E-02 2.10963E-06 4.14039E-06
 -1     22897 2.59719E-03 1.33857E-01 5.39735E-04-9.03317E-02 3.02166E-06 5.93035E-06
 -1     22898-1.26951E-02 1.44726E-01-1.70335E-04-7.87104E-02-1.83961E-06-4.44120E-06
 -1     22899 3.10420E-04 1.35962E-01 4.22073E-04-9.33544E-02 4.34248E-06 8.52260E-06
 -1     22904 2.53182E-03 1.33791E-01 3.88090E-04-9.03317E-02 5.79033E-06 1.13642E-05
 -1     22905-1.26604E-02 1.44760E-01-9.00922E-05-7.87104E-02-3.45482E-06-8.34068E-06
 -1     22906 2.30712E-04 1.35883E-01 2.37331E-04-9.33544E-02 8.29970E-06 1.62891E-05
 -1     22911 2.43143E-03 1.33691E-01 1.56074E-04-9.03317E-02 1.06287E-05 2.08600E-05
 -1     22915 3.35576E-02 1.02565E-01 1.56074E-04-1.06191E-01-1.37610E-05-1.89405E-05
 -1     22916 1.55148E-02 1.16585E-01-9.00922E-05-9.91809E-02 4.71706E-06 7.69754E-06
 -1     22917 3.23984E-02 1.03715E-01 2.37331E-04-1.09745E-01-1.07457E-05-1.47902E-05
 -1     22922 3.36580E-02 1.02665E-01 3.88090E-04-1.06191E-01-7.49679E-06-1.03184E-05
 -1     22923 1.54801E-02 1.16550E-01-1.70335E-04-9.91809E-02 2.51171E-06 4.09874E-06
 -1     22924 3.24782E-02 1.03795E-01 4.22073E-04-1.09745E-01-5.62225E-06-7.73835E-06
 -1     22929 3.37234E-02 1.02731E-01 5.39735E-04-1.06191E-01-3.91218E-06-5.38465E-06
 -1     22930 1.54545E-02 1.16525E-01-2.29808E-04-9.91808E-02 1.23376E-06 2.01331E-06
 -1     22931 3.25329E-02 1.03849E-01 5.49366E-04-1.09745E-01-2.73136E-06-3.75939E-06
 -1     22936 3.37653E-02 1.02773E-01 6.37192E-04-1.06191E-01-1.85461E-06-2.55264E-06
 -1     22937 1.54384E-02 1.16509E-01-2.67349E-04-9.91808E-02 5.46276E-07 8.91440E-07
 -1     22938 3.25667E-02 1.03883E-01 6.28204E-04-1.09745E-01-1.18118E-06-1.62575E-06
 -1     22943 3.37887E-02 1.02796E-01 6.91916E-04-1.06191E-01-7.20280E-07-9.91379E-07
 -1     22944 1.54307E-02 1.16501E-01-2.85358E-04-9.91808E-02 1.51305E-07 2.46907E-07
 -1     22945 3.25828E-02 1.03899E-01 6.65803E-04-1.09745E-01-3.21961E-07-4.43141E-07
 -1     22950 3.37963E-02 1.02804E-01 7.09570E-04-1.06191E-01-3.92992E-16 3.66034E-15
 -1     22951 1.54307E-02 1.16501E-01-2.85358E-04-9.91808E-02-1.51305E-07-2.46907E-07
 -1     22952 3.25828E-02 1.03899E-01 6.65803E-04-1.09745E-01 3.21961E-07 4.43141E-07
 -1     22957 3.37887E-02 1.02796E-01 6.91916E-04-1.06191E-01 7.20280E-07 9.91379E-07
 -1     22958 1.54384E-02 1.16509E-01-2.67349E-04-9.91808E-02-5.46276E-07-8.91440E-07
 -1     22959 3.25667E-02 1.03883E-01 6.28204E-04-1.09745E-01 1.18118E-06 1.62575E-06
 -1     22964 3.37653E-02 1.02773E-01 6.37192E-04-1.06191E-01 1.85461E-06 2.55264E-06
 -1     22965 1.54545E-02 1.16525E-01-2.29808E-04-9.91808E-02-1.23376E-06-2.01331E-06
 -1     22966 3.25329E-02 1.03849E-01 5.49366E-04-1.09745E-01 2.73136E-06 3.75939E-06
 -1     22971 3.37234E-02 1.02731E-01 5.39735E-04-1.06191E-01 3.91218E-06 5.38465E-06
 -1     22972 1.54801E-02 1.16550E-01-1.70335E-04-9.91809E-02-2.51171E-06-4.09874E-06
 -1     22973 3.24782E-02 1.03795E-01 4.22073E-04-1.09745E-01 5.62225E-06 7.73835E-06
 -1     22978 3.36580E-02 1.02665E-01 3.88090E-04-1.06191E-01 7.49679E-06 1.03184E-05
 -1     22979 1.55148E-02 1.16585E-01-9.00922E-05-9.91809E-02-4.71706E-06-7.69754E-06
 -1     22980 3.23984E-02 1.03715E-01 2.37331E-04-1.09745E-01 1.07457E-05 1.47902E-05
 -1     22985 3.35576E-02 1.02565E-01 1.56074E-04-1.06191E-01 1.37610E-05 1.89405E-05
 -1     22989 6.80613E-02 6.80613E-02 1.56074E-04-1.11656E-01-1.65546E-05-1.65546E-05
 -1     22990 4.86367E-02 8.34632E-02-9.00922E-05-1.09943E-01 5.86314E-06 6.86486E-06
 -1     22991 6.80566E-02 6.80566E-02 2.37331E-04-1.15392E-01-1.29271E-05-1.29271E-05
 -1     22996 6.81617E-02 6.81617E-02 3.88090E-04-1.11656E-01-9.01865E-06-9.01865E-06
 -1     22997 4.86021E-02 8.34285E-02-1.70335E-04-1.09943E-01 3.12198E-06 3.65536E-06
 -1     22998 6.81364E-02 6.81364E-02 4.22073E-04-1.15392E-01-6.76357E-06-6.76357E-06
 -1     23003 6.82270E-02 6.82270E-02 5.39735E-04-1.11656E-01-4.70635E-06-4.70635E-06
 -1     23004 4.85765E-02 8.34029E-02-2.29808E-04-1.09943E-01 1.53352E-06 1.79552E-06
 -1     23005 6.81911E-02 6.81911E-02 5.49366E-04-1.15392E-01-3.28583E-06-3.28583E-06
 -1     23010 6.82689E-02 6.82689E-02 6.37192E-04-1.11656E-01-2.23109E-06-2.23109E-06
 -1     23011 4.85604E-02 8.33868E-02-2.67349E-04-1.09943E-01 6.79003E-07 7.95009E-07
 -1     23012 6.82250E-02 6.82250E-02 6.28204E-04-1.15393E-01-1.42096E-06-1.42096E-06
 -1     23017 6.82924E-02 6.82924E-02 6.91916E-04-1.11656E-01-8.66497E-07-8.66497E-07
 -1     23018 4.85526E-02 8.33791E-02-2.85358E-04-1.09943E-01 1.88067E-07 2.20198E-07
 -1     23019 6.82411E-02 6.82411E-02 6.65803E-04-1.15393E-01-3.87319E-07-3.87319E-07
 -1     23024 6.83000E-02 6.83000E-02 7.09570E-04-1.11656E-01 1.82639E-14-5.97566E-15
 -1     23025 4.85526E-02 8.33791E-02-2.85358E-04-1.09943E-01-1.88067E-07-2.20198E-07
 -1     23026 6.82411E-02 6.82411E-02 6.65803E-04-1.15393E-01 3.87319E-07 3.87319E-07
 -1     23031 6.82924E-02 6.82924E-02 6.91916E-04-1.11656E-01 8.66497E-07 8.66497E-07
 -1     23032 4.85604E-02 8.33868E-02-2.67349E-04-1.09943E-01-6.79003E-07-7.95009E-07
 -1     23033 6.82250E-02 6.82250E-02 6.28204E-04-1.15393E-01 1.42096E-06 1.42096E-06
 -1     23038 6.82689E-02 6.82689E-02 6.37192E-04-1.11656E-01 2.23109E-06 2.23109E-06
 -1     23039 4.85765E-02 8.34029E-02-2.29808E-04-1.09943E-01-1.53352E-06-1.79552E-06
 -1     23040 6.81911E-02 6.81911E-02 5.49366E-04-1.15392E-01 3.28583E-06 3.28583E-06
 -1     23045 6.82270E-02 6.82270E-02 5.39735E-04-1.11656E-01 4.70635E-06 4.70635E-06
 -1     23046 4.86021E-02 8.34285E-02-1.70335E-04-1.09943E-01-3.12198E-06-3.65536E-06
 -1     23047 6.81364E-02 6.81364E-02 4.22073E-04-1.15392E-01 6.76357E-06 6.76357E-06
 -1     23052 6.81617E-02 6.81617E-02 3.88090E-04-1.11656E-01 9.01865E-06 9.01865E-06
 -1     23053 4.86367E-02 8.34632E-02-9.00922E-05-1.09943E-01-5.86314E-06-6.86486E-06
 -1     23054 6.80566E-02 6.80566E-02 2.37331E-04-1.15392E-01 1.29271E-05 1.29271E-05
 -1     23059 6.80613E-02 6.80613E-02 1.56074E-04-1.11656E-01 1.65546E-05 1.65546E-05
 -1     23063 1.02565E-01 3.35576E-02 1.56074E-04-1.06191E-01-1.89405E-05-1.37610E-05
 -1     23064 8.34632E-02 4.86367E-02-9.00922E-05-1.09943E-01 6.86485E-06 5.86314E-06
 -1     23065 1.03715E-01 3.23984E-02 2.37331E-04-1.09745E-01-1.47902E-05-1.07457E-05
 -1     23070 1.02665E-01 3.36580E-02 3.88090E-04-1.06191E-01-1.03184E-05-7.49679E-06
 -1     23071 8.34285E-02 4.86021E-02-1.70335E-04-1.09943E-01 3.65536E-06 3.12198E-06
 -1     23072 1.03795E-01 3.24782E-02 4.22073E-04-1.09745E-01-7.73835E-06-5.62224E-06
 -1     23077 1.02731E-01 3.37234E-02 5.39735E-04-1.06191E-01-5.38464E-06-3.91217E-06
 -1     23078 8.34029E-02 4.85765E-02-2.29808E-04-1.09943E-01 1.79552E-06 1.53352E-06
 -1     23079 1.03849E-01 3.25329E-02 5.49366E-04-1.09745E-01-3.75939E-06-2.73136E-06
 -1     23084 1.02773E-01 3.37653E-02 6.37192E-04-1.06191E-01-2.55264E-06-1.85460E-06
 -1     23085 8.33868E-02 4.85604E-02-2.67349E-04-1.09943E-01 7.95008E-07 6.79003E-07
 -1     23086 1.03883E-01 3.25667E-02 6.28204E-04-1.09745E-01-1.62575E-06-1.18118E-06
 -1     23091 1.02796E-01 3.37887E-02 6.91916E-04-1.06191E-01-9.91378E-07-7.20279E-07
 -1     23092 8.33791E-02 4.85526E-02-2.85358E-04-1.09943E-01 2.20197E-07 1.88067E-07
 -1     23093 1.03899E-01 3.25828E-02 6.65803E-04-1.09745E-01-4.43140E-07-3.21961E-07
 -1     23098 1.02804E-01 3.37963E-02 7.09570E-04-1.06191E-01 1.92135E-14 2.12601E-14
 -1     23099 8.33791E-02 4.85526E-02-2.85358E-04-1.09943E-01-2.20197E-07-1.88067E-07
 -1     23100 1.03899E-01 3.25828E-02 6.65803E-04-1.09745E-01 4.43140E-07 3.21961E-07
 -1     23105 1.02796E-01 3.37887E-02 6.91916E-04-1.06191E-01 9.91378E-07 7.20279E-07
 -1     23106 8.33868E-02 4.85604E-02-2.67349E-04-1.09943E-01-7.95008E-07-6.79003E-07
 -1     23107 1.03883E-01 3.25667E-02 6.28204E-04-1.09745E-01 1.62575E-06 1.18118E-06
 -1     23112 1.02773E-01 3.37653E-02 6.37192E-04-1.06191E-01 2.55264E-06 1.85460E-06
 -1     23113 8.34029E-02 4.85765E-02-2.29808E-04-1.09943E-01-1.79552E-06-1.53352E-06
 -1     23114 1.03849E-01 3.25329E-02 5.49366E-04-1.09745E-01 3.75939E-06 2.73136E-06
 -1     23119 1.02731E-01 3.37234E-02 5.39735E-04-1.06191E-01 5.38464E-06 3.91217E-06
 -1     23120 8.34285E-02 4.86021E-02-1.70335E-04-1.09943E-01-3.65536E-06-3.12198E-06
 -1     23121 1.03795E-01 3.24782E-02 4.22073E-04-1.09745E-01 7.73835E-06 5.62224E-06
 -1     23126 1.02665E-01 3.36580E-02 3.88090E-04-1.06191E-01 1.03184E-05 7.49679E-06
 -1     23127 8.34632E-02 4.86367E-02-9.00922E-05-1.09943E-01-6.86485E-06-5.86314E-06
 -1     23128 1.03715E-01 3.23984E-02 2.37331E-04-1.09745E-01 1.47902E-05 1.07457E-05
 -1     23133 1.02565E-01 3.35576E-02 1.56074E-04-1.06191E-01 1.89405E-05 1.37610E-05
 -1     23137 1.33691E-01 2.43143E-03 1.56074E-04-9.03317E-02-2.08600E-05-1.06287E-05
 -1     23138 1.16585E-01 1.55148E-02-9.00922E-05-9.91809E-02 7.69754E-06 4.71705E-06
 -1     23139 1.35883E-01 2.30711E-04 2.37331E-04-9.33544E-02-1.62891E-05-8.29970E-06
 -1     23144 1.33791E-01 2.53182E-03 3.88090E-04-9.03317E-02-1.13642E-05-5.79033E-06
 -1     23145 1.16550E-01 1.54801E-02-1.70335E-04-9.91809E-02 4.09874E-06 2.51171E-06
 -1     23146 1.35962E-01 3.10418E-04 4.22073E-04-9.33544E-02-8.52260E-06-4.34248E-06
 -1     23151 1.33857E-01 2.59719E-03 5.39735E-04-9.03317E-02-5.93035E-06-3.02166E-06
 -1     23152 1.16525E-01 1.54545E-02-2.29808E-04-9.91808E-02 2.01331E-06 1.23376E-06
 -1     23153 1.36017E-01 3.65129E-04 5.49366E-04-9.33545E-02-4.14039E-06-2.10963E-06
 -1     23158 1.33899E-01 2.63905E-03 6.37192E-04-9.03318E-02-2.81134E-06-1.43245E-06
 -1     23159 1.16509E-01 1.54384E-02-2.67349E-04-9.91808E-02 8.91440E-07 5.46274E-07
 -1     23160 1.36051E-01 3.98922E-04 6.28204E-04-9.33545E-02-1.79052E-06-9.12311E-07
 -1     23165 1.33922E-01 2.66251E-03 6.91916E-04-9.03318E-02-1.09185E-06-5.56324E-07
 -1     23166 1.16501E-01 1.54307E-02-2.85358E-04-9.91808E-02 2.46906E-07 1.51304E-07
 -1     23167 1.36067E-01 4.15013E-04 6.65803E-04-9.33546E-02-4.88051E-07-2.48674E-07
 -1     23172 1.33930E-01 2.67007E-03 7.09570E-04-9.03318E-02-5.56465E-15 6.48584E-16
 -1     23173 1.16501E-01 1.54307E-02-2.85358E-04-9.91808E-02-2.46906E-07-1.51304E-07
 -1     23174 1.36067E-01 4.15013E-04 6.65803E-04-9.33546E-02 4.88051E-07 2.48674E-07
 -1     23179 1.33922E-01 2.66251E-03 6.91916E-04-9.03318E-02 1.09185E-06 5.56324E-07
 -1     23180 1.16509E-01 1.54384E-02-2.67349E-04-9.91808E-02-8.91440E-07-5.46274E-07
 -1     23181 1.36051E-01 3.98922E-04 6.28204E-04-9.33545E-02 1.79052E-06 9.12311E-07
 -1     23186 1.33899E-01 2.63905E-03 6.37192E-04-9.03318E-02 2.81134E-06 1.43245E-06
 -1     23187 1.16525E-01 1.54545E-02-2.29808E-04-9.91808E-02-2.01331E-06-1.23376E-06
 -1     23188 1.36017E-01 3.65129E-04 5.49366E-04-9.33545E-02 4.14039E-06 2.10963E-06
 -1     23193 1.33857E-01 2.59719E-03 5.39735E-04-9.03317E-02 5.93035E-06 3.02166E-06
 -1     23194 1.16550E-01 1.54801E-02-1.70335E-04-9.91809E-02-4.09874E-06-2.51171E-06
 -1     23195 1.35962E-01 3.10418E-04 4.22073E-04-9.33544E-02 8.52260E-06 4.34248E-06
 -1     23200 1.33791E-01 2.53182E-03 3.88090E-04-9.03317E-02 1.13642E-05 5.79033E-06
 -1     23201 1.16585E-01 1.55148E-02-9.00922E-05-9.91809E-02-7.69754E-06-4.71705E-06
 -1     23202 1.35883E-01 2.30711E-04 2.37331E-04-9.33544E-02 1.62891E-05 8.29970E-06
 -1     23207 1.33691E-01 2.43143E-03 1.56074E-04-9.03317E-02 2.08600E-05 1.06287E-05
 -1     23211 1.58393E-01-2.22705E-02 1.56074E-04-6.56298E-02-2.22658E-05-7.23461E-06
 -1     23212 1.44760E-01-1.26604E-02-9.00922E-05-7.87104E-02 8.34068E-06 3.45482E-06
 -1     23213 1.61411E-01-2.52977E-02 2.37331E-04-6.78259E-02-1.73869E-05-5.64935E-06
 -1     23218 1.58493E-01-2.21701E-02 3.88090E-04-6.56298E-02-1.21301E-05-3.94130E-06
 -1     23219 1.44726E-01-1.26951E-02-1.70335E-04-7.87104E-02 4.44120E-06 1.83960E-06
 -1     23220 1.61491E-01-2.52180E-02 4.22073E-04-6.78260E-02-9.09698E-06-2.95579E-06
 -1     23225 1.58559E-01-2.21047E-02 5.39735E-04-6.56299E-02-6.33003E-06-2.05675E-06
 -1     23226 1.44700E-01-1.27207E-02-2.29808E-04-7.87103E-02 2.18153E-06 9.03615E-07
 -1     23227 1.61546E-01-2.51634E-02 5.49366E-04-6.78260E-02-4.41943E-06-1.43596E-06
 -1     23232 1.58601E-01-2.20629E-02 6.37192E-04-6.56299E-02-3.00081E-06-9.75023E-07
 -1     23233 1.44684E-01-1.27368E-02-2.67349E-04-7.87103E-02 9.65923E-07 4.00097E-07
 -1     23234 1.61579E-01-2.51296E-02 6.28204E-04-6.78260E-02-1.91119E-06-6.20982E-07
 -1     23239 1.58624E-01-2.20394E-02 6.91916E-04-6.56299E-02-1.16544E-06-3.78673E-07
 -1     23240 1.44676E-01-1.27445E-02-2.85358E-04-7.87103E-02 2.67537E-07 1.10817E-07
 -1     23241 1.61596E-01-2.51135E-02 6.65803E-04-6.78261E-02-5.20944E-07-1.69265E-07
 -1     23246 1.58632E-01-2.20319E-02 7.09570E-04-6.56299E-02-4.94577E-14-3.59439E-15
 -1     23247 1.44676E-01-1.27445E-02-2.85358E-04-7.87103E-02-2.67537E-07-1.10817E-07
 -1     23248 1.61596E-01-2.51135E-02 6.65803E-04-6.78261E-02 5.20944E-07 1.69265E-07
 -1     23253 1.58624E-01-2.20394E-02 6.91916E-04-6.56299E-02 1.16544E-06 3.78673E-07
 -1     23254 1.44684E-01-1.27368E-02-2.67349E-04-7.87103E-02-9.65923E-07-4.00097E-07
 -1     23255 1.61579E-01-2.51296E-02 6.28204E-04-6.78260E-02 1.91119E-06 6.20982E-07
 -1     23260 1.58601E-01-2.20629E-02 6.37192E-04-6.56299E-02 3.00081E-06 9.75023E-07
 -1     23261 1.44700E-01-1.27207E-02-2.29808E-04-7.87103E-02-2.18153E-06-9.03615E-07
 -1     23262 1.61546E-01-2.51634E-02 5.49366E-04-6.78260E-02 4.41943E-06 1.43596E-06
 -1     23267 1.58559E-01-2.21047E-02 5.39735E-04-6.56299E-02 6.33003E-06 2.05675E-06
 -1     23268 1.44726E-01-1.26951E-02-1.70335E-04-7.87104E-02-4.44120E-06-1.83960E-06
 -1     23269 1.61491E-01-2.52180E-02 4.22073E-04-6.78260E-02 9.09698E-06 2.95579E-06
 -1     23274 1.58493E-01-2.21701E-02 3.88090E-04-6.56298E-02 1.21301E-05 3.94130E-06
 -1     23275 1.44760E-01-1.26604E-02-9.00922E-05-7.87104E-02-8.34068E-06-3.45482E-06
 -1     23276 1.61411E-01-2.52977E-02 2.37331E-04-6.78259E-02 1.73869E-05 5.64935E-06
 -1     23281 1.58393E-01-2.22705E-02 1.56074E-04-6.56298E-02 2.22658E-05 7.23461E-06
 -1     23285 1.74253E-01-3.81300E-02 1.56074E-04-3.45036E-02-2.31234E-05-3.66240E-06
 -1     23286 1.65231E-01-3.31309E-02-9.00922E-05-5.05352E-02 8.77844E-06 2.10752E-06
 -1     23287 1.77801E-01-4.16880E-02 2.37331E-04-3.56582E-02-1.80566E-05-2.85989E-06
 -1     23292 1.74353E-01-3.80296E-02 3.88090E-04-3.45036E-02-1.25973E-05-1.99522E-06
 -1     23293 1.65196E-01-3.31656E-02-1.70335E-04-5.05352E-02 4.67430E-06 1.12220E-06
 -1     23294 1.77881E-01-4.16083E-02 4.22073E-04-3.56582E-02-9.44737E-06-1.49632E-06
 -1     23299 1.74418E-01-3.79643E-02 5.39735E-04-3.45037E-02-6.57384E-06-1.04120E-06
 -1     23300 1.65171E-01-3.31911E-02-2.29808E-04-5.05352E-02 2.29602E-06 5.51228E-07
 -1     23301 1.77936E-01-4.15536E-02 5.49366E-04-3.56582E-02-4.58965E-06-7.26934E-07
 -1     23306 1.74460E-01-3.79224E-02 6.37192E-04-3.45037E-02-3.11639E-06-4.93591E-07
 -1     23307 1.65154E-01-3.32072E-02-2.67349E-04-5.05351E-02 1.01662E-06 2.44070E-07
 -1     23308 1.77970E-01-4.15199E-02 6.28204E-04-3.56583E-02-1.98480E-06-3.14364E-07
 -1     23313 1.74484E-01-3.78990E-02 6.91916E-04-3.45037E-02-1.21032E-06-1.91698E-07
 -1     23314 1.65147E-01-3.32149E-02-2.85358E-04-5.05351E-02 2.81578E-07 6.76012E-08
 -1     23315 1.77986E-01-4.15038E-02 6.65803E-04-3.56583E-02-5.41008E-07-8.56881E-08
 -1     23320 1.74491E-01-3.78915E-02 7.09570E-04-3.45037E-02-2.49680E-14-3.55722E-15
 -1     23321 1.65147E-01-3.32149E-02-2.85358E-04-5.05351E-02-2.81578E-07-6.76012E-08
 -1     23322 1.77986E-01-4.15038E-02 6.65803E-04-3.56583E-02 5.41008E-07 8.56881E-08
 -1     23327 1.74484E-01-3.78990E-02 6.91916E-04-3.45037E-02 1.21032E-06 1.91698E-07
 -1     23328 1.65154E-01-3.32072E-02-2.67349E-04-5.05351E-02-1.01662E-06-2.44070E-07
 -1     23329 1.77970E-01-4.15199E-02 6.28204E-04-3.56583E-02 1.98480E-06 3.14364E-07
 -1     23334 1.74460E-01-3.79224E-02 6.37192E-04-3.45037E-02 3.11639E-06 4.93591E-07
 -1     23335 1.65171E-01-3.31911E-02-2.29808E-04-5.05352E-02-2.29602E-06-5.51228E-07
 -1     23336 1.77936E-01-4.15536E-02 5.49366E-04-3.56582E-02 4.58965E-06 7.26934E-07
 -1     23341 1.74418E-01-3.79643E-02 5.39735E-04-3.45037E-02 6.57384E-06 1.04120E-06
 -1     23342 1.65196E-01-3.31656E-02-1.70335E-04-5.05352E-02-4.67430E-06-1.12220E-06
 -1     23343 1.77881E-01-4.16083E-02 4.22073E-04-3.56582E-02 9.44737E-06 1.49632E-06
 -1     23348 1.74353E-01-3.80296E-02 3.88090E-04-3.45036E-02 1.25973E-05 1.99522E-06
 -1     23349 1.65231E-01-3.31309E-02-9.00922E-05-5.05352E-02-8.77844E-06-2.10752E-06
 -1     23350 1.77801E-01-4.16880E-02 2.37331E-04-3.56582E-02 1.80566E-05 2.85989E-06
 -1     23355 1.74253E-01-3.81300E-02 1.56074E-04-3.45036E-02 2.31234E-05 3.66240E-06
 -1     23359 1.75993E-01-4.38929E-02-9.00922E-05-1.74132E-02 9.00005E-06 7.08324E-07
 -1     23363 1.75958E-01-4.39275E-02-1.70335E-04-1.74132E-02 4.79230E-06 3.77166E-07
 -1     23367 1.75932E-01-4.39531E-02-2.29808E-04-1.74132E-02 2.35398E-06 1.85265E-07
 -1     23371 1.75916E-01-4.39692E-02-2.67349E-04-1.74132E-02 1.04228E-06 8.20311E-08
 -1     23375 1.75909E-01-4.39769E-02-2.85358E-04-1.74132E-02 2.88686E-07 2.27207E-08
 -1     23379 1.75909E-01-4.39769E-02-2.85358E-04-1.74132E-02-2.88686E-07-2.27207E-08
 -1     23383 1.75916E-01-4.39692E-02-2.67349E-04-1.74132E-02-1.04228E-06-8.20311E-08
 -1     23387 1.75932E-01-4.39531E-02-2.29808E-04-1.74132E-02-2.35398E-06-1.85265E-07
 -1     23391 1.75958E-01-4.39275E-02-1.70335E-04-1.74132E-02-4.79230E-06-3.77166E-07
 -1     23395 1.75993E-01-4.38929E-02-9.00922E-05-1.74132E-02-9.00005E-06-7.08324E-07
 -1     23401-3.16910E-02 1.67629E-01 1.40492E-04-3.23815E-02-3.45280E-06-2.18001E-05
 -1     23402-3.70939E-02 1.69266E-01-8.23520E-05-1.63421E-02 6.73843E-07 8.56199E-06
 -1     23403-3.49187E-02 1.70855E-01 2.15208E-04-3.34299E-02-2.72033E-06-1.71755E-05
 -1     23408-3.15999E-02 1.67720E-01 3.50722E-04-3.23815E-02-1.93433E-06-1.22129E-05
 -1     23409-3.71257E-02 1.69235E-01-1.55752E-04-1.63421E-02 3.69608E-07 4.69631E-06
 -1     23410-3.48460E-02 1.70928E-01 3.83478E-04-3.34299E-02-1.46826E-06-9.27026E-06
 -1     23415-3.15401E-02 1.67780E-01 4.89261E-04-3.23815E-02-1.04262E-06-6.58282E-06
 -1     23416-3.71491E-02 1.69211E-01-2.10313E-04-1.63421E-02 1.88599E-07 2.39638E-06
 -1     23417-3.47959E-02 1.70978E-01 5.00074E-04-3.34300E-02-7.41782E-07-4.68343E-06
 -1     23422-3.15016E-02 1.67819E-01 5.78823E-04-3.23815E-02-5.14132E-07-3.24610E-06
 -1     23423-3.71640E-02 1.69196E-01-2.44885E-04-1.63421E-02 8.68059E-08 1.10297E-06
 -1     23424-3.47648E-02 1.71009E-01 5.72624E-04-3.34300E-02-3.34785E-07-2.11375E-06
 -1     23429-3.14799E-02 1.67840E-01 6.29315E-04-3.23815E-02-2.07007E-07-1.30699E-06
 -1     23430-3.71711E-02 1.69189E-01-2.61515E-04-1.63421E-02 2.47351E-08 3.14289E-07
 -1     23431-3.47499E-02 1.71024E-01 6.07328E-04-3.34300E-02-9.42170E-08-5.94863E-07
 -1     23436-3.14729E-02 1.67847E-01 6.45636E-04-3.23816E-02 3.95670E-15 6.33222E-15
 -1     23437-3.71711E-02 1.69189E-01-2.61515E-04-1.63421E-02-2.47351E-08-3.14289E-07
 -1     23438-3.47499E-02 1.71024E-01 6.07328E-04-3.34300E-02 9.42170E-08 5.94863E-07
 -1     23443-3.14799E-02 1.67840E-01 6.29315E-04-3.23815E-02 2.07007E-07 1.30699E-06
 -1     23444-3.71640E-02 1.69196E-01-2.44885E-04-1.63421E-02-8.68059E-08-1.10297E-06
 -1     23445-3.47648E-02 1.71009E-01 5.72624E-04-3.34300E-02 3.34785E-07 2.11375E-06
 -1     23450-3.15016E-02 1.67819E-01 5.78823E-04-3.23815E-02 5.14132E-07 3.24610E-06
 -1     23451-3.71491E-02 1.69211E-01-2.10313E-04-1.63421E-02-1.88599E-07-2.39638E-06
 -1     23452-3.47959E-02 1.70978E-01 5.00074E-04-3.34300E-02 7.41782E-07 4.68343E-06
 -1     23457-3.15401E-02 1.67780E-01 4.89261E-04-3.23815E-02 1.04262E-06 6.58282E-06
 -1     23458-3.71257E-02 1.69235E-01-1.55752E-04-1.63421E-02-3.69608E-07-4.69631E-06
 -1     23459-3.48460E-02 1.70928E-01 3.83478E-04-3.34299E-02 1.46826E-06 9.27026E-06
 -1     23464-3.15999E-02 1.67720E-01 3.50722E-04-3.23815E-02 1.93433E-06 1.22129E-05
 -1     23465-3.70939E-02 1.69266E-01-8.23520E-05-1.63421E-02-6.73843E-07-8.56199E-06
 -1     23466-3.49187E-02 1.70855E-01 2.15208E-04-3.34299E-02 2.72033E-06 1.71755E-05
 -1     23471-3.16910E-02 1.67629E-01 1.40492E-04-3.23815E-02 3.45280E-06 2.18001E-05
 -1     23475-1.68068E-02 1.52745E-01 1.40492E-04-6.15934E-02-6.82059E-06-2.09916E-05
 -1     23476-2.69939E-02 1.59166E-01-8.23520E-05-4.74267E-02 2.00494E-06 8.35116E-06
 -1     23477-1.95526E-02 1.55489E-01 2.15208E-04-6.35875E-02-5.37368E-06-1.65385E-05
 -1     23482-1.67157E-02 1.52836E-01 3.50722E-04-6.15933E-02-3.82102E-06-1.17599E-05
 -1     23483-2.70257E-02 1.59135E-01-1.55752E-04-4.74267E-02 1.09972E-06 4.58067E-06
 -1     23484-1.94800E-02 1.55561E-01 3.83478E-04-6.35875E-02-2.90038E-06-8.92644E-06
 -1     23489-1.66559E-02 1.52896E-01 4.89261E-04-6.15933E-02-2.05956E-06-6.33867E-06
 -1     23490-2.70491E-02 1.59111E-01-2.10313E-04-4.74267E-02 5.61154E-07 2.33738E-06
 -1     23491-1.94298E-02 1.55612E-01 5.00074E-04-6.35876E-02-1.46530E-06-4.50972E-06
 -1     23496-1.66174E-02 1.52935E-01 5.78823E-04-6.15934E-02-1.01560E-06-3.12571E-06
 -1     23497-2.70640E-02 1.59096E-01-2.44885E-04-4.74267E-02 2.58280E-07 1.07581E-06
 -1     23498-1.93987E-02 1.55643E-01 5.72624E-04-6.35876E-02-6.61325E-07-2.03535E-06
 -1     23503-1.65958E-02 1.52956E-01 6.29315E-04-6.15934E-02-4.08916E-07-1.25851E-06
 -1     23504-2.70711E-02 1.59089E-01-2.61515E-04-4.74267E-02 7.35961E-08 3.06550E-07
 -1     23505-1.93838E-02 1.55658E-01 6.07328E-04-6.35876E-02-1.86114E-07-5.72800E-07
 -1     23510-1.65888E-02 1.52963E-01 6.45636E-04-6.15934E-02-1.12633E-14-3.13200E-14
 -1     23511-2.70711E-02 1.59089E-01-2.61515E-04-4.74267E-02-7.35961E-08-3.06550E-07
 -1     23512-1.93838E-02 1.55658E-01 6.07328E-04-6.35876E-02 1.86114E-07 5.72800E-07
 -1     23517-1.65958E-02 1.52956E-01 6.29315E-04-6.15934E-02 4.08916E-07 1.25851E-06
 -1     23518-2.70640E-02 1.59096E-01-2.44885E-04-4.74267E-02-2.58280E-07-1.07581E-06
 -1     23519-1.93987E-02 1.55643E-01 5.72624E-04-6.35876E-02 6.61325E-07 2.03535E-06
 -1     23524-1.66174E-02 1.52935E-01 5.78823E-04-6.15934E-02 1.01560E-06 3.12571E-06
 -1     23525-2.70491E-02 1.59111E-01-2.10313E-04-4.74267E-02-5.61154E-07-2.33738E-06
 -1     23526-1.94298E-02 1.55612E-01 5.00074E-04-6.35876E-02 1.46530E-06 4.50972E-06
 -1     23531-1.66559E-02 1.52896E-01 4.89261E-04-6.15933E-02 2.05956E-06 6.33867E-06
 -1     23532-2.70257E-02 1.59135E-01-1.55752E-04-4.74267E-02-1.09972E-06-4.58067E-06
 -1     23533-1.94800E-02 1.55561E-01 3.83478E-04-6.35875E-02 2.90038E-06 8.92644E-06
 -1     23538-1.67157E-02 1.52836E-01 3.50722E-04-6.15933E-02 3.82102E-06 1.17599E-05
 -1     23539-2.69939E-02 1.59166E-01-8.23520E-05-4.74267E-02-2.00494E-06-8.35116E-06
 -1     23540-1.95526E-02 1.55489E-01 2.15208E-04-6.35875E-02 5.37368E-06 1.65385E-05
 -1     23545-1.68068E-02 1.52745E-01 1.40492E-04-6.15934E-02 6.82059E-06 2.09916E-05
 -1     23549 6.37584E-03 1.29563E-01 1.40492E-04-8.47760E-02-1.00204E-05-1.96662E-05
 -1     23550-7.78259E-03 1.39955E-01-8.23520E-05-7.38689E-02 3.28666E-06 7.93471E-06
 -1     23551 4.38056E-03 1.31556E-01 2.15208E-04-8.75207E-02-7.89471E-06-1.54942E-05
 -1     23556 6.46691E-03 1.29654E-01 3.50722E-04-8.47759E-02-5.61363E-06-1.10174E-05
 -1     23557-7.81432E-03 1.39923E-01-1.55752E-04-7.38689E-02 1.80276E-06 4.35224E-06
 -1     23558 4.45323E-03 1.31628E-01 3.83478E-04-8.75207E-02-4.26107E-06-8.36282E-06
 -1     23563 6.52670E-03 1.29713E-01 4.89261E-04-8.47759E-02-3.02579E-06-5.93845E-06
 -1     23564-7.83781E-03 1.39900E-01-2.10313E-04-7.38689E-02 9.19891E-07 2.22082E-06
 -1     23565 4.50338E-03 1.31679E-01 5.00074E-04-8.75208E-02-2.15273E-06-4.22498E-06
 -1     23570 6.56521E-03 1.29752E-01 5.78823E-04-8.47760E-02-1.49207E-06-2.92835E-06
 -1     23571-7.85265E-03 1.39885E-01-2.44885E-04-7.38688E-02 4.23394E-07 1.02216E-06
 -1     23572 4.53451E-03 1.31710E-01 5.72624E-04-8.75208E-02-9.71582E-07-1.90684E-06
 -1     23577 6.58688E-03 1.29774E-01 6.29315E-04-8.47760E-02-6.00757E-07-1.17905E-06
 -1     23578-7.85977E-03 1.39878E-01-2.61515E-04-7.38688E-02 1.20645E-07 2.91263E-07
 -1     23579 4.54938E-03 1.31725E-01 6.07328E-04-8.75208E-02-2.73428E-07-5.36633E-07
 -1     23584 6.59388E-03 1.29781E-01 6.45636E-04-8.47760E-02 7.46544E-15-7.14778E-15
 -1     23585-7.85977E-03 1.39878E-01-2.61515E-04-7.38688E-02-1.20645E-07-2.91263E-07
 -1     23586 4.54938E-03 1.31725E-01 6.07328E-04-8.75208E-02 2.73428E-07 5.36633E-07
 -1     23591 6.58688E-03 1.29774E-01 6.29315E-04-8.47760E-02 6.00757E-07 1.17905E-06
 -1     23592-7.85265E-03 1.39885E-01-2.44885E-04-7.38688E-02-4.23394E-07-1.02216E-06
 -1     23593 4.53451E-03 1.31710E-01 5.72624E-04-8.75208E-02 9.71582E-07 1.90684E-06
 -1     23598 6.56521E-03 1.29752E-01 5.78823E-04-8.47760E-02 1.49207E-06 2.92835E-06
 -1     23599-7.83781E-03 1.39900E-01-2.10313E-04-7.38689E-02-9.19891E-07-2.22082E-06
 -1     23600 4.50338E-03 1.31679E-01 5.00074E-04-8.75208E-02 2.15273E-06 4.22498E-06
 -1     23605 6.52670E-03 1.29713E-01 4.89261E-04-8.47759E-02 3.02579E-06 5.93845E-06
 -1     23606-7.81432E-03 1.39923E-01-1.55752E-04-7.38689E-02-1.80276E-06-4.35224E-06
 -1     23607 4.45323E-03 1.31628E-01 3.83478E-04-8.75207E-02 4.26107E-06 8.36282E-06
 -1     23612 6.46691E-03 1.29654E-01 3.50722E-04-8.47759E-02 5.61363E-06 1.10174E-05
 -1     23613-7.78259E-03 1.39955E-01-8.23520E-05-7.38689E-02-3.28666E-06-7.93471E-06
 -1     23614 4.38056E-03 1.31556E-01 2.15208E-04-8.75207E-02 7.89471E-06 1.54942E-05
 -1     23619 6.37584E-03 1.29563E-01 1.40492E-04-8.47760E-02 1.00204E-05 1.96662E-05
 -1     23623 3.55876E-02 1.00351E-01 1.40492E-04-9.96601E-02-1.29735E-05-1.78565E-05
 -1     23624 1.86595E-02 1.13513E-01-8.23520E-05-9.30802E-02 4.48746E-06 7.32287E-06
 -1     23625 3.45381E-02 1.01398E-01 2.15208E-04-1.02887E-01-1.02214E-05-1.40685E-05
 -1     23630 3.56787E-02 1.00442E-01 3.50722E-04-9.96601E-02-7.26802E-06-1.00036E-05
 -1     23631 1.86278E-02 1.13481E-01-1.55752E-04-9.30802E-02 2.46140E-06 4.01665E-06
 -1     23632 3.46108E-02 1.01471E-01 3.83478E-04-1.02887E-01-5.51685E-06-7.59328E-06
 -1     23637 3.57385E-02 1.00502E-01 4.89261E-04-9.96601E-02-3.91752E-06-5.39200E-06
 -1     23638 1.86043E-02 1.13458E-01-2.10313E-04-9.30802E-02 1.25598E-06 2.04957E-06
 -1     23639 3.46610E-02 1.01521E-01 5.00074E-04-1.02887E-01-2.78716E-06-3.83620E-06
 -1     23644 3.57770E-02 1.00540E-01 5.78823E-04-9.96601E-02-1.93180E-06-2.65889E-06
 -1     23645 1.85895E-02 1.13443E-01-2.44885E-04-9.30802E-02 5.78084E-07 9.43347E-07
 -1     23646 3.46921E-02 1.01552E-01 5.72624E-04-1.02887E-01-1.25792E-06-1.73137E-06
 -1     23651 3.57987E-02 1.00562E-01 6.29315E-04-9.96602E-02-7.77806E-07-1.07056E-06
 -1     23652 1.85823E-02 1.13436E-01-2.61515E-04-9.30802E-02 1.64723E-07 2.68804E-07
 -1     23653 3.47070E-02 1.01567E-01 6.07328E-04-1.02887E-01-3.54010E-07-4.87253E-07
 -1     23658 3.58057E-02 1.00569E-01 6.45636E-04-9.96602E-02 5.55473E-15-1.42001E-14
 -1     23659 1.85823E-02 1.13436E-01-2.61515E-04-9.30802E-02-1.64723E-07-2.68804E-07
 -1     23660 3.47070E-02 1.01567E-01 6.07328E-04-1.02887E-01 3.54010E-07 4.87253E-07
 -1     23665 3.57987E-02 1.00562E-01 6.29315E-04-9.96602E-02 7.77806E-07 1.07056E-06
 -1     23666 1.85895E-02 1.13443E-01-2.44885E-04-9.30802E-02-5.78084E-07-9.43347E-07
 -1     23667 3.46921E-02 1.01552E-01 5.72624E-04-1.02887E-01 1.25792E-06 1.73137E-06
 -1     23672 3.57770E-02 1.00540E-01 5.78823E-04-9.96601E-02 1.93180E-06 2.65889E-06
 -1     23673 1.86043E-02 1.13458E-01-2.10313E-04-9.30802E-02-1.25598E-06-2.04957E-06
 -1     23674 3.46610E-02 1.01521E-01 5.00074E-04-1.02887E-01 2.78716E-06 3.83620E-06
 -1     23679 3.57385E-02 1.00502E-01 4.89261E-04-9.96601E-02 3.91752E-06 5.39200E-06
 -1     23680 1.86278E-02 1.13481E-01-1.55752E-04-9.30802E-02-2.46140E-06-4.01665E-06
 -1     23681 3.46108E-02 1.01471E-01 3.83478E-04-1.02887E-01 5.51685E-06 7.59328E-06
 -1     23686 3.56787E-02 1.00442E-01 3.50722E-04-9.96601E-02 7.26802E-06 1.00036E-05
 -1     23687 1.86595E-02 1.13513E-01-8.23520E-05-9.30802E-02-4.48746E-06-7.32287E-06
 -1     23688 3.45381E-02 1.01398E-01 2.15208E-04-1.02887E-01 1.02214E-05 1.40685E-05
 -1     23693 3.55876E-02 1.00351E-01 1.40492E-04-9.96601E-02 1.29735E-05 1.78565E-05
 -1     23697 6.79692E-02 6.79692E-02 1.40492E-04-1.04789E-01-1.56072E-05-1.56072E-05
 -1     23698 4.97441E-02 8.24284E-02-8.23519E-05-1.03180E-01 5.57776E-06 6.53072E-06
 -1     23699 6.79681E-02 6.79681E-02 2.15208E-04-1.08182E-01-1.22963E-05-1.22963E-05
 -1     23704 6.80602E-02 6.80602E-02 3.50722E-04-1.04789E-01-8.74344E-06-8.74344E-06
 -1     23705 4.97124E-02 8.23967E-02-1.55752E-04-1.03180E-01 3.05944E-06 3.58215E-06
 -1     23706 6.80408E-02 6.80408E-02 3.83478E-04-1.08182E-01-6.63677E-06-6.63677E-06
 -1     23711 6.81200E-02 6.81200E-02 4.89261E-04-1.04789E-01-4.71278E-06-4.71278E-06
 -1     23712 4.96889E-02 8.23732E-02-2.10313E-04-1.03180E-01 1.56114E-06 1.82786E-06
 -1     23713 6.80909E-02 6.80909E-02 5.00074E-04-1.08182E-01-3.35296E-06-3.35296E-06
 -1     23718 6.81586E-02 6.81586E-02 5.78823E-04-1.04789E-01-2.32395E-06-2.32395E-06
 -1     23719 4.96741E-02 8.23583E-02-2.44885E-04-1.03180E-01 7.18540E-07 8.41301E-07
 -1     23720 6.81221E-02 6.81221E-02 5.72624E-04-1.08182E-01-1.51328E-06-1.51328E-06
 -1     23725 6.81802E-02 6.81802E-02 6.29315E-04-1.04789E-01-9.35701E-07-9.35701E-07
 -1     23726 4.96669E-02 8.23512E-02-2.61515E-04-1.03180E-01 2.04746E-07 2.39726E-07
 -1     23727 6.81370E-02 6.81370E-02 6.07328E-04-1.08182E-01-4.25875E-07-4.25875E-07
 -1     23732 6.81873E-02 6.81873E-02 6.45636E-04-1.04789E-01-3.12284E-14 8.71052E-16
 -1     23733 4.96669E-02 8.23512E-02-2.61515E-04-1.03180E-01-2.04746E-07-2.39726E-07
 -1     23734 6.81370E-02 6.81370E-02 6.07328E-04-1.08182E-01 4.25875E-07 4.25875E-07
 -1     23739 6.81802E-02 6.81802E-02 6.29315E-04-1.04789E-01 9.35701E-07 9.35701E-07
 -1     23740 4.96741E-02 8.23583E-02-2.44885E-04-1.03180E-01-7.18540E-07-8.41301E-07
 -1     23741 6.81221E-02 6.81221E-02 5.72624E-04-1.08182E-01 1.51328E-06 1.51328E-06
 -1     23746 6.81586E-02 6.81586E-02 5.78823E-04-1.04789E-01 2.32395E-06 2.32395E-06
 -1     23747 4.96889E-02 8.23732E-02-2.10313E-04-1.03180E-01-1.56114E-06-1.82786E-06
 -1     23748 6.80909E-02 6.80909E-02 5.00074E-04-1.08182E-01 3.35296E-06 3.35296E-06
 -1     23753 6.81200E-02 6.81200E-02 4.89261E-04-1.04789E-01 4.71278E-06 4.71278E-06
 -1     23754 4.97124E-02 8.23967E-02-1.55752E-04-1.03180E-01-3.05944E-06-3.58215E-06
 -1     23755 6.80408E-02 6.80408E-02 3.83478E-04-1.08182E-01 6.63677E-06 6.63677E-06
 -1     23760 6.80602E-02 6.80602E-02 3.50722E-04-1.04789E-01 8.74344E-06 8.74344E-06
 -1     23761 4.97441E-02 8.24284E-02-8.23519E-05-1.03180E-01-5.57776E-06-6.53072E-06
 -1     23762 6.79681E-02 6.79681E-02 2.15208E-04-1.08182E-01 1.22963E-05 1.22963E-05
 -1     23767 6.79692E-02 6.79692E-02 1.40492E-04-1.04789E-01 1.56072E-05 1.56072E-05
 -1     23771 1.00351E-01 3.55876E-02 1.40492E-04-9.96601E-02-1.78565E-05-1.29735E-05
 -1     23772 8.24284E-02 4.97441E-02-8.23520E-05-1.03180E-01 6.53071E-06 5.57776E-06
 -1     23773 1.01398E-01 3.45381E-02 2.15208E-04-1.02887E-01-1.40685E-05-1.02213E-05
 -1     23778 1.00442E-01 3.56787E-02 3.50722E-04-9.96601E-02-1.00036E-05-7.26801E-06
 -1     23779 8.23967E-02 4.97124E-02-1.55752E-04-1.03180E-01 3.58214E-06 3.05944E-06
 -1     23780 1.01471E-01 3.46108E-02 3.83478E-04-1.02887E-01-7.59328E-06-5.51684E-06
 -1     23785 1.00502E-01 3.57385E-02 4.89261E-04-9.96601E-02-5.39199E-06-3.91751E-06
 -1     23786 8.23732E-02 4.96889E-02-2.10313E-04-1.03180E-01 1.82786E-06 1.56114E-06
 -1     23787 1.01521E-01 3.46610E-02 5.00074E-04-1.02887E-01-3.83620E-06-2.78716E-06
 -1     23792 1.00540E-01 3.57770E-02 5.78823E-04-9.96601E-02-2.65888E-06-1.93179E-06
 -1     23793 8.23583E-02 4.96741E-02-2.44885E-04-1.03180E-01 8.41299E-07 7.18540E-07
 -1     23794 1.01552E-01 3.46921E-02 5.72624E-04-1.02887E-01-1.73137E-06-1.25792E-06
 -1     23799 1.00562E-01 3.57987E-02 6.29315E-04-9.96602E-02-1.07055E-06-7.77804E-07
 -1     23800 8.23512E-02 4.96669E-02-2.61515E-04-1.03180E-01 2.39725E-07 2.04746E-07
 -1     23801 1.01567E-01 3.47070E-02 6.07328E-04-1.02887E-01-4.87252E-07-3.54010E-07
 -1     23806 1.00569E-01 3.58057E-02 6.45636E-04-9.96602E-02-1.13059E-14 4.41544E-15
 -1     23807 8.23512E-02 4.96669E-02-2.61515E-04-1.03180E-01-2.39725E-07-2.04746E-07
 -1     23808 1.01567E-01 3.47070E-02 6.07328E-04-1.02887E-01 4.87252E-07 3.54010E-07
 -1     23813 1.00562E-01 3.57987E-02 6.29315E-04-9.96602E-02 1.07055E-06 7.77804E-07
 -1     23814 8.23583E-02 4.96741E-02-2.44885E-04-1.03180E-01-8.41299E-07-7.18540E-07
 -1     23815 1.01552E-01 3.46921E-02 5.72624E-04-1.02887E-01 1.73137E-06 1.25792E-06
 -1     23820 1.00540E-01 3.57770E-02 5.78823E-04-9.96601E-02 2.65888E-06 1.93179E-06
 -1     23821 8.23732E-02 4.96889E-02-2.10313E-04-1.03180E-01-1.82786E-06-1.56114E-06
 -1     23822 1.01521E-01 3.46610E-02 5.00074E-04-1.02887E-01 3.83620E-06 2.78716E-06
 -1     23827 1.00502E-01 3.57385E-02 4.89261E-04-9.96601E-02 5.39199E-06 3.91751E-06
 -1     23828 8.23967E-02 4.97124E-02-1.55752E-04-1.03180E-01-3.58214E-06-3.05944E-06
 -1     23829 1.01471E-01 3.46108E-02 3.83478E-04-1.02887E-01 7.59328E-06 5.51684E-06
 -1     23834 1.00442E-01 3.56787E-02 3.50722E-04-9.96601E-02 1.00036E-05 7.26801E-06
 -1     23835 8.24284E-02 4.97441E-02-8.23520E-05-1.03180E-01-6.53071E-06-5.57776E-06
 -1     23836 1.01398E-01 3.45381E-02 2.15208E-04-1.02887E-01 1.40685E-05 1.02213E-05
 -1     23841 1.00351E-01 3.55876E-02 1.40492E-04-9.96601E-02 1.78565E-05 1.29735E-05
 -1     23845 1.29563E-01 6.37583E-03 1.40492E-04-8.47760E-02-1.96662E-05-1.00204E-05
 -1     23846 1.13513E-01 1.86595E-02-8.23520E-05-9.30802E-02 7.32287E-06 4.48746E-06
 -1     23847 1.31556E-01 4.38056E-03 2.15208E-04-8.75207E-02-1.54942E-05-7.89471E-06
 -1     23852 1.29654E-01 6.46690E-03 3.50722E-04-8.47759E-02-1.10174E-05-5.61363E-06
 -1     23853 1.13481E-01 1.86278E-02-1.55752E-04-9.30802E-02 4.01664E-06 2.46140E-06
 -1     23854 1.31628E-01 4.45322E-03 3.83478E-04-8.75207E-02-8.36282E-06-4.26107E-06
 -1     23859 1.29713E-01 6.52669E-03 4.89261E-04-8.47759E-02-5.93845E-06-3.02579E-06
 -1     23860 1.13458E-01 1.86043E-02-2.10313E-04-9.30802E-02 2.04957E-06 1.25598E-06
 -1     23861 1.31679E-01 4.50338E-03 5.00074E-04-8.75208E-02-4.22498E-06-2.15273E-06
 -1     23866 1.29752E-01 6.56521E-03 5.78823E-04-8.47760E-02-2.92835E-06-1.49207E-06
 -1     23867 1.13443E-01 1.85895E-02-2.44885E-04-9.30802E-02 9.43345E-07 5.78082E-07
 -1     23868 1.31710E-01 4.53451E-03 5.72624E-04-8.75208E-02-1.90684E-06-9.71581E-07
 -1     23873 1.29774E-01 6.58688E-03 6.29315E-04-8.47760E-02-1.17905E-06-6.00756E-07
 -1     23874 1.13436E-01 1.85823E-02-2.61515E-04-9.30802E-02 2.68803E-07 1.64723E-07
 -1     23875 1.31725E-01 4.54937E-03 6.07328E-04-8.75208E-02-5.36634E-07-2.73428E-07
 -1     23880 1.29781E-01 6.59387E-03 6.45636E-04-8.47760E-02-1.52661E-14 9.01425E-15
 -1     23881 1.13436E-01 1.85823E-02-2.61515E-04-9.30802E-02-2.68803E-07-1.64723E-07
 -1     23882 1.31725E-01 4.54937E-03 6.07328E-04-8.75208E-02 5.36634E-07 2.73428E-07
 -1     23887 1.29774E-01 6.58688E-03 6.29315E-04-8.47760E-02 1.17905E-06 6.00756E-07
 -1     23888 1.13443E-01 1.85895E-02-2.44885E-04-9.30802E-02-9.43345E-07-5.78082E-07
 -1     23889 1.31710E-01 4.53451E-03 5.72624E-04-8.75208E-02 1.90684E-06 9.71581E-07
 -1     23894 1.29752E-01 6.56521E-03 5.78823E-04-8.47760E-02 2.92835E-06 1.49207E-06
 -1     23895 1.13458E-01 1.86043E-02-2.10313E-04-9.30802E-02-2.04957E-06-1.25598E-06
 -1     23896 1.31679E-01 4.50338E-03 5.00074E-04-8.75208E-02 4.22498E-06 2.15273E-06
 -1     23901 1.29713E-01 6.52669E-03 4.89261E-04-8.47759E-02 5.93845E-06 3.02579E-06
 -1     23902 1.13481E-01 1.86278E-02-1.55752E-04-9.30802E-02-4.01664E-06-2.46140E-06
 -1     23903 1.31628E-01 4.45322E-03 3.83478E-04-8.75207E-02 8.36282E-06 4.26107E-06
 -1     23908 1.29654E-01 6.46690E-03 3.50722E-04-8.47759E-02 1.10174E-05 5.61363E-06
 -1     23909 1.13513E-01 1.86595E-02-8.23520E-05-9.30802E-02-7.32287E-06-4.48746E-06
 -1     23910 1.31556E-01 4.38056E-03 2.15208E-04-8.75207E-02 1.54942E-05 7.89471E-06
 -1     23915 1.29563E-01 6.37583E-03 1.40492E-04-8.47760E-02 1.96662E-05 1.00204E-05
 -1     23919 1.52745E-01-1.68068E-02 1.40492E-04-6.15934E-02-2.09916E-05-6.82059E-06
 -1     23920 1.39955E-01-7.78259E-03-8.23519E-05-7.38689E-02 7.93471E-06 3.28666E-06
 -1     23921 1.55489E-01-1.95526E-02 2.15208E-04-6.35875E-02-1.65385E-05-5.37368E-06
 -1     23926 1.52836E-01-1.67157E-02 3.50722E-04-6.15933E-02-1.17599E-05-3.82102E-06
 -1     23927 1.39923E-01-7.81432E-03-1.55752E-04-7.38689E-02 4.35225E-06 1.80276E-06
 -1     23928 1.55561E-01-1.94800E-02 3.83478E-04-6.35875E-02-8.92644E-06-2.90038E-06
 -1     23933 1.52896E-01-1.66559E-02 4.89261E-04-6.15933E-02-6.33868E-06-2.05956E-06
 -1     23934 1.39900E-01-7.83781E-03-2.10313E-04-7.38689E-02 2.22082E-06 9.19891E-07
 -1     23935 1.55612E-01-1.94298E-02 5.00074E-04-6.35876E-02-4.50973E-06-1.46530E-06
 -1     23940 1.52935E-01-1.66174E-02 5.78823E-04-6.15934E-02-3.12571E-06-1.01560E-06
 -1     23941 1.39885E-01-7.85265E-03-2.44885E-04-7.38688E-02 1.02217E-06 4.23394E-07
 -1     23942 1.55643E-01-1.93987E-02 5.72624E-04-6.35876E-02-2.03535E-06-6.61326E-07
 -1     23947 1.52956E-01-1.65958E-02 6.29314E-04-6.15934E-02-1.25852E-06-4.08917E-07
 -1     23948 1.39878E-01-7.85977E-03-2.61515E-04-7.38688E-02 2.91264E-07 1.20645E-07
 -1     23949 1.55658E-01-1.93839E-02 6.07328E-04-6.35876E-02-5.72801E-07-1.86114E-07
 -1     23954 1.52963E-01-1.65888E-02 6.45636E-04-6.15934E-02-1.78357E-14 1.40768E-14
 -1     23955 1.39878E-01-7.85977E-03-2.61515E-04-7.38688E-02-2.91264E-07-1.20645E-07
 -1     23956 1.55658E-01-1.93839E-02 6.07328E-04-6.35876E-02 5.72801E-07 1.86114E-07
 -1     23961 1.52956E-01-1.65958E-02 6.29314E-04-6.15934E-02 1.25852E-06 4.08917E-07
 -1     23962 1.39885E-01-7.85265E-03-2.44885E-04-7.38688E-02-1.02217E-06-4.23394E-07
 -1     23963 1.55643E-01-1.93987E-02 5.72624E-04-6.35876E-02 2.03535E-06 6.61326E-07
 -1     23968 1.52935E-01-1.66174E-02 5.78823E-04-6.15934E-02 3.12571E-06 1.01560E-06
 -1     23969 1.39900E-01-7.83781E-03-2.10313E-04-7.38689E-02-2.22082E-06-9.19891E-07
 -1     23970 1.55612E-01-1.94298E-02 5.00074E-04-6.35876E-02 4.50973E-06 1.46530E-06
 -1     23975 1.52896E-01-1.66559E-02 4.89261E-04-6.15933E-02 6.33868E-06 2.05956E-06
 -1     23976 1.39923E-01-7.81432E-03-1.55752E-04-7.38689E-02-4.35225E-06-1.80276E-06
 -1     23977 1.55561E-01-1.94800E-02 3.83478E-04-6.35875E-02 8.92644E-06 2.90038E-06
 -1     23982 1.52836E-01-1.67157E-02 3.50722E-04-6.15933E-02 1.17599E-05 3.82102E-06
 -1     23983 1.39955E-01-7.78259E-03-8.23519E-05-7.38689E-02-7.93471E-06-3.28666E-06
 -1     23984 1.55489E-01-1.95526E-02 2.15208E-04-6.35875E-02 1.65385E-05 5.37368E-06
 -1     23989 1.52745E-01-1.68068E-02 1.40492E-04-6.15934E-02 2.09916E-05 6.82059E-06
 -1     23993 1.67629E-01-3.16909E-02 1.40492E-04-3.23815E-02-2.18001E-05-3.45282E-06
 -1     23994 1.59166E-01-2.69939E-02-8.23519E-05-4.74267E-02 8.35117E-06 2.00494E-06
 -1     23995 1.70855E-01-3.49187E-02 2.15208E-04-3.34299E-02-1.71755E-05-2.72034E-06
 -1     24000 1.67720E-01-3.15999E-02 3.50722E-04-3.23815E-02-1.22128E-05-1.93433E-06
 -1     24001 1.59135E-01-2.70257E-02-1.55752E-04-4.74267E-02 4.58068E-06 1.09973E-06
 -1     24002 1.70928E-01-3.48460E-02 3.83478E-04-3.34299E-02-9.27026E-06-1.46827E-06
 -1     24007 1.67780E-01-3.15401E-02 4.89261E-04-3.23815E-02-6.58281E-06-1.04262E-06
 -1     24008 1.59111E-01-2.70491E-02-2.10313E-04-4.74267E-02 2.33738E-06 5.61156E-07
 -1     24009 1.70978E-01-3.47959E-02 5.00074E-04-3.34300E-02-4.68342E-06-7.41784E-07
 -1     24014 1.67819E-01-3.15016E-02 5.78823E-04-3.23815E-02-3.24610E-06-5.14132E-07
 -1     24015 1.59096E-01-2.70640E-02-2.44885E-04-4.74267E-02 1.07582E-06 2.58281E-07
 -1     24016 1.71009E-01-3.47648E-02 5.72624E-04-3.34300E-02-2.11375E-06-3.34786E-07
 -1     24021 1.67840E-01-3.14799E-02 6.29315E-04-3.23816E-02-1.30699E-06-2.07007E-07
 -1     24022 1.59089E-01-2.70711E-02-2.61515E-04-4.74267E-02 3.06551E-07 7.35964E-08
 -1     24023 1.71024E-01-3.47499E-02 6.07328E-04-3.34300E-02-5.94863E-07-9.42174E-08
 -1     24028 1.67847E-01-3.14729E-02 6.45636E-04-3.23816E-02-3.40076E-14 7.51596E-15
 -1     24029 1.59089E-01-2.70711E-02-2.61515E-04-4.74267E-02-3.06551E-07-7.35964E-08
 -1     24030 1.71024E-01-3.47499E-02 6.07328E-04-3.34300E-02 5.94863E-07 9.42174E-08
 -1     24035 1.67840E-01-3.14799E-02 6.29315E-04-3.23816E-02 1.30699E-06 2.07007E-07
 -1     24036 1.59096E-01-2.70640E-02-2.44885E-04-4.74267E-02-1.07582E-06-2.58281E-07
 -1     24037 1.71009E-01-3.47648E-02 5.72624E-04-3.34300E-02 2.11375E-06 3.34786E-07
 -1     24042 1.67819E-01-3.15016E-02 5.78823E-04-3.23815E-02 3.24610E-06 5.14132E-07
 -1     24043 1.59111E-01-2.70491E-02-2.10313E-04-4.74267E-02-2.33738E-06-5.61156E-07
 -1     24044 1.70978E-01-3.47959E-02 5.00074E-04-3.34300E-02 4.68342E-06 7.41784E-07
 -1     24049 1.67780E-01-3.15401E-02 4.89261E-04-3.23815E-02 6.58281E-06 1.04262E-06
 -1     24050 1.59135E-01-2.70257E-02-1.55752E-04-4.74267E-02-4.58068E-06-1.09973E-06
 -1     24051 1.70928E-01-3.48460E-02 3.83478E-04-3.34299E-02 9.27026E-06 1.46827E-06
 -1     24056 1.67720E-01-3.15999E-02 3.50722E-04-3.23815E-02 1.22128E-05 1.93433E-06
 -1     24057 1.59166E-01-2.69939E-02-8.23519E-05-4.74267E-02-8.35117E-06-2.00494E-06
 -1     24058 1.70855E-01-3.49187E-02 2.15208E-04-3.34299E-02 1.71755E-05 2.72034E-06
 -1     24063 1.67629E-01-3.16909E-02 1.40492E-04-3.23815E-02 2.18001E-05 3.45282E-06
 -1     24067 1.69266E-01-3.70939E-02-8.23520E-05-1.63421E-02 8.56198E-06 6.73850E-07
 -1     24071 1.69235E-01-3.71257E-02-1.55752E-04-1.63421E-02 4.69631E-06 3.69612E-07
 -1     24075 1.69211E-01-3.71491E-02-2.10313E-04-1.63421E-02 2.39638E-06 1.88602E-07
 -1     24079 1.69196E-01-3.71640E-02-2.44885E-04-1.63421E-02 1.10297E-06 8.68075E-08
 -1     24083 1.69189E-01-3.71711E-02-2.61515E-04-1.63421E-02 3.14287E-07 2.47356E-08
 -1     24087 1.69189E-01-3.71711E-02-2.61515E-04-1.63421E-02-3.14287E-07-2.47356E-08
 -1     24091 1.69196E-01-3.71640E-02-2.44885E-04-1.63421E-02-1.10297E-06-8.68075E-08
 -1     24095 1.69211E-01-3.71491E-02-2.10313E-04-1.63421E-02-2.39638E-06-1.88602E-07
 -1     24099 1.69235E-01-3.71257E-02-1.55752E-04-1.63421E-02-4.69631E-06-3.69612E-07
 -1     24103 1.69266E-01-3.70939E-02-8.23520E-05-1.63421E-02-8.56198E-06-6.73850E-07
 -1     24109-2.58294E-02 1.61599E-01 1.26625E-04-3.04496E-02-3.26032E-06-2.05848E-05
 -1     24110-3.09022E-02 1.63143E-01-7.52640E-05-1.53669E-02 6.41988E-07 8.15723E-06
 -1     24111-2.87657E-02 1.64540E-01 1.95497E-04-3.14043E-02-2.58780E-06-1.63387E-05
 -1     24116-2.57465E-02 1.61682E-01 3.17412E-04-3.04495E-02-1.87758E-06-1.18546E-05
 -1     24117-3.09314E-02 1.63114E-01-1.42448E-04-1.53669E-02 3.62463E-07 4.60553E-06
 -1     24118-2.86993E-02 1.64606E-01 3.48955E-04-3.14043E-02-1.43849E-06-9.08227E-06
 -1     24123-2.56916E-02 1.61736E-01 4.44103E-04-3.04495E-02-1.04408E-06-6.59209E-06
 -1     24124-3.09530E-02 1.63092E-01-1.92532E-04-1.53669E-02 1.91590E-07 2.43438E-06
 -1     24125-2.86533E-02 1.64652E-01 4.55842E-04-3.14043E-02-7.52738E-07-4.75260E-06
 -1     24130-2.56561E-02 1.61772E-01 5.26445E-04-3.04495E-02-5.33365E-07-3.36754E-06
 -1     24131-3.09667E-02 1.63078E-01-2.24378E-04-1.53669E-02 9.12061E-08 1.15888E-06
 -1     24132-2.86246E-02 1.64681E-01 5.22636E-04-3.14043E-02-3.52168E-07-2.22350E-06
 -1     24137-2.56361E-02 1.61792E-01 5.73037E-04-3.04495E-02-2.21460E-07-1.39824E-06
 -1     24138-3.09733E-02 1.63072E-01-2.39735E-04-1.53669E-02 2.66063E-08 3.38065E-07
 -1     24139-2.86108E-02 1.64694E-01 5.54674E-04-3.14043E-02-1.01654E-07-6.41815E-07
 -1     24144-2.56296E-02 1.61798E-01 5.88126E-04-3.04495E-02-6.15694E-15 2.75814E-14
 -1     24145-3.09733E-02 1.63072E-01-2.39735E-04-1.53669E-02-2.66063E-08-3.38065E-07
 -1     24146-2.86108E-02 1.64694E-01 5.54674E-04-3.14043E-02 1.01654E-07 6.41815E-07
 -1     24151-2.56361E-02 1.61792E-01 5.73037E-04-3.04495E-02 2.21460E-07 1.39824E-06
 -1     24152-3.09667E-02 1.63078E-01-2.24378E-04-1.53669E-02-9.12061E-08-1.15888E-06
 -1     24153-2.86246E-02 1.64681E-01 5.22636E-04-3.14043E-02 3.52168E-07 2.22350E-06
 -1     24158-2.56561E-02 1.61772E-01 5.26445E-04-3.04495E-02 5.33365E-07 3.36754E-06
 -1     24159-3.09530E-02 1.63092E-01-1.92532E-04-1.53669E-02-1.91590E-07-2.43438E-06
 -1     24160-2.86533E-02 1.64652E-01 4.55842E-04-3.14043E-02 7.52738E-07 4.75260E-06
 -1     24165-2.56916E-02 1.61736E-01 4.44103E-04-3.04495E-02 1.04408E-06 6.59209E-06
 -1     24166-3.09314E-02 1.63114E-01-1.42448E-04-1.53669E-02-3.62463E-07-4.60553E-06
 -1     24167-2.86993E-02 1.64606E-01 3.48955E-04-3.14043E-02 1.43849E-06 9.08227E-06
 -1     24172-2.57465E-02 1.61682E-01 3.17412E-04-3.04495E-02 1.87758E-06 1.18546E-05
 -1     24173-3.09022E-02 1.63143E-01-7.52640E-05-1.53669E-02-6.41988E-07-8.15723E-06
 -1     24174-2.87657E-02 1.64540E-01 1.95497E-04-3.14043E-02 2.58780E-06 1.63387E-05
 -1     24179-2.58294E-02 1.61599E-01 1.26625E-04-3.04496E-02 3.26032E-06 2.05848E-05
 -1     24183-1.18332E-02 1.47603E-01 1.26625E-04-5.79185E-02-6.44036E-06-1.98214E-05
 -1     24184-2.14050E-02 1.53646E-01-7.52640E-05-4.45963E-02 1.91016E-06 7.95637E-06
 -1     24185-1.43307E-02 1.50105E-01 1.95497E-04-5.97346E-02-5.11187E-06-1.57327E-05
 -1     24190-1.17503E-02 1.47685E-01 3.17412E-04-5.79184E-02-3.70893E-06-1.14149E-05
 -1     24191-2.14341E-02 1.53616E-01-1.42448E-04-4.45964E-02 1.07846E-06 4.49212E-06
 -1     24192-1.42643E-02 1.50171E-01 3.48955E-04-5.97346E-02-2.84156E-06-8.74542E-06
 -1     24197-1.16955E-02 1.47740E-01 4.44103E-04-5.79184E-02-2.06246E-06-6.34760E-06
 -1     24198-2.14558E-02 1.53595E-01-1.92532E-04-4.45964E-02 5.70052E-07 2.37444E-06
 -1     24199-1.42183E-02 1.50217E-01 4.55842E-04-5.97346E-02-1.48694E-06-4.57633E-06
 -1     24204-1.16600E-02 1.47776E-01 5.26445E-04-5.79184E-02-1.05360E-06-3.24264E-06
 -1     24205-2.14694E-02 1.53581E-01-2.24378E-04-4.45964E-02 2.71372E-07 1.13035E-06
 -1     24206-1.41896E-02 1.50246E-01 5.22636E-04-5.97346E-02-6.95663E-07-2.14103E-06
 -1     24211-1.16400E-02 1.47796E-01 5.73037E-04-5.79184E-02-4.37467E-07-1.34638E-06
 -1     24212-2.14760E-02 1.53575E-01-2.39735E-04-4.45964E-02 7.91639E-08 3.29741E-07
 -1     24213-1.41758E-02 1.50259E-01 5.54674E-04-5.97346E-02-2.00804E-07-6.18011E-07
 -1     24218-1.16335E-02 1.47802E-01 5.88126E-04-5.79184E-02-4.54110E-15-5.61365E-14
 -1     24219-2.14760E-02 1.53575E-01-2.39735E-04-4.45964E-02-7.91639E-08-3.29741E-07
 -1     24220-1.41758E-02 1.50259E-01 5.54674E-04-5.97346E-02 2.00804E-07 6.18011E-07
 -1     24225-1.16400E-02 1.47796E-01 5.73037E-04-5.79184E-02 4.37467E-07 1.34638E-06
 -1     24226-2.14694E-02 1.53581E-01-2.24378E-04-4.45964E-02-2.71372E-07-1.13035E-06
 -1     24227-1.41896E-02 1.50246E-01 5.22636E-04-5.97346E-02 6.95663E-07 2.14103E-06
 -1     24232-1.16600E-02 1.47776E-01 5.26445E-04-5.79184E-02 1.05360E-06 3.24264E-06
 -1     24233-2.14558E-02 1.53595E-01-1.92532E-04-4.45964E-02-5.70052E-07-2.37444E-06
 -1     24234-1.42183E-02 1.50217E-01 4.55842E-04-5.97346E-02 1.48694E-06 4.57633E-06
 -1     24239-1.16955E-02 1.47740E-01 4.44103E-04-5.79184E-02 2.06246E-06 6.34760E-06
 -1     24240-2.14341E-02 1.53616E-01-1.42448E-04-4.45964E-02-1.07846E-06-4.49212E-06
 -1     24241-1.42643E-02 1.50171E-01 3.48955E-04-5.97346E-02 2.84156E-06 8.74542E-06
 -1     24246-1.17503E-02 1.47685E-01 3.17412E-04-5.79184E-02 3.70893E-06 1.14149E-05
 -1     24247-2.14050E-02 1.53646E-01-7.52640E-05-4.45963E-02-1.91016E-06-7.95637E-06
 -1     24248-1.43307E-02 1.50105E-01 1.95497E-04-5.97346E-02 5.11187E-06 1.57327E-05
 -1     24253-1.18332E-02 1.47603E-01 1.26625E-04-5.79185E-02 6.44036E-06 1.98214E-05
 -1     24257 9.96624E-03 1.25803E-01 1.26625E-04-7.97180E-02-9.46182E-06-1.85699E-05
 -1     24258-3.34018E-03 1.35581E-01-7.52640E-05-6.94604E-02 3.13129E-06 7.55960E-06
 -1     24259 8.15232E-03 1.27621E-01 1.95497E-04-8.22176E-02-7.51008E-06-1.47394E-05
 -1     24264 1.00491E-02 1.25886E-01 3.17412E-04-7.97179E-02-5.44896E-06-1.06942E-05
 -1     24265-3.36931E-03 1.35552E-01-1.42448E-04-6.94605E-02 1.76791E-06 4.26811E-06
 -1     24266 8.21870E-03 1.27688E-01 3.48955E-04-8.22176E-02-4.17466E-06-8.19324E-06
 -1     24271 1.01039E-02 1.25941E-01 4.44103E-04-7.97178E-02-3.03005E-06-5.94681E-06
 -1     24272-3.39093E-03 1.35530E-01-1.92532E-04-6.94605E-02 9.34476E-07 2.25603E-06
 -1     24273 8.26475E-03 1.27734E-01 4.55842E-04-8.22176E-02-2.18453E-06-4.28738E-06
 -1     24278 1.01394E-02 1.25976E-01 5.26445E-04-7.97178E-02-1.54789E-06-3.03790E-06
 -1     24279-3.40463E-03 1.35516E-01-2.24378E-04-6.94605E-02 4.44856E-07 1.07398E-06
 -1     24280 8.29345E-03 1.27763E-01 5.22636E-04-8.22176E-02-1.02203E-06-2.00585E-06
 -1     24285 1.01594E-02 1.25996E-01 5.73037E-04-7.97179E-02-6.42702E-07-1.26137E-06
 -1     24286-3.41122E-03 1.35510E-01-2.39735E-04-6.94605E-02 1.29772E-07 3.13297E-07
 -1     24287 8.30719E-03 1.27776E-01 5.54674E-04-8.22176E-02-2.95010E-07-5.78990E-07
 -1     24292 1.01659E-02 1.26003E-01 5.88126E-04-7.97179E-02 4.76337E-15-5.00452E-14
 -1     24293-3.41122E-03 1.35510E-01-2.39735E-04-6.94605E-02-1.29772E-07-3.13297E-07
 -1     24294 8.30719E-03 1.27776E-01 5.54674E-04-8.22176E-02 2.95010E-07 5.78990E-07
 -1     24299 1.01594E-02 1.25996E-01 5.73037E-04-7.97179E-02 6.42702E-07 1.26137E-06
 -1     24300-3.40463E-03 1.35516E-01-2.24378E-04-6.94605E-02-4.44856E-07-1.07398E-06
 -1     24301 8.29345E-03 1.27763E-01 5.22636E-04-8.22176E-02 1.02203E-06 2.00585E-06
 -1     24306 1.01394E-02 1.25976E-01 5.26445E-04-7.97178E-02 1.54789E-06 3.03790E-06
 -1     24307-3.39093E-03 1.35530E-01-1.92532E-04-6.94605E-02-9.34476E-07-2.25603E-06
 -1     24308 8.26475E-03 1.27734E-01 4.55842E-04-8.22176E-02 2.18453E-06 4.28738E-06
 -1     24313 1.01039E-02 1.25941E-01 4.44103E-04-7.97178E-02 3.03005E-06 5.94681E-06
 -1     24314-3.36931E-03 1.35552E-01-1.42448E-04-6.94605E-02-1.76791E-06-4.26811E-06
 -1     24315 8.21870E-03 1.27688E-01 3.48955E-04-8.22176E-02 4.17466E-06 8.19324E-06
 -1     24320 1.00491E-02 1.25886E-01 3.17412E-04-7.97179E-02 5.44896E-06 1.06942E-05
 -1     24321-3.34018E-03 1.35581E-01-7.52640E-05-6.94604E-02-3.13129E-06-7.55960E-06
 -1     24322 8.15232E-03 1.27621E-01 1.95497E-04-8.22176E-02 7.51008E-06 1.47394E-05
 -1     24327 9.96624E-03 1.25803E-01 1.26625E-04-7.97180E-02 9.46182E-06 1.85699E-05
 -1     24331 3.74352E-02 9.83343E-02 1.26625E-04-9.37141E-02-1.22503E-05-1.68611E-05
 -1     24332 2.15239E-02 1.10717E-01-7.52640E-05-8.75253E-02 4.27532E-06 6.97669E-06
 -1     24333 3.64826E-02 9.92912E-02 1.95496E-04-9.66526E-02-9.72336E-06-1.33831E-05
 -1     24338 3.75180E-02 9.84170E-02 3.17412E-04-9.37140E-02-7.05482E-06-9.71012E-06
 -1     24339 2.14948E-02 1.10688E-01-1.42448E-04-8.75253E-02 2.41382E-06 3.93900E-06
 -1     24340 3.65489E-02 9.93576E-02 3.48955E-04-9.66526E-02-5.40497E-06-7.43930E-06
 -1     24345 3.75728E-02 9.84718E-02 4.44103E-04-9.37139E-02-3.92303E-06-5.39959E-06
 -1     24346 2.14732E-02 1.10666E-01-1.92532E-04-8.75253E-02 1.27589E-06 2.08207E-06
 -1     24347 3.65950E-02 9.94037E-02 4.55842E-04-9.66526E-02-2.82833E-06-3.89286E-06
 -1     24352 3.76083E-02 9.85073E-02 5.26445E-04-9.37139E-02-2.00406E-06-2.75836E-06
 -1     24353 2.14595E-02 1.10652E-01-2.24378E-04-8.75253E-02 6.07387E-07 9.91166E-07
 -1     24354 3.66237E-02 9.94324E-02 5.22636E-04-9.66526E-02-1.32323E-06-1.82127E-06
 -1     24359 3.76283E-02 9.85274E-02 5.73037E-04-9.37140E-02-8.32113E-07-1.14531E-06
 -1     24360 2.14529E-02 1.10646E-01-2.39735E-04-8.75253E-02 1.77185E-07 2.89140E-07
 -1     24361 3.66375E-02 9.94462E-02 5.54674E-04-9.66526E-02-3.81952E-07-5.25712E-07
 -1     24366 3.76348E-02 9.85338E-02 5.88126E-04-9.37140E-02-1.97036E-14-3.53973E-15
 -1     24367 2.14529E-02 1.10646E-01-2.39735E-04-8.75253E-02-1.77185E-07-2.89140E-07
 -1     24368 3.66375E-02 9.94462E-02 5.54674E-04-9.66526E-02 3.81952E-07 5.25712E-07
 -1     24373 3.76283E-02 9.85274E-02 5.73037E-04-9.37140E-02 8.32113E-07 1.14531E-06
 -1     24374 2.14595E-02 1.10652E-01-2.24378E-04-8.75253E-02-6.07387E-07-9.91166E-07
 -1     24375 3.66237E-02 9.94324E-02 5.22636E-04-9.66526E-02 1.32323E-06 1.82127E-06
 -1     24380 3.76083E-02 9.85073E-02 5.26445E-04-9.37139E-02 2.00406E-06 2.75836E-06
 -1     24381 2.14732E-02 1.10666E-01-1.92532E-04-8.75253E-02-1.27589E-06-2.08207E-06
 -1     24382 3.65950E-02 9.94037E-02 4.55842E-04-9.66526E-02 2.82833E-06 3.89286E-06
 -1     24387 3.75728E-02 9.84718E-02 4.44103E-04-9.37139E-02 3.92303E-06 5.39959E-06
 -1     24388 2.14948E-02 1.10688E-01-1.42448E-04-8.75253E-02-2.41382E-06-3.93900E-06
 -1     24389 3.65489E-02 9.93576E-02 3.48955E-04-9.66526E-02 5.40497E-06 7.43930E-06
 -1     24394 3.75180E-02 9.84170E-02 3.17412E-04-9.37140E-02 7.05482E-06 9.71012E-06
 -1     24395 2.15239E-02 1.10717E-01-7.52640E-05-8.75253E-02-4.27532E-06-6.97669E-06
 -1     24396 3.64826E-02 9.92912E-02 1.95496E-04-9.66526E-02 9.72336E-06 1.33831E-05
 -1     24401 3.74352E-02 9.83343E-02 1.26625E-04-9.37141E-02 1.22503E-05 1.68611E-05
 -1     24405 6.78848E-02 6.78848E-02 1.26625E-04-9.85369E-02-1.47371E-05-1.47371E-05
 -1     24406 5.07534E-02 8.14871E-02-7.52640E-05-9.70225E-02 5.31408E-06 6.22199E-06
 -1     24407 6.78869E-02 6.78869E-02 1.95497E-04-1.01627E-01-1.16972E-05-1.16972E-05
 -1     24412 6.79675E-02 6.79675E-02 3.17412E-04-9.85367E-02-8.48695E-06-8.48696E-06
 -1     24413 5.07243E-02 8.14580E-02-1.42448E-04-9.70225E-02 3.00031E-06 3.51290E-06
 -1     24414 6.79533E-02 6.79533E-02 3.48955E-04-1.01627E-01-6.50219E-06-6.50219E-06
 -1     24419 6.80223E-02 6.80223E-02 4.44103E-04-9.85367E-02-4.71941E-06-4.71941E-06
 -1     24420 5.07027E-02 8.14364E-02-1.92532E-04-9.70225E-02 1.58590E-06 1.85684E-06
 -1     24421 6.79993E-02 6.79993E-02 4.55842E-04-1.01627E-01-3.40249E-06-3.40249E-06
 -1     24426 6.80578E-02 6.80578E-02 5.26445E-04-9.85367E-02-2.41089E-06-2.41089E-06
 -1     24427 5.06890E-02 8.14227E-02-2.24378E-04-9.70225E-02 7.54965E-07 8.83947E-07
 -1     24428 6.80281E-02 6.80281E-02 5.22636E-04-1.01627E-01-1.59185E-06-1.59185E-06
 -1     24433 6.80778E-02 6.80778E-02 5.73037E-04-9.85367E-02-1.00103E-06-1.00103E-06
 -1     24434 5.06824E-02 8.14161E-02-2.39735E-04-9.70225E-02 2.20236E-07 2.57862E-07
 -1     24435 6.80418E-02 6.80418E-02 5.54674E-04-1.01627E-01-4.59489E-07-4.59489E-07
 -1     24440 6.80843E-02 6.80843E-02 5.88126E-04-9.85367E-02 1.01598E-14 1.82955E-14
 -1     24441 5.06824E-02 8.14161E-02-2.39735E-04-9.70225E-02-2.20236E-07-2.57862E-07
 -1     24442 6.80418E-02 6.80418E-02 5.54674E-04-1.01627E-01 4.59489E-07 4.59489E-07
 -1     24447 6.80778E-02 6.80778E-02 5.73037E-04-9.85367E-02 1.00103E-06 1.00103E-06
 -1     24448 5.06890E-02 8.14227E-02-2.24378E-04-9.70225E-02-7.54965E-07-8.83947E-07
 -1     24449 6.80281E-02 6.80281E-02 5.22636E-04-1.01627E-01 1.59185E-06 1.59185E-06
 -1     24454 6.80578E-02 6.80578E-02 5.26445E-04-9.85367E-02 2.41089E-06 2.41089E-06
 -1     24455 5.07027E-02 8.14364E-02-1.92532E-04-9.70225E-02-1.58590E-06-1.85684E-06
 -1     24456 6.79993E-02 6.79993E-02 4.55842E-04-1.01627E-01 3.40249E-06 3.40249E-06
 -1     24461 6.80223E-02 6.80223E-02 4.44103E-04-9.85367E-02 4.71941E-06 4.71941E-06
 -1     24462 5.07243E-02 8.14580E-02-1.42448E-04-9.70225E-02-3.00031E-06-3.51290E-06
 -1     24463 6.79533E-02 6.79533E-02 3.48955E-04-1.01627E-01 6.50219E-06 6.50219E-06
 -1     24468 6.79675E-02 6.79675E-02 3.17412E-04-9.85367E-02 8.48695E-06 8.48696E-06
 -1     24469 5.07534E-02 8.14871E-02-7.52640E-05-9.70225E-02-5.31408E-06-6.22199E-06
 -1     24470 6.78869E-02 6.78869E-02 1.95497E-04-1.01627E-01 1.16972E-05 1.16972E-05
 -1     24475 6.78848E-02 6.78848E-02 1.26625E-04-9.85369E-02 1.47371E-05 1.47371E-05
 -1     24479 9.83343E-02 3.74352E-02 1.26625E-04-9.37141E-02-1.68611E-05-1.22503E-05
 -1     24480 8.14871E-02 5.07534E-02-7.52640E-05-9.70225E-02 6.22198E-06 5.31409E-06
 -1     24481 9.92912E-02 3.64826E-02 1.95497E-04-9.66526E-02-1.33830E-05-9.72336E-06
 -1     24486 9.84170E-02 3.75180E-02 3.17412E-04-9.37140E-02-9.71011E-06-7.05481E-06
 -1     24487 8.14580E-02 5.07243E-02-1.42448E-04-9.70225E-02 3.51289E-06 3.00030E-06
 -1     24488 9.93576E-02 3.65489E-02 3.48955E-04-9.66526E-02-7.43930E-06-5.40497E-06
 -1     24493 9.84718E-02 3.75728E-02 4.44103E-04-9.37139E-02-5.39958E-06-3.92303E-06
 -1     24494 8.14364E-02 5.07027E-02-1.92532E-04-9.70225E-02 1.85684E-06 1.58589E-06
 -1     24495 9.94037E-02 3.65950E-02 4.55842E-04-9.66526E-02-3.89286E-06-2.82833E-06
 -1     24500 9.85073E-02 3.76083E-02 5.26445E-04-9.37139E-02-2.75835E-06-2.00406E-06
 -1     24501 8.14227E-02 5.06890E-02-2.24378E-04-9.70225E-02 8.83944E-07 7.54963E-07
 -1     24502 9.94324E-02 3.66237E-02 5.22636E-04-9.66526E-02-1.82127E-06-1.32323E-06
 -1     24507 9.85274E-02 3.76283E-02 5.73037E-04-9.37140E-02-1.14530E-06-8.32111E-07
 -1     24508 8.14161E-02 5.06824E-02-2.39735E-04-9.70225E-02 2.57861E-07 2.20235E-07
 -1     24509 9.94462E-02 3.66375E-02 5.54674E-04-9.66526E-02-5.25711E-07-3.81952E-07
 -1     24514 9.85338E-02 3.76348E-02 5.88126E-04-9.37140E-02 9.00674E-15 2.85843E-14
 -1     24515 8.14161E-02 5.06824E-02-2.39735E-04-9.70225E-02-2.57861E-07-2.20235E-07
 -1     24516 9.94462E-02 3.66375E-02 5.54674E-04-9.66526E-02 5.25711E-07 3.81952E-07
 -1     24521 9.85274E-02 3.76283E-02 5.73037E-04-9.37140E-02 1.14530E-06 8.32111E-07
 -1     24522 8.14227E-02 5.06890E-02-2.24378E-04-9.70225E-02-8.83944E-07-7.54963E-07
 -1     24523 9.94324E-02 3.66237E-02 5.22636E-04-9.66526E-02 1.82127E-06 1.32323E-06
 -1     24528 9.85073E-02 3.76083E-02 5.26445E-04-9.37139E-02 2.75835E-06 2.00406E-06
 -1     24529 8.14364E-02 5.07027E-02-1.92532E-04-9.70225E-02-1.85684E-06-1.58589E-06
 -1     24530 9.94037E-02 3.65950E-02 4.55842E-04-9.66526E-02 3.89286E-06 2.82833E-06
 -1     24535 9.84718E-02 3.75728E-02 4.44103E-04-9.37139E-02 5.39958E-06 3.92303E-06
 -1     24536 8.14580E-02 5.07243E-02-1.42448E-04-9.70225E-02-3.51289E-06-3.00030E-06
 -1     24537 9.93576E-02 3.65489E-02 3.48955E-04-9.66526E-02 7.43930E-06 5.40497E-06
 -1     24542 9.84170E-02 3.75180E-02 3.17412E-04-9.37140E-02 9.71011E-06 7.05481E-06
 -1     24543 8.14871E-02 5.07534E-02-7.52640E-05-9.70225E-02-6.22198E-06-5.31409E-06
 -1     24544 9.92912E-02 3.64826E-02 1.95497E-04-9.66526E-02 1.33830E-05 9.72336E-06
 -1     24549 9.83343E-02 3.74352E-02 1.26625E-04-9.37141E-02 1.68611E-05 1.22503E-05
 -1     24553 1.25803E-01 9.96624E-03 1.26625E-04-7.97180E-02-1.85699E-05-9.46180E-06
 -1     24554 1.10717E-01 2.15239E-02-7.52641E-05-8.75253E-02 6.97669E-06 4.27531E-06
 -1     24555 1.27622E-01 8.15232E-03 1.95497E-04-8.22176E-02-1.47394E-05-7.51007E-06
 -1     24560 1.25886E-01 1.00491E-02 3.17412E-04-7.97179E-02-1.06942E-05-5.44895E-06
 -1     24561 1.10688E-01 2.14948E-02-1.42448E-04-8.75253E-02 3.93900E-06 2.41382E-06
 -1     24562 1.27688E-01 8.21870E-03 3.48955E-04-8.22176E-02-8.19324E-06-4.17466E-06
 -1     24567 1.25941E-01 1.01039E-02 4.44103E-04-7.97178E-02-5.94681E-06-3.03005E-06
 -1     24568 1.10666E-01 2.14732E-02-1.92532E-04-8.75253E-02 2.08206E-06 1.27589E-06
 -1     24569 1.27734E-01 8.26475E-03 4.55842E-04-8.22176E-02-4.28738E-06-2.18453E-06
 -1     24574 1.25976E-01 1.01394E-02 5.26445E-04-7.97178E-02-3.03790E-06-1.54789E-06
 -1     24575 1.10652E-01 2.14595E-02-2.24378E-04-8.75253E-02 9.91163E-07 6.07385E-07
 -1     24576 1.27763E-01 8.29345E-03 5.22636E-04-8.22176E-02-2.00585E-06-1.02203E-06
 -1     24581 1.25996E-01 1.01594E-02 5.73037E-04-7.97179E-02-1.26137E-06-6.42703E-07
 -1     24582 1.10646E-01 2.14529E-02-2.39735E-04-8.75253E-02 2.89138E-07 1.77184E-07
 -1     24583 1.27776E-01 8.30719E-03 5.54674E-04-8.22176E-02-5.78990E-07-2.95010E-07
 -1     24588 1.26003E-01 1.01659E-02 5.88126E-04-7.97179E-02-2.28007E-14 2.11127E-14
 -1     24589 1.10646E-01 2.14529E-02-2.39735E-04-8.75253E-02-2.89138E-07-1.77184E-07
 -1     24590 1.27776E-01 8.30719E-03 5.54674E-04-8.22176E-02 5.78990E-07 2.95010E-07
 -1     24595 1.25996E-01 1.01594E-02 5.73037E-04-7.97179E-02 1.26137E-06 6.42703E-07
 -1     24596 1.10652E-01 2.14595E-02-2.24378E-04-8.75253E-02-9.91163E-07-6.07385E-07
 -1     24597 1.27763E-01 8.29345E-03 5.22636E-04-8.22176E-02 2.00585E-06 1.02203E-06
 -1     24602 1.25976E-01 1.01394E-02 5.26445E-04-7.97178E-02 3.03790E-06 1.54789E-06
 -1     24603 1.10666E-01 2.14732E-02-1.92532E-04-8.75253E-02-2.08206E-06-1.27589E-06
 -1     24604 1.27734E-01 8.26475E-03 4.55842E-04-8.22176E-02 4.28738E-06 2.18453E-06
 -1     24609 1.25941E-01 1.01039E-02 4.44103E-04-7.97178E-02 5.94681E-06 3.03005E-06
 -1     24610 1.10688E-01 2.14948E-02-1.42448E-04-8.75253E-02-3.93900E-06-2.41382E-06
 -1     24611 1.27688E-01 8.21870E-03 3.48955E-04-8.22176E-02 8.19324E-06 4.17466E-06
 -1     24616 1.25886E-01 1.00491E-02 3.17412E-04-7.97179E-02 1.06942E-05 5.44895E-06
 -1     24617 1.10717E-01 2.15239E-02-7.52641E-05-8.75253E-02-6.97669E-06-4.27531E-06
 -1     24618 1.27622E-01 8.15232E-03 1.95497E-04-8.22176E-02 1.47394E-05 7.51007E-06
 -1     24623 1.25803E-01 9.96624E-03 1.26625E-04-7.97180E-02 1.85699E-05 9.46180E-06
 -1     24627 1.47603E-01-1.18332E-02 1.26624E-04-5.79185E-02-1.98214E-05-6.44036E-06
 -1     24628 1.35581E-01-3.34019E-03-7.52640E-05-6.94604E-02 7.55961E-06 3.13128E-06
 -1     24629 1.50105E-01-1.43307E-02 1.95496E-04-5.97346E-02-1.57327E-05-5.11187E-06
 -1     24634 1.47685E-01-1.17504E-02 3.17412E-04-5.79184E-02-1.14149E-05-3.70894E-06
 -1     24635 1.35552E-01-3.36931E-03-1.42448E-04-6.94605E-02 4.26812E-06 1.76791E-06
 -1     24636 1.50171E-01-1.42643E-02 3.48955E-04-5.97346E-02-8.74543E-06-2.84156E-06
 -1     24641 1.47740E-01-1.16955E-02 4.44103E-04-5.79184E-02-6.34761E-06-2.06246E-06
 -1     24642 1.35530E-01-3.39093E-03-1.92532E-04-6.94605E-02 2.25603E-06 9.34477E-07
 -1     24643 1.50217E-01-1.42183E-02 4.55842E-04-5.97346E-02-4.57634E-06-1.48694E-06
 -1     24648 1.47776E-01-1.16600E-02 5.26445E-04-5.79184E-02-3.24265E-06-1.05360E-06
 -1     24649 1.35516E-01-3.40463E-03-2.24378E-04-6.94605E-02 1.07398E-06 4.44857E-07
 -1     24650 1.50246E-01-1.41896E-02 5.22636E-04-5.97346E-02-2.14104E-06-6.95664E-07
 -1     24655 1.47796E-01-1.16400E-02 5.73037E-04-5.79184E-02-1.34639E-06-4.37468E-07
 -1     24656 1.35510E-01-3.41122E-03-2.39735E-04-6.94605E-02 3.13299E-07 1.29772E-07
 -1     24657 1.50259E-01-1.41758E-02 5.54674E-04-5.97346E-02-6.18013E-07-2.00804E-07
 -1     24662 1.47802E-01-1.16335E-02 5.88126E-04-5.79184E-02-3.31450E-14 1.49063E-15
 -1     24663 1.35510E-01-3.41122E-03-2.39735E-04-6.94605E-02-3.13299E-07-1.29772E-07
 -1     24664 1.50259E-01-1.41758E-02 5.54674E-04-5.97346E-02 6.18013E-07 2.00804E-07
 -1     24669 1.47796E-01-1.16400E-02 5.73037E-04-5.79184E-02 1.34639E-06 4.37468E-07
 -1     24670 1.35516E-01-3.40463E-03-2.24378E-04-6.94605E-02-1.07398E-06-4.44857E-07
 -1     24671 1.50246E-01-1.41896E-02 5.22636E-04-5.97346E-02 2.14104E-06 6.95664E-07
 -1     24676 1.47776E-01-1.16600E-02 5.26445E-04-5.79184E-02 3.24265E-06 1.05360E-06
 -1     24677 1.35530E-01-3.39093E-03-1.92532E-04-6.94605E-02-2.25603E-06-9.34477E-07
 -1     24678 1.50217E-01-1.42183E-02 4.55842E-04-5.97346E-02 4.57634E-06 1.48694E-06
 -1     24683 1.47740E-01-1.16955E-02 4.44103E-04-5.79184E-02 6.34761E-06 2.06246E-06
 -1     24684 1.35552E-01-3.36931E-03-1.42448E-04-6.94605E-02-4.26812E-06-1.76791E-06
 -1     24685 1.50171E-01-1.42643E-02 3.48955E-04-5.97346E-02 8.74543E-06 2.84156E-06
 -1     24690 1.47685E-01-1.17504E-02 3.17412E-04-5.79184E-02 1.14149E-05 3.70894E-06
 -1     24691 1.35581E-01-3.34019E-03-7.52640E-05-6.94604E-02-7.55961E-06-3.13128E-06
 -1     24692 1.50105E-01-1.43307E-02 1.95496E-04-5.97346E-02 1.57327E-05 5.11187E-06
 -1     24697 1.47603E-01-1.18332E-02 1.26624E-04-5.79185E-02 1.98214E-05 6.44036E-06
 -1     24701 1.61599E-01-2.58294E-02 1.26625E-04-3.04496E-02-2.05848E-05-3.26035E-06
 -1     24702 1.53646E-01-2.14050E-02-7.52640E-05-4.45963E-02 7.95638E-06 1.91017E-06
 -1     24703 1.64540E-01-2.87657E-02 1.95497E-04-3.14043E-02-1.63387E-05-2.58781E-06
 -1     24708 1.61682E-01-2.57465E-02 3.17412E-04-3.04495E-02-1.18546E-05-1.87759E-06
 -1     24709 1.53616E-01-2.14341E-02-1.42448E-04-4.45964E-02 4.49213E-06 1.07847E-06
 -1     24710 1.64606E-01-2.86993E-02 3.48955E-04-3.14043E-02-9.08227E-06-1.43849E-06
 -1     24715 1.61736E-01-2.56916E-02 4.44103E-04-3.04495E-02-6.59208E-06-1.04408E-06
 -1     24716 1.53595E-01-2.14558E-02-1.92532E-04-4.45964E-02 2.37444E-06 5.70054E-07
 -1     24717 1.64652E-01-2.86533E-02 4.55842E-04-3.14043E-02-4.75260E-06-7.52737E-07
 -1     24722 1.61772E-01-2.56561E-02 5.26445E-04-3.04495E-02-3.36753E-06-5.33361E-07
 -1     24723 1.53581E-01-2.14695E-02-2.24378E-04-4.45964E-02 1.13035E-06 2.71373E-07
 -1     24724 1.64681E-01-2.86246E-02 5.22636E-04-3.14043E-02-2.22350E-06-3.52166E-07
 -1     24729 1.61792E-01-2.56361E-02 5.73037E-04-3.04495E-02-1.39824E-06-2.21457E-07
 -1     24730 1.53575E-01-2.14760E-02-2.39735E-04-4.45964E-02 3.29743E-07 7.91640E-08
 -1     24731 1.64694E-01-2.86108E-02 5.54674E-04-3.14043E-02-6.41815E-07-1.01653E-07
 -1     24736 1.61798E-01-2.56296E-02 5.88126E-04-3.04495E-02-1.16162E-14 3.34152E-15
 -1     24737 1.53575E-01-2.14760E-02-2.39735E-04-4.45964E-02-3.29743E-07-7.91640E-08
 -1     24738 1.64694E-01-2.86108E-02 5.54674E-04-3.14043E-02 6.41815E-07 1.01653E-07
 -1     24743 1.61792E-01-2.56361E-02 5.73037E-04-3.04495E-02 1.39824E-06 2.21457E-07
 -1     24744 1.53581E-01-2.14695E-02-2.24378E-04-4.45964E-02-1.13035E-06-2.71373E-07
 -1     24745 1.64681E-01-2.86246E-02 5.22636E-04-3.14043E-02 2.22350E-06 3.52166E-07
 -1     24750 1.61772E-01-2.56561E-02 5.26445E-04-3.04495E-02 3.36753E-06 5.33361E-07
 -1     24751 1.53595E-01-2.14558E-02-1.92532E-04-4.45964E-02-2.37444E-06-5.70054E-07
 -1     24752 1.64652E-01-2.86533E-02 4.55842E-04-3.14043E-02 4.75260E-06 7.52737E-07
 -1     24757 1.61736E-01-2.56916E-02 4.44103E-04-3.04495E-02 6.59208E-06 1.04408E-06
 -1     24758 1.53616E-01-2.14341E-02-1.42448E-04-4.45964E-02-4.49213E-06-1.07847E-06
 -1     24759 1.64606E-01-2.86993E-02 3.48955E-04-3.14043E-02 9.08227E-06 1.43849E-06
 -1     24764 1.61682E-01-2.57465E-02 3.17412E-04-3.04495E-02 1.18546E-05 1.87759E-06
 -1     24765 1.53646E-01-2.14050E-02-7.52640E-05-4.45963E-02-7.95638E-06-1.91017E-06
 -1     24766 1.64540E-01-2.87657E-02 1.95497E-04-3.14043E-02 1.63387E-05 2.58781E-06
 -1     24771 1.61599E-01-2.58294E-02 1.26625E-04-3.04496E-02 2.05848E-05 3.26035E-06
 -1     24775 1.63143E-01-3.09022E-02-7.52641E-05-1.53669E-02 8.15722E-06 6.42001E-07
 -1     24779 1.63114E-01-3.09314E-02-1.42448E-04-1.53669E-02 4.60552E-06 3.62470E-07
 -1     24783 1.63092E-01-3.09530E-02-1.92532E-04-1.53669E-02 2.43437E-06 1.91594E-07
 -1     24787 1.63078E-01-3.09667E-02-2.24378E-04-1.53669E-02 1.15888E-06 9.12079E-08
 -1     24791 1.63072E-01-3.09733E-02-2.39735E-04-1.53669E-02 3.38063E-07 2.66069E-08
 -1     24795 1.63072E-01-3.09733E-02-2.39735E-04-1.53669E-02-3.38063E-07-2.66069E-08
 -1     24799 1.63078E-01-3.09667E-02-2.24378E-04-1.53669E-02-1.15888E-06-9.12079E-08
 -1     24803 1.63092E-01-3.09530E-02-1.92532E-04-1.53669E-02-2.43437E-06-1.91594E-07
 -1     24807 1.63114E-01-3.09314E-02-1.42448E-04-1.53669E-02-4.60552E-06-3.62470E-07
 -1     24811 1.63143E-01-3.09022E-02-7.52641E-05-1.53669E-02-8.15722E-06-6.42001E-07
 -1     24817-2.04807E-02 1.56092E-01 1.14000E-04-2.86859E-02-3.08597E-06-1.94841E-05
 -1     24818-2.52465E-02 1.57552E-01-6.86280E-05-1.44762E-02 6.13332E-07 7.79312E-06
 -1     24819-2.31578E-02 1.58781E-01 1.77789E-04-2.95577E-02-2.46163E-06-1.55421E-05
 -1     24824-2.04049E-02 1.56167E-01 2.87264E-04-2.86858E-02-1.83096E-06-1.15602E-05
 -1     24825-2.52733E-02 1.57525E-01-1.30096E-04-1.44762E-02 3.56985E-07 4.53593E-06
 -1     24826-2.30970E-02 1.58841E-01 3.17794E-04-2.95577E-02-1.40909E-06-8.89662E-06
 -1     24831-2.03544E-02 1.56217E-01 4.03090E-04-2.86858E-02-1.05083E-06-6.63469E-06
 -1     24832-2.52933E-02 1.57505E-01-1.76044E-04-1.44762E-02 1.95365E-07 2.48235E-06
 -1     24833-2.30547E-02 1.58884E-01 4.15788E-04-2.95577E-02-7.62623E-07-4.81501E-06
 -1     24838-2.03216E-02 1.56250E-01 4.78768E-04-2.86858E-02-5.56224E-07-3.51186E-06
 -1     24839-2.53060E-02 1.57493E-01-2.05365E-04-1.44762E-02 9.60718E-08 1.22071E-06
 -1     24840-2.30282E-02 1.58910E-01 4.77269E-04-2.95577E-02-3.68756E-07-2.32824E-06
 -1     24845-2.03031E-02 1.56268E-01 5.21734E-04-2.86858E-02-2.37669E-07-1.50058E-06
 -1     24846-2.53121E-02 1.57487E-01-2.19536E-04-1.44762E-02 2.86252E-08 3.63717E-07
 -1     24847-2.30155E-02 1.58923E-01 5.06834E-04-2.95577E-02-1.08804E-07-6.86961E-07
 -1     24852-2.02970E-02 1.56274E-01 5.35673E-04-2.86858E-02 2.40947E-15-1.45067E-14
 -1     24853-2.53121E-02 1.57487E-01-2.19536E-04-1.44762E-02-2.86252E-08-3.63717E-07
 -1     24854-2.30155E-02 1.58923E-01 5.06834E-04-2.95577E-02 1.08804E-07 6.86961E-07
 -1     24859-2.03031E-02 1.56268E-01 5.21734E-04-2.86858E-02 2.37669E-07 1.50058E-06
 -1     24860-2.53060E-02 1.57493E-01-2.05365E-04-1.44762E-02-9.60718E-08-1.22071E-06
 -1     24861-2.30282E-02 1.58910E-01 4.77269E-04-2.95577E-02 3.68756E-07 2.32824E-06
 -1     24866-2.03216E-02 1.56250E-01 4.78768E-04-2.86858E-02 5.56224E-07 3.51186E-06
 -1     24867-2.52933E-02 1.57505E-01-1.76044E-04-1.44762E-02-1.95365E-07-2.48235E-06
 -1     24868-2.30547E-02 1.58884E-01 4.15788E-04-2.95577E-02 7.62623E-07 4.81501E-06
 -1     24873-2.03544E-02 1.56217E-01 4.03090E-04-2.86858E-02 1.05083E-06 6.63469E-06
 -1     24874-2.52733E-02 1.57525E-01-1.30096E-04-1.44762E-02-3.56985E-07-4.53593E-06
 -1     24875-2.30970E-02 1.58841E-01 3.17794E-04-2.95577E-02 1.40909E-06 8.89662E-06
 -1     24880-2.04049E-02 1.56167E-01 2.87264E-04-2.86858E-02 1.83096E-06 1.15602E-05
 -1     24881-2.52465E-02 1.57552E-01-6.86280E-05-1.44762E-02-6.13332E-07-7.79312E-06
 -1     24882-2.31578E-02 1.58781E-01 1.77789E-04-2.95577E-02 2.46163E-06 1.55421E-05
 -1     24887-2.04807E-02 1.56092E-01 1.14000E-04-2.86859E-02 3.08597E-06 1.94841E-05
 -1     24891-7.29522E-03 1.42906E-01 1.14000E-04-5.45639E-02-6.09596E-06-1.87614E-05
 -1     24892-1.62997E-02 1.48605E-01-6.86280E-05-4.20116E-02 1.82489E-06 7.60123E-06
 -1     24893-9.57166E-03 1.45194E-01 1.77789E-04-5.62221E-02-4.86265E-06-1.49657E-05
 -1     24898-7.21945E-03 1.42982E-01 2.87264E-04-5.45637E-02-3.61683E-06-1.11315E-05
 -1     24899-1.63265E-02 1.48579E-01-1.30096E-04-4.20117E-02 1.06217E-06 4.42424E-06
 -1     24900-9.51085E-03 1.45255E-01 3.17794E-04-5.62220E-02-2.78348E-06-8.56666E-06
 -1     24905-7.16903E-03 1.43032E-01 4.03090E-04-5.45636E-02-2.07579E-06-6.38862E-06
 -1     24906-1.63465E-02 1.48559E-01-1.76044E-04-4.20117E-02 5.81284E-07 2.42122E-06
 -1     24907-9.46849E-03 1.45297E-01 4.15788E-04-5.62220E-02-1.50647E-06-4.63643E-06
 -1     24912-7.13623E-03 1.43064E-01 4.78768E-04-5.45636E-02-1.09875E-06-3.38161E-06
 -1     24913-1.63592E-02 1.48546E-01-2.05365E-04-4.20117E-02 2.85850E-07 1.19065E-06
 -1     24914-9.44200E-03 1.45324E-01 4.77269E-04-5.62220E-02-7.28432E-07-2.24188E-06
 -1     24919-7.11766E-03 1.43083E-01 5.21734E-04-5.45636E-02-4.69485E-07-1.44493E-06
 -1     24920-1.63653E-02 1.48540E-01-2.19536E-04-4.20117E-02 8.51707E-08 3.54761E-07
 -1     24921-9.42929E-03 1.45337E-01 5.06834E-04-5.62220E-02-2.14929E-07-6.61483E-07
 -1     24926-7.11165E-03 1.43089E-01 5.35673E-04-5.45636E-02-1.19029E-14-5.47971E-14
 -1     24927-1.63653E-02 1.48540E-01-2.19536E-04-4.20117E-02-8.51707E-08-3.54761E-07
 -1     24928-9.42929E-03 1.45337E-01 5.06834E-04-5.62220E-02 2.14929E-07 6.61483E-07
 -1     24933-7.11766E-03 1.43083E-01 5.21734E-04-5.45636E-02 4.69485E-07 1.44493E-06
 -1     24934-1.63592E-02 1.48546E-01-2.05365E-04-4.20117E-02-2.85850E-07-1.19065E-06
 -1     24935-9.44200E-03 1.45324E-01 4.77269E-04-5.62220E-02 7.28432E-07 2.24188E-06
 -1     24940-7.13623E-03 1.43064E-01 4.78768E-04-5.45636E-02 1.09875E-06 3.38161E-06
 -1     24941-1.63465E-02 1.48559E-01-1.76044E-04-4.20117E-02-5.81284E-07-2.42122E-06
 -1     24942-9.46849E-03 1.45297E-01 4.15788E-04-5.62220E-02 1.50647E-06 4.63643E-06
 -1     24947-7.16903E-03 1.43032E-01 4.03090E-04-5.45636E-02 2.07579E-06 6.38862E-06
 -1     24948-1.63265E-02 1.48579E-01-1.30096E-04-4.20117E-02-1.06217E-06-4.42424E-06
 -1     24949-9.51085E-03 1.45255E-01 3.17794E-04-5.62220E-02 2.78348E-06 8.56666E-06
 -1     24954-7.21945E-03 1.42982E-01 2.87264E-04-5.45637E-02 3.61683E-06 1.11315E-05
 -1     24955-1.62997E-02 1.48605E-01-6.86280E-05-4.20116E-02-1.82489E-06-7.60123E-06
 -1     24956-9.57166E-03 1.45194E-01 1.77789E-04-5.62221E-02 4.86265E-06 1.49657E-05
 -1     24961-7.29522E-03 1.42906E-01 1.14000E-04-5.45639E-02 6.09596E-06 1.87614E-05
 -1     24965 1.32416E-02 1.22369E-01 1.14000E-04-7.51008E-02-8.95585E-06-1.75768E-05
 -1     24966 7.18121E-04 1.31587E-01-6.86281E-05-6.54346E-02 2.99152E-06 7.22217E-06
 -1     24967 1.15893E-02 1.24034E-01 1.77789E-04-7.73831E-02-7.14393E-06-1.40207E-05
 -1     24972 1.33173E-02 1.22445E-01 2.87264E-04-7.51005E-02-5.31365E-06-1.04286E-05
 -1     24973 6.91290E-04 1.31561E-01-1.30096E-04-6.54347E-02 1.74119E-06 4.20361E-06
 -1     24974 1.16501E-02 1.24094E-01 3.17794E-04-7.73830E-02-4.08933E-06-8.02576E-06
 -1     24979 1.33677E-02 1.22495E-01 4.03090E-04-7.51004E-02-3.04963E-06-5.98524E-06
 -1     24980 6.71355E-04 1.31541E-01-1.76044E-04-6.54347E-02 9.52889E-07 2.30048E-06
 -1     24981 1.16925E-02 1.24136E-01 4.15788E-04-7.73830E-02-2.21322E-06-4.34369E-06
 -1     24986 1.34005E-02 1.22528E-01 4.78768E-04-7.51003E-02-1.61422E-06-3.16810E-06
 -1     24987 6.58680E-04 1.31528E-01-2.05365E-04-6.54348E-02 4.68588E-07 1.13127E-06
 -1     24988 1.17189E-02 1.24163E-01 4.77269E-04-7.73830E-02-1.07017E-06-2.10033E-06
 -1     24993 1.34191E-02 1.22546E-01 5.21734E-04-7.51003E-02-6.89741E-07-1.35370E-06
 -1     24994 6.52566E-04 1.31522E-01-2.19536E-04-6.54348E-02 1.39619E-07 3.37070E-07
 -1     24995 1.17317E-02 1.24176E-01 5.06834E-04-7.73830E-02-3.15761E-07-6.19717E-07
 -1     25000 1.34251E-02 1.22552E-01 5.35673E-04-7.51003E-02-1.09104E-15-4.48587E-15
 -1     25001 6.52566E-04 1.31522E-01-2.19536E-04-6.54348E-02-1.39619E-07-3.37070E-07
 -1     25002 1.17317E-02 1.24176E-01 5.06834E-04-7.73830E-02 3.15761E-07 6.19717E-07
 -1     25007 1.34191E-02 1.22546E-01 5.21734E-04-7.51003E-02 6.89741E-07 1.35370E-06
 -1     25008 6.58680E-04 1.31528E-01-2.05365E-04-6.54348E-02-4.68588E-07-1.13127E-06
 -1     25009 1.17189E-02 1.24163E-01 4.77269E-04-7.73830E-02 1.07017E-06 2.10033E-06
 -1     25014 1.34005E-02 1.22528E-01 4.78768E-04-7.51003E-02 1.61422E-06 3.16810E-06
 -1     25015 6.71355E-04 1.31541E-01-1.76044E-04-6.54347E-02-9.52889E-07-2.30048E-06
 -1     25016 1.16925E-02 1.24136E-01 4.15788E-04-7.73830E-02 2.21322E-06 4.34369E-06
 -1     25021 1.33677E-02 1.22495E-01 4.03090E-04-7.51004E-02 3.04963E-06 5.98524E-06
 -1     25022 6.91290E-04 1.31561E-01-1.30096E-04-6.54347E-02-1.74119E-06-4.20361E-06
 -1     25023 1.16501E-02 1.24094E-01 3.17794E-04-7.73830E-02 4.08933E-06 8.02576E-06
 -1     25028 1.33173E-02 1.22445E-01 2.87264E-04-7.51005E-02 5.31365E-06 1.04286E-05
 -1     25029 7.18121E-04 1.31587E-01-6.86281E-05-6.54346E-02-2.99152E-06-7.22217E-06
 -1     25030 1.15893E-02 1.24034E-01 1.77789E-04-7.73831E-02 7.14393E-06 1.40207E-05
 -1     25035 1.32416E-02 1.22369E-01 1.14000E-04-7.51008E-02 8.95585E-06 1.75768E-05
 -1     25039 3.91196E-02 9.64915E-02 1.14000E-04-8.82862E-02-1.15952E-05-1.59594E-05
 -1     25040 2.41411E-02 1.08164E-01-6.86280E-05-8.24525E-02 4.08449E-06 6.66527E-06
 -1     25041 3.82537E-02 9.73691E-02 1.77789E-04-9.09693E-02-9.24931E-06-1.27306E-05
 -1     25046 3.91952E-02 9.65669E-02 2.87264E-04-8.82859E-02-6.87963E-06-9.46899E-06
 -1     25047 2.41143E-02 1.08138E-01-1.30096E-04-8.24525E-02 2.37735E-06 3.87947E-06
 -1     25048 3.83145E-02 9.74298E-02 3.17794E-04-9.09692E-02-5.29449E-06-7.28724E-06
 -1     25053 3.92456E-02 9.66171E-02 4.03090E-04-8.82858E-02-3.94839E-06-5.43449E-06
 -1     25054 2.40944E-02 1.08118E-01-1.76044E-04-8.24526E-02 1.30103E-06 2.12309E-06
 -1     25055 3.83568E-02 9.74721E-02 4.15788E-04-9.09691E-02-2.86547E-06-3.94399E-06
 -1     25060 3.92783E-02 9.66499E-02 4.78768E-04-8.82857E-02-2.08995E-06-2.87657E-06
 -1     25061 2.40817E-02 1.08105E-01-2.05365E-04-8.24526E-02 6.39790E-07 1.04404E-06
 -1     25062 3.83833E-02 9.74986E-02 4.77269E-04-9.09691E-02-1.38556E-06-1.90706E-06
 -1     25067 3.92969E-02 9.66684E-02 5.21734E-04-8.82857E-02-8.93016E-07-1.22913E-06
 -1     25068 2.40756E-02 1.08099E-01-2.19536E-04-8.24526E-02 1.90629E-07 3.11079E-07
 -1     25069 3.83960E-02 9.75113E-02 5.06834E-04-9.09691E-02-4.08819E-07-5.62691E-07
 -1     25074 3.93029E-02 9.66744E-02 5.35673E-04-8.82857E-02-1.35733E-14-1.72064E-14
 -1     25075 2.40756E-02 1.08099E-01-2.19536E-04-8.24526E-02-1.90629E-07-3.11079E-07
 -1     25076 3.83960E-02 9.75113E-02 5.06834E-04-9.09691E-02 4.08819E-07 5.62691E-07
 -1     25081 3.92969E-02 9.66684E-02 5.21734E-04-8.82857E-02 8.93016E-07 1.22913E-06
 -1     25082 2.40817E-02 1.08105E-01-2.05365E-04-8.24526E-02-6.39790E-07-1.04404E-06
 -1     25083 3.83833E-02 9.74986E-02 4.77269E-04-9.09691E-02 1.38556E-06 1.90706E-06
 -1     25088 3.92783E-02 9.66499E-02 4.78768E-04-8.82857E-02 2.08995E-06 2.87657E-06
 -1     25089 2.40944E-02 1.08118E-01-1.76044E-04-8.24526E-02-1.30103E-06-2.12309E-06
 -1     25090 3.83568E-02 9.74721E-02 4.15788E-04-9.09691E-02 2.86547E-06 3.94399E-06
 -1     25095 3.92456E-02 9.66171E-02 4.03090E-04-8.82858E-02 3.94839E-06 5.43449E-06
 -1     25096 2.41143E-02 1.08138E-01-1.30096E-04-8.24525E-02-2.37735E-06-3.87947E-06
 -1     25097 3.83145E-02 9.74298E-02 3.17794E-04-9.09692E-02 5.29449E-06 7.28724E-06
 -1     25102 3.91952E-02 9.65669E-02 2.87264E-04-8.82859E-02 6.87963E-06 9.46899E-06
 -1     25103 2.41411E-02 1.08164E-01-6.86280E-05-8.24525E-02-4.08449E-06-6.66527E-06
 -1     25104 3.82537E-02 9.73691E-02 1.77789E-04-9.09693E-02 9.24931E-06 1.27306E-05
 -1     25109 3.91196E-02 9.64915E-02 1.14000E-04-8.82862E-02 1.15952E-05 1.59594E-05
 -1     25113 6.78055E-02 6.78055E-02 1.14000E-04-9.28297E-02-1.39490E-05-1.39491E-05
 -1     25114 5.16765E-02 8.06290E-02-6.86280E-05-9.13993E-02 5.07688E-06 5.94426E-06
 -1     25115 6.78114E-02 6.78114E-02 1.77789E-04-9.56507E-02-1.11269E-05-1.11269E-05
 -1     25120 6.78811E-02 6.78810E-02 2.87264E-04-9.28293E-02-8.27619E-06-8.27620E-06
 -1     25121 5.16498E-02 8.06022E-02-1.30096E-04-9.13993E-02 2.95497E-06 3.45981E-06
 -1     25122 6.78721E-02 6.78721E-02 3.17794E-04-9.56506E-02-6.36928E-06-6.36928E-06
 -1     25127 6.79313E-02 6.79313E-02 4.03090E-04-9.28292E-02-4.74991E-06-4.74991E-06
 -1     25128 5.16299E-02 8.05823E-02-1.76044E-04-9.13994E-02 1.61715E-06 1.89343E-06
 -1     25129 6.79145E-02 6.79145E-02 4.15788E-04-9.56506E-02-3.44717E-06-3.44717E-06
 -1     25134 6.79641E-02 6.79641E-02 4.78768E-04-9.28291E-02-2.51422E-06-2.51421E-06
 -1     25135 5.16172E-02 8.05697E-02-2.05365E-04-9.13994E-02 7.95242E-07 9.31104E-07
 -1     25136 6.79410E-02 6.79410E-02 4.77269E-04-9.56506E-02-1.66683E-06-1.66683E-06
 -1     25141 6.79826E-02 6.79826E-02 5.21734E-04-9.28291E-02-1.07430E-06-1.07430E-06
 -1     25142 5.16111E-02 8.05636E-02-2.19536E-04-9.13994E-02 2.36947E-07 2.77428E-07
 -1     25143 6.79537E-02 6.79537E-02 5.06834E-04-9.56506E-02-4.91811E-07-4.91810E-07
 -1     25148 6.79886E-02 6.79886E-02 5.35673E-04-9.28291E-02 1.74315E-14-7.82282E-15
 -1     25149 5.16111E-02 8.05636E-02-2.19536E-04-9.13994E-02-2.36947E-07-2.77428E-07
 -1     25150 6.79537E-02 6.79537E-02 5.06834E-04-9.56506E-02 4.91811E-07 4.91810E-07
 -1     25155 6.79826E-02 6.79826E-02 5.21734E-04-9.28291E-02 1.07430E-06 1.07430E-06
 -1     25156 5.16172E-02 8.05697E-02-2.05365E-04-9.13994E-02-7.95242E-07-9.31104E-07
 -1     25157 6.79410E-02 6.79410E-02 4.77269E-04-9.56506E-02 1.66683E-06 1.66683E-06
 -1     25162 6.79641E-02 6.79641E-02 4.78768E-04-9.28291E-02 2.51422E-06 2.51421E-06
 -1     25163 5.16299E-02 8.05823E-02-1.76044E-04-9.13994E-02-1.61715E-06-1.89343E-06
 -1     25164 6.79145E-02 6.79145E-02 4.15788E-04-9.56506E-02 3.44717E-06 3.44717E-06
 -1     25169 6.79313E-02 6.79313E-02 4.03090E-04-9.28292E-02 4.74991E-06 4.74991E-06
 -1     25170 5.16498E-02 8.06022E-02-1.30096E-04-9.13993E-02-2.95497E-06-3.45981E-06
 -1     25171 6.78721E-02 6.78721E-02 3.17794E-04-9.56506E-02 6.36928E-06 6.36928E-06
 -1     25176 6.78811E-02 6.78810E-02 2.87264E-04-9.28293E-02 8.27619E-06 8.27620E-06
 -1     25177 5.16765E-02 8.06290E-02-6.86280E-05-9.13993E-02-5.07688E-06-5.94426E-06
 -1     25178 6.78114E-02 6.78114E-02 1.77789E-04-9.56507E-02 1.11269E-05 1.11269E-05
 -1     25183 6.78055E-02 6.78055E-02 1.14000E-04-9.28297E-02 1.39490E-05 1.39491E-05
 -1     25187 9.64915E-02 3.91196E-02 1.14001E-04-8.82862E-02-1.59594E-05-1.15952E-05
 -1     25188 8.06290E-02 5.16765E-02-6.86281E-05-9.13993E-02 5.94425E-06 5.07689E-06
 -1     25189 9.73691E-02 3.82537E-02 1.77789E-04-9.09693E-02-1.27306E-05-9.24930E-06
 -1     25194 9.65669E-02 3.91952E-02 2.87264E-04-8.82859E-02-9.46897E-06-6.87962E-06
 -1     25195 8.06022E-02 5.16498E-02-1.30096E-04-9.13993E-02 3.45980E-06 2.95497E-06
 -1     25196 9.74298E-02 3.83145E-02 3.17794E-04-9.09692E-02-7.28723E-06-5.29449E-06
 -1     25201 9.66171E-02 3.92456E-02 4.03090E-04-8.82858E-02-5.43447E-06-3.94838E-06
 -1     25202 8.05823E-02 5.16299E-02-1.76044E-04-9.13994E-02 1.89342E-06 1.61714E-06
 -1     25203 9.74721E-02 3.83568E-02 4.15788E-04-9.09691E-02-3.94398E-06-2.86547E-06
 -1     25208 9.66499E-02 3.92783E-02 4.78768E-04-8.82857E-02-2.87656E-06-2.08995E-06
 -1     25209 8.05697E-02 5.16172E-02-2.05365E-04-9.13994E-02 9.31100E-07 7.95240E-07
 -1     25210 9.74986E-02 3.83833E-02 4.77269E-04-9.09691E-02-1.90706E-06-1.38556E-06
 -1     25215 9.66684E-02 3.92969E-02 5.21734E-04-8.82857E-02-1.22913E-06-8.93013E-07
 -1     25216 8.05636E-02 5.16111E-02-2.19536E-04-9.13994E-02 2.77427E-07 2.36947E-07
 -1     25217 9.75113E-02 3.83960E-02 5.06834E-04-9.09691E-02-5.62690E-07-4.08818E-07
 -1     25222 9.66744E-02 3.93029E-02 5.35673E-04-8.82857E-02 1.52384E-14-7.87153E-15
 -1     25223 8.05636E-02 5.16111E-02-2.19536E-04-9.13994E-02-2.77427E-07-2.36947E-07
 -1     25224 9.75113E-02 3.83960E-02 5.06834E-04-9.09691E-02 5.62690E-07 4.08818E-07
 -1     25229 9.66684E-02 3.92969E-02 5.21734E-04-8.82857E-02 1.22913E-06 8.93013E-07
 -1     25230 8.05697E-02 5.16172E-02-2.05365E-04-9.13994E-02-9.31100E-07-7.95240E-07
 -1     25231 9.74986E-02 3.83833E-02 4.77269E-04-9.09691E-02 1.90706E-06 1.38556E-06
 -1     25236 9.66499E-02 3.92783E-02 4.78768E-04-8.82857E-02 2.87656E-06 2.08995E-06
 -1     25237 8.05823E-02 5.16299E-02-1.76044E-04-9.13994E-02-1.89342E-06-1.61714E-06
 -1     25238 9.74721E-02 3.83568E-02 4.15788E-04-9.09691E-02 3.94398E-06 2.86547E-06
 -1     25243 9.66171E-02 3.92456E-02 4.03090E-04-8.82858E-02 5.43447E-06 3.94838E-06
 -1     25244 8.06022E-02 5.16498E-02-1.30096E-04-9.13993E-02-3.45980E-06-2.95497E-06
 -1     25245 9.74298E-02 3.83145E-02 3.17794E-04-9.09692E-02 7.28723E-06 5.29449E-06
 -1     25250 9.65669E-02 3.91952E-02 2.87264E-04-8.82859E-02 9.46897E-06 6.87962E-06
 -1     25251 8.06290E-02 5.16765E-02-6.86281E-05-9.13993E-02-5.94425E-06-5.07689E-06
 -1     25252 9.73691E-02 3.82537E-02 1.77789E-04-9.09693E-02 1.27306E-05 9.24930E-06
 -1     25257 9.64915E-02 3.91196E-02 1.14001E-04-8.82862E-02 1.59594E-05 1.15952E-05
 -1     25261 1.22369E-01 1.32416E-02 1.14000E-04-7.51008E-02-1.75768E-05-8.95581E-06
 -1     25262 1.08164E-01 2.41411E-02-6.86281E-05-8.24525E-02 6.66527E-06 4.08447E-06
 -1     25263 1.24034E-01 1.15893E-02 1.77789E-04-7.73831E-02-1.40208E-05-7.14391E-06
 -1     25268 1.22445E-01 1.33173E-02 2.87264E-04-7.51005E-02-1.04286E-05-5.31364E-06
 -1     25269 1.08138E-01 2.41143E-02-1.30096E-04-8.24525E-02 3.87947E-06 2.37734E-06
 -1     25270 1.24094E-01 1.16501E-02 3.17794E-04-7.73830E-02-8.02576E-06-4.08933E-06
 -1     25275 1.22495E-01 1.33677E-02 4.03090E-04-7.51004E-02-5.98524E-06-3.04963E-06
 -1     25276 1.08118E-01 2.40944E-02-1.76044E-04-8.24526E-02 2.12309E-06 1.30103E-06
 -1     25277 1.24136E-01 1.16925E-02 4.15788E-04-7.73830E-02-4.34368E-06-2.21322E-06
 -1     25282 1.22528E-01 1.34005E-02 4.78768E-04-7.51003E-02-3.16809E-06-1.61423E-06
 -1     25283 1.08105E-01 2.40817E-02-2.05365E-04-8.24526E-02 1.04404E-06 6.39788E-07
 -1     25284 1.24163E-01 1.17189E-02 4.77269E-04-7.73830E-02-2.10033E-06-1.07017E-06
 -1     25289 1.22546E-01 1.34191E-02 5.21734E-04-7.51003E-02-1.35369E-06-6.89745E-07
 -1     25290 1.08099E-01 2.40756E-02-2.19537E-04-8.24526E-02 3.11078E-07 1.90629E-07
 -1     25291 1.24176E-01 1.17317E-02 5.06834E-04-7.73830E-02-6.19716E-07-3.15762E-07
 -1     25296 1.22552E-01 1.34251E-02 5.35673E-04-7.51003E-02 1.61844E-14-1.56913E-15
 -1     25297 1.08099E-01 2.40756E-02-2.19537E-04-8.24526E-02-3.11078E-07-1.90629E-07
 -1     25298 1.24176E-01 1.17317E-02 5.06834E-04-7.73830E-02 6.19716E-07 3.15762E-07
 -1     25303 1.22546E-01 1.34191E-02 5.21734E-04-7.51003E-02 1.35369E-06 6.89745E-07
 -1     25304 1.08105E-01 2.40817E-02-2.05365E-04-8.24526E-02-1.04404E-06-6.39788E-07
 -1     25305 1.24163E-01 1.17189E-02 4.77269E-04-7.73830E-02 2.10033E-06 1.07017E-06
 -1     25310 1.22528E-01 1.34005E-02 4.78768E-04-7.51003E-02 3.16809E-06 1.61423E-06
 -1     25311 1.08118E-01 2.40944E-02-1.76044E-04-8.24526E-02-2.12309E-06-1.30103E-06
 -1     25312 1.24136E-01 1.16925E-02 4.15788E-04-7.73830E-02 4.34368E-06 2.21322E-06
 -1     25317 1.22495E-01 1.33677E-02 4.03090E-04-7.51004E-02 5.98524E-06 3.04963E-06
 -1     25318 1.08138E-01 2.41143E-02-1.30096E-04-8.24525E-02-3.87947E-06-2.37734E-06
 -1     25319 1.24094E-01 1.16501E-02 3.17794E-04-7.73830E-02 8.02576E-06 4.08933E-06
 -1     25324 1.22445E-01 1.33173E-02 2.87264E-04-7.51005E-02 1.04286E-05 5.31364E-06
 -1     25325 1.08164E-01 2.41411E-02-6.86281E-05-8.24525E-02-6.66527E-06-4.08447E-06
 -1     25326 1.24034E-01 1.15893E-02 1.77789E-04-7.73831E-02 1.40208E-05 7.14391E-06
 -1     25331 1.22369E-01 1.32416E-02 1.14000E-04-7.51008E-02 1.75768E-05 8.95581E-06
 -1     25335 1.42906E-01-7.29523E-03 1.14000E-04-5.45639E-02-1.87614E-05-6.09596E-06
 -1     25336 1.31587E-01 7.18120E-04-6.86280E-05-6.54346E-02 7.22218E-06 2.99151E-06
 -1     25337 1.45194E-01-9.57166E-03 1.77789E-04-5.62221E-02-1.49657E-05-4.86265E-06
 -1     25342 1.42982E-01-7.21945E-03 2.87264E-04-5.45637E-02-1.11315E-05-3.61683E-06
 -1     25343 1.31561E-01 6.91288E-04-1.30096E-04-6.54347E-02 4.20362E-06 1.74119E-06
 -1     25344 1.45255E-01-9.51086E-03 3.17794E-04-5.62220E-02-8.56667E-06-2.78348E-06
 -1     25349 1.43032E-01-7.16903E-03 4.03090E-04-5.45636E-02-6.38863E-06-2.07579E-06
 -1     25350 1.31541E-01 6.71353E-04-1.76044E-04-6.54347E-02 2.30049E-06 9.52888E-07
 -1     25351 1.45297E-01-9.46849E-03 4.15788E-04-5.62220E-02-4.63644E-06-1.50647E-06
 -1     25356 1.43064E-01-7.13623E-03 4.78767E-04-5.45636E-02-3.38162E-06-1.09875E-06
 -1     25357 1.31528E-01 6.58679E-04-2.05365E-04-6.54348E-02 1.13128E-06 4.68588E-07
 -1     25358 1.45324E-01-9.44201E-03 4.77269E-04-5.62220E-02-2.24189E-06-7.28432E-07
 -1     25363 1.43083E-01-7.11767E-03 5.21734E-04-5.45636E-02-1.44493E-06-4.69486E-07
 -1     25364 1.31522E-01 6.52564E-04-2.19536E-04-6.54348E-02 3.37071E-07 1.39619E-07
 -1     25365 1.45337E-01-9.42929E-03 5.06834E-04-5.62220E-02-6.61484E-07-2.14929E-07
 -1     25370 1.43089E-01-7.11165E-03 5.35673E-04-5.45636E-02-2.01871E-14 3.94511E-15
 -1     25371 1.31522E-01 6.52564E-04-2.19536E-04-6.54348E-02-3.37071E-07-1.39619E-07
 -1     25372 1.45337E-01-9.42929E-03 5.06834E-04-5.62220E-02 6.61484E-07 2.14929E-07
 -1     25377 1.43083E-01-7.11767E-03 5.21734E-04-5.45636E-02 1.44493E-06 4.69486E-07
 -1     25378 1.31528E-01 6.58679E-04-2.05365E-04-6.54348E-02-1.13128E-06-4.68588E-07
 -1     25379 1.45324E-01-9.44201E-03 4.77269E-04-5.62220E-02 2.24189E-06 7.28433E-07
 -1     25384 1.43064E-01-7.13623E-03 4.78767E-04-5.45636E-02 3.38162E-06 1.09875E-06
 -1     25385 1.31541E-01 6.71353E-04-1.76044E-04-6.54347E-02-2.30049E-06-9.52888E-07
 -1     25386 1.45297E-01-9.46849E-03 4.15788E-04-5.62220E-02 4.63644E-06 1.50647E-06
 -1     25391 1.43032E-01-7.16903E-03 4.03090E-04-5.45636E-02 6.38863E-06 2.07579E-06
 -1     25392 1.31561E-01 6.91288E-04-1.30096E-04-6.54347E-02-4.20362E-06-1.74119E-06
 -1     25393 1.45255E-01-9.51086E-03 3.17794E-04-5.62220E-02 8.56667E-06 2.78348E-06
 -1     25398 1.42982E-01-7.21945E-03 2.87264E-04-5.45637E-02 1.11315E-05 3.61683E-06
 -1     25399 1.31587E-01 7.18120E-04-6.86280E-05-6.54346E-02-7.22218E-06-2.99151E-06
 -1     25400 1.45194E-01-9.57166E-03 1.77789E-04-5.62221E-02 1.49657E-05 4.86265E-06
 -1     25405 1.42906E-01-7.29523E-03 1.14000E-04-5.45639E-02 1.87614E-05 6.09596E-06
 -1     25409 1.56092E-01-2.04807E-02 1.14000E-04-2.86859E-02-1.94841E-05-3.08602E-06
 -1     25410 1.48605E-01-1.62997E-02-6.86279E-05-4.20116E-02 7.60124E-06 1.82491E-06
 -1     25411 1.58781E-01-2.31578E-02 1.77789E-04-2.95577E-02-1.55421E-05-2.46165E-06
 -1     25416 1.56167E-01-2.04049E-02 2.87264E-04-2.86858E-02-1.15602E-05-1.83097E-06
 -1     25417 1.48579E-01-1.63265E-02-1.30096E-04-4.20117E-02 4.42425E-06 1.06217E-06
 -1     25418 1.58841E-01-2.30970E-02 3.17794E-04-2.95577E-02-8.89662E-06-1.40909E-06
 -1     25423 1.56217E-01-2.03544E-02 4.03090E-04-2.86858E-02-6.63468E-06-1.05082E-06
 -1     25424 1.48559E-01-1.63465E-02-1.76044E-04-4.20117E-02 2.42123E-06 5.81285E-07
 -1     25425 1.58884E-01-2.30547E-02 4.15788E-04-2.95577E-02-4.81501E-06-7.62617E-07
 -1     25430 1.56250E-01-2.03216E-02 4.78768E-04-2.86858E-02-3.51186E-06-5.56215E-07
 -1     25431 1.48546E-01-1.63592E-02-2.05365E-04-4.20117E-02 1.19065E-06 2.85850E-07
 -1     25432 1.58910E-01-2.30282E-02 4.77269E-04-2.95577E-02-2.32823E-06-3.68751E-07
 -1     25437 1.56268E-01-2.03031E-02 5.21734E-04-2.86858E-02-1.50058E-06-2.37663E-07
 -1     25438 1.48540E-01-1.63653E-02-2.19536E-04-4.20117E-02 3.54763E-07 8.51705E-08
 -1     25439 1.58923E-01-2.30155E-02 5.06834E-04-2.95577E-02-6.86961E-07-1.08802E-07
 -1     25444 1.56274E-01-2.02970E-02 5.35673E-04-2.86858E-02 1.75417E-14 6.73341E-15
 -1     25445 1.48540E-01-1.63653E-02-2.19536E-04-4.20117E-02-3.54763E-07-8.51705E-08
 -1     25446 1.58923E-01-2.30155E-02 5.06834E-04-2.95577E-02 6.86961E-07 1.08802E-07
 -1     25451 1.56268E-01-2.03031E-02 5.21734E-04-2.86858E-02 1.50058E-06 2.37663E-07
 -1     25452 1.48546E-01-1.63592E-02-2.05365E-04-4.20117E-02-1.19065E-06-2.85850E-07
 -1     25453 1.58910E-01-2.30282E-02 4.77269E-04-2.95577E-02 2.32823E-06 3.68751E-07
 -1     25458 1.56250E-01-2.03216E-02 4.78768E-04-2.86858E-02 3.51186E-06 5.56215E-07
 -1     25459 1.48559E-01-1.63465E-02-1.76044E-04-4.20117E-02-2.42123E-06-5.81285E-07
 -1     25460 1.58884E-01-2.30547E-02 4.15788E-04-2.95577E-02 4.81501E-06 7.62617E-07
 -1     25465 1.56217E-01-2.03544E-02 4.03090E-04-2.86858E-02 6.63468E-06 1.05082E-06
 -1     25466 1.48579E-01-1.63265E-02-1.30096E-04-4.20117E-02-4.42425E-06-1.06217E-06
 -1     25467 1.58841E-01-2.30970E-02 3.17794E-04-2.95577E-02 8.89662E-06 1.40909E-06
 -1     25472 1.56167E-01-2.04049E-02 2.87264E-04-2.86858E-02 1.15602E-05 1.83097E-06
 -1     25473 1.48605E-01-1.62997E-02-6.86279E-05-4.20116E-02-7.60124E-06-1.82491E-06
 -1     25474 1.58781E-01-2.31578E-02 1.77789E-04-2.95577E-02 1.55421E-05 2.46165E-06
 -1     25479 1.56092E-01-2.04807E-02 1.14000E-04-2.86859E-02 1.94841E-05 3.08602E-06
 -1     25483 1.57552E-01-2.52465E-02-6.86282E-05-1.44762E-02 7.79311E-06 6.13356E-07
 -1     25487 1.57525E-01-2.52733E-02-1.30096E-04-1.44762E-02 4.53591E-06 3.56998E-07
 -1     25491 1.57505E-01-2.52933E-02-1.76044E-04-1.44762E-02 2.48234E-06 1.95371E-07
 -1     25495 1.57493E-01-2.53060E-02-2.05365E-04-1.44762E-02 1.22070E-06 9.60747E-08
 -1     25499 1.57487E-01-2.53121E-02-2.19537E-04-1.44762E-02 3.63715E-07 2.86261E-08
 -1     25503 1.57487E-01-2.53121E-02-2.19537E-04-1.44762E-02-3.63715E-07-2.86261E-08
 -1     25507 1.57493E-01-2.53060E-02-2.05365E-04-1.44762E-02-1.22070E-06-9.60747E-08
 -1     25511 1.57505E-01-2.52933E-02-1.76044E-04-1.44762E-02-2.48234E-06-1.95371E-07
 -1     25515 1.57525E-01-2.52733E-02-1.30096E-04-1.44762E-02-4.53591E-06-3.56998E-07
 -1     25519 1.57552E-01-2.52465E-02-6.86282E-05-1.44762E-02-7.79311E-06-6.13356E-07
 -1     25525-1.55919E-02 1.51048E-01 1.02130E-04-2.70723E-02-2.93392E-06-1.85240E-05
 -1     25526-2.00641E-02 1.52435E-01-6.21427E-05-1.36606E-02 5.89099E-07 7.48521E-06
 -1     25527-1.80357E-02 1.53514E-01 1.61638E-04-2.78699E-02-2.33804E-06-1.47618E-05
 -1     25532-1.55221E-02 1.51116E-01 2.59067E-04-2.70720E-02-1.80223E-06-1.13788E-05
 -1     25533-2.00890E-02 1.52410E-01-1.18189E-04-1.36606E-02 3.55461E-07 4.51656E-06
 -1     25534-1.79798E-02 1.53569E-01 2.89183E-04-2.78698E-02-1.38337E-06-8.73424E-06
 -1     25539-1.54754E-02 1.51162E-01 3.64800E-04-2.70719E-02-1.07758E-06-6.80358E-06
 -1     25540-2.01076E-02 1.52392E-01-1.60259E-04-1.36606E-02 2.02623E-07 2.57457E-06
 -1     25541-1.79407E-02 1.53608E-01 3.78885E-04-2.78698E-02-7.75732E-07-4.89778E-06
 -1     25546-1.54449E-02 1.51192E-01 4.34171E-04-2.70718E-02-5.91714E-07-3.73594E-06
 -1     25547-2.01194E-02 1.52381E-01-1.87176E-04-1.36606E-02 1.02962E-07 1.30826E-06
 -1     25548-1.79161E-02 1.53633E-01 4.35371E-04-2.78698E-02-3.86775E-07-2.44200E-06
 -1     25553-1.54276E-02 1.51209E-01 4.73664E-04-2.70718E-02-2.59900E-07-1.64094E-06
 -1     25554-2.01251E-02 1.52375E-01-2.00209E-04-1.36607E-02 3.13039E-08 3.97753E-07
 -1     25555-1.79043E-02 1.53644E-01 4.62597E-04-2.78698E-02-1.16304E-07-7.34317E-07
 -1     25560-1.54220E-02 1.51215E-01 4.86494E-04-2.70718E-02-4.69780E-15-3.04291E-14
 -1     25561-2.01251E-02 1.52375E-01-2.00209E-04-1.36607E-02-3.13039E-08-3.97753E-07
 -1     25562-1.79043E-02 1.53644E-01 4.62597E-04-2.78698E-02 1.16304E-07 7.34317E-07
 -1     25567-1.54276E-02 1.51209E-01 4.73664E-04-2.70718E-02 2.59900E-07 1.64094E-06
 -1     25568-2.01194E-02 1.52381E-01-1.87176E-04-1.36606E-02-1.02962E-07-1.30826E-06
 -1     25569-1.79161E-02 1.53633E-01 4.35371E-04-2.78698E-02 3.86775E-07 2.44200E-06
 -1     25574-1.54449E-02 1.51192E-01 4.34171E-04-2.70718E-02 5.91714E-07 3.73594E-06
 -1     25575-2.01076E-02 1.52392E-01-1.60259E-04-1.36606E-02-2.02623E-07-2.57457E-06
 -1     25576-1.79407E-02 1.53608E-01 3.78885E-04-2.78698E-02 7.75732E-07 4.89778E-06
 -1     25581-1.54754E-02 1.51162E-01 3.64800E-04-2.70719E-02 1.07758E-06 6.80358E-06
 -1     25582-2.00890E-02 1.52410E-01-1.18189E-04-1.36606E-02-3.55461E-07-4.51656E-06
 -1     25583-1.79798E-02 1.53569E-01 2.89183E-04-2.78698E-02 1.38337E-06 8.73424E-06
 -1     25588-1.55221E-02 1.51116E-01 2.59067E-04-2.70720E-02 1.80223E-06 1.13788E-05
 -1     25589-2.00641E-02 1.52435E-01-6.21427E-05-1.36606E-02-5.89099E-07-7.48521E-06
 -1     25590-1.80357E-02 1.53514E-01 1.61638E-04-2.78699E-02 2.33804E-06 1.47618E-05
 -1     25595-1.55919E-02 1.51048E-01 1.02130E-04-2.70723E-02 2.93392E-06 1.85240E-05
 -1     25599-3.14815E-03 1.38604E-01 1.02130E-04-5.14945E-02-5.79560E-06-1.78370E-05
 -1     25600-1.16214E-02 1.43992E-01-6.21427E-05-3.96445E-02 1.75279E-06 7.30090E-06
 -1     25601-5.22533E-03 1.40704E-01 1.61638E-04-5.30118E-02-4.61852E-06-1.42143E-05
 -1     25606-3.07845E-03 1.38673E-01 2.59067E-04-5.14941E-02-3.56008E-06-1.09568E-05
 -1     25607-1.16463E-02 1.43968E-01-1.18189E-04-3.96447E-02 1.05763E-06 4.40535E-06
 -1     25608-5.16940E-03 1.40759E-01 2.89183E-04-5.30116E-02-2.73267E-06-8.41030E-06
 -1     25613-3.03178E-03 1.38719E-01 3.64800E-04-5.14938E-02-2.12863E-06-6.55124E-06
 -1     25614-1.16648E-02 1.43949E-01-1.60259E-04-3.96447E-02 6.02881E-07 2.51118E-06
 -1     25615-5.13032E-03 1.40798E-01 3.78885E-04-5.30115E-02-1.53236E-06-4.71613E-06
 -1     25620-3.00132E-03 1.38749E-01 4.34171E-04-5.14937E-02-1.16886E-06-3.59738E-06
 -1     25621-1.16766E-02 1.43938E-01-1.87176E-04-3.96447E-02 3.06352E-07 1.27605E-06
 -1     25622-5.10581E-03 1.40822E-01 4.35371E-04-5.30115E-02-7.64025E-07-2.35143E-06
 -1     25627-2.98404E-03 1.38766E-01 4.73664E-04-5.14936E-02-5.13399E-07-1.58008E-06
 -1     25628-1.16823E-02 1.43932E-01-2.00209E-04-3.96448E-02 9.31408E-08 3.87959E-07
 -1     25629-5.09402E-03 1.40834E-01 4.62597E-04-5.30114E-02-2.29745E-07-7.07082E-07
 -1     25634-2.97844E-03 1.38771E-01 4.86494E-04-5.14936E-02 4.42493E-15-4.86194E-14
 -1     25635-1.16823E-02 1.43932E-01-2.00209E-04-3.96448E-02-9.31408E-08-3.87959E-07
 -1     25636-5.09402E-03 1.40834E-01 4.62597E-04-5.30114E-02 2.29745E-07 7.07082E-07
 -1     25641-2.98404E-03 1.38766E-01 4.73664E-04-5.14936E-02 5.13399E-07 1.58008E-06
 -1     25642-1.16766E-02 1.43938E-01-1.87176E-04-3.96447E-02-3.06352E-07-1.27605E-06
 -1     25643-5.10581E-03 1.40822E-01 4.35371E-04-5.30115E-02 7.64025E-07 2.35143E-06
 -1     25648-3.00132E-03 1.38749E-01 4.34171E-04-5.14937E-02 1.16886E-06 3.59738E-06
 -1     25649-1.16648E-02 1.43949E-01-1.60259E-04-3.96447E-02-6.02881E-07-2.51118E-06
 -1     25650-5.13032E-03 1.40798E-01 3.78885E-04-5.30115E-02 1.53236E-06 4.71613E-06
 -1     25655-3.03178E-03 1.38719E-01 3.64800E-04-5.14938E-02 2.12863E-06 6.55124E-06
 -1     25656-1.16463E-02 1.43968E-01-1.18189E-04-3.96447E-02-1.05763E-06-4.40535E-06
 -1     25657-5.16940E-03 1.40759E-01 2.89183E-04-5.30116E-02 2.73267E-06 8.41030E-06
 -1     25662-3.07845E-03 1.38673E-01 2.59067E-04-5.14941E-02 3.56008E-06 1.09568E-05
 -1     25663-1.16214E-02 1.43992E-01-6.21427E-05-3.96445E-02-1.75279E-06-7.30090E-06
 -1     25664-5.22533E-03 1.40704E-01 1.61638E-04-5.30118E-02 4.61852E-06 1.42143E-05
 -1     25669-3.14815E-03 1.38604E-01 1.02130E-04-5.14945E-02 5.79560E-06 1.78370E-05
 -1     25673 1.62334E-02 1.19222E-01 1.02130E-04-7.08761E-02-8.51458E-06-1.67108E-05
 -1     25674 4.43753E-03 1.27933E-01-6.21427E-05-6.17478E-02 2.87332E-06 6.93682E-06
 -1     25675 1.47273E-02 1.20751E-01 1.61638E-04-7.29645E-02-6.78527E-06-1.33168E-05
 -1     25680 1.63030E-02 1.19291E-01 2.59067E-04-7.08755E-02-5.23028E-06-1.02650E-05
 -1     25681 4.41270E-03 1.27909E-01-1.18189E-04-6.17480E-02 1.73376E-06 4.18566E-06
 -1     25682 1.47832E-02 1.20806E-01 2.89183E-04-7.29642E-02-4.01469E-06-7.87927E-06
 -1     25687 1.63496E-02 1.19337E-01 3.64800E-04-7.08752E-02-3.12726E-06-6.13759E-06
 -1     25688 4.39421E-03 1.27890E-01-1.60259E-04-6.17481E-02 9.88291E-07 2.38595E-06
 -1     25689 1.48222E-02 1.20845E-01 3.78885E-04-7.29641E-02-2.25126E-06-4.41835E-06
 -1     25694 1.63800E-02 1.19367E-01 4.34171E-04-7.08750E-02-1.71722E-06-3.37024E-06
 -1     25695 4.38243E-03 1.27879E-01-1.87176E-04-6.17481E-02 5.02196E-07 1.21241E-06
 -1     25696 1.48467E-02 1.20870E-01 4.35371E-04-7.29640E-02-1.12246E-06-2.20296E-06
 -1     25701 1.63972E-02 1.19384E-01 4.73664E-04-7.08749E-02-7.54256E-07-1.48031E-06
 -1     25702 4.37675E-03 1.27873E-01-2.00209E-04-6.17482E-02 1.52684E-07 3.68612E-07
 -1     25703 1.48585E-02 1.20881E-01 4.62597E-04-7.29640E-02-3.37528E-07-6.62437E-07
 -1     25708 1.64028E-02 1.19390E-01 4.86494E-04-7.08749E-02 6.93910E-15 2.08005E-14
 -1     25709 4.37675E-03 1.27873E-01-2.00209E-04-6.17482E-02-1.52684E-07-3.68612E-07
 -1     25710 1.48585E-02 1.20881E-01 4.62597E-04-7.29640E-02 3.37528E-07 6.62437E-07
 -1     25715 1.63972E-02 1.19384E-01 4.73664E-04-7.08749E-02 7.54256E-07 1.48031E-06
 -1     25716 4.38243E-03 1.27879E-01-1.87176E-04-6.17481E-02-5.02196E-07-1.21241E-06
 -1     25717 1.48467E-02 1.20870E-01 4.35371E-04-7.29640E-02 1.12246E-06 2.20296E-06
 -1     25722 1.63800E-02 1.19367E-01 4.34171E-04-7.08750E-02 1.71722E-06 3.37024E-06
 -1     25723 4.39421E-03 1.27890E-01-1.60259E-04-6.17481E-02-9.88291E-07-2.38595E-06
 -1     25724 1.48222E-02 1.20845E-01 3.78885E-04-7.29641E-02 2.25126E-06 4.41835E-06
 -1     25729 1.63496E-02 1.19337E-01 3.64800E-04-7.08752E-02 3.12726E-06 6.13759E-06
 -1     25730 4.41270E-03 1.27909E-01-1.18189E-04-6.17480E-02-1.73376E-06-4.18566E-06
 -1     25731 1.47832E-02 1.20806E-01 2.89183E-04-7.29642E-02 4.01469E-06 7.87927E-06
 -1     25736 1.63030E-02 1.19291E-01 2.59067E-04-7.08755E-02 5.23028E-06 1.02650E-05
 -1     25737 4.43753E-03 1.27933E-01-6.21427E-05-6.17478E-02-2.87332E-06-6.93682E-06
 -1     25738 1.47273E-02 1.20751E-01 1.61638E-04-7.29645E-02 6.78527E-06 1.33168E-05
 -1     25743 1.62334E-02 1.19222E-01 1.02130E-04-7.08761E-02 8.51458E-06 1.67108E-05
 -1     25747 4.06557E-02 9.48002E-02 1.02130E-04-8.33198E-02-1.10239E-05-1.51731E-05
 -1     25748 2.65408E-02 1.05830E-01-6.21426E-05-7.78068E-02 3.92311E-06 6.40192E-06
 -1     25749 3.98692E-02 9.56091E-02 1.61638E-04-8.57749E-02-8.78494E-06-1.20914E-05
 -1     25754 4.07250E-02 9.48691E-02 2.59067E-04-8.33191E-02-6.77170E-06-9.32042E-06
 -1     25755 2.65160E-02 1.05805E-01-1.18189E-04-7.78070E-02 2.36720E-06 3.86291E-06
 -1     25756 3.99250E-02 9.56646E-02 2.89183E-04-8.57746E-02-5.19786E-06-7.15423E-06
 -1     25761 4.07715E-02 9.49153E-02 3.64799E-04-8.33188E-02-4.04890E-06-5.57282E-06
 -1     25762 2.64976E-02 1.05787E-01-1.60259E-04-7.78071E-02 1.34937E-06 2.20197E-06
 -1     25763 3.99640E-02 9.57035E-02 3.78885E-04-8.57744E-02-2.91473E-06-4.01177E-06
 -1     25768 4.08018E-02 9.49455E-02 4.34171E-04-8.33185E-02-2.22330E-06-3.06011E-06
 -1     25769 2.64858E-02 1.05775E-01-1.87176E-04-7.78072E-02 6.85678E-07 1.11892E-06
 -1     25770 3.99884E-02 9.57280E-02 4.35371E-04-8.57743E-02-1.45326E-06-2.00024E-06
 -1     25775 4.08191E-02 9.49627E-02 4.73664E-04-8.33184E-02-9.76544E-07-1.34410E-06
 -1     25776 2.64801E-02 1.05770E-01-2.00209E-04-7.78072E-02 2.08468E-07 3.40188E-07
 -1     25777 4.00002E-02 9.57397E-02 4.62597E-04-8.57743E-02-4.37001E-07-6.01480E-07
 -1     25782 4.08246E-02 9.49682E-02 4.86493E-04-8.33184E-02 8.51105E-15-7.64372E-15
 -1     25783 2.64801E-02 1.05770E-01-2.00209E-04-7.78072E-02-2.08468E-07-3.40188E-07
 -1     25784 4.00002E-02 9.57397E-02 4.62597E-04-8.57743E-02 4.37001E-07 6.01480E-07
 -1     25789 4.08191E-02 9.49627E-02 4.73664E-04-8.33184E-02 9.76544E-07 1.34410E-06
 -1     25790 2.64858E-02 1.05775E-01-1.87176E-04-7.78072E-02-6.85678E-07-1.11892E-06
 -1     25791 3.99884E-02 9.57280E-02 4.35371E-04-8.57743E-02 1.45326E-06 2.00024E-06
 -1     25796 4.08018E-02 9.49455E-02 4.34171E-04-8.33185E-02 2.22330E-06 3.06011E-06
 -1     25797 2.64976E-02 1.05787E-01-1.60259E-04-7.78071E-02-1.34937E-06-2.20197E-06
 -1     25798 3.99640E-02 9.57035E-02 3.78885E-04-8.57744E-02 2.91473E-06 4.01177E-06
 -1     25803 4.07715E-02 9.49153E-02 3.64799E-04-8.33188E-02 4.04890E-06 5.57282E-06
 -1     25804 2.65160E-02 1.05805E-01-1.18189E-04-7.78070E-02-2.36720E-06-3.86291E-06
 -1     25805 3.99250E-02 9.56646E-02 2.89183E-04-8.57746E-02 5.19786E-06 7.15423E-06
 -1     25810 4.07250E-02 9.48691E-02 2.59067E-04-8.33191E-02 6.77170E-06 9.32042E-06
 -1     25811 2.65408E-02 1.05830E-01-6.21426E-05-7.78068E-02-3.92311E-06-6.40192E-06
 -1     25812 3.98692E-02 9.56091E-02 1.61638E-04-8.57749E-02 8.78494E-06 1.20914E-05
 -1     25817 4.06557E-02 9.48002E-02 1.02130E-04-8.33198E-02 1.10239E-05 1.51731E-05
 -1     25821 6.77279E-02 6.77279E-02 1.02130E-04-8.76077E-02-1.32617E-05-1.32618E-05
 -1     25822 5.25248E-02 7.98459E-02-6.21425E-05-8.62495E-02 4.87630E-06 5.70941E-06
 -1     25823 6.77391E-02 6.77391E-02 1.61638E-04-9.01890E-02-1.05683E-05-1.05683E-05
 -1     25828 6.77970E-02 6.77970E-02 2.59067E-04-8.76069E-02-8.14635E-06-8.14635E-06
 -1     25829 5.25001E-02 7.98213E-02-1.18189E-04-8.62497E-02 2.94235E-06 3.44504E-06
 -1     25830 6.77948E-02 6.77948E-02 2.89183E-04-9.01887E-02-6.25303E-06-6.25303E-06
 -1     25835 6.78434E-02 6.78434E-02 3.64800E-04-8.76065E-02-4.87083E-06-4.87083E-06
 -1     25836 5.24817E-02 7.98029E-02-1.60259E-04-8.62499E-02 1.67723E-06 1.96377E-06
 -1     25837 6.78338E-02 6.78338E-02 3.78885E-04-9.01886E-02-3.50642E-06-3.50642E-06
 -1     25842 6.78737E-02 6.78737E-02 4.34171E-04-8.76063E-02-2.67464E-06-2.67463E-06
 -1     25843 5.24699E-02 7.97912E-02-1.87176E-04-8.62499E-02 8.52279E-07 9.97883E-07
 -1     25844 6.78582E-02 6.78582E-02 4.35371E-04-9.01885E-02-1.74828E-06-1.74828E-06
 -1     25849 6.78909E-02 6.78909E-02 4.73664E-04-8.76062E-02-1.17479E-06-1.17478E-06
 -1     25850 5.24643E-02 7.97856E-02-2.00209E-04-8.62500E-02 2.59120E-07 3.03388E-07
 -1     25851 6.78700E-02 6.78700E-02 4.62597E-04-9.01885E-02-5.25714E-07-5.25712E-07
 -1     25856 6.78964E-02 6.78964E-02 4.86494E-04-8.76062E-02 1.96872E-14-1.34491E-14
 -1     25857 5.24643E-02 7.97856E-02-2.00209E-04-8.62500E-02-2.59120E-07-3.03388E-07
 -1     25858 6.78700E-02 6.78700E-02 4.62597E-04-9.01885E-02 5.25714E-07 5.25712E-07
 -1     25863 6.78909E-02 6.78909E-02 4.73664E-04-8.76062E-02 1.17479E-06 1.17478E-06
 -1     25864 5.24699E-02 7.97912E-02-1.87176E-04-8.62499E-02-8.52279E-07-9.97883E-07
 -1     25865 6.78582E-02 6.78582E-02 4.35371E-04-9.01885E-02 1.74828E-06 1.74828E-06
 -1     25870 6.78737E-02 6.78737E-02 4.34171E-04-8.76063E-02 2.67464E-06 2.67463E-06
 -1     25871 5.24817E-02 7.98029E-02-1.60259E-04-8.62499E-02-1.67723E-06-1.96377E-06
 -1     25872 6.78338E-02 6.78338E-02 3.78885E-04-9.01886E-02 3.50642E-06 3.50642E-06
 -1     25877 6.78434E-02 6.78434E-02 3.64800E-04-8.76065E-02 4.87083E-06 4.87083E-06
 -1     25878 5.25001E-02 7.98213E-02-1.18189E-04-8.62497E-02-2.94235E-06-3.44504E-06
 -1     25879 6.77948E-02 6.77948E-02 2.89183E-04-9.01887E-02 6.25303E-06 6.25303E-06
 -1     25884 6.77970E-02 6.77970E-02 2.59067E-04-8.76069E-02 8.14635E-06 8.14635E-06
 -1     25885 5.25248E-02 7.98459E-02-6.21425E-05-8.62495E-02-4.87630E-06-5.70941E-06
 -1     25886 6.77391E-02 6.77391E-02 1.61638E-04-9.01890E-02 1.05683E-05 1.05683E-05
 -1     25891 6.77279E-02 6.77279E-02 1.02130E-04-8.76077E-02 1.32617E-05 1.32618E-05
 -1     25895 9.48002E-02 4.06557E-02 1.02130E-04-8.33198E-02-1.51730E-05-1.10239E-05
 -1     25896 7.98459E-02 5.25248E-02-6.21427E-05-8.62495E-02 5.70937E-06 4.87632E-06
 -1     25897 9.56091E-02 3.98692E-02 1.61638E-04-8.57749E-02-1.20914E-05-8.78494E-06
 -1     25902 9.48691E-02 4.07250E-02 2.59067E-04-8.33191E-02-9.32041E-06-6.77168E-06
 -1     25903 7.98213E-02 5.25001E-02-1.18190E-04-8.62497E-02 3.44503E-06 2.94236E-06
 -1     25904 9.56646E-02 3.99250E-02 2.89184E-04-8.57746E-02-7.15423E-06-5.19785E-06
 -1     25909 9.49153E-02 4.07715E-02 3.64800E-04-8.33187E-02-5.57281E-06-4.04889E-06
 -1     25910 7.98029E-02 5.24817E-02-1.60259E-04-8.62499E-02 1.96377E-06 1.67723E-06
 -1     25911 9.57035E-02 3.99640E-02 3.78885E-04-8.57744E-02-4.01177E-06-2.91473E-06
 -1     25916 9.49455E-02 4.08018E-02 4.34171E-04-8.33185E-02-3.06010E-06-2.22330E-06
 -1     25917 7.97912E-02 5.24699E-02-1.87176E-04-8.62499E-02 9.97881E-07 8.52282E-07
 -1     25918 9.57280E-02 3.99884E-02 4.35371E-04-8.57743E-02-2.00024E-06-1.45326E-06
 -1     25923 9.49627E-02 4.08191E-02 4.73664E-04-8.33184E-02-1.34409E-06-9.76543E-07
 -1     25924 7.97856E-02 5.24643E-02-2.00209E-04-8.62500E-02 3.03387E-07 2.59121E-07
 -1     25925 9.57397E-02 4.00002E-02 4.62597E-04-8.57743E-02-6.01480E-07-4.37001E-07
 -1     25930 9.49682E-02 4.08247E-02 4.86494E-04-8.33184E-02-7.95036E-15-1.49006E-15
 -1     25931 7.97856E-02 5.24643E-02-2.00209E-04-8.62500E-02-3.03387E-07-2.59121E-07
 -1     25932 9.57397E-02 4.00002E-02 4.62597E-04-8.57743E-02 6.01480E-07 4.37001E-07
 -1     25937 9.49627E-02 4.08191E-02 4.73664E-04-8.33184E-02 1.34409E-06 9.76543E-07
 -1     25938 7.97912E-02 5.24699E-02-1.87176E-04-8.62499E-02-9.97881E-07-8.52282E-07
 -1     25939 9.57280E-02 3.99884E-02 4.35371E-04-8.57743E-02 2.00024E-06 1.45326E-06
 -1     25944 9.49455E-02 4.08018E-02 4.34171E-04-8.33185E-02 3.06010E-06 2.22330E-06
 -1     25945 7.98029E-02 5.24817E-02-1.60259E-04-8.62499E-02-1.96377E-06-1.67723E-06
 -1     25946 9.57035E-02 3.99640E-02 3.78885E-04-8.57744E-02 4.01177E-06 2.91473E-06
 -1     25951 9.49153E-02 4.07715E-02 3.64800E-04-8.33187E-02 5.57281E-06 4.04889E-06
 -1     25952 7.98213E-02 5.25001E-02-1.18190E-04-8.62497E-02-3.44503E-06-2.94236E-06
 -1     25953 9.56646E-02 3.99250E-02 2.89184E-04-8.57746E-02 7.15423E-06 5.19785E-06
 -1     25958 9.48691E-02 4.07250E-02 2.59067E-04-8.33191E-02 9.32041E-06 6.77168E-06
 -1     25959 7.98459E-02 5.25248E-02-6.21427E-05-8.62495E-02-5.70937E-06-4.87632E-06
 -1     25960 9.56091E-02 3.98692E-02 1.61638E-04-8.57749E-02 1.20914E-05 8.78494E-06
 -1     25965 9.48002E-02 4.06557E-02 1.02130E-04-8.33198E-02 1.51730E-05 1.10239E-05
 -1     25969 1.19222E-01 1.62334E-02 1.02130E-04-7.08761E-02-1.67108E-05-8.51451E-06
 -1     25970 1.05830E-01 2.65408E-02-6.21428E-05-7.78068E-02 6.40193E-06 3.92308E-06
 -1     25971 1.20751E-01 1.47273E-02 1.61638E-04-7.29645E-02-1.33168E-05-6.78524E-06
 -1     25976 1.19291E-01 1.63030E-02 2.59067E-04-7.08755E-02-1.02650E-05-5.23026E-06
 -1     25977 1.05805E-01 2.65160E-02-1.18190E-04-7.78070E-02 3.86291E-06 2.36718E-06
 -1     25978 1.20806E-01 1.47832E-02 2.89183E-04-7.29642E-02-7.87927E-06-4.01468E-06
 -1     25983 1.19337E-01 1.63496E-02 3.64800E-04-7.08752E-02-6.13760E-06-3.12726E-06
 -1     25984 1.05787E-01 2.64976E-02-1.60260E-04-7.78071E-02 2.20197E-06 1.34936E-06
 -1     25985 1.20845E-01 1.48222E-02 3.78885E-04-7.29641E-02-4.41835E-06-2.25126E-06
 -1     25990 1.19367E-01 1.63800E-02 4.34171E-04-7.08750E-02-3.37023E-06-1.71722E-06
 -1     25991 1.05775E-01 2.64858E-02-1.87176E-04-7.78072E-02 1.11893E-06 6.85675E-07
 -1     25992 1.20870E-01 1.48467E-02 4.35371E-04-7.29640E-02-2.20296E-06-1.12247E-06
 -1     25997 1.19384E-01 1.63972E-02 4.73664E-04-7.08749E-02-1.48031E-06-7.54260E-07
 -1     25998 1.05770E-01 2.64801E-02-2.00209E-04-7.78072E-02 3.40189E-07 2.08467E-07
 -1     25999 1.20881E-01 1.48585E-02 4.62597E-04-7.29640E-02-6.62436E-07-3.37530E-07
 -1     26004 1.19390E-01 1.64028E-02 4.86494E-04-7.08749E-02 1.88794E-14 2.40983E-14
 -1     26005 1.05770E-01 2.64801E-02-2.00209E-04-7.78072E-02-3.40189E-07-2.08467E-07
 -1     26006 1.20881E-01 1.48585E-02 4.62597E-04-7.29640E-02 6.62436E-07 3.37530E-07
 -1     26011 1.19384E-01 1.63972E-02 4.73664E-04-7.08749E-02 1.48031E-06 7.54260E-07
 -1     26012 1.05775E-01 2.64858E-02-1.87176E-04-7.78072E-02-1.11893E-06-6.85675E-07
 -1     26013 1.20870E-01 1.48467E-02 4.35371E-04-7.29640E-02 2.20296E-06 1.12247E-06
 -1     26018 1.19367E-01 1.63800E-02 4.34171E-04-7.08750E-02 3.37023E-06 1.71722E-06
 -1     26019 1.05787E-01 2.64976E-02-1.60260E-04-7.78071E-02-2.20197E-06-1.34936E-06
 -1     26020 1.20845E-01 1.48222E-02 3.78885E-04-7.29641E-02 4.41835E-06 2.25126E-06
 -1     26025 1.19337E-01 1.63496E-02 3.64800E-04-7.08752E-02 6.13760E-06 3.12726E-06
 -1     26026 1.05805E-01 2.65160E-02-1.18190E-04-7.78070E-02-3.86291E-06-2.36718E-06
 -1     26027 1.20806E-01 1.47832E-02 2.89183E-04-7.29642E-02 7.87927E-06 4.01468E-06
 -1     26032 1.19291E-01 1.63030E-02 2.59067E-04-7.08755E-02 1.02650E-05 5.23026E-06
 -1     26033 1.05830E-01 2.65408E-02-6.21428E-05-7.78068E-02-6.40193E-06-3.92308E-06
 -1     26034 1.20751E-01 1.47273E-02 1.61638E-04-7.29645E-02 1.33168E-05 6.78524E-06
 -1     26039 1.19222E-01 1.62334E-02 1.02130E-04-7.08761E-02 1.67108E-05 8.51451E-06
 -1     26043 1.38604E-01-3.14816E-03 1.02130E-04-5.14945E-02-1.78370E-05-5.79563E-06
 -1     26044 1.27933E-01 4.43753E-03-6.21425E-05-6.17478E-02 6.93684E-06 2.87330E-06
 -1     26045 1.40704E-01-5.22533E-03 1.61637E-04-5.30118E-02-1.42143E-05-4.61852E-06
 -1     26050 1.38673E-01-3.07846E-03 2.59067E-04-5.14941E-02-1.09568E-05-3.56008E-06
 -1     26051 1.27909E-01 4.41270E-03-1.18189E-04-6.17480E-02 4.18567E-06 1.73374E-06
 -1     26052 1.40759E-01-5.16940E-03 2.89183E-04-5.30116E-02-8.41030E-06-2.73267E-06
 -1     26057 1.38719E-01-3.03179E-03 3.64799E-04-5.14938E-02-6.55125E-06-2.12862E-06
 -1     26058 1.27890E-01 4.39421E-03-1.60259E-04-6.17481E-02 2.38596E-06 9.88283E-07
 -1     26059 1.40798E-01-5.13033E-03 3.78885E-04-5.30115E-02-4.71613E-06-1.53236E-06
 -1     26064 1.38749E-01-3.00132E-03 4.34170E-04-5.14937E-02-3.59738E-06-1.16886E-06
 -1     26065 1.27879E-01 4.38243E-03-1.87176E-04-6.17481E-02 1.21241E-06 5.02192E-07
 -1     26066 1.40822E-01-5.10581E-03 4.35370E-04-5.30115E-02-2.35143E-06-7.64023E-07
 -1     26071 1.38766E-01-2.98404E-03 4.73663E-04-5.14936E-02-1.58008E-06-5.13398E-07
 -1     26072 1.27873E-01 4.37675E-03-2.00209E-04-6.17482E-02 3.68612E-07 1.52682E-07
 -1     26073 1.40834E-01-5.09402E-03 4.62596E-04-5.30114E-02-7.07082E-07-2.29744E-07
 -1     26078 1.38771E-01-2.97844E-03 4.86493E-04-5.14936E-02-4.22822E-14 9.11307E-15
 -1     26079 1.27873E-01 4.37675E-03-2.00209E-04-6.17482E-02-3.68612E-07-1.52682E-07
 -1     26080 1.40834E-01-5.09402E-03 4.62596E-04-5.30114E-02 7.07082E-07 2.29744E-07
 -1     26085 1.38766E-01-2.98404E-03 4.73663E-04-5.14936E-02 1.58008E-06 5.13398E-07
 -1     26086 1.27879E-01 4.38243E-03-1.87176E-04-6.17481E-02-1.21241E-06-5.02192E-07
 -1     26087 1.40822E-01-5.10581E-03 4.35370E-04-5.30115E-02 2.35143E-06 7.64023E-07
 -1     26092 1.38749E-01-3.00132E-03 4.34170E-04-5.14937E-02 3.59738E-06 1.16886E-06
 -1     26093 1.27890E-01 4.39421E-03-1.60259E-04-6.17481E-02-2.38596E-06-9.88283E-07
 -1     26094 1.40798E-01-5.13033E-03 3.78885E-04-5.30115E-02 4.71613E-06 1.53236E-06
 -1     26099 1.38719E-01-3.03179E-03 3.64799E-04-5.14938E-02 6.55125E-06 2.12862E-06
 -1     26100 1.27909E-01 4.41270E-03-1.18189E-04-6.17480E-02-4.18567E-06-1.73374E-06
 -1     26101 1.40759E-01-5.16940E-03 2.89183E-04-5.30116E-02 8.41030E-06 2.73267E-06
 -1     26106 1.38673E-01-3.07846E-03 2.59067E-04-5.14941E-02 1.09568E-05 3.56008E-06
 -1     26107 1.27933E-01 4.43753E-03-6.21425E-05-6.17478E-02-6.93684E-06-2.87330E-06
 -1     26108 1.40704E-01-5.22533E-03 1.61637E-04-5.30118E-02 1.42143E-05 4.61852E-06
 -1     26113 1.38604E-01-3.14816E-03 1.02130E-04-5.14945E-02 1.78370E-05 5.79563E-06
 -1     26117 1.51048E-01-1.55919E-02 1.02130E-04-2.70723E-02-1.85240E-05-2.93406E-06
 -1     26118 1.43992E-01-1.16214E-02-6.21424E-05-3.96445E-02 7.30091E-06 1.75283E-06
 -1     26119 1.53514E-01-1.80357E-02 1.61638E-04-2.78699E-02-1.47618E-05-2.33809E-06
 -1     26124 1.51116E-01-1.55221E-02 2.59067E-04-2.70720E-02-1.13788E-05-1.80224E-06
 -1     26125 1.43968E-01-1.16463E-02-1.18189E-04-3.96447E-02 4.40536E-06 1.05764E-06
 -1     26126 1.53569E-01-1.79798E-02 2.89183E-04-2.78698E-02-8.73424E-06-1.38337E-06
 -1     26131 1.51162E-01-1.54754E-02 3.64800E-04-2.70719E-02-6.80357E-06-1.07758E-06
 -1     26132 1.43949E-01-1.16648E-02-1.60259E-04-3.96447E-02 2.51118E-06 6.02885E-07
 -1     26133 1.53608E-01-1.79407E-02 3.78885E-04-2.78698E-02-4.89778E-06-7.75724E-07
 -1     26138 1.51192E-01-1.54449E-02 4.34171E-04-2.70718E-02-3.73594E-06-5.91707E-07
 -1     26139 1.43938E-01-1.16766E-02-1.87176E-04-3.96447E-02 1.27605E-06 3.06353E-07
 -1     26140 1.53633E-01-1.79161E-02 4.35371E-04-2.78698E-02-2.44200E-06-3.86767E-07
 -1     26145 1.51209E-01-1.54276E-02 4.73664E-04-2.70718E-02-1.64094E-06-2.59894E-07
 -1     26146 1.43932E-01-1.16823E-02-2.00209E-04-3.96448E-02 3.87959E-07 9.31409E-08
 -1     26147 1.53644E-01-1.79043E-02 4.62597E-04-2.78698E-02-7.34317E-07-1.16301E-07
 -1     26152 1.51215E-01-1.54220E-02 4.86494E-04-2.70718E-02-2.07535E-14 9.90585E-15
 -1     26153 1.43932E-01-1.16823E-02-2.00209E-04-3.96448E-02-3.87959E-07-9.31408E-08
 -1     26154 1.53644E-01-1.79043E-02 4.62597E-04-2.78698E-02 7.34317E-07 1.16301E-07
 -1     26159 1.51209E-01-1.54276E-02 4.73664E-04-2.70718E-02 1.64094E-06 2.59894E-07
 -1     26160 1.43938E-01-1.16766E-02-1.87176E-04-3.96447E-02-1.27605E-06-3.06353E-07
 -1     26161 1.53633E-01-1.79161E-02 4.35371E-04-2.78698E-02 2.44200E-06 3.86767E-07
 -1     26166 1.51192E-01-1.54449E-02 4.34171E-04-2.70718E-02 3.73594E-06 5.91707E-07
 -1     26167 1.43949E-01-1.16648E-02-1.60259E-04-3.96447E-02-2.51118E-06-6.02885E-07
 -1     26168 1.53608E-01-1.79407E-02 3.78885E-04-2.78698E-02 4.89778E-06 7.75724E-07
 -1     26173 1.51162E-01-1.54754E-02 3.64800E-04-2.70719E-02 6.80357E-06 1.07758E-06
 -1     26174 1.43968E-01-1.16463E-02-1.18189E-04-3.96447E-02-4.40536E-06-1.05764E-06
 -1     26175 1.53569E-01-1.79798E-02 2.89183E-04-2.78698E-02 8.73424E-06 1.38337E-06
 -1     26180 1.51116E-01-1.55221E-02 2.59067E-04-2.70720E-02 1.13788E-05 1.80224E-06
 -1     26181 1.43992E-01-1.16214E-02-6.21424E-05-3.96445E-02-7.30091E-06-1.75283E-06
 -1     26182 1.53514E-01-1.80357E-02 1.61638E-04-2.78699E-02 1.47618E-05 2.33809E-06
 -1     26187 1.51048E-01-1.55919E-02 1.02130E-04-2.70723E-02 1.85240E-05 2.93406E-06
 -1     26191 1.52435E-01-2.00641E-02-6.21429E-05-1.36606E-02 7.48520E-06 5.89153E-07
 -1     26195 1.52410E-01-2.00890E-02-1.18190E-04-1.36606E-02 4.51655E-06 3.55485E-07
 -1     26199 1.52392E-01-2.01076E-02-1.60260E-04-1.36606E-02 2.57457E-06 2.02640E-07
 -1     26203 1.52381E-01-2.01194E-02-1.87177E-04-1.36606E-02 1.30826E-06 1.02971E-07
 -1     26207 1.52375E-01-2.01251E-02-2.00209E-04-1.36607E-02 3.97754E-07 3.13066E-08
 -1     26211 1.52375E-01-2.01251E-02-2.00209E-04-1.36607E-02-3.97754E-07-3.13066E-08
 -1     26215 1.52381E-01-2.01194E-02-1.87177E-04-1.36606E-02-1.30826E-06-1.02971E-07
 -1     26219 1.52392E-01-2.01076E-02-1.60260E-04-1.36606E-02-2.57457E-06-2.02640E-07
 -1     26223 1.52410E-01-2.00890E-02-1.18190E-04-1.36606E-02-4.51655E-06-3.55485E-07
 -1     26227 1.52435E-01-2.00641E-02-6.21429E-05-1.36606E-02-7.48520E-06-5.89153E-07
 -1     26233-1.11225E-02 1.46413E-01 8.97144E-05-2.55932E-02-2.81203E-06-1.77545E-05
 -1     26234-1.52988E-02 1.47741E-01-5.52626E-05-1.29115E-02 5.75301E-07 7.30989E-06
 -1     26235-1.33513E-02 1.48683E-01 1.46484E-04-2.63241E-02-2.22057E-06-1.40201E-05
 -1     26240-1.10569E-02 1.46476E-01 2.31511E-04-2.55927E-02-1.84419E-06-1.16438E-05
 -1     26241-1.53223E-02 1.47718E-01-1.06065E-04-1.29115E-02 3.68808E-07 4.68615E-06
 -1     26242-1.32995E-02 1.48734E-01 2.62048E-04-2.63239E-02-1.37057E-06-8.65347E-06
 -1     26247-1.10132E-02 1.46518E-01 3.27153E-04-2.55924E-02-1.16064E-06-7.32801E-06
 -1     26248-1.53396E-02 1.47702E-01-1.44196E-04-1.29116E-02 2.22882E-07 2.83198E-06
 -1     26249-1.32632E-02 1.48769E-01 3.43718E-04-2.63237E-02-8.00241E-07-5.05252E-06
 -1     26254-1.09848E-02 1.46545E-01 3.90177E-04-2.55923E-02-6.77852E-07-4.27979E-06
 -1     26255-1.53505E-02 1.47691E-01-1.68683E-04-1.29116E-02 1.20022E-07 1.52502E-06
 -1     26256-1.32403E-02 1.48792E-01 3.95367E-04-2.63237E-02-4.14862E-07-2.61933E-06
 -1     26261-1.09687E-02 1.46561E-01 4.26202E-04-2.55922E-02-3.13554E-07-1.97970E-06
 -1     26262-1.53558E-02 1.47686E-01-1.80574E-04-1.29116E-02 3.78942E-08 4.81491E-07
 -1     26263-1.32293E-02 1.48802E-01 4.20334E-04-2.63236E-02-1.27986E-07-8.08074E-07
 -1     26268-1.09636E-02 1.46566E-01 4.37932E-04-2.55922E-02-5.22510E-15-2.18774E-14
 -1     26269-1.53558E-02 1.47686E-01-1.80574E-04-1.29116E-02-3.78942E-08-4.81491E-07
 -1     26270-1.32293E-02 1.48802E-01 4.20334E-04-2.63236E-02 1.27986E-07 8.08074E-07
 -1     26275-1.09687E-02 1.46561E-01 4.26202E-04-2.55922E-02 3.13554E-07 1.97970E-06
 -1     26276-1.53505E-02 1.47691E-01-1.68683E-04-1.29116E-02-1.20022E-07-1.52502E-06
 -1     26277-1.32403E-02 1.48792E-01 3.95367E-04-2.63237E-02 4.14862E-07 2.61933E-06
 -1     26282-1.09848E-02 1.46545E-01 3.90177E-04-2.55923E-02 6.77852E-07 4.27979E-06
 -1     26283-1.53396E-02 1.47702E-01-1.44196E-04-1.29116E-02-2.22882E-07-2.83198E-06
 -1     26284-1.32632E-02 1.48769E-01 3.43718E-04-2.63237E-02 8.00241E-07 5.05252E-06
 -1     26289-1.10132E-02 1.46518E-01 3.27153E-04-2.55924E-02 1.16064E-06 7.32801E-06
 -1     26290-1.53223E-02 1.47718E-01-1.06065E-04-1.29115E-02-3.68808E-07-4.68615E-06
 -1     26291-1.32995E-02 1.48734E-01 2.62048E-04-2.63239E-02 1.37057E-06 8.65347E-06
 -1     26296-1.10569E-02 1.46476E-01 2.31511E-04-2.55927E-02 1.84419E-06 1.16438E-05
 -1     26297-1.52988E-02 1.47741E-01-5.52626E-05-1.29115E-02-5.75301E-07-7.30989E-06
 -1     26298-1.33513E-02 1.48683E-01 1.46484E-04-2.63241E-02 2.22057E-06 1.40201E-05
 -1     26303-1.11225E-02 1.46413E-01 8.97144E-05-2.55932E-02 2.81203E-06 1.77545E-05
 -1     26307 6.41436E-04 1.34649E-01 8.97144E-05-4.86812E-02-5.55482E-06-1.70960E-05
 -1     26308-7.31904E-03 1.39761E-01-5.52626E-05-3.74705E-02 1.71174E-06 7.12989E-06
 -1     26309-1.25147E-03 1.36583E-01 1.46484E-04-5.00714E-02-4.38646E-06-1.35001E-05
 -1     26314 7.06735E-04 1.34712E-01 2.31511E-04-4.86802E-02-3.64296E-06-1.12119E-05
 -1     26315-7.34255E-03 1.39738E-01-1.06065E-04-3.74708E-02 1.09734E-06 4.57077E-06
 -1     26316-1.19977E-03 1.36634E-01 2.62048E-04-5.00710E-02-2.70740E-06-8.33253E-06
 -1     26321 7.50383E-04 1.34754E-01 3.27153E-04-4.86797E-02-2.29270E-06-7.05623E-06
 -1     26322-7.35982E-03 1.39722E-01-1.44196E-04-3.74709E-02 6.63157E-07 2.76225E-06
 -1     26323-1.16348E-03 1.36669E-01 3.43718E-04-5.00707E-02-1.58078E-06-4.86513E-06
 -1     26328 7.78718E-04 1.34782E-01 3.90177E-04-4.86794E-02-1.33901E-06-4.12106E-06
 -1     26329-7.37072E-03 1.39711E-01-1.68683E-04-3.74710E-02 3.57109E-07 1.48747E-06
 -1     26330-1.14065E-03 1.36692E-01 3.95367E-04-5.00706E-02-8.19507E-07-2.52219E-06
 -1     26335 7.94706E-04 1.34797E-01 4.26202E-04-4.86793E-02-6.19387E-07-1.90628E-06
 -1     26336-7.37596E-03 1.39706E-01-1.80574E-04-3.74710E-02 1.12749E-07 4.69635E-07
 -1     26337-1.12966E-03 1.36703E-01 4.20334E-04-5.00705E-02-2.52821E-07-7.78104E-07
 -1     26342 7.99874E-04 1.34802E-01 4.37932E-04-4.86792E-02-6.12004E-15-1.44987E-14
 -1     26343-7.37596E-03 1.39706E-01-1.80574E-04-3.74710E-02-1.12749E-07-4.69635E-07
 -1     26344-1.12966E-03 1.36703E-01 4.20334E-04-5.00705E-02 2.52821E-07 7.78104E-07
 -1     26349 7.94706E-04 1.34797E-01 4.26202E-04-4.86793E-02 6.19387E-07 1.90628E-06
 -1     26350-7.37072E-03 1.39711E-01-1.68683E-04-3.74710E-02-3.57109E-07-1.48747E-06
 -1     26351-1.14065E-03 1.36692E-01 3.95367E-04-5.00706E-02 8.19507E-07 2.52219E-06
 -1     26356 7.78718E-04 1.34782E-01 3.90177E-04-4.86794E-02 1.33901E-06 4.12106E-06
 -1     26357-7.35982E-03 1.39722E-01-1.44196E-04-3.74709E-02-6.63157E-07-2.76225E-06
 -1     26358-1.16348E-03 1.36669E-01 3.43718E-04-5.00707E-02 1.58078E-06 4.86513E-06
 -1     26363 7.50383E-04 1.34754E-01 3.27153E-04-4.86797E-02 2.29270E-06 7.05623E-06
 -1     26364-7.34255E-03 1.39738E-01-1.06065E-04-3.74708E-02-1.09734E-06-4.57077E-06
 -1     26365-1.19977E-03 1.36634E-01 2.62048E-04-5.00710E-02 2.70740E-06 8.33253E-06
 -1     26370 7.06735E-04 1.34712E-01 2.31511E-04-4.86802E-02 3.64296E-06 1.12119E-05
 -1     26371-7.31904E-03 1.39761E-01-5.52626E-05-3.74705E-02-1.71174E-06-7.12989E-06
 -1     26372-1.25147E-03 1.36583E-01 1.46484E-04-5.00714E-02 4.38646E-06 1.35001E-05
 -1     26377 6.41436E-04 1.34649E-01 8.97144E-05-4.86812E-02 5.55482E-06 1.70960E-05
 -1     26381 1.89641E-02 1.16326E-01 8.97143E-05-6.70039E-02-8.16086E-06-1.60165E-05
 -1     26382 7.85928E-03 1.24583E-01-5.52627E-05-5.83617E-02 2.80602E-06 6.77433E-06
 -1     26383 1.75945E-02 1.17737E-01 1.46484E-04-6.89174E-02-6.44435E-06-1.26477E-05
 -1     26388 1.90291E-02 1.16390E-01 2.31511E-04-6.70026E-02-5.35205E-06-1.05040E-05
 -1     26389 7.83588E-03 1.24560E-01-1.06065E-04-5.83621E-02 1.79885E-06 4.34283E-06
 -1     26390 1.76460E-02 1.17788E-01 2.62048E-04-6.89168E-02-3.97756E-06-7.80640E-06
 -1     26395 1.90725E-02 1.16432E-01 3.27153E-04-6.70018E-02-3.36831E-06-6.61068E-06
 -1     26396 7.81867E-03 1.24543E-01-1.44196E-04-5.83623E-02 1.08710E-06 2.62450E-06
 -1     26397 1.76822E-02 1.17824E-01 3.43717E-04-6.89164E-02-2.32238E-06-4.55794E-06
 -1     26402 1.91008E-02 1.16460E-01 3.90177E-04-6.70014E-02-1.96720E-06-3.86085E-06
 -1     26403 7.80779E-03 1.24533E-01-1.68683E-04-5.83624E-02 5.85401E-07 1.41329E-06
 -1     26404 1.77050E-02 1.17846E-01 3.95367E-04-6.89163E-02-1.20397E-06-2.36293E-06
 -1     26409 1.91167E-02 1.16475E-01 4.26202E-04-6.70013E-02-9.09967E-07-1.78591E-06
 -1     26410 7.80256E-03 1.24527E-01-1.80574E-04-5.83624E-02 1.84827E-07 4.46215E-07
 -1     26411 1.77160E-02 1.17857E-01 4.20334E-04-6.89162E-02-3.71429E-07-7.28973E-07
 -1     26416 1.91219E-02 1.16480E-01 4.37932E-04-6.70012E-02 1.15801E-14 3.20645E-14
 -1     26417 7.80256E-03 1.24527E-01-1.80574E-04-5.83624E-02-1.84827E-07-4.46215E-07
 -1     26418 1.77160E-02 1.17857E-01 4.20334E-04-6.89162E-02 3.71429E-07 7.28973E-07
 -1     26423 1.91167E-02 1.16475E-01 4.26202E-04-6.70013E-02 9.09967E-07 1.78591E-06
 -1     26424 7.80779E-03 1.24533E-01-1.68683E-04-5.83624E-02-5.85401E-07-1.41329E-06
 -1     26425 1.77050E-02 1.17846E-01 3.95367E-04-6.89163E-02 1.20397E-06 2.36293E-06
 -1     26430 1.91008E-02 1.16460E-01 3.90177E-04-6.70014E-02 1.96720E-06 3.86085E-06
 -1     26431 7.81867E-03 1.24543E-01-1.44196E-04-5.83623E-02-1.08710E-06-2.62450E-06
 -1     26432 1.76822E-02 1.17824E-01 3.43717E-04-6.89164E-02 2.32238E-06 4.55794E-06
 -1     26437 1.90725E-02 1.16432E-01 3.27153E-04-6.70018E-02 3.36831E-06 6.61068E-06
 -1     26438 7.83588E-03 1.24560E-01-1.06065E-04-5.83621E-02-1.79885E-06-4.34283E-06
 -1     26439 1.76460E-02 1.17788E-01 2.62048E-04-6.89168E-02 3.97756E-06 7.80640E-06
 -1     26444 1.90291E-02 1.16390E-01 2.31511E-04-6.70026E-02 5.35205E-06 1.05040E-05
 -1     26445 7.85928E-03 1.24583E-01-5.52627E-05-5.83617E-02-2.80602E-06-6.77433E-06
 -1     26446 1.75945E-02 1.17737E-01 1.46484E-04-6.89174E-02 6.44435E-06 1.26477E-05
 -1     26451 1.89641E-02 1.16326E-01 8.97143E-05-6.70039E-02 8.16086E-06 1.60165E-05
 -1     26455 4.20521E-02 9.32385E-02 8.97141E-05-7.87678E-02-1.05660E-05-1.45427E-05
 -1     26456 2.87505E-02 1.03691E-01-5.52626E-05-7.35400E-02 3.83123E-06 6.25196E-06
 -1     26457 4.13418E-02 9.39900E-02 1.46483E-04-8.10172E-02-8.34355E-06-1.14839E-05
 -1     26462 4.21166E-02 9.33020E-02 2.31511E-04-7.87662E-02-6.92935E-06-9.53741E-06
 -1     26463 2.87272E-02 1.03669E-01-1.06065E-04-7.35405E-02 2.45608E-06 4.00794E-06
 -1     26464 4.13931E-02 9.40409E-02 2.62048E-04-8.10166E-02-5.14978E-06-7.08805E-06
 -1     26469 4.21598E-02 9.33446E-02 3.27152E-04-7.87653E-02-4.36099E-06-6.00238E-06
 -1     26470 2.87101E-02 1.03652E-01-1.44196E-04-7.35408E-02 1.48428E-06 2.42211E-06
 -1     26471 4.14292E-02 9.40767E-02 3.43717E-04-8.10161E-02-3.00681E-06-4.13851E-06
 -1     26476 4.21879E-02 9.33724E-02 3.90176E-04-7.87649E-02-2.54696E-06-3.50558E-06
 -1     26477 2.86992E-02 1.03641E-01-1.68683E-04-7.35409E-02 7.99283E-07 1.30430E-06
 -1     26478 4.14519E-02 9.40993E-02 3.95366E-04-8.10159E-02-1.55879E-06-2.14549E-06
 -1     26483 4.22038E-02 9.33882E-02 4.26202E-04-7.87647E-02-1.17815E-06-1.62157E-06
 -1     26484 2.86940E-02 1.03636E-01-1.80574E-04-7.35410E-02 2.52356E-07 4.11805E-07
 -1     26485 4.14629E-02 9.41102E-02 4.20334E-04-8.10158E-02-4.80892E-07-6.61891E-07
 -1     26490 4.22089E-02 9.33933E-02 4.37932E-04-7.87647E-02 6.83313E-16 1.45923E-15
 -1     26491 2.86940E-02 1.03636E-01-1.80574E-04-7.35410E-02-2.52356E-07-4.11805E-07
 -1     26492 4.14629E-02 9.41102E-02 4.20334E-04-8.10158E-02 4.80892E-07 6.61891E-07
 -1     26497 4.22038E-02 9.33882E-02 4.26202E-04-7.87647E-02 1.17815E-06 1.62157E-06
 -1     26498 2.86992E-02 1.03641E-01-1.68683E-04-7.35409E-02-7.99283E-07-1.30430E-06
 -1     26499 4.14519E-02 9.40993E-02 3.95366E-04-8.10159E-02 1.55879E-06 2.14549E-06
 -1     26504 4.21879E-02 9.33724E-02 3.90176E-04-7.87649E-02 2.54696E-06 3.50558E-06
 -1     26505 2.87101E-02 1.03652E-01-1.44196E-04-7.35408E-02-1.48428E-06-2.42211E-06
 -1     26506 4.14292E-02 9.40767E-02 3.43717E-04-8.10161E-02 3.00681E-06 4.13851E-06
 -1     26511 4.21598E-02 9.33446E-02 3.27152E-04-7.87653E-02 4.36099E-06 6.00238E-06
 -1     26512 2.87272E-02 1.03669E-01-1.06065E-04-7.35405E-02-2.45608E-06-4.00794E-06
 -1     26513 4.13931E-02 9.40409E-02 2.62048E-04-8.10166E-02 5.14978E-06 7.08805E-06
 -1     26518 4.21166E-02 9.33020E-02 2.31511E-04-7.87662E-02 6.92935E-06 9.53741E-06
 -1     26519 2.87505E-02 1.03691E-01-5.52626E-05-7.35400E-02-3.83123E-06-6.25196E-06
 -1     26520 4.13418E-02 9.39900E-02 1.46483E-04-8.10172E-02 8.34355E-06 1.14839E-05
 -1     26525 4.20521E-02 9.32385E-02 8.97141E-05-7.87678E-02 1.05660E-05 1.45427E-05
 -1     26529 6.76453E-02 6.76453E-02 8.97143E-05-8.28213E-02-1.27108E-05-1.27108E-05
 -1     26530 5.33095E-02 7.91324E-02-5.52624E-05-8.15197E-02 4.76209E-06 5.57567E-06
 -1     26531 6.76659E-02 6.76659E-02 1.46483E-04-8.51866E-02-1.00373E-05-1.00373E-05
 -1     26536 6.77093E-02 6.77093E-02 2.31511E-04-8.28197E-02-8.33597E-06-8.33606E-06
 -1     26537 5.32864E-02 7.91095E-02-1.06065E-04-8.15203E-02 3.05283E-06 3.57439E-06
 -1     26538 6.77170E-02 6.77170E-02 2.62048E-04-8.51858E-02-6.19519E-06-6.19522E-06
 -1     26543 6.77522E-02 6.77522E-02 3.27153E-04-8.28188E-02-5.24628E-06-5.24630E-06
 -1     26544 5.32694E-02 7.90926E-02-1.44196E-04-8.15206E-02 1.84491E-06 2.16011E-06
 -1     26545 6.77530E-02 6.77530E-02 3.43717E-04-8.51854E-02-3.61721E-06-3.61721E-06
 -1     26550 6.77801E-02 6.77801E-02 3.90177E-04-8.28183E-02-3.06400E-06-3.06400E-06
 -1     26551 5.32586E-02 7.90818E-02-1.68682E-04-8.15207E-02 9.93485E-07 1.16321E-06
 -1     26552 6.77756E-02 6.77756E-02 3.95367E-04-8.51852E-02-1.87524E-06-1.87524E-06
 -1     26557 6.77960E-02 6.77960E-02 4.26202E-04-8.28181E-02-1.41732E-06-1.41732E-06
 -1     26558 5.32534E-02 7.90766E-02-1.80574E-04-8.15208E-02 3.13671E-07 3.67258E-07
 -1     26559 6.77865E-02 6.77865E-02 4.20334E-04-8.51851E-02-5.78518E-07-5.78517E-07
 -1     26564 6.78011E-02 6.78011E-02 4.37932E-04-8.28181E-02-1.85447E-14 9.65986E-15
 -1     26565 5.32534E-02 7.90766E-02-1.80574E-04-8.15208E-02-3.13671E-07-3.67258E-07
 -1     26566 6.77865E-02 6.77865E-02 4.20334E-04-8.51851E-02 5.78518E-07 5.78517E-07
 -1     26571 6.77960E-02 6.77960E-02 4.26202E-04-8.28181E-02 1.41732E-06 1.41732E-06
 -1     26572 5.32586E-02 7.90818E-02-1.68682E-04-8.15207E-02-9.93485E-07-1.16321E-06
 -1     26573 6.77756E-02 6.77756E-02 3.95367E-04-8.51852E-02 1.87524E-06 1.87524E-06
 -1     26578 6.77801E-02 6.77801E-02 3.90177E-04-8.28183E-02 3.06400E-06 3.06400E-06
 -1     26579 5.32694E-02 7.90926E-02-1.44196E-04-8.15206E-02-1.84491E-06-2.16011E-06
 -1     26580 6.77530E-02 6.77530E-02 3.43717E-04-8.51854E-02 3.61721E-06 3.61721E-06
 -1     26585 6.77522E-02 6.77522E-02 3.27153E-04-8.28188E-02 5.24628E-06 5.24630E-06
 -1     26586 5.32864E-02 7.91095E-02-1.06065E-04-8.15203E-02-3.05283E-06-3.57439E-06
 -1     26587 6.77170E-02 6.77170E-02 2.62048E-04-8.51858E-02 6.19519E-06 6.19522E-06
 -1     26592 6.77093E-02 6.77093E-02 2.31511E-04-8.28197E-02 8.33597E-06 8.33606E-06
 -1     26593 5.33095E-02 7.91324E-02-5.52624E-05-8.15197E-02-4.76209E-06-5.57567E-06
 -1     26594 6.76659E-02 6.76659E-02 1.46483E-04-8.51866E-02 1.00373E-05 1.00373E-05
 -1     26599 6.76453E-02 6.76453E-02 8.97143E-05-8.28213E-02 1.27108E-05 1.27108E-05
 -1     26603 9.32385E-02 4.20521E-02 8.97147E-05-7.87678E-02-1.45427E-05-1.05658E-05
 -1     26604 7.91324E-02 5.33095E-02-5.52627E-05-8.15197E-02 5.57563E-06 4.76211E-06
 -1     26605 9.39900E-02 4.13418E-02 1.46484E-04-8.10172E-02-1.14839E-05-8.34355E-06
 -1     26610 9.33020E-02 4.21166E-02 2.31512E-04-7.87662E-02-9.53737E-06-6.92935E-06
 -1     26611 7.91095E-02 5.32864E-02-1.06065E-04-8.15203E-02 3.57436E-06 3.05287E-06
 -1     26612 9.40409E-02 4.13932E-02 2.62048E-04-8.10166E-02-7.08807E-06-5.14980E-06
 -1     26617 9.33446E-02 4.21598E-02 3.27153E-04-7.87653E-02-6.00235E-06-4.36098E-06
 -1     26618 7.90926E-02 5.32694E-02-1.44197E-04-8.15206E-02 2.16010E-06 1.84494E-06
 -1     26619 9.40767E-02 4.14292E-02 3.43718E-04-8.10161E-02-4.13853E-06-3.00682E-06
 -1     26624 9.33724E-02 4.21879E-02 3.90177E-04-7.87649E-02-3.50556E-06-2.54695E-06
 -1     26625 7.90818E-02 5.32586E-02-1.68683E-04-8.15207E-02 1.16321E-06 9.93498E-07
 -1     26626 9.40993E-02 4.14519E-02 3.95367E-04-8.10159E-02-2.14550E-06-1.55880E-06
 -1     26631 9.33882E-02 4.22038E-02 4.26202E-04-7.87647E-02-1.62157E-06-1.17814E-06
 -1     26632 7.90766E-02 5.32534E-02-1.80574E-04-8.15208E-02 3.67258E-07 3.13675E-07
 -1     26633 9.41102E-02 4.14629E-02 4.20335E-04-8.10158E-02-6.61895E-07-4.80895E-07
 -1     26638 9.33933E-02 4.22089E-02 4.37933E-04-7.87647E-02-1.36062E-15 6.27673E-16
 -1     26639 7.90766E-02 5.32534E-02-1.80574E-04-8.15208E-02-3.67258E-07-3.13675E-07
 -1     26640 9.41102E-02 4.14629E-02 4.20335E-04-8.10158E-02 6.61895E-07 4.80895E-07
 -1     26645 9.33882E-02 4.22038E-02 4.26202E-04-7.87647E-02 1.62157E-06 1.17814E-06
 -1     26646 7.90818E-02 5.32586E-02-1.68683E-04-8.15207E-02-1.16321E-06-9.93498E-07
 -1     26647 9.40993E-02 4.14519E-02 3.95367E-04-8.10159E-02 2.14550E-06 1.55880E-06
 -1     26652 9.33724E-02 4.21879E-02 3.90177E-04-7.87649E-02 3.50556E-06 2.54695E-06
 -1     26653 7.90926E-02 5.32694E-02-1.44197E-04-8.15206E-02-2.16010E-06-1.84494E-06
 -1     26654 9.40767E-02 4.14292E-02 3.43718E-04-8.10161E-02 4.13853E-06 3.00682E-06
 -1     26659 9.33446E-02 4.21598E-02 3.27153E-04-7.87653E-02 6.00235E-06 4.36098E-06
 -1     26660 7.91095E-02 5.32864E-02-1.06065E-04-8.15203E-02-3.57436E-06-3.05287E-06
 -1     26661 9.40409E-02 4.13932E-02 2.62048E-04-8.10166E-02 7.08807E-06 5.14980E-06
 -1     26666 9.33020E-02 4.21166E-02 2.31512E-04-7.87662E-02 9.53737E-06 6.92935E-06
 -1     26667 7.91324E-02 5.33095E-02-5.52627E-05-8.15197E-02-5.57563E-06-4.76211E-06
 -1     26668 9.39900E-02 4.13418E-02 1.46484E-04-8.10172E-02 1.14839E-05 8.34355E-06
 -1     26673 9.32385E-02 4.20521E-02 8.97147E-05-7.87678E-02 1.45427E-05 1.05658E-05
 -1     26677 1.16326E-01 1.89641E-02 8.97143E-05-6.70039E-02-1.60166E-05-8.16069E-06
 -1     26678 1.03691E-01 2.87504E-02-5.52629E-05-7.35400E-02 6.25198E-06 3.83116E-06
 -1     26679 1.17737E-01 1.75945E-02 1.46484E-04-6.89174E-02-1.26478E-05-6.44428E-06
 -1     26684 1.16390E-01 1.90291E-02 2.31511E-04-6.70026E-02-1.05040E-05-5.35197E-06
 -1     26685 1.03669E-01 2.87272E-02-1.06065E-04-7.35405E-02 4.00797E-06 2.45605E-06
 -1     26686 1.17788E-01 1.76460E-02 2.62048E-04-6.89168E-02-7.80641E-06-3.97754E-06
 -1     26691 1.16432E-01 1.90725E-02 3.27153E-04-6.70018E-02-6.61069E-06-3.36830E-06
 -1     26692 1.03652E-01 2.87101E-02-1.44197E-04-7.35408E-02 2.42213E-06 1.48427E-06
 -1     26693 1.17824E-01 1.76822E-02 3.43717E-04-6.89164E-02-4.55794E-06-2.32238E-06
 -1     26698 1.16460E-01 1.91008E-02 3.90177E-04-6.70014E-02-3.86085E-06-1.96719E-06
 -1     26699 1.03641E-01 2.86992E-02-1.68683E-04-7.35409E-02 1.30432E-06 7.99278E-07
 -1     26700 1.17846E-01 1.77050E-02 3.95367E-04-6.89163E-02-2.36293E-06-1.20397E-06
 -1     26705 1.16475E-01 1.91167E-02 4.26202E-04-6.70013E-02-1.78591E-06-9.09966E-07
 -1     26706 1.03636E-01 2.86940E-02-1.80575E-04-7.35410E-02 4.11809E-07 2.52354E-07
 -1     26707 1.17857E-01 1.77160E-02 4.20334E-04-6.89162E-02-7.28972E-07-3.71430E-07
 -1     26712 1.16480E-01 1.91219E-02 4.37932E-04-6.70012E-02 2.80602E-14 1.37713E-15
 -1     26713 1.03636E-01 2.86940E-02-1.80575E-04-7.35410E-02-4.11809E-07-2.52354E-07
 -1     26714 1.17857E-01 1.77160E-02 4.20334E-04-6.89162E-02 7.28972E-07 3.71430E-07
 -1     26719 1.16475E-01 1.91167E-02 4.26202E-04-6.70013E-02 1.78591E-06 9.09966E-07
 -1     26720 1.03641E-01 2.86992E-02-1.68683E-04-7.35409E-02-1.30432E-06-7.99278E-07
 -1     26721 1.17846E-01 1.77050E-02 3.95367E-04-6.89163E-02 2.36293E-06 1.20397E-06
 -1     26726 1.16460E-01 1.91008E-02 3.90177E-04-6.70014E-02 3.86085E-06 1.96719E-06
 -1     26727 1.03652E-01 2.87101E-02-1.44197E-04-7.35408E-02-2.42213E-06-1.48427E-06
 -1     26728 1.17824E-01 1.76822E-02 3.43717E-04-6.89164E-02 4.55794E-06 2.32238E-06
 -1     26733 1.16432E-01 1.90725E-02 3.27153E-04-6.70018E-02 6.61069E-06 3.36830E-06
 -1     26734 1.03669E-01 2.87272E-02-1.06065E-04-7.35405E-02-4.00797E-06-2.45605E-06
 -1     26735 1.17788E-01 1.76460E-02 2.62048E-04-6.89168E-02 7.80641E-06 3.97754E-06
 -1     26740 1.16390E-01 1.90291E-02 2.31511E-04-6.70026E-02 1.05040E-05 5.35197E-06
 -1     26741 1.03691E-01 2.87504E-02-5.52629E-05-7.35400E-02-6.25198E-06-3.83116E-06
 -1     26742 1.17737E-01 1.75945E-02 1.46484E-04-6.89174E-02 1.26478E-05 6.44428E-06
 -1     26747 1.16326E-01 1.89641E-02 8.97143E-05-6.70039E-02 1.60166E-05 8.16069E-06
 -1     26751 1.34649E-01 6.41427E-04 8.97137E-05-4.86812E-02-1.70961E-05-5.55477E-06
 -1     26752 1.24583E-01 7.85928E-03-5.52623E-05-5.83617E-02 6.77438E-06 2.80596E-06
 -1     26753 1.36583E-01-1.25148E-03 1.46483E-04-5.00714E-02-1.35001E-05-4.38645E-06
 -1     26758 1.34712E-01 7.06727E-04 2.31511E-04-4.86802E-02-1.12119E-05-3.64300E-06
 -1     26759 1.24560E-01 7.83588E-03-1.06065E-04-5.83621E-02 4.34284E-06 1.79882E-06
 -1     26760 1.36634E-01-1.19978E-03 2.62047E-04-5.00710E-02-8.33250E-06-2.70740E-06
 -1     26765 1.34754E-01 7.50375E-04 3.27152E-04-4.86797E-02-7.05625E-06-2.29272E-06
 -1     26766 1.24543E-01 7.81867E-03-1.44196E-04-5.83623E-02 2.62450E-06 1.08708E-06
 -1     26767 1.36669E-01-1.16348E-03 3.43717E-04-5.00707E-02-4.86511E-06-1.58077E-06
 -1     26772 1.34782E-01 7.78710E-04 3.90176E-04-4.86794E-02-4.12108E-06-1.33902E-06
 -1     26773 1.24533E-01 7.80779E-03-1.68682E-04-5.83624E-02 1.41329E-06 5.85387E-07
 -1     26774 1.36692E-01-1.14066E-03 3.95366E-04-5.00706E-02-2.52217E-06-8.19501E-07
 -1     26779 1.34797E-01 7.94698E-04 4.26201E-04-4.86793E-02-1.90629E-06-6.19388E-07
 -1     26780 1.24527E-01 7.80256E-03-1.80574E-04-5.83624E-02 4.46213E-07 1.84822E-07
 -1     26781 1.36703E-01-1.12967E-03 4.20334E-04-5.00705E-02-7.78099E-07-2.52818E-07
 -1     26786 1.34802E-01 7.99866E-04 4.37931E-04-4.86792E-02 6.46578E-15 2.81777E-15
 -1     26787 1.24527E-01 7.80256E-03-1.80574E-04-5.83624E-02-4.46213E-07-1.84822E-07
 -1     26788 1.36703E-01-1.12967E-03 4.20334E-04-5.00705E-02 7.78098E-07 2.52818E-07
 -1     26793 1.34797E-01 7.94698E-04 4.26201E-04-4.86793E-02 1.90629E-06 6.19388E-07
 -1     26794 1.24533E-01 7.80779E-03-1.68682E-04-5.83624E-02-1.41329E-06-5.85387E-07
 -1     26795 1.36692E-01-1.14066E-03 3.95366E-04-5.00706E-02 2.52217E-06 8.19501E-07
 -1     26800 1.34782E-01 7.78710E-04 3.90176E-04-4.86794E-02 4.12108E-06 1.33902E-06
 -1     26801 1.24543E-01 7.81867E-03-1.44196E-04-5.83623E-02-2.62450E-06-1.08708E-06
 -1     26802 1.36669E-01-1.16348E-03 3.43717E-04-5.00707E-02 4.86511E-06 1.58077E-06
 -1     26807 1.34754E-01 7.50375E-04 3.27152E-04-4.86797E-02 7.05625E-06 2.29272E-06
 -1     26808 1.24560E-01 7.83588E-03-1.06065E-04-5.83621E-02-4.34284E-06-1.79882E-06
 -1     26809 1.36634E-01-1.19978E-03 2.62047E-04-5.00710E-02 8.33250E-06 2.70740E-06
 -1     26814 1.34712E-01 7.06727E-04 2.31511E-04-4.86802E-02 1.12119E-05 3.64300E-06
 -1     26815 1.24583E-01 7.85928E-03-5.52623E-05-5.83617E-02-6.77438E-06-2.80596E-06
 -1     26816 1.36583E-01-1.25148E-03 1.46483E-04-5.00714E-02 1.35001E-05 4.38645E-06
 -1     26821 1.34649E-01 6.41427E-04 8.97137E-05-4.86812E-02 1.70961E-05 5.55477E-06
 -1     26825 1.46413E-01-1.11225E-02 8.97145E-05-2.55932E-02-1.77544E-05-2.81209E-06
 -1     26826 1.39761E-01-7.31904E-03-5.52623E-05-3.74705E-02 7.12991E-06 1.71179E-06
 -1     26827 1.48683E-01-1.33513E-02 1.46484E-04-2.63241E-02-1.40201E-05-2.22065E-06
 -1     26832 1.46476E-01-1.10569E-02 2.31511E-04-2.55927E-02-1.16437E-05-1.84434E-06
 -1     26833 1.39738E-01-7.34255E-03-1.06065E-04-3.74708E-02 4.57076E-06 1.09739E-06
 -1     26834 1.48734E-01-1.32995E-02 2.62048E-04-2.63239E-02-8.65348E-06-1.37062E-06
 -1     26839 1.46518E-01-1.10132E-02 3.27153E-04-2.55924E-02-7.32802E-06-1.16068E-06
 -1     26840 1.39722E-01-7.35982E-03-1.44196E-04-3.74709E-02 2.76225E-06 6.63176E-07
 -1     26841 1.48769E-01-1.32632E-02 3.43718E-04-2.63237E-02-5.05254E-06-8.00249E-07
 -1     26846 1.46545E-01-1.09848E-02 3.90177E-04-2.55923E-02-4.27981E-06-6.77862E-07
 -1     26847 1.39711E-01-7.37072E-03-1.68682E-04-3.74710E-02 1.48747E-06 3.57117E-07
 -1     26848 1.48792E-01-1.32403E-02 3.95367E-04-2.63237E-02-2.61935E-06-4.14860E-07
 -1     26853 1.46561E-01-1.09687E-02 4.26202E-04-2.55922E-02-1.97971E-06-3.13556E-07
 -1     26854 1.39706E-01-7.37596E-03-1.80574E-04-3.74710E-02 4.69634E-07 1.12751E-07
 -1     26855 1.48802E-01-1.32293E-02 4.20335E-04-2.63236E-02-8.08079E-07-1.27985E-07
 -1     26860 1.46566E-01-1.09636E-02 4.37933E-04-2.55922E-02-1.42257E-14 6.92044E-15
 -1     26861 1.39706E-01-7.37596E-03-1.80574E-04-3.74710E-02-4.69634E-07-1.12751E-07
 -1     26862 1.48802E-01-1.32293E-02 4.20335E-04-2.63236E-02 8.08079E-07 1.27985E-07
 -1     26867 1.46561E-01-1.09687E-02 4.26202E-04-2.55922E-02 1.97971E-06 3.13556E-07
 -1     26868 1.39711E-01-7.37072E-03-1.68682E-04-3.74710E-02-1.48747E-06-3.57117E-07
 -1     26869 1.48792E-01-1.32403E-02 3.95367E-04-2.63237E-02 2.61935E-06 4.14860E-07
 -1     26874 1.46545E-01-1.09848E-02 3.90177E-04-2.55923E-02 4.27981E-06 6.77862E-07
 -1     26875 1.39722E-01-7.35982E-03-1.44196E-04-3.74709E-02-2.76225E-06-6.63176E-07
 -1     26876 1.48769E-01-1.32632E-02 3.43718E-04-2.63237E-02 5.05254E-06 8.00249E-07
 -1     26881 1.46518E-01-1.10132E-02 3.27153E-04-2.55924E-02 7.32802E-06 1.16068E-06
 -1     26882 1.39738E-01-7.34255E-03-1.06065E-04-3.74708E-02-4.57076E-06-1.09739E-06
 -1     26883 1.48734E-01-1.32995E-02 2.62048E-04-2.63239E-02 8.65348E-06 1.37062E-06
 -1     26888 1.46476E-01-1.10569E-02 2.31511E-04-2.55927E-02 1.16437E-05 1.84434E-06
 -1     26889 1.39761E-01-7.31904E-03-5.52623E-05-3.74705E-02-7.12991E-06-1.71179E-06
 -1     26890 1.48683E-01-1.33513E-02 1.46484E-04-2.63241E-02 1.40201E-05 2.22065E-06
 -1     26895 1.46413E-01-1.11225E-02 8.97145E-05-2.55932E-02 1.77544E-05 2.81209E-06
 -1     26899 1.47741E-01-1.52988E-02-5.52632E-05-1.29115E-02 7.30986E-06 5.75384E-07
 -1     26903 1.47718E-01-1.53223E-02-1.06066E-04-1.29115E-02 4.68616E-06 3.68888E-07
 -1     26907 1.47702E-01-1.53396E-02-1.44197E-04-1.29116E-02 2.83200E-06 2.22921E-07
 -1     26911 1.47691E-01-1.53505E-02-1.68683E-04-1.29116E-02 1.52504E-06 1.20043E-07
 -1     26915 1.47686E-01-1.53558E-02-1.80575E-04-1.29116E-02 4.81498E-07 3.79012E-08
 -1     26919 1.47686E-01-1.53558E-02-1.80575E-04-1.29116E-02-4.81498E-07-3.79011E-08
 -1     26923 1.47691E-01-1.53505E-02-1.68683E-04-1.29116E-02-1.52504E-06-1.20043E-07
 -1     26927 1.47702E-01-1.53396E-02-1.44197E-04-1.29116E-02-2.83200E-06-2.22921E-07
 -1     26931 1.47718E-01-1.53223E-02-1.06066E-04-1.29115E-02-4.68616E-06-3.68888E-07
 -1     26935 1.47741E-01-1.52988E-02-5.52632E-05-1.29115E-02-7.30986E-06-5.75384E-07
 -1     26941-7.04457E-03 1.42140E-01 7.77334E-05-2.42365E-02-2.84209E-06-1.79443E-05
 -1     26942-1.08982E-02 1.43426E-01-4.76828E-05-1.22213E-02 5.98351E-07 7.60278E-06
 -1     26943-9.06977E-03 1.44238E-01 1.31387E-04-2.49063E-02-2.10362E-06-1.32817E-05
 -1     26948-6.98204E-03 1.42196E-01 2.01218E-04-2.42354E-02-2.04958E-06-1.29405E-05
 -1     26949-1.09202E-02 1.43406E-01-9.20032E-05-1.22215E-02 4.37104E-07 5.55394E-06
 -1     26950-9.02058E-03 1.44283E-01 2.34501E-04-2.49057E-02-1.41823E-06-8.95438E-06
 -1     26955-6.94158E-03 1.42233E-01 2.86095E-04-2.42350E-02-1.52814E-06-9.64831E-06
 -1     26956-1.09357E-02 1.43392E-01-1.25996E-04-1.22215E-02 3.10874E-07 3.95003E-06
 -1     26957-8.98652E-03 1.44316E-01 3.08165E-04-2.49055E-02-9.36458E-07-5.91257E-06
 -1     26962-6.91608E-03 1.42258E-01 3.42864E-04-2.42348E-02-1.03582E-06-6.53994E-06
 -1     26963-1.09453E-02 1.43382E-01-1.48085E-04-1.22215E-02 1.89304E-07 2.40534E-06
 -1     26964-8.96540E-03 1.44336E-01 3.55138E-04-2.49054E-02-5.42485E-07-3.42512E-06
 -1     26969-6.90198E-03 1.42272E-01 3.75620E-04-2.42348E-02-5.26864E-07-3.32649E-06
 -1     26970-1.09499E-02 1.43377E-01-1.58886E-04-1.22215E-02 6.37471E-08 8.09984E-07
 -1     26971-8.95534E-03 1.44346E-01 3.77959E-04-2.49053E-02-1.78540E-07-1.12725E-06
 -1     26976-6.89747E-03 1.42277E-01 3.86332E-04-2.42348E-02 3.51276E-15-2.01702E-14
 -1     26977-1.09499E-02 1.43377E-01-1.58886E-04-1.22215E-02-6.37471E-08-8.09984E-07
 -1     26978-8.95534E-03 1.44346E-01 3.77959E-04-2.49053E-02 1.78540E-07 1.12725E-06
 -1     26983-6.90198E-03 1.42272E-01 3.75620E-04-2.42348E-02 5.26864E-07 3.32649E-06
 -1     26984-1.09453E-02 1.43382E-01-1.48085E-04-1.22215E-02-1.89304E-07-2.40534E-06
 -1     26985-8.96540E-03 1.44336E-01 3.55138E-04-2.49054E-02 5.42485E-07 3.42512E-06
 -1     26990-6.91608E-03 1.42258E-01 3.42864E-04-2.42348E-02 1.03582E-06 6.53994E-06
 -1     26991-1.09357E-02 1.43392E-01-1.25996E-04-1.22215E-02-3.10874E-07-3.95003E-06
 -1     26992-8.98652E-03 1.44316E-01 3.08165E-04-2.49055E-02 9.36458E-07 5.91257E-06
 -1     26997-6.94158E-03 1.42233E-01 2.86095E-04-2.42350E-02 1.52814E-06 9.64831E-06
 -1     26998-1.09202E-02 1.43406E-01-9.20032E-05-1.22215E-02-4.37104E-07-5.55394E-06
 -1     26999-9.02058E-03 1.44283E-01 2.34501E-04-2.49057E-02 1.41823E-06 8.95438E-06
 -1     27004-6.98204E-03 1.42196E-01 2.01218E-04-2.42354E-02 2.04958E-06 1.29405E-05
 -1     27005-1.08982E-02 1.43426E-01-4.76828E-05-1.22213E-02-5.98351E-07-7.60278E-06
 -1     27006-9.06977E-03 1.44238E-01 1.31387E-04-2.49063E-02 2.10362E-06 1.32817E-05
 -1     27011-7.04457E-03 1.42140E-01 7.77334E-05-2.42365E-02 2.84209E-06 1.79443E-05
 -1     27015 4.09573E-03 1.31000E-01 7.77334E-05-4.61005E-02-5.61419E-06-1.72787E-05
 -1     27016-3.34500E-03 1.35873E-01-4.76828E-05-3.54676E-02 1.78032E-06 7.41557E-06
 -1     27017 2.37839E-03 1.32789E-01 1.31387E-04-4.73746E-02-4.15544E-06-1.27891E-05
 -1     27022 4.15776E-03 1.31056E-01 2.01218E-04-4.60985E-02-4.04868E-06-1.24606E-05
 -1     27023-3.36688E-03 1.35853E-01-9.20032E-05-3.54681E-02 1.30055E-06 5.41718E-06
 -1     27024 2.42733E-03 1.32835E-01 2.34501E-04-4.73735E-02-2.80154E-06-8.62227E-06
 -1     27029 4.19800E-03 1.31094E-01 2.86095E-04-4.60976E-02-3.01865E-06-9.29046E-06
 -1     27030-3.38243E-03 1.35838E-01-1.25996E-04-3.54682E-02 9.24965E-07 3.85276E-06
 -1     27031 2.46126E-03 1.32868E-01 3.08165E-04-4.73730E-02-1.84986E-06-5.69328E-06
 -1     27036 4.22345E-03 1.31119E-01 3.42864E-04-4.60974E-02-2.04614E-06-6.29738E-06
 -1     27037-3.39203E-03 1.35829E-01-1.48085E-04-3.54683E-02 5.63250E-07 2.34611E-06
 -1     27038 2.48233E-03 1.32888E-01 3.55138E-04-4.73728E-02-1.07161E-06-3.29809E-06
 -1     27043 4.23754E-03 1.31133E-01 3.75620E-04-4.60973E-02-1.04075E-06-3.20311E-06
 -1     27044-3.39658E-03 1.35824E-01-1.58886E-04-3.54682E-02 1.89671E-07 7.90039E-07
 -1     27045 2.49238E-03 1.32898E-01 3.77959E-04-4.73727E-02-3.52682E-07-1.08545E-06
 -1     27050 4.24205E-03 1.31137E-01 3.86332E-04-4.60974E-02-8.31843E-15-3.89270E-15
 -1     27051-3.39658E-03 1.35824E-01-1.58886E-04-3.54682E-02-1.89671E-07-7.90039E-07
 -1     27052 2.49238E-03 1.32898E-01 3.77959E-04-4.73727E-02 3.52682E-07 1.08545E-06
 -1     27057 4.23754E-03 1.31133E-01 3.75620E-04-4.60973E-02 1.04075E-06 3.20311E-06
 -1     27058-3.39203E-03 1.35829E-01-1.48085E-04-3.54683E-02-5.63250E-07-2.34611E-06
 -1     27059 2.48233E-03 1.32888E-01 3.55138E-04-4.73728E-02 1.07161E-06 3.29809E-06
 -1     27064 4.22345E-03 1.31119E-01 3.42864E-04-4.60974E-02 2.04614E-06 6.29738E-06
 -1     27065-3.38243E-03 1.35838E-01-1.25996E-04-3.54682E-02-9.24965E-07-3.85276E-06
 -1     27066 2.46126E-03 1.32868E-01 3.08165E-04-4.73730E-02 1.84986E-06 5.69328E-06
 -1     27071 4.19800E-03 1.31094E-01 2.86095E-04-4.60976E-02 3.01865E-06 9.29046E-06
 -1     27072-3.36688E-03 1.35853E-01-9.20032E-05-3.54681E-02-1.30055E-06-5.41718E-06
 -1     27073 2.42733E-03 1.32835E-01 2.34501E-04-4.73735E-02 2.80154E-06 8.62227E-06
 -1     27078 4.15776E-03 1.31056E-01 2.01218E-04-4.60985E-02 4.04868E-06 1.24606E-05
 -1     27079-3.34500E-03 1.35873E-01-4.76828E-05-3.54676E-02-1.78032E-06-7.41557E-06
 -1     27080 2.37839E-03 1.32789E-01 1.31387E-04-4.73746E-02 4.15544E-06 1.27891E-05
 -1     27085 4.09573E-03 1.31000E-01 7.77334E-05-4.61005E-02 5.61419E-06 1.72787E-05
 -1     27089 2.14471E-02 1.13648E-01 7.77333E-05-6.34520E-02-8.24810E-06-1.61877E-05
 -1     27090 1.10220E-02 1.21506E-01-4.76828E-05-5.52420E-02 2.91845E-06 7.04576E-06
 -1     27091 2.02093E-02 1.14958E-01 1.31387E-04-6.52055E-02-6.10495E-06-1.19816E-05
 -1     27096 2.15084E-02 1.13705E-01 2.01218E-04-6.34491E-02-5.94811E-06-1.16738E-05
 -1     27097 1.10003E-02 1.21486E-01-9.20032E-05-5.52428E-02 2.13196E-06 5.14702E-06
 -1     27098 2.02579E-02 1.15005E-01 2.34501E-04-6.52040E-02-4.11587E-06-8.07783E-06
 -1     27103 2.15483E-02 1.13744E-01 2.86095E-04-6.34479E-02-4.43485E-06-8.70384E-06
 -1     27104 1.09848E-02 1.21471E-01-1.25996E-04-5.52431E-02 1.51628E-06 3.66063E-06
 -1     27105 2.02916E-02 1.15038E-01 3.08165E-04-6.52033E-02-2.71770E-06-5.33378E-06
 -1     27110 2.15737E-02 1.13768E-01 3.42863E-04-6.34476E-02-3.00608E-06-5.89975E-06
 -1     27111 1.09752E-02 1.21461E-01-1.48085E-04-5.52431E-02 9.23325E-07 2.22911E-06
 -1     27112 2.03126E-02 1.15058E-01 3.55138E-04-6.52031E-02-1.57435E-06-3.08983E-06
 -1     27117 2.15877E-02 1.13782E-01 3.75619E-04-6.34475E-02-1.52902E-06-3.00086E-06
 -1     27118 1.09707E-02 1.21457E-01-1.58886E-04-5.52431E-02 3.10924E-07 7.50641E-07
 -1     27119 2.03226E-02 1.15068E-01 3.77959E-04-6.52030E-02-5.18140E-07-1.01691E-06
 -1     27124 2.15923E-02 1.13787E-01 3.86332E-04-6.34476E-02 2.44806E-15-8.35651E-15
 -1     27125 1.09707E-02 1.21457E-01-1.58886E-04-5.52431E-02-3.10924E-07-7.50641E-07
 -1     27126 2.03226E-02 1.15068E-01 3.77959E-04-6.52030E-02 5.18140E-07 1.01691E-06
 -1     27131 2.15877E-02 1.13782E-01 3.75619E-04-6.34475E-02 1.52902E-06 3.00086E-06
 -1     27132 1.09752E-02 1.21461E-01-1.48085E-04-5.52431E-02-9.23325E-07-2.22911E-06
 -1     27133 2.03126E-02 1.15058E-01 3.55138E-04-6.52031E-02 1.57435E-06 3.08983E-06
 -1     27138 2.15737E-02 1.13768E-01 3.42863E-04-6.34476E-02 3.00608E-06 5.89975E-06
 -1     27139 1.09848E-02 1.21471E-01-1.25996E-04-5.52431E-02-1.51628E-06-3.66063E-06
 -1     27140 2.02916E-02 1.15038E-01 3.08165E-04-6.52033E-02 2.71770E-06 5.33378E-06
 -1     27145 2.15483E-02 1.13744E-01 2.86095E-04-6.34479E-02 4.43485E-06 8.70384E-06
 -1     27146 1.10003E-02 1.21486E-01-9.20032E-05-5.52428E-02-2.13196E-06-5.14702E-06
 -1     27147 2.02579E-02 1.15005E-01 2.34501E-04-6.52040E-02 4.11587E-06 8.07783E-06
 -1     27152 2.15084E-02 1.13705E-01 2.01218E-04-6.34491E-02 5.94811E-06 1.16738E-05
 -1     27153 1.10220E-02 1.21506E-01-4.76828E-05-5.52420E-02-2.91845E-06-7.04576E-06
 -1     27154 2.02093E-02 1.14958E-01 1.31387E-04-6.52055E-02 6.10495E-06 1.19816E-05
 -1     27159 2.14471E-02 1.13648E-01 7.77333E-05-6.34520E-02 8.24810E-06 1.61877E-05
 -1     27163 4.33112E-02 9.17842E-02 7.77331E-05-7.45923E-02-1.06788E-05-1.46983E-05
 -1     27164 3.07965E-02 1.01732E-01-4.76827E-05-6.96090E-02 3.98475E-06 6.50246E-06
 -1     27165 4.26776E-02 9.24902E-02 1.31387E-04-7.66537E-02-7.90408E-06-1.08791E-05
 -1     27170 4.33715E-02 9.18423E-02 2.01218E-04-7.45889E-02-7.70112E-06-1.05996E-05
 -1     27171 3.07750E-02 1.01711E-01-9.20031E-05-6.96100E-02 2.91091E-06 4.75013E-06
 -1     27172 4.27256E-02 9.25371E-02 2.34501E-04-7.66520E-02-5.32884E-06-7.33450E-06
 -1     27177 4.34110E-02 9.18809E-02 2.86094E-04-7.45875E-02-5.74190E-06-7.90297E-06
 -1     27178 3.07597E-02 1.01696E-01-1.25996E-04-6.96103E-02 2.07028E-06 3.37835E-06
 -1     27179 4.27591E-02 9.25701E-02 3.08165E-04-7.66511E-02-3.51863E-06-4.84296E-06
 -1     27184 4.34362E-02 9.19058E-02 3.42863E-04-7.45871E-02-3.89205E-06-5.35691E-06
 -1     27185 3.07501E-02 1.01687E-01-1.48085E-04-6.96104E-02 1.26068E-06 2.05722E-06
 -1     27186 4.27800E-02 9.25907E-02 3.55138E-04-7.66508E-02-2.03832E-06-2.80550E-06
 -1     27191 4.34503E-02 9.19199E-02 3.75619E-04-7.45871E-02-1.97966E-06-2.72476E-06
 -1     27192 3.07455E-02 1.01682E-01-1.58886E-04-6.96103E-02 4.24527E-07 6.92759E-07
 -1     27193 4.27900E-02 9.26007E-02 3.77959E-04-7.66507E-02-6.70841E-07-9.23331E-07
 -1     27198 4.34548E-02 9.19244E-02 3.86332E-04-7.45871E-02-2.99067E-15-3.32918E-14
 -1     27199 3.07455E-02 1.01682E-01-1.58886E-04-6.96103E-02-4.24527E-07-6.92759E-07
 -1     27200 4.27900E-02 9.26007E-02 3.77959E-04-7.66507E-02 6.70841E-07 9.23331E-07
 -1     27205 4.34503E-02 9.19199E-02 3.75619E-04-7.45871E-02 1.97966E-06 2.72476E-06
 -1     27206 3.07501E-02 1.01687E-01-1.48085E-04-6.96104E-02-1.26068E-06-2.05722E-06
 -1     27207 4.27800E-02 9.25907E-02 3.55138E-04-7.66508E-02 2.03832E-06 2.80550E-06
 -1     27212 4.34362E-02 9.19058E-02 3.42863E-04-7.45871E-02 3.89205E-06 5.35691E-06
 -1     27213 3.07597E-02 1.01696E-01-1.25996E-04-6.96103E-02-2.07028E-06-3.37835E-06
 -1     27214 4.27591E-02 9.25701E-02 3.08165E-04-7.66511E-02 3.51863E-06 4.84296E-06
 -1     27219 4.34110E-02 9.18809E-02 2.86094E-04-7.45875E-02 5.74190E-06 7.90297E-06
 -1     27220 3.07750E-02 1.01711E-01-9.20031E-05-6.96100E-02-2.91091E-06-4.75013E-06
 -1     27221 4.27256E-02 9.25371E-02 2.34501E-04-7.66520E-02 5.32884E-06 7.33450E-06
 -1     27226 4.33715E-02 9.18423E-02 2.01218E-04-7.45889E-02 7.70112E-06 1.05996E-05
 -1     27227 3.07965E-02 1.01732E-01-4.76827E-05-6.96090E-02-3.98475E-06-6.50246E-06
 -1     27228 4.26776E-02 9.24902E-02 1.31387E-04-7.66537E-02 7.90408E-06 1.08791E-05
 -1     27233 4.33112E-02 9.17842E-02 7.77331E-05-7.45923E-02 1.06788E-05 1.46983E-05
 -1     27237 6.75477E-02 6.75477E-02 7.77333E-05-7.84309E-02-1.28463E-05-1.28472E-05
 -1     27238 5.40427E-02 7.84853E-02-4.76826E-05-7.71622E-02 4.95286E-06 5.79914E-06
 -1     27239 6.75839E-02 6.75839E-02 1.31387E-04-8.05984E-02-9.50856E-06-9.50880E-06
 -1     27244 6.76069E-02 6.76069E-02 2.01218E-04-7.84274E-02-9.26444E-06-9.26445E-06
 -1     27245 5.40216E-02 7.84646E-02-9.20030E-05-7.71633E-02 3.61818E-06 4.23632E-06
 -1     27246 6.76314E-02 6.76314E-02 2.34501E-04-8.05966E-02-6.41063E-06-6.41065E-06
 -1     27251 6.76459E-02 6.76459E-02 2.86095E-04-7.84259E-02-6.90748E-06-6.90749E-06
 -1     27252 5.40064E-02 7.84494E-02-1.25996E-04-7.71636E-02 2.57330E-06 3.01292E-06
 -1     27253 6.76646E-02 6.76646E-02 3.08165E-04-8.05958E-02-4.23295E-06-4.23295E-06
 -1     27258 6.76710E-02 6.76710E-02 3.42863E-04-7.84255E-02-4.68214E-06-4.68213E-06
 -1     27259 5.39968E-02 7.84399E-02-1.48085E-04-7.71637E-02 1.56699E-06 1.83470E-06
 -1     27260 6.76854E-02 6.76854E-02 3.55138E-04-8.05954E-02-2.45213E-06-2.45213E-06
 -1     27265 6.76851E-02 6.76851E-02 3.75620E-04-7.84255E-02-2.38154E-06-2.38153E-06
 -1     27266 5.39922E-02 7.84353E-02-1.58886E-04-7.71637E-02 5.27677E-07 6.17825E-07
 -1     27267 6.76954E-02 6.76954E-02 3.77959E-04-8.05953E-02-8.07032E-07-8.07031E-07
 -1     27272 6.76896E-02 6.76896E-02 3.86332E-04-7.84255E-02 1.50719E-14-2.49322E-14
 -1     27273 5.39922E-02 7.84353E-02-1.58886E-04-7.71637E-02-5.27677E-07-6.17825E-07
 -1     27274 6.76954E-02 6.76954E-02 3.77959E-04-8.05953E-02 8.07032E-07 8.07031E-07
 -1     27279 6.76851E-02 6.76851E-02 3.75620E-04-7.84255E-02 2.38154E-06 2.38153E-06
 -1     27280 5.39968E-02 7.84399E-02-1.48085E-04-7.71637E-02-1.56699E-06-1.83470E-06
 -1     27281 6.76854E-02 6.76854E-02 3.55138E-04-8.05954E-02 2.45213E-06 2.45213E-06
 -1     27286 6.76710E-02 6.76710E-02 3.42863E-04-7.84255E-02 4.68214E-06 4.68213E-06
 -1     27287 5.40064E-02 7.84494E-02-1.25996E-04-7.71636E-02-2.57330E-06-3.01292E-06
 -1     27288 6.76646E-02 6.76646E-02 3.08165E-04-8.05958E-02 4.23295E-06 4.23295E-06
 -1     27293 6.76459E-02 6.76459E-02 2.86095E-04-7.84259E-02 6.90748E-06 6.90749E-06
 -1     27294 5.40216E-02 7.84646E-02-9.20030E-05-7.71633E-02-3.61818E-06-4.23632E-06
 -1     27295 6.76314E-02 6.76314E-02 2.34501E-04-8.05966E-02 6.41063E-06 6.41065E-06
 -1     27300 6.76069E-02 6.76069E-02 2.01218E-04-7.84274E-02 9.26444E-06 9.26445E-06
 -1     27301 5.40427E-02 7.84853E-02-4.76826E-05-7.71622E-02-4.95286E-06-5.79914E-06
 -1     27302 6.75839E-02 6.75839E-02 1.31387E-04-8.05984E-02 9.50856E-06 9.50880E-06
 -1     27307 6.75477E-02 6.75477E-02 7.77333E-05-7.84309E-02 1.28463E-05 1.28472E-05
 -1     27311 9.17842E-02 4.33112E-02 7.77337E-05-7.45923E-02-1.46979E-05-1.06791E-05
 -1     27312 7.84853E-02 5.40427E-02-4.76829E-05-7.71622E-02 5.79889E-06 4.95306E-06
 -1     27313 9.24902E-02 4.26776E-02 1.31388E-04-7.66537E-02-1.08790E-05-7.90419E-06
 -1     27318 9.18423E-02 4.33715E-02 2.01218E-04-7.45889E-02-1.05995E-05-7.70096E-06
 -1     27319 7.84646E-02 5.40216E-02-9.20033E-05-7.71633E-02 4.23626E-06 3.61817E-06
 -1     27320 9.25371E-02 4.27257E-02 2.34502E-04-7.66520E-02-7.33453E-06-5.32885E-06
 -1     27325 9.18809E-02 4.34110E-02 2.86095E-04-7.45875E-02-7.90281E-06-5.74171E-06
 -1     27326 7.84494E-02 5.40064E-02-1.25996E-04-7.71636E-02 3.01287E-06 2.57330E-06
 -1     27327 9.25701E-02 4.27591E-02 3.08165E-04-7.66511E-02-4.84297E-06-3.51862E-06
 -1     27332 9.19058E-02 4.34362E-02 3.42864E-04-7.45871E-02-5.35675E-06-3.89190E-06
 -1     27333 7.84399E-02 5.39968E-02-1.48085E-04-7.71637E-02 1.83466E-06 1.56699E-06
 -1     27334 9.25907E-02 4.27800E-02 3.55139E-04-7.66508E-02-2.80550E-06-2.03831E-06
 -1     27339 9.19199E-02 4.34503E-02 3.75620E-04-7.45871E-02-2.72466E-06-1.97958E-06
 -1     27340 7.84353E-02 5.39922E-02-1.58887E-04-7.71637E-02 6.17812E-07 5.27675E-07
 -1     27341 9.26007E-02 4.27900E-02 3.77960E-04-7.66507E-02-9.23327E-07-6.70836E-07
 -1     27346 9.19245E-02 4.34548E-02 3.86332E-04-7.45871E-02 2.01156E-14 4.99104E-16
 -1     27347 7.84353E-02 5.39922E-02-1.58887E-04-7.71637E-02-6.17812E-07-5.27675E-07
 -1     27348 9.26007E-02 4.27900E-02 3.77960E-04-7.66507E-02 9.23327E-07 6.70836E-07
 -1     27353 9.19199E-02 4.34503E-02 3.75620E-04-7.45871E-02 2.72466E-06 1.97958E-06
 -1     27354 7.84399E-02 5.39968E-02-1.48085E-04-7.71637E-02-1.83466E-06-1.56699E-06
 -1     27355 9.25907E-02 4.27800E-02 3.55139E-04-7.66508E-02 2.80550E-06 2.03831E-06
 -1     27360 9.19058E-02 4.34362E-02 3.42864E-04-7.45871E-02 5.35675E-06 3.89190E-06
 -1     27361 7.84494E-02 5.40064E-02-1.25996E-04-7.71636E-02-3.01287E-06-2.57330E-06
 -1     27362 9.25701E-02 4.27591E-02 3.08165E-04-7.66511E-02 4.84297E-06 3.51862E-06
 -1     27367 9.18809E-02 4.34110E-02 2.86095E-04-7.45875E-02 7.90281E-06 5.74171E-06
 -1     27368 7.84646E-02 5.40216E-02-9.20033E-05-7.71633E-02-4.23626E-06-3.61817E-06
 -1     27369 9.25371E-02 4.27257E-02 2.34502E-04-7.66520E-02 7.33453E-06 5.32885E-06
 -1     27374 9.18423E-02 4.33715E-02 2.01218E-04-7.45889E-02 1.05995E-05 7.70096E-06
 -1     27375 7.84853E-02 5.40427E-02-4.76829E-05-7.71622E-02-5.79889E-06-4.95306E-06
 -1     27376 9.24902E-02 4.26776E-02 1.31388E-04-7.66537E-02 1.08790E-05 7.90419E-06
 -1     27381 9.17842E-02 4.33112E-02 7.77337E-05-7.45923E-02 1.46979E-05 1.06791E-05
 -1     27385 1.13648E-01 2.14471E-02 7.77333E-05-6.34520E-02-1.61879E-05-8.24787E-06
 -1     27386 1.01732E-01 3.07965E-02-4.76829E-05-6.96090E-02 6.50247E-06 3.98463E-06
 -1     27387 1.14958E-01 2.02093E-02 1.31387E-04-6.52055E-02-1.19817E-05-6.10482E-06
 -1     27392 1.13705E-01 2.15084E-02 2.01218E-04-6.34491E-02-1.16738E-05-5.94804E-06
 -1     27393 1.01711E-01 3.07750E-02-9.20034E-05-6.96100E-02 4.75013E-06 2.91082E-06
 -1     27394 1.15005E-01 2.02579E-02 2.34501E-04-6.52041E-02-8.07786E-06-4.11581E-06
 -1     27399 1.13744E-01 2.15483E-02 2.86095E-04-6.34479E-02-8.70390E-06-4.43474E-06
 -1     27400 1.01696E-01 3.07597E-02-1.25996E-04-6.96103E-02 3.37835E-06 2.07020E-06
 -1     27401 1.15038E-01 2.02916E-02 3.08165E-04-6.52033E-02-5.33380E-06-2.71766E-06
 -1     27406 1.13768E-01 2.15737E-02 3.42863E-04-6.34476E-02-5.89978E-06-3.00603E-06
 -1     27407 1.01687E-01 3.07501E-02-1.48085E-04-6.96104E-02 2.05722E-06 1.26064E-06
 -1     27408 1.15058E-01 2.03126E-02 3.55138E-04-6.52031E-02-3.08984E-06-1.57433E-06
 -1     27413 1.13782E-01 2.15877E-02 3.75619E-04-6.34475E-02-3.00087E-06-1.52900E-06
 -1     27414 1.01682E-01 3.07455E-02-1.58887E-04-6.96103E-02 6.92754E-07 4.24512E-07
 -1     27415 1.15068E-01 2.03226E-02 3.77959E-04-6.52030E-02-1.01691E-06-5.18137E-07
 -1     27420 1.13787E-01 2.15923E-02 3.86332E-04-6.34476E-02 1.71319E-16 2.77903E-14
 -1     27421 1.01682E-01 3.07455E-02-1.58887E-04-6.96103E-02-6.92754E-07-4.24512E-07
 -1     27422 1.15068E-01 2.03226E-02 3.77959E-04-6.52030E-02 1.01691E-06 5.18137E-07
 -1     27427 1.13782E-01 2.15877E-02 3.75619E-04-6.34475E-02 3.00087E-06 1.52900E-06
 -1     27428 1.01687E-01 3.07501E-02-1.48085E-04-6.96104E-02-2.05722E-06-1.26064E-06
 -1     27429 1.15058E-01 2.03126E-02 3.55138E-04-6.52031E-02 3.08984E-06 1.57433E-06
 -1     27434 1.13768E-01 2.15737E-02 3.42863E-04-6.34476E-02 5.89978E-06 3.00603E-06
 -1     27435 1.01696E-01 3.07597E-02-1.25996E-04-6.96103E-02-3.37835E-06-2.07020E-06
 -1     27436 1.15038E-01 2.02916E-02 3.08165E-04-6.52033E-02 5.33380E-06 2.71766E-06
 -1     27441 1.13744E-01 2.15483E-02 2.86095E-04-6.34479E-02 8.70390E-06 4.43474E-06
 -1     27442 1.01711E-01 3.07750E-02-9.20034E-05-6.96100E-02-4.75013E-06-2.91082E-06
 -1     27443 1.15005E-01 2.02579E-02 2.34501E-04-6.52041E-02 8.07786E-06 4.11581E-06
 -1     27448 1.13705E-01 2.15084E-02 2.01218E-04-6.34491E-02 1.16738E-05 5.94804E-06
 -1     27449 1.01732E-01 3.07965E-02-4.76829E-05-6.96090E-02-6.50247E-06-3.98463E-06
 -1     27450 1.14958E-01 2.02093E-02 1.31387E-04-6.52055E-02 1.19817E-05 6.10482E-06
 -1     27455 1.13648E-01 2.14471E-02 7.77333E-05-6.34520E-02 1.61879E-05 8.24787E-06
 -1     27459 1.31000E-01 4.09571E-03 7.77328E-05-4.61005E-02-1.72787E-05-5.61472E-06
 -1     27460 1.21506E-01 1.10220E-02-4.76825E-05-5.52420E-02 7.04586E-06 2.91837E-06
 -1     27461 1.32789E-01 2.37838E-03 1.31387E-04-4.73746E-02-1.27891E-05-4.15553E-06
 -1     27466 1.31056E-01 4.15775E-03 2.01218E-04-4.60985E-02-1.24608E-05-4.04873E-06
 -1     27467 1.21486E-01 1.10003E-02-9.20030E-05-5.52428E-02 5.14711E-06 2.13191E-06
 -1     27468 1.32835E-01 2.42732E-03 2.34501E-04-4.73735E-02-8.62227E-06-2.80153E-06
 -1     27473 1.31094E-01 4.19799E-03 2.86094E-04-4.60976E-02-9.29073E-06-3.01868E-06
 -1     27474 1.21471E-01 1.09848E-02-1.25996E-04-5.52431E-02 3.66069E-06 1.51623E-06
 -1     27475 1.32868E-01 2.46126E-03 3.08164E-04-4.73730E-02-5.69329E-06-1.84984E-06
 -1     27480 1.31119E-01 4.22344E-03 3.42863E-04-4.60974E-02-6.29759E-06-2.04618E-06
 -1     27481 1.21461E-01 1.09752E-02-1.48085E-04-5.52431E-02 2.22915E-06 9.23303E-07
 -1     27482 1.32888E-01 2.48232E-03 3.55138E-04-4.73728E-02-3.29810E-06-1.07161E-06
 -1     27487 1.31133E-01 4.23753E-03 3.75619E-04-4.60973E-02-3.20324E-06-1.04078E-06
 -1     27488 1.21457E-01 1.09707E-02-1.58886E-04-5.52431E-02 7.50656E-07 3.10919E-07
 -1     27489 1.32898E-01 2.49237E-03 3.77958E-04-4.73727E-02-1.08545E-06-3.52682E-07
 -1     27494 1.31137E-01 4.24204E-03 3.86332E-04-4.60974E-02-1.57560E-14 2.02522E-15
 -1     27495 1.21457E-01 1.09707E-02-1.58886E-04-5.52431E-02-7.50656E-07-3.10919E-07
 -1     27496 1.32898E-01 2.49237E-03 3.77958E-04-4.73727E-02 1.08545E-06 3.52682E-07
 -1     27501 1.31133E-01 4.23753E-03 3.75619E-04-4.60973E-02 3.20324E-06 1.04078E-06
 -1     27502 1.21461E-01 1.09752E-02-1.48085E-04-5.52431E-02-2.22915E-06-9.23303E-07
 -1     27503 1.32888E-01 2.48232E-03 3.55138E-04-4.73728E-02 3.29810E-06 1.07161E-06
 -1     27508 1.31119E-01 4.22344E-03 3.42863E-04-4.60974E-02 6.29759E-06 2.04618E-06
 -1     27509 1.21471E-01 1.09848E-02-1.25996E-04-5.52431E-02-3.66069E-06-1.51623E-06
 -1     27510 1.32868E-01 2.46126E-03 3.08164E-04-4.73730E-02 5.69329E-06 1.84984E-06
 -1     27515 1.31094E-01 4.19799E-03 2.86094E-04-4.60976E-02 9.29073E-06 3.01868E-06
 -1     27516 1.21486E-01 1.10003E-02-9.20030E-05-5.52428E-02-5.14711E-06-2.13191E-06
 -1     27517 1.32835E-01 2.42732E-03 2.34501E-04-4.73735E-02 8.62227E-06 2.80153E-06
 -1     27522 1.31056E-01 4.15775E-03 2.01218E-04-4.60985E-02 1.24608E-05 4.04873E-06
 -1     27523 1.21506E-01 1.10220E-02-4.76825E-05-5.52420E-02-7.04586E-06-2.91837E-06
 -1     27524 1.32789E-01 2.37838E-03 1.31387E-04-4.73746E-02 1.27891E-05 4.15553E-06
 -1     27529 1.31000E-01 4.09571E-03 7.77328E-05-4.61005E-02 1.72787E-05 5.61472E-06
 -1     27533 1.42140E-01-7.04457E-03 7.77335E-05-2.42365E-02-1.79441E-05-2.84335E-06
 -1     27534 1.35873E-01-3.34500E-03-4.76826E-05-3.54676E-02 7.41558E-06 1.78064E-06
 -1     27535 1.44238E-01-9.06977E-03 1.31388E-04-2.49063E-02-1.32817E-05-2.10400E-06
 -1     27540 1.42196E-01-6.98204E-03 2.01219E-04-2.42354E-02-1.29406E-05-2.04962E-06
 -1     27541 1.35853E-01-3.36688E-03-9.20031E-05-3.54681E-02 5.41725E-06 1.30061E-06
 -1     27542 1.44283E-01-9.02058E-03 2.34502E-04-2.49057E-02-8.95445E-06-1.41830E-06
 -1     27547 1.42233E-01-6.94158E-03 2.86095E-04-2.42349E-02-9.64831E-06-1.52820E-06
 -1     27548 1.35838E-01-3.38243E-03-1.25996E-04-3.54682E-02 3.85281E-06 9.25010E-07
 -1     27549 1.44316E-01-8.98652E-03 3.08165E-04-2.49055E-02-5.91263E-06-9.36489E-07
 -1     27554 1.42258E-01-6.91607E-03 3.42864E-04-2.42348E-02-6.53993E-06-1.03584E-06
 -1     27555 1.35829E-01-3.39203E-03-1.48085E-04-3.54682E-02 2.34614E-06 5.63277E-07
 -1     27556 1.44336E-01-8.96540E-03 3.55139E-04-2.49053E-02-3.42515E-06-5.42494E-07
 -1     27561 1.42272E-01-6.90198E-03 3.75620E-04-2.42348E-02-3.32648E-06-5.26866E-07
 -1     27562 1.35824E-01-3.39658E-03-1.58886E-04-3.54682E-02 7.90052E-07 1.89681E-07
 -1     27563 1.44346E-01-8.95534E-03 3.77960E-04-2.49053E-02-1.12727E-06-1.78541E-07
 -1     27568 1.42277E-01-6.89747E-03 3.86333E-04-2.42348E-02-6.18783E-14 9.08644E-15
 -1     27569 1.35824E-01-3.39658E-03-1.58886E-04-3.54682E-02-7.90052E-07-1.89681E-07
 -1     27570 1.44346E-01-8.95534E-03 3.77960E-04-2.49053E-02 1.12727E-06 1.78541E-07
 -1     27575 1.42272E-01-6.90198E-03 3.75620E-04-2.42348E-02 3.32648E-06 5.26866E-07
 -1     27576 1.35829E-01-3.39203E-03-1.48085E-04-3.54682E-02-2.34614E-06-5.63277E-07
 -1     27577 1.44336E-01-8.96540E-03 3.55139E-04-2.49053E-02 3.42515E-06 5.42494E-07
 -1     27582 1.42258E-01-6.91607E-03 3.42864E-04-2.42348E-02 6.53993E-06 1.03584E-06
 -1     27583 1.35838E-01-3.38243E-03-1.25996E-04-3.54682E-02-3.85281E-06-9.25010E-07
 -1     27584 1.44316E-01-8.98652E-03 3.08165E-04-2.49055E-02 5.91263E-06 9.36489E-07
 -1     27589 1.42233E-01-6.94158E-03 2.86095E-04-2.42349E-02 9.64831E-06 1.52820E-06
 -1     27590 1.35853E-01-3.36688E-03-9.20031E-05-3.54681E-02-5.41725E-06-1.30061E-06
 -1     27591 1.44283E-01-9.02058E-03 2.34502E-04-2.49057E-02 8.95445E-06 1.41830E-06
 -1     27596 1.42196E-01-6.98204E-03 2.01219E-04-2.42354E-02 1.29406E-05 2.04962E-06
 -1     27597 1.35873E-01-3.34500E-03-4.76826E-05-3.54676E-02-7.41558E-06-1.78064E-06
 -1     27598 1.44238E-01-9.06977E-03 1.31388E-04-2.49063E-02 1.32817E-05 2.10400E-06
 -1     27603 1.42140E-01-7.04457E-03 7.77335E-05-2.42365E-02 1.79441E-05 2.84335E-06
 -1     27607 1.43426E-01-1.08982E-02-4.76832E-05-1.22213E-02 7.60270E-06 5.98684E-07
 -1     27611 1.43406E-01-1.09202E-02-9.20038E-05-1.22215E-02 5.55389E-06 4.37179E-07
 -1     27615 1.43392E-01-1.09357E-02-1.25997E-04-1.22215E-02 3.94998E-06 3.10944E-07
 -1     27619 1.43382E-01-1.09454E-02-1.48086E-04-1.22215E-02 2.40529E-06 1.89343E-07
 -1     27623 1.43377E-01-1.09499E-02-1.58887E-04-1.22215E-02 8.09966E-07 6.37596E-08
 -1     27627 1.43377E-01-1.09499E-02-1.58887E-04-1.22215E-02-8.09966E-07-6.37596E-08
 -1     27631 1.43382E-01-1.09454E-02-1.48086E-04-1.22215E-02-2.40529E-06-1.89343E-07
 -1     27635 1.43392E-01-1.09357E-02-1.25997E-04-1.22215E-02-3.94998E-06-3.10944E-07
 -1     27639 1.43406E-01-1.09202E-02-9.20038E-05-1.22215E-02-5.55389E-06-4.37179E-07
 -1     27643 1.43426E-01-1.08982E-02-4.76832E-05-1.22213E-02-7.60270E-06-5.98684E-07
 -1     27649-3.35311E-03 1.38178E-01 5.35449E-05-2.29931E-02-2.99490E-06-1.89089E-05
 -1     27650-6.80647E-03 1.39458E-01-3.48511E-05-1.15830E-02 7.57432E-07 9.62406E-06
 -1     27651-5.16850E-03 1.40131E-01 1.13882E-04-2.36053E-02-2.17760E-06-1.37488E-05
 -1     27656-3.29391E-03 1.38228E-01 1.61842E-04-2.29915E-02-3.21380E-06-2.02911E-05
 -1     27657-6.82575E-03 1.39441E-01-7.34349E-05-1.15832E-02 7.27095E-07 9.23861E-06
 -1     27658-5.12260E-03 1.40172E-01 2.04469E-04-2.36045E-02-2.05270E-06-1.29603E-05
 -1     27663-3.25866E-03 1.38261E-01 2.37431E-04-2.29912E-02-2.86834E-06-1.81100E-05
 -1     27664-6.83870E-03 1.39428E-01-1.03585E-04-1.15832E-02 5.89222E-07 7.48677E-06
 -1     27665-5.09282E-03 1.40200E-01 2.70127E-04-2.36043E-02-1.67625E-06-1.05834E-05
 -1     27670-3.23786E-03 1.38282E-01 2.88247E-04-2.29913E-02-2.11283E-06-1.33399E-05
 -1     27671-6.84645E-03 1.39420E-01-1.23363E-04-1.15831E-02 3.80419E-07 4.83368E-06
 -1     27672-5.07519E-03 1.40218E-01 3.12254E-04-2.36044E-02-1.09107E-06-6.88874E-06
 -1     27677-3.22684E-03 1.38294E-01 3.17608E-04-2.29915E-02-1.11212E-06-7.02168E-06
 -1     27678-6.85003E-03 1.39416E-01-1.33048E-04-1.15831E-02 1.31012E-07 1.66466E-06
 -1     27679-5.06702E-03 1.40227E-01 3.32776E-04-2.36044E-02-3.77722E-07-2.38484E-06
 -1     27684-3.22338E-03 1.38298E-01 3.27207E-04-2.29915E-02-9.32620E-15-1.60036E-14
 -1     27685-6.85003E-03 1.39416E-01-1.33048E-04-1.15831E-02-1.31012E-07-1.66466E-06
 -1     27686-5.06702E-03 1.40227E-01 3.32776E-04-2.36044E-02 3.77722E-07 2.38484E-06
 -1     27691-3.22684E-03 1.38294E-01 3.17608E-04-2.29915E-02 1.11212E-06 7.02168E-06
 -1     27692-6.84645E-03 1.39420E-01-1.23363E-04-1.15831E-02-3.80419E-07-4.83368E-06
 -1     27693-5.07519E-03 1.40218E-01 3.12254E-04-2.36044E-02 1.09107E-06 6.88874E-06
 -1     27698-3.23786E-03 1.38282E-01 2.88247E-04-2.29913E-02 2.11283E-06 1.33399E-05
 -1     27699-6.83870E-03 1.39428E-01-1.03585E-04-1.15832E-02-5.89222E-07-7.48677E-06
 -1     27700-5.09282E-03 1.40200E-01 2.70127E-04-2.36043E-02 1.67625E-06 1.05834E-05
 -1     27705-3.25866E-03 1.38261E-01 2.37431E-04-2.29912E-02 2.86834E-06 1.81100E-05
 -1     27706-6.82575E-03 1.39441E-01-7.34349E-05-1.15832E-02-7.27095E-07-9.23861E-06
 -1     27707-5.12260E-03 1.40172E-01 2.04469E-04-2.36045E-02 2.05270E-06 1.29603E-05
 -1     27712-3.29391E-03 1.38228E-01 1.61842E-04-2.29915E-02 3.21380E-06 2.02911E-05
 -1     27713-6.80647E-03 1.39458E-01-3.48511E-05-1.15830E-02-7.57432E-07-9.62406E-06
 -1     27714-5.16850E-03 1.40131E-01 1.13882E-04-2.36053E-02 2.17760E-06 1.37488E-05
 -1     27719-3.35311E-03 1.38178E-01 5.35449E-05-2.29931E-02 2.99490E-06 1.89089E-05
 -1     27723 7.21565E-03 1.27609E-01 5.35449E-05-4.37354E-02-5.91614E-06-1.82076E-05
 -1     27724 3.52225E-04 1.32299E-01-3.48511E-05-3.36152E-02 2.25365E-06 9.38708E-06
 -1     27725 5.68168E-03 1.29281E-01 1.13882E-04-4.49000E-02-4.30161E-06-1.32389E-05
 -1     27730 7.27415E-03 1.27659E-01 1.61842E-04-4.37325E-02-6.34850E-06-1.95385E-05
 -1     27731 3.33054E-04 1.32282E-01-7.34350E-05-3.36157E-02 2.16338E-06 9.01113E-06
 -1     27732 5.72720E-03 1.29322E-01 2.04469E-04-4.48984E-02-4.05487E-06-1.24796E-05
 -1     27737 7.30923E-03 1.27693E-01 2.37431E-04-4.37318E-02-5.66607E-06-1.74383E-05
 -1     27738 3.20102E-04 1.32269E-01-1.03585E-04-3.36157E-02 1.75316E-06 7.30243E-06
 -1     27739 5.75689E-03 1.29351E-01 2.70127E-04-4.48981E-02-3.31122E-06-1.01909E-05
 -1     27744 7.33007E-03 1.27714E-01 2.88247E-04-4.37320E-02-4.17365E-06-1.28452E-05
 -1     27745 3.12334E-04 1.32261E-01-1.23363E-04-3.36156E-02 1.13189E-06 4.71466E-06
 -1     27746 5.77454E-03 1.29369E-01 3.12254E-04-4.48982E-02-2.15527E-06-6.63324E-06
 -1     27751 7.34118E-03 1.27726E-01 3.17608E-04-4.37324E-02-2.19687E-06-6.76126E-06
 -1     27752 3.08734E-04 1.32257E-01-1.33048E-04-3.36155E-02 3.89809E-07 1.62367E-06
 -1     27753 5.78274E-03 1.29377E-01 3.32776E-04-4.48983E-02-7.46143E-07-2.29639E-06
 -1     27758 7.34467E-03 1.27730E-01 3.27207E-04-4.37325E-02-8.64616E-16-3.92286E-14
 -1     27759 3.08734E-04 1.32257E-01-1.33048E-04-3.36155E-02-3.89809E-07-1.62367E-06
 -1     27760 5.78274E-03 1.29377E-01 3.32776E-04-4.48983E-02 7.46143E-07 2.29639E-06
 -1     27765 7.34118E-03 1.27726E-01 3.17608E-04-4.37324E-02 2.19687E-06 6.76126E-06
 -1     27766 3.12334E-04 1.32261E-01-1.23363E-04-3.36156E-02-1.13189E-06-4.71466E-06
 -1     27767 5.77454E-03 1.29369E-01 3.12254E-04-4.48982E-02 2.15527E-06 6.63324E-06
 -1     27772 7.33007E-03 1.27714E-01 2.88247E-04-4.37320E-02 4.17365E-06 1.28452E-05
 -1     27773 3.20102E-04 1.32269E-01-1.03585E-04-3.36157E-02-1.75316E-06-7.30243E-06
 -1     27774 5.75689E-03 1.29351E-01 2.70127E-04-4.48981E-02 3.31122E-06 1.01909E-05
 -1     27779 7.30923E-03 1.27693E-01 2.37431E-04-4.37318E-02 5.66607E-06 1.74383E-05
 -1     27780 3.33054E-04 1.32282E-01-7.34350E-05-3.36157E-02-2.16338E-06-9.01113E-06
 -1     27781 5.72720E-03 1.29322E-01 2.04469E-04-4.48984E-02 4.05487E-06 1.24796E-05
 -1     27786 7.27415E-03 1.27659E-01 1.61842E-04-4.37325E-02 6.34850E-06 1.95385E-05
 -1     27787 3.52225E-04 1.32299E-01-3.48511E-05-3.36152E-02-2.25365E-06-9.38708E-06
 -1     27788 5.68168E-03 1.29281E-01 1.13882E-04-4.49000E-02 4.30161E-06 1.32389E-05
 -1     27793 7.21565E-03 1.27609E-01 5.35449E-05-4.37354E-02 5.91614E-06 1.82076E-05
 -1     27797 2.36769E-02 1.11148E-01 5.35451E-05-6.01967E-02-8.69187E-06-1.70579E-05
 -1     27798 1.39689E-02 1.18683E-01-3.48511E-05-5.23569E-02 3.69443E-06 8.91895E-06
 -1     27799 2.25812E-02 1.12381E-01 1.13882E-04-6.17996E-02-6.31974E-06-1.24029E-05
 -1     27804 2.37343E-02 1.11199E-01 1.61842E-04-6.01927E-02-9.32705E-06-1.83049E-05
 -1     27805 1.39499E-02 1.18665E-01-7.34350E-05-5.23577E-02 3.54641E-06 8.56177E-06
 -1     27806 2.26262E-02 1.12423E-01 2.04469E-04-6.17974E-02-5.95723E-06-1.16916E-05
 -1     27811 2.37691E-02 1.11233E-01 2.37431E-04-6.01917E-02-8.32436E-06-1.63374E-05
 -1     27812 1.39370E-02 1.18652E-01-1.03585E-04-5.23577E-02 2.87393E-06 6.93828E-06
 -1     27813 2.26557E-02 1.12452E-01 2.70127E-04-6.17969E-02-4.86468E-06-9.54743E-06
 -1     27818 2.37900E-02 1.11254E-01 2.88247E-04-6.01920E-02-6.13174E-06-1.20342E-05
 -1     27819 1.39291E-02 1.18644E-01-1.23363E-04-5.23575E-02 1.85549E-06 4.47955E-06
 -1     27820 2.26734E-02 1.12470E-01 3.12254E-04-6.17970E-02-3.16641E-06-6.21442E-06
 -1     27825 2.38012E-02 1.11266E-01 3.17609E-04-6.01924E-02-3.22754E-06-6.33440E-06
 -1     27826 1.39255E-02 1.18640E-01-1.33048E-04-5.23574E-02 6.39009E-07 1.54271E-06
 -1     27827 2.26816E-02 1.12478E-01 3.32775E-04-6.17972E-02-1.09619E-06-2.15140E-06
 -1     27832 2.38048E-02 1.11270E-01 3.27207E-04-6.01926E-02 1.18830E-14-2.48331E-14
 -1     27833 1.39255E-02 1.18640E-01-1.33048E-04-5.23574E-02-6.39009E-07-1.54271E-06
 -1     27834 2.26816E-02 1.12478E-01 3.32775E-04-6.17972E-02 1.09619E-06 2.15140E-06
 -1     27839 2.38012E-02 1.11266E-01 3.17609E-04-6.01924E-02 3.22754E-06 6.33440E-06
 -1     27840 1.39291E-02 1.18644E-01-1.23363E-04-5.23575E-02-1.85549E-06-4.47955E-06
 -1     27841 2.26734E-02 1.12470E-01 3.12254E-04-6.17970E-02 3.16641E-06 6.21442E-06
 -1     27846 2.37900E-02 1.11254E-01 2.88247E-04-6.01920E-02 6.13174E-06 1.20342E-05
 -1     27847 1.39370E-02 1.18652E-01-1.03585E-04-5.23577E-02-2.87393E-06-6.93828E-06
 -1     27848 2.26557E-02 1.12452E-01 2.70127E-04-6.17969E-02 4.86468E-06 9.54743E-06
 -1     27853 2.37691E-02 1.11233E-01 2.37431E-04-6.01917E-02 8.32436E-06 1.63374E-05
 -1     27854 1.39499E-02 1.18665E-01-7.34350E-05-5.23577E-02-3.54641E-06-8.56177E-06
 -1     27855 2.26262E-02 1.12423E-01 2.04469E-04-6.17974E-02 5.95723E-06 1.16916E-05
 -1     27860 2.37343E-02 1.11199E-01 1.61842E-04-6.01927E-02 9.32705E-06 1.83049E-05
 -1     27861 1.39689E-02 1.18683E-01-3.48511E-05-5.23569E-02-3.69443E-06-8.91895E-06
 -1     27862 2.25812E-02 1.12381E-01 1.13882E-04-6.17996E-02 6.31974E-06 1.24029E-05
 -1     27867 2.36769E-02 1.11148E-01 5.35451E-05-6.01967E-02 8.69187E-06 1.70579E-05
 -1     27871 4.44192E-02 9.04054E-02 5.35457E-05-7.07654E-02-1.12539E-05-1.54883E-05
 -1     27872 3.27106E-02 9.99410E-02-3.48514E-05-6.59736E-02 5.04436E-06 8.23123E-06
 -1     27873 4.38759E-02 9.10866E-02 1.13882E-04-7.26497E-02-8.18226E-06-1.12615E-05
 -1     27878 4.44752E-02 9.04584E-02 1.61843E-04-7.07607E-02-1.20760E-05-1.66207E-05
 -1     27879 3.26919E-02 9.99233E-02-7.34352E-05-6.59745E-02 4.84227E-06 7.90163E-06
 -1     27880 4.39201E-02 9.11291E-02 2.04469E-04-7.26472E-02-7.71291E-06-1.06158E-05
 -1     27885 4.45097E-02 9.04921E-02 2.37431E-04-7.07596E-02-1.07778E-05-1.48344E-05
 -1     27886 3.26790E-02 9.99104E-02-1.03585E-04-6.59746E-02 3.92403E-06 6.40337E-06
 -1     27887 4.39495E-02 9.11581E-02 2.70127E-04-7.26466E-02-6.29839E-06-8.66900E-06
 -1     27892 4.45307E-02 9.05133E-02 2.88248E-04-7.07599E-02-7.93898E-06-1.09272E-05
 -1     27893 3.26711E-02 9.99023E-02-1.23363E-04-6.59743E-02 2.53347E-06 4.13421E-06
 -1     27894 4.39672E-02 9.11759E-02 3.12253E-04-7.26467E-02-4.09963E-06-5.64268E-06
 -1     27899 4.45421E-02 9.05251E-02 3.17610E-04-7.07604E-02-4.17882E-06-5.75170E-06
 -1     27900 3.26674E-02 9.98984E-02-1.33049E-04-6.59742E-02 8.72497E-07 1.42378E-06
 -1     27901 4.39755E-02 9.11844E-02 3.32775E-04-7.26470E-02-1.41927E-06-1.95347E-06
 -1     27906 4.45458E-02 9.05288E-02 3.27208E-04-7.07607E-02-2.38162E-14-5.96533E-15
 -1     27907 3.26674E-02 9.98984E-02-1.33049E-04-6.59742E-02-8.72497E-07-1.42378E-06
 -1     27908 4.39755E-02 9.11844E-02 3.32775E-04-7.26470E-02 1.41927E-06 1.95347E-06
 -1     27913 4.45421E-02 9.05251E-02 3.17610E-04-7.07604E-02 4.17882E-06 5.75170E-06
 -1     27914 3.26711E-02 9.99023E-02-1.23363E-04-6.59743E-02-2.53347E-06-4.13421E-06
 -1     27915 4.39672E-02 9.11759E-02 3.12253E-04-7.26467E-02 4.09963E-06 5.64268E-06
 -1     27920 4.45307E-02 9.05133E-02 2.88248E-04-7.07599E-02 7.93898E-06 1.09272E-05
 -1     27921 3.26790E-02 9.99104E-02-1.03585E-04-6.59746E-02-3.92403E-06-6.40337E-06
 -1     27922 4.39495E-02 9.11581E-02 2.70127E-04-7.26466E-02 6.29839E-06 8.66900E-06
 -1     27927 4.45097E-02 9.04921E-02 2.37431E-04-7.07596E-02 1.07778E-05 1.48344E-05
 -1     27928 3.26919E-02 9.99233E-02-7.34352E-05-6.59745E-02-4.84227E-06-7.90163E-06
 -1     27929 4.39201E-02 9.11291E-02 2.04469E-04-7.26472E-02 7.71291E-06 1.06158E-05
 -1     27934 4.44752E-02 9.04584E-02 1.61843E-04-7.07607E-02 1.20760E-05 1.66207E-05
 -1     27935 3.27106E-02 9.99410E-02-3.48514E-05-6.59736E-02-5.04436E-06-8.23123E-06
 -1     27936 4.38759E-02 9.10866E-02 1.13882E-04-7.26497E-02 8.18226E-06 1.12615E-05
 -1     27941 4.44192E-02 9.04054E-02 5.35457E-05-7.07654E-02 1.12539E-05 1.54883E-05
 -1     27945 6.74123E-02 6.74123E-02 5.35452E-05-7.44072E-02-1.35387E-05-1.35363E-05
 -1     27946 5.47428E-02 7.79088E-02-3.48517E-05-7.31323E-02 6.27005E-06 7.34082E-06
 -1     27947 6.74812E-02 6.74812E-02 1.13882E-04-7.63884E-02-9.84329E-06-9.84295E-06
 -1     27952 6.74668E-02 6.74668E-02 1.61842E-04-7.44022E-02-1.45269E-05-1.45273E-05
 -1     27953 5.47244E-02 7.78908E-02-7.34356E-05-7.31333E-02 6.01876E-06 7.04700E-06
 -1     27954 6.75246E-02 6.75246E-02 2.04469E-04-7.63858E-02-9.27855E-06-9.27872E-06
 -1     27959 6.75009E-02 6.75009E-02 2.37431E-04-7.44011E-02-1.29654E-05-1.29658E-05
 -1     27960 5.47115E-02 7.78779E-02-1.03585E-04-7.31334E-02 4.87746E-06 5.71083E-06
 -1     27961 6.75538E-02 6.75538E-02 2.70127E-04-7.63851E-02-7.57694E-06-7.57708E-06
 -1     27966 6.75220E-02 6.75220E-02 2.88248E-04-7.44014E-02-9.55043E-06-9.55067E-06
 -1     27967 5.47035E-02 7.78698E-02-1.23363E-04-7.31331E-02 3.14904E-06 3.68710E-06
 -1     27968 6.75715E-02 6.75715E-02 3.12254E-04-7.63853E-02-4.93184E-06-4.93192E-06
 -1     27973 6.75336E-02 6.75336E-02 3.17609E-04-7.44019E-02-5.02704E-06-5.02715E-06
 -1     27974 5.46998E-02 7.78660E-02-1.33049E-04-7.31329E-02 1.08450E-06 1.26980E-06
 -1     27975 6.75799E-02 6.75799E-02 3.32776E-04-7.63855E-02-1.70738E-06-1.70741E-06
 -1     27980 6.75373E-02 6.75373E-02 3.27208E-04-7.44022E-02-4.23869E-14-2.51600E-14
 -1     27981 5.46998E-02 7.78660E-02-1.33049E-04-7.31329E-02-1.08450E-06-1.26980E-06
 -1     27982 6.75799E-02 6.75799E-02 3.32776E-04-7.63855E-02 1.70738E-06 1.70741E-06
 -1     27987 6.75336E-02 6.75336E-02 3.17609E-04-7.44019E-02 5.02704E-06 5.02715E-06
 -1     27988 5.47035E-02 7.78698E-02-1.23363E-04-7.31331E-02-3.14904E-06-3.68710E-06
 -1     27989 6.75715E-02 6.75715E-02 3.12254E-04-7.63853E-02 4.93184E-06 4.93192E-06
 -1     27994 6.75220E-02 6.75220E-02 2.88248E-04-7.44014E-02 9.55043E-06 9.55067E-06
 -1     27995 5.47115E-02 7.78779E-02-1.03585E-04-7.31334E-02-4.87746E-06-5.71083E-06
 -1     27996 6.75538E-02 6.75538E-02 2.70127E-04-7.63851E-02 7.57694E-06 7.57708E-06
 -1     28001 6.75009E-02 6.75009E-02 2.37431E-04-7.44011E-02 1.29654E-05 1.29658E-05
 -1     28002 5.47244E-02 7.78908E-02-7.34356E-05-7.31333E-02-6.01876E-06-7.04700E-06
 -1     28003 6.75246E-02 6.75246E-02 2.04469E-04-7.63858E-02 9.27855E-06 9.27872E-06
 -1     28008 6.74668E-02 6.74668E-02 1.61842E-04-7.44022E-02 1.45269E-05 1.45273E-05
 -1     28009 5.47428E-02 7.79088E-02-3.48517E-05-7.31323E-02-6.27005E-06-7.34082E-06
 -1     28010 6.74812E-02 6.74812E-02 1.13882E-04-7.63884E-02 9.84329E-06 9.84295E-06
 -1     28015 6.74123E-02 6.74123E-02 5.35452E-05-7.44072E-02 1.35387E-05 1.35363E-05
 -1     28019 9.04054E-02 4.44192E-02 5.35441E-05-7.07654E-02-1.54888E-05-1.12513E-05
 -1     28020 7.79088E-02 5.47428E-02-3.48508E-05-7.31323E-02 7.34100E-06 6.26928E-06
 -1     28021 9.10866E-02 4.38759E-02 1.13882E-04-7.26497E-02-1.12618E-05-8.18171E-06
 -1     28026 9.04584E-02 4.44753E-02 1.61841E-04-7.07607E-02-1.66199E-05-1.20750E-05
 -1     28027 7.78908E-02 5.47244E-02-7.34347E-05-7.31333E-02 7.04653E-06 6.01871E-06
 -1     28028 9.11291E-02 4.39201E-02 2.04470E-04-7.26472E-02-1.06155E-05-7.71265E-06
 -1     28033 9.04921E-02 4.45098E-02 2.37430E-04-7.07596E-02-1.48333E-05-1.07771E-05
 -1     28034 7.78779E-02 5.47115E-02-1.03584E-04-7.31334E-02 5.71035E-06 4.87740E-06
 -1     28035 9.11581E-02 4.39495E-02 2.70127E-04-7.26466E-02-8.66861E-06-6.29817E-06
 -1     28040 9.05133E-02 4.45308E-02 2.88246E-04-7.07599E-02-1.09261E-05-7.93844E-06
 -1     28041 7.78698E-02 5.47035E-02-1.23362E-04-7.31331E-02 3.68676E-06 3.14898E-06
 -1     28042 9.11759E-02 4.39672E-02 3.12254E-04-7.26467E-02-5.64236E-06-4.09945E-06
 -1     28047 9.05251E-02 4.45422E-02 3.17607E-04-7.07604E-02-5.75114E-06-4.17851E-06
 -1     28048 7.78660E-02 5.46998E-02-1.33048E-04-7.31329E-02 1.26968E-06 1.08447E-06
 -1     28049 9.11844E-02 4.39755E-02 3.32776E-04-7.26470E-02-1.95335E-06-1.41920E-06
 -1     28054 9.05288E-02 4.45458E-02 3.27206E-04-7.07607E-02-1.12458E-14-3.86083E-15
 -1     28055 7.78660E-02 5.46998E-02-1.33048E-04-7.31329E-02-1.26968E-06-1.08447E-06
 -1     28056 9.11844E-02 4.39755E-02 3.32776E-04-7.26470E-02 1.95335E-06 1.41920E-06
 -1     28061 9.05251E-02 4.45422E-02 3.17607E-04-7.07604E-02 5.75114E-06 4.17851E-06
 -1     28062 7.78698E-02 5.47035E-02-1.23362E-04-7.31331E-02-3.68676E-06-3.14898E-06
 -1     28063 9.11759E-02 4.39672E-02 3.12254E-04-7.26467E-02 5.64236E-06 4.09945E-06
 -1     28068 9.05133E-02 4.45308E-02 2.88246E-04-7.07599E-02 1.09261E-05 7.93844E-06
 -1     28069 7.78779E-02 5.47115E-02-1.03584E-04-7.31334E-02-5.71035E-06-4.87740E-06
 -1     28070 9.11581E-02 4.39495E-02 2.70127E-04-7.26466E-02 8.66861E-06 6.29817E-06
 -1     28075 9.04921E-02 4.45098E-02 2.37430E-04-7.07596E-02 1.48333E-05 1.07771E-05
 -1     28076 7.78908E-02 5.47244E-02-7.34347E-05-7.31333E-02-7.04653E-06-6.01871E-06
 -1     28077 9.11291E-02 4.39201E-02 2.04470E-04-7.26472E-02 1.06155E-05 7.71265E-06
 -1     28082 9.04584E-02 4.44753E-02 1.61841E-04-7.07607E-02 1.66199E-05 1.20750E-05
 -1     28083 7.79088E-02 5.47428E-02-3.48508E-05-7.31323E-02-7.34100E-06-6.26928E-06
 -1     28084 9.10866E-02 4.38759E-02 1.13882E-04-7.26497E-02 1.12618E-05 8.18171E-06
 -1     28089 9.04054E-02 4.44192E-02 5.35441E-05-7.07654E-02 1.54888E-05 1.12513E-05
 -1     28093 1.11148E-01 2.36769E-02 5.35451E-05-6.01967E-02-1.70586E-05-8.69060E-06
 -1     28094 9.99410E-02 3.27106E-02-3.48504E-05-6.59736E-02 8.23125E-06 5.04361E-06
 -1     28095 1.12381E-01 2.25812E-02 1.13882E-04-6.17996E-02-1.24032E-05-6.31916E-06
 -1     28100 1.11199E-01 2.37343E-02 1.61842E-04-6.01927E-02-1.83054E-05-9.32598E-06
 -1     28101 9.99233E-02 3.26919E-02-7.34343E-05-6.59745E-02 7.90150E-06 4.84173E-06
 -1     28102 1.12423E-01 2.26262E-02 2.04469E-04-6.17974E-02-1.16917E-05-5.95690E-06
 -1     28107 1.11233E-01 2.37691E-02 2.37431E-04-6.01917E-02-1.63375E-05-8.32415E-06
 -1     28108 9.99104E-02 3.26790E-02-1.03584E-04-6.59746E-02 6.40308E-06 3.92372E-06
 -1     28109 1.12452E-01 2.26557E-02 2.70127E-04-6.17969E-02-9.54747E-06-4.86460E-06
 -1     28114 1.11254E-01 2.37900E-02 2.88247E-04-6.01920E-02-1.20342E-05-6.13171E-06
 -1     28115 9.99023E-02 3.26711E-02-1.23362E-04-6.59743E-02 4.13398E-06 2.53327E-06
 -1     28116 1.12470E-01 2.26734E-02 3.12254E-04-6.17970E-02-6.21443E-06-3.16640E-06
 -1     28121 1.11266E-01 2.38013E-02 3.17609E-04-6.01924E-02-6.33439E-06-3.22754E-06
 -1     28122 9.98984E-02 3.26674E-02-1.33048E-04-6.59742E-02 1.42369E-06 8.72428E-07
 -1     28123 1.12478E-01 2.26816E-02 3.32775E-04-6.17972E-02-2.15140E-06-1.09619E-06
 -1     28128 1.11270E-01 2.38048E-02 3.27207E-04-6.01926E-02 3.17726E-15 1.25055E-14
 -1     28129 9.98984E-02 3.26674E-02-1.33048E-04-6.59742E-02-1.42369E-06-8.72428E-07
 -1     28130 1.12478E-01 2.26816E-02 3.32775E-04-6.17972E-02 2.15140E-06 1.09619E-06
 -1     28135 1.11266E-01 2.38013E-02 3.17609E-04-6.01924E-02 6.33439E-06 3.22754E-06
 -1     28136 9.99023E-02 3.26711E-02-1.23362E-04-6.59743E-02-4.13398E-06-2.53327E-06
 -1     28137 1.12470E-01 2.26734E-02 3.12254E-04-6.17970E-02 6.21443E-06 3.16640E-06
 -1     28142 1.11254E-01 2.37900E-02 2.88247E-04-6.01920E-02 1.20342E-05 6.13171E-06
 -1     28143 9.99104E-02 3.26790E-02-1.03584E-04-6.59746E-02-6.40308E-06-3.92372E-06
 -1     28144 1.12452E-01 2.26557E-02 2.70127E-04-6.17969E-02 9.54747E-06 4.86460E-06
 -1     28149 1.11233E-01 2.37691E-02 2.37431E-04-6.01917E-02 1.63375E-05 8.32415E-06
 -1     28150 9.99233E-02 3.26919E-02-7.34343E-05-6.59745E-02-7.90150E-06-4.84173E-06
 -1     28151 1.12423E-01 2.26262E-02 2.04469E-04-6.17974E-02 1.16917E-05 5.95690E-06
 -1     28156 1.11199E-01 2.37343E-02 1.61842E-04-6.01927E-02 1.83054E-05 9.32598E-06
 -1     28157 9.99410E-02 3.27106E-02-3.48504E-05-6.59736E-02-8.23125E-06-5.04361E-06
 -1     28158 1.12381E-01 2.25812E-02 1.13882E-04-6.17996E-02 1.24032E-05 6.31916E-06
 -1     28163 1.11148E-01 2.36769E-02 5.35451E-05-6.01967E-02 1.70586E-05 8.69060E-06
 -1     28167 1.27609E-01 7.21564E-03 5.35463E-05-4.37354E-02-1.82092E-05-5.91452E-06
 -1     28168 1.18683E-01 1.39689E-02-3.48520E-05-5.23569E-02 8.91950E-06 3.69399E-06
 -1     28169 1.29281E-01 5.68166E-03 1.13881E-04-4.49000E-02-1.32392E-05-4.30125E-06
 -1     28174 1.27659E-01 7.27414E-03 1.61843E-04-4.37325E-02-1.95396E-05-6.34865E-06
 -1     28175 1.18665E-01 1.39499E-02-7.34358E-05-5.23577E-02 8.56225E-06 3.54621E-06
 -1     28176 1.29322E-01 5.72719E-03 2.04469E-04-4.48984E-02-1.24799E-05-4.05497E-06
 -1     28181 1.27693E-01 7.30923E-03 2.37432E-04-4.37318E-02-1.74394E-05-5.66657E-06
 -1     28182 1.18652E-01 1.39370E-02-1.03586E-04-5.23577E-02 6.93867E-06 2.87397E-06
 -1     28183 1.29351E-01 5.75688E-03 2.70127E-04-4.48981E-02-1.01913E-05-3.31141E-06
 -1     28188 1.27714E-01 7.33007E-03 2.88249E-04-4.37320E-02-1.28461E-05-4.17412E-06
 -1     28189 1.18644E-01 1.39291E-02-1.23364E-04-5.23575E-02 4.47983E-06 1.85555E-06
 -1     28190 1.29369E-01 5.77453E-03 3.12254E-04-4.48982E-02-6.63356E-06-2.15543E-06
 -1     28195 1.27726E-01 7.34118E-03 3.17611E-04-4.37324E-02-6.76179E-06-2.19713E-06
 -1     28196 1.18640E-01 1.39255E-02-1.33050E-04-5.23574E-02 1.54281E-06 6.39035E-07
 -1     28197 1.29377E-01 5.78273E-03 3.32776E-04-4.48983E-02-2.29651E-06-7.46202E-07
 -1     28202 1.27730E-01 7.34467E-03 3.27209E-04-4.37325E-02-1.67307E-14 1.32840E-14
 -1     28203 1.18640E-01 1.39255E-02-1.33050E-04-5.23574E-02-1.54281E-06-6.39035E-07
 -1     28204 1.29377E-01 5.78273E-03 3.32776E-04-4.48983E-02 2.29651E-06 7.46202E-07
 -1     28209 1.27726E-01 7.34118E-03 3.17611E-04-4.37324E-02 6.76179E-06 2.19713E-06
 -1     28210 1.18644E-01 1.39291E-02-1.23364E-04-5.23575E-02-4.47983E-06-1.85555E-06
 -1     28211 1.29369E-01 5.77453E-03 3.12254E-04-4.48982E-02 6.63356E-06 2.15543E-06
 -1     28216 1.27714E-01 7.33007E-03 2.88249E-04-4.37320E-02 1.28461E-05 4.17412E-06
 -1     28217 1.18652E-01 1.39370E-02-1.03586E-04-5.23577E-02-6.93867E-06-2.87397E-06
 -1     28218 1.29351E-01 5.75688E-03 2.70127E-04-4.48981E-02 1.01913E-05 3.31141E-06
 -1     28223 1.27693E-01 7.30923E-03 2.37432E-04-4.37318E-02 1.74394E-05 5.66657E-06
 -1     28224 1.18665E-01 1.39499E-02-7.34358E-05-5.23577E-02-8.56225E-06-3.54621E-06
 -1     28225 1.29322E-01 5.72719E-03 2.04469E-04-4.48984E-02 1.24799E-05 4.05497E-06
 -1     28230 1.27659E-01 7.27414E-03 1.61843E-04-4.37325E-02 1.95396E-05 6.34865E-06
 -1     28231 1.18683E-01 1.39689E-02-3.48520E-05-5.23569E-02-8.91950E-06-3.69399E-06
 -1     28232 1.29281E-01 5.68166E-03 1.13881E-04-4.49000E-02 1.32392E-05 4.30125E-06
 -1     28237 1.27609E-01 7.21564E-03 5.35463E-05-4.37354E-02 1.82092E-05 5.91452E-06
 -1     28241 1.38178E-01-3.35311E-03 5.35440E-05-2.29931E-02-1.89089E-05-2.99247E-06
 -1     28242 1.32299E-01 3.52222E-04-3.48518E-05-3.36152E-02 9.38746E-06 2.25327E-06
 -1     28243 1.40131E-01-5.16850E-03 1.13882E-04-2.36053E-02-1.37490E-05-2.17750E-06
 -1     28248 1.38228E-01-3.29390E-03 1.61841E-04-2.29916E-02-2.02904E-05-3.21473E-06
 -1     28249 1.32282E-01 3.33049E-04-7.34357E-05-3.36157E-02 9.01133E-06 2.16377E-06
 -1     28250 1.40172E-01-5.12260E-03 2.04470E-04-2.36045E-02-1.29602E-05-2.05310E-06
 -1     28255 1.38261E-01-3.25866E-03 2.37430E-04-2.29912E-02-1.81094E-05-2.86877E-06
 -1     28256 1.32269E-01 3.20097E-04-1.03585E-04-3.36157E-02 7.30267E-06 1.75349E-06
 -1     28257 1.40200E-01-5.09281E-03 2.70127E-04-2.36043E-02-1.05833E-05-1.67645E-06
 -1     28262 1.38282E-01-3.23786E-03 2.88246E-04-2.29913E-02-1.33394E-05-2.11308E-06
 -1     28263 1.32261E-01 3.12329E-04-1.23363E-04-3.36156E-02 4.71485E-06 1.13211E-06
 -1     28264 1.40218E-01-5.07519E-03 3.12254E-04-2.36044E-02-6.88866E-06-1.09116E-06
 -1     28269 1.38294E-01-3.22683E-03 3.17607E-04-2.29915E-02-7.02144E-06-1.11223E-06
 -1     28270 1.32257E-01 3.08728E-04-1.33049E-04-3.36155E-02 1.62375E-06 3.89885E-07
 -1     28271 1.40227E-01-5.06702E-03 3.32776E-04-2.36044E-02-2.38481E-06-3.77749E-07
 -1     28276 1.38298E-01-3.22337E-03 3.27206E-04-2.29915E-02-7.53069E-15 1.50596E-14
 -1     28277 1.32257E-01 3.08728E-04-1.33049E-04-3.36155E-02-1.62375E-06-3.89885E-07
 -1     28278 1.40227E-01-5.06702E-03 3.32776E-04-2.36044E-02 2.38481E-06 3.77749E-07
 -1     28283 1.38294E-01-3.22683E-03 3.17607E-04-2.29915E-02 7.02144E-06 1.11223E-06
 -1     28284 1.32261E-01 3.12329E-04-1.23363E-04-3.36156E-02-4.71485E-06-1.13211E-06
 -1     28285 1.40218E-01-5.07519E-03 3.12254E-04-2.36044E-02 6.88866E-06 1.09116E-06
 -1     28290 1.38282E-01-3.23786E-03 2.88246E-04-2.29913E-02 1.33394E-05 2.11308E-06
 -1     28291 1.32269E-01 3.20097E-04-1.03585E-04-3.36157E-02-7.30267E-06-1.75349E-06
 -1     28292 1.40200E-01-5.09281E-03 2.70127E-04-2.36043E-02 1.05833E-05 1.67645E-06
 -1     28297 1.38261E-01-3.25866E-03 2.37430E-04-2.29912E-02 1.81094E-05 2.86877E-06
 -1     28298 1.32282E-01 3.33049E-04-7.34357E-05-3.36157E-02-9.01133E-06-2.16377E-06
 -1     28299 1.40172E-01-5.12260E-03 2.04470E-04-2.36045E-02 1.29602E-05 2.05310E-06
 -1     28304 1.38228E-01-3.29390E-03 1.61841E-04-2.29916E-02 2.02904E-05 3.21473E-06
 -1     28305 1.32299E-01 3.52222E-04-3.48518E-05-3.36152E-02-9.38746E-06-2.25327E-06
 -1     28306 1.40131E-01-5.16850E-03 1.13882E-04-2.36053E-02 1.37490E-05 2.17750E-06
 -1     28311 1.38178E-01-3.35311E-03 5.35440E-05-2.29931E-02 1.89089E-05 2.99247E-06
 -1     28315 1.39458E-01-6.80647E-03-3.48492E-05-1.15830E-02 9.62336E-06 7.57163E-07
 -1     28319 1.39441E-01-6.82575E-03-7.34332E-05-1.15832E-02 9.23780E-06 7.27528E-07
 -1     28323 1.39428E-01-6.83871E-03-1.03583E-04-1.15832E-02 7.48598E-06 5.89465E-07
 -1     28327 1.39420E-01-6.84645E-03-1.23360E-04-1.15831E-02 4.83310E-06 3.80554E-07
 -1     28331 1.39416E-01-6.85003E-03-1.33046E-04-1.15831E-02 1.66446E-06 1.31055E-07
 -1     28335 1.39416E-01-6.85003E-03-1.33046E-04-1.15831E-02-1.66446E-06-1.31055E-07
 -1     28339 1.39420E-01-6.84645E-03-1.23360E-04-1.15831E-02-4.83310E-06-3.80554E-07
 -1     28343 1.39428E-01-6.83871E-03-1.03583E-04-1.15832E-02-7.48598E-06-5.89465E-07
 -1     28347 1.39441E-01-6.82575E-03-7.34332E-05-1.15832E-02-9.23780E-06-7.27528E-07
 -1     28351 1.39458E-01-6.80647E-03-3.48492E-05-1.15830E-02-9.62336E-06-7.57163E-07
 -1     28357-3.24858E-05 1.34473E-01 5.82844E-05-2.18517E-02-2.99965E-06-1.89392E-05
 -1     28358-2.96648E-03 1.35806E-01-3.07730E-05-1.09897E-02 7.50880E-07 9.54098E-06
 -1     28359-1.64985E-03 1.36321E-01 1.05480E-04-2.24148E-02-3.91731E-06-2.47330E-05
 -1     28364 8.00552E-06 1.34506E-01 1.32877E-04-2.18506E-02-4.50430E-06-2.84393E-05
 -1     28365-2.97983E-03 1.35794E-01-5.58628E-05-1.09898E-02 9.71645E-07 1.23460E-05
 -1     28366-1.61563E-03 1.36352E-01 1.75472E-04-2.24142E-02-4.18044E-06-2.63943E-05
 -1     28371 3.11418E-05 1.34529E-01 1.85269E-04-2.18504E-02-4.17852E-06-2.63822E-05
 -1     28372-2.98826E-03 1.35786E-01-7.66576E-05-1.09898E-02 8.37942E-07 1.06471E-05
 -1     28373-1.59579E-03 1.36373E-01 2.26464E-04-2.24144E-02-3.46713E-06-2.18906E-05
 -1     28378 4.46676E-05 1.34543E-01 2.19828E-04-2.18506E-02-3.02996E-06-1.91305E-05
 -1     28379-2.99313E-03 1.35780E-01-9.04423E-05-1.09898E-02 5.45926E-07 6.93665E-06
 -1     28380-1.58484E-03 1.36386E-01 2.59105E-04-2.24148E-02-2.23411E-06-1.41056E-05
 -1     28385 5.17085E-05 1.34551E-01 2.39467E-04-2.18508E-02-1.56762E-06-9.89760E-06
 -1     28386-2.99535E-03 1.35777E-01-9.71623E-05-1.09897E-02 1.87534E-07 2.38284E-06
 -1     28387-1.57997E-03 1.36393E-01 2.74914E-04-2.24150E-02-7.66417E-07-4.83897E-06
 -1     28392 5.38884E-05 1.34554E-01 2.45826E-04-2.18508E-02-3.82711E-15 4.22033E-15
 -1     28393-2.99535E-03 1.35777E-01-9.71623E-05-1.09897E-02-1.87534E-07-2.38284E-06
 -1     28394-1.57997E-03 1.36393E-01 2.74914E-04-2.24150E-02 7.66417E-07 4.83897E-06
 -1     28399 5.17085E-05 1.34551E-01 2.39467E-04-2.18508E-02 1.56762E-06 9.89760E-06
 -1     28400-2.99313E-03 1.35780E-01-9.04423E-05-1.09898E-02-5.45926E-07-6.93665E-06
 -1     28401-1.58484E-03 1.36386E-01 2.59105E-04-2.24148E-02 2.23411E-06 1.41056E-05
 -1     28406 4.46676E-05 1.34543E-01 2.19828E-04-2.18506E-02 3.02996E-06 1.91305E-05
 -1     28407-2.98826E-03 1.35786E-01-7.66576E-05-1.09898E-02-8.37942E-07-1.06471E-05
 -1     28408-1.59579E-03 1.36373E-01 2.26464E-04-2.24144E-02 3.46713E-06 2.18906E-05
 -1     28413 3.11418E-05 1.34529E-01 1.85269E-04-2.18504E-02 4.17852E-06 2.63822E-05
 -1     28414-2.97983E-03 1.35794E-01-5.58628E-05-1.09898E-02-9.71645E-07-1.23460E-05
 -1     28415-1.61563E-03 1.36352E-01 1.75472E-04-2.24142E-02 4.18044E-06 2.63943E-05
 -1     28420 8.00552E-06 1.34506E-01 1.32877E-04-2.18506E-02 4.50430E-06 2.84393E-05
 -1     28421-2.96648E-03 1.35806E-01-3.07730E-05-1.09897E-02-7.50880E-07-9.54098E-06
 -1     28422-1.64985E-03 1.36321E-01 1.05480E-04-2.24148E-02 3.91731E-06 2.47330E-05
 -1     28427-3.24858E-05 1.34473E-01 5.82844E-05-2.18517E-02 2.99965E-06 1.89392E-05
 -1     28431 1.00117E-02 1.24429E-01 5.82845E-05-4.15645E-02-5.92524E-06-1.82368E-05
 -1     28432 3.82551E-03 1.29014E-01-3.07730E-05-3.18933E-02 2.23417E-06 9.30604E-06
 -1     28433 8.65310E-03 1.26018E-01 1.05480E-04-4.26355E-02-7.73815E-06-2.38157E-05
 -1     28438 1.00516E-02 1.24463E-01 1.32876E-04-4.15623E-02-8.89764E-06-2.73846E-05
 -1     28439 3.81227E-03 1.29002E-01-5.58628E-05-3.18938E-02 2.89100E-06 1.20420E-05
 -1     28440 8.68706E-03 1.26050E-01 1.75472E-04-4.26344E-02-8.25794E-06-2.54154E-05
 -1     28445 1.00747E-02 1.24485E-01 1.85269E-04-4.15620E-02-8.25416E-06-2.54038E-05
 -1     28446 3.80382E-03 1.28994E-01-7.66576E-05-3.18937E-02 2.49319E-06 1.03849E-05
 -1     28447 8.70700E-03 1.26071E-01 2.26464E-04-4.26348E-02-6.84890E-06-2.10787E-05
 -1     28452 1.00883E-02 1.24499E-01 2.19828E-04-4.15623E-02-5.98533E-06-1.84210E-05
 -1     28453 3.79891E-03 1.28988E-01-9.04423E-05-3.18935E-02 1.62433E-06 6.76585E-06
 -1     28454 8.71811E-03 1.26083E-01 2.59105E-04-4.26355E-02-4.41322E-06-1.35825E-05
 -1     28459 1.00954E-02 1.24507E-01 2.39466E-04-4.15626E-02-3.09665E-06-9.53053E-06
 -1     28460 3.79667E-03 1.28985E-01-9.71622E-05-3.18934E-02 5.57982E-07 2.32417E-06
 -1     28461 8.72308E-03 1.26090E-01 2.74914E-04-4.26359E-02-1.51396E-06-4.65951E-06
 -1     28466 1.00976E-02 1.24510E-01 2.45826E-04-4.15628E-02-2.72263E-15-4.80333E-15
 -1     28467 3.79667E-03 1.28985E-01-9.71622E-05-3.18934E-02-5.57982E-07-2.32417E-06
 -1     28468 8.72308E-03 1.26090E-01 2.74914E-04-4.26359E-02 1.51396E-06 4.65951E-06
 -1     28473 1.00954E-02 1.24507E-01 2.39466E-04-4.15626E-02 3.09665E-06 9.53053E-06
 -1     28474 3.79891E-03 1.28988E-01-9.04423E-05-3.18935E-02-1.62433E-06-6.76585E-06
 -1     28475 8.71811E-03 1.26083E-01 2.59105E-04-4.26355E-02 4.41322E-06 1.35825E-05
 -1     28480 1.00883E-02 1.24499E-01 2.19828E-04-4.15623E-02 5.98533E-06 1.84210E-05
 -1     28481 3.80382E-03 1.28994E-01-7.66576E-05-3.18937E-02-2.49319E-06-1.03849E-05
 -1     28482 8.70700E-03 1.26071E-01 2.26464E-04-4.26348E-02 6.84890E-06 2.10787E-05
 -1     28487 1.00747E-02 1.24485E-01 1.85269E-04-4.15620E-02 8.25416E-06 2.54038E-05
 -1     28488 3.81227E-03 1.29002E-01-5.58628E-05-3.18938E-02-2.89100E-06-1.20420E-05
 -1     28489 8.68706E-03 1.26050E-01 1.75472E-04-4.26344E-02 8.25794E-06 2.54154E-05
 -1     28494 1.00516E-02 1.24463E-01 1.32876E-04-4.15623E-02 8.89764E-06 2.73846E-05
 -1     28495 3.82551E-03 1.29014E-01-3.07730E-05-3.18933E-02-2.23417E-06-9.30604E-06
 -1     28496 8.65310E-03 1.26018E-01 1.05480E-04-4.26355E-02 7.73815E-06 2.38157E-05
 -1     28501 1.00117E-02 1.24429E-01 5.82845E-05-4.15645E-02 5.92524E-06 1.82368E-05
 -1     28505 2.56558E-02 1.08785E-01 5.82843E-05-5.72086E-02-8.70496E-06-1.70856E-05
 -1     28506 1.67446E-02 1.16095E-01-3.07728E-05-4.96749E-02 3.66229E-06 8.84203E-06
 -1     28507 2.47003E-02 1.09971E-01 1.05480E-04-5.86827E-02-1.13684E-05-2.23122E-05
 -1     28512 2.56949E-02 1.08819E-01 1.32875E-04-5.72055E-02-1.30716E-05-2.56561E-05
 -1     28513 1.67316E-02 1.16083E-01-5.58626E-05-4.96757E-02 4.73916E-06 1.14415E-05
 -1     28514 2.47339E-02 1.10003E-01 1.75473E-04-5.86812E-02-1.21321E-05-2.38109E-05
 -1     28519 2.57179E-02 1.08842E-01 1.85267E-04-5.72052E-02-1.21265E-05-2.38002E-05
 -1     28520 1.67231E-02 1.16074E-01-7.66573E-05-4.96756E-02 4.08705E-06 9.86707E-06
 -1     28521 2.47540E-02 1.10024E-01 2.26465E-04-5.86818E-02-1.00621E-05-1.97481E-05
 -1     28526 2.57316E-02 1.08856E-01 2.19826E-04-5.72056E-02-8.79333E-06-1.72581E-05
 -1     28527 1.67181E-02 1.16069E-01-9.04420E-05-4.96753E-02 2.66275E-06 6.42847E-06
 -1     28528 2.47653E-02 1.10036E-01 2.59105E-04-5.86827E-02-6.48368E-06-1.27250E-05
 -1     28533 2.57388E-02 1.08864E-01 2.39465E-04-5.72060E-02-4.54944E-06-8.92890E-06
 -1     28534 1.67158E-02 1.16066E-01-9.71619E-05-4.96751E-02 9.14693E-07 2.20828E-06
 -1     28535 2.47705E-02 1.10042E-01 2.74914E-04-5.86833E-02-2.22424E-06-4.36535E-06
 -1     28540 2.57411E-02 1.08867E-01 2.45824E-04-5.72062E-02 1.49535E-14-3.30685E-14
 -1     28541 1.67158E-02 1.16066E-01-9.71619E-05-4.96751E-02-9.14693E-07-2.20828E-06
 -1     28542 2.47705E-02 1.10042E-01 2.74914E-04-5.86833E-02 2.22424E-06 4.36535E-06
 -1     28547 2.57388E-02 1.08864E-01 2.39465E-04-5.72060E-02 4.54944E-06 8.92890E-06
 -1     28548 1.67181E-02 1.16069E-01-9.04420E-05-4.96753E-02-2.66275E-06-6.42847E-06
 -1     28549 2.47653E-02 1.10036E-01 2.59105E-04-5.86827E-02 6.48368E-06 1.27250E-05
 -1     28554 2.57316E-02 1.08856E-01 2.19826E-04-5.72056E-02 8.79333E-06 1.72581E-05
 -1     28555 1.67231E-02 1.16074E-01-7.66573E-05-4.96756E-02-4.08705E-06-9.86707E-06
 -1     28556 2.47540E-02 1.10024E-01 2.26465E-04-5.86818E-02 1.00621E-05 1.97481E-05
 -1     28561 2.57179E-02 1.08842E-01 1.85267E-04-5.72052E-02 1.21265E-05 2.38002E-05
 -1     28562 1.67316E-02 1.16083E-01-5.58626E-05-4.96757E-02-4.73916E-06-1.14415E-05
 -1     28563 2.47339E-02 1.10003E-01 1.75473E-04-5.86812E-02 1.21321E-05 2.38109E-05
 -1     28568 2.56949E-02 1.08819E-01 1.32875E-04-5.72055E-02 1.30716E-05 2.56561E-05
 -1     28569 1.67446E-02 1.16095E-01-3.07728E-05-4.96749E-02-3.66229E-06-8.84203E-06
 -1     28570 2.47003E-02 1.09971E-01 1.05480E-04-5.86827E-02 1.13684E-05 2.23122E-05
 -1     28575 2.56558E-02 1.08785E-01 5.82843E-05-5.72086E-02 8.70496E-06 1.70856E-05
 -1     28579 4.53685E-02 8.90719E-02 5.82834E-05-6.72527E-02-1.12691E-05-1.55148E-05
 -1     28580 3.45263E-02 9.83129E-02-3.07714E-05-6.25941E-02 5.00027E-06 8.16051E-06
 -1     28581 4.49210E-02 8.97506E-02 1.05481E-04-6.89856E-02-1.47180E-05-2.02601E-05
 -1     28586 4.54066E-02 8.91077E-02 1.32872E-04-6.72491E-02-1.69230E-05-2.32975E-05
 -1     28587 3.45135E-02 9.83011E-02-5.58611E-05-6.25950E-02 6.47060E-06 1.05598E-05
 -1     28588 4.49541E-02 8.97826E-02 1.75474E-04-6.89839E-02-1.57073E-05-2.16210E-05
 -1     28593 4.54294E-02 8.91303E-02 1.85265E-04-6.72487E-02-1.57001E-05-2.16117E-05
 -1     28594 3.45050E-02 9.82924E-02-7.66561E-05-6.25949E-02 5.58041E-06 9.10658E-06
 -1     28595 4.49743E-02 8.98032E-02 2.26466E-04-6.89846E-02-1.30275E-05-1.79317E-05
 -1     28600 4.54432E-02 8.91444E-02 2.19824E-04-6.72492E-02-1.13849E-05-1.56710E-05
 -1     28601 3.44999E-02 9.82869E-02-9.04408E-05-6.25945E-02 3.63571E-06 5.93299E-06
 -1     28602 4.49860E-02 8.98156E-02 2.59106E-04-6.89856E-02-8.39461E-06-1.15546E-05
 -1     28607 4.54506E-02 8.91522E-02 2.39463E-04-6.72497E-02-5.89032E-06-8.10774E-06
 -1     28608 3.44976E-02 9.82844E-02-9.71608E-05-6.25943E-02 1.24892E-06 2.03807E-06
 -1     28609 4.49913E-02 8.98214E-02 2.74915E-04-6.89863E-02-2.87980E-06-3.96383E-06
 -1     28614 4.54530E-02 8.91547E-02 2.45822E-04-6.72499E-02 6.74474E-15-5.39215E-14
 -1     28615 3.44976E-02 9.82844E-02-9.71608E-05-6.25943E-02-1.24892E-06-2.03807E-06
 -1     28616 4.49913E-02 8.98214E-02 2.74915E-04-6.89863E-02 2.87980E-06 3.96383E-06
 -1     28621 4.54506E-02 8.91522E-02 2.39463E-04-6.72497E-02 5.89032E-06 8.10774E-06
 -1     28622 3.44999E-02 9.82869E-02-9.04408E-05-6.25945E-02-3.63571E-06-5.93299E-06
 -1     28623 4.49860E-02 8.98156E-02 2.59106E-04-6.89856E-02 8.39461E-06 1.15546E-05
 -1     28628 4.54432E-02 8.91444E-02 2.19824E-04-6.72492E-02 1.13849E-05 1.56710E-05
 -1     28629 3.45050E-02 9.82924E-02-7.66561E-05-6.25949E-02-5.58041E-06-9.10658E-06
 -1     28630 4.49743E-02 8.98032E-02 2.26466E-04-6.89846E-02 1.30275E-05 1.79317E-05
 -1     28635 4.54294E-02 8.91303E-02 1.85265E-04-6.72487E-02 1.57001E-05 2.16117E-05
 -1     28636 3.45135E-02 9.83011E-02-5.58611E-05-6.25950E-02-6.47060E-06-1.05598E-05
 -1     28637 4.49541E-02 8.97826E-02 1.75474E-04-6.89839E-02 1.57073E-05 2.16210E-05
 -1     28642 4.54066E-02 8.91077E-02 1.32872E-04-6.72491E-02 1.69230E-05 2.32975E-05
 -1     28643 3.45263E-02 9.83129E-02-3.07714E-05-6.25941E-02-5.00027E-06-8.16051E-06
 -1     28644 4.49210E-02 8.97506E-02 1.05481E-04-6.89856E-02 1.47180E-05 2.02601E-05
 -1     28649 4.53685E-02 8.90719E-02 5.82834E-05-6.72527E-02 1.12691E-05 1.55148E-05
 -1     28653 6.72202E-02 6.72202E-02 5.82839E-05-7.07137E-02-1.35530E-05-1.35648E-05
 -1     28654 5.54299E-02 7.74093E-02-3.07698E-05-6.93861E-02 6.21471E-06 7.27857E-06
 -1     28655 6.73358E-02 6.73358E-02 1.05480E-04-7.25358E-02-1.77042E-05-1.77101E-05
 -1     28660 6.72571E-02 6.72572E-02 1.32874E-04-7.07099E-02-2.03569E-05-2.03646E-05
 -1     28661 5.54175E-02 7.73971E-02-5.58597E-05-6.93871E-02 8.04222E-06 9.41853E-06
 -1     28662 6.73683E-02 6.73683E-02 1.75473E-04-7.25340E-02-1.88952E-05-1.88981E-05
 -1     28667 6.72798E-02 6.72799E-02 1.85267E-04-7.07095E-02-1.88862E-05-1.88903E-05
 -1     28668 5.54089E-02 7.73885E-02-7.66549E-05-6.93870E-02 6.93600E-06 8.12214E-06
 -1     28669 6.73888E-02 6.73888E-02 2.26465E-04-7.25347E-02-1.56716E-05-1.56731E-05
 -1     28674 6.72938E-02 6.72939E-02 2.19827E-04-7.07100E-02-1.36955E-05-1.36973E-05
 -1     28675 5.54037E-02 7.73832E-02-9.04399E-05-6.93866E-02 4.51899E-06 5.29152E-06
 -1     28676 6.74008E-02 6.74008E-02 2.59105E-04-7.25358E-02-1.00985E-05-1.00991E-05
 -1     28681 6.73014E-02 6.73014E-02 2.39465E-04-7.07105E-02-7.08588E-06-7.08647E-06
 -1     28682 5.54013E-02 7.73807E-02-9.71600E-05-6.93863E-02 1.55236E-06 1.81770E-06
 -1     28683 6.74063E-02 6.74064E-02 2.74914E-04-7.25365E-02-3.46434E-06-3.46451E-06
 -1     28688 6.73038E-02 6.73038E-02 2.45825E-04-7.07108E-02-9.44947E-15-1.94360E-14
 -1     28689 5.54013E-02 7.73807E-02-9.71600E-05-6.93863E-02-1.55236E-06-1.81770E-06
 -1     28690 6.74063E-02 6.74064E-02 2.74914E-04-7.25365E-02 3.46434E-06 3.46451E-06
 -1     28695 6.73014E-02 6.73014E-02 2.39465E-04-7.07105E-02 7.08588E-06 7.08647E-06
 -1     28696 5.54037E-02 7.73832E-02-9.04399E-05-6.93866E-02-4.51899E-06-5.29152E-06
 -1     28697 6.74008E-02 6.74008E-02 2.59105E-04-7.25358E-02 1.00985E-05 1.00991E-05
 -1     28702 6.72938E-02 6.72939E-02 2.19827E-04-7.07100E-02 1.36955E-05 1.36973E-05
 -1     28703 5.54089E-02 7.73885E-02-7.66549E-05-6.93870E-02-6.93600E-06-8.12214E-06
 -1     28704 6.73888E-02 6.73888E-02 2.26465E-04-7.25347E-02 1.56716E-05 1.56731E-05
 -1     28709 6.72798E-02 6.72799E-02 1.85267E-04-7.07095E-02 1.88862E-05 1.88903E-05
 -1     28710 5.54175E-02 7.73971E-02-5.58597E-05-6.93871E-02-8.04222E-06-9.41853E-06
 -1     28711 6.73683E-02 6.73683E-02 1.75473E-04-7.25340E-02 1.88952E-05 1.88981E-05
 -1     28716 6.72571E-02 6.72572E-02 1.32874E-04-7.07099E-02 2.03569E-05 2.03646E-05
 -1     28717 5.54299E-02 7.74093E-02-3.07698E-05-6.93861E-02-6.21471E-06-7.27857E-06
 -1     28718 6.73358E-02 6.73358E-02 1.05480E-04-7.25358E-02 1.77042E-05 1.77101E-05
 -1     28723 6.72202E-02 6.72202E-02 5.82839E-05-7.07137E-02 1.35530E-05 1.35648E-05
 -1     28727 8.90720E-02 4.53685E-02 5.82859E-05-6.72527E-02-1.55092E-05-1.12761E-05
 -1     28728 7.74093E-02 5.54299E-02-3.07744E-05-6.93861E-02 7.27530E-06 6.21779E-06
 -1     28729 8.97506E-02 4.49210E-02 1.05479E-04-6.89857E-02-2.02565E-05-1.47210E-05
 -1     28734 8.91077E-02 4.54066E-02 1.32881E-04-6.72492E-02-2.32907E-05-1.69273E-05
 -1     28735 7.73971E-02 5.54174E-02-5.58641E-05-6.93871E-02 9.41525E-06 8.04434E-06
 -1     28736 8.97826E-02 4.49541E-02 1.75471E-04-6.89839E-02-2.16177E-05-1.57082E-05
 -1     28741 8.91303E-02 4.54295E-02 1.85273E-04-6.72487E-02-2.16069E-05-1.57010E-05
 -1     28742 7.73885E-02 5.54089E-02-7.66586E-05-6.93870E-02 8.12002E-06 6.93691E-06
 -1     28743 8.98032E-02 4.49744E-02 2.26463E-04-6.89846E-02-1.79292E-05-1.30273E-05
 -1     28748 8.91445E-02 4.54433E-02 2.19831E-04-6.72492E-02-1.56680E-05-1.13847E-05
 -1     28749 7.73832E-02 5.54037E-02-9.04432E-05-6.93866E-02 5.29042E-06 4.51927E-06
 -1     28750 8.98156E-02 4.49860E-02 2.59103E-04-6.89857E-02-1.15531E-05-8.39423E-06
 -1     28755 8.91522E-02 4.54507E-02 2.39469E-04-6.72497E-02-8.10632E-06-5.89001E-06
 -1     28756 7.73807E-02 5.54012E-02-9.71631E-05-6.93863E-02 1.81736E-06 1.55241E-06
 -1     28757 8.98214E-02 4.49914E-02 2.74912E-04-6.89863E-02-3.96331E-06-2.87963E-06
 -1     28762 8.91547E-02 4.54530E-02 2.45829E-04-6.72500E-02-1.17708E-14 3.97416E-15
 -1     28763 7.73807E-02 5.54012E-02-9.71631E-05-6.93863E-02-1.81736E-06-1.55241E-06
 -1     28764 8.98214E-02 4.49914E-02 2.74912E-04-6.89863E-02 3.96331E-06 2.87963E-06
 -1     28769 8.91522E-02 4.54507E-02 2.39469E-04-6.72497E-02 8.10632E-06 5.89001E-06
 -1     28770 7.73832E-02 5.54037E-02-9.04432E-05-6.93866E-02-5.29042E-06-4.51927E-06
 -1     28771 8.98156E-02 4.49860E-02 2.59103E-04-6.89857E-02 1.15531E-05 8.39423E-06
 -1     28776 8.91445E-02 4.54433E-02 2.19831E-04-6.72492E-02 1.56680E-05 1.13847E-05
 -1     28777 7.73885E-02 5.54089E-02-7.66586E-05-6.93870E-02-8.12002E-06-6.93691E-06
 -1     28778 8.98032E-02 4.49744E-02 2.26463E-04-6.89846E-02 1.79292E-05 1.30273E-05
 -1     28783 8.91303E-02 4.54295E-02 1.85273E-04-6.72487E-02 2.16069E-05 1.57010E-05
 -1     28784 7.73971E-02 5.54174E-02-5.58641E-05-6.93871E-02-9.41525E-06-8.04434E-06
 -1     28785 8.97826E-02 4.49541E-02 1.75471E-04-6.89839E-02 2.16177E-05 1.57082E-05
 -1     28790 8.91077E-02 4.54066E-02 1.32881E-04-6.72492E-02 2.32907E-05 1.69273E-05
 -1     28791 7.74093E-02 5.54299E-02-3.07744E-05-6.93861E-02-7.27530E-06-6.21779E-06
 -1     28792 8.97506E-02 4.49210E-02 1.05479E-04-6.89857E-02 2.02565E-05 1.47210E-05
 -1     28797 8.90720E-02 4.53685E-02 5.82859E-05-6.72527E-02 1.55092E-05 1.12761E-05
 -1     28801 1.08785E-01 2.56558E-02 5.82841E-05-5.72086E-02-1.70851E-05-8.70600E-06
 -1     28802 9.83128E-02 3.45263E-02-3.07760E-05-6.25941E-02 8.15952E-06 5.00098E-06
 -1     28803 1.09971E-01 2.47003E-02 1.05480E-04-5.86827E-02-2.23118E-05-1.13690E-05
 -1     28808 1.08819E-01 2.56949E-02 1.32875E-04-5.72055E-02-2.56543E-05-1.30751E-05
 -1     28809 9.83011E-02 3.45135E-02-5.58655E-05-6.25950E-02 1.05582E-05 6.47102E-06
 -1     28810 1.10003E-01 2.47339E-02 1.75473E-04-5.86812E-02-2.38104E-05-1.21330E-05
 -1     28815 1.08842E-01 2.57179E-02 1.85267E-04-5.72052E-02-2.37995E-05-1.21277E-05
 -1     28816 9.82924E-02 3.45050E-02-7.66598E-05-6.25949E-02 9.10554E-06 5.58013E-06
 -1     28817 1.10024E-01 2.47540E-02 2.26465E-04-5.86818E-02-1.97478E-05-1.00625E-05
 -1     28822 1.08856E-01 2.57316E-02 2.19827E-04-5.72056E-02-1.72578E-05-8.79391E-06
 -1     28823 9.82869E-02 3.44999E-02-9.04441E-05-6.25945E-02 5.93238E-06 3.63543E-06
 -1     28824 1.10036E-01 2.47653E-02 2.59105E-04-5.86827E-02-1.27249E-05-6.48391E-06
 -1     28829 1.08864E-01 2.57388E-02 2.39465E-04-5.72060E-02-8.92874E-06-4.54972E-06
 -1     28830 9.82843E-02 3.44976E-02-9.71640E-05-6.25943E-02 2.03787E-06 1.24882E-06
 -1     28831 1.10042E-01 2.47705E-02 2.74914E-04-5.86833E-02-4.36530E-06-2.22432E-06
 -1     28836 1.08867E-01 2.57411E-02 2.45825E-04-5.72062E-02 2.24776E-14-2.80391E-15
 -1     28837 9.82843E-02 3.44976E-02-9.71640E-05-6.25943E-02-2.03787E-06-1.24882E-06
 -1     28838 1.10042E-01 2.47705E-02 2.74914E-04-5.86833E-02 4.36530E-06 2.22432E-06
 -1     28843 1.08864E-01 2.57388E-02 2.39465E-04-5.72060E-02 8.92874E-06 4.54972E-06
 -1     28844 9.82869E-02 3.44999E-02-9.04441E-05-6.25945E-02-5.93238E-06-3.63543E-06
 -1     28845 1.10036E-01 2.47653E-02 2.59105E-04-5.86827E-02 1.27249E-05 6.48391E-06
 -1     28850 1.08856E-01 2.57316E-02 2.19827E-04-5.72056E-02 1.72578E-05 8.79391E-06
 -1     28851 9.82924E-02 3.45050E-02-7.66598E-05-6.25949E-02-9.10554E-06-5.58013E-06
 -1     28852 1.10024E-01 2.47540E-02 2.26465E-04-5.86818E-02 1.97478E-05 1.00625E-05
 -1     28857 1.08842E-01 2.57179E-02 1.85267E-04-5.72052E-02 2.37995E-05 1.21277E-05
 -1     28858 9.83011E-02 3.45135E-02-5.58655E-05-6.25950E-02-1.05582E-05-6.47102E-06
 -1     28859 1.10003E-01 2.47339E-02 1.75473E-04-5.86812E-02 2.38104E-05 1.21330E-05
 -1     28864 1.08819E-01 2.56949E-02 1.32875E-04-5.72055E-02 2.56543E-05 1.30751E-05
 -1     28865 9.83128E-02 3.45263E-02-3.07760E-05-6.25941E-02-8.15952E-06-5.00098E-06
 -1     28866 1.09971E-01 2.47003E-02 1.05480E-04-5.86827E-02 2.23118E-05 1.13690E-05
 -1     28871 1.08785E-01 2.56558E-02 5.82841E-05-5.72086E-02 1.70851E-05 8.70600E-06
 -1     28875 1.24429E-01 1.00116E-02 5.82817E-05-4.15645E-02-1.82347E-05-5.93308E-06
 -1     28876 1.16095E-01 1.67447E-02-3.07684E-05-4.96749E-02 8.84208E-06 3.66346E-06
 -1     28877 1.26018E-01 8.65310E-03 1.05481E-04-4.26355E-02-2.38153E-05-7.74249E-06
 -1     28882 1.24463E-01 1.00516E-02 1.32868E-04-4.15623E-02-2.73851E-05-8.90497E-06
 -1     28883 1.16083E-01 1.67316E-02-5.58586E-05-4.96757E-02 1.14421E-05 4.74059E-06
 -1     28884 1.26050E-01 8.68707E-03 1.75474E-04-4.26344E-02-2.54164E-05-8.26087E-06
 -1     28889 1.24485E-01 1.00747E-02 1.85262E-04-4.15620E-02-2.54057E-05-8.25835E-06
 -1     28890 1.16074E-01 1.67231E-02-7.66540E-05-4.96756E-02 9.86786E-06 4.08769E-06
 -1     28891 1.26071E-01 8.70700E-03 2.26467E-04-4.26348E-02-2.10802E-05-6.85072E-06
 -1     28896 1.24499E-01 1.00883E-02 2.19823E-04-4.15623E-02-1.84227E-05-5.98746E-06
 -1     28897 1.16069E-01 1.67181E-02-9.04391E-05-4.96753E-02 6.42903E-06 2.66305E-06
 -1     28898 1.26083E-01 8.71812E-03 2.59107E-04-4.26355E-02-1.35836E-05-4.41418E-06
 -1     28903 1.24507E-01 1.00954E-02 2.39462E-04-4.15626E-02-9.53152E-06-3.09754E-06
 -1     28904 1.16066E-01 1.67159E-02-9.71592E-05-4.96751E-02 2.20847E-06 9.14789E-07
 -1     28905 1.26090E-01 8.72308E-03 2.74916E-04-4.26359E-02-4.65991E-06-1.51426E-06
 -1     28910 1.24510E-01 1.00976E-02 2.45821E-04-4.15628E-02-5.09328E-15-2.49096E-15
 -1     28911 1.16066E-01 1.67159E-02-9.71592E-05-4.96751E-02-2.20847E-06-9.14789E-07
 -1     28912 1.26090E-01 8.72308E-03 2.74916E-04-4.26359E-02 4.65991E-06 1.51426E-06
 -1     28917 1.24507E-01 1.00954E-02 2.39462E-04-4.15626E-02 9.53152E-06 3.09754E-06
 -1     28918 1.16069E-01 1.67181E-02-9.04391E-05-4.96753E-02-6.42903E-06-2.66305E-06
 -1     28919 1.26083E-01 8.71812E-03 2.59107E-04-4.26355E-02 1.35836E-05 4.41418E-06
 -1     28924 1.24499E-01 1.00883E-02 2.19823E-04-4.15623E-02 1.84227E-05 5.98746E-06
 -1     28925 1.16074E-01 1.67231E-02-7.66540E-05-4.96756E-02-9.86786E-06-4.08769E-06
 -1     28926 1.26071E-01 8.70700E-03 2.26467E-04-4.26348E-02 2.10802E-05 6.85072E-06
 -1     28931 1.24485E-01 1.00747E-02 1.85262E-04-4.15620E-02 2.54057E-05 8.25835E-06
 -1     28932 1.16083E-01 1.67316E-02-5.58586E-05-4.96757E-02-1.14421E-05-4.74059E-06
 -1     28933 1.26050E-01 8.68707E-03 1.75474E-04-4.26344E-02 2.54164E-05 8.26087E-06
 -1     28938 1.24463E-01 1.00516E-02 1.32868E-04-4.15623E-02 2.73851E-05 8.90497E-06
 -1     28939 1.16095E-01 1.67447E-02-3.07684E-05-4.96749E-02-8.84208E-06-3.66346E-06
 -1     28940 1.26018E-01 8.65310E-03 1.05481E-04-4.26355E-02 2.38153E-05 7.74249E-06
 -1     28945 1.24429E-01 1.00116E-02 5.82817E-05-4.15645E-02 1.82347E-05 5.93308E-06
 -1     28949 1.34473E-01-3.24718E-05 5.82847E-05-2.18517E-02-1.89366E-05-3.01399E-06
 -1     28950 1.29014E-01 3.82552E-03-3.07694E-05-3.18933E-02 9.30560E-06 2.23797E-06
 -1     28951 1.36321E-01-1.64984E-03 1.05478E-04-2.24148E-02-2.47313E-05-3.92439E-06
 -1     28956 1.34506E-01 8.02960E-06 1.32882E-04-2.18506E-02-2.84367E-05-4.51210E-06
 -1     28957 1.29002E-01 3.81227E-03-5.58597E-05-3.18937E-02 1.20420E-05 2.89449E-06
 -1     28958 1.36352E-01-1.61562E-03 1.75471E-04-2.24143E-02-2.63929E-05-4.18354E-06
 -1     28963 1.34529E-01 3.11667E-05 1.85274E-04-2.18505E-02-2.63802E-05-4.18292E-06
 -1     28964 1.28994E-01 3.80383E-03-7.66551E-05-3.18937E-02 1.03852E-05 2.49527E-06
 -1     28965 1.36373E-01-1.59578E-03 2.26462E-04-2.24145E-02-2.18895E-05-3.46878E-06
 -1     28970 1.34543E-01 4.46926E-05 2.19833E-04-2.18506E-02-1.91292E-05-3.03176E-06
 -1     28971 1.28988E-01 3.79891E-03-9.04403E-05-3.18935E-02 6.76612E-06 1.62530E-06
 -1     28972 1.36386E-01-1.58483E-03 2.59103E-04-2.24148E-02-1.41050E-05-2.23476E-06
 -1     28977 1.34551E-01 5.17335E-05 2.39472E-04-2.18508E-02-9.89704E-06-1.56816E-06
 -1     28978 1.28985E-01 3.79667E-03-9.71605E-05-3.18934E-02 2.32428E-06 5.58254E-07
 -1     28979 1.36393E-01-1.57996E-03 2.74912E-04-2.24151E-02-4.83876E-06-7.66569E-07
 -1     28984 1.34554E-01 5.39135E-05 2.45831E-04-2.18509E-02-8.79106E-16 1.45986E-14
 -1     28985 1.28985E-01 3.79667E-03-9.71605E-05-3.18934E-02-2.32428E-06-5.58254E-07
 -1     28986 1.36393E-01-1.57996E-03 2.74912E-04-2.24151E-02 4.83876E-06 7.66569E-07
 -1     28991 1.34551E-01 5.17335E-05 2.39472E-04-2.18508E-02 9.89704E-06 1.56816E-06
 -1     28992 1.28988E-01 3.79891E-03-9.04403E-05-3.18935E-02-6.76612E-06-1.62530E-06
 -1     28993 1.36386E-01-1.58483E-03 2.59103E-04-2.24148E-02 1.41050E-05 2.23476E-06
 -1     28998 1.34543E-01 4.46926E-05 2.19833E-04-2.18506E-02 1.91292E-05 3.03176E-06
 -1     28999 1.28994E-01 3.80383E-03-7.66551E-05-3.18937E-02-1.03852E-05-2.49527E-06
 -1     29000 1.36373E-01-1.59578E-03 2.26462E-04-2.24145E-02 2.18895E-05 3.46878E-06
 -1     29005 1.34529E-01 3.11667E-05 1.85274E-04-2.18505E-02 2.63802E-05 4.18292E-06
 -1     29006 1.29002E-01 3.81227E-03-5.58597E-05-3.18937E-02-1.20420E-05-2.89449E-06
 -1     29007 1.36352E-01-1.61562E-03 1.75471E-04-2.24143E-02 2.63929E-05 4.18354E-06
 -1     29012 1.34506E-01 8.02960E-06 1.32882E-04-2.18506E-02 2.84367E-05 4.51210E-06
 -1     29013 1.29014E-01 3.82552E-03-3.07694E-05-3.18933E-02-9.30560E-06-2.23797E-06
 -1     29014 1.36321E-01-1.64984E-03 1.05478E-04-2.24148E-02 2.47313E-05 3.92439E-06
 -1     29019 1.34473E-01-3.24718E-05 5.82847E-05-2.18517E-02 1.89366E-05 3.01399E-06
 -1     29023 1.35806E-01-2.96651E-03-3.07820E-05-1.09897E-02 9.53989E-06 7.54055E-07
 -1     29027 1.35794E-01-2.97986E-03-5.58714E-05-1.09898E-02 1.23436E-05 9.73831E-07
 -1     29031 1.35786E-01-2.98829E-03-7.66652E-05-1.09898E-02 1.06450E-05 8.39328E-07
 -1     29035 1.35780E-01-2.99316E-03-9.04494E-05-1.09897E-02 6.93532E-06 5.46559E-07
 -1     29039 1.35777E-01-2.99538E-03-9.71691E-05-1.09897E-02 2.38239E-06 1.87705E-07
 -1     29043 1.35777E-01-2.99538E-03-9.71691E-05-1.09897E-02-2.38239E-06-1.87705E-07
 -1     29047 1.35780E-01-2.99316E-03-9.04494E-05-1.09897E-02-6.93532E-06-5.46559E-07
 -1     29051 1.35786E-01-2.98829E-03-7.66652E-05-1.09898E-02-1.06450E-05-8.39328E-07
 -1     29055 1.35794E-01-2.97986E-03-5.58714E-05-1.09898E-02-1.23436E-05-9.73831E-07
 -1     29059 1.35806E-01-2.96651E-03-3.07820E-05-1.09897E-02-9.53989E-06-7.54055E-07
 -1     29065 1.63716E-03 1.32230E-01 1.02396E-05-2.12160E-02-3.53478E-06-2.23176E-05
 -1     29069 1.64865E-03 1.32239E-01 3.21547E-05-2.12157E-02-4.04216E-06-2.55213E-05
 -1     29073 1.65501E-03 1.32245E-01 4.67230E-05-2.12157E-02-3.28092E-06-2.07149E-05
 -1     29077 1.65832E-03 1.32249E-01 5.56268E-05-2.12157E-02-2.06391E-06-1.30310E-05
 -1     29081 1.65975E-03 1.32251E-01 5.98655E-05-2.12158E-02-6.97930E-07-4.40657E-06
 -1     29085 1.65975E-03 1.32251E-01 5.98655E-05-2.12158E-02 6.97930E-07 4.40657E-06
 -1     29089 1.65832E-03 1.32249E-01 5.56268E-05-2.12157E-02 2.06391E-06 1.30310E-05
 -1     29093 1.65501E-03 1.32245E-01 4.67230E-05-2.12157E-02 3.28092E-06 2.07149E-05
 -1     29097 1.64865E-03 1.32239E-01 3.21547E-05-2.12157E-02 4.04216E-06 2.55213E-05
 -1     29101 1.63716E-03 1.32230E-01 1.02396E-05-2.12160E-02 3.53478E-06 2.23176E-05
 -1     29107 1.13891E-02 1.22478E-01 1.02392E-05-4.03553E-02-6.98278E-06-2.14902E-05
 -1     29111 1.14004E-02 1.22487E-01 3.21543E-05-4.03546E-02-7.98474E-06-2.45748E-05
 -1     29115 1.14068E-02 1.22493E-01 4.67225E-05-4.03546E-02-6.48102E-06-1.99467E-05
 -1     29119 1.14101E-02 1.22497E-01 5.56263E-05-4.03547E-02-4.07698E-06-1.25477E-05
 -1     29123 1.14116E-02 1.22499E-01 5.98650E-05-4.03548E-02-1.37867E-06-4.24314E-06
 -1     29127 1.14116E-02 1.22499E-01 5.98650E-05-4.03548E-02 1.37867E-06 4.24314E-06
 -1     29131 1.14101E-02 1.22497E-01 5.56263E-05-4.03547E-02 4.07698E-06 1.25477E-05
 -1     29135 1.14068E-02 1.22493E-01 4.67225E-05-4.03546E-02 6.48102E-06 1.99467E-05
 -1     29139 1.14004E-02 1.22487E-01 3.21543E-05-4.03546E-02 7.98474E-06 2.45748E-05
 -1     29143 1.13891E-02 1.22478E-01 1.02392E-05-4.03553E-02 6.98278E-06 2.14902E-05
 -1     29149 2.65781E-02 1.07289E-01 1.02367E-05-5.55443E-02-1.02594E-05-2.01362E-05
 -1     29153 2.65892E-02 1.07298E-01 3.21515E-05-5.55434E-02-1.17303E-05-2.30238E-05
 -1     29157 2.65955E-02 1.07305E-01 4.67197E-05-5.55433E-02-9.52134E-06-1.86877E-05
 -1     29161 2.65989E-02 1.07308E-01 5.56233E-05-5.55435E-02-5.98956E-06-1.17557E-05
 -1     29165 2.66004E-02 1.07310E-01 5.98618E-05-5.55437E-02-2.02543E-06-3.97531E-06
 -1     29169 2.66004E-02 1.07310E-01 5.98618E-05-5.55437E-02 2.02543E-06 3.97531E-06
 -1     29173 2.65989E-02 1.07308E-01 5.56233E-05-5.55435E-02 5.98956E-06 1.17557E-05
 -1     29177 2.65955E-02 1.07305E-01 4.67197E-05-5.55433E-02 9.52134E-06 1.86877E-05
 -1     29181 2.65892E-02 1.07298E-01 3.21515E-05-5.55434E-02 1.17303E-05 2.30238E-05
 -1     29185 2.65781E-02 1.07289E-01 1.02367E-05-5.55443E-02 1.02594E-05 2.01362E-05
 -1     29191 4.57173E-02 8.81494E-02 1.02340E-05-6.52962E-02-1.32823E-05-1.82905E-05
 -1     29195 4.57280E-02 8.81594E-02 3.21485E-05-6.52951E-02-1.51857E-05-2.09082E-05
 -1     29199 4.57344E-02 8.81657E-02 4.67164E-05-6.52951E-02-1.23271E-05-1.69696E-05
 -1     29203 4.57378E-02 8.81694E-02 5.56197E-05-6.52953E-02-7.75481E-06-1.06748E-05
 -1     29207 4.57394E-02 8.81710E-02 5.98581E-05-6.52955E-02-2.62240E-06-3.60974E-06
 -1     29211 4.57394E-02 8.81710E-02 5.98581E-05-6.52955E-02 2.62240E-06 3.60974E-06
 -1     29215 4.57378E-02 8.81694E-02 5.56197E-05-6.52953E-02 7.75481E-06 1.06748E-05
 -1     29219 4.57344E-02 8.81657E-02 4.67164E-05-6.52951E-02 1.23271E-05 1.69696E-05
 -1     29223 4.57280E-02 8.81594E-02 3.21485E-05-6.52951E-02 1.51857E-05 2.09082E-05
 -1     29227 4.57173E-02 8.81494E-02 1.02340E-05-6.52962E-02 1.32823E-05 1.82905E-05
 -1     29233 6.69333E-02 6.69334E-02 1.02385E-05-6.86565E-02-1.59723E-05-1.59881E-05
 -1     29237 6.69437E-02 6.69438E-02 3.21533E-05-6.86553E-02-1.82663E-05-1.82778E-05
 -1     29241 6.69500E-02 6.69501E-02 4.67216E-05-6.86553E-02-1.48289E-05-1.48328E-05
 -1     29245 6.69535E-02 6.69537E-02 5.56252E-05-6.86555E-02-9.32899E-06-9.33011E-06
 -1     29249 6.69551E-02 6.69553E-02 5.98638E-05-6.86558E-02-3.15478E-06-3.15498E-06
 -1     29253 6.69551E-02 6.69553E-02 5.98638E-05-6.86558E-02 3.15478E-06 3.15498E-06
 -1     29257 6.69535E-02 6.69537E-02 5.56252E-05-6.86555E-02 9.32899E-06 9.33011E-06
 -1     29261 6.69500E-02 6.69501E-02 4.67216E-05-6.86553E-02 1.48289E-05 1.48328E-05
 -1     29265 6.69437E-02 6.69438E-02 3.21533E-05-6.86553E-02 1.82663E-05 1.82778E-05
 -1     29269 6.69333E-02 6.69334E-02 1.02385E-05-6.86565E-02 1.59723E-05 1.59881E-05
 -1     29275 8.81493E-02 4.57174E-02 1.02426E-05-6.52962E-02-1.82694E-05-1.32833E-05
 -1     29279 8.81594E-02 4.57282E-02 3.21581E-05-6.52951E-02-2.08989E-05-1.51920E-05
 -1     29283 8.81657E-02 4.57345E-02 4.67264E-05-6.52951E-02-1.69648E-05-1.23286E-05
 -1     29287 8.81693E-02 4.57380E-02 5.56307E-05-6.52953E-02-1.06724E-05-7.75495E-06
 -1     29291 8.81710E-02 4.57396E-02 5.98698E-05-6.52955E-02-3.60903E-06-2.62234E-06
 -1     29295 8.81710E-02 4.57396E-02 5.98698E-05-6.52955E-02 3.60903E-06 2.62234E-06
 -1     29299 8.81693E-02 4.57380E-02 5.56307E-05-6.52953E-02 1.06724E-05 7.75495E-06
 -1     29303 8.81657E-02 4.57345E-02 4.67264E-05-6.52951E-02 1.69648E-05 1.23286E-05
 -1     29307 8.81594E-02 4.57282E-02 3.21581E-05-6.52951E-02 2.08989E-05 1.51920E-05
 -1     29311 8.81493E-02 4.57174E-02 1.02426E-05-6.52962E-02 1.82694E-05 1.32833E-05
 -1     29317 1.07289E-01 2.65781E-02 1.02371E-05-5.55443E-02-2.01339E-05-1.02630E-05
 -1     29321 1.07298E-01 2.65892E-02 3.21521E-05-5.55434E-02-2.30217E-05-1.17345E-05
 -1     29325 1.07305E-01 2.65955E-02 4.67202E-05-5.55433E-02-1.86865E-05-9.52362E-06
 -1     29329 1.07308E-01 2.65989E-02 5.56239E-05-5.55435E-02-1.17551E-05-5.99081E-06
 -1     29333 1.07310E-01 2.66004E-02 5.98625E-05-5.55437E-02-3.97510E-06-2.02584E-06
 -1     29337 1.07310E-01 2.66004E-02 5.98625E-05-5.55437E-02 3.97510E-06 2.02584E-06
 -1     29341 1.07308E-01 2.65989E-02 5.56239E-05-5.55435E-02 1.17551E-05 5.99081E-06
 -1     29345 1.07305E-01 2.65955E-02 4.67202E-05-5.55433E-02 1.86865E-05 9.52362E-06
 -1     29349 1.07298E-01 2.65892E-02 3.21521E-05-5.55434E-02 2.30217E-05 1.17345E-05
 -1     29353 1.07289E-01 2.65781E-02 1.02371E-05-5.55443E-02 2.01339E-05 1.02630E-05
 -1     29359 1.22477E-01 1.13891E-02 1.02330E-05-4.03553E-02-2.14993E-05-6.99947E-06
 -1     29363 1.22487E-01 1.14004E-02 3.21474E-05-4.03547E-02-2.45753E-05-7.99520E-06
 -1     29367 1.22493E-01 1.14068E-02 4.67152E-05-4.03546E-02-1.99482E-05-6.48544E-06
 -1     29371 1.22497E-01 1.14101E-02 5.56182E-05-4.03548E-02-1.25489E-05-4.07876E-06
 -1     29375 1.22499E-01 1.14116E-02 5.98563E-05-4.03549E-02-4.24358E-06-1.37915E-06
 -1     29379 1.22499E-01 1.14116E-02 5.98563E-05-4.03549E-02 4.24358E-06 1.37915E-06
 -1     29383 1.22497E-01 1.14101E-02 5.56182E-05-4.03548E-02 1.25489E-05 4.07876E-06
 -1     29387 1.22493E-01 1.14068E-02 4.67152E-05-4.03546E-02 1.99482E-05 6.48544E-06
 -1     29391 1.22487E-01 1.14004E-02 3.21474E-05-4.03547E-02 2.45753E-05 7.99520E-06
 -1     29395 1.22477E-01 1.13891E-02 1.02330E-05-4.03553E-02 2.14993E-05 6.99947E-06
 -1     29401 1.32230E-01 1.63724E-03 1.02472E-05-2.12162E-02-2.23052E-05-3.55168E-06
 -1     29405 1.32239E-01 1.64873E-03 3.21632E-05-2.12158E-02-2.55182E-05-4.05456E-06
 -1     29409 1.32245E-01 1.65509E-03 4.67317E-05-2.12158E-02-2.07134E-05-3.28467E-06
 -1     29413 1.32249E-01 1.65840E-03 5.56362E-05-2.12159E-02-1.30303E-05-2.06461E-06
 -1     29417 1.32251E-01 1.65983E-03 5.98754E-05-2.12159E-02-4.40635E-06-6.97946E-07
 -1     29421 1.32251E-01 1.65983E-03 5.98754E-05-2.12159E-02 4.40635E-06 6.97946E-07
 -1     29425 1.32249E-01 1.65840E-03 5.56362E-05-2.12159E-02 1.30303E-05 2.06461E-06
 -1     29429 1.32245E-01 1.65509E-03 4.67317E-05-2.12158E-02 2.07134E-05 3.28467E-06
 -1     29433 1.32239E-01 1.64873E-03 3.21632E-05-2.12158E-02 2.55182E-05 4.05456E-06
 -1     29437 1.32230E-01 1.63724E-03 1.02472E-05-2.12162E-02 2.23052E-05 3.55168E-06
 -3
    1PSTEP                         3           1           1          
  100CL  101 1.000000000       15523                     0    1           1
 -4  ERROR       1    1
 -5  STR(%)      1    1    0    0
 -1         1 6.74940E-01
 -1         2 1.21524E-01
 -1         3 1.21527E-01
 -1         4 6.74940E-01
 -1         5 6.74940E-01
 -1         6 1.21524E-01
 -1         7 1.21527E-01
 -1         8 6.74940E-01
 -1         9 6.74940E-01
 -1        10 6.53594E-01
 -1        11 6.00956E-01
 -1        12 5.55108E-01
 -1        13 5.14682E-01
 -1        14 4.78821E-01
 -1        15 4.46740E-01
 -1        16 4.17858E-01
 -1        17 3.91703E-01
 -1        18 3.67900E-01
 -1        19 3.46144E-01
 -1        20 3.26181E-01
 -1        21 3.07803E-01
 -1        22 2.90834E-01
 -1        23 2.75123E-01
 -1        24 2.60543E-01
 -1        25 2.46985E-01
 -1        26 2.34353E-01
 -1        27 2.22563E-01
 -1        28 2.11543E-01
 -1        29 2.01227E-01
 -1        30 1.91557E-01
 -1        31 1.82476E-01
 -1        32 1.73932E-01
 -1        33 1.65865E-01
 -1        34 1.58198E-01
 -1        35 1.50822E-01
 -1        36 1.43527E-01
 -1        37 1.36204E-01
 -1        38 6.74940E-01
 -1        39 6.64267E-01
 -1        40 6.27275E-01
 -1        41 5.78032E-01
 -1        42 5.34895E-01
 -1        43 4.96752E-01
 -1        44 4.62781E-01
 -1        45 4.32299E-01
 -1        46 4.04780E-01
 -1        47 3.79801E-01
 -1        48 3.57022E-01
 -1        49 3.36163E-01
 -1        50 3.16992E-01
 -1        51 2.99318E-01
 -1        52 2.82978E-01
 -1        53 2.67833E-01
 -1        54 2.53764E-01
 -1        55 2.40669E-01
 -1        56 2.28458E-01
 -1        57 2.17053E-01
 -1        58 2.06385E-01
 -1        59 1.96392E-01
 -1        60 1.87016E-01
 -1        61 1.78204E-01
 -1        62 1.69898E-01
 -1        63 1.62031E-01
 -1        64 1.54510E-01
 -1        65 1.47174E-01
 -1        66 1.39865E-01
 -1        67 1.28864E-01
 -1        68 1.21524E-01
 -1        69 1.21524E-01
 -1        70 1.21524E-01
 -1        71 1.21525E-01
 -1        72 1.21526E-01
 -1        73 1.21526E-01
 -1        74 1.21525E-01
 -1        75 1.21526E-01
 -1        76 1.21527E-01
 -1        77 1.21524E-01
 -1        78 1.21524E-01
 -1        79 1.21524E-01
 -1        80 1.21524E-01
 -1        81 1.21525E-01
 -1        82 1.21526E-01
 -1        83 1.21526E-01
 -1        84 1.21525E-01
 -1        85 1.21526E-01
 -1        86 1.21527E-01
 -1        87 1.36205E-01
 -1        88 1.43527E-01
 -1        89 1.50822E-01
 -1        90 1.58198E-01
 -1        91 1.65865E-01
 -1        92 1.73932E-01
 -1        93 1.82476E-01
 -1        94 1.91557E-01
 -1        95 2.01227E-01
 -1        96 2.11543E-01
 -1        97 2.22563E-01
 -1        98 2.34353E-01
 -1        99 2.46985E-01
 -1       100 2.60543E-01
 -1       101 2.75123E-01
 -1       102 2.90834E-01
 -1       103 3.07803E-01
 -1       104 3.26181E-01
 -1       105 3.46144E-01
 -1       106 3.67900E-01
 -1       107 3.91703E-01
 -1       108 4.17858E-01
 -1       109 4.46740E-01
 -1       110 4.78821E-01
 -1       111 5.14682E-01
 -1       112 5.55108E-01
 -1       113 6.00956E-01
 -1       114 6.53594E-01
 -1       115 6.74940E-01
 -1       116 1.28866E-01
 -1       117 1.39866E-01
 -1       118 1.47175E-01
 -1       119 1.54510E-01
 -1       120 1.62031E-01
 -1       121 1.69898E-01
 -1       122 1.78204E-01
 -1       123 1.87016E-01
 -1       124 1.96392E-01
 -1       125 2.06385E-01
 -1       126 2.17053E-01
 -1       127 2.28458E-01
 -1       128 2.40669E-01
 -1       129 2.53764E-01
 -1       130 2.67833E-01
 -1       131 2.82978E-01
 -1       132 2.99318E-01
 -1       133 3.16992E-01
 -1       134 3.36163E-01
 -1       135 3.57022E-01
 -1       136 3.79801E-01
 -1       137 4.04780E-01
 -1       138 4.32299E-01
 -1       139 4.62781E-01
 -1       140 4.96752E-01
 -1       141 5.34895E-01
 -1       142 5.78032E-01
 -1       143 6.27275E-01
 -1       144 6.64267E-01
 -1       145 6.74940E-01
 -1       146 6.74940E-01
 -1       147 6.74940E-01
 -1       148 6.74940E-01
 -1       149 6.74940E-01
 -1       150 6.74940E-01
 -1       151 6.74940E-01
 -1       152 6.74940E-01
 -1       153 6.74940E-01
 -1       154 6.74940E-01
 -1       155 6.74940E-01
 -1       156 6.74940E-01
 -1       157 6.74940E-01
 -1       158 6.74940E-01
 -1       159 6.74940E-01
 -1       160 6.74940E-01
 -1       161 6.74940E-01
 -1       162 6.74940E-01
 -1       163 6.74940E-01
 -1       164 6.74940E-01
 -1       165 6.74940E-01
 -1       166 6.53594E-01
 -1       167 6.00956E-01
 -1       168 5.55108E-01
 -1       169 5.14682E-01
 -1       170 4.78821E-01
 -1       171 4.46740E-01
 -1       172 4.17858E-01
 -1       173 3.91703E-01
 -1       174 3.67900E-01
 -1       175 3.46144E-01
 -1       176 3.26181E-01
 -1       177 3.07803E-01
 -1       178 2.90834E-01
 -1       179 2.75123E-01
 -1       180 2.60543E-01
 -1       181 2.46985E-01
 -1       182 2.34353E-01
 -1       183 2.22563E-01
 -1       184 2.11543E-01
 -1       185 2.01227E-01
 -1       186 1.91557E-01
 -1       187 1.82476E-01
 -1       188 1.73932E-01
 -1       189 1.65865E-01
 -1       190 1.58198E-01
 -1       191 1.50822E-01
 -1       192 1.43527E-01
 -1       193 1.36204E-01
 -1       194 6.74940E-01
 -1       195 6.64267E-01
 -1       196 6.27275E-01
 -1       197 5.78032E-01
 -1       198 5.34895E-01
 -1       199 4.96752E-01
 -1       200 4.62781E-01
 -1       201 4.32299E-01
 -1       202 4.04780E-01
 -1       203 3.79801E-01
 -1       204 3.57022E-01
 -1       205 3.36163E-01
 -1       206 3.16992E-01
 -1       207 2.99318E-01
 -1       208 2.82978E-01
 -1       209 2.67833E-01
 -1       210 2.53764E-01
 -1       211 2.40669E-01
 -1       212 2.28458E-01
 -1       213 2.17053E-01
 -1       214 2.06385E-01
 -1       215 1.96392E-01
 -1       216 1.87016E-01
 -1       217 1.78204E-01
 -1       218 1.69898E-01
 -1       219 1.62031E-01
 -1       220 1.54510E-01
 -1       221 1.47174E-01
 -1       222 1.39865E-01
 -1       223 1.28864E-01
 -1       224 1.21524E-01
 -1       225 1.21524E-01
 -1       226 1.21524E-01
 -1       227 1.21525E-01
 -1       228 1.21526E-01
 -1       229 1.21526E-01
 -1       230 1.21525E-01
 -1       231 1.21526E-01
 -1       232 1.21527E-01
 -1       233 1.21524E-01
 -1       234 1.21524E-01
 -1       235 1.21524E-01
 -1       236 1.21524E-01
 -1       237 1.21525E-01
 -1       238 1.21526E-01
 -1       239 1.21526E-01
 -1       240 1.21525E-01
 -1       241 1.21526E-01
 -1       242 1.21527E-01
 -1       243 1.36205E-01
 -1       244 1.43527E-01
 -1       245 1.50822E-01
 -1       246 1.58198E-01
 -1       247 1.65865E-01
 -1       248 1.73932E-01
 -1       249 1.82476E-01
 -1       250 1.91557E-01
 -1       251 2.01227E-01
 -1       252 2.11543E-01
 -1       253 2.22563E-01
 -1       254 2.34353E-01
 -1       255 2.46985E-01
 -1       256 2.60543E-01
 -1       257 2.75123E-01
 -1       258 2.90834E-01
 -1       259 3.07803E-01
 -1       260 3.26181E-01
 -1       261 3.46144E-01
 -1       262 3.67900E-01
 -1       263 3.91703E-01
 -1       264 4.17858E-01
 -1       265 4.46740E-01
 -1       266 4.78821E-01
 -1       267 5.14682E-01
 -1       268 5.55108E-01
 -1       269 6.00956E-01
 -1       270 6.53594E-01
 -1       271 6.74940E-01
 -1       272 1.28866E-01
 -1       273 1.39866E-01
 -1       274 1.47175E-01
 -1       275 1.54510E-01
 -1       276 1.62031E-01
 -1       277 1.69898E-01
 -1       278 1.78204E-01
 -1       279 1.87016E-01
 -1       280 1.96392E-01
 -1       281 2.06385E-01
 -1       282 2.17053E-01
 -1       283 2.28458E-01
 -1       284 2.40669E-01
 -1       285 2.53764E-01
 -1       286 2.67833E-01
 -1       287 2.82978E-01
 -1       288 2.99318E-01
 -1       289 3.16992E-01
 -1       290 3.36163E-01
 -1       291 3.57022E-01
 -1       292 3.79801E-01
 -1       293 4.04780E-01
 -1       294 4.32299E-01
 -1       295 4.62781E-01
 -1       296 4.96752E-01
 -1       297 5.34895E-01
 -1       298 5.78032E-01
 -1       299 6.27275E-01
 -1       300 6.64267E-01
 -1       301 6.74940E-01
 -1       302 6.74940E-01
 -1       303 6.74940E-01
 -1       304 6.74940E-01
 -1       305 6.74940E-01
 -1       306 6.74940E-01
 -1       307 6.74940E-01
 -1       308 6.74940E-01
 -1       309 6.74940E-01
 -1       310 6.74940E-01
 -1       311 6.74940E-01
 -1       312 6.74940E-01
 -1       313 6.74940E-01
 -1       314 6.74940E-01
 -1       315 6.74940E-01
 -1       316 6.74940E-01
 -1       317 6.74940E-01
 -1       318 6.74940E-01
 -1       319 6.74940E-01
 -1       320 6.74940E-01
 -1       321 6.77203E-01
 -1       322 6.78677E-01
 -1       323 6.79136E-01
 -1       324 6.79302E-01
 -1       325 6.79337E-01
 -1       326 6.79337E-01
 -1       327 6.79302E-01
 -1       328 6.79136E-01
 -1       329 6.78677E-01
 -1       330 6.77203E-01
 -1       331 6.76071E-01
 -1       332 6.77940E-01
 -1       333 6.78907E-01
 -1       334 6.79219E-01
 -1       335 6.79320E-01
 -1       336 6.79337E-01
 -1       337 6.79320E-01
 -1       338 6.79219E-01
 -1       339 6.78907E-01
 -1       340 6.77940E-01
 -1       341 6.76071E-01
 -1       342 1.21907E-01
 -1       343 1.22103E-01
 -1       344 1.22235E-01
 -1       345 1.22305E-01
 -1       346 1.22326E-01
 -1       347 1.22326E-01
 -1       348 1.22305E-01
 -1       349 1.22235E-01
 -1       350 1.22103E-01
 -1       351 1.21907E-01
 -1       352 1.21716E-01
 -1       353 1.22005E-01
 -1       354 1.22169E-01
 -1       355 1.22270E-01
 -1       356 1.22315E-01
 -1       357 1.22326E-01
 -1       358 1.22315E-01
 -1       359 1.22270E-01
 -1       360 1.22169E-01
 -1       361 1.22005E-01
 -1       362 1.21716E-01
 -1       363 1.21911E-01
 -1       364 1.22107E-01
 -1       365 1.22239E-01
 -1       366 1.22309E-01
 -1       367 1.22331E-01
 -1       368 1.22331E-01
 -1       369 1.22309E-01
 -1       370 1.22239E-01
 -1       371 1.22107E-01
 -1       372 1.21911E-01
 -1       373 1.21719E-01
 -1       374 1.22009E-01
 -1       375 1.22173E-01
 -1       376 1.22274E-01
 -1       377 1.22320E-01
 -1       378 1.22331E-01
 -1       379 1.22320E-01
 -1       380 1.22274E-01
 -1       381 1.22173E-01
 -1       382 1.22009E-01
 -1       383 1.21719E-01
 -1       384 6.77203E-01
 -1       385 6.78677E-01
 -1       386 6.79136E-01
 -1       387 6.79302E-01
 -1       388 6.79337E-01
 -1       389 6.79337E-01
 -1       390 6.79302E-01
 -1       391 6.79136E-01
 -1       392 6.78677E-01
 -1       393 6.77203E-01
 -1       394 6.76071E-01
 -1       395 6.77940E-01
 -1       396 6.78907E-01
 -1       397 6.79219E-01
 -1       398 6.79320E-01
 -1       399 6.79337E-01
 -1       400 6.79320E-01
 -1       401 6.79219E-01
 -1       402 6.78907E-01
 -1       403 6.77940E-01
 -1       404 6.76071E-01
 -1       405 6.74940E-01
 -1       406 6.74940E-01
 -1       407 6.74940E-01
 -1       408 6.74940E-01
 -1       409 6.74940E-01
 -1       410 6.74940E-01
 -1       411 6.74940E-01
 -1       412 6.74940E-01
 -1       413 6.74940E-01
 -1       414 6.53594E-01
 -1       415 6.53594E-01
 -1       416 6.53594E-01
 -1       417 6.53594E-01
 -1       418 6.53594E-01
 -1       419 6.53594E-01
 -1       420 6.53594E-01
 -1       421 6.53594E-01
 -1       422 6.53594E-01
 -1       423 6.00956E-01
 -1       424 6.00956E-01
 -1       425 6.00956E-01
 -1       426 6.00956E-01
 -1       427 6.00956E-01
 -1       428 6.00956E-01
 -1       429 6.00956E-01
 -1       430 6.00956E-01
 -1       431 6.00956E-01
 -1       432 5.55108E-01
 -1       433 5.55108E-01
 -1       434 5.55108E-01
 -1       435 5.55108E-01
 -1       436 5.55108E-01
 -1       437 5.55108E-01
 -1       438 5.55108E-01
 -1       439 5.55108E-01
 -1       440 5.55108E-01
 -1       441 5.14682E-01
 -1       442 5.14682E-01
 -1       443 5.14682E-01
 -1       444 5.14682E-01
 -1       445 5.14682E-01
 -1       446 5.14682E-01
 -1       447 5.14682E-01
 -1       448 5.14682E-01
 -1       449 5.14682E-01
 -1       450 4.78821E-01
 -1       451 4.78821E-01
 -1       452 4.78821E-01
 -1       453 4.78821E-01
 -1       454 4.78821E-01
 -1       455 4.78821E-01
 -1       456 4.78821E-01
 -1       457 4.78821E-01
 -1       458 4.78821E-01
 -1       459 4.46740E-01
 -1       460 4.46740E-01
 -1       461 4.46740E-01
 -1       462 4.46740E-01
 -1       463 4.46740E-01
 -1       464 4.46740E-01
 -1       465 4.46740E-01
 -1       466 4.46740E-01
 -1       467 4.46740E-01
 -1       468 4.17858E-01
 -1       469 4.17858E-01
 -1       470 4.17858E-01
 -1       471 4.17858E-01
 -1       472 4.17858E-01
 -1       473 4.17858E-01
 -1       474 4.17858E-01
 -1       475 4.17858E-01
 -1       476 4.17858E-01
 -1       477 3.91703E-01
 -1       478 3.91703E-01
 -1       479 3.91703E-01
 -1       480 3.91703E-01
 -1       481 3.91703E-01
 -1       482 3.91703E-01
 -1       483 3.91703E-01
 -1       484 3.91703E-01
 -1       485 3.91703E-01
 -1       486 3.67900E-01
 -1       487 3.67900E-01
 -1       488 3.67900E-01
 -1       489 3.67900E-01
 -1       490 3.67900E-01
 -1       491 3.67900E-01
 -1       492 3.67900E-01
 -1       493 3.67900E-01
 -1       494 3.67900E-01
 -1       495 3.46144E-01
 -1       496 3.46144E-01
 -1       497 3.46144E-01
 -1       498 3.46144E-01
 -1       499 3.46144E-01
 -1       500 3.46144E-01
 -1       501 3.46144E-01
 -1       502 3.46144E-01
 -1       503 3.46144E-01
 -1       504 3.26181E-01
 -1       505 3.26181E-01
 -1       506 3.26181E-01
 -1       507 3.26181E-01
 -1       508 3.26181E-01
 -1       509 3.26181E-01
 -1       510 3.26181E-01
 -1       511 3.26181E-01
 -1       512 3.26181E-01
 -1       513 3.07803E-01
 -1       514 3.07803E-01
 -1       515 3.07803E-01
 -1       516 3.07803E-01
 -1       517 3.07803E-01
 -1       518 3.07803E-01
 -1       519 3.07803E-01
 -1       520 3.07803E-01
 -1       521 3.07803E-01
 -1       522 2.90834E-01
 -1       523 2.90834E-01
 -1       524 2.90834E-01
 -1       525 2.90834E-01
 -1       526 2.90834E-01
 -1       527 2.90834E-01
 -1       528 2.90834E-01
 -1       529 2.90834E-01
 -1       530 2.90834E-01
 -1       531 2.75123E-01
 -1       532 2.75123E-01
 -1       533 2.75123E-01
 -1       534 2.75123E-01
 -1       535 2.75123E-01
 -1       536 2.75123E-01
 -1       537 2.75123E-01
 -1       538 2.75123E-01
 -1       539 2.75123E-01
 -1       540 2.60543E-01
 -1       541 2.60543E-01
 -1       542 2.60543E-01
 -1       543 2.60543E-01
 -1       544 2.60543E-01
 -1       545 2.60543E-01
 -1       546 2.60543E-01
 -1       547 2.60543E-01
 -1       548 2.60543E-01
 -1       549 2.46985E-01
 -1       550 2.46985E-01
 -1       551 2.46985E-01
 -1       552 2.46985E-01
 -1       553 2.46985E-01
 -1       554 2.46985E-01
 -1       555 2.46985E-01
 -1       556 2.46985E-01
 -1       557 2.46985E-01
 -1       558 2.34353E-01
 -1       559 2.34353E-01
 -1       560 2.34353E-01
 -1       561 2.34353E-01
 -1       562 2.34353E-01
 -1       563 2.34353E-01
 -1       564 2.34353E-01
 -1       565 2.34353E-01
 -1       566 2.34353E-01
 -1       567 2.22563E-01
 -1       568 2.22563E-01
 -1       569 2.22563E-01
 -1       570 2.22563E-01
 -1       571 2.22563E-01
 -1       572 2.22563E-01
 -1       573 2.22563E-01
 -1       574 2.22563E-01
 -1       575 2.22563E-01
 -1       576 2.11543E-01
 -1       577 2.11543E-01
 -1       578 2.11543E-01
 -1       579 2.11543E-01
 -1       580 2.11543E-01
 -1       581 2.11543E-01
 -1       582 2.11543E-01
 -1       583 2.11543E-01
 -1       584 2.11543E-01
 -1       585 2.01227E-01
 -1       586 2.01227E-01
 -1       587 2.01227E-01
 -1       588 2.01227E-01
 -1       589 2.01227E-01
 -1       590 2.01227E-01
 -1       591 2.01227E-01
 -1       592 2.01227E-01
 -1       593 2.01227E-01
 -1       594 1.91557E-01
 -1       595 1.91557E-01
 -1       596 1.91557E-01
 -1       597 1.91557E-01
 -1       598 1.91557E-01
 -1       599 1.91557E-01
 -1       600 1.91557E-01
 -1       601 1.91557E-01
 -1       602 1.91557E-01
 -1       603 1.82476E-01
 -1       604 1.82476E-01
 -1       605 1.82476E-01
 -1       606 1.82476E-01
 -1       607 1.82476E-01
 -1       608 1.82476E-01
 -1       609 1.82476E-01
 -1       610 1.82476E-01
 -1       611 1.82476E-01
 -1       612 1.73932E-01
 -1       613 1.73932E-01
 -1       614 1.73932E-01
 -1       615 1.73932E-01
 -1       616 1.73932E-01
 -1       617 1.73932E-01
 -1       618 1.73932E-01
 -1       619 1.73932E-01
 -1       620 1.73932E-01
 -1       621 1.65865E-01
 -1       622 1.65865E-01
 -1       623 1.65865E-01
 -1       624 1.65865E-01
 -1       625 1.65865E-01
 -1       626 1.65865E-01
 -1       627 1.65865E-01
 -1       628 1.65865E-01
 -1       629 1.65865E-01
 -1       630 1.58198E-01
 -1       631 1.58198E-01
 -1       632 1.58198E-01
 -1       633 1.58198E-01
 -1       634 1.58198E-01
 -1       635 1.58198E-01
 -1       636 1.58198E-01
 -1       637 1.58198E-01
 -1       638 1.58198E-01
 -1       639 1.50822E-01
 -1       640 1.50822E-01
 -1       641 1.50822E-01
 -1       642 1.50822E-01
 -1       643 1.50822E-01
 -1       644 1.50822E-01
 -1       645 1.50822E-01
 -1       646 1.50822E-01
 -1       647 1.50822E-01
 -1       648 1.43527E-01
 -1       649 1.43527E-01
 -1       650 1.43527E-01
 -1       651 1.43527E-01
 -1       652 1.43527E-01
 -1       653 1.43527E-01
 -1       654 1.43527E-01
 -1       655 1.43527E-01
 -1       656 1.43527E-01
 -1       657 1.36204E-01
 -1       658 1.36204E-01
 -1       659 1.36204E-01
 -1       660 1.36204E-01
 -1       661 1.36205E-01
 -1       662 1.36205E-01
 -1       663 1.36204E-01
 -1       664 1.36204E-01
 -1       665 1.36205E-01
 -1       666 6.74940E-01
 -1       667 6.74940E-01
 -1       669 6.74940E-01
 -1       670 6.74940E-01
 -1       672 6.74940E-01
 -1       673 6.74940E-01
 -1       675 6.74940E-01
 -1       676 6.74940E-01
 -1       678 6.74940E-01
 -1       679 6.74940E-01
 -1       681 6.74940E-01
 -1       682 6.74940E-01
 -1       684 6.74940E-01
 -1       685 6.74940E-01
 -1       687 6.74940E-01
 -1       688 6.74940E-01
 -1       690 6.74940E-01
 -1       691 6.74940E-01
 -1       693 6.74940E-01
 -1       695 6.53594E-01
 -1       696 6.64267E-01
 -1       698 6.53594E-01
 -1       699 6.64267E-01
 -1       701 6.53594E-01
 -1       702 6.64267E-01
 -1       704 6.53594E-01
 -1       705 6.64267E-01
 -1       707 6.53594E-01
 -1       708 6.64267E-01
 -1       710 6.53594E-01
 -1       711 6.64267E-01
 -1       713 6.53594E-01
 -1       714 6.64267E-01
 -1       716 6.53594E-01
 -1       717 6.64267E-01
 -1       719 6.53594E-01
 -1       720 6.64267E-01
 -1       722 6.53594E-01
 -1       724 6.00956E-01
 -1       725 6.27275E-01
 -1       727 6.00956E-01
 -1       728 6.27275E-01
 -1       730 6.00956E-01
 -1       731 6.27275E-01
 -1       733 6.00956E-01
 -1       734 6.27275E-01
 -1       736 6.00956E-01
 -1       737 6.27275E-01
 -1       739 6.00956E-01
 -1       740 6.27275E-01
 -1       742 6.00956E-01
 -1       743 6.27275E-01
 -1       745 6.00956E-01
 -1       746 6.27275E-01
 -1       748 6.00956E-01
 -1       749 6.27275E-01
 -1       751 6.00956E-01
 -1       753 5.55108E-01
 -1       754 5.78032E-01
 -1       756 5.55108E-01
 -1       757 5.78032E-01
 -1       759 5.55108E-01
 -1       760 5.78032E-01
 -1       762 5.55108E-01
 -1       763 5.78032E-01
 -1       765 5.55108E-01
 -1       766 5.78032E-01
 -1       768 5.55108E-01
 -1       769 5.78032E-01
 -1       771 5.55108E-01
 -1       772 5.78032E-01
 -1       774 5.55108E-01
 -1       775 5.78032E-01
 -1       777 5.55108E-01
 -1       778 5.78032E-01
 -1       780 5.55108E-01
 -1       782 5.14682E-01
 -1       783 5.34895E-01
 -1       785 5.14682E-01
 -1       786 5.34895E-01
 -1       788 5.14682E-01
 -1       789 5.34895E-01
 -1       791 5.14682E-01
 -1       792 5.34895E-01
 -1       794 5.14682E-01
 -1       795 5.34895E-01
 -1       797 5.14682E-01
 -1       798 5.34895E-01
 -1       800 5.14682E-01
 -1       801 5.34895E-01
 -1       803 5.14682E-01
 -1       804 5.34895E-01
 -1       806 5.14682E-01
 -1       807 5.34895E-01
 -1       809 5.14682E-01
 -1       811 4.78821E-01
 -1       812 4.96752E-01
 -1       814 4.78821E-01
 -1       815 4.96752E-01
 -1       817 4.78821E-01
 -1       818 4.96752E-01
 -1       820 4.78821E-01
 -1       821 4.96752E-01
 -1       823 4.78821E-01
 -1       824 4.96752E-01
 -1       826 4.78821E-01
 -1       827 4.96752E-01
 -1       829 4.78821E-01
 -1       830 4.96752E-01
 -1       832 4.78821E-01
 -1       833 4.96752E-01
 -1       835 4.78821E-01
 -1       836 4.96752E-01
 -1       838 4.78821E-01
 -1       840 4.46740E-01
 -1       841 4.62781E-01
 -1       843 4.46740E-01
 -1       844 4.62781E-01
 -1       846 4.46740E-01
 -1       847 4.62781E-01
 -1       849 4.46740E-01
 -1       850 4.62781E-01
 -1       852 4.46740E-01
 -1       853 4.62781E-01
 -1       855 4.46740E-01
 -1       856 4.62781E-01
 -1       858 4.46740E-01
 -1       859 4.62781E-01
 -1       861 4.46740E-01
 -1       862 4.62781E-01
 -1       864 4.46740E-01
 -1       865 4.62781E-01
 -1       867 4.46740E-01
 -1       869 4.17858E-01
 -1       870 4.32299E-01
 -1       872 4.17858E-01
 -1       873 4.32299E-01
 -1       875 4.17858E-01
 -1       876 4.32299E-01
 -1       878 4.17858E-01
 -1       879 4.32299E-01
 -1       881 4.17858E-01
 -1       882 4.32299E-01
 -1       884 4.17858E-01
 -1       885 4.32299E-01
 -1       887 4.17858E-01
 -1       888 4.32299E-01
 -1       890 4.17858E-01
 -1       891 4.32299E-01
 -1       893 4.17858E-01
 -1       894 4.32299E-01
 -1       896 4.17858E-01
 -1       898 3.91703E-01
 -1       899 4.04780E-01
 -1       901 3.91703E-01
 -1       902 4.04780E-01
 -1       904 3.91703E-01
 -1       905 4.04780E-01
 -1       907 3.91703E-01
 -1       908 4.04780E-01
 -1       910 3.91703E-01
 -1       911 4.04780E-01
 -1       913 3.91703E-01
 -1       914 4.04780E-01
 -1       916 3.91703E-01
 -1       917 4.04780E-01
 -1       919 3.91703E-01
 -1       920 4.04780E-01
 -1       922 3.91703E-01
 -1       923 4.04780E-01
 -1       925 3.91703E-01
 -1       927 3.67900E-01
 -1       928 3.79801E-01
 -1       930 3.67900E-01
 -1       931 3.79801E-01
 -1       933 3.67900E-01
 -1       934 3.79801E-01
 -1       936 3.67900E-01
 -1       937 3.79801E-01
 -1       939 3.67900E-01
 -1       940 3.79801E-01
 -1       942 3.67900E-01
 -1       943 3.79801E-01
 -1       945 3.67900E-01
 -1       946 3.79801E-01
 -1       948 3.67900E-01
 -1       949 3.79801E-01
 -1       951 3.67900E-01
 -1       952 3.79801E-01
 -1       954 3.67900E-01
 -1       956 3.46144E-01
 -1       957 3.57022E-01
 -1       959 3.46144E-01
 -1       960 3.57022E-01
 -1       962 3.46144E-01
 -1       963 3.57022E-01
 -1       965 3.46144E-01
 -1       966 3.57022E-01
 -1       968 3.46144E-01
 -1       969 3.57022E-01
 -1       971 3.46144E-01
 -1       972 3.57022E-01
 -1       974 3.46144E-01
 -1       975 3.57022E-01
 -1       977 3.46144E-01
 -1       978 3.57022E-01
 -1       980 3.46144E-01
 -1       981 3.57022E-01
 -1       983 3.46144E-01
 -1       985 3.26181E-01
 -1       986 3.36163E-01
 -1       988 3.26181E-01
 -1       989 3.36163E-01
 -1       991 3.26181E-01
 -1       992 3.36163E-01
 -1       994 3.26181E-01
 -1       995 3.36163E-01
 -1       997 3.26181E-01
 -1       998 3.36163E-01
 -1      1000 3.26181E-01
 -1      1001 3.36163E-01
 -1      1003 3.26181E-01
 -1      1004 3.36163E-01
 -1      1006 3.26181E-01
 -1      1007 3.36163E-01
 -1      1009 3.26181E-01
 -1      1010 3.36163E-01
 -1      1012 3.26181E-01
 -1      1014 3.07803E-01
 -1      1015 3.16992E-01
 -1      1017 3.07803E-01
 -1      1018 3.16992E-01
 -1      1020 3.07803E-01
 -1      1021 3.16992E-01
 -1      1023 3.07803E-01
 -1      1024 3.16992E-01
 -1      1026 3.07803E-01
 -1      1027 3.16992E-01
 -1      1029 3.07803E-01
 -1      1030 3.16992E-01
 -1      1032 3.07803E-01
 -1      1033 3.16992E-01
 -1      1035 3.07803E-01
 -1      1036 3.16992E-01
 -1      1038 3.07803E-01
 -1      1039 3.16992E-01
 -1      1041 3.07803E-01
 -1      1043 2.90834E-01
 -1      1044 2.99318E-01
 -1      1046 2.90834E-01
 -1      1047 2.99318E-01
 -1      1049 2.90834E-01
 -1      1050 2.99318E-01
 -1      1052 2.90834E-01
 -1      1053 2.99318E-01
 -1      1055 2.90834E-01
 -1      1056 2.99318E-01
 -1      1058 2.90834E-01
 -1      1059 2.99318E-01
 -1      1061 2.90834E-01
 -1      1062 2.99318E-01
 -1      1064 2.90834E-01
 -1      1065 2.99318E-01
 -1      1067 2.90834E-01
 -1      1068 2.99318E-01
 -1      1070 2.90834E-01
 -1      1072 2.75123E-01
 -1      1073 2.82978E-01
 -1      1075 2.75123E-01
 -1      1076 2.82978E-01
 -1      1078 2.75123E-01
 -1      1079 2.82978E-01
 -1      1081 2.75123E-01
 -1      1082 2.82978E-01
 -1      1084 2.75123E-01
 -1      1085 2.82978E-01
 -1      1087 2.75123E-01
 -1      1088 2.82978E-01
 -1      1090 2.75123E-01
 -1      1091 2.82978E-01
 -1      1093 2.75123E-01
 -1      1094 2.82978E-01
 -1      1096 2.75123E-01
 -1      1097 2.82978E-01
 -1      1099 2.75123E-01
 -1      1101 2.60543E-01
 -1      1102 2.67833E-01
 -1      1104 2.60543E-01
 -1      1105 2.67833E-01
 -1      1107 2.60543E-01
 -1      1108 2.67833E-01
 -1      1110 2.60543E-01
 -1      1111 2.67833E-01
 -1      1113 2.60543E-01
 -1      1114 2.67833E-01
 -1      1116 2.60543E-01
 -1      1117 2.67833E-01
 -1      1119 2.60543E-01
 -1      1120 2.67833E-01
 -1      1122 2.60543E-01
 -1      1123 2.67833E-01
 -1      1125 2.60543E-01
 -1      1126 2.67833E-01
 -1      1128 2.60543E-01
 -1      1130 2.46985E-01
 -1      1131 2.53764E-01
 -1      1133 2.46985E-01
 -1      1134 2.53764E-01
 -1      1136 2.46985E-01
 -1      1137 2.53764E-01
 -1      1139 2.46985E-01
 -1      1140 2.53764E-01
 -1      1142 2.46985E-01
 -1      1143 2.53764E-01
 -1      1145 2.46985E-01
 -1      1146 2.53764E-01
 -1      1148 2.46985E-01
 -1      1149 2.53764E-01
 -1      1151 2.46985E-01
 -1      1152 2.53764E-01
 -1      1154 2.46985E-01
 -1      1155 2.53764E-01
 -1      1157 2.46985E-01
 -1      1159 2.34353E-01
 -1      1160 2.40669E-01
 -1      1162 2.34353E-01
 -1      1163 2.40669E-01
 -1      1165 2.34353E-01
 -1      1166 2.40669E-01
 -1      1168 2.34353E-01
 -1      1169 2.40669E-01
 -1      1171 2.34353E-01
 -1      1172 2.40669E-01
 -1      1174 2.34353E-01
 -1      1175 2.40669E-01
 -1      1177 2.34353E-01
 -1      1178 2.40669E-01
 -1      1180 2.34353E-01
 -1      1181 2.40669E-01
 -1      1183 2.34353E-01
 -1      1184 2.40669E-01
 -1      1186 2.34353E-01
 -1      1188 2.22563E-01
 -1      1189 2.28458E-01
 -1      1191 2.22563E-01
 -1      1192 2.28458E-01
 -1      1194 2.22563E-01
 -1      1195 2.28458E-01
 -1      1197 2.22563E-01
 -1      1198 2.28458E-01
 -1      1200 2.22563E-01
 -1      1201 2.28458E-01
 -1      1203 2.22563E-01
 -1      1204 2.28458E-01
 -1      1206 2.22563E-01
 -1      1207 2.28458E-01
 -1      1209 2.22563E-01
 -1      1210 2.28458E-01
 -1      1212 2.22563E-01
 -1      1213 2.28458E-01
 -1      1215 2.22563E-01
 -1      1217 2.11543E-01
 -1      1218 2.17053E-01
 -1      1220 2.11543E-01
 -1      1221 2.17053E-01
 -1      1223 2.11543E-01
 -1      1224 2.17053E-01
 -1      1226 2.11543E-01
 -1      1227 2.17053E-01
 -1      1229 2.11543E-01
 -1      1230 2.17053E-01
 -1      1232 2.11543E-01
 -1      1233 2.17053E-01
 -1      1235 2.11543E-01
 -1      1236 2.17053E-01
 -1      1238 2.11543E-01
 -1      1239 2.17053E-01
 -1      1241 2.11543E-01
 -1      1242 2.17053E-01
 -1      1244 2.11543E-01
 -1      1246 2.01227E-01
 -1      1247 2.06385E-01
 -1      1249 2.01227E-01
 -1      1250 2.06385E-01
 -1      1252 2.01227E-01
 -1      1253 2.06385E-01
 -1      1255 2.01227E-01
 -1      1256 2.06385E-01
 -1      1258 2.01227E-01
 -1      1259 2.06385E-01
 -1      1261 2.01227E-01
 -1      1262 2.06385E-01
 -1      1264 2.01227E-01
 -1      1265 2.06385E-01
 -1      1267 2.01227E-01
 -1      1268 2.06385E-01
 -1      1270 2.01227E-01
 -1      1271 2.06385E-01
 -1      1273 2.01227E-01
 -1      1275 1.91557E-01
 -1      1276 1.96392E-01
 -1      1278 1.91557E-01
 -1      1279 1.96392E-01
 -1      1281 1.91557E-01
 -1      1282 1.96392E-01
 -1      1284 1.91557E-01
 -1      1285 1.96392E-01
 -1      1287 1.91557E-01
 -1      1288 1.96392E-01
 -1      1290 1.91557E-01
 -1      1291 1.96392E-01
 -1      1293 1.91557E-01
 -1      1294 1.96392E-01
 -1      1296 1.91557E-01
 -1      1297 1.96392E-01
 -1      1299 1.91557E-01
 -1      1300 1.96392E-01
 -1      1302 1.91557E-01
 -1      1304 1.82476E-01
 -1      1305 1.87016E-01
 -1      1307 1.82476E-01
 -1      1308 1.87016E-01
 -1      1310 1.82476E-01
 -1      1311 1.87016E-01
 -1      1313 1.82476E-01
 -1      1314 1.87016E-01
 -1      1316 1.82476E-01
 -1      1317 1.87016E-01
 -1      1319 1.82476E-01
 -1      1320 1.87016E-01
 -1      1322 1.82476E-01
 -1      1323 1.87016E-01
 -1      1325 1.82476E-01
 -1      1326 1.87016E-01
 -1      1328 1.82476E-01
 -1      1329 1.87016E-01
 -1      1331 1.82476E-01
 -1      1333 1.73932E-01
 -1      1334 1.78204E-01
 -1      1336 1.73932E-01
 -1      1337 1.78204E-01
 -1      1339 1.73932E-01
 -1      1340 1.78204E-01
 -1      1342 1.73932E-01
 -1      1343 1.78204E-01
 -1      1345 1.73932E-01
 -1      1346 1.78204E-01
 -1      1348 1.73932E-01
 -1      1349 1.78204E-01
 -1      1351 1.73932E-01
 -1      1352 1.78204E-01
 -1      1354 1.73932E-01
 -1      1355 1.78204E-01
 -1      1357 1.73932E-01
 -1      1358 1.78204E-01
 -1      1360 1.73932E-01
 -1      1362 1.65865E-01
 -1      1363 1.69898E-01
 -1      1365 1.65865E-01
 -1      1366 1.69898E-01
 -1      1368 1.65865E-01
 -1      1369 1.69898E-01
 -1      1371 1.65865E-01
 -1      1372 1.69898E-01
 -1      1374 1.65865E-01
 -1      1375 1.69898E-01
 -1      1377 1.65865E-01
 -1      1378 1.69898E-01
 -1      1380 1.65865E-01
 -1      1381 1.69898E-01
 -1      1383 1.65865E-01
 -1      1384 1.69898E-01
 -1      1386 1.65865E-01
 -1      1387 1.69898E-01
 -1      1389 1.65865E-01
 -1      1391 1.58198E-01
 -1      1392 1.62031E-01
 -1      1394 1.58198E-01
 -1      1395 1.62031E-01
 -1      1397 1.58198E-01
 -1      1398 1.62031E-01
 -1      1400 1.58198E-01
 -1      1401 1.62031E-01
 -1      1403 1.58198E-01
 -1      1404 1.62031E-01
 -1      1406 1.58198E-01
 -1      1407 1.62031E-01
 -1      1409 1.58198E-01
 -1      1410 1.62031E-01
 -1      1412 1.58198E-01
 -1      1413 1.62031E-01
 -1      1415 1.58198E-01
 -1      1416 1.62031E-01
 -1      1418 1.58198E-01
 -1      1420 1.50822E-01
 -1      1421 1.54510E-01
 -1      1423 1.50822E-01
 -1      1424 1.54510E-01
 -1      1426 1.50822E-01
 -1      1427 1.54510E-01
 -1      1429 1.50822E-01
 -1      1430 1.54510E-01
 -1      1432 1.50822E-01
 -1      1433 1.54510E-01
 -1      1435 1.50822E-01
 -1      1436 1.54510E-01
 -1      1438 1.50822E-01
 -1      1439 1.54510E-01
 -1      1441 1.50822E-01
 -1      1442 1.54510E-01
 -1      1444 1.50822E-01
 -1      1445 1.54510E-01
 -1      1447 1.50822E-01
 -1      1449 1.43527E-01
 -1      1450 1.47174E-01
 -1      1452 1.43527E-01
 -1      1453 1.47174E-01
 -1      1455 1.43527E-01
 -1      1456 1.47174E-01
 -1      1458 1.43527E-01
 -1      1459 1.47174E-01
 -1      1461 1.43527E-01
 -1      1462 1.47174E-01
 -1      1464 1.43527E-01
 -1      1465 1.47174E-01
 -1      1467 1.43527E-01
 -1      1468 1.47174E-01
 -1      1470 1.43527E-01
 -1      1471 1.47174E-01
 -1      1473 1.43527E-01
 -1      1474 1.47175E-01
 -1      1476 1.43527E-01
 -1      1478 1.36204E-01
 -1      1479 1.39865E-01
 -1      1481 1.36204E-01
 -1      1482 1.39865E-01
 -1      1484 1.36204E-01
 -1      1485 1.39865E-01
 -1      1487 1.36204E-01
 -1      1488 1.39865E-01
 -1      1490 1.36204E-01
 -1      1491 1.39866E-01
 -1      1493 1.36205E-01
 -1      1494 1.39866E-01
 -1      1496 1.36204E-01
 -1      1497 1.39866E-01
 -1      1499 1.36204E-01
 -1      1500 1.39866E-01
 -1      1502 1.36205E-01
 -1      1503 1.39866E-01
 -1      1505 1.36205E-01
 -1      1507 1.28864E-01
 -1      1509 1.28864E-01
 -1      1511 1.28864E-01
 -1      1513 1.28864E-01
 -1      1515 1.28865E-01
 -1      1517 1.28865E-01
 -1      1519 1.28865E-01
 -1      1521 1.28865E-01
 -1      1523 1.28866E-01
 -1      1526 6.77203E-01
 -1      1527 6.78677E-01
 -1      1528 6.79136E-01
 -1      1529 6.79302E-01
 -1      1530 6.79337E-01
 -1      1531 6.79337E-01
 -1      1532 6.79302E-01
 -1      1533 6.79136E-01
 -1      1534 6.78677E-01
 -1      1535 6.77203E-01
 -1      1536 6.59207E-01
 -1      1537 6.61213E-01
 -1      1538 6.61968E-01
 -1      1539 6.62281E-01
 -1      1540 6.62362E-01
 -1      1541 6.62362E-01
 -1      1542 6.62281E-01
 -1      1543 6.61968E-01
 -1      1544 6.61213E-01
 -1      1545 6.59207E-01
 -1      1546 6.06896E-01
 -1      1547 6.09206E-01
 -1      1548 6.10311E-01
 -1      1549 6.10764E-01
 -1      1550 6.10884E-01
 -1      1551 6.10884E-01
 -1      1552 6.10764E-01
 -1      1553 6.10311E-01
 -1      1554 6.09206E-01
 -1      1555 6.06896E-01
 -1      1556 5.60691E-01
 -1      1557 5.63119E-01
 -1      1558 5.64346E-01
 -1      1559 5.64868E-01
 -1      1560 5.65015E-01
 -1      1561 5.65015E-01
 -1      1562 5.64868E-01
 -1      1563 5.64346E-01
 -1      1564 5.63119E-01
 -1      1565 5.60691E-01
 -1      1566 5.20059E-01
 -1      1567 5.22535E-01
 -1      1568 5.23831E-01
 -1      1569 5.24411E-01
 -1      1570 5.24578E-01
 -1      1571 5.24578E-01
 -1      1572 5.24411E-01
 -1      1573 5.23831E-01
 -1      1574 5.22535E-01
 -1      1575 5.20059E-01
 -1      1576 4.83943E-01
 -1      1577 4.86463E-01
 -1      1578 4.87816E-01
 -1      1579 4.88441E-01
 -1      1580 4.88624E-01
 -1      1581 4.88624E-01
 -1      1582 4.88441E-01
 -1      1583 4.87816E-01
 -1      1584 4.86463E-01
 -1      1585 4.83943E-01
 -1      1586 4.51631E-01
 -1      1587 4.54155E-01
 -1      1588 4.55547E-01
 -1      1589 4.56210E-01
 -1      1590 4.56407E-01
 -1      1591 4.56407E-01
 -1      1592 4.56210E-01
 -1      1593 4.55547E-01
 -1      1594 4.54155E-01
 -1      1595 4.51631E-01
 -1      1596 4.22519E-01
 -1      1597 4.25030E-01
 -1      1598 4.26445E-01
 -1      1599 4.27137E-01
 -1      1600 4.27345E-01
 -1      1601 4.27345E-01
 -1      1602 4.27137E-01
 -1      1603 4.26445E-01
 -1      1604 4.25030E-01
 -1      1605 4.22519E-01
 -1      1606 3.96143E-01
 -1      1607 3.98622E-01
 -1      1608 4.00048E-01
 -1      1609 4.00760E-01
 -1      1610 4.00976E-01
 -1      1611 4.00976E-01
 -1      1612 4.00760E-01
 -1      1613 4.00048E-01
 -1      1614 3.98622E-01
 -1      1615 3.96143E-01
 -1      1616 3.72127E-01
 -1      1617 3.74561E-01
 -1      1618 3.75985E-01
 -1      1619 3.76710E-01
 -1      1620 3.76932E-01
 -1      1621 3.76932E-01
 -1      1622 3.76710E-01
 -1      1623 3.75985E-01
 -1      1624 3.74561E-01
 -1      1625 3.72127E-01
 -1      1626 3.50164E-01
 -1      1627 3.52542E-01
 -1      1628 3.53956E-01
 -1      1629 3.54687E-01
 -1      1630 3.54913E-01
 -1      1631 3.54913E-01
 -1      1632 3.54687E-01
 -1      1633 3.53956E-01
 -1      1634 3.52542E-01
 -1      1635 3.50164E-01
 -1      1636 3.30002E-01
 -1      1637 3.32317E-01
 -1      1638 3.33712E-01
 -1      1639 3.34443E-01
 -1      1640 3.34671E-01
 -1      1641 3.34671E-01
 -1      1642 3.34443E-01
 -1      1643 3.33712E-01
 -1      1644 3.32317E-01
 -1      1645 3.30002E-01
 -1      1646 3.11432E-01
 -1      1647 3.13677E-01
 -1      1648 3.15047E-01
 -1      1649 3.15774E-01
 -1      1650 3.16001E-01
 -1      1651 3.16001E-01
 -1      1652 3.15774E-01
 -1      1653 3.15047E-01
 -1      1654 3.13677E-01
 -1      1655 3.11432E-01
 -1      1656 2.94278E-01
 -1      1657 2.96449E-01
 -1      1658 2.97789E-01
 -1      1659 2.98507E-01
 -1      1660 2.98732E-01
 -1      1661 2.98732E-01
 -1      1662 2.98507E-01
 -1      1663 2.97789E-01
 -1      1664 2.96449E-01
 -1      1665 2.94278E-01
 -1      1666 2.78390E-01
 -1      1667 2.80485E-01
 -1      1668 2.81789E-01
 -1      1669 2.82495E-01
 -1      1670 2.82718E-01
 -1      1671 2.82718E-01
 -1      1672 2.82495E-01
 -1      1673 2.81789E-01
 -1      1674 2.80485E-01
 -1      1675 2.78390E-01
 -1      1676 2.63641E-01
 -1      1677 2.65657E-01
 -1      1678 2.66924E-01
 -1      1679 2.67615E-01
 -1      1680 2.67834E-01
 -1      1681 2.67834E-01
 -1      1682 2.67615E-01
 -1      1683 2.66924E-01
 -1      1684 2.65657E-01
 -1      1685 2.63641E-01
 -1      1686 2.49921E-01
 -1      1687 2.51858E-01
 -1      1688 2.53084E-01
 -1      1689 2.53758E-01
 -1      1690 2.53972E-01
 -1      1691 2.53972E-01
 -1      1692 2.53758E-01
 -1      1693 2.53084E-01
 -1      1694 2.51858E-01
 -1      1695 2.49921E-01
 -1      1696 2.37136E-01
 -1      1697 2.38992E-01
 -1      1698 2.40176E-01
 -1      1699 2.40831E-01
 -1      1700 2.41041E-01
 -1      1701 2.41041E-01
 -1      1702 2.40831E-01
 -1      1703 2.40176E-01
 -1      1704 2.38992E-01
 -1      1705 2.37136E-01
 -1      1706 2.25200E-01
 -1      1707 2.26977E-01
 -1      1708 2.28118E-01
 -1      1709 2.28753E-01
 -1      1710 2.28956E-01
 -1      1711 2.28956E-01
 -1      1712 2.28753E-01
 -1      1713 2.28118E-01
 -1      1714 2.26977E-01
 -1      1715 2.25200E-01
 -1      1716 2.14041E-01
 -1      1717 2.15739E-01
 -1      1718 2.16836E-01
 -1      1719 2.17450E-01
 -1      1720 2.17648E-01
 -1      1721 2.17648E-01
 -1      1722 2.17450E-01
 -1      1723 2.16836E-01
 -1      1724 2.15739E-01
 -1      1725 2.14041E-01
 -1      1726 2.03592E-01
 -1      1727 2.05213E-01
 -1      1728 2.06267E-01
 -1      1729 2.06860E-01
 -1      1730 2.07051E-01
 -1      1731 2.07051E-01
 -1      1732 2.06860E-01
 -1      1733 2.06267E-01
 -1      1734 2.05213E-01
 -1      1735 2.03592E-01
 -1      1736 1.93794E-01
 -1      1737 1.95341E-01
 -1      1738 1.96351E-01
 -1      1739 1.96922E-01
 -1      1740 1.97106E-01
 -1      1741 1.97106E-01
 -1      1742 1.96922E-01
 -1      1743 1.96351E-01
 -1      1744 1.95341E-01
 -1      1745 1.93794E-01
 -1      1746 1.84592E-01
 -1      1747 1.86066E-01
 -1      1748 1.87033E-01
 -1      1749 1.87581E-01
 -1      1750 1.87758E-01
 -1      1751 1.87758E-01
 -1      1752 1.87581E-01
 -1      1753 1.87033E-01
 -1      1754 1.86066E-01
 -1      1755 1.84592E-01
 -1      1756 1.75931E-01
 -1      1757 1.77333E-01
 -1      1758 1.78257E-01
 -1      1759 1.78782E-01
 -1      1760 1.78952E-01
 -1      1761 1.78952E-01
 -1      1762 1.78782E-01
 -1      1763 1.78257E-01
 -1      1764 1.77333E-01
 -1      1765 1.75931E-01
 -1      1766 1.67749E-01
 -1      1767 1.69079E-01
 -1      1768 1.69959E-01
 -1      1769 1.70460E-01
 -1      1770 1.70623E-01
 -1      1771 1.70623E-01
 -1      1772 1.70460E-01
 -1      1773 1.69959E-01
 -1      1774 1.69079E-01
 -1      1775 1.67749E-01
 -1      1776 1.59967E-01
 -1      1777 1.61221E-01
 -1      1778 1.62054E-01
 -1      1779 1.62531E-01
 -1      1780 1.62685E-01
 -1      1781 1.62685E-01
 -1      1782 1.62531E-01
 -1      1783 1.62054E-01
 -1      1784 1.61221E-01
 -1      1785 1.59967E-01
 -1      1786 1.52458E-01
 -1      1787 1.53628E-01
 -1      1788 1.54411E-01
 -1      1789 1.54861E-01
 -1      1790 1.55006E-01
 -1      1791 1.55006E-01
 -1      1792 1.54861E-01
 -1      1793 1.54411E-01
 -1      1794 1.53628E-01
 -1      1795 1.52458E-01
 -1      1796 1.45015E-01
 -1      1797 1.46079E-01
 -1      1798 1.46800E-01
 -1      1799 1.47213E-01
 -1      1800 1.47343E-01
 -1      1801 1.47343E-01
 -1      1802 1.47213E-01
 -1      1803 1.46800E-01
 -1      1804 1.46079E-01
 -1      1805 1.45015E-01
 -1      1806 1.37363E-01
 -1      1807 1.38197E-01
 -1      1808 1.38759E-01
 -1      1809 1.39061E-01
 -1      1810 1.39150E-01
 -1      1811 1.39150E-01
 -1      1812 1.39061E-01
 -1      1813 1.38759E-01
 -1      1814 1.38197E-01
 -1      1815 1.37363E-01
 -1      1816 6.76071E-01
 -1      1817 6.77203E-01
 -1      1819 6.77940E-01
 -1      1820 6.78677E-01
 -1      1822 6.78907E-01
 -1      1823 6.79136E-01
 -1      1825 6.79219E-01
 -1      1826 6.79302E-01
 -1      1828 6.79320E-01
 -1      1829 6.79337E-01
 -1      1831 6.79337E-01
 -1      1832 6.79337E-01
 -1      1834 6.79320E-01
 -1      1835 6.79302E-01
 -1      1837 6.79219E-01
 -1      1838 6.79136E-01
 -1      1840 6.78907E-01
 -1      1841 6.78677E-01
 -1      1843 6.77940E-01
 -1      1844 6.77203E-01
 -1      1846 6.76071E-01
 -1      1848 6.56401E-01
 -1      1849 6.68205E-01
 -1      1851 6.60210E-01
 -1      1852 6.69945E-01
 -1      1854 6.61590E-01
 -1      1855 6.70552E-01
 -1      1857 6.62124E-01
 -1      1858 6.70792E-01
 -1      1860 6.62322E-01
 -1      1861 6.70850E-01
 -1      1863 6.62362E-01
 -1      1864 6.70850E-01
 -1      1866 6.62322E-01
 -1      1867 6.70792E-01
 -1      1869 6.62124E-01
 -1      1870 6.70552E-01
 -1      1872 6.61590E-01
 -1      1873 6.69945E-01
 -1      1875 6.60210E-01
 -1      1876 6.68205E-01
 -1      1878 6.56401E-01
 -1      1880 6.03926E-01
 -1      1881 6.33052E-01
 -1      1883 6.08051E-01
 -1      1884 6.35210E-01
 -1      1886 6.09759E-01
 -1      1887 6.36139E-01
 -1      1889 6.10537E-01
 -1      1890 6.36523E-01
 -1      1892 6.10824E-01
 -1      1893 6.36623E-01
 -1      1895 6.10884E-01
 -1      1896 6.36623E-01
 -1      1898 6.10824E-01
 -1      1899 6.36523E-01
 -1      1901 6.10537E-01
 -1      1902 6.36139E-01
 -1      1904 6.09759E-01
 -1      1905 6.35210E-01
 -1      1907 6.08051E-01
 -1      1908 6.33052E-01
 -1      1910 6.03926E-01
 -1      1912 5.57899E-01
 -1      1913 5.83793E-01
 -1      1915 5.61905E-01
 -1      1916 5.86163E-01
 -1      1918 5.63732E-01
 -1      1919 5.87328E-01
 -1      1921 5.64607E-01
 -1      1922 5.87816E-01
 -1      1924 5.64941E-01
 -1      1925 5.87949E-01
 -1      1927 5.65015E-01
 -1      1928 5.87949E-01
 -1      1930 5.64941E-01
 -1      1931 5.87816E-01
 -1      1933 5.64607E-01
 -1      1934 5.87328E-01
 -1      1936 5.63732E-01
 -1      1937 5.86163E-01
 -1      1939 5.61905E-01
 -1      1940 5.83793E-01
 -1      1942 5.57899E-01
 -1      1944 5.17371E-01
 -1      1945 5.40375E-01
 -1      1947 5.21297E-01
 -1      1948 5.42827E-01
 -1      1950 5.23183E-01
 -1      1951 5.44089E-01
 -1      1953 5.24121E-01
 -1      1954 5.44640E-01
 -1      1956 5.24495E-01
 -1      1957 5.44796E-01
 -1      1959 5.24578E-01
 -1      1960 5.44796E-01
 -1      1962 5.24495E-01
 -1      1963 5.44640E-01
 -1      1965 5.24121E-01
 -1      1966 5.44089E-01
 -1      1968 5.23183E-01
 -1      1969 5.42827E-01
 -1      1971 5.21297E-01
 -1      1972 5.40375E-01
 -1      1974 5.17371E-01
 -1      1976 4.81382E-01
 -1      1977 5.02001E-01
 -1      1979 4.85203E-01
 -1      1980 5.04499E-01
 -1      1982 4.87139E-01
 -1      1983 5.05823E-01
 -1      1985 4.88128E-01
 -1      1986 5.06426E-01
 -1      1988 4.88533E-01
 -1      1989 5.06601E-01
 -1      1991 4.88624E-01
 -1      1992 5.06601E-01
 -1      1994 4.88533E-01
 -1      1995 5.06426E-01
 -1      1997 4.88128E-01
 -1      1998 5.05823E-01
 -1      2000 4.87139E-01
 -1      2001 5.04499E-01
 -1      2003 4.85203E-01
 -1      2004 5.02001E-01
 -1      2006 4.81382E-01
 -1      2008 4.49186E-01
 -1      2009 4.67787E-01
 -1      2011 4.52893E-01
 -1      2012 4.70309E-01
 -1      2014 4.54851E-01
 -1      2015 4.71681E-01
 -1      2017 4.55878E-01
 -1      2018 4.72326E-01
 -1      2020 4.56309E-01
 -1      2021 4.72516E-01
 -1      2023 4.56407E-01
 -1      2024 4.72516E-01
 -1      2026 4.56309E-01
 -1      2027 4.72326E-01
 -1      2029 4.55878E-01
 -1      2030 4.71681E-01
 -1      2032 4.54851E-01
 -1      2033 4.70309E-01
 -1      2035 4.52893E-01
 -1      2036 4.67787E-01
 -1      2038 4.49186E-01
 -1      2040 4.20188E-01
 -1      2041 4.37075E-01
 -1      2043 4.23774E-01
 -1      2044 4.39592E-01
 -1      2046 4.25737E-01
 -1      2047 4.40996E-01
 -1      2049 4.26791E-01
 -1      2050 4.41674E-01
 -1      2052 4.27241E-01
 -1      2053 4.41876E-01
 -1      2055 4.27345E-01
 -1      2056 4.41876E-01
 -1      2058 4.27241E-01
 -1      2059 4.41674E-01
 -1      2061 4.26791E-01
 -1      2062 4.40996E-01
 -1      2064 4.25737E-01
 -1      2065 4.39592E-01
 -1      2067 4.23774E-01
 -1      2068 4.37075E-01
 -1      2070 4.20188E-01
 -1      2072 3.93923E-01
 -1      2073 4.09331E-01
 -1      2075 3.97383E-01
 -1      2076 4.11826E-01
 -1      2078 3.99335E-01
 -1      2079 4.13246E-01
 -1      2081 4.00404E-01
 -1      2082 4.13948E-01
 -1      2084 4.00868E-01
 -1      2085 4.14160E-01
 -1      2087 4.00976E-01
 -1      2088 4.14160E-01
 -1      2090 4.00868E-01
 -1      2091 4.13948E-01
 -1      2093 4.00404E-01
 -1      2094 4.13246E-01
 -1      2096 3.99335E-01
 -1      2097 4.11826E-01
 -1      2099 3.97383E-01
 -1      2100 4.09331E-01
 -1      2102 3.93923E-01
 -1      2104 3.70013E-01
 -1      2105 3.84135E-01
 -1      2107 3.73344E-01
 -1      2108 3.86592E-01
 -1      2110 3.75273E-01
 -1      2111 3.88017E-01
 -1      2113 3.76348E-01
 -1      2114 3.88735E-01
 -1      2116 3.76821E-01
 -1      2117 3.88954E-01
 -1      2119 3.76932E-01
 -1      2120 3.88954E-01
 -1      2122 3.76821E-01
 -1      2123 3.88735E-01
 -1      2125 3.76348E-01
 -1      2126 3.88017E-01
 -1      2128 3.75273E-01
 -1      2129 3.86592E-01
 -1      2131 3.73344E-01
 -1      2132 3.84135E-01
 -1      2134 3.70013E-01
 -1      2136 3.48154E-01
 -1      2137 3.61145E-01
 -1      2139 3.51353E-01
 -1      2140 3.63551E-01
 -1      2142 3.53249E-01
 -1      2143 3.64971E-01
 -1      2145 3.54322E-01
 -1      2146 3.65699E-01
 -1      2148 3.54800E-01
 -1      2149 3.65922E-01
 -1      2151 3.54913E-01
 -1      2152 3.65922E-01
 -1      2154 3.54800E-01
 -1      2155 3.65699E-01
 -1      2157 3.54322E-01
 -1      2158 3.64971E-01
 -1      2160 3.53249E-01
 -1      2161 3.63551E-01
 -1      2163 3.51353E-01
 -1      2164 3.61145E-01
 -1      2166 3.48154E-01
 -1      2168 3.28092E-01
 -1      2169 3.40083E-01
 -1      2171 3.31159E-01
 -1      2172 3.42430E-01
 -1      2174 3.33015E-01
 -1      2175 3.43834E-01
 -1      2177 3.34078E-01
 -1      2178 3.44565E-01
 -1      2180 3.34557E-01
 -1      2181 3.44792E-01
 -1      2183 3.34671E-01
 -1      2184 3.44792E-01
 -1      2186 3.34557E-01
 -1      2187 3.44565E-01
 -1      2189 3.34078E-01
 -1      2190 3.43834E-01
 -1      2192 3.33015E-01
 -1      2193 3.42430E-01
 -1      2195 3.31159E-01
 -1      2196 3.40083E-01
 -1      2198 3.28092E-01
 -1      2200 3.09618E-01
 -1      2201 3.20717E-01
 -1      2203 3.12555E-01
 -1      2204 3.22997E-01
 -1      2206 3.14362E-01
 -1      2207 3.24380E-01
 -1      2209 3.15411E-01
 -1      2210 3.25109E-01
 -1      2212 3.15888E-01
 -1      2213 3.25336E-01
 -1      2215 3.16001E-01
 -1      2216 3.25336E-01
 -1      2218 3.15888E-01
 -1      2219 3.25109E-01
 -1      2221 3.15411E-01
 -1      2222 3.24380E-01
 -1      2224 3.14362E-01
 -1      2225 3.22997E-01
 -1      2227 3.12555E-01
 -1      2228 3.20717E-01
 -1      2230 3.09618E-01
 -1      2232 2.92556E-01
 -1      2233 3.02855E-01
 -1      2235 2.95364E-01
 -1      2236 3.05063E-01
 -1      2238 2.97119E-01
 -1      2239 3.06418E-01
 -1      2241 2.98148E-01
 -1      2242 3.07140E-01
 -1      2244 2.98619E-01
 -1      2245 3.07367E-01
 -1      2247 2.98732E-01
 -1      2248 3.07367E-01
 -1      2250 2.98619E-01
 -1      2251 3.07140E-01
 -1      2253 2.98148E-01
 -1      2254 3.06418E-01
 -1      2256 2.97119E-01
 -1      2257 3.05063E-01
 -1      2259 2.95364E-01
 -1      2260 3.02855E-01
 -1      2262 2.92556E-01
 -1      2264 2.76756E-01
 -1      2265 2.86334E-01
 -1      2267 2.79437E-01
 -1      2268 2.88467E-01
 -1      2270 2.81137E-01
 -1      2271 2.89789E-01
 -1      2273 2.82142E-01
 -1      2274 2.90501E-01
 -1      2276 2.82606E-01
 -1      2277 2.90725E-01
 -1      2279 2.82718E-01
 -1      2280 2.90725E-01
 -1      2282 2.82606E-01
 -1      2283 2.90501E-01
 -1      2285 2.82142E-01
 -1      2286 2.89789E-01
 -1      2288 2.81137E-01
 -1      2289 2.88467E-01
 -1      2291 2.79437E-01
 -1      2292 2.86334E-01
 -1      2294 2.76756E-01
 -1      2296 2.62092E-01
 -1      2297 2.71016E-01
 -1      2299 2.64649E-01
 -1      2300 2.73071E-01
 -1      2302 2.66290E-01
 -1      2303 2.74356E-01
 -1      2305 2.67269E-01
 -1      2306 2.75055E-01
 -1      2308 2.67724E-01
 -1      2309 2.75276E-01
 -1      2311 2.67834E-01
 -1      2312 2.75276E-01
 -1      2314 2.67724E-01
 -1      2315 2.75055E-01
 -1      2317 2.67269E-01
 -1      2318 2.74356E-01
 -1      2320 2.66290E-01
 -1      2321 2.73071E-01
 -1      2323 2.64649E-01
 -1      2324 2.71016E-01
 -1      2326 2.62092E-01
 -1      2328 2.48453E-01
 -1      2329 2.56781E-01
 -1      2331 2.50890E-01
 -1      2332 2.58758E-01
 -1      2334 2.52471E-01
 -1      2335 2.60004E-01
 -1      2337 2.53421E-01
 -1      2338 2.60686E-01
 -1      2340 2.53865E-01
 -1      2341 2.60903E-01
 -1      2343 2.53972E-01
 -1      2344 2.60903E-01
 -1      2346 2.53865E-01
 -1      2347 2.60686E-01
 -1      2349 2.53421E-01
 -1      2350 2.60004E-01
 -1      2352 2.52471E-01
 -1      2353 2.58758E-01
 -1      2355 2.50890E-01
 -1      2356 2.56781E-01
 -1      2358 2.48453E-01
 -1      2360 2.35744E-01
 -1      2361 2.43529E-01
 -1      2363 2.38064E-01
 -1      2364 2.45425E-01
 -1      2366 2.39584E-01
 -1      2367 2.46630E-01
 -1      2369 2.40503E-01
 -1      2370 2.47294E-01
 -1      2372 2.40936E-01
 -1      2373 2.47506E-01
 -1      2375 2.41041E-01
 -1      2376 2.47506E-01
 -1      2378 2.40936E-01
 -1      2379 2.47294E-01
 -1      2381 2.40503E-01
 -1      2382 2.46630E-01
 -1      2384 2.39584E-01
 -1      2385 2.45425E-01
 -1      2387 2.38064E-01
 -1      2388 2.43529E-01
 -1      2390 2.35744E-01
 -1      2392 2.23882E-01
 -1      2393 2.31168E-01
 -1      2395 2.26089E-01
 -1      2396 2.32984E-01
 -1      2398 2.27547E-01
 -1      2399 2.34147E-01
 -1      2401 2.28435E-01
 -1      2402 2.34792E-01
 -1      2404 2.28855E-01
 -1      2405 2.34998E-01
 -1      2407 2.28956E-01
 -1      2408 2.34998E-01
 -1      2410 2.28855E-01
 -1      2411 2.34792E-01
 -1      2413 2.28435E-01
 -1      2414 2.34147E-01
 -1      2416 2.27547E-01
 -1      2417 2.32984E-01
 -1      2419 2.26089E-01
 -1      2420 2.31168E-01
 -1      2422 2.23882E-01
 -1      2424 2.12792E-01
 -1      2425 2.19621E-01
 -1      2427 2.14890E-01
 -1      2428 2.21358E-01
 -1      2430 2.16288E-01
 -1      2431 2.22477E-01
 -1      2433 2.17143E-01
 -1      2434 2.23102E-01
 -1      2436 2.17549E-01
 -1      2437 2.23302E-01
 -1      2439 2.17648E-01
 -1      2440 2.23302E-01
 -1      2442 2.17549E-01
 -1      2443 2.23102E-01
 -1      2445 2.17143E-01
 -1      2446 2.22477E-01
 -1      2448 2.16288E-01
 -1      2449 2.21358E-01
 -1      2451 2.14890E-01
 -1      2452 2.19621E-01
 -1      2454 2.12792E-01
 -1      2456 2.02410E-01
 -1      2457 2.08816E-01
 -1      2459 2.04403E-01
 -1      2460 2.10476E-01
 -1      2462 2.05740E-01
 -1      2463 2.11552E-01
 -1      2465 2.06564E-01
 -1      2466 2.12155E-01
 -1      2468 2.06955E-01
 -1      2469 2.12349E-01
 -1      2471 2.07051E-01
 -1      2472 2.12349E-01
 -1      2474 2.06955E-01
 -1      2475 2.12155E-01
 -1      2477 2.06564E-01
 -1      2478 2.11552E-01
 -1      2480 2.05740E-01
 -1      2481 2.10476E-01
 -1      2483 2.04403E-01
 -1      2484 2.08816E-01
 -1      2486 2.02410E-01
 -1      2488 1.92675E-01
 -1      2489 1.98693E-01
 -1      2491 1.94568E-01
 -1      2492 2.00277E-01
 -1      2494 1.95846E-01
 -1      2495 2.01309E-01
 -1      2497 1.96637E-01
 -1      2498 2.01891E-01
 -1      2500 1.97014E-01
 -1      2501 2.02078E-01
 -1      2503 1.97106E-01
 -1      2504 2.02078E-01
 -1      2506 1.97014E-01
 -1      2507 2.01891E-01
 -1      2509 1.96637E-01
 -1      2510 2.01309E-01
 -1      2512 1.95846E-01
 -1      2513 2.00277E-01
 -1      2515 1.94568E-01
 -1      2516 1.98693E-01
 -1      2518 1.92675E-01
 -1      2520 1.83534E-01
 -1      2521 1.89193E-01
 -1      2523 1.85329E-01
 -1      2524 1.90703E-01
 -1      2526 1.86550E-01
 -1      2527 1.91692E-01
 -1      2529 1.87307E-01
 -1      2530 1.92251E-01
 -1      2532 1.87670E-01
 -1      2533 1.92432E-01
 -1      2535 1.87758E-01
 -1      2536 1.92432E-01
 -1      2538 1.87670E-01
 -1      2539 1.92251E-01
 -1      2541 1.87307E-01
 -1      2542 1.91692E-01
 -1      2544 1.86550E-01
 -1      2545 1.90703E-01
 -1      2547 1.85329E-01
 -1      2548 1.89193E-01
 -1      2550 1.83534E-01
 -1      2552 1.74931E-01
 -1      2553 1.80262E-01
 -1      2555 1.76632E-01
 -1      2556 1.81699E-01
 -1      2558 1.77795E-01
 -1      2559 1.82645E-01
 -1      2561 1.78520E-01
 -1      2562 1.83182E-01
 -1      2564 1.78867E-01
 -1      2565 1.83355E-01
 -1      2567 1.78952E-01
 -1      2568 1.83355E-01
 -1      2570 1.78867E-01
 -1      2571 1.83182E-01
 -1      2573 1.78520E-01
 -1      2574 1.82645E-01
 -1      2576 1.77795E-01
 -1      2577 1.81699E-01
 -1      2579 1.76632E-01
 -1      2580 1.80262E-01
 -1      2582 1.74931E-01
 -1      2584 1.66807E-01
 -1      2585 1.71840E-01
 -1      2587 1.68414E-01
 -1      2588 1.73206E-01
 -1      2590 1.69519E-01
 -1      2591 1.74108E-01
 -1      2593 1.70210E-01
 -1      2594 1.74621E-01
 -1      2596 1.70542E-01
 -1      2597 1.74787E-01
 -1      2599 1.70623E-01
 -1      2600 1.74787E-01
 -1      2602 1.70542E-01
 -1      2603 1.74621E-01
 -1      2605 1.70210E-01
 -1      2606 1.74108E-01
 -1      2608 1.69519E-01
 -1      2609 1.73206E-01
 -1      2611 1.68414E-01
 -1      2612 1.71840E-01
 -1      2614 1.66807E-01
 -1      2616 1.59082E-01
 -1      2617 1.63858E-01
 -1      2619 1.60594E-01
 -1      2620 1.65150E-01
 -1      2622 1.61637E-01
 -1      2623 1.66007E-01
 -1      2625 1.62293E-01
 -1      2626 1.66496E-01
 -1      2628 1.62608E-01
 -1      2629 1.66654E-01
 -1      2631 1.62685E-01
 -1      2632 1.66654E-01
 -1      2634 1.62608E-01
 -1      2635 1.66496E-01
 -1      2637 1.62293E-01
 -1      2638 1.66007E-01
 -1      2640 1.61637E-01
 -1      2641 1.65150E-01
 -1      2643 1.60594E-01
 -1      2644 1.63858E-01
 -1      2646 1.59082E-01
 -1      2648 1.51640E-01
 -1      2649 1.56213E-01
 -1      2651 1.53043E-01
 -1      2652 1.57424E-01
 -1      2654 1.54020E-01
 -1      2655 1.58233E-01
 -1      2657 1.54636E-01
 -1      2658 1.58696E-01
 -1      2660 1.54934E-01
 -1      2661 1.58846E-01
 -1      2663 1.55006E-01
 -1      2664 1.58846E-01
 -1      2666 1.54934E-01
 -1      2667 1.58696E-01
 -1      2669 1.54636E-01
 -1      2670 1.58233E-01
 -1      2672 1.54020E-01
 -1      2673 1.57424E-01
 -1      2675 1.53043E-01
 -1      2676 1.56213E-01
 -1      2678 1.51640E-01
 -1      2680 1.44271E-01
 -1      2681 1.48737E-01
 -1      2683 1.45547E-01
 -1      2684 1.49854E-01
 -1      2686 1.46440E-01
 -1      2687 1.50606E-01
 -1      2689 1.47007E-01
 -1      2690 1.51037E-01
 -1      2692 1.47278E-01
 -1      2693 1.51175E-01
 -1      2695 1.47343E-01
 -1      2696 1.51175E-01
 -1      2698 1.47278E-01
 -1      2699 1.51037E-01
 -1      2701 1.47007E-01
 -1      2702 1.50606E-01
 -1      2704 1.46440E-01
 -1      2705 1.49854E-01
 -1      2707 1.45547E-01
 -1      2708 1.48737E-01
 -1      2710 1.44271E-01
 -1      2712 1.36784E-01
 -1      2713 1.41189E-01
 -1      2715 1.37780E-01
 -1      2716 1.42138E-01
 -1      2718 1.38478E-01
 -1      2719 1.42779E-01
 -1      2721 1.38910E-01
 -1      2722 1.43137E-01
 -1      2724 1.39106E-01
 -1      2725 1.43247E-01
 -1      2727 1.39150E-01
 -1      2728 1.43247E-01
 -1      2730 1.39106E-01
 -1      2731 1.43137E-01
 -1      2733 1.38910E-01
 -1      2734 1.42779E-01
 -1      2736 1.38478E-01
 -1      2737 1.42138E-01
 -1      2739 1.37780E-01
 -1      2740 1.41189E-01
 -1      2742 1.36784E-01
 -1      2744 1.29635E-01
 -1      2746 1.30150E-01
 -1      2748 1.30497E-01
 -1      2750 1.30683E-01
 -1      2752 1.30738E-01
 -1      2754 1.30738E-01
 -1      2756 1.30683E-01
 -1      2758 1.30497E-01
 -1      2760 1.30150E-01
 -1      2762 1.29635E-01
 -1      2765 1.21907E-01
 -1      2766 1.22103E-01
 -1      2767 1.22235E-01
 -1      2768 1.22305E-01
 -1      2769 1.22326E-01
 -1      2770 1.22326E-01
 -1      2771 1.22305E-01
 -1      2772 1.22235E-01
 -1      2773 1.22103E-01
 -1      2774 1.21907E-01
 -1      2775 1.21907E-01
 -1      2776 1.22103E-01
 -1      2777 1.22235E-01
 -1      2778 1.22305E-01
 -1      2779 1.22326E-01
 -1      2780 1.22326E-01
 -1      2781 1.22305E-01
 -1      2782 1.22235E-01
 -1      2783 1.22103E-01
 -1      2784 1.21907E-01
 -1      2785 1.21907E-01
 -1      2786 1.22103E-01
 -1      2787 1.22235E-01
 -1      2788 1.22305E-01
 -1      2789 1.22326E-01
 -1      2790 1.22326E-01
 -1      2791 1.22305E-01
 -1      2792 1.22235E-01
 -1      2793 1.22103E-01
 -1      2794 1.21907E-01
 -1      2795 1.21907E-01
 -1      2796 1.22103E-01
 -1      2797 1.22234E-01
 -1      2798 1.22304E-01
 -1      2799 1.22326E-01
 -1      2800 1.22326E-01
 -1      2801 1.22304E-01
 -1      2802 1.22234E-01
 -1      2803 1.22103E-01
 -1      2804 1.21907E-01
 -1      2805 1.21908E-01
 -1      2806 1.22104E-01
 -1      2807 1.22236E-01
 -1      2808 1.22306E-01
 -1      2809 1.22328E-01
 -1      2810 1.22328E-01
 -1      2811 1.22306E-01
 -1      2812 1.22236E-01
 -1      2813 1.22104E-01
 -1      2814 1.21908E-01
 -1      2815 1.21909E-01
 -1      2816 1.22104E-01
 -1      2817 1.22236E-01
 -1      2818 1.22306E-01
 -1      2819 1.22328E-01
 -1      2820 1.22328E-01
 -1      2821 1.22306E-01
 -1      2822 1.22236E-01
 -1      2823 1.22104E-01
 -1      2824 1.21909E-01
 -1      2825 1.21909E-01
 -1      2826 1.22104E-01
 -1      2827 1.22236E-01
 -1      2828 1.22306E-01
 -1      2829 1.22328E-01
 -1      2830 1.22328E-01
 -1      2831 1.22306E-01
 -1      2832 1.22236E-01
 -1      2833 1.22104E-01
 -1      2834 1.21909E-01
 -1      2835 1.21906E-01
 -1      2836 1.22102E-01
 -1      2837 1.22234E-01
 -1      2838 1.22304E-01
 -1      2839 1.22326E-01
 -1      2840 1.22326E-01
 -1      2841 1.22304E-01
 -1      2842 1.22234E-01
 -1      2843 1.22102E-01
 -1      2844 1.21906E-01
 -1      2845 1.21911E-01
 -1      2846 1.22107E-01
 -1      2847 1.22239E-01
 -1      2848 1.22309E-01
 -1      2849 1.22331E-01
 -1      2850 1.22331E-01
 -1      2851 1.22309E-01
 -1      2852 1.22239E-01
 -1      2853 1.22107E-01
 -1      2854 1.21911E-01
 -1      2855 1.21716E-01
 -1      2856 1.21907E-01
 -1      2858 1.22005E-01
 -1      2859 1.22103E-01
 -1      2861 1.22169E-01
 -1      2862 1.22235E-01
 -1      2864 1.22270E-01
 -1      2865 1.22305E-01
 -1      2867 1.22315E-01
 -1      2868 1.22326E-01
 -1      2870 1.22326E-01
 -1      2871 1.22326E-01
 -1      2873 1.22315E-01
 -1      2874 1.22305E-01
 -1      2876 1.22270E-01
 -1      2877 1.22235E-01
 -1      2879 1.22169E-01
 -1      2880 1.22103E-01
 -1      2882 1.22005E-01
 -1      2883 1.21907E-01
 -1      2885 1.21716E-01
 -1      2887 1.21716E-01
 -1      2888 1.21907E-01
 -1      2890 1.22005E-01
 -1      2891 1.22103E-01
 -1      2893 1.22169E-01
 -1      2894 1.22235E-01
 -1      2896 1.22270E-01
 -1      2897 1.22305E-01
 -1      2899 1.22315E-01
 -1      2900 1.22326E-01
 -1      2902 1.22326E-01
 -1      2903 1.22326E-01
 -1      2905 1.22315E-01
 -1      2906 1.22305E-01
 -1      2908 1.22270E-01
 -1      2909 1.22235E-01
 -1      2911 1.22169E-01
 -1      2912 1.22103E-01
 -1      2914 1.22005E-01
 -1      2915 1.21907E-01
 -1      2917 1.21716E-01
 -1      2919 1.21716E-01
 -1      2920 1.21907E-01
 -1      2922 1.22005E-01
 -1      2923 1.22103E-01
 -1      2925 1.22169E-01
 -1      2926 1.22235E-01
 -1      2928 1.22270E-01
 -1      2929 1.22305E-01
 -1      2931 1.22315E-01
 -1      2932 1.22326E-01
 -1      2934 1.22326E-01
 -1      2935 1.22326E-01
 -1      2937 1.22315E-01
 -1      2938 1.22305E-01
 -1      2940 1.22270E-01
 -1      2941 1.22235E-01
 -1      2943 1.22169E-01
 -1      2944 1.22103E-01
 -1      2946 1.22005E-01
 -1      2947 1.21907E-01
 -1      2949 1.21716E-01
 -1      2951 1.21716E-01
 -1      2952 1.21907E-01
 -1      2954 1.22005E-01
 -1      2955 1.22103E-01
 -1      2957 1.22168E-01
 -1      2958 1.22234E-01
 -1      2960 1.22269E-01
 -1      2961 1.22305E-01
 -1      2963 1.22315E-01
 -1      2964 1.22326E-01
 -1      2966 1.22326E-01
 -1      2967 1.22326E-01
 -1      2969 1.22315E-01
 -1      2970 1.22305E-01
 -1      2972 1.22269E-01
 -1      2973 1.22234E-01
 -1      2975 1.22168E-01
 -1      2976 1.22103E-01
 -1      2978 1.22005E-01
 -1      2979 1.21907E-01
 -1      2981 1.21716E-01
 -1      2983 1.21717E-01
 -1      2984 1.21907E-01
 -1      2986 1.22006E-01
 -1      2987 1.22103E-01
 -1      2989 1.22170E-01
 -1      2990 1.22235E-01
 -1      2992 1.22271E-01
 -1      2993 1.22305E-01
 -1      2995 1.22317E-01
 -1      2996 1.22327E-01
 -1      2998 1.22328E-01
 -1      2999 1.22327E-01
 -1      3001 1.22317E-01
 -1      3002 1.22305E-01
 -1      3004 1.22271E-01
 -1      3005 1.22235E-01
 -1      3007 1.22170E-01
 -1      3008 1.22103E-01
 -1      3010 1.22006E-01
 -1      3011 1.21907E-01
 -1      3013 1.21717E-01
 -1      3015 1.21717E-01
 -1      3016 1.21908E-01
 -1      3018 1.22007E-01
 -1      3019 1.22104E-01
 -1      3021 1.22170E-01
 -1      3022 1.22236E-01
 -1      3024 1.22271E-01
 -1      3025 1.22306E-01
 -1      3027 1.22317E-01
 -1      3028 1.22328E-01
 -1      3030 1.22328E-01
 -1      3031 1.22328E-01
 -1      3033 1.22317E-01
 -1      3034 1.22306E-01
 -1      3036 1.22271E-01
 -1      3037 1.22236E-01
 -1      3039 1.22170E-01
 -1      3040 1.22104E-01
 -1      3042 1.22007E-01
 -1      3043 1.21908E-01
 -1      3045 1.21717E-01
 -1      3047 1.21717E-01
 -1      3048 1.21909E-01
 -1      3050 1.22007E-01
 -1      3051 1.22104E-01
 -1      3053 1.22170E-01
 -1      3054 1.22236E-01
 -1      3056 1.22271E-01
 -1      3057 1.22306E-01
 -1      3059 1.22317E-01
 -1      3060 1.22328E-01
 -1      3062 1.22328E-01
 -1      3063 1.22328E-01
 -1      3065 1.22317E-01
 -1      3066 1.22306E-01
 -1      3068 1.22271E-01
 -1      3069 1.22236E-01
 -1      3071 1.22170E-01
 -1      3072 1.22104E-01
 -1      3074 1.22007E-01
 -1      3075 1.21909E-01
 -1      3077 1.21717E-01
 -1      3079 1.21716E-01
 -1      3080 1.21907E-01
 -1      3082 1.22004E-01
 -1      3083 1.22103E-01
 -1      3085 1.22168E-01
 -1      3086 1.22235E-01
 -1      3088 1.22269E-01
 -1      3089 1.22305E-01
 -1      3091 1.22315E-01
 -1      3092 1.22327E-01
 -1      3094 1.22326E-01
 -1      3095 1.22327E-01
 -1      3097 1.22315E-01
 -1      3098 1.22305E-01
 -1      3100 1.22269E-01
 -1      3101 1.22235E-01
 -1      3103 1.22168E-01
 -1      3104 1.22103E-01
 -1      3106 1.22004E-01
 -1      3107 1.21907E-01
 -1      3109 1.21716E-01
 -1      3111 1.21719E-01
 -1      3112 1.21908E-01
 -1      3114 1.22009E-01
 -1      3115 1.22105E-01
 -1      3117 1.22173E-01
 -1      3118 1.22237E-01
 -1      3120 1.22274E-01
 -1      3121 1.22307E-01
 -1      3123 1.22320E-01
 -1      3124 1.22328E-01
 -1      3126 1.22331E-01
 -1      3127 1.22328E-01
 -1      3129 1.22320E-01
 -1      3130 1.22307E-01
 -1      3132 1.22274E-01
 -1      3133 1.22237E-01
 -1      3135 1.22173E-01
 -1      3136 1.22105E-01
 -1      3138 1.22009E-01
 -1      3139 1.21908E-01
 -1      3141 1.21719E-01
 -1      3143 1.21911E-01
 -1      3145 1.22107E-01
 -1      3147 1.22239E-01
 -1      3149 1.22309E-01
 -1      3151 1.22331E-01
 -1      3153 1.22331E-01
 -1      3155 1.22309E-01
 -1      3157 1.22239E-01
 -1      3159 1.22107E-01
 -1      3161 1.21911E-01
 -1      3164 1.37364E-01
 -1      3165 1.38198E-01
 -1      3166 1.38760E-01
 -1      3167 1.39063E-01
 -1      3168 1.39152E-01
 -1      3169 1.39152E-01
 -1      3170 1.39063E-01
 -1      3171 1.38760E-01
 -1      3172 1.38198E-01
 -1      3173 1.37364E-01
 -1      3174 1.45015E-01
 -1      3175 1.46079E-01
 -1      3176 1.46801E-01
 -1      3177 1.47213E-01
 -1      3178 1.47343E-01
 -1      3179 1.47343E-01
 -1      3180 1.47213E-01
 -1      3181 1.46801E-01
 -1      3182 1.46079E-01
 -1      3183 1.45015E-01
 -1      3184 1.52458E-01
 -1      3185 1.53628E-01
 -1      3186 1.54411E-01
 -1      3187 1.54861E-01
 -1      3188 1.55007E-01
 -1      3189 1.55007E-01
 -1      3190 1.54861E-01
 -1      3191 1.54411E-01
 -1      3192 1.53628E-01
 -1      3193 1.52458E-01
 -1      3194 1.59967E-01
 -1      3195 1.61221E-01
 -1      3196 1.62054E-01
 -1      3197 1.62531E-01
 -1      3198 1.62685E-01
 -1      3199 1.62685E-01
 -1      3200 1.62531E-01
 -1      3201 1.62054E-01
 -1      3202 1.61221E-01
 -1      3203 1.59967E-01
 -1      3204 1.67749E-01
 -1      3205 1.69079E-01
 -1      3206 1.69959E-01
 -1      3207 1.70460E-01
 -1      3208 1.70623E-01
 -1      3209 1.70623E-01
 -1      3210 1.70460E-01
 -1      3211 1.69959E-01
 -1      3212 1.69079E-01
 -1      3213 1.67749E-01
 -1      3214 1.75931E-01
 -1      3215 1.77333E-01
 -1      3216 1.78257E-01
 -1      3217 1.78782E-01
 -1      3218 1.78952E-01
 -1      3219 1.78952E-01
 -1      3220 1.78782E-01
 -1      3221 1.78257E-01
 -1      3222 1.77333E-01
 -1      3223 1.75931E-01
 -1      3224 1.84592E-01
 -1      3225 1.86066E-01
 -1      3226 1.87033E-01
 -1      3227 1.87581E-01
 -1      3228 1.87758E-01
 -1      3229 1.87758E-01
 -1      3230 1.87581E-01
 -1      3231 1.87033E-01
 -1      3232 1.86066E-01
 -1      3233 1.84592E-01
 -1      3234 1.93794E-01
 -1      3235 1.95341E-01
 -1      3236 1.96351E-01
 -1      3237 1.96922E-01
 -1      3238 1.97106E-01
 -1      3239 1.97106E-01
 -1      3240 1.96922E-01
 -1      3241 1.96351E-01
 -1      3242 1.95341E-01
 -1      3243 1.93794E-01
 -1      3244 2.03592E-01
 -1      3245 2.05213E-01
 -1      3246 2.06267E-01
 -1      3247 2.06860E-01
 -1      3248 2.07051E-01
 -1      3249 2.07051E-01
 -1      3250 2.06860E-01
 -1      3251 2.06267E-01
 -1      3252 2.05213E-01
 -1      3253 2.03592E-01
 -1      3254 2.14041E-01
 -1      3255 2.15739E-01
 -1      3256 2.16837E-01
 -1      3257 2.17450E-01
 -1      3258 2.17648E-01
 -1      3259 2.17648E-01
 -1      3260 2.17450E-01
 -1      3261 2.16837E-01
 -1      3262 2.15739E-01
 -1      3263 2.14041E-01
 -1      3264 2.25200E-01
 -1      3265 2.26977E-01
 -1      3266 2.28118E-01
 -1      3267 2.28753E-01
 -1      3268 2.28956E-01
 -1      3269 2.28956E-01
 -1      3270 2.28753E-01
 -1      3271 2.28118E-01
 -1      3272 2.26977E-01
 -1      3273 2.25200E-01
 -1      3274 2.37136E-01
 -1      3275 2.38992E-01
 -1      3276 2.40176E-01
 -1      3277 2.40831E-01
 -1      3278 2.41041E-01
 -1      3279 2.41041E-01
 -1      3280 2.40831E-01
 -1      3281 2.40176E-01
 -1      3282 2.38992E-01
 -1      3283 2.37136E-01
 -1      3284 2.49921E-01
 -1      3285 2.51858E-01
 -1      3286 2.53084E-01
 -1      3287 2.53758E-01
 -1      3288 2.53972E-01
 -1      3289 2.53972E-01
 -1      3290 2.53758E-01
 -1      3291 2.53084E-01
 -1      3292 2.51858E-01
 -1      3293 2.49921E-01
 -1      3294 2.63641E-01
 -1      3295 2.65657E-01
 -1      3296 2.66924E-01
 -1      3297 2.67615E-01
 -1      3298 2.67834E-01
 -1      3299 2.67834E-01
 -1      3300 2.67615E-01
 -1      3301 2.66924E-01
 -1      3302 2.65657E-01
 -1      3303 2.63641E-01
 -1      3304 2.78390E-01
 -1      3305 2.80485E-01
 -1      3306 2.81789E-01
 -1      3307 2.82495E-01
 -1      3308 2.82718E-01
 -1      3309 2.82718E-01
 -1      3310 2.82495E-01
 -1      3311 2.81789E-01
 -1      3312 2.80485E-01
 -1      3313 2.78390E-01
 -1      3314 2.94278E-01
 -1      3315 2.96449E-01
 -1      3316 2.97789E-01
 -1      3317 2.98507E-01
 -1      3318 2.98732E-01
 -1      3319 2.98732E-01
 -1      3320 2.98507E-01
 -1      3321 2.97789E-01
 -1      3322 2.96449E-01
 -1      3323 2.94278E-01
 -1      3324 3.11432E-01
 -1      3325 3.13677E-01
 -1      3326 3.15047E-01
 -1      3327 3.15774E-01
 -1      3328 3.16001E-01
 -1      3329 3.16001E-01
 -1      3330 3.15774E-01
 -1      3331 3.15047E-01
 -1      3332 3.13677E-01
 -1      3333 3.11432E-01
 -1      3334 3.30002E-01
 -1      3335 3.32317E-01
 -1      3336 3.33712E-01
 -1      3337 3.34443E-01
 -1      3338 3.34671E-01
 -1      3339 3.34671E-01
 -1      3340 3.34443E-01
 -1      3341 3.33712E-01
 -1      3342 3.32317E-01
 -1      3343 3.30002E-01
 -1      3344 3.50164E-01
 -1      3345 3.52542E-01
 -1      3346 3.53956E-01
 -1      3347 3.54687E-01
 -1      3348 3.54913E-01
 -1      3349 3.54913E-01
 -1      3350 3.54687E-01
 -1      3351 3.53956E-01
 -1      3352 3.52542E-01
 -1      3353 3.50164E-01
 -1      3354 3.72127E-01
 -1      3355 3.74561E-01
 -1      3356 3.75985E-01
 -1      3357 3.76710E-01
 -1      3358 3.76932E-01
 -1      3359 3.76932E-01
 -1      3360 3.76710E-01
 -1      3361 3.75985E-01
 -1      3362 3.74561E-01
 -1      3363 3.72127E-01
 -1      3364 3.96143E-01
 -1      3365 3.98622E-01
 -1      3366 4.00048E-01
 -1      3367 4.00760E-01
 -1      3368 4.00976E-01
 -1      3369 4.00976E-01
 -1      3370 4.00760E-01
 -1      3371 4.00048E-01
 -1      3372 3.98622E-01
 -1      3373 3.96143E-01
 -1      3374 4.22519E-01
 -1      3375 4.25030E-01
 -1      3376 4.26445E-01
 -1      3377 4.27137E-01
 -1      3378 4.27345E-01
 -1      3379 4.27345E-01
 -1      3380 4.27137E-01
 -1      3381 4.26445E-01
 -1      3382 4.25030E-01
 -1      3383 4.22519E-01
 -1      3384 4.51631E-01
 -1      3385 4.54155E-01
 -1      3386 4.55547E-01
 -1      3387 4.56210E-01
 -1      3388 4.56407E-01
 -1      3389 4.56407E-01
 -1      3390 4.56210E-01
 -1      3391 4.55547E-01
 -1      3392 4.54155E-01
 -1      3393 4.51631E-01
 -1      3394 4.83943E-01
 -1      3395 4.86463E-01
 -1      3396 4.87816E-01
 -1      3397 4.88441E-01
 -1      3398 4.88624E-01
 -1      3399 4.88624E-01
 -1      3400 4.88441E-01
 -1      3401 4.87816E-01
 -1      3402 4.86463E-01
 -1      3403 4.83943E-01
 -1      3404 5.20059E-01
 -1      3405 5.22535E-01
 -1      3406 5.23831E-01
 -1      3407 5.24411E-01
 -1      3408 5.24578E-01
 -1      3409 5.24578E-01
 -1      3410 5.24411E-01
 -1      3411 5.23831E-01
 -1      3412 5.22535E-01
 -1      3413 5.20059E-01
 -1      3414 5.60691E-01
 -1      3415 5.63119E-01
 -1      3416 5.64346E-01
 -1      3417 5.64868E-01
 -1      3418 5.65015E-01
 -1      3419 5.65015E-01
 -1      3420 5.64868E-01
 -1      3421 5.64346E-01
 -1      3422 5.63119E-01
 -1      3423 5.60691E-01
 -1      3424 6.06896E-01
 -1      3425 6.09206E-01
 -1      3426 6.10311E-01
 -1      3427 6.10764E-01
 -1      3428 6.10884E-01
 -1      3429 6.10884E-01
 -1      3430 6.10764E-01
 -1      3431 6.10311E-01
 -1      3432 6.09206E-01
 -1      3433 6.06896E-01
 -1      3434 6.59207E-01
 -1      3435 6.61213E-01
 -1      3436 6.61968E-01
 -1      3437 6.62281E-01
 -1      3438 6.62362E-01
 -1      3439 6.62362E-01
 -1      3440 6.62281E-01
 -1      3441 6.61968E-01
 -1      3442 6.61213E-01
 -1      3443 6.59207E-01
 -1      3444 6.77203E-01
 -1      3445 6.78677E-01
 -1      3446 6.79136E-01
 -1      3447 6.79302E-01
 -1      3448 6.79337E-01
 -1      3449 6.79337E-01
 -1      3450 6.79302E-01
 -1      3451 6.79136E-01
 -1      3452 6.78677E-01
 -1      3453 6.77203E-01
 -1      3454 1.36785E-01
 -1      3455 1.29638E-01
 -1      3457 1.37781E-01
 -1      3458 1.30153E-01
 -1      3460 1.38479E-01
 -1      3461 1.30499E-01
 -1      3463 1.38911E-01
 -1      3464 1.30686E-01
 -1      3466 1.39107E-01
 -1      3467 1.30741E-01
 -1      3469 1.39152E-01
 -1      3470 1.30741E-01
 -1      3472 1.39107E-01
 -1      3473 1.30686E-01
 -1      3475 1.38911E-01
 -1      3476 1.30499E-01
 -1      3478 1.38479E-01
 -1      3479 1.30153E-01
 -1      3481 1.37781E-01
 -1      3482 1.29638E-01
 -1      3484 1.36785E-01
 -1      3486 1.44271E-01
 -1      3487 1.41190E-01
 -1      3489 1.45547E-01
 -1      3490 1.42138E-01
 -1      3492 1.46440E-01
 -1      3493 1.42780E-01
 -1      3495 1.47007E-01
 -1      3496 1.43138E-01
 -1      3498 1.47278E-01
 -1      3499 1.43247E-01
 -1      3501 1.47343E-01
 -1      3502 1.43247E-01
 -1      3504 1.47278E-01
 -1      3505 1.43138E-01
 -1      3507 1.47007E-01
 -1      3508 1.42780E-01
 -1      3510 1.46440E-01
 -1      3511 1.42138E-01
 -1      3513 1.45547E-01
 -1      3514 1.41190E-01
 -1      3516 1.44271E-01
 -1      3518 1.51640E-01
 -1      3519 1.48737E-01
 -1      3521 1.53043E-01
 -1      3522 1.49854E-01
 -1      3524 1.54020E-01
 -1      3525 1.50606E-01
 -1      3527 1.54636E-01
 -1      3528 1.51037E-01
 -1      3530 1.54934E-01
 -1      3531 1.51175E-01
 -1      3533 1.55007E-01
 -1      3534 1.51175E-01
 -1      3536 1.54934E-01
 -1      3537 1.51037E-01
 -1      3539 1.54636E-01
 -1      3540 1.50606E-01
 -1      3542 1.54020E-01
 -1      3543 1.49854E-01
 -1      3545 1.53043E-01
 -1      3546 1.48737E-01
 -1      3548 1.51640E-01
 -1      3550 1.59082E-01
 -1      3551 1.56213E-01
 -1      3553 1.60594E-01
 -1      3554 1.57424E-01
 -1      3556 1.61637E-01
 -1      3557 1.58233E-01
 -1      3559 1.62293E-01
 -1      3560 1.58696E-01
 -1      3562 1.62608E-01
 -1      3563 1.58846E-01
 -1      3565 1.62685E-01
 -1      3566 1.58846E-01
 -1      3568 1.62608E-01
 -1      3569 1.58696E-01
 -1      3571 1.62293E-01
 -1      3572 1.58233E-01
 -1      3574 1.61637E-01
 -1      3575 1.57424E-01
 -1      3577 1.60594E-01
 -1      3578 1.56213E-01
 -1      3580 1.59082E-01
 -1      3582 1.66807E-01
 -1      3583 1.63858E-01
 -1      3585 1.68414E-01
 -1      3586 1.65150E-01
 -1      3588 1.69519E-01
 -1      3589 1.66007E-01
 -1      3591 1.70210E-01
 -1      3592 1.66496E-01
 -1      3594 1.70542E-01
 -1      3595 1.66654E-01
 -1      3597 1.70623E-01
 -1      3598 1.66654E-01
 -1      3600 1.70542E-01
 -1      3601 1.66496E-01
 -1      3603 1.70210E-01
 -1      3604 1.66007E-01
 -1      3606 1.69519E-01
 -1      3607 1.65150E-01
 -1      3609 1.68414E-01
 -1      3610 1.63858E-01
 -1      3612 1.66807E-01
 -1      3614 1.74931E-01
 -1      3615 1.71840E-01
 -1      3617 1.76632E-01
 -1      3618 1.73206E-01
 -1      3620 1.77795E-01
 -1      3621 1.74108E-01
 -1      3623 1.78520E-01
 -1      3624 1.74621E-01
 -1      3626 1.78867E-01
 -1      3627 1.74787E-01
 -1      3629 1.78952E-01
 -1      3630 1.74787E-01
 -1      3632 1.78867E-01
 -1      3633 1.74621E-01
 -1      3635 1.78520E-01
 -1      3636 1.74108E-01
 -1      3638 1.77795E-01
 -1      3639 1.73206E-01
 -1      3641 1.76632E-01
 -1      3642 1.71840E-01
 -1      3644 1.74931E-01
 -1      3646 1.83534E-01
 -1      3647 1.80262E-01
 -1      3649 1.85329E-01
 -1      3650 1.81699E-01
 -1      3652 1.86550E-01
 -1      3653 1.82645E-01
 -1      3655 1.87307E-01
 -1      3656 1.83182E-01
 -1      3658 1.87670E-01
 -1      3659 1.83355E-01
 -1      3661 1.87758E-01
 -1      3662 1.83355E-01
 -1      3664 1.87670E-01
 -1      3665 1.83182E-01
 -1      3667 1.87307E-01
 -1      3668 1.82645E-01
 -1      3670 1.86550E-01
 -1      3671 1.81699E-01
 -1      3673 1.85329E-01
 -1      3674 1.80262E-01
 -1      3676 1.83534E-01
 -1      3678 1.92675E-01
 -1      3679 1.89193E-01
 -1      3681 1.94568E-01
 -1      3682 1.90703E-01
 -1      3684 1.95846E-01
 -1      3685 1.91692E-01
 -1      3687 1.96637E-01
 -1      3688 1.92251E-01
 -1      3690 1.97014E-01
 -1      3691 1.92432E-01
 -1      3693 1.97106E-01
 -1      3694 1.92432E-01
 -1      3696 1.97014E-01
 -1      3697 1.92251E-01
 -1      3699 1.96637E-01
 -1      3700 1.91692E-01
 -1      3702 1.95846E-01
 -1      3703 1.90703E-01
 -1      3705 1.94568E-01
 -1      3706 1.89193E-01
 -1      3708 1.92675E-01
 -1      3710 2.02410E-01
 -1      3711 1.98693E-01
 -1      3713 2.04403E-01
 -1      3714 2.00277E-01
 -1      3716 2.05740E-01
 -1      3717 2.01309E-01
 -1      3719 2.06564E-01
 -1      3720 2.01891E-01
 -1      3722 2.06955E-01
 -1      3723 2.02078E-01
 -1      3725 2.07051E-01
 -1      3726 2.02078E-01
 -1      3728 2.06955E-01
 -1      3729 2.01891E-01
 -1      3731 2.06564E-01
 -1      3732 2.01309E-01
 -1      3734 2.05740E-01
 -1      3735 2.00277E-01
 -1      3737 2.04403E-01
 -1      3738 1.98693E-01
 -1      3740 2.02410E-01
 -1      3742 2.12792E-01
 -1      3743 2.08816E-01
 -1      3745 2.14890E-01
 -1      3746 2.10476E-01
 -1      3748 2.16288E-01
 -1      3749 2.11552E-01
 -1      3751 2.17143E-01
 -1      3752 2.12155E-01
 -1      3754 2.17549E-01
 -1      3755 2.12349E-01
 -1      3757 2.17648E-01
 -1      3758 2.12349E-01
 -1      3760 2.17549E-01
 -1      3761 2.12155E-01
 -1      3763 2.17143E-01
 -1      3764 2.11552E-01
 -1      3766 2.16288E-01
 -1      3767 2.10476E-01
 -1      3769 2.14890E-01
 -1      3770 2.08816E-01
 -1      3772 2.12792E-01
 -1      3774 2.23882E-01
 -1      3775 2.19621E-01
 -1      3777 2.26089E-01
 -1      3778 2.21358E-01
 -1      3780 2.27547E-01
 -1      3781 2.22477E-01
 -1      3783 2.28435E-01
 -1      3784 2.23102E-01
 -1      3786 2.28855E-01
 -1      3787 2.23302E-01
 -1      3789 2.28956E-01
 -1      3790 2.23302E-01
 -1      3792 2.28855E-01
 -1      3793 2.23102E-01
 -1      3795 2.28435E-01
 -1      3796 2.22477E-01
 -1      3798 2.27547E-01
 -1      3799 2.21358E-01
 -1      3801 2.26089E-01
 -1      3802 2.19621E-01
 -1      3804 2.23882E-01
 -1      3806 2.35744E-01
 -1      3807 2.31168E-01
 -1      3809 2.38064E-01
 -1      3810 2.32984E-01
 -1      3812 2.39584E-01
 -1      3813 2.34147E-01
 -1      3815 2.40503E-01
 -1      3816 2.34792E-01
 -1      3818 2.40936E-01
 -1      3819 2.34998E-01
 -1      3821 2.41041E-01
 -1      3822 2.34998E-01
 -1      3824 2.40936E-01
 -1      3825 2.34792E-01
 -1      3827 2.40503E-01
 -1      3828 2.34147E-01
 -1      3830 2.39584E-01
 -1      3831 2.32984E-01
 -1      3833 2.38064E-01
 -1      3834 2.31168E-01
 -1      3836 2.35744E-01
 -1      3838 2.48453E-01
 -1      3839 2.43529E-01
 -1      3841 2.50890E-01
 -1      3842 2.45425E-01
 -1      3844 2.52471E-01
 -1      3845 2.46630E-01
 -1      3847 2.53421E-01
 -1      3848 2.47294E-01
 -1      3850 2.53865E-01
 -1      3851 2.47506E-01
 -1      3853 2.53972E-01
 -1      3854 2.47506E-01
 -1      3856 2.53865E-01
 -1      3857 2.47294E-01
 -1      3859 2.53421E-01
 -1      3860 2.46630E-01
 -1      3862 2.52471E-01
 -1      3863 2.45425E-01
 -1      3865 2.50890E-01
 -1      3866 2.43529E-01
 -1      3868 2.48453E-01
 -1      3870 2.62092E-01
 -1      3871 2.56781E-01
 -1      3873 2.64649E-01
 -1      3874 2.58758E-01
 -1      3876 2.66290E-01
 -1      3877 2.60004E-01
 -1      3879 2.67269E-01
 -1      3880 2.60686E-01
 -1      3882 2.67724E-01
 -1      3883 2.60903E-01
 -1      3885 2.67834E-01
 -1      3886 2.60903E-01
 -1      3888 2.67724E-01
 -1      3889 2.60686E-01
 -1      3891 2.67269E-01
 -1      3892 2.60004E-01
 -1      3894 2.66290E-01
 -1      3895 2.58758E-01
 -1      3897 2.64649E-01
 -1      3898 2.56781E-01
 -1      3900 2.62092E-01
 -1      3902 2.76756E-01
 -1      3903 2.71016E-01
 -1      3905 2.79437E-01
 -1      3906 2.73071E-01
 -1      3908 2.81137E-01
 -1      3909 2.74356E-01
 -1      3911 2.82142E-01
 -1      3912 2.75055E-01
 -1      3914 2.82606E-01
 -1      3915 2.75276E-01
 -1      3917 2.82718E-01
 -1      3918 2.75276E-01
 -1      3920 2.82606E-01
 -1      3921 2.75055E-01
 -1      3923 2.82142E-01
 -1      3924 2.74356E-01
 -1      3926 2.81137E-01
 -1      3927 2.73071E-01
 -1      3929 2.79437E-01
 -1      3930 2.71016E-01
 -1      3932 2.76756E-01
 -1      3934 2.92556E-01
 -1      3935 2.86334E-01
 -1      3937 2.95364E-01
 -1      3938 2.88467E-01
 -1      3940 2.97119E-01
 -1      3941 2.89789E-01
 -1      3943 2.98148E-01
 -1      3944 2.90501E-01
 -1      3946 2.98619E-01
 -1      3947 2.90725E-01
 -1      3949 2.98732E-01
 -1      3950 2.90725E-01
 -1      3952 2.98619E-01
 -1      3953 2.90501E-01
 -1      3955 2.98148E-01
 -1      3956 2.89789E-01
 -1      3958 2.97119E-01
 -1      3959 2.88467E-01
 -1      3961 2.95364E-01
 -1      3962 2.86334E-01
 -1      3964 2.92556E-01
 -1      3966 3.09618E-01
 -1      3967 3.02855E-01
 -1      3969 3.12555E-01
 -1      3970 3.05063E-01
 -1      3972 3.14362E-01
 -1      3973 3.06418E-01
 -1      3975 3.15411E-01
 -1      3976 3.07140E-01
 -1      3978 3.15888E-01
 -1      3979 3.07367E-01
 -1      3981 3.16001E-01
 -1      3982 3.07367E-01
 -1      3984 3.15888E-01
 -1      3985 3.07140E-01
 -1      3987 3.15411E-01
 -1      3988 3.06418E-01
 -1      3990 3.14362E-01
 -1      3991 3.05063E-01
 -1      3993 3.12555E-01
 -1      3994 3.02855E-01
 -1      3996 3.09618E-01
 -1      3998 3.28092E-01
 -1      3999 3.20717E-01
 -1      4001 3.31159E-01
 -1      4002 3.22997E-01
 -1      4004 3.33015E-01
 -1      4005 3.24380E-01
 -1      4007 3.34078E-01
 -1      4008 3.25109E-01
 -1      4010 3.34557E-01
 -1      4011 3.25336E-01
 -1      4013 3.34671E-01
 -1      4014 3.25336E-01
 -1      4016 3.34557E-01
 -1      4017 3.25109E-01
 -1      4019 3.34078E-01
 -1      4020 3.24380E-01
 -1      4022 3.33015E-01
 -1      4023 3.22997E-01
 -1      4025 3.31159E-01
 -1      4026 3.20717E-01
 -1      4028 3.28092E-01
 -1      4030 3.48154E-01
 -1      4031 3.40083E-01
 -1      4033 3.51353E-01
 -1      4034 3.42430E-01
 -1      4036 3.53249E-01
 -1      4037 3.43834E-01
 -1      4039 3.54322E-01
 -1      4040 3.44565E-01
 -1      4042 3.54800E-01
 -1      4043 3.44792E-01
 -1      4045 3.54913E-01
 -1      4046 3.44792E-01
 -1      4048 3.54800E-01
 -1      4049 3.44565E-01
 -1      4051 3.54322E-01
 -1      4052 3.43834E-01
 -1      4054 3.53249E-01
 -1      4055 3.42430E-01
 -1      4057 3.51353E-01
 -1      4058 3.40083E-01
 -1      4060 3.48154E-01
 -1      4062 3.70013E-01
 -1      4063 3.61145E-01
 -1      4065 3.73344E-01
 -1      4066 3.63551E-01
 -1      4068 3.75273E-01
 -1      4069 3.64971E-01
 -1      4071 3.76348E-01
 -1      4072 3.65699E-01
 -1      4074 3.76821E-01
 -1      4075 3.65922E-01
 -1      4077 3.76932E-01
 -1      4078 3.65922E-01
 -1      4080 3.76821E-01
 -1      4081 3.65699E-01
 -1      4083 3.76348E-01
 -1      4084 3.64971E-01
 -1      4086 3.75273E-01
 -1      4087 3.63551E-01
 -1      4089 3.73344E-01
 -1      4090 3.61145E-01
 -1      4092 3.70013E-01
 -1      4094 3.93923E-01
 -1      4095 3.84135E-01
 -1      4097 3.97383E-01
 -1      4098 3.86592E-01
 -1      4100 3.99335E-01
 -1      4101 3.88017E-01
 -1      4103 4.00404E-01
 -1      4104 3.88735E-01
 -1      4106 4.00868E-01
 -1      4107 3.88954E-01
 -1      4109 4.00976E-01
 -1      4110 3.88954E-01
 -1      4112 4.00868E-01
 -1      4113 3.88735E-01
 -1      4115 4.00404E-01
 -1      4116 3.88017E-01
 -1      4118 3.99335E-01
 -1      4119 3.86592E-01
 -1      4121 3.97383E-01
 -1      4122 3.84135E-01
 -1      4124 3.93923E-01
 -1      4126 4.20188E-01
 -1      4127 4.09331E-01
 -1      4129 4.23774E-01
 -1      4130 4.11826E-01
 -1      4132 4.25737E-01
 -1      4133 4.13246E-01
 -1      4135 4.26791E-01
 -1      4136 4.13948E-01
 -1      4138 4.27241E-01
 -1      4139 4.14160E-01
 -1      4141 4.27345E-01
 -1      4142 4.14160E-01
 -1      4144 4.27241E-01
 -1      4145 4.13948E-01
 -1      4147 4.26791E-01
 -1      4148 4.13246E-01
 -1      4150 4.25737E-01
 -1      4151 4.11826E-01
 -1      4153 4.23774E-01
 -1      4154 4.09331E-01
 -1      4156 4.20188E-01
 -1      4158 4.49186E-01
 -1      4159 4.37075E-01
 -1      4161 4.52893E-01
 -1      4162 4.39592E-01
 -1      4164 4.54851E-01
 -1      4165 4.40996E-01
 -1      4167 4.55878E-01
 -1      4168 4.41674E-01
 -1      4170 4.56309E-01
 -1      4171 4.41876E-01
 -1      4173 4.56407E-01
 -1      4174 4.41876E-01
 -1      4176 4.56309E-01
 -1      4177 4.41674E-01
 -1      4179 4.55878E-01
 -1      4180 4.40996E-01
 -1      4182 4.54851E-01
 -1      4183 4.39592E-01
 -1      4185 4.52893E-01
 -1      4186 4.37075E-01
 -1      4188 4.49186E-01
 -1      4190 4.81382E-01
 -1      4191 4.67787E-01
 -1      4193 4.85203E-01
 -1      4194 4.70309E-01
 -1      4196 4.87139E-01
 -1      4197 4.71681E-01
 -1      4199 4.88128E-01
 -1      4200 4.72326E-01
 -1      4202 4.88533E-01
 -1      4203 4.72516E-01
 -1      4205 4.88624E-01
 -1      4206 4.72516E-01
 -1      4208 4.88533E-01
 -1      4209 4.72326E-01
 -1      4211 4.88128E-01
 -1      4212 4.71681E-01
 -1      4214 4.87139E-01
 -1      4215 4.70309E-01
 -1      4217 4.85203E-01
 -1      4218 4.67787E-01
 -1      4220 4.81382E-01
 -1      4222 5.17371E-01
 -1      4223 5.02001E-01
 -1      4225 5.21297E-01
 -1      4226 5.04499E-01
 -1      4228 5.23183E-01
 -1      4229 5.05823E-01
 -1      4231 5.24121E-01
 -1      4232 5.06426E-01
 -1      4234 5.24495E-01
 -1      4235 5.06601E-01
 -1      4237 5.24578E-01
 -1      4238 5.06601E-01
 -1      4240 5.24495E-01
 -1      4241 5.06426E-01
 -1      4243 5.24121E-01
 -1      4244 5.05823E-01
 -1      4246 5.23183E-01
 -1      4247 5.04499E-01
 -1      4249 5.21297E-01
 -1      4250 5.02001E-01
 -1      4252 5.17371E-01
 -1      4254 5.57899E-01
 -1      4255 5.40375E-01
 -1      4257 5.61905E-01
 -1      4258 5.42827E-01
 -1      4260 5.63732E-01
 -1      4261 5.44089E-01
 -1      4263 5.64607E-01
 -1      4264 5.44640E-01
 -1      4266 5.64941E-01
 -1      4267 5.44796E-01
 -1      4269 5.65015E-01
 -1      4270 5.44796E-01
 -1      4272 5.64941E-01
 -1      4273 5.44640E-01
 -1      4275 5.64607E-01
 -1      4276 5.44089E-01
 -1      4278 5.63732E-01
 -1      4279 5.42827E-01
 -1      4281 5.61905E-01
 -1      4282 5.40375E-01
 -1      4284 5.57899E-01
 -1      4286 6.03926E-01
 -1      4287 5.83793E-01
 -1      4289 6.08051E-01
 -1      4290 5.86163E-01
 -1      4292 6.09759E-01
 -1      4293 5.87328E-01
 -1      4295 6.10537E-01
 -1      4296 5.87816E-01
 -1      4298 6.10824E-01
 -1      4299 5.87949E-01
 -1      4301 6.10884E-01
 -1      4302 5.87949E-01
 -1      4304 6.10824E-01
 -1      4305 5.87816E-01
 -1      4307 6.10537E-01
 -1      4308 5.87328E-01
 -1      4310 6.09759E-01
 -1      4311 5.86163E-01
 -1      4313 6.08051E-01
 -1      4314 5.83793E-01
 -1      4316 6.03926E-01
 -1      4318 6.56401E-01
 -1      4319 6.33052E-01
 -1      4321 6.60210E-01
 -1      4322 6.35210E-01
 -1      4324 6.61590E-01
 -1      4325 6.36139E-01
 -1      4327 6.62124E-01
 -1      4328 6.36523E-01
 -1      4330 6.62322E-01
 -1      4331 6.36623E-01
 -1      4333 6.62362E-01
 -1      4334 6.36623E-01
 -1      4336 6.62322E-01
 -1      4337 6.36523E-01
 -1      4339 6.62124E-01
 -1      4340 6.36139E-01
 -1      4342 6.61590E-01
 -1      4343 6.35210E-01
 -1      4345 6.60210E-01
 -1      4346 6.33052E-01
 -1      4348 6.56401E-01
 -1      4350 6.76071E-01
 -1      4351 6.68205E-01
 -1      4353 6.77940E-01
 -1      4354 6.69945E-01
 -1      4356 6.78907E-01
 -1      4357 6.70552E-01
 -1      4359 6.79219E-01
 -1      4360 6.70792E-01
 -1      4362 6.79320E-01
 -1      4363 6.70850E-01
 -1      4365 6.79337E-01
 -1      4366 6.70850E-01
 -1      4368 6.79320E-01
 -1      4369 6.70792E-01
 -1      4371 6.79219E-01
 -1      4372 6.70552E-01
 -1      4374 6.78907E-01
 -1      4375 6.69945E-01
 -1      4377 6.77940E-01
 -1      4378 6.68205E-01
 -1      4380 6.76071E-01
 -1      4382 6.77203E-01
 -1      4384 6.78677E-01
 -1      4386 6.79136E-01
 -1      4388 6.79302E-01
 -1      4390 6.79337E-01
 -1      4392 6.79337E-01
 -1      4394 6.79302E-01
 -1      4396 6.79136E-01
 -1      4398 6.78677E-01
 -1      4400 6.77203E-01
 -1      4403 6.77203E-01
 -1      4404 6.78677E-01
 -1      4405 6.79136E-01
 -1      4406 6.79302E-01
 -1      4407 6.79337E-01
 -1      4408 6.79337E-01
 -1      4409 6.79302E-01
 -1      4410 6.79136E-01
 -1      4411 6.78677E-01
 -1      4412 6.77203E-01
 -1      4413 6.77203E-01
 -1      4414 6.78677E-01
 -1      4415 6.79136E-01
 -1      4416 6.79302E-01
 -1      4417 6.79337E-01
 -1      4418 6.79337E-01
 -1      4419 6.79302E-01
 -1      4420 6.79136E-01
 -1      4421 6.78677E-01
 -1      4422 6.77203E-01
 -1      4423 6.77203E-01
 -1      4424 6.78677E-01
 -1      4425 6.79136E-01
 -1      4426 6.79302E-01
 -1      4427 6.79337E-01
 -1      4428 6.79337E-01
 -1      4429 6.79302E-01
 -1      4430 6.79136E-01
 -1      4431 6.78677E-01
 -1      4432 6.77203E-01
 -1      4433 6.77203E-01
 -1      4434 6.78677E-01
 -1      4435 6.79136E-01
 -1      4436 6.79302E-01
 -1      4437 6.79337E-01
 -1      4438 6.79337E-01
 -1      4439 6.79302E-01
 -1      4440 6.79136E-01
 -1      4441 6.78677E-01
 -1      4442 6.77203E-01
 -1      4443 6.77203E-01
 -1      4444 6.78677E-01
 -1      4445 6.79136E-01
 -1      4446 6.79302E-01
 -1      4447 6.79337E-01
 -1      4448 6.79337E-01
 -1      4449 6.79302E-01
 -1      4450 6.79136E-01
 -1      4451 6.78677E-01
 -1      4452 6.77203E-01
 -1      4453 6.77203E-01
 -1      4454 6.78677E-01
 -1      4455 6.79136E-01
 -1      4456 6.79302E-01
 -1      4457 6.79337E-01
 -1      4458 6.79337E-01
 -1      4459 6.79302E-01
 -1      4460 6.79136E-01
 -1      4461 6.78677E-01
 -1      4462 6.77203E-01
 -1      4463 6.77203E-01
 -1      4464 6.78677E-01
 -1      4465 6.79136E-01
 -1      4466 6.79302E-01
 -1      4467 6.79337E-01
 -1      4468 6.79337E-01
 -1      4469 6.79302E-01
 -1      4470 6.79136E-01
 -1      4471 6.78677E-01
 -1      4472 6.77203E-01
 -1      4473 6.77203E-01
 -1      4474 6.78677E-01
 -1      4475 6.79136E-01
 -1      4476 6.79302E-01
 -1      4477 6.79337E-01
 -1      4478 6.79337E-01
 -1      4479 6.79302E-01
 -1      4480 6.79136E-01
 -1      4481 6.78677E-01
 -1      4482 6.77203E-01
 -1      4483 6.77203E-01
 -1      4484 6.78677E-01
 -1      4485 6.79136E-01
 -1      4486 6.79302E-01
 -1      4487 6.79337E-01
 -1      4488 6.79337E-01
 -1      4489 6.79302E-01
 -1      4490 6.79136E-01
 -1      4491 6.78677E-01
 -1      4492 6.77203E-01
 -1      4493 6.76071E-01
 -1      4494 6.77203E-01
 -1      4496 6.77940E-01
 -1      4497 6.78677E-01
 -1      4499 6.78907E-01
 -1      4500 6.79136E-01
 -1      4502 6.79219E-01
 -1      4503 6.79302E-01
 -1      4505 6.79320E-01
 -1      4506 6.79337E-01
 -1      4508 6.79337E-01
 -1      4509 6.79337E-01
 -1      4511 6.79320E-01
 -1      4512 6.79302E-01
 -1      4514 6.79219E-01
 -1      4515 6.79136E-01
 -1      4517 6.78907E-01
 -1      4518 6.78677E-01
 -1      4520 6.77940E-01
 -1      4521 6.77203E-01
 -1      4523 6.76071E-01
 -1      4525 6.76071E-01
 -1      4526 6.77203E-01
 -1      4528 6.77940E-01
 -1      4529 6.78677E-01
 -1      4531 6.78907E-01
 -1      4532 6.79136E-01
 -1      4534 6.79219E-01
 -1      4535 6.79302E-01
 -1      4537 6.79320E-01
 -1      4538 6.79337E-01
 -1      4540 6.79337E-01
 -1      4541 6.79337E-01
 -1      4543 6.79320E-01
 -1      4544 6.79302E-01
 -1      4546 6.79219E-01
 -1      4547 6.79136E-01
 -1      4549 6.78907E-01
 -1      4550 6.78677E-01
 -1      4552 6.77940E-01
 -1      4553 6.77203E-01
 -1      4555 6.76071E-01
 -1      4557 6.76071E-01
 -1      4558 6.77203E-01
 -1      4560 6.77940E-01
 -1      4561 6.78677E-01
 -1      4563 6.78907E-01
 -1      4564 6.79136E-01
 -1      4566 6.79219E-01
 -1      4567 6.79302E-01
 -1      4569 6.79320E-01
 -1      4570 6.79337E-01
 -1      4572 6.79337E-01
 -1      4573 6.79337E-01
 -1      4575 6.79320E-01
 -1      4576 6.79302E-01
 -1      4578 6.79219E-01
 -1      4579 6.79136E-01
 -1      4581 6.78907E-01
 -1      4582 6.78677E-01
 -1      4584 6.77940E-01
 -1      4585 6.77203E-01
 -1      4587 6.76071E-01
 -1      4589 6.76071E-01
 -1      4590 6.77203E-01
 -1      4592 6.77940E-01
 -1      4593 6.78677E-01
 -1      4595 6.78907E-01
 -1      4596 6.79136E-01
 -1      4598 6.79219E-01
 -1      4599 6.79302E-01
 -1      4601 6.79320E-01
 -1      4602 6.79337E-01
 -1      4604 6.79337E-01
 -1      4605 6.79337E-01
 -1      4607 6.79320E-01
 -1      4608 6.79302E-01
 -1      4610 6.79219E-01
 -1      4611 6.79136E-01
 -1      4613 6.78907E-01
 -1      4614 6.78677E-01
 -1      4616 6.77940E-01
 -1      4617 6.77203E-01
 -1      4619 6.76071E-01
 -1      4621 6.76071E-01
 -1      4622 6.77203E-01
 -1      4624 6.77940E-01
 -1      4625 6.78677E-01
 -1      4627 6.78907E-01
 -1      4628 6.79136E-01
 -1      4630 6.79219E-01
 -1      4631 6.79302E-01
 -1      4633 6.79320E-01
 -1      4634 6.79337E-01
 -1      4636 6.79337E-01
 -1      4637 6.79337E-01
 -1      4639 6.79320E-01
 -1      4640 6.79302E-01
 -1      4642 6.79219E-01
 -1      4643 6.79136E-01
 -1      4645 6.78907E-01
 -1      4646 6.78677E-01
 -1      4648 6.77940E-01
 -1      4649 6.77203E-01
 -1      4651 6.76071E-01
 -1      4653 6.76071E-01
 -1      4654 6.77203E-01
 -1      4656 6.77940E-01
 -1      4657 6.78677E-01
 -1      4659 6.78907E-01
 -1      4660 6.79136E-01
 -1      4662 6.79219E-01
 -1      4663 6.79302E-01
 -1      4665 6.79320E-01
 -1      4666 6.79337E-01
 -1      4668 6.79337E-01
 -1      4669 6.79337E-01
 -1      4671 6.79320E-01
 -1      4672 6.79302E-01
 -1      4674 6.79219E-01
 -1      4675 6.79136E-01
 -1      4677 6.78907E-01
 -1      4678 6.78677E-01
 -1      4680 6.77940E-01
 -1      4681 6.77203E-01
 -1      4683 6.76071E-01
 -1      4685 6.76071E-01
 -1      4686 6.77203E-01
 -1      4688 6.77940E-01
 -1      4689 6.78677E-01
 -1      4691 6.78907E-01
 -1      4692 6.79136E-01
 -1      4694 6.79219E-01
 -1      4695 6.79302E-01
 -1      4697 6.79320E-01
 -1      4698 6.79337E-01
 -1      4700 6.79337E-01
 -1      4701 6.79337E-01
 -1      4703 6.79320E-01
 -1      4704 6.79302E-01
 -1      4706 6.79219E-01
 -1      4707 6.79136E-01
 -1      4709 6.78907E-01
 -1      4710 6.78677E-01
 -1      4712 6.77940E-01
 -1      4713 6.77203E-01
 -1      4715 6.76071E-01
 -1      4717 6.76071E-01
 -1      4718 6.77203E-01
 -1      4720 6.77940E-01
 -1      4721 6.78677E-01
 -1      4723 6.78907E-01
 -1      4724 6.79136E-01
 -1      4726 6.79219E-01
 -1      4727 6.79302E-01
 -1      4729 6.79320E-01
 -1      4730 6.79337E-01
 -1      4732 6.79337E-01
 -1      4733 6.79337E-01
 -1      4735 6.79320E-01
 -1      4736 6.79302E-01
 -1      4738 6.79219E-01
 -1      4739 6.79136E-01
 -1      4741 6.78907E-01
 -1      4742 6.78677E-01
 -1      4744 6.77940E-01
 -1      4745 6.77203E-01
 -1      4747 6.76071E-01
 -1      4749 6.76071E-01
 -1      4750 6.77203E-01
 -1      4752 6.77940E-01
 -1      4753 6.78677E-01
 -1      4755 6.78907E-01
 -1      4756 6.79136E-01
 -1      4758 6.79219E-01
 -1      4759 6.79302E-01
 -1      4761 6.79320E-01
 -1      4762 6.79337E-01
 -1      4764 6.79337E-01
 -1      4765 6.79337E-01
 -1      4767 6.79320E-01
 -1      4768 6.79302E-01
 -1      4770 6.79219E-01
 -1      4771 6.79136E-01
 -1      4773 6.78907E-01
 -1      4774 6.78677E-01
 -1      4776 6.77940E-01
 -1      4777 6.77203E-01
 -1      4779 6.76071E-01
 -1      4781 6.77203E-01
 -1      4783 6.78677E-01
 -1      4785 6.79136E-01
 -1      4787 6.79302E-01
 -1      4789 6.79337E-01
 -1      4791 6.79337E-01
 -1      4793 6.79302E-01
 -1      4795 6.79136E-01
 -1      4797 6.78677E-01
 -1      4799 6.77203E-01
 -1      4802 6.74940E-01
 -1      4803 6.74940E-01
 -1      4804 6.74940E-01
 -1      4805 6.74940E-01
 -1      4806 6.74940E-01
 -1      4807 6.74940E-01
 -1      4808 6.74940E-01
 -1      4809 6.74940E-01
 -1      4810 6.74940E-01
 -1      4811 6.53594E-01
 -1      4812 6.53594E-01
 -1      4813 6.53594E-01
 -1      4814 6.53594E-01
 -1      4815 6.53594E-01
 -1      4816 6.53594E-01
 -1      4817 6.53594E-01
 -1      4818 6.53594E-01
 -1      4819 6.53594E-01
 -1      4820 6.00956E-01
 -1      4821 6.00956E-01
 -1      4822 6.00956E-01
 -1      4823 6.00956E-01
 -1      4824 6.00956E-01
 -1      4825 6.00956E-01
 -1      4826 6.00956E-01
 -1      4827 6.00956E-01
 -1      4828 6.00956E-01
 -1      4829 5.55108E-01
 -1      4830 5.55108E-01
 -1      4831 5.55108E-01
 -1      4832 5.55108E-01
 -1      4833 5.55108E-01
 -1      4834 5.55108E-01
 -1      4835 5.55108E-01
 -1      4836 5.55108E-01
 -1      4837 5.55108E-01
 -1      4838 5.14682E-01
 -1      4839 5.14682E-01
 -1      4840 5.14682E-01
 -1      4841 5.14682E-01
 -1      4842 5.14682E-01
 -1      4843 5.14682E-01
 -1      4844 5.14682E-01
 -1      4845 5.14682E-01
 -1      4846 5.14682E-01
 -1      4847 4.78821E-01
 -1      4848 4.78821E-01
 -1      4849 4.78821E-01
 -1      4850 4.78821E-01
 -1      4851 4.78821E-01
 -1      4852 4.78821E-01
 -1      4853 4.78821E-01
 -1      4854 4.78821E-01
 -1      4855 4.78821E-01
 -1      4856 4.46740E-01
 -1      4857 4.46740E-01
 -1      4858 4.46740E-01
 -1      4859 4.46740E-01
 -1      4860 4.46740E-01
 -1      4861 4.46740E-01
 -1      4862 4.46740E-01
 -1      4863 4.46740E-01
 -1      4864 4.46740E-01
 -1      4865 4.17858E-01
 -1      4866 4.17858E-01
 -1      4867 4.17858E-01
 -1      4868 4.17858E-01
 -1      4869 4.17858E-01
 -1      4870 4.17858E-01
 -1      4871 4.17858E-01
 -1      4872 4.17858E-01
 -1      4873 4.17858E-01
 -1      4874 3.91703E-01
 -1      4875 3.91703E-01
 -1      4876 3.91703E-01
 -1      4877 3.91703E-01
 -1      4878 3.91703E-01
 -1      4879 3.91703E-01
 -1      4880 3.91703E-01
 -1      4881 3.91703E-01
 -1      4882 3.91703E-01
 -1      4883 3.67900E-01
 -1      4884 3.67900E-01
 -1      4885 3.67900E-01
 -1      4886 3.67900E-01
 -1      4887 3.67900E-01
 -1      4888 3.67900E-01
 -1      4889 3.67900E-01
 -1      4890 3.67900E-01
 -1      4891 3.67900E-01
 -1      4892 3.46144E-01
 -1      4893 3.46144E-01
 -1      4894 3.46144E-01
 -1      4895 3.46144E-01
 -1      4896 3.46144E-01
 -1      4897 3.46144E-01
 -1      4898 3.46144E-01
 -1      4899 3.46144E-01
 -1      4900 3.46144E-01
 -1      4901 3.26181E-01
 -1      4902 3.26181E-01
 -1      4903 3.26181E-01
 -1      4904 3.26181E-01
 -1      4905 3.26181E-01
 -1      4906 3.26181E-01
 -1      4907 3.26181E-01
 -1      4908 3.26181E-01
 -1      4909 3.26181E-01
 -1      4910 3.07803E-01
 -1      4911 3.07803E-01
 -1      4912 3.07803E-01
 -1      4913 3.07803E-01
 -1      4914 3.07803E-01
 -1      4915 3.07803E-01
 -1      4916 3.07803E-01
 -1      4917 3.07803E-01
 -1      4918 3.07803E-01
 -1      4919 2.90834E-01
 -1      4920 2.90834E-01
 -1      4921 2.90834E-01
 -1      4922 2.90834E-01
 -1      4923 2.90834E-01
 -1      4924 2.90834E-01
 -1      4925 2.90834E-01
 -1      4926 2.90834E-01
 -1      4927 2.90834E-01
 -1      4928 2.75123E-01
 -1      4929 2.75123E-01
 -1      4930 2.75123E-01
 -1      4931 2.75123E-01
 -1      4932 2.75123E-01
 -1      4933 2.75123E-01
 -1      4934 2.75123E-01
 -1      4935 2.75123E-01
 -1      4936 2.75123E-01
 -1      4937 2.60543E-01
 -1      4938 2.60543E-01
 -1      4939 2.60543E-01
 -1      4940 2.60543E-01
 -1      4941 2.60543E-01
 -1      4942 2.60543E-01
 -1      4943 2.60543E-01
 -1      4944 2.60543E-01
 -1      4945 2.60543E-01
 -1      4946 2.46985E-01
 -1      4947 2.46985E-01
 -1      4948 2.46985E-01
 -1      4949 2.46985E-01
 -1      4950 2.46985E-01
 -1      4951 2.46985E-01
 -1      4952 2.46985E-01
 -1      4953 2.46985E-01
 -1      4954 2.46985E-01
 -1      4955 2.34353E-01
 -1      4956 2.34353E-01
 -1      4957 2.34353E-01
 -1      4958 2.34353E-01
 -1      4959 2.34353E-01
 -1      4960 2.34353E-01
 -1      4961 2.34353E-01
 -1      4962 2.34353E-01
 -1      4963 2.34353E-01
 -1      4964 2.22563E-01
 -1      4965 2.22563E-01
 -1      4966 2.22563E-01
 -1      4967 2.22563E-01
 -1      4968 2.22563E-01
 -1      4969 2.22563E-01
 -1      4970 2.22563E-01
 -1      4971 2.22563E-01
 -1      4972 2.22563E-01
 -1      4973 2.11543E-01
 -1      4974 2.11543E-01
 -1      4975 2.11543E-01
 -1      4976 2.11543E-01
 -1      4977 2.11543E-01
 -1      4978 2.11543E-01
 -1      4979 2.11543E-01
 -1      4980 2.11543E-01
 -1      4981 2.11543E-01
 -1      4982 2.01227E-01
 -1      4983 2.01227E-01
 -1      4984 2.01227E-01
 -1      4985 2.01227E-01
 -1      4986 2.01227E-01
 -1      4987 2.01227E-01
 -1      4988 2.01227E-01
 -1      4989 2.01227E-01
 -1      4990 2.01227E-01
 -1      4991 1.91557E-01
 -1      4992 1.91557E-01
 -1      4993 1.91557E-01
 -1      4994 1.91557E-01
 -1      4995 1.91557E-01
 -1      4996 1.91557E-01
 -1      4997 1.91557E-01
 -1      4998 1.91557E-01
 -1      4999 1.91557E-01
 -1      5000 1.82476E-01
 -1      5001 1.82476E-01
 -1      5002 1.82476E-01
 -1      5003 1.82476E-01
 -1      5004 1.82476E-01
 -1      5005 1.82476E-01
 -1      5006 1.82476E-01
 -1      5007 1.82476E-01
 -1      5008 1.82476E-01
 -1      5009 1.73932E-01
 -1      5010 1.73932E-01
 -1      5011 1.73932E-01
 -1      5012 1.73932E-01
 -1      5013 1.73932E-01
 -1      5014 1.73932E-01
 -1      5015 1.73932E-01
 -1      5016 1.73932E-01
 -1      5017 1.73932E-01
 -1      5018 1.65865E-01
 -1      5019 1.65865E-01
 -1      5020 1.65865E-01
 -1      5021 1.65865E-01
 -1      5022 1.65865E-01
 -1      5023 1.65865E-01
 -1      5024 1.65865E-01
 -1      5025 1.65865E-01
 -1      5026 1.65865E-01
 -1      5027 1.58198E-01
 -1      5028 1.58198E-01
 -1      5029 1.58198E-01
 -1      5030 1.58198E-01
 -1      5031 1.58198E-01
 -1      5032 1.58198E-01
 -1      5033 1.58198E-01
 -1      5034 1.58198E-01
 -1      5035 1.58198E-01
 -1      5036 1.50822E-01
 -1      5037 1.50822E-01
 -1      5038 1.50822E-01
 -1      5039 1.50822E-01
 -1      5040 1.50822E-01
 -1      5041 1.50822E-01
 -1      5042 1.50822E-01
 -1      5043 1.50822E-01
 -1      5044 1.50822E-01
 -1      5045 1.43527E-01
 -1      5046 1.43527E-01
 -1      5047 1.43527E-01
 -1      5048 1.43527E-01
 -1      5049 1.43527E-01
 -1      5050 1.43527E-01
 -1      5051 1.43527E-01
 -1      5052 1.43527E-01
 -1      5053 1.43527E-01
 -1      5054 1.36204E-01
 -1      5055 1.36204E-01
 -1      5056 1.36204E-01
 -1      5057 1.36204E-01
 -1      5058 1.36205E-01
 -1      5059 1.36205E-01
 -1      5060 1.36204E-01
 -1      5061 1.36204E-01
 -1      5062 1.36205E-01
 -1      5063 6.74940E-01
 -1      5064 6.74940E-01
 -1      5066 6.74940E-01
 -1      5067 6.74940E-01
 -1      5069 6.74940E-01
 -1      5070 6.74940E-01
 -1      5072 6.74940E-01
 -1      5073 6.74940E-01
 -1      5075 6.74940E-01
 -1      5076 6.74940E-01
 -1      5078 6.74940E-01
 -1      5079 6.74940E-01
 -1      5081 6.74940E-01
 -1      5082 6.74940E-01
 -1      5084 6.74940E-01
 -1      5085 6.74940E-01
 -1      5087 6.74940E-01
 -1      5088 6.74940E-01
 -1      5090 6.74940E-01
 -1      5092 6.53594E-01
 -1      5093 6.64267E-01
 -1      5095 6.53594E-01
 -1      5096 6.64267E-01
 -1      5098 6.53594E-01
 -1      5099 6.64267E-01
 -1      5101 6.53594E-01
 -1      5102 6.64267E-01
 -1      5104 6.53594E-01
 -1      5105 6.64267E-01
 -1      5107 6.53594E-01
 -1      5108 6.64267E-01
 -1      5110 6.53594E-01
 -1      5111 6.64267E-01
 -1      5113 6.53594E-01
 -1      5114 6.64267E-01
 -1      5116 6.53594E-01
 -1      5117 6.64267E-01
 -1      5119 6.53594E-01
 -1      5121 6.00956E-01
 -1      5122 6.27275E-01
 -1      5124 6.00956E-01
 -1      5125 6.27275E-01
 -1      5127 6.00956E-01
 -1      5128 6.27275E-01
 -1      5130 6.00956E-01
 -1      5131 6.27275E-01
 -1      5133 6.00956E-01
 -1      5134 6.27275E-01
 -1      5136 6.00956E-01
 -1      5137 6.27275E-01
 -1      5139 6.00956E-01
 -1      5140 6.27275E-01
 -1      5142 6.00956E-01
 -1      5143 6.27275E-01
 -1      5145 6.00956E-01
 -1      5146 6.27275E-01
 -1      5148 6.00956E-01
 -1      5150 5.55108E-01
 -1      5151 5.78032E-01
 -1      5153 5.55108E-01
 -1      5154 5.78032E-01
 -1      5156 5.55108E-01
 -1      5157 5.78032E-01
 -1      5159 5.55108E-01
 -1      5160 5.78032E-01
 -1      5162 5.55108E-01
 -1      5163 5.78032E-01
 -1      5165 5.55108E-01
 -1      5166 5.78032E-01
 -1      5168 5.55108E-01
 -1      5169 5.78032E-01
 -1      5171 5.55108E-01
 -1      5172 5.78032E-01
 -1      5174 5.55108E-01
 -1      5175 5.78032E-01
 -1      5177 5.55108E-01
 -1      5179 5.14682E-01
 -1      5180 5.34895E-01
 -1      5182 5.14682E-01
 -1      5183 5.34895E-01
 -1      5185 5.14682E-01
 -1      5186 5.34895E-01
 -1      5188 5.14682E-01
 -1      5189 5.34895E-01
 -1      5191 5.14682E-01
 -1      5192 5.34895E-01
 -1      5194 5.14682E-01
 -1      5195 5.34895E-01
 -1      5197 5.14682E-01
 -1      5198 5.34895E-01
 -1      5200 5.14682E-01
 -1      5201 5.34895E-01
 -1      5203 5.14682E-01
 -1      5204 5.34895E-01
 -1      5206 5.14682E-01
 -1      5208 4.78821E-01
 -1      5209 4.96752E-01
 -1      5211 4.78821E-01
 -1      5212 4.96752E-01
 -1      5214 4.78821E-01
 -1      5215 4.96752E-01
 -1      5217 4.78821E-01
 -1      5218 4.96752E-01
 -1      5220 4.78821E-01
 -1      5221 4.96752E-01
 -1      5223 4.78821E-01
 -1      5224 4.96752E-01
 -1      5226 4.78821E-01
 -1      5227 4.96752E-01
 -1      5229 4.78821E-01
 -1      5230 4.96752E-01
 -1      5232 4.78821E-01
 -1      5233 4.96752E-01
 -1      5235 4.78821E-01
 -1      5237 4.46740E-01
 -1      5238 4.62781E-01
 -1      5240 4.46740E-01
 -1      5241 4.62781E-01
 -1      5243 4.46740E-01
 -1      5244 4.62781E-01
 -1      5246 4.46740E-01
 -1      5247 4.62781E-01
 -1      5249 4.46740E-01
 -1      5250 4.62781E-01
 -1      5252 4.46740E-01
 -1      5253 4.62781E-01
 -1      5255 4.46740E-01
 -1      5256 4.62781E-01
 -1      5258 4.46740E-01
 -1      5259 4.62781E-01
 -1      5261 4.46740E-01
 -1      5262 4.62781E-01
 -1      5264 4.46740E-01
 -1      5266 4.17858E-01
 -1      5267 4.32299E-01
 -1      5269 4.17858E-01
 -1      5270 4.32299E-01
 -1      5272 4.17858E-01
 -1      5273 4.32299E-01
 -1      5275 4.17858E-01
 -1      5276 4.32299E-01
 -1      5278 4.17858E-01
 -1      5279 4.32299E-01
 -1      5281 4.17858E-01
 -1      5282 4.32299E-01
 -1      5284 4.17858E-01
 -1      5285 4.32299E-01
 -1      5287 4.17858E-01
 -1      5288 4.32299E-01
 -1      5290 4.17858E-01
 -1      5291 4.32299E-01
 -1      5293 4.17858E-01
 -1      5295 3.91703E-01
 -1      5296 4.04780E-01
 -1      5298 3.91703E-01
 -1      5299 4.04780E-01
 -1      5301 3.91703E-01
 -1      5302 4.04780E-01
 -1      5304 3.91703E-01
 -1      5305 4.04780E-01
 -1      5307 3.91703E-01
 -1      5308 4.04780E-01
 -1      5310 3.91703E-01
 -1      5311 4.04780E-01
 -1      5313 3.91703E-01
 -1      5314 4.04780E-01
 -1      5316 3.91703E-01
 -1      5317 4.04780E-01
 -1      5319 3.91703E-01
 -1      5320 4.04780E-01
 -1      5322 3.91703E-01
 -1      5324 3.67900E-01
 -1      5325 3.79801E-01
 -1      5327 3.67900E-01
 -1      5328 3.79801E-01
 -1      5330 3.67900E-01
 -1      5331 3.79801E-01
 -1      5333 3.67900E-01
 -1      5334 3.79801E-01
 -1      5336 3.67900E-01
 -1      5337 3.79801E-01
 -1      5339 3.67900E-01
 -1      5340 3.79801E-01
 -1      5342 3.67900E-01
 -1      5343 3.79801E-01
 -1      5345 3.67900E-01
 -1      5346 3.79801E-01
 -1      5348 3.67900E-01
 -1      5349 3.79801E-01
 -1      5351 3.67900E-01
 -1      5353 3.46144E-01
 -1      5354 3.57022E-01
 -1      5356 3.46144E-01
 -1      5357 3.57022E-01
 -1      5359 3.46144E-01
 -1      5360 3.57022E-01
 -1      5362 3.46144E-01
 -1      5363 3.57022E-01
 -1      5365 3.46144E-01
 -1      5366 3.57022E-01
 -1      5368 3.46144E-01
 -1      5369 3.57022E-01
 -1      5371 3.46144E-01
 -1      5372 3.57022E-01
 -1      5374 3.46144E-01
 -1      5375 3.57022E-01
 -1      5377 3.46144E-01
 -1      5378 3.57022E-01
 -1      5380 3.46144E-01
 -1      5382 3.26181E-01
 -1      5383 3.36163E-01
 -1      5385 3.26181E-01
 -1      5386 3.36163E-01
 -1      5388 3.26181E-01
 -1      5389 3.36163E-01
 -1      5391 3.26181E-01
 -1      5392 3.36163E-01
 -1      5394 3.26181E-01
 -1      5395 3.36163E-01
 -1      5397 3.26181E-01
 -1      5398 3.36163E-01
 -1      5400 3.26181E-01
 -1      5401 3.36163E-01
 -1      5403 3.26181E-01
 -1      5404 3.36163E-01
 -1      5406 3.26181E-01
 -1      5407 3.36163E-01
 -1      5409 3.26181E-01
 -1      5411 3.07803E-01
 -1      5412 3.16992E-01
 -1      5414 3.07803E-01
 -1      5415 3.16992E-01
 -1      5417 3.07803E-01
 -1      5418 3.16992E-01
 -1      5420 3.07803E-01
 -1      5421 3.16992E-01
 -1      5423 3.07803E-01
 -1      5424 3.16992E-01
 -1      5426 3.07803E-01
 -1      5427 3.16992E-01
 -1      5429 3.07803E-01
 -1      5430 3.16992E-01
 -1      5432 3.07803E-01
 -1      5433 3.16992E-01
 -1      5435 3.07803E-01
 -1      5436 3.16992E-01
 -1      5438 3.07803E-01
 -1      5440 2.90834E-01
 -1      5441 2.99318E-01
 -1      5443 2.90834E-01
 -1      5444 2.99318E-01
 -1      5446 2.90834E-01
 -1      5447 2.99318E-01
 -1      5449 2.90834E-01
 -1      5450 2.99318E-01
 -1      5452 2.90834E-01
 -1      5453 2.99318E-01
 -1      5455 2.90834E-01
 -1      5456 2.99318E-01
 -1      5458 2.90834E-01
 -1      5459 2.99318E-01
 -1      5461 2.90834E-01
 -1      5462 2.99318E-01
 -1      5464 2.90834E-01
 -1      5465 2.99318E-01
 -1      5467 2.90834E-01
 -1      5469 2.75123E-01
 -1      5470 2.82978E-01
 -1      5472 2.75123E-01
 -1      5473 2.82978E-01
 -1      5475 2.75123E-01
 -1      5476 2.82978E-01
 -1      5478 2.75123E-01
 -1      5479 2.82978E-01
 -1      5481 2.75123E-01
 -1      5482 2.82978E-01
 -1      5484 2.75123E-01
 -1      5485 2.82978E-01
 -1      5487 2.75123E-01
 -1      5488 2.82978E-01
 -1      5490 2.75123E-01
 -1      5491 2.82978E-01
 -1      5493 2.75123E-01
 -1      5494 2.82978E-01
 -1      5496 2.75123E-01
 -1      5498 2.60543E-01
 -1      5499 2.67833E-01
 -1      5501 2.60543E-01
 -1      5502 2.67833E-01
 -1      5504 2.60543E-01
 -1      5505 2.67833E-01
 -1      5507 2.60543E-01
 -1      5508 2.67833E-01
 -1      5510 2.60543E-01
 -1      5511 2.67833E-01
 -1      5513 2.60543E-01
 -1      5514 2.67833E-01
 -1      5516 2.60543E-01
 -1      5517 2.67833E-01
 -1      5519 2.60543E-01
 -1      5520 2.67833E-01
 -1      5522 2.60543E-01
 -1      5523 2.67833E-01
 -1      5525 2.60543E-01
 -1      5527 2.46985E-01
 -1      5528 2.53764E-01
 -1      5530 2.46985E-01
 -1      5531 2.53764E-01
 -1      5533 2.46985E-01
 -1      5534 2.53764E-01
 -1      5536 2.46985E-01
 -1      5537 2.53764E-01
 -1      5539 2.46985E-01
 -1      5540 2.53764E-01
 -1      5542 2.46985E-01
 -1      5543 2.53764E-01
 -1      5545 2.46985E-01
 -1      5546 2.53764E-01
 -1      5548 2.46985E-01
 -1      5549 2.53764E-01
 -1      5551 2.46985E-01
 -1      5552 2.53764E-01
 -1      5554 2.46985E-01
 -1      5556 2.34353E-01
 -1      5557 2.40669E-01
 -1      5559 2.34353E-01
 -1      5560 2.40669E-01
 -1      5562 2.34353E-01
 -1      5563 2.40669E-01
 -1      5565 2.34353E-01
 -1      5566 2.40669E-01
 -1      5568 2.34353E-01
 -1      5569 2.40669E-01
 -1      5571 2.34353E-01
 -1      5572 2.40669E-01
 -1      5574 2.34353E-01
 -1      5575 2.40669E-01
 -1      5577 2.34353E-01
 -1      5578 2.40669E-01
 -1      5580 2.34353E-01
 -1      5581 2.40669E-01
 -1      5583 2.34353E-01
 -1      5585 2.22563E-01
 -1      5586 2.28458E-01
 -1      5588 2.22563E-01
 -1      5589 2.28458E-01
 -1      5591 2.22563E-01
 -1      5592 2.28458E-01
 -1      5594 2.22563E-01
 -1      5595 2.28458E-01
 -1      5597 2.22563E-01
 -1      5598 2.28458E-01
 -1      5600 2.22563E-01
 -1      5601 2.28458E-01
 -1      5603 2.22563E-01
 -1      5604 2.28458E-01
 -1      5606 2.22563E-01
 -1      5607 2.28458E-01
 -1      5609 2.22563E-01
 -1      5610 2.28458E-01
 -1      5612 2.22563E-01
 -1      5614 2.11543E-01
 -1      5615 2.17053E-01
 -1      5617 2.11543E-01
 -1      5618 2.17053E-01
 -1      5620 2.11543E-01
 -1      5621 2.17053E-01
 -1      5623 2.11543E-01
 -1      5624 2.17053E-01
 -1      5626 2.11543E-01
 -1      5627 2.17053E-01
 -1      5629 2.11543E-01
 -1      5630 2.17053E-01
 -1      5632 2.11543E-01
 -1      5633 2.17053E-01
 -1      5635 2.11543E-01
 -1      5636 2.17053E-01
 -1      5638 2.11543E-01
 -1      5639 2.17053E-01
 -1      5641 2.11543E-01
 -1      5643 2.01227E-01
 -1      5644 2.06385E-01
 -1      5646 2.01227E-01
 -1      5647 2.06385E-01
 -1      5649 2.01227E-01
 -1      5650 2.06385E-01
 -1      5652 2.01227E-01
 -1      5653 2.06385E-01
 -1      5655 2.01227E-01
 -1      5656 2.06385E-01
 -1      5658 2.01227E-01
 -1      5659 2.06385E-01
 -1      5661 2.01227E-01
 -1      5662 2.06385E-01
 -1      5664 2.01227E-01
 -1      5665 2.06385E-01
 -1      5667 2.01227E-01
 -1      5668 2.06385E-01
 -1      5670 2.01227E-01
 -1      5672 1.91557E-01
 -1      5673 1.96392E-01
 -1      5675 1.91557E-01
 -1      5676 1.96392E-01
 -1      5678 1.91557E-01
 -1      5679 1.96392E-01
 -1      5681 1.91557E-01
 -1      5682 1.96392E-01
 -1      5684 1.91557E-01
 -1      5685 1.96392E-01
 -1      5687 1.91557E-01
 -1      5688 1.96392E-01
 -1      5690 1.91557E-01
 -1      5691 1.96392E-01
 -1      5693 1.91557E-01
 -1      5694 1.96392E-01
 -1      5696 1.91557E-01
 -1      5697 1.96392E-01
 -1      5699 1.91557E-01
 -1      5701 1.82476E-01
 -1      5702 1.87016E-01
 -1      5704 1.82476E-01
 -1      5705 1.87016E-01
 -1      5707 1.82476E-01
 -1      5708 1.87016E-01
 -1      5710 1.82476E-01
 -1      5711 1.87016E-01
 -1      5713 1.82476E-01
 -1      5714 1.87016E-01
 -1      5716 1.82476E-01
 -1      5717 1.87016E-01
 -1      5719 1.82476E-01
 -1      5720 1.87016E-01
 -1      5722 1.82476E-01
 -1      5723 1.87016E-01
 -1      5725 1.82476E-01
 -1      5726 1.87016E-01
 -1      5728 1.82476E-01
 -1      5730 1.73932E-01
 -1      5731 1.78204E-01
 -1      5733 1.73932E-01
 -1      5734 1.78204E-01
 -1      5736 1.73932E-01
 -1      5737 1.78204E-01
 -1      5739 1.73932E-01
 -1      5740 1.78204E-01
 -1      5742 1.73932E-01
 -1      5743 1.78204E-01
 -1      5745 1.73932E-01
 -1      5746 1.78204E-01
 -1      5748 1.73932E-01
 -1      5749 1.78204E-01
 -1      5751 1.73932E-01
 -1      5752 1.78204E-01
 -1      5754 1.73932E-01
 -1      5755 1.78204E-01
 -1      5757 1.73932E-01
 -1      5759 1.65865E-01
 -1      5760 1.69898E-01
 -1      5762 1.65865E-01
 -1      5763 1.69898E-01
 -1      5765 1.65865E-01
 -1      5766 1.69898E-01
 -1      5768 1.65865E-01
 -1      5769 1.69898E-01
 -1      5771 1.65865E-01
 -1      5772 1.69898E-01
 -1      5774 1.65865E-01
 -1      5775 1.69898E-01
 -1      5777 1.65865E-01
 -1      5778 1.69898E-01
 -1      5780 1.65865E-01
 -1      5781 1.69898E-01
 -1      5783 1.65865E-01
 -1      5784 1.69898E-01
 -1      5786 1.65865E-01
 -1      5788 1.58198E-01
 -1      5789 1.62031E-01
 -1      5791 1.58198E-01
 -1      5792 1.62031E-01
 -1      5794 1.58198E-01
 -1      5795 1.62031E-01
 -1      5797 1.58198E-01
 -1      5798 1.62031E-01
 -1      5800 1.58198E-01
 -1      5801 1.62031E-01
 -1      5803 1.58198E-01
 -1      5804 1.62031E-01
 -1      5806 1.58198E-01
 -1      5807 1.62031E-01
 -1      5809 1.58198E-01
 -1      5810 1.62031E-01
 -1      5812 1.58198E-01
 -1      5813 1.62031E-01
 -1      5815 1.58198E-01
 -1      5817 1.50822E-01
 -1      5818 1.54510E-01
 -1      5820 1.50822E-01
 -1      5821 1.54510E-01
 -1      5823 1.50822E-01
 -1      5824 1.54510E-01
 -1      5826 1.50822E-01
 -1      5827 1.54510E-01
 -1      5829 1.50822E-01
 -1      5830 1.54510E-01
 -1      5832 1.50822E-01
 -1      5833 1.54510E-01
 -1      5835 1.50822E-01
 -1      5836 1.54510E-01
 -1      5838 1.50822E-01
 -1      5839 1.54510E-01
 -1      5841 1.50822E-01
 -1      5842 1.54510E-01
 -1      5844 1.50822E-01
 -1      5846 1.43527E-01
 -1      5847 1.47174E-01
 -1      5849 1.43527E-01
 -1      5850 1.47174E-01
 -1      5852 1.43527E-01
 -1      5853 1.47174E-01
 -1      5855 1.43527E-01
 -1      5856 1.47174E-01
 -1      5858 1.43527E-01
 -1      5859 1.47174E-01
 -1      5861 1.43527E-01
 -1      5862 1.47174E-01
 -1      5864 1.43527E-01
 -1      5865 1.47174E-01
 -1      5867 1.43527E-01
 -1      5868 1.47174E-01
 -1      5870 1.43527E-01
 -1      5871 1.47175E-01
 -1      5873 1.43527E-01
 -1      5875 1.36204E-01
 -1      5876 1.39865E-01
 -1      5878 1.36204E-01
 -1      5879 1.39865E-01
 -1      5881 1.36204E-01
 -1      5882 1.39865E-01
 -1      5884 1.36204E-01
 -1      5885 1.39865E-01
 -1      5887 1.36204E-01
 -1      5888 1.39866E-01
 -1      5890 1.36205E-01
 -1      5891 1.39866E-01
 -1      5893 1.36204E-01
 -1      5894 1.39866E-01
 -1      5896 1.36204E-01
 -1      5897 1.39866E-01
 -1      5899 1.36205E-01
 -1      5900 1.39866E-01
 -1      5902 1.36205E-01
 -1      5904 1.28864E-01
 -1      5906 1.28864E-01
 -1      5908 1.28864E-01
 -1      5910 1.28864E-01
 -1      5912 1.28865E-01
 -1      5914 1.28865E-01
 -1      5916 1.28865E-01
 -1      5918 1.28865E-01
 -1      5920 1.28866E-01
 -1      5923 6.77203E-01
 -1      5924 6.78677E-01
 -1      5925 6.79136E-01
 -1      5926 6.79302E-01
 -1      5927 6.79337E-01
 -1      5928 6.79337E-01
 -1      5929 6.79302E-01
 -1      5930 6.79136E-01
 -1      5931 6.78677E-01
 -1      5932 6.77203E-01
 -1      5933 6.77203E-01
 -1      5934 6.78677E-01
 -1      5935 6.79136E-01
 -1      5936 6.79302E-01
 -1      5937 6.79337E-01
 -1      5938 6.79337E-01
 -1      5939 6.79302E-01
 -1      5940 6.79136E-01
 -1      5941 6.78677E-01
 -1      5942 6.77203E-01
 -1      5943 6.77203E-01
 -1      5944 6.78677E-01
 -1      5945 6.79136E-01
 -1      5946 6.79302E-01
 -1      5947 6.79337E-01
 -1      5948 6.79337E-01
 -1      5949 6.79302E-01
 -1      5950 6.79136E-01
 -1      5951 6.78677E-01
 -1      5952 6.77203E-01
 -1      5953 6.77203E-01
 -1      5954 6.78677E-01
 -1      5955 6.79136E-01
 -1      5956 6.79302E-01
 -1      5957 6.79337E-01
 -1      5958 6.79337E-01
 -1      5959 6.79302E-01
 -1      5960 6.79136E-01
 -1      5961 6.78677E-01
 -1      5962 6.77203E-01
 -1      5963 6.77203E-01
 -1      5964 6.78677E-01
 -1      5965 6.79136E-01
 -1      5966 6.79302E-01
 -1      5967 6.79337E-01
 -1      5968 6.79337E-01
 -1      5969 6.79302E-01
 -1      5970 6.79136E-01
 -1      5971 6.78677E-01
 -1      5972 6.77203E-01
 -1      5973 6.77203E-01
 -1      5974 6.78677E-01
 -1      5975 6.79136E-01
 -1      5976 6.79302E-01
 -1      5977 6.79337E-01
 -1      5978 6.79337E-01
 -1      5979 6.79302E-01
 -1      5980 6.79136E-01
 -1      5981 6.78677E-01
 -1      5982 6.77203E-01
 -1      5983 6.77203E-01
 -1      5984 6.78677E-01
 -1      5985 6.79136E-01
 -1      5986 6.79302E-01
 -1      5987 6.79337E-01
 -1      5988 6.79337E-01
 -1      5989 6.79302E-01
 -1      5990 6.79136E-01
 -1      5991 6.78677E-01
 -1      5992 6.77203E-01
 -1      5993 6.77203E-01
 -1      5994 6.78677E-01
 -1      5995 6.79136E-01
 -1      5996 6.79302E-01
 -1      5997 6.79337E-01
 -1      5998 6.79337E-01
 -1      5999 6.79302E-01
 -1      6000 6.79136E-01
 -1      6001 6.78677E-01
 -1      6002 6.77203E-01
 -1      6003 6.77203E-01
 -1      6004 6.78677E-01
 -1      6005 6.79136E-01
 -1      6006 6.79302E-01
 -1      6007 6.79337E-01
 -1      6008 6.79337E-01
 -1      6009 6.79302E-01
 -1      6010 6.79136E-01
 -1      6011 6.78677E-01
 -1      6012 6.77203E-01
 -1      6013 6.59207E-01
 -1      6014 6.61213E-01
 -1      6015 6.61968E-01
 -1      6016 6.62281E-01
 -1      6017 6.62362E-01
 -1      6018 6.62362E-01
 -1      6019 6.62281E-01
 -1      6020 6.61968E-01
 -1      6021 6.61213E-01
 -1      6022 6.59207E-01
 -1      6023 6.59207E-01
 -1      6024 6.61213E-01
 -1      6025 6.61968E-01
 -1      6026 6.62281E-01
 -1      6027 6.62362E-01
 -1      6028 6.62362E-01
 -1      6029 6.62281E-01
 -1      6030 6.61968E-01
 -1      6031 6.61213E-01
 -1      6032 6.59207E-01
 -1      6033 6.59207E-01
 -1      6034 6.61213E-01
 -1      6035 6.61968E-01
 -1      6036 6.62281E-01
 -1      6037 6.62362E-01
 -1      6038 6.62362E-01
 -1      6039 6.62281E-01
 -1      6040 6.61968E-01
 -1      6041 6.61213E-01
 -1      6042 6.59207E-01
 -1      6043 6.59207E-01
 -1      6044 6.61213E-01
 -1      6045 6.61968E-01
 -1      6046 6.62281E-01
 -1      6047 6.62362E-01
 -1      6048 6.62362E-01
 -1      6049 6.62281E-01
 -1      6050 6.61968E-01
 -1      6051 6.61213E-01
 -1      6052 6.59207E-01
 -1      6053 6.59207E-01
 -1      6054 6.61213E-01
 -1      6055 6.61968E-01
 -1      6056 6.62281E-01
 -1      6057 6.62362E-01
 -1      6058 6.62362E-01
 -1      6059 6.62281E-01
 -1      6060 6.61968E-01
 -1      6061 6.61213E-01
 -1      6062 6.59207E-01
 -1      6063 6.59207E-01
 -1      6064 6.61213E-01
 -1      6065 6.61968E-01
 -1      6066 6.62281E-01
 -1      6067 6.62362E-01
 -1      6068 6.62362E-01
 -1      6069 6.62281E-01
 -1      6070 6.61968E-01
 -1      6071 6.61213E-01
 -1      6072 6.59207E-01
 -1      6073 6.59207E-01
 -1      6074 6.61213E-01
 -1      6075 6.61968E-01
 -1      6076 6.62281E-01
 -1      6077 6.62362E-01
 -1      6078 6.62362E-01
 -1      6079 6.62281E-01
 -1      6080 6.61968E-01
 -1      6081 6.61213E-01
 -1      6082 6.59207E-01
 -1      6083 6.59207E-01
 -1      6084 6.61213E-01
 -1      6085 6.61968E-01
 -1      6086 6.62281E-01
 -1      6087 6.62362E-01
 -1      6088 6.62362E-01
 -1      6089 6.62281E-01
 -1      6090 6.61968E-01
 -1      6091 6.61213E-01
 -1      6092 6.59207E-01
 -1      6093 6.59207E-01
 -1      6094 6.61213E-01
 -1      6095 6.61968E-01
 -1      6096 6.62281E-01
 -1      6097 6.62362E-01
 -1      6098 6.62362E-01
 -1      6099 6.62281E-01
 -1      6100 6.61968E-01
 -1      6101 6.61213E-01
 -1      6102 6.59207E-01
 -1      6103 6.06896E-01
 -1      6104 6.09206E-01
 -1      6105 6.10311E-01
 -1      6106 6.10764E-01
 -1      6107 6.10884E-01
 -1      6108 6.10884E-01
 -1      6109 6.10764E-01
 -1      6110 6.10311E-01
 -1      6111 6.09206E-01
 -1      6112 6.06896E-01
 -1      6113 6.06896E-01
 -1      6114 6.09206E-01
 -1      6115 6.10311E-01
 -1      6116 6.10764E-01
 -1      6117 6.10884E-01
 -1      6118 6.10884E-01
 -1      6119 6.10764E-01
 -1      6120 6.10311E-01
 -1      6121 6.09206E-01
 -1      6122 6.06896E-01
 -1      6123 6.06896E-01
 -1      6124 6.09206E-01
 -1      6125 6.10311E-01
 -1      6126 6.10764E-01
 -1      6127 6.10884E-01
 -1      6128 6.10884E-01
 -1      6129 6.10764E-01
 -1      6130 6.10311E-01
 -1      6131 6.09206E-01
 -1      6132 6.06896E-01
 -1      6133 6.06896E-01
 -1      6134 6.09206E-01
 -1      6135 6.10311E-01
 -1      6136 6.10764E-01
 -1      6137 6.10884E-01
 -1      6138 6.10884E-01
 -1      6139 6.10764E-01
 -1      6140 6.10311E-01
 -1      6141 6.09206E-01
 -1      6142 6.06896E-01
 -1      6143 6.06896E-01
 -1      6144 6.09206E-01
 -1      6145 6.10311E-01
 -1      6146 6.10764E-01
 -1      6147 6.10884E-01
 -1      6148 6.10884E-01
 -1      6149 6.10764E-01
 -1      6150 6.10311E-01
 -1      6151 6.09206E-01
 -1      6152 6.06896E-01
 -1      6153 6.06896E-01
 -1      6154 6.09206E-01
 -1      6155 6.10311E-01
 -1      6156 6.10764E-01
 -1      6157 6.10884E-01
 -1      6158 6.10884E-01
 -1      6159 6.10764E-01
 -1      6160 6.10311E-01
 -1      6161 6.09206E-01
 -1      6162 6.06896E-01
 -1      6163 6.06896E-01
 -1      6164 6.09206E-01
 -1      6165 6.10311E-01
 -1      6166 6.10764E-01
 -1      6167 6.10884E-01
 -1      6168 6.10884E-01
 -1      6169 6.10764E-01
 -1      6170 6.10311E-01
 -1      6171 6.09206E-01
 -1      6172 6.06896E-01
 -1      6173 6.06896E-01
 -1      6174 6.09206E-01
 -1      6175 6.10311E-01
 -1      6176 6.10764E-01
 -1      6177 6.10884E-01
 -1      6178 6.10884E-01
 -1      6179 6.10764E-01
 -1      6180 6.10311E-01
 -1      6181 6.09206E-01
 -1      6182 6.06896E-01
 -1      6183 6.06896E-01
 -1      6184 6.09206E-01
 -1      6185 6.10311E-01
 -1      6186 6.10764E-01
 -1      6187 6.10884E-01
 -1      6188 6.10884E-01
 -1      6189 6.10764E-01
 -1      6190 6.10311E-01
 -1      6191 6.09206E-01
 -1      6192 6.06896E-01
 -1      6193 5.60691E-01
 -1      6194 5.63119E-01
 -1      6195 5.64346E-01
 -1      6196 5.64868E-01
 -1      6197 5.65015E-01
 -1      6198 5.65015E-01
 -1      6199 5.64868E-01
 -1      6200 5.64346E-01
 -1      6201 5.63119E-01
 -1      6202 5.60691E-01
 -1      6203 5.60691E-01
 -1      6204 5.63119E-01
 -1      6205 5.64346E-01
 -1      6206 5.64868E-01
 -1      6207 5.65015E-01
 -1      6208 5.65015E-01
 -1      6209 5.64868E-01
 -1      6210 5.64346E-01
 -1      6211 5.63119E-01
 -1      6212 5.60691E-01
 -1      6213 5.60691E-01
 -1      6214 5.63119E-01
 -1      6215 5.64346E-01
 -1      6216 5.64868E-01
 -1      6217 5.65015E-01
 -1      6218 5.65015E-01
 -1      6219 5.64868E-01
 -1      6220 5.64346E-01
 -1      6221 5.63119E-01
 -1      6222 5.60691E-01
 -1      6223 5.60691E-01
 -1      6224 5.63119E-01
 -1      6225 5.64346E-01
 -1      6226 5.64868E-01
 -1      6227 5.65015E-01
 -1      6228 5.65015E-01
 -1      6229 5.64868E-01
 -1      6230 5.64346E-01
 -1      6231 5.63119E-01
 -1      6232 5.60691E-01
 -1      6233 5.60691E-01
 -1      6234 5.63119E-01
 -1      6235 5.64346E-01
 -1      6236 5.64868E-01
 -1      6237 5.65015E-01
 -1      6238 5.65015E-01
 -1      6239 5.64868E-01
 -1      6240 5.64346E-01
 -1      6241 5.63119E-01
 -1      6242 5.60691E-01
 -1      6243 5.60691E-01
 -1      6244 5.63119E-01
 -1      6245 5.64346E-01
 -1      6246 5.64868E-01
 -1      6247 5.65015E-01
 -1      6248 5.65015E-01
 -1      6249 5.64868E-01
 -1      6250 5.64346E-01
 -1      6251 5.63119E-01
 -1      6252 5.60691E-01
 -1      6253 5.60691E-01
 -1      6254 5.63119E-01
 -1      6255 5.64346E-01
 -1      6256 5.64868E-01
 -1      6257 5.65015E-01
 -1      6258 5.65015E-01
 -1      6259 5.64868E-01
 -1      6260 5.64346E-01
 -1      6261 5.63119E-01
 -1      6262 5.60691E-01
 -1      6263 5.60691E-01
 -1      6264 5.63119E-01
 -1      6265 5.64346E-01
 -1      6266 5.64868E-01
 -1      6267 5.65015E-01
 -1      6268 5.65015E-01
 -1      6269 5.64868E-01
 -1      6270 5.64346E-01
 -1      6271 5.63119E-01
 -1      6272 5.60691E-01
 -1      6273 5.60691E-01
 -1      6274 5.63119E-01
 -1      6275 5.64346E-01
 -1      6276 5.64868E-01
 -1      6277 5.65015E-01
 -1      6278 5.65015E-01
 -1      6279 5.64868E-01
 -1      6280 5.64346E-01
 -1      6281 5.63119E-01
 -1      6282 5.60691E-01
 -1      6283 5.20059E-01
 -1      6284 5.22535E-01
 -1      6285 5.23831E-01
 -1      6286 5.24411E-01
 -1      6287 5.24578E-01
 -1      6288 5.24578E-01
 -1      6289 5.24411E-01
 -1      6290 5.23831E-01
 -1      6291 5.22535E-01
 -1      6292 5.20059E-01
 -1      6293 5.20059E-01
 -1      6294 5.22535E-01
 -1      6295 5.23831E-01
 -1      6296 5.24411E-01
 -1      6297 5.24578E-01
 -1      6298 5.24578E-01
 -1      6299 5.24411E-01
 -1      6300 5.23831E-01
 -1      6301 5.22535E-01
 -1      6302 5.20059E-01
 -1      6303 5.20059E-01
 -1      6304 5.22535E-01
 -1      6305 5.23831E-01
 -1      6306 5.24411E-01
 -1      6307 5.24578E-01
 -1      6308 5.24578E-01
 -1      6309 5.24411E-01
 -1      6310 5.23831E-01
 -1      6311 5.22535E-01
 -1      6312 5.20059E-01
 -1      6313 5.20059E-01
 -1      6314 5.22535E-01
 -1      6315 5.23831E-01
 -1      6316 5.24411E-01
 -1      6317 5.24578E-01
 -1      6318 5.24578E-01
 -1      6319 5.24411E-01
 -1      6320 5.23831E-01
 -1      6321 5.22535E-01
 -1      6322 5.20059E-01
 -1      6323 5.20059E-01
 -1      6324 5.22535E-01
 -1      6325 5.23831E-01
 -1      6326 5.24411E-01
 -1      6327 5.24578E-01
 -1      6328 5.24578E-01
 -1      6329 5.24411E-01
 -1      6330 5.23831E-01
 -1      6331 5.22535E-01
 -1      6332 5.20059E-01
 -1      6333 5.20059E-01
 -1      6334 5.22535E-01
 -1      6335 5.23831E-01
 -1      6336 5.24411E-01
 -1      6337 5.24578E-01
 -1      6338 5.24578E-01
 -1      6339 5.24411E-01
 -1      6340 5.23831E-01
 -1      6341 5.22535E-01
 -1      6342 5.20059E-01
 -1      6343 5.20059E-01
 -1      6344 5.22535E-01
 -1      6345 5.23831E-01
 -1      6346 5.24411E-01
 -1      6347 5.24578E-01
 -1      6348 5.24578E-01
 -1      6349 5.24411E-01
 -1      6350 5.23831E-01
 -1      6351 5.22535E-01
 -1      6352 5.20059E-01
 -1      6353 5.20059E-01
 -1      6354 5.22535E-01
 -1      6355 5.23831E-01
 -1      6356 5.24411E-01
 -1      6357 5.24578E-01
 -1      6358 5.24578E-01
 -1      6359 5.24411E-01
 -1      6360 5.23831E-01
 -1      6361 5.22535E-01
 -1      6362 5.20059E-01
 -1      6363 5.20059E-01
 -1      6364 5.22535E-01
 -1      6365 5.23831E-01
 -1      6366 5.24411E-01
 -1      6367 5.24578E-01
 -1      6368 5.24578E-01
 -1      6369 5.24411E-01
 -1      6370 5.23831E-01
 -1      6371 5.22535E-01
 -1      6372 5.20059E-01
 -1      6373 4.83943E-01
 -1      6374 4.86463E-01
 -1      6375 4.87816E-01
 -1      6376 4.88441E-01
 -1      6377 4.88624E-01
 -1      6378 4.88624E-01
 -1      6379 4.88441E-01
 -1      6380 4.87816E-01
 -1      6381 4.86463E-01
 -1      6382 4.83943E-01
 -1      6383 4.83943E-01
 -1      6384 4.86463E-01
 -1      6385 4.87816E-01
 -1      6386 4.88441E-01
 -1      6387 4.88624E-01
 -1      6388 4.88624E-01
 -1      6389 4.88441E-01
 -1      6390 4.87816E-01
 -1      6391 4.86463E-01
 -1      6392 4.83943E-01
 -1      6393 4.83943E-01
 -1      6394 4.86463E-01
 -1      6395 4.87816E-01
 -1      6396 4.88441E-01
 -1      6397 4.88624E-01
 -1      6398 4.88624E-01
 -1      6399 4.88441E-01
 -1      6400 4.87816E-01
 -1      6401 4.86463E-01
 -1      6402 4.83943E-01
 -1      6403 4.83943E-01
 -1      6404 4.86463E-01
 -1      6405 4.87816E-01
 -1      6406 4.88441E-01
 -1      6407 4.88624E-01
 -1      6408 4.88624E-01
 -1      6409 4.88441E-01
 -1      6410 4.87816E-01
 -1      6411 4.86463E-01
 -1      6412 4.83943E-01
 -1      6413 4.83943E-01
 -1      6414 4.86463E-01
 -1      6415 4.87816E-01
 -1      6416 4.88441E-01
 -1      6417 4.88624E-01
 -1      6418 4.88624E-01
 -1      6419 4.88441E-01
 -1      6420 4.87816E-01
 -1      6421 4.86463E-01
 -1      6422 4.83943E-01
 -1      6423 4.83943E-01
 -1      6424 4.86463E-01
 -1      6425 4.87816E-01
 -1      6426 4.88441E-01
 -1      6427 4.88624E-01
 -1      6428 4.88624E-01
 -1      6429 4.88441E-01
 -1      6430 4.87816E-01
 -1      6431 4.86463E-01
 -1      6432 4.83943E-01
 -1      6433 4.83943E-01
 -1      6434 4.86463E-01
 -1      6435 4.87816E-01
 -1      6436 4.88441E-01
 -1      6437 4.88624E-01
 -1      6438 4.88624E-01
 -1      6439 4.88441E-01
 -1      6440 4.87816E-01
 -1      6441 4.86463E-01
 -1      6442 4.83943E-01
 -1      6443 4.83943E-01
 -1      6444 4.86463E-01
 -1      6445 4.87816E-01
 -1      6446 4.88441E-01
 -1      6447 4.88624E-01
 -1      6448 4.88624E-01
 -1      6449 4.88441E-01
 -1      6450 4.87816E-01
 -1      6451 4.86463E-01
 -1      6452 4.83943E-01
 -1      6453 4.83943E-01
 -1      6454 4.86463E-01
 -1      6455 4.87816E-01
 -1      6456 4.88441E-01
 -1      6457 4.88624E-01
 -1      6458 4.88624E-01
 -1      6459 4.88441E-01
 -1      6460 4.87816E-01
 -1      6461 4.86463E-01
 -1      6462 4.83943E-01
 -1      6463 4.51631E-01
 -1      6464 4.54155E-01
 -1      6465 4.55547E-01
 -1      6466 4.56210E-01
 -1      6467 4.56407E-01
 -1      6468 4.56407E-01
 -1      6469 4.56210E-01
 -1      6470 4.55547E-01
 -1      6471 4.54155E-01
 -1      6472 4.51631E-01
 -1      6473 4.51631E-01
 -1      6474 4.54155E-01
 -1      6475 4.55547E-01
 -1      6476 4.56210E-01
 -1      6477 4.56407E-01
 -1      6478 4.56407E-01
 -1      6479 4.56210E-01
 -1      6480 4.55547E-01
 -1      6481 4.54155E-01
 -1      6482 4.51631E-01
 -1      6483 4.51631E-01
 -1      6484 4.54155E-01
 -1      6485 4.55547E-01
 -1      6486 4.56210E-01
 -1      6487 4.56407E-01
 -1      6488 4.56407E-01
 -1      6489 4.56210E-01
 -1      6490 4.55547E-01
 -1      6491 4.54155E-01
 -1      6492 4.51631E-01
 -1      6493 4.51631E-01
 -1      6494 4.54155E-01
 -1      6495 4.55547E-01
 -1      6496 4.56210E-01
 -1      6497 4.56407E-01
 -1      6498 4.56407E-01
 -1      6499 4.56210E-01
 -1      6500 4.55547E-01
 -1      6501 4.54155E-01
 -1      6502 4.51631E-01
 -1      6503 4.51631E-01
 -1      6504 4.54155E-01
 -1      6505 4.55547E-01
 -1      6506 4.56210E-01
 -1      6507 4.56407E-01
 -1      6508 4.56407E-01
 -1      6509 4.56210E-01
 -1      6510 4.55547E-01
 -1      6511 4.54155E-01
 -1      6512 4.51631E-01
 -1      6513 4.51631E-01
 -1      6514 4.54155E-01
 -1      6515 4.55547E-01
 -1      6516 4.56210E-01
 -1      6517 4.56407E-01
 -1      6518 4.56407E-01
 -1      6519 4.56210E-01
 -1      6520 4.55547E-01
 -1      6521 4.54155E-01
 -1      6522 4.51631E-01
 -1      6523 4.51631E-01
 -1      6524 4.54155E-01
 -1      6525 4.55547E-01
 -1      6526 4.56210E-01
 -1      6527 4.56407E-01
 -1      6528 4.56407E-01
 -1      6529 4.56210E-01
 -1      6530 4.55547E-01
 -1      6531 4.54155E-01
 -1      6532 4.51631E-01
 -1      6533 4.51631E-01
 -1      6534 4.54155E-01
 -1      6535 4.55547E-01
 -1      6536 4.56210E-01
 -1      6537 4.56407E-01
 -1      6538 4.56407E-01
 -1      6539 4.56210E-01
 -1      6540 4.55547E-01
 -1      6541 4.54155E-01
 -1      6542 4.51631E-01
 -1      6543 4.51631E-01
 -1      6544 4.54155E-01
 -1      6545 4.55547E-01
 -1      6546 4.56210E-01
 -1      6547 4.56407E-01
 -1      6548 4.56407E-01
 -1      6549 4.56210E-01
 -1      6550 4.55547E-01
 -1      6551 4.54155E-01
 -1      6552 4.51631E-01
 -1      6553 4.22519E-01
 -1      6554 4.25030E-01
 -1      6555 4.26445E-01
 -1      6556 4.27137E-01
 -1      6557 4.27345E-01
 -1      6558 4.27345E-01
 -1      6559 4.27137E-01
 -1      6560 4.26445E-01
 -1      6561 4.25030E-01
 -1      6562 4.22519E-01
 -1      6563 4.22519E-01
 -1      6564 4.25030E-01
 -1      6565 4.26445E-01
 -1      6566 4.27137E-01
 -1      6567 4.27345E-01
 -1      6568 4.27345E-01
 -1      6569 4.27137E-01
 -1      6570 4.26445E-01
 -1      6571 4.25030E-01
 -1      6572 4.22519E-01
 -1      6573 4.22519E-01
 -1      6574 4.25030E-01
 -1      6575 4.26445E-01
 -1      6576 4.27137E-01
 -1      6577 4.27345E-01
 -1      6578 4.27345E-01
 -1      6579 4.27137E-01
 -1      6580 4.26445E-01
 -1      6581 4.25030E-01
 -1      6582 4.22519E-01
 -1      6583 4.22519E-01
 -1      6584 4.25030E-01
 -1      6585 4.26445E-01
 -1      6586 4.27137E-01
 -1      6587 4.27345E-01
 -1      6588 4.27345E-01
 -1      6589 4.27137E-01
 -1      6590 4.26445E-01
 -1      6591 4.25030E-01
 -1      6592 4.22519E-01
 -1      6593 4.22519E-01
 -1      6594 4.25030E-01
 -1      6595 4.26445E-01
 -1      6596 4.27137E-01
 -1      6597 4.27345E-01
 -1      6598 4.27345E-01
 -1      6599 4.27137E-01
 -1      6600 4.26445E-01
 -1      6601 4.25030E-01
 -1      6602 4.22519E-01
 -1      6603 4.22519E-01
 -1      6604 4.25030E-01
 -1      6605 4.26445E-01
 -1      6606 4.27137E-01
 -1      6607 4.27345E-01
 -1      6608 4.27345E-01
 -1      6609 4.27137E-01
 -1      6610 4.26445E-01
 -1      6611 4.25030E-01
 -1      6612 4.22519E-01
 -1      6613 4.22519E-01
 -1      6614 4.25030E-01
 -1      6615 4.26445E-01
 -1      6616 4.27137E-01
 -1      6617 4.27345E-01
 -1      6618 4.27345E-01
 -1      6619 4.27137E-01
 -1      6620 4.26445E-01
 -1      6621 4.25030E-01
 -1      6622 4.22519E-01
 -1      6623 4.22519E-01
 -1      6624 4.25030E-01
 -1      6625 4.26445E-01
 -1      6626 4.27137E-01
 -1      6627 4.27345E-01
 -1      6628 4.27345E-01
 -1      6629 4.27137E-01
 -1      6630 4.26445E-01
 -1      6631 4.25030E-01
 -1      6632 4.22519E-01
 -1      6633 4.22519E-01
 -1      6634 4.25030E-01
 -1      6635 4.26445E-01
 -1      6636 4.27137E-01
 -1      6637 4.27345E-01
 -1      6638 4.27345E-01
 -1      6639 4.27137E-01
 -1      6640 4.26445E-01
 -1      6641 4.25030E-01
 -1      6642 4.22519E-01
 -1      6643 3.96143E-01
 -1      6644 3.98622E-01
 -1      6645 4.00048E-01
 -1      6646 4.00760E-01
 -1      6647 4.00976E-01
 -1      6648 4.00976E-01
 -1      6649 4.00760E-01
 -1      6650 4.00048E-01
 -1      6651 3.98622E-01
 -1      6652 3.96143E-01
 -1      6653 3.96143E-01
 -1      6654 3.98622E-01
 -1      6655 4.00048E-01
 -1      6656 4.00760E-01
 -1      6657 4.00976E-01
 -1      6658 4.00976E-01
 -1      6659 4.00760E-01
 -1      6660 4.00048E-01
 -1      6661 3.98622E-01
 -1      6662 3.96143E-01
 -1      6663 3.96143E-01
 -1      6664 3.98622E-01
 -1      6665 4.00048E-01
 -1      6666 4.00760E-01
 -1      6667 4.00976E-01
 -1      6668 4.00976E-01
 -1      6669 4.00760E-01
 -1      6670 4.00048E-01
 -1      6671 3.98622E-01
 -1      6672 3.96143E-01
 -1      6673 3.96143E-01
 -1      6674 3.98622E-01
 -1      6675 4.00048E-01
 -1      6676 4.00760E-01
 -1      6677 4.00976E-01
 -1      6678 4.00976E-01
 -1      6679 4.00760E-01
 -1      6680 4.00048E-01
 -1      6681 3.98622E-01
 -1      6682 3.96143E-01
 -1      6683 3.96143E-01
 -1      6684 3.98622E-01
 -1      6685 4.00048E-01
 -1      6686 4.00760E-01
 -1      6687 4.00976E-01
 -1      6688 4.00976E-01
 -1      6689 4.00760E-01
 -1      6690 4.00048E-01
 -1      6691 3.98622E-01
 -1      6692 3.96143E-01
 -1      6693 3.96143E-01
 -1      6694 3.98622E-01
 -1      6695 4.00048E-01
 -1      6696 4.00760E-01
 -1      6697 4.00976E-01
 -1      6698 4.00976E-01
 -1      6699 4.00760E-01
 -1      6700 4.00048E-01
 -1      6701 3.98622E-01
 -1      6702 3.96143E-01
 -1      6703 3.96143E-01
 -1      6704 3.98622E-01
 -1      6705 4.00048E-01
 -1      6706 4.00760E-01
 -1      6707 4.00976E-01
 -1      6708 4.00976E-01
 -1      6709 4.00760E-01
 -1      6710 4.00048E-01
 -1      6711 3.98622E-01
 -1      6712 3.96143E-01
 -1      6713 3.96143E-01
 -1      6714 3.98622E-01
 -1      6715 4.00048E-01
 -1      6716 4.00760E-01
 -1      6717 4.00976E-01
 -1      6718 4.00976E-01
 -1      6719 4.00760E-01
 -1      6720 4.00048E-01
 -1      6721 3.98622E-01
 -1      6722 3.96143E-01
 -1      6723 3.96143E-01
 -1      6724 3.98622E-01
 -1      6725 4.00048E-01
 -1      6726 4.00760E-01
 -1      6727 4.00976E-01
 -1      6728 4.00976E-01
 -1      6729 4.00760E-01
 -1      6730 4.00048E-01
 -1      6731 3.98622E-01
 -1      6732 3.96143E-01
 -1      6733 3.72127E-01
 -1      6734 3.74561E-01
 -1      6735 3.75985E-01
 -1      6736 3.76710E-01
 -1      6737 3.76932E-01
 -1      6738 3.76932E-01
 -1      6739 3.76710E-01
 -1      6740 3.75985E-01
 -1      6741 3.74561E-01
 -1      6742 3.72127E-01
 -1      6743 3.72127E-01
 -1      6744 3.74561E-01
 -1      6745 3.75985E-01
 -1      6746 3.76710E-01
 -1      6747 3.76932E-01
 -1      6748 3.76932E-01
 -1      6749 3.76710E-01
 -1      6750 3.75985E-01
 -1      6751 3.74561E-01
 -1      6752 3.72127E-01
 -1      6753 3.72127E-01
 -1      6754 3.74561E-01
 -1      6755 3.75985E-01
 -1      6756 3.76710E-01
 -1      6757 3.76932E-01
 -1      6758 3.76932E-01
 -1      6759 3.76710E-01
 -1      6760 3.75985E-01
 -1      6761 3.74561E-01
 -1      6762 3.72127E-01
 -1      6763 3.72127E-01
 -1      6764 3.74561E-01
 -1      6765 3.75985E-01
 -1      6766 3.76710E-01
 -1      6767 3.76932E-01
 -1      6768 3.76932E-01
 -1      6769 3.76710E-01
 -1      6770 3.75985E-01
 -1      6771 3.74561E-01
 -1      6772 3.72127E-01
 -1      6773 3.72127E-01
 -1      6774 3.74561E-01
 -1      6775 3.75985E-01
 -1      6776 3.76710E-01
 -1      6777 3.76932E-01
 -1      6778 3.76932E-01
 -1      6779 3.76710E-01
 -1      6780 3.75985E-01
 -1      6781 3.74561E-01
 -1      6782 3.72127E-01
 -1      6783 3.72127E-01
 -1      6784 3.74561E-01
 -1      6785 3.75985E-01
 -1      6786 3.76710E-01
 -1      6787 3.76932E-01
 -1      6788 3.76932E-01
 -1      6789 3.76710E-01
 -1      6790 3.75985E-01
 -1      6791 3.74561E-01
 -1      6792 3.72127E-01
 -1      6793 3.72127E-01
 -1      6794 3.74561E-01
 -1      6795 3.75985E-01
 -1      6796 3.76710E-01
 -1      6797 3.76932E-01
 -1      6798 3.76932E-01
 -1      6799 3.76710E-01
 -1      6800 3.75985E-01
 -1      6801 3.74561E-01
 -1      6802 3.72127E-01
 -1      6803 3.72127E-01
 -1      6804 3.74561E-01
 -1      6805 3.75985E-01
 -1      6806 3.76710E-01
 -1      6807 3.76932E-01
 -1      6808 3.76932E-01
 -1      6809 3.76710E-01
 -1      6810 3.75985E-01
 -1      6811 3.74561E-01
 -1      6812 3.72127E-01
 -1      6813 3.72127E-01
 -1      6814 3.74561E-01
 -1      6815 3.75985E-01
 -1      6816 3.76710E-01
 -1      6817 3.76932E-01
 -1      6818 3.76932E-01
 -1      6819 3.76710E-01
 -1      6820 3.75985E-01
 -1      6821 3.74561E-01
 -1      6822 3.72127E-01
 -1      6823 3.50164E-01
 -1      6824 3.52542E-01
 -1      6825 3.53956E-01
 -1      6826 3.54687E-01
 -1      6827 3.54913E-01
 -1      6828 3.54913E-01
 -1      6829 3.54687E-01
 -1      6830 3.53956E-01
 -1      6831 3.52542E-01
 -1      6832 3.50164E-01
 -1      6833 3.50164E-01
 -1      6834 3.52542E-01
 -1      6835 3.53956E-01
 -1      6836 3.54687E-01
 -1      6837 3.54913E-01
 -1      6838 3.54913E-01
 -1      6839 3.54687E-01
 -1      6840 3.53956E-01
 -1      6841 3.52542E-01
 -1      6842 3.50164E-01
 -1      6843 3.50164E-01
 -1      6844 3.52542E-01
 -1      6845 3.53956E-01
 -1      6846 3.54687E-01
 -1      6847 3.54913E-01
 -1      6848 3.54913E-01
 -1      6849 3.54687E-01
 -1      6850 3.53956E-01
 -1      6851 3.52542E-01
 -1      6852 3.50164E-01
 -1      6853 3.50164E-01
 -1      6854 3.52542E-01
 -1      6855 3.53956E-01
 -1      6856 3.54687E-01
 -1      6857 3.54913E-01
 -1      6858 3.54913E-01
 -1      6859 3.54687E-01
 -1      6860 3.53956E-01
 -1      6861 3.52542E-01
 -1      6862 3.50164E-01
 -1      6863 3.50164E-01
 -1      6864 3.52542E-01
 -1      6865 3.53956E-01
 -1      6866 3.54687E-01
 -1      6867 3.54913E-01
 -1      6868 3.54913E-01
 -1      6869 3.54687E-01
 -1      6870 3.53956E-01
 -1      6871 3.52542E-01
 -1      6872 3.50164E-01
 -1      6873 3.50164E-01
 -1      6874 3.52542E-01
 -1      6875 3.53956E-01
 -1      6876 3.54687E-01
 -1      6877 3.54913E-01
 -1      6878 3.54913E-01
 -1      6879 3.54687E-01
 -1      6880 3.53956E-01
 -1      6881 3.52542E-01
 -1      6882 3.50164E-01
 -1      6883 3.50164E-01
 -1      6884 3.52542E-01
 -1      6885 3.53956E-01
 -1      6886 3.54687E-01
 -1      6887 3.54913E-01
 -1      6888 3.54913E-01
 -1      6889 3.54687E-01
 -1      6890 3.53956E-01
 -1      6891 3.52542E-01
 -1      6892 3.50164E-01
 -1      6893 3.50164E-01
 -1      6894 3.52542E-01
 -1      6895 3.53956E-01
 -1      6896 3.54687E-01
 -1      6897 3.54913E-01
 -1      6898 3.54913E-01
 -1      6899 3.54687E-01
 -1      6900 3.53956E-01
 -1      6901 3.52542E-01
 -1      6902 3.50164E-01
 -1      6903 3.50164E-01
 -1      6904 3.52542E-01
 -1      6905 3.53956E-01
 -1      6906 3.54687E-01
 -1      6907 3.54913E-01
 -1      6908 3.54913E-01
 -1      6909 3.54687E-01
 -1      6910 3.53956E-01
 -1      6911 3.52542E-01
 -1      6912 3.50164E-01
 -1      6913 3.30002E-01
 -1      6914 3.32317E-01
 -1      6915 3.33712E-01
 -1      6916 3.34443E-01
 -1      6917 3.34671E-01
 -1      6918 3.34671E-01
 -1      6919 3.34443E-01
 -1      6920 3.33712E-01
 -1      6921 3.32317E-01
 -1      6922 3.30002E-01
 -1      6923 3.30002E-01
 -1      6924 3.32317E-01
 -1      6925 3.33712E-01
 -1      6926 3.34443E-01
 -1      6927 3.34671E-01
 -1      6928 3.34671E-01
 -1      6929 3.34443E-01
 -1      6930 3.33712E-01
 -1      6931 3.32317E-01
 -1      6932 3.30002E-01
 -1      6933 3.30002E-01
 -1      6934 3.32317E-01
 -1      6935 3.33712E-01
 -1      6936 3.34443E-01
 -1      6937 3.34671E-01
 -1      6938 3.34671E-01
 -1      6939 3.34443E-01
 -1      6940 3.33712E-01
 -1      6941 3.32317E-01
 -1      6942 3.30002E-01
 -1      6943 3.30002E-01
 -1      6944 3.32317E-01
 -1      6945 3.33712E-01
 -1      6946 3.34443E-01
 -1      6947 3.34671E-01
 -1      6948 3.34671E-01
 -1      6949 3.34443E-01
 -1      6950 3.33712E-01
 -1      6951 3.32317E-01
 -1      6952 3.30002E-01
 -1      6953 3.30002E-01
 -1      6954 3.32317E-01
 -1      6955 3.33712E-01
 -1      6956 3.34443E-01
 -1      6957 3.34671E-01
 -1      6958 3.34671E-01
 -1      6959 3.34443E-01
 -1      6960 3.33712E-01
 -1      6961 3.32317E-01
 -1      6962 3.30002E-01
 -1      6963 3.30002E-01
 -1      6964 3.32317E-01
 -1      6965 3.33712E-01
 -1      6966 3.34443E-01
 -1      6967 3.34671E-01
 -1      6968 3.34671E-01
 -1      6969 3.34443E-01
 -1      6970 3.33712E-01
 -1      6971 3.32317E-01
 -1      6972 3.30002E-01
 -1      6973 3.30002E-01
 -1      6974 3.32317E-01
 -1      6975 3.33712E-01
 -1      6976 3.34443E-01
 -1      6977 3.34671E-01
 -1      6978 3.34671E-01
 -1      6979 3.34443E-01
 -1      6980 3.33712E-01
 -1      6981 3.32317E-01
 -1      6982 3.30002E-01
 -1      6983 3.30002E-01
 -1      6984 3.32317E-01
 -1      6985 3.33712E-01
 -1      6986 3.34443E-01
 -1      6987 3.34671E-01
 -1      6988 3.34671E-01
 -1      6989 3.34443E-01
 -1      6990 3.33712E-01
 -1      6991 3.32317E-01
 -1      6992 3.30002E-01
 -1      6993 3.30002E-01
 -1      6994 3.32317E-01
 -1      6995 3.33712E-01
 -1      6996 3.34443E-01
 -1      6997 3.34671E-01
 -1      6998 3.34671E-01
 -1      6999 3.34443E-01
 -1      7000 3.33712E-01
 -1      7001 3.32317E-01
 -1      7002 3.30002E-01
 -1      7003 3.11432E-01
 -1      7004 3.13677E-01
 -1      7005 3.15047E-01
 -1      7006 3.15774E-01
 -1      7007 3.16001E-01
 -1      7008 3.16001E-01
 -1      7009 3.15774E-01
 -1      7010 3.15047E-01
 -1      7011 3.13677E-01
 -1      7012 3.11432E-01
 -1      7013 3.11432E-01
 -1      7014 3.13677E-01
 -1      7015 3.15047E-01
 -1      7016 3.15774E-01
 -1      7017 3.16001E-01
 -1      7018 3.16001E-01
 -1      7019 3.15774E-01
 -1      7020 3.15047E-01
 -1      7021 3.13677E-01
 -1      7022 3.11432E-01
 -1      7023 3.11432E-01
 -1      7024 3.13677E-01
 -1      7025 3.15047E-01
 -1      7026 3.15774E-01
 -1      7027 3.16001E-01
 -1      7028 3.16001E-01
 -1      7029 3.15774E-01
 -1      7030 3.15047E-01
 -1      7031 3.13677E-01
 -1      7032 3.11432E-01
 -1      7033 3.11432E-01
 -1      7034 3.13677E-01
 -1      7035 3.15047E-01
 -1      7036 3.15774E-01
 -1      7037 3.16001E-01
 -1      7038 3.16001E-01
 -1      7039 3.15774E-01
 -1      7040 3.15047E-01
 -1      7041 3.13677E-01
 -1      7042 3.11432E-01
 -1      7043 3.11432E-01
 -1      7044 3.13677E-01
 -1      7045 3.15047E-01
 -1      7046 3.15774E-01
 -1      7047 3.16001E-01
 -1      7048 3.16001E-01
 -1      7049 3.15774E-01
 -1      7050 3.15047E-01
 -1      7051 3.13677E-01
 -1      7052 3.11432E-01
 -1      7053 3.11432E-01
 -1      7054 3.13677E-01
 -1      7055 3.15047E-01
 -1      7056 3.15774E-01
 -1      7057 3.16001E-01
 -1      7058 3.16001E-01
 -1      7059 3.15774E-01
 -1      7060 3.15047E-01
 -1      7061 3.13677E-01
 -1      7062 3.11432E-01
 -1      7063 3.11432E-01
 -1      7064 3.13677E-01
 -1      7065 3.15047E-01
 -1      7066 3.15774E-01
 -1      7067 3.16001E-01
 -1      7068 3.16001E-01
 -1      7069 3.15774E-01
 -1      7070 3.15047E-01
 -1      7071 3.13677E-01
 -1      7072 3.11432E-01
 -1      7073 3.11432E-01
 -1      7074 3.13677E-01
 -1      7075 3.15047E-01
 -1      7076 3.15774E-01
 -1      7077 3.16001E-01
 -1      7078 3.16001E-01
 -1      7079 3.15774E-01
 -1      7080 3.15047E-01
 -1      7081 3.13677E-01
 -1      7082 3.11432E-01
 -1      7083 3.11432E-01
 -1      7084 3.13677E-01
 -1      7085 3.15047E-01
 -1      7086 3.15774E-01
 -1      7087 3.16001E-01
 -1      7088 3.16001E-01
 -1      7089 3.15774E-01
 -1      7090 3.15047E-01
 -1      7091 3.13677E-01
 -1      7092 3.11432E-01
 -1      7093 2.94278E-01
 -1      7094 2.96449E-01
 -1      7095 2.97789E-01
 -1      7096 2.98507E-01
 -1      7097 2.98732E-01
 -1      7098 2.98732E-01
 -1      7099 2.98507E-01
 -1      7100 2.97789E-01
 -1      7101 2.96449E-01
 -1      7102 2.94278E-01
 -1      7103 2.94278E-01
 -1      7104 2.96449E-01
 -1      7105 2.97789E-01
 -1      7106 2.98507E-01
 -1      7107 2.98732E-01
 -1      7108 2.98732E-01
 -1      7109 2.98507E-01
 -1      7110 2.97789E-01
 -1      7111 2.96449E-01
 -1      7112 2.94278E-01
 -1      7113 2.94278E-01
 -1      7114 2.96449E-01
 -1      7115 2.97789E-01
 -1      7116 2.98507E-01
 -1      7117 2.98732E-01
 -1      7118 2.98732E-01
 -1      7119 2.98507E-01
 -1      7120 2.97789E-01
 -1      7121 2.96449E-01
 -1      7122 2.94278E-01
 -1      7123 2.94278E-01
 -1      7124 2.96449E-01
 -1      7125 2.97789E-01
 -1      7126 2.98507E-01
 -1      7127 2.98732E-01
 -1      7128 2.98732E-01
 -1      7129 2.98507E-01
 -1      7130 2.97789E-01
 -1      7131 2.96449E-01
 -1      7132 2.94278E-01
 -1      7133 2.94278E-01
 -1      7134 2.96449E-01
 -1      7135 2.97789E-01
 -1      7136 2.98507E-01
 -1      7137 2.98732E-01
 -1      7138 2.98732E-01
 -1      7139 2.98507E-01
 -1      7140 2.97789E-01
 -1      7141 2.96449E-01
 -1      7142 2.94278E-01
 -1      7143 2.94278E-01
 -1      7144 2.96449E-01
 -1      7145 2.97789E-01
 -1      7146 2.98507E-01
 -1      7147 2.98732E-01
 -1      7148 2.98732E-01
 -1      7149 2.98507E-01
 -1      7150 2.97789E-01
 -1      7151 2.96449E-01
 -1      7152 2.94278E-01
 -1      7153 2.94278E-01
 -1      7154 2.96449E-01
 -1      7155 2.97789E-01
 -1      7156 2.98507E-01
 -1      7157 2.98732E-01
 -1      7158 2.98732E-01
 -1      7159 2.98507E-01
 -1      7160 2.97789E-01
 -1      7161 2.96449E-01
 -1      7162 2.94278E-01
 -1      7163 2.94278E-01
 -1      7164 2.96449E-01
 -1      7165 2.97789E-01
 -1      7166 2.98507E-01
 -1      7167 2.98732E-01
 -1      7168 2.98732E-01
 -1      7169 2.98507E-01
 -1      7170 2.97789E-01
 -1      7171 2.96449E-01
 -1      7172 2.94278E-01
 -1      7173 2.94278E-01
 -1      7174 2.96449E-01
 -1      7175 2.97789E-01
 -1      7176 2.98507E-01
 -1      7177 2.98732E-01
 -1      7178 2.98732E-01
 -1      7179 2.98507E-01
 -1      7180 2.97789E-01
 -1      7181 2.96449E-01
 -1      7182 2.94278E-01
 -1      7183 2.78390E-01
 -1      7184 2.80485E-01
 -1      7185 2.81789E-01
 -1      7186 2.82495E-01
 -1      7187 2.82718E-01
 -1      7188 2.82718E-01
 -1      7189 2.82495E-01
 -1      7190 2.81789E-01
 -1      7191 2.80485E-01
 -1      7192 2.78390E-01
 -1      7193 2.78390E-01
 -1      7194 2.80485E-01
 -1      7195 2.81789E-01
 -1      7196 2.82495E-01
 -1      7197 2.82718E-01
 -1      7198 2.82718E-01
 -1      7199 2.82495E-01
 -1      7200 2.81789E-01
 -1      7201 2.80485E-01
 -1      7202 2.78390E-01
 -1      7203 2.78390E-01
 -1      7204 2.80485E-01
 -1      7205 2.81789E-01
 -1      7206 2.82495E-01
 -1      7207 2.82718E-01
 -1      7208 2.82718E-01
 -1      7209 2.82495E-01
 -1      7210 2.81789E-01
 -1      7211 2.80485E-01
 -1      7212 2.78390E-01
 -1      7213 2.78390E-01
 -1      7214 2.80485E-01
 -1      7215 2.81789E-01
 -1      7216 2.82495E-01
 -1      7217 2.82718E-01
 -1      7218 2.82718E-01
 -1      7219 2.82495E-01
 -1      7220 2.81789E-01
 -1      7221 2.80485E-01
 -1      7222 2.78390E-01
 -1      7223 2.78390E-01
 -1      7224 2.80485E-01
 -1      7225 2.81789E-01
 -1      7226 2.82495E-01
 -1      7227 2.82718E-01
 -1      7228 2.82718E-01
 -1      7229 2.82495E-01
 -1      7230 2.81789E-01
 -1      7231 2.80485E-01
 -1      7232 2.78390E-01
 -1      7233 2.78390E-01
 -1      7234 2.80485E-01
 -1      7235 2.81789E-01
 -1      7236 2.82495E-01
 -1      7237 2.82718E-01
 -1      7238 2.82718E-01
 -1      7239 2.82495E-01
 -1      7240 2.81789E-01
 -1      7241 2.80485E-01
 -1      7242 2.78390E-01
 -1      7243 2.78390E-01
 -1      7244 2.80485E-01
 -1      7245 2.81789E-01
 -1      7246 2.82495E-01
 -1      7247 2.82718E-01
 -1      7248 2.82718E-01
 -1      7249 2.82495E-01
 -1      7250 2.81789E-01
 -1      7251 2.80485E-01
 -1      7252 2.78390E-01
 -1      7253 2.78390E-01
 -1      7254 2.80485E-01
 -1      7255 2.81789E-01
 -1      7256 2.82495E-01
 -1      7257 2.82718E-01
 -1      7258 2.82718E-01
 -1      7259 2.82495E-01
 -1      7260 2.81789E-01
 -1      7261 2.80485E-01
 -1      7262 2.78390E-01
 -1      7263 2.78390E-01
 -1      7264 2.80485E-01
 -1      7265 2.81789E-01
 -1      7266 2.82495E-01
 -1      7267 2.82718E-01
 -1      7268 2.82718E-01
 -1      7269 2.82495E-01
 -1      7270 2.81789E-01
 -1      7271 2.80485E-01
 -1      7272 2.78390E-01
 -1      7273 2.63641E-01
 -1      7274 2.65657E-01
 -1      7275 2.66924E-01
 -1      7276 2.67615E-01
 -1      7277 2.67834E-01
 -1      7278 2.67834E-01
 -1      7279 2.67615E-01
 -1      7280 2.66924E-01
 -1      7281 2.65657E-01
 -1      7282 2.63641E-01
 -1      7283 2.63641E-01
 -1      7284 2.65657E-01
 -1      7285 2.66924E-01
 -1      7286 2.67615E-01
 -1      7287 2.67834E-01
 -1      7288 2.67834E-01
 -1      7289 2.67615E-01
 -1      7290 2.66924E-01
 -1      7291 2.65657E-01
 -1      7292 2.63641E-01
 -1      7293 2.63641E-01
 -1      7294 2.65657E-01
 -1      7295 2.66924E-01
 -1      7296 2.67615E-01
 -1      7297 2.67834E-01
 -1      7298 2.67834E-01
 -1      7299 2.67615E-01
 -1      7300 2.66924E-01
 -1      7301 2.65657E-01
 -1      7302 2.63641E-01
 -1      7303 2.63641E-01
 -1      7304 2.65657E-01
 -1      7305 2.66924E-01
 -1      7306 2.67615E-01
 -1      7307 2.67834E-01
 -1      7308 2.67834E-01
 -1      7309 2.67615E-01
 -1      7310 2.66924E-01
 -1      7311 2.65657E-01
 -1      7312 2.63641E-01
 -1      7313 2.63641E-01
 -1      7314 2.65657E-01
 -1      7315 2.66924E-01
 -1      7316 2.67615E-01
 -1      7317 2.67834E-01
 -1      7318 2.67834E-01
 -1      7319 2.67615E-01
 -1      7320 2.66924E-01
 -1      7321 2.65657E-01
 -1      7322 2.63641E-01
 -1      7323 2.63641E-01
 -1      7324 2.65657E-01
 -1      7325 2.66924E-01
 -1      7326 2.67615E-01
 -1      7327 2.67834E-01
 -1      7328 2.67834E-01
 -1      7329 2.67615E-01
 -1      7330 2.66924E-01
 -1      7331 2.65657E-01
 -1      7332 2.63641E-01
 -1      7333 2.63641E-01
 -1      7334 2.65657E-01
 -1      7335 2.66924E-01
 -1      7336 2.67615E-01
 -1      7337 2.67834E-01
 -1      7338 2.67834E-01
 -1      7339 2.67615E-01
 -1      7340 2.66924E-01
 -1      7341 2.65657E-01
 -1      7342 2.63641E-01
 -1      7343 2.63641E-01
 -1      7344 2.65657E-01
 -1      7345 2.66924E-01
 -1      7346 2.67615E-01
 -1      7347 2.67834E-01
 -1      7348 2.67834E-01
 -1      7349 2.67615E-01
 -1      7350 2.66924E-01
 -1      7351 2.65657E-01
 -1      7352 2.63641E-01
 -1      7353 2.63641E-01
 -1      7354 2.65657E-01
 -1      7355 2.66924E-01
 -1      7356 2.67615E-01
 -1      7357 2.67834E-01
 -1      7358 2.67834E-01
 -1      7359 2.67615E-01
 -1      7360 2.66924E-01
 -1      7361 2.65657E-01
 -1      7362 2.63641E-01
 -1      7363 2.49921E-01
 -1      7364 2.51858E-01
 -1      7365 2.53084E-01
 -1      7366 2.53758E-01
 -1      7367 2.53972E-01
 -1      7368 2.53972E-01
 -1      7369 2.53758E-01
 -1      7370 2.53084E-01
 -1      7371 2.51858E-01
 -1      7372 2.49921E-01
 -1      7373 2.49921E-01
 -1      7374 2.51858E-01
 -1      7375 2.53084E-01
 -1      7376 2.53758E-01
 -1      7377 2.53972E-01
 -1      7378 2.53972E-01
 -1      7379 2.53758E-01
 -1      7380 2.53084E-01
 -1      7381 2.51858E-01
 -1      7382 2.49921E-01
 -1      7383 2.49921E-01
 -1      7384 2.51858E-01
 -1      7385 2.53084E-01
 -1      7386 2.53758E-01
 -1      7387 2.53972E-01
 -1      7388 2.53972E-01
 -1      7389 2.53758E-01
 -1      7390 2.53084E-01
 -1      7391 2.51858E-01
 -1      7392 2.49921E-01
 -1      7393 2.49921E-01
 -1      7394 2.51858E-01
 -1      7395 2.53084E-01
 -1      7396 2.53758E-01
 -1      7397 2.53972E-01
 -1      7398 2.53972E-01
 -1      7399 2.53758E-01
 -1      7400 2.53084E-01
 -1      7401 2.51858E-01
 -1      7402 2.49921E-01
 -1      7403 2.49921E-01
 -1      7404 2.51858E-01
 -1      7405 2.53084E-01
 -1      7406 2.53758E-01
 -1      7407 2.53972E-01
 -1      7408 2.53972E-01
 -1      7409 2.53758E-01
 -1      7410 2.53084E-01
 -1      7411 2.51858E-01
 -1      7412 2.49921E-01
 -1      7413 2.49921E-01
 -1      7414 2.51858E-01
 -1      7415 2.53084E-01
 -1      7416 2.53758E-01
 -1      7417 2.53972E-01
 -1      7418 2.53972E-01
 -1      7419 2.53758E-01
 -1      7420 2.53084E-01
 -1      7421 2.51858E-01
 -1      7422 2.49921E-01
 -1      7423 2.49921E-01
 -1      7424 2.51858E-01
 -1      7425 2.53084E-01
 -1      7426 2.53758E-01
 -1      7427 2.53972E-01
 -1      7428 2.53972E-01
 -1      7429 2.53758E-01
 -1      7430 2.53084E-01
 -1      7431 2.51858E-01
 -1      7432 2.49921E-01
 -1      7433 2.49921E-01
 -1      7434 2.51858E-01
 -1      7435 2.53084E-01
 -1      7436 2.53758E-01
 -1      7437 2.53972E-01
 -1      7438 2.53972E-01
 -1      7439 2.53758E-01
 -1      7440 2.53084E-01
 -1      7441 2.51858E-01
 -1      7442 2.49921E-01
 -1      7443 2.49921E-01
 -1      7444 2.51858E-01
 -1      7445 2.53084E-01
 -1      7446 2.53758E-01
 -1      7447 2.53972E-01
 -1      7448 2.53972E-01
 -1      7449 2.53758E-01
 -1      7450 2.53084E-01
 -1      7451 2.51858E-01
 -1      7452 2.49921E-01
 -1      7453 2.37136E-01
 -1      7454 2.38992E-01
 -1      7455 2.40176E-01
 -1      7456 2.40831E-01
 -1      7457 2.41041E-01
 -1      7458 2.41041E-01
 -1      7459 2.40831E-01
 -1      7460 2.40176E-01
 -1      7461 2.38992E-01
 -1      7462 2.37136E-01
 -1      7463 2.37136E-01
 -1      7464 2.38992E-01
 -1      7465 2.40176E-01
 -1      7466 2.40831E-01
 -1      7467 2.41041E-01
 -1      7468 2.41041E-01
 -1      7469 2.40831E-01
 -1      7470 2.40176E-01
 -1      7471 2.38992E-01
 -1      7472 2.37136E-01
 -1      7473 2.37136E-01
 -1      7474 2.38992E-01
 -1      7475 2.40176E-01
 -1      7476 2.40831E-01
 -1      7477 2.41041E-01
 -1      7478 2.41041E-01
 -1      7479 2.40831E-01
 -1      7480 2.40176E-01
 -1      7481 2.38992E-01
 -1      7482 2.37136E-01
 -1      7483 2.37136E-01
 -1      7484 2.38992E-01
 -1      7485 2.40176E-01
 -1      7486 2.40831E-01
 -1      7487 2.41041E-01
 -1      7488 2.41041E-01
 -1      7489 2.40831E-01
 -1      7490 2.40176E-01
 -1      7491 2.38992E-01
 -1      7492 2.37136E-01
 -1      7493 2.37136E-01
 -1      7494 2.38992E-01
 -1      7495 2.40176E-01
 -1      7496 2.40831E-01
 -1      7497 2.41041E-01
 -1      7498 2.41041E-01
 -1      7499 2.40831E-01
 -1      7500 2.40176E-01
 -1      7501 2.38992E-01
 -1      7502 2.37136E-01
 -1      7503 2.37136E-01
 -1      7504 2.38992E-01
 -1      7505 2.40176E-01
 -1      7506 2.40831E-01
 -1      7507 2.41041E-01
 -1      7508 2.41041E-01
 -1      7509 2.40831E-01
 -1      7510 2.40176E-01
 -1      7511 2.38992E-01
 -1      7512 2.37136E-01
 -1      7513 2.37136E-01
 -1      7514 2.38992E-01
 -1      7515 2.40176E-01
 -1      7516 2.40831E-01
 -1      7517 2.41041E-01
 -1      7518 2.41041E-01
 -1      7519 2.40831E-01
 -1      7520 2.40176E-01
 -1      7521 2.38992E-01
 -1      7522 2.37136E-01
 -1      7523 2.37136E-01
 -1      7524 2.38992E-01
 -1      7525 2.40176E-01
 -1      7526 2.40831E-01
 -1      7527 2.41041E-01
 -1      7528 2.41041E-01
 -1      7529 2.40831E-01
 -1      7530 2.40176E-01
 -1      7531 2.38992E-01
 -1      7532 2.37136E-01
 -1      7533 2.37136E-01
 -1      7534 2.38992E-01
 -1      7535 2.40176E-01
 -1      7536 2.40831E-01
 -1      7537 2.41041E-01
 -1      7538 2.41041E-01
 -1      7539 2.40831E-01
 -1      7540 2.40176E-01
 -1      7541 2.38992E-01
 -1      7542 2.37136E-01
 -1      7543 2.25200E-01
 -1      7544 2.26977E-01
 -1      7545 2.28118E-01
 -1      7546 2.28753E-01
 -1      7547 2.28956E-01
 -1      7548 2.28956E-01
 -1      7549 2.28753E-01
 -1      7550 2.28118E-01
 -1      7551 2.26977E-01
 -1      7552 2.25200E-01
 -1      7553 2.25200E-01
 -1      7554 2.26977E-01
 -1      7555 2.28118E-01
 -1      7556 2.28753E-01
 -1      7557 2.28956E-01
 -1      7558 2.28956E-01
 -1      7559 2.28753E-01
 -1      7560 2.28118E-01
 -1      7561 2.26977E-01
 -1      7562 2.25200E-01
 -1      7563 2.25200E-01
 -1      7564 2.26977E-01
 -1      7565 2.28118E-01
 -1      7566 2.28753E-01
 -1      7567 2.28956E-01
 -1      7568 2.28956E-01
 -1      7569 2.28753E-01
 -1      7570 2.28118E-01
 -1      7571 2.26977E-01
 -1      7572 2.25200E-01
 -1      7573 2.25200E-01
 -1      7574 2.26977E-01
 -1      7575 2.28118E-01
 -1      7576 2.28753E-01
 -1      7577 2.28956E-01
 -1      7578 2.28956E-01
 -1      7579 2.28753E-01
 -1      7580 2.28118E-01
 -1      7581 2.26977E-01
 -1      7582 2.25200E-01
 -1      7583 2.25200E-01
 -1      7584 2.26977E-01
 -1      7585 2.28118E-01
 -1      7586 2.28753E-01
 -1      7587 2.28956E-01
 -1      7588 2.28956E-01
 -1      7589 2.28753E-01
 -1      7590 2.28118E-01
 -1      7591 2.26977E-01
 -1      7592 2.25200E-01
 -1      7593 2.25200E-01
 -1      7594 2.26977E-01
 -1      7595 2.28118E-01
 -1      7596 2.28753E-01
 -1      7597 2.28956E-01
 -1      7598 2.28956E-01
 -1      7599 2.28753E-01
 -1      7600 2.28118E-01
 -1      7601 2.26977E-01
 -1      7602 2.25200E-01
 -1      7603 2.25200E-01
 -1      7604 2.26977E-01
 -1      7605 2.28118E-01
 -1      7606 2.28753E-01
 -1      7607 2.28956E-01
 -1      7608 2.28956E-01
 -1      7609 2.28753E-01
 -1      7610 2.28118E-01
 -1      7611 2.26977E-01
 -1      7612 2.25200E-01
 -1      7613 2.25200E-01
 -1      7614 2.26977E-01
 -1      7615 2.28118E-01
 -1      7616 2.28753E-01
 -1      7617 2.28956E-01
 -1      7618 2.28956E-01
 -1      7619 2.28753E-01
 -1      7620 2.28118E-01
 -1      7621 2.26977E-01
 -1      7622 2.25200E-01
 -1      7623 2.25200E-01
 -1      7624 2.26977E-01
 -1      7625 2.28118E-01
 -1      7626 2.28753E-01
 -1      7627 2.28956E-01
 -1      7628 2.28956E-01
 -1      7629 2.28753E-01
 -1      7630 2.28118E-01
 -1      7631 2.26977E-01
 -1      7632 2.25200E-01
 -1      7633 2.14041E-01
 -1      7634 2.15739E-01
 -1      7635 2.16836E-01
 -1      7636 2.17450E-01
 -1      7637 2.17648E-01
 -1      7638 2.17648E-01
 -1      7639 2.17450E-01
 -1      7640 2.16836E-01
 -1      7641 2.15739E-01
 -1      7642 2.14041E-01
 -1      7643 2.14041E-01
 -1      7644 2.15739E-01
 -1      7645 2.16836E-01
 -1      7646 2.17450E-01
 -1      7647 2.17648E-01
 -1      7648 2.17648E-01
 -1      7649 2.17450E-01
 -1      7650 2.16836E-01
 -1      7651 2.15739E-01
 -1      7652 2.14041E-01
 -1      7653 2.14041E-01
 -1      7654 2.15739E-01
 -1      7655 2.16837E-01
 -1      7656 2.17450E-01
 -1      7657 2.17648E-01
 -1      7658 2.17648E-01
 -1      7659 2.17450E-01
 -1      7660 2.16837E-01
 -1      7661 2.15739E-01
 -1      7662 2.14041E-01
 -1      7663 2.14041E-01
 -1      7664 2.15739E-01
 -1      7665 2.16837E-01
 -1      7666 2.17450E-01
 -1      7667 2.17648E-01
 -1      7668 2.17648E-01
 -1      7669 2.17450E-01
 -1      7670 2.16837E-01
 -1      7671 2.15739E-01
 -1      7672 2.14041E-01
 -1      7673 2.14041E-01
 -1      7674 2.15739E-01
 -1      7675 2.16837E-01
 -1      7676 2.17450E-01
 -1      7677 2.17648E-01
 -1      7678 2.17648E-01
 -1      7679 2.17450E-01
 -1      7680 2.16837E-01
 -1      7681 2.15739E-01
 -1      7682 2.14041E-01
 -1      7683 2.14041E-01
 -1      7684 2.15739E-01
 -1      7685 2.16837E-01
 -1      7686 2.17450E-01
 -1      7687 2.17648E-01
 -1      7688 2.17648E-01
 -1      7689 2.17450E-01
 -1      7690 2.16837E-01
 -1      7691 2.15739E-01
 -1      7692 2.14041E-01
 -1      7693 2.14041E-01
 -1      7694 2.15739E-01
 -1      7695 2.16837E-01
 -1      7696 2.17450E-01
 -1      7697 2.17648E-01
 -1      7698 2.17648E-01
 -1      7699 2.17450E-01
 -1      7700 2.16837E-01
 -1      7701 2.15739E-01
 -1      7702 2.14041E-01
 -1      7703 2.14041E-01
 -1      7704 2.15739E-01
 -1      7705 2.16837E-01
 -1      7706 2.17450E-01
 -1      7707 2.17648E-01
 -1      7708 2.17648E-01
 -1      7709 2.17450E-01
 -1      7710 2.16837E-01
 -1      7711 2.15739E-01
 -1      7712 2.14041E-01
 -1      7713 2.14041E-01
 -1      7714 2.15739E-01
 -1      7715 2.16837E-01
 -1      7716 2.17450E-01
 -1      7717 2.17648E-01
 -1      7718 2.17648E-01
 -1      7719 2.17450E-01
 -1      7720 2.16837E-01
 -1      7721 2.15739E-01
 -1      7722 2.14041E-01
 -1      7723 2.03592E-01
 -1      7724 2.05213E-01
 -1      7725 2.06267E-01
 -1      7726 2.06860E-01
 -1      7727 2.07051E-01
 -1      7728 2.07051E-01
 -1      7729 2.06860E-01
 -1      7730 2.06267E-01
 -1      7731 2.05213E-01
 -1      7732 2.03592E-01
 -1      7733 2.03592E-01
 -1      7734 2.05213E-01
 -1      7735 2.06267E-01
 -1      7736 2.06860E-01
 -1      7737 2.07051E-01
 -1      7738 2.07051E-01
 -1      7739 2.06860E-01
 -1      7740 2.06267E-01
 -1      7741 2.05213E-01
 -1      7742 2.03592E-01
 -1      7743 2.03592E-01
 -1      7744 2.05213E-01
 -1      7745 2.06267E-01
 -1      7746 2.06860E-01
 -1      7747 2.07051E-01
 -1      7748 2.07051E-01
 -1      7749 2.06860E-01
 -1      7750 2.06267E-01
 -1      7751 2.05213E-01
 -1      7752 2.03592E-01
 -1      7753 2.03592E-01
 -1      7754 2.05213E-01
 -1      7755 2.06267E-01
 -1      7756 2.06860E-01
 -1      7757 2.07051E-01
 -1      7758 2.07051E-01
 -1      7759 2.06860E-01
 -1      7760 2.06267E-01
 -1      7761 2.05213E-01
 -1      7762 2.03592E-01
 -1      7763 2.03592E-01
 -1      7764 2.05213E-01
 -1      7765 2.06267E-01
 -1      7766 2.06860E-01
 -1      7767 2.07051E-01
 -1      7768 2.07051E-01
 -1      7769 2.06860E-01
 -1      7770 2.06267E-01
 -1      7771 2.05213E-01
 -1      7772 2.03592E-01
 -1      7773 2.03592E-01
 -1      7774 2.05213E-01
 -1      7775 2.06267E-01
 -1      7776 2.06860E-01
 -1      7777 2.07051E-01
 -1      7778 2.07051E-01
 -1      7779 2.06860E-01
 -1      7780 2.06267E-01
 -1      7781 2.05213E-01
 -1      7782 2.03592E-01
 -1      7783 2.03592E-01
 -1      7784 2.05213E-01
 -1      7785 2.06267E-01
 -1      7786 2.06860E-01
 -1      7787 2.07051E-01
 -1      7788 2.07051E-01
 -1      7789 2.06860E-01
 -1      7790 2.06267E-01
 -1      7791 2.05213E-01
 -1      7792 2.03592E-01
 -1      7793 2.03592E-01
 -1      7794 2.05213E-01
 -1      7795 2.06267E-01
 -1      7796 2.06860E-01
 -1      7797 2.07051E-01
 -1      7798 2.07051E-01
 -1      7799 2.06860E-01
 -1      7800 2.06267E-01
 -1      7801 2.05213E-01
 -1      7802 2.03592E-01
 -1      7803 2.03592E-01
 -1      7804 2.05213E-01
 -1      7805 2.06267E-01
 -1      7806 2.06860E-01
 -1      7807 2.07051E-01
 -1      7808 2.07051E-01
 -1      7809 2.06860E-01
 -1      7810 2.06267E-01
 -1      7811 2.05213E-01
 -1      7812 2.03592E-01
 -1      7813 1.93794E-01
 -1      7814 1.95341E-01
 -1      7815 1.96351E-01
 -1      7816 1.96922E-01
 -1      7817 1.97106E-01
 -1      7818 1.97106E-01
 -1      7819 1.96922E-01
 -1      7820 1.96351E-01
 -1      7821 1.95341E-01
 -1      7822 1.93794E-01
 -1      7823 1.93794E-01
 -1      7824 1.95341E-01
 -1      7825 1.96351E-01
 -1      7826 1.96922E-01
 -1      7827 1.97106E-01
 -1      7828 1.97106E-01
 -1      7829 1.96922E-01
 -1      7830 1.96351E-01
 -1      7831 1.95341E-01
 -1      7832 1.93794E-01
 -1      7833 1.93794E-01
 -1      7834 1.95341E-01
 -1      7835 1.96351E-01
 -1      7836 1.96922E-01
 -1      7837 1.97106E-01
 -1      7838 1.97106E-01
 -1      7839 1.96922E-01
 -1      7840 1.96351E-01
 -1      7841 1.95341E-01
 -1      7842 1.93794E-01
 -1      7843 1.93794E-01
 -1      7844 1.95341E-01
 -1      7845 1.96351E-01
 -1      7846 1.96922E-01
 -1      7847 1.97106E-01
 -1      7848 1.97106E-01
 -1      7849 1.96922E-01
 -1      7850 1.96351E-01
 -1      7851 1.95341E-01
 -1      7852 1.93794E-01
 -1      7853 1.93794E-01
 -1      7854 1.95341E-01
 -1      7855 1.96351E-01
 -1      7856 1.96922E-01
 -1      7857 1.97106E-01
 -1      7858 1.97106E-01
 -1      7859 1.96922E-01
 -1      7860 1.96351E-01
 -1      7861 1.95341E-01
 -1      7862 1.93794E-01
 -1      7863 1.93794E-01
 -1      7864 1.95341E-01
 -1      7865 1.96351E-01
 -1      7866 1.96922E-01
 -1      7867 1.97106E-01
 -1      7868 1.97106E-01
 -1      7869 1.96922E-01
 -1      7870 1.96351E-01
 -1      7871 1.95341E-01
 -1      7872 1.93794E-01
 -1      7873 1.93794E-01
 -1      7874 1.95341E-01
 -1      7875 1.96351E-01
 -1      7876 1.96922E-01
 -1      7877 1.97106E-01
 -1      7878 1.97106E-01
 -1      7879 1.96922E-01
 -1      7880 1.96351E-01
 -1      7881 1.95341E-01
 -1      7882 1.93794E-01
 -1      7883 1.93794E-01
 -1      7884 1.95341E-01
 -1      7885 1.96351E-01
 -1      7886 1.96922E-01
 -1      7887 1.97106E-01
 -1      7888 1.97106E-01
 -1      7889 1.96922E-01
 -1      7890 1.96351E-01
 -1      7891 1.95341E-01
 -1      7892 1.93794E-01
 -1      7893 1.93794E-01
 -1      7894 1.95341E-01
 -1      7895 1.96351E-01
 -1      7896 1.96922E-01
 -1      7897 1.97106E-01
 -1      7898 1.97106E-01
 -1      7899 1.96922E-01
 -1      7900 1.96351E-01
 -1      7901 1.95341E-01
 -1      7902 1.93794E-01
 -1      7903 1.84592E-01
 -1      7904 1.86066E-01
 -1      7905 1.87033E-01
 -1      7906 1.87581E-01
 -1      7907 1.87758E-01
 -1      7908 1.87758E-01
 -1      7909 1.87581E-01
 -1      7910 1.87033E-01
 -1      7911 1.86066E-01
 -1      7912 1.84592E-01
 -1      7913 1.84592E-01
 -1      7914 1.86066E-01
 -1      7915 1.87033E-01
 -1      7916 1.87581E-01
 -1      7917 1.87758E-01
 -1      7918 1.87758E-01
 -1      7919 1.87581E-01
 -1      7920 1.87033E-01
 -1      7921 1.86066E-01
 -1      7922 1.84592E-01
 -1      7923 1.84592E-01
 -1      7924 1.86066E-01
 -1      7925 1.87033E-01
 -1      7926 1.87581E-01
 -1      7927 1.87758E-01
 -1      7928 1.87758E-01
 -1      7929 1.87581E-01
 -1      7930 1.87033E-01
 -1      7931 1.86066E-01
 -1      7932 1.84592E-01
 -1      7933 1.84592E-01
 -1      7934 1.86066E-01
 -1      7935 1.87033E-01
 -1      7936 1.87581E-01
 -1      7937 1.87758E-01
 -1      7938 1.87758E-01
 -1      7939 1.87581E-01
 -1      7940 1.87033E-01
 -1      7941 1.86066E-01
 -1      7942 1.84592E-01
 -1      7943 1.84592E-01
 -1      7944 1.86066E-01
 -1      7945 1.87033E-01
 -1      7946 1.87581E-01
 -1      7947 1.87758E-01
 -1      7948 1.87758E-01
 -1      7949 1.87581E-01
 -1      7950 1.87033E-01
 -1      7951 1.86066E-01
 -1      7952 1.84592E-01
 -1      7953 1.84592E-01
 -1      7954 1.86066E-01
 -1      7955 1.87033E-01
 -1      7956 1.87581E-01
 -1      7957 1.87758E-01
 -1      7958 1.87758E-01
 -1      7959 1.87581E-01
 -1      7960 1.87033E-01
 -1      7961 1.86066E-01
 -1      7962 1.84592E-01
 -1      7963 1.84592E-01
 -1      7964 1.86066E-01
 -1      7965 1.87033E-01
 -1      7966 1.87581E-01
 -1      7967 1.87758E-01
 -1      7968 1.87758E-01
 -1      7969 1.87581E-01
 -1      7970 1.87033E-01
 -1      7971 1.86066E-01
 -1      7972 1.84592E-01
 -1      7973 1.84592E-01
 -1      7974 1.86066E-01
 -1      7975 1.87033E-01
 -1      7976 1.87581E-01
 -1      7977 1.87758E-01
 -1      7978 1.87758E-01
 -1      7979 1.87581E-01
 -1      7980 1.87033E-01
 -1      7981 1.86066E-01
 -1      7982 1.84592E-01
 -1      7983 1.84592E-01
 -1      7984 1.86066E-01
 -1      7985 1.87033E-01
 -1      7986 1.87581E-01
 -1      7987 1.87758E-01
 -1      7988 1.87758E-01
 -1      7989 1.87581E-01
 -1      7990 1.87033E-01
 -1      7991 1.86066E-01
 -1      7992 1.84592E-01
 -1      7993 1.75931E-01
 -1      7994 1.77333E-01
 -1      7995 1.78257E-01
 -1      7996 1.78782E-01
 -1      7997 1.78952E-01
 -1      7998 1.78952E-01
 -1      7999 1.78782E-01
 -1      8000 1.78257E-01
 -1      8001 1.77333E-01
 -1      8002 1.75931E-01
 -1      8003 1.75931E-01
 -1      8004 1.77333E-01
 -1      8005 1.78257E-01
 -1      8006 1.78782E-01
 -1      8007 1.78952E-01
 -1      8008 1.78952E-01
 -1      8009 1.78782E-01
 -1      8010 1.78257E-01
 -1      8011 1.77333E-01
 -1      8012 1.75931E-01
 -1      8013 1.75931E-01
 -1      8014 1.77333E-01
 -1      8015 1.78257E-01
 -1      8016 1.78782E-01
 -1      8017 1.78952E-01
 -1      8018 1.78952E-01
 -1      8019 1.78782E-01
 -1      8020 1.78257E-01
 -1      8021 1.77333E-01
 -1      8022 1.75931E-01
 -1      8023 1.75931E-01
 -1      8024 1.77333E-01
 -1      8025 1.78257E-01
 -1      8026 1.78782E-01
 -1      8027 1.78952E-01
 -1      8028 1.78952E-01
 -1      8029 1.78782E-01
 -1      8030 1.78257E-01
 -1      8031 1.77333E-01
 -1      8032 1.75931E-01
 -1      8033 1.75931E-01
 -1      8034 1.77333E-01
 -1      8035 1.78257E-01
 -1      8036 1.78782E-01
 -1      8037 1.78952E-01
 -1      8038 1.78952E-01
 -1      8039 1.78782E-01
 -1      8040 1.78257E-01
 -1      8041 1.77333E-01
 -1      8042 1.75931E-01
 -1      8043 1.75931E-01
 -1      8044 1.77333E-01
 -1      8045 1.78257E-01
 -1      8046 1.78782E-01
 -1      8047 1.78952E-01
 -1      8048 1.78952E-01
 -1      8049 1.78782E-01
 -1      8050 1.78257E-01
 -1      8051 1.77333E-01
 -1      8052 1.75931E-01
 -1      8053 1.75931E-01
 -1      8054 1.77333E-01
 -1      8055 1.78257E-01
 -1      8056 1.78782E-01
 -1      8057 1.78952E-01
 -1      8058 1.78952E-01
 -1      8059 1.78782E-01
 -1      8060 1.78257E-01
 -1      8061 1.77333E-01
 -1      8062 1.75931E-01
 -1      8063 1.75931E-01
 -1      8064 1.77333E-01
 -1      8065 1.78257E-01
 -1      8066 1.78782E-01
 -1      8067 1.78952E-01
 -1      8068 1.78952E-01
 -1      8069 1.78782E-01
 -1      8070 1.78257E-01
 -1      8071 1.77333E-01
 -1      8072 1.75931E-01
 -1      8073 1.75931E-01
 -1      8074 1.77333E-01
 -1      8075 1.78257E-01
 -1      8076 1.78782E-01
 -1      8077 1.78952E-01
 -1      8078 1.78952E-01
 -1      8079 1.78782E-01
 -1      8080 1.78257E-01
 -1      8081 1.77333E-01
 -1      8082 1.75931E-01
 -1      8083 1.67749E-01
 -1      8084 1.69079E-01
 -1      8085 1.69959E-01
 -1      8086 1.70460E-01
 -1      8087 1.70623E-01
 -1      8088 1.70623E-01
 -1      8089 1.70460E-01
 -1      8090 1.69959E-01
 -1      8091 1.69079E-01
 -1      8092 1.67749E-01
 -1      8093 1.67749E-01
 -1      8094 1.69079E-01
 -1      8095 1.69959E-01
 -1      8096 1.70460E-01
 -1      8097 1.70623E-01
 -1      8098 1.70623E-01
 -1      8099 1.70460E-01
 -1      8100 1.69959E-01
 -1      8101 1.69079E-01
 -1      8102 1.67749E-01
 -1      8103 1.67749E-01
 -1      8104 1.69079E-01
 -1      8105 1.69959E-01
 -1      8106 1.70460E-01
 -1      8107 1.70623E-01
 -1      8108 1.70623E-01
 -1      8109 1.70460E-01
 -1      8110 1.69959E-01
 -1      8111 1.69079E-01
 -1      8112 1.67749E-01
 -1      8113 1.67749E-01
 -1      8114 1.69079E-01
 -1      8115 1.69959E-01
 -1      8116 1.70460E-01
 -1      8117 1.70623E-01
 -1      8118 1.70623E-01
 -1      8119 1.70460E-01
 -1      8120 1.69959E-01
 -1      8121 1.69079E-01
 -1      8122 1.67749E-01
 -1      8123 1.67749E-01
 -1      8124 1.69079E-01
 -1      8125 1.69959E-01
 -1      8126 1.70460E-01
 -1      8127 1.70623E-01
 -1      8128 1.70623E-01
 -1      8129 1.70460E-01
 -1      8130 1.69959E-01
 -1      8131 1.69079E-01
 -1      8132 1.67749E-01
 -1      8133 1.67749E-01
 -1      8134 1.69079E-01
 -1      8135 1.69959E-01
 -1      8136 1.70460E-01
 -1      8137 1.70623E-01
 -1      8138 1.70623E-01
 -1      8139 1.70460E-01
 -1      8140 1.69959E-01
 -1      8141 1.69079E-01
 -1      8142 1.67749E-01
 -1      8143 1.67749E-01
 -1      8144 1.69079E-01
 -1      8145 1.69959E-01
 -1      8146 1.70460E-01
 -1      8147 1.70623E-01
 -1      8148 1.70623E-01
 -1      8149 1.70460E-01
 -1      8150 1.69959E-01
 -1      8151 1.69079E-01
 -1      8152 1.67749E-01
 -1      8153 1.67749E-01
 -1      8154 1.69079E-01
 -1      8155 1.69959E-01
 -1      8156 1.70460E-01
 -1      8157 1.70623E-01
 -1      8158 1.70623E-01
 -1      8159 1.70460E-01
 -1      8160 1.69959E-01
 -1      8161 1.69079E-01
 -1      8162 1.67749E-01
 -1      8163 1.67749E-01
 -1      8164 1.69079E-01
 -1      8165 1.69959E-01
 -1      8166 1.70460E-01
 -1      8167 1.70623E-01
 -1      8168 1.70623E-01
 -1      8169 1.70460E-01
 -1      8170 1.69959E-01
 -1      8171 1.69079E-01
 -1      8172 1.67749E-01
 -1      8173 1.59967E-01
 -1      8174 1.61221E-01
 -1      8175 1.62054E-01
 -1      8176 1.62531E-01
 -1      8177 1.62685E-01
 -1      8178 1.62685E-01
 -1      8179 1.62531E-01
 -1      8180 1.62054E-01
 -1      8181 1.61221E-01
 -1      8182 1.59967E-01
 -1      8183 1.59967E-01
 -1      8184 1.61221E-01
 -1      8185 1.62054E-01
 -1      8186 1.62531E-01
 -1      8187 1.62685E-01
 -1      8188 1.62685E-01
 -1      8189 1.62531E-01
 -1      8190 1.62054E-01
 -1      8191 1.61221E-01
 -1      8192 1.59967E-01
 -1      8193 1.59967E-01
 -1      8194 1.61221E-01
 -1      8195 1.62054E-01
 -1      8196 1.62531E-01
 -1      8197 1.62685E-01
 -1      8198 1.62685E-01
 -1      8199 1.62531E-01
 -1      8200 1.62054E-01
 -1      8201 1.61221E-01
 -1      8202 1.59967E-01
 -1      8203 1.59967E-01
 -1      8204 1.61221E-01
 -1      8205 1.62054E-01
 -1      8206 1.62531E-01
 -1      8207 1.62685E-01
 -1      8208 1.62685E-01
 -1      8209 1.62531E-01
 -1      8210 1.62054E-01
 -1      8211 1.61221E-01
 -1      8212 1.59967E-01
 -1      8213 1.59967E-01
 -1      8214 1.61221E-01
 -1      8215 1.62054E-01
 -1      8216 1.62531E-01
 -1      8217 1.62685E-01
 -1      8218 1.62685E-01
 -1      8219 1.62531E-01
 -1      8220 1.62054E-01
 -1      8221 1.61221E-01
 -1      8222 1.59967E-01
 -1      8223 1.59967E-01
 -1      8224 1.61221E-01
 -1      8225 1.62054E-01
 -1      8226 1.62531E-01
 -1      8227 1.62685E-01
 -1      8228 1.62685E-01
 -1      8229 1.62531E-01
 -1      8230 1.62054E-01
 -1      8231 1.61221E-01
 -1      8232 1.59967E-01
 -1      8233 1.59967E-01
 -1      8234 1.61221E-01
 -1      8235 1.62054E-01
 -1      8236 1.62531E-01
 -1      8237 1.62685E-01
 -1      8238 1.62685E-01
 -1      8239 1.62531E-01
 -1      8240 1.62054E-01
 -1      8241 1.61221E-01
 -1      8242 1.59967E-01
 -1      8243 1.59967E-01
 -1      8244 1.61221E-01
 -1      8245 1.62054E-01
 -1      8246 1.62531E-01
 -1      8247 1.62685E-01
 -1      8248 1.62685E-01
 -1      8249 1.62531E-01
 -1      8250 1.62054E-01
 -1      8251 1.61221E-01
 -1      8252 1.59967E-01
 -1      8253 1.59967E-01
 -1      8254 1.61221E-01
 -1      8255 1.62054E-01
 -1      8256 1.62531E-01
 -1      8257 1.62685E-01
 -1      8258 1.62685E-01
 -1      8259 1.62531E-01
 -1      8260 1.62054E-01
 -1      8261 1.61221E-01
 -1      8262 1.59967E-01
 -1      8263 1.52458E-01
 -1      8264 1.53628E-01
 -1      8265 1.54411E-01
 -1      8266 1.54861E-01
 -1      8267 1.55006E-01
 -1      8268 1.55006E-01
 -1      8269 1.54861E-01
 -1      8270 1.54411E-01
 -1      8271 1.53628E-01
 -1      8272 1.52458E-01
 -1      8273 1.52458E-01
 -1      8274 1.53628E-01
 -1      8275 1.54411E-01
 -1      8276 1.54861E-01
 -1      8277 1.55006E-01
 -1      8278 1.55006E-01
 -1      8279 1.54861E-01
 -1      8280 1.54411E-01
 -1      8281 1.53628E-01
 -1      8282 1.52458E-01
 -1      8283 1.52458E-01
 -1      8284 1.53628E-01
 -1      8285 1.54411E-01
 -1      8286 1.54861E-01
 -1      8287 1.55006E-01
 -1      8288 1.55006E-01
 -1      8289 1.54861E-01
 -1      8290 1.54411E-01
 -1      8291 1.53628E-01
 -1      8292 1.52458E-01
 -1      8293 1.52458E-01
 -1      8294 1.53628E-01
 -1      8295 1.54411E-01
 -1      8296 1.54861E-01
 -1      8297 1.55006E-01
 -1      8298 1.55006E-01
 -1      8299 1.54861E-01
 -1      8300 1.54411E-01
 -1      8301 1.53628E-01
 -1      8302 1.52458E-01
 -1      8303 1.52458E-01
 -1      8304 1.53628E-01
 -1      8305 1.54411E-01
 -1      8306 1.54861E-01
 -1      8307 1.55006E-01
 -1      8308 1.55006E-01
 -1      8309 1.54861E-01
 -1      8310 1.54411E-01
 -1      8311 1.53628E-01
 -1      8312 1.52458E-01
 -1      8313 1.52458E-01
 -1      8314 1.53628E-01
 -1      8315 1.54411E-01
 -1      8316 1.54861E-01
 -1      8317 1.55006E-01
 -1      8318 1.55006E-01
 -1      8319 1.54861E-01
 -1      8320 1.54411E-01
 -1      8321 1.53628E-01
 -1      8322 1.52458E-01
 -1      8323 1.52458E-01
 -1      8324 1.53628E-01
 -1      8325 1.54411E-01
 -1      8326 1.54861E-01
 -1      8327 1.55007E-01
 -1      8328 1.55007E-01
 -1      8329 1.54861E-01
 -1      8330 1.54411E-01
 -1      8331 1.53628E-01
 -1      8332 1.52458E-01
 -1      8333 1.52458E-01
 -1      8334 1.53628E-01
 -1      8335 1.54411E-01
 -1      8336 1.54861E-01
 -1      8337 1.55007E-01
 -1      8338 1.55007E-01
 -1      8339 1.54861E-01
 -1      8340 1.54411E-01
 -1      8341 1.53628E-01
 -1      8342 1.52458E-01
 -1      8343 1.52458E-01
 -1      8344 1.53628E-01
 -1      8345 1.54411E-01
 -1      8346 1.54861E-01
 -1      8347 1.55007E-01
 -1      8348 1.55007E-01
 -1      8349 1.54861E-01
 -1      8350 1.54411E-01
 -1      8351 1.53628E-01
 -1      8352 1.52458E-01
 -1      8353 1.45015E-01
 -1      8354 1.46079E-01
 -1      8355 1.46800E-01
 -1      8356 1.47213E-01
 -1      8357 1.47343E-01
 -1      8358 1.47343E-01
 -1      8359 1.47213E-01
 -1      8360 1.46800E-01
 -1      8361 1.46079E-01
 -1      8362 1.45015E-01
 -1      8363 1.45015E-01
 -1      8364 1.46079E-01
 -1      8365 1.46800E-01
 -1      8366 1.47213E-01
 -1      8367 1.47343E-01
 -1      8368 1.47343E-01
 -1      8369 1.47213E-01
 -1      8370 1.46800E-01
 -1      8371 1.46079E-01
 -1      8372 1.45015E-01
 -1      8373 1.45015E-01
 -1      8374 1.46079E-01
 -1      8375 1.46800E-01
 -1      8376 1.47213E-01
 -1      8377 1.47343E-01
 -1      8378 1.47343E-01
 -1      8379 1.47213E-01
 -1      8380 1.46800E-01
 -1      8381 1.46079E-01
 -1      8382 1.45015E-01
 -1      8383 1.45015E-01
 -1      8384 1.46079E-01
 -1      8385 1.46800E-01
 -1      8386 1.47213E-01
 -1      8387 1.47343E-01
 -1      8388 1.47343E-01
 -1      8389 1.47213E-01
 -1      8390 1.46800E-01
 -1      8391 1.46079E-01
 -1      8392 1.45015E-01
 -1      8393 1.45015E-01
 -1      8394 1.46079E-01
 -1      8395 1.46801E-01
 -1      8396 1.47213E-01
 -1      8397 1.47343E-01
 -1      8398 1.47343E-01
 -1      8399 1.47213E-01
 -1      8400 1.46801E-01
 -1      8401 1.46079E-01
 -1      8402 1.45015E-01
 -1      8403 1.45015E-01
 -1      8404 1.46079E-01
 -1      8405 1.46801E-01
 -1      8406 1.47213E-01
 -1      8407 1.47343E-01
 -1      8408 1.47343E-01
 -1      8409 1.47213E-01
 -1      8410 1.46801E-01
 -1      8411 1.46079E-01
 -1      8412 1.45015E-01
 -1      8413 1.45015E-01
 -1      8414 1.46079E-01
 -1      8415 1.46800E-01
 -1      8416 1.47213E-01
 -1      8417 1.47343E-01
 -1      8418 1.47343E-01
 -1      8419 1.47213E-01
 -1      8420 1.46800E-01
 -1      8421 1.46079E-01
 -1      8422 1.45015E-01
 -1      8423 1.45015E-01
 -1      8424 1.46079E-01
 -1      8425 1.46800E-01
 -1      8426 1.47213E-01
 -1      8427 1.47343E-01
 -1      8428 1.47343E-01
 -1      8429 1.47213E-01
 -1      8430 1.46800E-01
 -1      8431 1.46079E-01
 -1      8432 1.45015E-01
 -1      8433 1.45015E-01
 -1      8434 1.46079E-01
 -1      8435 1.46801E-01
 -1      8436 1.47213E-01
 -1      8437 1.47343E-01
 -1      8438 1.47343E-01
 -1      8439 1.47213E-01
 -1      8440 1.46801E-01
 -1      8441 1.46079E-01
 -1      8442 1.45015E-01
 -1      8443 1.37363E-01
 -1      8444 1.38197E-01
 -1      8445 1.38759E-01
 -1      8446 1.39061E-01
 -1      8447 1.39150E-01
 -1      8448 1.39150E-01
 -1      8449 1.39061E-01
 -1      8450 1.38759E-01
 -1      8451 1.38197E-01
 -1      8452 1.37363E-01
 -1      8453 1.37363E-01
 -1      8454 1.38197E-01
 -1      8455 1.38759E-01
 -1      8456 1.39061E-01
 -1      8457 1.39150E-01
 -1      8458 1.39150E-01
 -1      8459 1.39061E-01
 -1      8460 1.38759E-01
 -1      8461 1.38197E-01
 -1      8462 1.37363E-01
 -1      8463 1.37363E-01
 -1      8464 1.38197E-01
 -1      8465 1.38759E-01
 -1      8466 1.39061E-01
 -1      8467 1.39150E-01
 -1      8468 1.39150E-01
 -1      8469 1.39061E-01
 -1      8470 1.38759E-01
 -1      8471 1.38197E-01
 -1      8472 1.37363E-01
 -1      8473 1.37363E-01
 -1      8474 1.38197E-01
 -1      8475 1.38759E-01
 -1      8476 1.39061E-01
 -1      8477 1.39150E-01
 -1      8478 1.39150E-01
 -1      8479 1.39061E-01
 -1      8480 1.38759E-01
 -1      8481 1.38197E-01
 -1      8482 1.37363E-01
 -1      8483 1.37364E-01
 -1      8484 1.38197E-01
 -1      8485 1.38759E-01
 -1      8486 1.39062E-01
 -1      8487 1.39151E-01
 -1      8488 1.39151E-01
 -1      8489 1.39062E-01
 -1      8490 1.38759E-01
 -1      8491 1.38197E-01
 -1      8492 1.37364E-01
 -1      8493 1.37364E-01
 -1      8494 1.38197E-01
 -1      8495 1.38759E-01
 -1      8496 1.39062E-01
 -1      8497 1.39151E-01
 -1      8498 1.39151E-01
 -1      8499 1.39062E-01
 -1      8500 1.38759E-01
 -1      8501 1.38197E-01
 -1      8502 1.37364E-01
 -1      8503 1.37364E-01
 -1      8504 1.38197E-01
 -1      8505 1.38759E-01
 -1      8506 1.39062E-01
 -1      8507 1.39151E-01
 -1      8508 1.39151E-01
 -1      8509 1.39062E-01
 -1      8510 1.38759E-01
 -1      8511 1.38197E-01
 -1      8512 1.37364E-01
 -1      8513 1.37364E-01
 -1      8514 1.38197E-01
 -1      8515 1.38759E-01
 -1      8516 1.39062E-01
 -1      8517 1.39151E-01
 -1      8518 1.39151E-01
 -1      8519 1.39062E-01
 -1      8520 1.38759E-01
 -1      8521 1.38197E-01
 -1      8522 1.37364E-01
 -1      8523 1.37364E-01
 -1      8524 1.38198E-01
 -1      8525 1.38760E-01
 -1      8526 1.39063E-01
 -1      8527 1.39152E-01
 -1      8528 1.39152E-01
 -1      8529 1.39063E-01
 -1      8530 1.38760E-01
 -1      8531 1.38198E-01
 -1      8532 1.37364E-01
 -1      8533 6.76071E-01
 -1      8534 6.77203E-01
 -1      8535 6.77203E-01
 -1      8540 6.77940E-01
 -1      8541 6.78677E-01
 -1      8542 6.78677E-01
 -1      8547 6.78907E-01
 -1      8548 6.79136E-01
 -1      8549 6.79136E-01
 -1      8554 6.79219E-01
 -1      8555 6.79302E-01
 -1      8556 6.79302E-01
 -1      8561 6.79320E-01
 -1      8562 6.79337E-01
 -1      8563 6.79337E-01
 -1      8568 6.79337E-01
 -1      8569 6.79337E-01
 -1      8570 6.79337E-01
 -1      8575 6.79320E-01
 -1      8576 6.79302E-01
 -1      8577 6.79302E-01
 -1      8582 6.79219E-01
 -1      8583 6.79136E-01
 -1      8584 6.79136E-01
 -1      8589 6.78907E-01
 -1      8590 6.78677E-01
 -1      8591 6.78677E-01
 -1      8596 6.77940E-01
 -1      8597 6.77203E-01
 -1      8598 6.77203E-01
 -1      8603 6.76071E-01
 -1      8607 6.76071E-01
 -1      8608 6.77203E-01
 -1      8609 6.77203E-01
 -1      8614 6.77940E-01
 -1      8615 6.78677E-01
 -1      8616 6.78677E-01
 -1      8621 6.78907E-01
 -1      8622 6.79136E-01
 -1      8623 6.79136E-01
 -1      8628 6.79219E-01
 -1      8629 6.79302E-01
 -1      8630 6.79302E-01
 -1      8635 6.79320E-01
 -1      8636 6.79337E-01
 -1      8637 6.79337E-01
 -1      8642 6.79337E-01
 -1      8643 6.79337E-01
 -1      8644 6.79337E-01
 -1      8649 6.79320E-01
 -1      8650 6.79302E-01
 -1      8651 6.79302E-01
 -1      8656 6.79219E-01
 -1      8657 6.79136E-01
 -1      8658 6.79136E-01
 -1      8663 6.78907E-01
 -1      8664 6.78677E-01
 -1      8665 6.78677E-01
 -1      8670 6.77940E-01
 -1      8671 6.77203E-01
 -1      8672 6.77203E-01
 -1      8677 6.76071E-01
 -1      8681 6.76071E-01
 -1      8682 6.77203E-01
 -1      8683 6.77203E-01
 -1      8688 6.77940E-01
 -1      8689 6.78677E-01
 -1      8690 6.78677E-01
 -1      8695 6.78907E-01
 -1      8696 6.79136E-01
 -1      8697 6.79136E-01
 -1      8702 6.79219E-01
 -1      8703 6.79302E-01
 -1      8704 6.79302E-01
 -1      8709 6.79320E-01
 -1      8710 6.79337E-01
 -1      8711 6.79337E-01
 -1      8716 6.79337E-01
 -1      8717 6.79337E-01
 -1      8718 6.79337E-01
 -1      8723 6.79320E-01
 -1      8724 6.79302E-01
 -1      8725 6.79302E-01
 -1      8730 6.79219E-01
 -1      8731 6.79136E-01
 -1      8732 6.79136E-01
 -1      8737 6.78907E-01
 -1      8738 6.78677E-01
 -1      8739 6.78677E-01
 -1      8744 6.77940E-01
 -1      8745 6.77203E-01
 -1      8746 6.77203E-01
 -1      8751 6.76071E-01
 -1      8755 6.76071E-01
 -1      8756 6.77203E-01
 -1      8757 6.77203E-01
 -1      8762 6.77940E-01
 -1      8763 6.78677E-01
 -1      8764 6.78677E-01
 -1      8769 6.78907E-01
 -1      8770 6.79136E-01
 -1      8771 6.79136E-01
 -1      8776 6.79219E-01
 -1      8777 6.79302E-01
 -1      8778 6.79302E-01
 -1      8783 6.79320E-01
 -1      8784 6.79337E-01
 -1      8785 6.79337E-01
 -1      8790 6.79337E-01
 -1      8791 6.79337E-01
 -1      8792 6.79337E-01
 -1      8797 6.79320E-01
 -1      8798 6.79302E-01
 -1      8799 6.79302E-01
 -1      8804 6.79219E-01
 -1      8805 6.79136E-01
 -1      8806 6.79136E-01
 -1      8811 6.78907E-01
 -1      8812 6.78677E-01
 -1      8813 6.78677E-01
 -1      8818 6.77940E-01
 -1      8819 6.77203E-01
 -1      8820 6.77203E-01
 -1      8825 6.76071E-01
 -1      8829 6.76071E-01
 -1      8830 6.77203E-01
 -1      8831 6.77203E-01
 -1      8836 6.77940E-01
 -1      8837 6.78677E-01
 -1      8838 6.78677E-01
 -1      8843 6.78907E-01
 -1      8844 6.79136E-01
 -1      8845 6.79136E-01
 -1      8850 6.79219E-01
 -1      8851 6.79302E-01
 -1      8852 6.79302E-01
 -1      8857 6.79320E-01
 -1      8858 6.79337E-01
 -1      8859 6.79337E-01
 -1      8864 6.79337E-01
 -1      8865 6.79337E-01
 -1      8866 6.79337E-01
 -1      8871 6.79320E-01
 -1      8872 6.79302E-01
 -1      8873 6.79302E-01
 -1      8878 6.79219E-01
 -1      8879 6.79136E-01
 -1      8880 6.79136E-01
 -1      8885 6.78907E-01
 -1      8886 6.78677E-01
 -1      8887 6.78677E-01
 -1      8892 6.77940E-01
 -1      8893 6.77203E-01
 -1      8894 6.77203E-01
 -1      8899 6.76071E-01
 -1      8903 6.76071E-01
 -1      8904 6.77203E-01
 -1      8905 6.77203E-01
 -1      8910 6.77940E-01
 -1      8911 6.78677E-01
 -1      8912 6.78677E-01
 -1      8917 6.78907E-01
 -1      8918 6.79136E-01
 -1      8919 6.79136E-01
 -1      8924 6.79219E-01
 -1      8925 6.79302E-01
 -1      8926 6.79302E-01
 -1      8931 6.79320E-01
 -1      8932 6.79337E-01
 -1      8933 6.79337E-01
 -1      8938 6.79337E-01
 -1      8939 6.79337E-01
 -1      8940 6.79337E-01
 -1      8945 6.79320E-01
 -1      8946 6.79302E-01
 -1      8947 6.79302E-01
 -1      8952 6.79219E-01
 -1      8953 6.79136E-01
 -1      8954 6.79136E-01
 -1      8959 6.78907E-01
 -1      8960 6.78677E-01
 -1      8961 6.78677E-01
 -1      8966 6.77940E-01
 -1      8967 6.77203E-01
 -1      8968 6.77203E-01
 -1      8973 6.76071E-01
 -1      8977 6.76071E-01
 -1      8978 6.77203E-01
 -1      8979 6.77203E-01
 -1      8984 6.77940E-01
 -1      8985 6.78677E-01
 -1      8986 6.78677E-01
 -1      8991 6.78907E-01
 -1      8992 6.79136E-01
 -1      8993 6.79136E-01
 -1      8998 6.79219E-01
 -1      8999 6.79302E-01
 -1      9000 6.79302E-01
 -1      9005 6.79320E-01
 -1      9006 6.79337E-01
 -1      9007 6.79337E-01
 -1      9012 6.79337E-01
 -1      9013 6.79337E-01
 -1      9014 6.79337E-01
 -1      9019 6.79320E-01
 -1      9020 6.79302E-01
 -1      9021 6.79302E-01
 -1      9026 6.79219E-01
 -1      9027 6.79136E-01
 -1      9028 6.79136E-01
 -1      9033 6.78907E-01
 -1      9034 6.78677E-01
 -1      9035 6.78677E-01
 -1      9040 6.77940E-01
 -1      9041 6.77203E-01
 -1      9042 6.77203E-01
 -1      9047 6.76071E-01
 -1      9051 6.76071E-01
 -1      9052 6.77203E-01
 -1      9053 6.77203E-01
 -1      9058 6.77940E-01
 -1      9059 6.78677E-01
 -1      9060 6.78677E-01
 -1      9065 6.78907E-01
 -1      9066 6.79136E-01
 -1      9067 6.79136E-01
 -1      9072 6.79219E-01
 -1      9073 6.79302E-01
 -1      9074 6.79302E-01
 -1      9079 6.79320E-01
 -1      9080 6.79337E-01
 -1      9081 6.79337E-01
 -1      9086 6.79337E-01
 -1      9087 6.79337E-01
 -1      9088 6.79337E-01
 -1      9093 6.79320E-01
 -1      9094 6.79302E-01
 -1      9095 6.79302E-01
 -1      9100 6.79219E-01
 -1      9101 6.79136E-01
 -1      9102 6.79136E-01
 -1      9107 6.78907E-01
 -1      9108 6.78677E-01
 -1      9109 6.78677E-01
 -1      9114 6.77940E-01
 -1      9115 6.77203E-01
 -1      9116 6.77203E-01
 -1      9121 6.76071E-01
 -1      9125 6.76071E-01
 -1      9126 6.77203E-01
 -1      9127 6.77203E-01
 -1      9132 6.77940E-01
 -1      9133 6.78677E-01
 -1      9134 6.78677E-01
 -1      9139 6.78907E-01
 -1      9140 6.79136E-01
 -1      9141 6.79136E-01
 -1      9146 6.79219E-01
 -1      9147 6.79302E-01
 -1      9148 6.79302E-01
 -1      9153 6.79320E-01
 -1      9154 6.79337E-01
 -1      9155 6.79337E-01
 -1      9160 6.79337E-01
 -1      9161 6.79337E-01
 -1      9162 6.79337E-01
 -1      9167 6.79320E-01
 -1      9168 6.79302E-01
 -1      9169 6.79302E-01
 -1      9174 6.79219E-01
 -1      9175 6.79136E-01
 -1      9176 6.79136E-01
 -1      9181 6.78907E-01
 -1      9182 6.78677E-01
 -1      9183 6.78677E-01
 -1      9188 6.77940E-01
 -1      9189 6.77203E-01
 -1      9190 6.77203E-01
 -1      9195 6.76071E-01
 -1      9199 6.77203E-01
 -1      9203 6.78677E-01
 -1      9207 6.79136E-01
 -1      9211 6.79302E-01
 -1      9215 6.79337E-01
 -1      9219 6.79337E-01
 -1      9223 6.79302E-01
 -1      9227 6.79136E-01
 -1      9231 6.78677E-01
 -1      9235 6.77203E-01
 -1      9241 6.56401E-01
 -1      9242 6.59207E-01
 -1      9243 6.68205E-01
 -1      9248 6.60210E-01
 -1      9249 6.61213E-01
 -1      9250 6.69945E-01
 -1      9255 6.61590E-01
 -1      9256 6.61968E-01
 -1      9257 6.70552E-01
 -1      9262 6.62124E-01
 -1      9263 6.62281E-01
 -1      9264 6.70792E-01
 -1      9269 6.62322E-01
 -1      9270 6.62362E-01
 -1      9271 6.70850E-01
 -1      9276 6.62362E-01
 -1      9277 6.62362E-01
 -1      9278 6.70850E-01
 -1      9283 6.62322E-01
 -1      9284 6.62281E-01
 -1      9285 6.70792E-01
 -1      9290 6.62124E-01
 -1      9291 6.61968E-01
 -1      9292 6.70552E-01
 -1      9297 6.61590E-01
 -1      9298 6.61213E-01
 -1      9299 6.69945E-01
 -1      9304 6.60210E-01
 -1      9305 6.59207E-01
 -1      9306 6.68205E-01
 -1      9311 6.56401E-01
 -1      9315 6.56401E-01
 -1      9316 6.59207E-01
 -1      9317 6.68205E-01
 -1      9322 6.60210E-01
 -1      9323 6.61213E-01
 -1      9324 6.69945E-01
 -1      9329 6.61590E-01
 -1      9330 6.61968E-01
 -1      9331 6.70552E-01
 -1      9336 6.62124E-01
 -1      9337 6.62281E-01
 -1      9338 6.70792E-01
 -1      9343 6.62322E-01
 -1      9344 6.62362E-01
 -1      9345 6.70850E-01
 -1      9350 6.62362E-01
 -1      9351 6.62362E-01
 -1      9352 6.70850E-01
 -1      9357 6.62322E-01
 -1      9358 6.62281E-01
 -1      9359 6.70792E-01
 -1      9364 6.62124E-01
 -1      9365 6.61968E-01
 -1      9366 6.70552E-01
 -1      9371 6.61590E-01
 -1      9372 6.61213E-01
 -1      9373 6.69945E-01
 -1      9378 6.60210E-01
 -1      9379 6.59207E-01
 -1      9380 6.68205E-01
 -1      9385 6.56401E-01
 -1      9389 6.56401E-01
 -1      9390 6.59207E-01
 -1      9391 6.68205E-01
 -1      9396 6.60210E-01
 -1      9397 6.61213E-01
 -1      9398 6.69945E-01
 -1      9403 6.61590E-01
 -1      9404 6.61968E-01
 -1      9405 6.70552E-01
 -1      9410 6.62124E-01
 -1      9411 6.62281E-01
 -1      9412 6.70792E-01
 -1      9417 6.62322E-01
 -1      9418 6.62362E-01
 -1      9419 6.70850E-01
 -1      9424 6.62362E-01
 -1      9425 6.62362E-01
 -1      9426 6.70850E-01
 -1      9431 6.62322E-01
 -1      9432 6.62281E-01
 -1      9433 6.70792E-01
 -1      9438 6.62124E-01
 -1      9439 6.61968E-01
 -1      9440 6.70552E-01
 -1      9445 6.61590E-01
 -1      9446 6.61213E-01
 -1      9447 6.69945E-01
 -1      9452 6.60210E-01
 -1      9453 6.59207E-01
 -1      9454 6.68205E-01
 -1      9459 6.56401E-01
 -1      9463 6.56401E-01
 -1      9464 6.59207E-01
 -1      9465 6.68205E-01
 -1      9470 6.60210E-01
 -1      9471 6.61213E-01
 -1      9472 6.69945E-01
 -1      9477 6.61590E-01
 -1      9478 6.61968E-01
 -1      9479 6.70552E-01
 -1      9484 6.62124E-01
 -1      9485 6.62281E-01
 -1      9486 6.70792E-01
 -1      9491 6.62322E-01
 -1      9492 6.62362E-01
 -1      9493 6.70850E-01
 -1      9498 6.62362E-01
 -1      9499 6.62362E-01
 -1      9500 6.70850E-01
 -1      9505 6.62322E-01
 -1      9506 6.62281E-01
 -1      9507 6.70792E-01
 -1      9512 6.62124E-01
 -1      9513 6.61968E-01
 -1      9514 6.70552E-01
 -1      9519 6.61590E-01
 -1      9520 6.61213E-01
 -1      9521 6.69945E-01
 -1      9526 6.60210E-01
 -1      9527 6.59207E-01
 -1      9528 6.68205E-01
 -1      9533 6.56401E-01
 -1      9537 6.56401E-01
 -1      9538 6.59207E-01
 -1      9539 6.68205E-01
 -1      9544 6.60210E-01
 -1      9545 6.61213E-01
 -1      9546 6.69945E-01
 -1      9551 6.61590E-01
 -1      9552 6.61968E-01
 -1      9553 6.70552E-01
 -1      9558 6.62124E-01
 -1      9559 6.62281E-01
 -1      9560 6.70792E-01
 -1      9565 6.62322E-01
 -1      9566 6.62362E-01
 -1      9567 6.70850E-01
 -1      9572 6.62362E-01
 -1      9573 6.62362E-01
 -1      9574 6.70850E-01
 -1      9579 6.62322E-01
 -1      9580 6.62281E-01
 -1      9581 6.70792E-01
 -1      9586 6.62124E-01
 -1      9587 6.61968E-01
 -1      9588 6.70552E-01
 -1      9593 6.61590E-01
 -1      9594 6.61213E-01
 -1      9595 6.69945E-01
 -1      9600 6.60210E-01
 -1      9601 6.59207E-01
 -1      9602 6.68205E-01
 -1      9607 6.56401E-01
 -1      9611 6.56401E-01
 -1      9612 6.59207E-01
 -1      9613 6.68205E-01
 -1      9618 6.60210E-01
 -1      9619 6.61213E-01
 -1      9620 6.69945E-01
 -1      9625 6.61590E-01
 -1      9626 6.61968E-01
 -1      9627 6.70552E-01
 -1      9632 6.62124E-01
 -1      9633 6.62281E-01
 -1      9634 6.70792E-01
 -1      9639 6.62322E-01
 -1      9640 6.62362E-01
 -1      9641 6.70850E-01
 -1      9646 6.62362E-01
 -1      9647 6.62362E-01
 -1      9648 6.70850E-01
 -1      9653 6.62322E-01
 -1      9654 6.62281E-01
 -1      9655 6.70792E-01
 -1      9660 6.62124E-01
 -1      9661 6.61968E-01
 -1      9662 6.70552E-01
 -1      9667 6.61590E-01
 -1      9668 6.61213E-01
 -1      9669 6.69945E-01
 -1      9674 6.60210E-01
 -1      9675 6.59207E-01
 -1      9676 6.68205E-01
 -1      9681 6.56401E-01
 -1      9685 6.56401E-01
 -1      9686 6.59207E-01
 -1      9687 6.68205E-01
 -1      9692 6.60210E-01
 -1      9693 6.61213E-01
 -1      9694 6.69945E-01
 -1      9699 6.61590E-01
 -1      9700 6.61968E-01
 -1      9701 6.70552E-01
 -1      9706 6.62124E-01
 -1      9707 6.62281E-01
 -1      9708 6.70792E-01
 -1      9713 6.62322E-01
 -1      9714 6.62362E-01
 -1      9715 6.70850E-01
 -1      9720 6.62362E-01
 -1      9721 6.62362E-01
 -1      9722 6.70850E-01
 -1      9727 6.62322E-01
 -1      9728 6.62281E-01
 -1      9729 6.70792E-01
 -1      9734 6.62124E-01
 -1      9735 6.61968E-01
 -1      9736 6.70552E-01
 -1      9741 6.61590E-01
 -1      9742 6.61213E-01
 -1      9743 6.69945E-01
 -1      9748 6.60210E-01
 -1      9749 6.59207E-01
 -1      9750 6.68205E-01
 -1      9755 6.56401E-01
 -1      9759 6.56401E-01
 -1      9760 6.59207E-01
 -1      9761 6.68205E-01
 -1      9766 6.60210E-01
 -1      9767 6.61213E-01
 -1      9768 6.69945E-01
 -1      9773 6.61590E-01
 -1      9774 6.61968E-01
 -1      9775 6.70552E-01
 -1      9780 6.62124E-01
 -1      9781 6.62281E-01
 -1      9782 6.70792E-01
 -1      9787 6.62322E-01
 -1      9788 6.62362E-01
 -1      9789 6.70850E-01
 -1      9794 6.62362E-01
 -1      9795 6.62362E-01
 -1      9796 6.70850E-01
 -1      9801 6.62322E-01
 -1      9802 6.62281E-01
 -1      9803 6.70792E-01
 -1      9808 6.62124E-01
 -1      9809 6.61968E-01
 -1      9810 6.70552E-01
 -1      9815 6.61590E-01
 -1      9816 6.61213E-01
 -1      9817 6.69945E-01
 -1      9822 6.60210E-01
 -1      9823 6.59207E-01
 -1      9824 6.68205E-01
 -1      9829 6.56401E-01
 -1      9833 6.56401E-01
 -1      9834 6.59207E-01
 -1      9835 6.68205E-01
 -1      9840 6.60210E-01
 -1      9841 6.61213E-01
 -1      9842 6.69945E-01
 -1      9847 6.61590E-01
 -1      9848 6.61968E-01
 -1      9849 6.70552E-01
 -1      9854 6.62124E-01
 -1      9855 6.62281E-01
 -1      9856 6.70792E-01
 -1      9861 6.62322E-01
 -1      9862 6.62362E-01
 -1      9863 6.70850E-01
 -1      9868 6.62362E-01
 -1      9869 6.62362E-01
 -1      9870 6.70850E-01
 -1      9875 6.62322E-01
 -1      9876 6.62281E-01
 -1      9877 6.70792E-01
 -1      9882 6.62124E-01
 -1      9883 6.61968E-01
 -1      9884 6.70552E-01
 -1      9889 6.61590E-01
 -1      9890 6.61213E-01
 -1      9891 6.69945E-01
 -1      9896 6.60210E-01
 -1      9897 6.59207E-01
 -1      9898 6.68205E-01
 -1      9903 6.56401E-01
 -1      9907 6.59207E-01
 -1      9911 6.61213E-01
 -1      9915 6.61968E-01
 -1      9919 6.62281E-01
 -1      9923 6.62362E-01
 -1      9927 6.62362E-01
 -1      9931 6.62281E-01
 -1      9935 6.61968E-01
 -1      9939 6.61213E-01
 -1      9943 6.59207E-01
 -1      9949 6.03926E-01
 -1      9950 6.06896E-01
 -1      9951 6.33052E-01
 -1      9956 6.08051E-01
 -1      9957 6.09206E-01
 -1      9958 6.35210E-01
 -1      9963 6.09759E-01
 -1      9964 6.10311E-01
 -1      9965 6.36139E-01
 -1      9970 6.10537E-01
 -1      9971 6.10764E-01
 -1      9972 6.36523E-01
 -1      9977 6.10824E-01
 -1      9978 6.10884E-01
 -1      9979 6.36623E-01
 -1      9984 6.10884E-01
 -1      9985 6.10884E-01
 -1      9986 6.36623E-01
 -1      9991 6.10824E-01
 -1      9992 6.10764E-01
 -1      9993 6.36523E-01
 -1      9998 6.10537E-01
 -1      9999 6.10311E-01
 -1     10000 6.36139E-01
 -1     10005 6.09759E-01
 -1     10006 6.09206E-01
 -1     10007 6.35210E-01
 -1     10012 6.08051E-01
 -1     10013 6.06896E-01
 -1     10014 6.33052E-01
 -1     10019 6.03926E-01
 -1     10023 6.03926E-01
 -1     10024 6.06896E-01
 -1     10025 6.33052E-01
 -1     10030 6.08051E-01
 -1     10031 6.09206E-01
 -1     10032 6.35210E-01
 -1     10037 6.09759E-01
 -1     10038 6.10311E-01
 -1     10039 6.36139E-01
 -1     10044 6.10537E-01
 -1     10045 6.10764E-01
 -1     10046 6.36523E-01
 -1     10051 6.10824E-01
 -1     10052 6.10884E-01
 -1     10053 6.36623E-01
 -1     10058 6.10884E-01
 -1     10059 6.10884E-01
 -1     10060 6.36623E-01
 -1     10065 6.10824E-01
 -1     10066 6.10764E-01
 -1     10067 6.36523E-01
 -1     10072 6.10537E-01
 -1     10073 6.10311E-01
 -1     10074 6.36139E-01
 -1     10079 6.09759E-01
 -1     10080 6.09206E-01
 -1     10081 6.35210E-01
 -1     10086 6.08051E-01
 -1     10087 6.06896E-01
 -1     10088 6.33052E-01
 -1     10093 6.03926E-01
 -1     10097 6.03926E-01
 -1     10098 6.06896E-01
 -1     10099 6.33052E-01
 -1     10104 6.08051E-01
 -1     10105 6.09206E-01
 -1     10106 6.35210E-01
 -1     10111 6.09759E-01
 -1     10112 6.10311E-01
 -1     10113 6.36139E-01
 -1     10118 6.10537E-01
 -1     10119 6.10764E-01
 -1     10120 6.36523E-01
 -1     10125 6.10824E-01
 -1     10126 6.10884E-01
 -1     10127 6.36623E-01
 -1     10132 6.10884E-01
 -1     10133 6.10884E-01
 -1     10134 6.36623E-01
 -1     10139 6.10824E-01
 -1     10140 6.10764E-01
 -1     10141 6.36523E-01
 -1     10146 6.10537E-01
 -1     10147 6.10311E-01
 -1     10148 6.36139E-01
 -1     10153 6.09759E-01
 -1     10154 6.09206E-01
 -1     10155 6.35210E-01
 -1     10160 6.08051E-01
 -1     10161 6.06896E-01
 -1     10162 6.33052E-01
 -1     10167 6.03926E-01
 -1     10171 6.03926E-01
 -1     10172 6.06896E-01
 -1     10173 6.33052E-01
 -1     10178 6.08051E-01
 -1     10179 6.09206E-01
 -1     10180 6.35210E-01
 -1     10185 6.09759E-01
 -1     10186 6.10311E-01
 -1     10187 6.36139E-01
 -1     10192 6.10537E-01
 -1     10193 6.10764E-01
 -1     10194 6.36523E-01
 -1     10199 6.10824E-01
 -1     10200 6.10884E-01
 -1     10201 6.36623E-01
 -1     10206 6.10884E-01
 -1     10207 6.10884E-01
 -1     10208 6.36623E-01
 -1     10213 6.10824E-01
 -1     10214 6.10764E-01
 -1     10215 6.36523E-01
 -1     10220 6.10537E-01
 -1     10221 6.10311E-01
 -1     10222 6.36139E-01
 -1     10227 6.09759E-01
 -1     10228 6.09206E-01
 -1     10229 6.35210E-01
 -1     10234 6.08051E-01
 -1     10235 6.06896E-01
 -1     10236 6.33052E-01
 -1     10241 6.03926E-01
 -1     10245 6.03926E-01
 -1     10246 6.06896E-01
 -1     10247 6.33052E-01
 -1     10252 6.08051E-01
 -1     10253 6.09206E-01
 -1     10254 6.35210E-01
 -1     10259 6.09759E-01
 -1     10260 6.10311E-01
 -1     10261 6.36139E-01
 -1     10266 6.10537E-01
 -1     10267 6.10764E-01
 -1     10268 6.36523E-01
 -1     10273 6.10824E-01
 -1     10274 6.10884E-01
 -1     10275 6.36623E-01
 -1     10280 6.10884E-01
 -1     10281 6.10884E-01
 -1     10282 6.36623E-01
 -1     10287 6.10824E-01
 -1     10288 6.10764E-01
 -1     10289 6.36523E-01
 -1     10294 6.10537E-01
 -1     10295 6.10311E-01
 -1     10296 6.36139E-01
 -1     10301 6.09759E-01
 -1     10302 6.09206E-01
 -1     10303 6.35210E-01
 -1     10308 6.08051E-01
 -1     10309 6.06896E-01
 -1     10310 6.33052E-01
 -1     10315 6.03926E-01
 -1     10319 6.03926E-01
 -1     10320 6.06896E-01
 -1     10321 6.33052E-01
 -1     10326 6.08051E-01
 -1     10327 6.09206E-01
 -1     10328 6.35210E-01
 -1     10333 6.09759E-01
 -1     10334 6.10311E-01
 -1     10335 6.36139E-01
 -1     10340 6.10537E-01
 -1     10341 6.10764E-01
 -1     10342 6.36523E-01
 -1     10347 6.10824E-01
 -1     10348 6.10884E-01
 -1     10349 6.36623E-01
 -1     10354 6.10884E-01
 -1     10355 6.10884E-01
 -1     10356 6.36623E-01
 -1     10361 6.10824E-01
 -1     10362 6.10764E-01
 -1     10363 6.36523E-01
 -1     10368 6.10537E-01
 -1     10369 6.10311E-01
 -1     10370 6.36139E-01
 -1     10375 6.09759E-01
 -1     10376 6.09206E-01
 -1     10377 6.35210E-01
 -1     10382 6.08051E-01
 -1     10383 6.06896E-01
 -1     10384 6.33052E-01
 -1     10389 6.03926E-01
 -1     10393 6.03926E-01
 -1     10394 6.06896E-01
 -1     10395 6.33052E-01
 -1     10400 6.08051E-01
 -1     10401 6.09206E-01
 -1     10402 6.35210E-01
 -1     10407 6.09759E-01
 -1     10408 6.10311E-01
 -1     10409 6.36139E-01
 -1     10414 6.10537E-01
 -1     10415 6.10764E-01
 -1     10416 6.36523E-01
 -1     10421 6.10824E-01
 -1     10422 6.10884E-01
 -1     10423 6.36623E-01
 -1     10428 6.10884E-01
 -1     10429 6.10884E-01
 -1     10430 6.36623E-01
 -1     10435 6.10824E-01
 -1     10436 6.10764E-01
 -1     10437 6.36523E-01
 -1     10442 6.10537E-01
 -1     10443 6.10311E-01
 -1     10444 6.36139E-01
 -1     10449 6.09759E-01
 -1     10450 6.09206E-01
 -1     10451 6.35210E-01
 -1     10456 6.08051E-01
 -1     10457 6.06896E-01
 -1     10458 6.33052E-01
 -1     10463 6.03926E-01
 -1     10467 6.03926E-01
 -1     10468 6.06896E-01
 -1     10469 6.33052E-01
 -1     10474 6.08051E-01
 -1     10475 6.09206E-01
 -1     10476 6.35210E-01
 -1     10481 6.09759E-01
 -1     10482 6.10311E-01
 -1     10483 6.36139E-01
 -1     10488 6.10537E-01
 -1     10489 6.10764E-01
 -1     10490 6.36523E-01
 -1     10495 6.10824E-01
 -1     10496 6.10884E-01
 -1     10497 6.36623E-01
 -1     10502 6.10884E-01
 -1     10503 6.10884E-01
 -1     10504 6.36623E-01
 -1     10509 6.10824E-01
 -1     10510 6.10764E-01
 -1     10511 6.36523E-01
 -1     10516 6.10537E-01
 -1     10517 6.10311E-01
 -1     10518 6.36139E-01
 -1     10523 6.09759E-01
 -1     10524 6.09206E-01
 -1     10525 6.35210E-01
 -1     10530 6.08051E-01
 -1     10531 6.06896E-01
 -1     10532 6.33052E-01
 -1     10537 6.03926E-01
 -1     10541 6.03926E-01
 -1     10542 6.06896E-01
 -1     10543 6.33052E-01
 -1     10548 6.08051E-01
 -1     10549 6.09206E-01
 -1     10550 6.35210E-01
 -1     10555 6.09759E-01
 -1     10556 6.10311E-01
 -1     10557 6.36139E-01
 -1     10562 6.10537E-01
 -1     10563 6.10764E-01
 -1     10564 6.36523E-01
 -1     10569 6.10824E-01
 -1     10570 6.10884E-01
 -1     10571 6.36623E-01
 -1     10576 6.10884E-01
 -1     10577 6.10884E-01
 -1     10578 6.36623E-01
 -1     10583 6.10824E-01
 -1     10584 6.10764E-01
 -1     10585 6.36523E-01
 -1     10590 6.10537E-01
 -1     10591 6.10311E-01
 -1     10592 6.36139E-01
 -1     10597 6.09759E-01
 -1     10598 6.09206E-01
 -1     10599 6.35210E-01
 -1     10604 6.08051E-01
 -1     10605 6.06896E-01
 -1     10606 6.33052E-01
 -1     10611 6.03926E-01
 -1     10615 6.06896E-01
 -1     10619 6.09206E-01
 -1     10623 6.10311E-01
 -1     10627 6.10764E-01
 -1     10631 6.10884E-01
 -1     10635 6.10884E-01
 -1     10639 6.10764E-01
 -1     10643 6.10311E-01
 -1     10647 6.09206E-01
 -1     10651 6.06896E-01
 -1     10657 5.57899E-01
 -1     10658 5.60691E-01
 -1     10659 5.83793E-01
 -1     10664 5.61905E-01
 -1     10665 5.63119E-01
 -1     10666 5.86163E-01
 -1     10671 5.63732E-01
 -1     10672 5.64346E-01
 -1     10673 5.87328E-01
 -1     10678 5.64607E-01
 -1     10679 5.64868E-01
 -1     10680 5.87816E-01
 -1     10685 5.64941E-01
 -1     10686 5.65015E-01
 -1     10687 5.87949E-01
 -1     10692 5.65015E-01
 -1     10693 5.65015E-01
 -1     10694 5.87949E-01
 -1     10699 5.64941E-01
 -1     10700 5.64868E-01
 -1     10701 5.87816E-01
 -1     10706 5.64607E-01
 -1     10707 5.64346E-01
 -1     10708 5.87328E-01
 -1     10713 5.63732E-01
 -1     10714 5.63119E-01
 -1     10715 5.86163E-01
 -1     10720 5.61905E-01
 -1     10721 5.60691E-01
 -1     10722 5.83793E-01
 -1     10727 5.57899E-01
 -1     10731 5.57899E-01
 -1     10732 5.60691E-01
 -1     10733 5.83793E-01
 -1     10738 5.61905E-01
 -1     10739 5.63119E-01
 -1     10740 5.86163E-01
 -1     10745 5.63732E-01
 -1     10746 5.64346E-01
 -1     10747 5.87328E-01
 -1     10752 5.64607E-01
 -1     10753 5.64868E-01
 -1     10754 5.87816E-01
 -1     10759 5.64941E-01
 -1     10760 5.65015E-01
 -1     10761 5.87949E-01
 -1     10766 5.65015E-01
 -1     10767 5.65015E-01
 -1     10768 5.87949E-01
 -1     10773 5.64941E-01
 -1     10774 5.64868E-01
 -1     10775 5.87816E-01
 -1     10780 5.64607E-01
 -1     10781 5.64346E-01
 -1     10782 5.87328E-01
 -1     10787 5.63732E-01
 -1     10788 5.63119E-01
 -1     10789 5.86163E-01
 -1     10794 5.61905E-01
 -1     10795 5.60691E-01
 -1     10796 5.83793E-01
 -1     10801 5.57899E-01
 -1     10805 5.57899E-01
 -1     10806 5.60691E-01
 -1     10807 5.83793E-01
 -1     10812 5.61905E-01
 -1     10813 5.63119E-01
 -1     10814 5.86163E-01
 -1     10819 5.63732E-01
 -1     10820 5.64346E-01
 -1     10821 5.87328E-01
 -1     10826 5.64607E-01
 -1     10827 5.64868E-01
 -1     10828 5.87816E-01
 -1     10833 5.64941E-01
 -1     10834 5.65015E-01
 -1     10835 5.87949E-01
 -1     10840 5.65015E-01
 -1     10841 5.65015E-01
 -1     10842 5.87949E-01
 -1     10847 5.64941E-01
 -1     10848 5.64868E-01
 -1     10849 5.87816E-01
 -1     10854 5.64607E-01
 -1     10855 5.64346E-01
 -1     10856 5.87328E-01
 -1     10861 5.63732E-01
 -1     10862 5.63119E-01
 -1     10863 5.86163E-01
 -1     10868 5.61905E-01
 -1     10869 5.60691E-01
 -1     10870 5.83793E-01
 -1     10875 5.57899E-01
 -1     10879 5.57899E-01
 -1     10880 5.60691E-01
 -1     10881 5.83793E-01
 -1     10886 5.61905E-01
 -1     10887 5.63119E-01
 -1     10888 5.86163E-01
 -1     10893 5.63732E-01
 -1     10894 5.64346E-01
 -1     10895 5.87328E-01
 -1     10900 5.64607E-01
 -1     10901 5.64868E-01
 -1     10902 5.87816E-01
 -1     10907 5.64941E-01
 -1     10908 5.65015E-01
 -1     10909 5.87949E-01
 -1     10914 5.65015E-01
 -1     10915 5.65015E-01
 -1     10916 5.87949E-01
 -1     10921 5.64941E-01
 -1     10922 5.64868E-01
 -1     10923 5.87816E-01
 -1     10928 5.64607E-01
 -1     10929 5.64346E-01
 -1     10930 5.87328E-01
 -1     10935 5.63732E-01
 -1     10936 5.63119E-01
 -1     10937 5.86163E-01
 -1     10942 5.61905E-01
 -1     10943 5.60691E-01
 -1     10944 5.83793E-01
 -1     10949 5.57899E-01
 -1     10953 5.57899E-01
 -1     10954 5.60691E-01
 -1     10955 5.83793E-01
 -1     10960 5.61905E-01
 -1     10961 5.63119E-01
 -1     10962 5.86163E-01
 -1     10967 5.63732E-01
 -1     10968 5.64346E-01
 -1     10969 5.87328E-01
 -1     10974 5.64607E-01
 -1     10975 5.64868E-01
 -1     10976 5.87816E-01
 -1     10981 5.64941E-01
 -1     10982 5.65015E-01
 -1     10983 5.87949E-01
 -1     10988 5.65015E-01
 -1     10989 5.65015E-01
 -1     10990 5.87949E-01
 -1     10995 5.64941E-01
 -1     10996 5.64868E-01
 -1     10997 5.87816E-01
 -1     11002 5.64607E-01
 -1     11003 5.64346E-01
 -1     11004 5.87328E-01
 -1     11009 5.63732E-01
 -1     11010 5.63119E-01
 -1     11011 5.86163E-01
 -1     11016 5.61905E-01
 -1     11017 5.60691E-01
 -1     11018 5.83793E-01
 -1     11023 5.57899E-01
 -1     11027 5.57899E-01
 -1     11028 5.60691E-01
 -1     11029 5.83793E-01
 -1     11034 5.61905E-01
 -1     11035 5.63119E-01
 -1     11036 5.86163E-01
 -1     11041 5.63732E-01
 -1     11042 5.64346E-01
 -1     11043 5.87328E-01
 -1     11048 5.64607E-01
 -1     11049 5.64868E-01
 -1     11050 5.87816E-01
 -1     11055 5.64941E-01
 -1     11056 5.65015E-01
 -1     11057 5.87949E-01
 -1     11062 5.65015E-01
 -1     11063 5.65015E-01
 -1     11064 5.87949E-01
 -1     11069 5.64941E-01
 -1     11070 5.64868E-01
 -1     11071 5.87816E-01
 -1     11076 5.64607E-01
 -1     11077 5.64346E-01
 -1     11078 5.87328E-01
 -1     11083 5.63732E-01
 -1     11084 5.63119E-01
 -1     11085 5.86163E-01
 -1     11090 5.61905E-01
 -1     11091 5.60691E-01
 -1     11092 5.83793E-01
 -1     11097 5.57899E-01
 -1     11101 5.57899E-01
 -1     11102 5.60691E-01
 -1     11103 5.83793E-01
 -1     11108 5.61905E-01
 -1     11109 5.63119E-01
 -1     11110 5.86163E-01
 -1     11115 5.63732E-01
 -1     11116 5.64346E-01
 -1     11117 5.87328E-01
 -1     11122 5.64607E-01
 -1     11123 5.64868E-01
 -1     11124 5.87816E-01
 -1     11129 5.64941E-01
 -1     11130 5.65015E-01
 -1     11131 5.87949E-01
 -1     11136 5.65015E-01
 -1     11137 5.65015E-01
 -1     11138 5.87949E-01
 -1     11143 5.64941E-01
 -1     11144 5.64868E-01
 -1     11145 5.87816E-01
 -1     11150 5.64607E-01
 -1     11151 5.64346E-01
 -1     11152 5.87328E-01
 -1     11157 5.63732E-01
 -1     11158 5.63119E-01
 -1     11159 5.86163E-01
 -1     11164 5.61905E-01
 -1     11165 5.60691E-01
 -1     11166 5.83793E-01
 -1     11171 5.57899E-01
 -1     11175 5.57899E-01
 -1     11176 5.60691E-01
 -1     11177 5.83793E-01
 -1     11182 5.61905E-01
 -1     11183 5.63119E-01
 -1     11184 5.86163E-01
 -1     11189 5.63732E-01
 -1     11190 5.64346E-01
 -1     11191 5.87328E-01
 -1     11196 5.64607E-01
 -1     11197 5.64868E-01
 -1     11198 5.87816E-01
 -1     11203 5.64941E-01
 -1     11204 5.65015E-01
 -1     11205 5.87949E-01
 -1     11210 5.65015E-01
 -1     11211 5.65015E-01
 -1     11212 5.87949E-01
 -1     11217 5.64941E-01
 -1     11218 5.64868E-01
 -1     11219 5.87816E-01
 -1     11224 5.64607E-01
 -1     11225 5.64346E-01
 -1     11226 5.87328E-01
 -1     11231 5.63732E-01
 -1     11232 5.63119E-01
 -1     11233 5.86163E-01
 -1     11238 5.61905E-01
 -1     11239 5.60691E-01
 -1     11240 5.83793E-01
 -1     11245 5.57899E-01
 -1     11249 5.57899E-01
 -1     11250 5.60691E-01
 -1     11251 5.83793E-01
 -1     11256 5.61905E-01
 -1     11257 5.63119E-01
 -1     11258 5.86163E-01
 -1     11263 5.63732E-01
 -1     11264 5.64346E-01
 -1     11265 5.87328E-01
 -1     11270 5.64607E-01
 -1     11271 5.64868E-01
 -1     11272 5.87816E-01
 -1     11277 5.64941E-01
 -1     11278 5.65015E-01
 -1     11279 5.87949E-01
 -1     11284 5.65015E-01
 -1     11285 5.65015E-01
 -1     11286 5.87949E-01
 -1     11291 5.64941E-01
 -1     11292 5.64868E-01
 -1     11293 5.87816E-01
 -1     11298 5.64607E-01
 -1     11299 5.64346E-01
 -1     11300 5.87328E-01
 -1     11305 5.63732E-01
 -1     11306 5.63119E-01
 -1     11307 5.86163E-01
 -1     11312 5.61905E-01
 -1     11313 5.60691E-01
 -1     11314 5.83793E-01
 -1     11319 5.57899E-01
 -1     11323 5.60691E-01
 -1     11327 5.63119E-01
 -1     11331 5.64346E-01
 -1     11335 5.64868E-01
 -1     11339 5.65015E-01
 -1     11343 5.65015E-01
 -1     11347 5.64868E-01
 -1     11351 5.64346E-01
 -1     11355 5.63119E-01
 -1     11359 5.60691E-01
 -1     11365 5.17371E-01
 -1     11366 5.20059E-01
 -1     11367 5.40375E-01
 -1     11372 5.21297E-01
 -1     11373 5.22535E-01
 -1     11374 5.42827E-01
 -1     11379 5.23183E-01
 -1     11380 5.23831E-01
 -1     11381 5.44089E-01
 -1     11386 5.24121E-01
 -1     11387 5.24411E-01
 -1     11388 5.44640E-01
 -1     11393 5.24495E-01
 -1     11394 5.24578E-01
 -1     11395 5.44796E-01
 -1     11400 5.24578E-01
 -1     11401 5.24578E-01
 -1     11402 5.44796E-01
 -1     11407 5.24495E-01
 -1     11408 5.24411E-01
 -1     11409 5.44640E-01
 -1     11414 5.24121E-01
 -1     11415 5.23831E-01
 -1     11416 5.44089E-01
 -1     11421 5.23183E-01
 -1     11422 5.22535E-01
 -1     11423 5.42827E-01
 -1     11428 5.21297E-01
 -1     11429 5.20059E-01
 -1     11430 5.40375E-01
 -1     11435 5.17371E-01
 -1     11439 5.17371E-01
 -1     11440 5.20059E-01
 -1     11441 5.40375E-01
 -1     11446 5.21297E-01
 -1     11447 5.22535E-01
 -1     11448 5.42827E-01
 -1     11453 5.23183E-01
 -1     11454 5.23831E-01
 -1     11455 5.44089E-01
 -1     11460 5.24121E-01
 -1     11461 5.24411E-01
 -1     11462 5.44640E-01
 -1     11467 5.24495E-01
 -1     11468 5.24578E-01
 -1     11469 5.44796E-01
 -1     11474 5.24578E-01
 -1     11475 5.24578E-01
 -1     11476 5.44796E-01
 -1     11481 5.24495E-01
 -1     11482 5.24411E-01
 -1     11483 5.44640E-01
 -1     11488 5.24121E-01
 -1     11489 5.23831E-01
 -1     11490 5.44089E-01
 -1     11495 5.23183E-01
 -1     11496 5.22535E-01
 -1     11497 5.42827E-01
 -1     11502 5.21297E-01
 -1     11503 5.20059E-01
 -1     11504 5.40375E-01
 -1     11509 5.17371E-01
 -1     11513 5.17371E-01
 -1     11514 5.20059E-01
 -1     11515 5.40375E-01
 -1     11520 5.21297E-01
 -1     11521 5.22535E-01
 -1     11522 5.42827E-01
 -1     11527 5.23183E-01
 -1     11528 5.23831E-01
 -1     11529 5.44089E-01
 -1     11534 5.24121E-01
 -1     11535 5.24411E-01
 -1     11536 5.44640E-01
 -1     11541 5.24495E-01
 -1     11542 5.24578E-01
 -1     11543 5.44796E-01
 -1     11548 5.24578E-01
 -1     11549 5.24578E-01
 -1     11550 5.44796E-01
 -1     11555 5.24495E-01
 -1     11556 5.24411E-01
 -1     11557 5.44640E-01
 -1     11562 5.24121E-01
 -1     11563 5.23831E-01
 -1     11564 5.44089E-01
 -1     11569 5.23183E-01
 -1     11570 5.22535E-01
 -1     11571 5.42827E-01
 -1     11576 5.21297E-01
 -1     11577 5.20059E-01
 -1     11578 5.40375E-01
 -1     11583 5.17371E-01
 -1     11587 5.17371E-01
 -1     11588 5.20059E-01
 -1     11589 5.40375E-01
 -1     11594 5.21297E-01
 -1     11595 5.22535E-01
 -1     11596 5.42827E-01
 -1     11601 5.23183E-01
 -1     11602 5.23831E-01
 -1     11603 5.44089E-01
 -1     11608 5.24121E-01
 -1     11609 5.24411E-01
 -1     11610 5.44640E-01
 -1     11615 5.24495E-01
 -1     11616 5.24578E-01
 -1     11617 5.44796E-01
 -1     11622 5.24578E-01
 -1     11623 5.24578E-01
 -1     11624 5.44796E-01
 -1     11629 5.24495E-01
 -1     11630 5.24411E-01
 -1     11631 5.44640E-01
 -1     11636 5.24121E-01
 -1     11637 5.23831E-01
 -1     11638 5.44089E-01
 -1     11643 5.23183E-01
 -1     11644 5.22535E-01
 -1     11645 5.42827E-01
 -1     11650 5.21297E-01
 -1     11651 5.20059E-01
 -1     11652 5.40375E-01
 -1     11657 5.17371E-01
 -1     11661 5.17371E-01
 -1     11662 5.20059E-01
 -1     11663 5.40375E-01
 -1     11668 5.21297E-01
 -1     11669 5.22535E-01
 -1     11670 5.42827E-01
 -1     11675 5.23183E-01
 -1     11676 5.23831E-01
 -1     11677 5.44089E-01
 -1     11682 5.24121E-01
 -1     11683 5.24411E-01
 -1     11684 5.44640E-01
 -1     11689 5.24495E-01
 -1     11690 5.24578E-01
 -1     11691 5.44796E-01
 -1     11696 5.24578E-01
 -1     11697 5.24578E-01
 -1     11698 5.44796E-01
 -1     11703 5.24495E-01
 -1     11704 5.24411E-01
 -1     11705 5.44640E-01
 -1     11710 5.24121E-01
 -1     11711 5.23831E-01
 -1     11712 5.44089E-01
 -1     11717 5.23183E-01
 -1     11718 5.22535E-01
 -1     11719 5.42827E-01
 -1     11724 5.21297E-01
 -1     11725 5.20059E-01
 -1     11726 5.40375E-01
 -1     11731 5.17371E-01
 -1     11735 5.17371E-01
 -1     11736 5.20059E-01
 -1     11737 5.40375E-01
 -1     11742 5.21297E-01
 -1     11743 5.22535E-01
 -1     11744 5.42827E-01
 -1     11749 5.23183E-01
 -1     11750 5.23831E-01
 -1     11751 5.44089E-01
 -1     11756 5.24121E-01
 -1     11757 5.24411E-01
 -1     11758 5.44640E-01
 -1     11763 5.24495E-01
 -1     11764 5.24578E-01
 -1     11765 5.44796E-01
 -1     11770 5.24578E-01
 -1     11771 5.24578E-01
 -1     11772 5.44796E-01
 -1     11777 5.24495E-01
 -1     11778 5.24411E-01
 -1     11779 5.44640E-01
 -1     11784 5.24121E-01
 -1     11785 5.23831E-01
 -1     11786 5.44089E-01
 -1     11791 5.23183E-01
 -1     11792 5.22535E-01
 -1     11793 5.42827E-01
 -1     11798 5.21297E-01
 -1     11799 5.20059E-01
 -1     11800 5.40375E-01
 -1     11805 5.17371E-01
 -1     11809 5.17371E-01
 -1     11810 5.20059E-01
 -1     11811 5.40375E-01
 -1     11816 5.21297E-01
 -1     11817 5.22535E-01
 -1     11818 5.42827E-01
 -1     11823 5.23183E-01
 -1     11824 5.23831E-01
 -1     11825 5.44089E-01
 -1     11830 5.24121E-01
 -1     11831 5.24411E-01
 -1     11832 5.44640E-01
 -1     11837 5.24495E-01
 -1     11838 5.24578E-01
 -1     11839 5.44796E-01
 -1     11844 5.24578E-01
 -1     11845 5.24578E-01
 -1     11846 5.44796E-01
 -1     11851 5.24495E-01
 -1     11852 5.24411E-01
 -1     11853 5.44640E-01
 -1     11858 5.24121E-01
 -1     11859 5.23831E-01
 -1     11860 5.44089E-01
 -1     11865 5.23183E-01
 -1     11866 5.22535E-01
 -1     11867 5.42827E-01
 -1     11872 5.21297E-01
 -1     11873 5.20059E-01
 -1     11874 5.40375E-01
 -1     11879 5.17371E-01
 -1     11883 5.17371E-01
 -1     11884 5.20059E-01
 -1     11885 5.40375E-01
 -1     11890 5.21297E-01
 -1     11891 5.22535E-01
 -1     11892 5.42827E-01
 -1     11897 5.23183E-01
 -1     11898 5.23831E-01
 -1     11899 5.44089E-01
 -1     11904 5.24121E-01
 -1     11905 5.24411E-01
 -1     11906 5.44640E-01
 -1     11911 5.24495E-01
 -1     11912 5.24578E-01
 -1     11913 5.44796E-01
 -1     11918 5.24578E-01
 -1     11919 5.24578E-01
 -1     11920 5.44796E-01
 -1     11925 5.24495E-01
 -1     11926 5.24411E-01
 -1     11927 5.44640E-01
 -1     11932 5.24121E-01
 -1     11933 5.23831E-01
 -1     11934 5.44089E-01
 -1     11939 5.23183E-01
 -1     11940 5.22535E-01
 -1     11941 5.42827E-01
 -1     11946 5.21297E-01
 -1     11947 5.20059E-01
 -1     11948 5.40375E-01
 -1     11953 5.17371E-01
 -1     11957 5.17371E-01
 -1     11958 5.20059E-01
 -1     11959 5.40375E-01
 -1     11964 5.21297E-01
 -1     11965 5.22535E-01
 -1     11966 5.42827E-01
 -1     11971 5.23183E-01
 -1     11972 5.23831E-01
 -1     11973 5.44089E-01
 -1     11978 5.24121E-01
 -1     11979 5.24411E-01
 -1     11980 5.44640E-01
 -1     11985 5.24495E-01
 -1     11986 5.24578E-01
 -1     11987 5.44796E-01
 -1     11992 5.24578E-01
 -1     11993 5.24578E-01
 -1     11994 5.44796E-01
 -1     11999 5.24495E-01
 -1     12000 5.24411E-01
 -1     12001 5.44640E-01
 -1     12006 5.24121E-01
 -1     12007 5.23831E-01
 -1     12008 5.44089E-01
 -1     12013 5.23183E-01
 -1     12014 5.22535E-01
 -1     12015 5.42827E-01
 -1     12020 5.21297E-01
 -1     12021 5.20059E-01
 -1     12022 5.40375E-01
 -1     12027 5.17371E-01
 -1     12031 5.20059E-01
 -1     12035 5.22535E-01
 -1     12039 5.23831E-01
 -1     12043 5.24411E-01
 -1     12047 5.24578E-01
 -1     12051 5.24578E-01
 -1     12055 5.24411E-01
 -1     12059 5.23831E-01
 -1     12063 5.22535E-01
 -1     12067 5.20059E-01
 -1     12073 4.81382E-01
 -1     12074 4.83943E-01
 -1     12075 5.02001E-01
 -1     12080 4.85203E-01
 -1     12081 4.86463E-01
 -1     12082 5.04499E-01
 -1     12087 4.87139E-01
 -1     12088 4.87816E-01
 -1     12089 5.05823E-01
 -1     12094 4.88128E-01
 -1     12095 4.88441E-01
 -1     12096 5.06426E-01
 -1     12101 4.88533E-01
 -1     12102 4.88624E-01
 -1     12103 5.06601E-01
 -1     12108 4.88624E-01
 -1     12109 4.88624E-01
 -1     12110 5.06601E-01
 -1     12115 4.88533E-01
 -1     12116 4.88441E-01
 -1     12117 5.06426E-01
 -1     12122 4.88128E-01
 -1     12123 4.87816E-01
 -1     12124 5.05823E-01
 -1     12129 4.87139E-01
 -1     12130 4.86463E-01
 -1     12131 5.04499E-01
 -1     12136 4.85203E-01
 -1     12137 4.83943E-01
 -1     12138 5.02001E-01
 -1     12143 4.81382E-01
 -1     12147 4.81382E-01
 -1     12148 4.83943E-01
 -1     12149 5.02001E-01
 -1     12154 4.85203E-01
 -1     12155 4.86463E-01
 -1     12156 5.04499E-01
 -1     12161 4.87139E-01
 -1     12162 4.87816E-01
 -1     12163 5.05823E-01
 -1     12168 4.88128E-01
 -1     12169 4.88441E-01
 -1     12170 5.06426E-01
 -1     12175 4.88533E-01
 -1     12176 4.88624E-01
 -1     12177 5.06601E-01
 -1     12182 4.88624E-01
 -1     12183 4.88624E-01
 -1     12184 5.06601E-01
 -1     12189 4.88533E-01
 -1     12190 4.88441E-01
 -1     12191 5.06426E-01
 -1     12196 4.88128E-01
 -1     12197 4.87816E-01
 -1     12198 5.05823E-01
 -1     12203 4.87139E-01
 -1     12204 4.86463E-01
 -1     12205 5.04499E-01
 -1     12210 4.85203E-01
 -1     12211 4.83943E-01
 -1     12212 5.02001E-01
 -1     12217 4.81382E-01
 -1     12221 4.81382E-01
 -1     12222 4.83943E-01
 -1     12223 5.02001E-01
 -1     12228 4.85203E-01
 -1     12229 4.86463E-01
 -1     12230 5.04499E-01
 -1     12235 4.87139E-01
 -1     12236 4.87816E-01
 -1     12237 5.05823E-01
 -1     12242 4.88128E-01
 -1     12243 4.88441E-01
 -1     12244 5.06426E-01
 -1     12249 4.88533E-01
 -1     12250 4.88624E-01
 -1     12251 5.06601E-01
 -1     12256 4.88624E-01
 -1     12257 4.88624E-01
 -1     12258 5.06601E-01
 -1     12263 4.88533E-01
 -1     12264 4.88441E-01
 -1     12265 5.06426E-01
 -1     12270 4.88128E-01
 -1     12271 4.87816E-01
 -1     12272 5.05823E-01
 -1     12277 4.87139E-01
 -1     12278 4.86463E-01
 -1     12279 5.04499E-01
 -1     12284 4.85203E-01
 -1     12285 4.83943E-01
 -1     12286 5.02001E-01
 -1     12291 4.81382E-01
 -1     12295 4.81382E-01
 -1     12296 4.83943E-01
 -1     12297 5.02001E-01
 -1     12302 4.85203E-01
 -1     12303 4.86463E-01
 -1     12304 5.04499E-01
 -1     12309 4.87139E-01
 -1     12310 4.87816E-01
 -1     12311 5.05823E-01
 -1     12316 4.88128E-01
 -1     12317 4.88441E-01
 -1     12318 5.06426E-01
 -1     12323 4.88533E-01
 -1     12324 4.88624E-01
 -1     12325 5.06601E-01
 -1     12330 4.88624E-01
 -1     12331 4.88624E-01
 -1     12332 5.06601E-01
 -1     12337 4.88533E-01
 -1     12338 4.88441E-01
 -1     12339 5.06426E-01
 -1     12344 4.88128E-01
 -1     12345 4.87816E-01
 -1     12346 5.05823E-01
 -1     12351 4.87139E-01
 -1     12352 4.86463E-01
 -1     12353 5.04499E-01
 -1     12358 4.85203E-01
 -1     12359 4.83943E-01
 -1     12360 5.02001E-01
 -1     12365 4.81382E-01
 -1     12369 4.81382E-01
 -1     12370 4.83943E-01
 -1     12371 5.02001E-01
 -1     12376 4.85203E-01
 -1     12377 4.86463E-01
 -1     12378 5.04499E-01
 -1     12383 4.87139E-01
 -1     12384 4.87816E-01
 -1     12385 5.05823E-01
 -1     12390 4.88128E-01
 -1     12391 4.88441E-01
 -1     12392 5.06426E-01
 -1     12397 4.88533E-01
 -1     12398 4.88624E-01
 -1     12399 5.06601E-01
 -1     12404 4.88624E-01
 -1     12405 4.88624E-01
 -1     12406 5.06601E-01
 -1     12411 4.88533E-01
 -1     12412 4.88441E-01
 -1     12413 5.06426E-01
 -1     12418 4.88128E-01
 -1     12419 4.87816E-01
 -1     12420 5.05823E-01
 -1     12425 4.87139E-01
 -1     12426 4.86463E-01
 -1     12427 5.04499E-01
 -1     12432 4.85203E-01
 -1     12433 4.83943E-01
 -1     12434 5.02001E-01
 -1     12439 4.81382E-01
 -1     12443 4.81382E-01
 -1     12444 4.83943E-01
 -1     12445 5.02001E-01
 -1     12450 4.85203E-01
 -1     12451 4.86463E-01
 -1     12452 5.04499E-01
 -1     12457 4.87139E-01
 -1     12458 4.87816E-01
 -1     12459 5.05823E-01
 -1     12464 4.88128E-01
 -1     12465 4.88441E-01
 -1     12466 5.06426E-01
 -1     12471 4.88533E-01
 -1     12472 4.88624E-01
 -1     12473 5.06601E-01
 -1     12478 4.88624E-01
 -1     12479 4.88624E-01
 -1     12480 5.06601E-01
 -1     12485 4.88533E-01
 -1     12486 4.88441E-01
 -1     12487 5.06426E-01
 -1     12492 4.88128E-01
 -1     12493 4.87816E-01
 -1     12494 5.05823E-01
 -1     12499 4.87139E-01
 -1     12500 4.86463E-01
 -1     12501 5.04499E-01
 -1     12506 4.85203E-01
 -1     12507 4.83943E-01
 -1     12508 5.02001E-01
 -1     12513 4.81382E-01
 -1     12517 4.81382E-01
 -1     12518 4.83943E-01
 -1     12519 5.02001E-01
 -1     12524 4.85203E-01
 -1     12525 4.86463E-01
 -1     12526 5.04499E-01
 -1     12531 4.87139E-01
 -1     12532 4.87816E-01
 -1     12533 5.05823E-01
 -1     12538 4.88128E-01
 -1     12539 4.88441E-01
 -1     12540 5.06426E-01
 -1     12545 4.88533E-01
 -1     12546 4.88624E-01
 -1     12547 5.06601E-01
 -1     12552 4.88624E-01
 -1     12553 4.88624E-01
 -1     12554 5.06601E-01
 -1     12559 4.88533E-01
 -1     12560 4.88441E-01
 -1     12561 5.06426E-01
 -1     12566 4.88128E-01
 -1     12567 4.87816E-01
 -1     12568 5.05823E-01
 -1     12573 4.87139E-01
 -1     12574 4.86463E-01
 -1     12575 5.04499E-01
 -1     12580 4.85203E-01
 -1     12581 4.83943E-01
 -1     12582 5.02001E-01
 -1     12587 4.81382E-01
 -1     12591 4.81382E-01
 -1     12592 4.83943E-01
 -1     12593 5.02001E-01
 -1     12598 4.85203E-01
 -1     12599 4.86463E-01
 -1     12600 5.04499E-01
 -1     12605 4.87139E-01
 -1     12606 4.87816E-01
 -1     12607 5.05823E-01
 -1     12612 4.88128E-01
 -1     12613 4.88441E-01
 -1     12614 5.06426E-01
 -1     12619 4.88533E-01
 -1     12620 4.88624E-01
 -1     12621 5.06601E-01
 -1     12626 4.88624E-01
 -1     12627 4.88624E-01
 -1     12628 5.06601E-01
 -1     12633 4.88533E-01
 -1     12634 4.88441E-01
 -1     12635 5.06426E-01
 -1     12640 4.88128E-01
 -1     12641 4.87816E-01
 -1     12642 5.05823E-01
 -1     12647 4.87139E-01
 -1     12648 4.86463E-01
 -1     12649 5.04499E-01
 -1     12654 4.85203E-01
 -1     12655 4.83943E-01
 -1     12656 5.02001E-01
 -1     12661 4.81382E-01
 -1     12665 4.81382E-01
 -1     12666 4.83943E-01
 -1     12667 5.02001E-01
 -1     12672 4.85203E-01
 -1     12673 4.86463E-01
 -1     12674 5.04499E-01
 -1     12679 4.87139E-01
 -1     12680 4.87816E-01
 -1     12681 5.05823E-01
 -1     12686 4.88128E-01
 -1     12687 4.88441E-01
 -1     12688 5.06426E-01
 -1     12693 4.88533E-01
 -1     12694 4.88624E-01
 -1     12695 5.06601E-01
 -1     12700 4.88624E-01
 -1     12701 4.88624E-01
 -1     12702 5.06601E-01
 -1     12707 4.88533E-01
 -1     12708 4.88441E-01
 -1     12709 5.06426E-01
 -1     12714 4.88128E-01
 -1     12715 4.87816E-01
 -1     12716 5.05823E-01
 -1     12721 4.87139E-01
 -1     12722 4.86463E-01
 -1     12723 5.04499E-01
 -1     12728 4.85203E-01
 -1     12729 4.83943E-01
 -1     12730 5.02001E-01
 -1     12735 4.81382E-01
 -1     12739 4.83943E-01
 -1     12743 4.86463E-01
 -1     12747 4.87816E-01
 -1     12751 4.88441E-01
 -1     12755 4.88624E-01
 -1     12759 4.88624E-01
 -1     12763 4.88441E-01
 -1     12767 4.87816E-01
 -1     12771 4.86463E-01
 -1     12775 4.83943E-01
 -1     12781 4.49186E-01
 -1     12782 4.51631E-01
 -1     12783 4.67787E-01
 -1     12788 4.52893E-01
 -1     12789 4.54155E-01
 -1     12790 4.70309E-01
 -1     12795 4.54851E-01
 -1     12796 4.55547E-01
 -1     12797 4.71681E-01
 -1     12802 4.55878E-01
 -1     12803 4.56210E-01
 -1     12804 4.72326E-01
 -1     12809 4.56309E-01
 -1     12810 4.56407E-01
 -1     12811 4.72516E-01
 -1     12816 4.56407E-01
 -1     12817 4.56407E-01
 -1     12818 4.72516E-01
 -1     12823 4.56309E-01
 -1     12824 4.56210E-01
 -1     12825 4.72326E-01
 -1     12830 4.55878E-01
 -1     12831 4.55547E-01
 -1     12832 4.71681E-01
 -1     12837 4.54851E-01
 -1     12838 4.54155E-01
 -1     12839 4.70309E-01
 -1     12844 4.52893E-01
 -1     12845 4.51631E-01
 -1     12846 4.67787E-01
 -1     12851 4.49186E-01
 -1     12855 4.49186E-01
 -1     12856 4.51631E-01
 -1     12857 4.67787E-01
 -1     12862 4.52893E-01
 -1     12863 4.54155E-01
 -1     12864 4.70309E-01
 -1     12869 4.54851E-01
 -1     12870 4.55547E-01
 -1     12871 4.71681E-01
 -1     12876 4.55878E-01
 -1     12877 4.56210E-01
 -1     12878 4.72326E-01
 -1     12883 4.56309E-01
 -1     12884 4.56407E-01
 -1     12885 4.72516E-01
 -1     12890 4.56407E-01
 -1     12891 4.56407E-01
 -1     12892 4.72516E-01
 -1     12897 4.56309E-01
 -1     12898 4.56210E-01
 -1     12899 4.72326E-01
 -1     12904 4.55878E-01
 -1     12905 4.55547E-01
 -1     12906 4.71681E-01
 -1     12911 4.54851E-01
 -1     12912 4.54155E-01
 -1     12913 4.70309E-01
 -1     12918 4.52893E-01
 -1     12919 4.51631E-01
 -1     12920 4.67787E-01
 -1     12925 4.49186E-01
 -1     12929 4.49186E-01
 -1     12930 4.51631E-01
 -1     12931 4.67787E-01
 -1     12936 4.52893E-01
 -1     12937 4.54155E-01
 -1     12938 4.70309E-01
 -1     12943 4.54851E-01
 -1     12944 4.55547E-01
 -1     12945 4.71681E-01
 -1     12950 4.55878E-01
 -1     12951 4.56210E-01
 -1     12952 4.72326E-01
 -1     12957 4.56309E-01
 -1     12958 4.56407E-01
 -1     12959 4.72516E-01
 -1     12964 4.56407E-01
 -1     12965 4.56407E-01
 -1     12966 4.72516E-01
 -1     12971 4.56309E-01
 -1     12972 4.56210E-01
 -1     12973 4.72326E-01
 -1     12978 4.55878E-01
 -1     12979 4.55547E-01
 -1     12980 4.71681E-01
 -1     12985 4.54851E-01
 -1     12986 4.54155E-01
 -1     12987 4.70309E-01
 -1     12992 4.52893E-01
 -1     12993 4.51631E-01
 -1     12994 4.67787E-01
 -1     12999 4.49186E-01
 -1     13003 4.49186E-01
 -1     13004 4.51631E-01
 -1     13005 4.67787E-01
 -1     13010 4.52893E-01
 -1     13011 4.54155E-01
 -1     13012 4.70309E-01
 -1     13017 4.54851E-01
 -1     13018 4.55547E-01
 -1     13019 4.71681E-01
 -1     13024 4.55878E-01
 -1     13025 4.56210E-01
 -1     13026 4.72326E-01
 -1     13031 4.56309E-01
 -1     13032 4.56407E-01
 -1     13033 4.72516E-01
 -1     13038 4.56407E-01
 -1     13039 4.56407E-01
 -1     13040 4.72516E-01
 -1     13045 4.56309E-01
 -1     13046 4.56210E-01
 -1     13047 4.72326E-01
 -1     13052 4.55878E-01
 -1     13053 4.55547E-01
 -1     13054 4.71681E-01
 -1     13059 4.54851E-01
 -1     13060 4.54155E-01
 -1     13061 4.70309E-01
 -1     13066 4.52893E-01
 -1     13067 4.51631E-01
 -1     13068 4.67787E-01
 -1     13073 4.49186E-01
 -1     13077 4.49186E-01
 -1     13078 4.51631E-01
 -1     13079 4.67787E-01
 -1     13084 4.52893E-01
 -1     13085 4.54155E-01
 -1     13086 4.70309E-01
 -1     13091 4.54851E-01
 -1     13092 4.55547E-01
 -1     13093 4.71681E-01
 -1     13098 4.55878E-01
 -1     13099 4.56210E-01
 -1     13100 4.72326E-01
 -1     13105 4.56309E-01
 -1     13106 4.56407E-01
 -1     13107 4.72516E-01
 -1     13112 4.56407E-01
 -1     13113 4.56407E-01
 -1     13114 4.72516E-01
 -1     13119 4.56309E-01
 -1     13120 4.56210E-01
 -1     13121 4.72326E-01
 -1     13126 4.55878E-01
 -1     13127 4.55547E-01
 -1     13128 4.71681E-01
 -1     13133 4.54851E-01
 -1     13134 4.54155E-01
 -1     13135 4.70309E-01
 -1     13140 4.52893E-01
 -1     13141 4.51631E-01
 -1     13142 4.67787E-01
 -1     13147 4.49186E-01
 -1     13151 4.49186E-01
 -1     13152 4.51631E-01
 -1     13153 4.67787E-01
 -1     13158 4.52893E-01
 -1     13159 4.54155E-01
 -1     13160 4.70309E-01
 -1     13165 4.54851E-01
 -1     13166 4.55547E-01
 -1     13167 4.71681E-01
 -1     13172 4.55878E-01
 -1     13173 4.56210E-01
 -1     13174 4.72326E-01
 -1     13179 4.56309E-01
 -1     13180 4.56407E-01
 -1     13181 4.72516E-01
 -1     13186 4.56407E-01
 -1     13187 4.56407E-01
 -1     13188 4.72516E-01
 -1     13193 4.56309E-01
 -1     13194 4.56210E-01
 -1     13195 4.72326E-01
 -1     13200 4.55878E-01
 -1     13201 4.55547E-01
 -1     13202 4.71681E-01
 -1     13207 4.54851E-01
 -1     13208 4.54155E-01
 -1     13209 4.70309E-01
 -1     13214 4.52893E-01
 -1     13215 4.51631E-01
 -1     13216 4.67787E-01
 -1     13221 4.49186E-01
 -1     13225 4.49186E-01
 -1     13226 4.51631E-01
 -1     13227 4.67787E-01
 -1     13232 4.52893E-01
 -1     13233 4.54155E-01
 -1     13234 4.70309E-01
 -1     13239 4.54851E-01
 -1     13240 4.55547E-01
 -1     13241 4.71681E-01
 -1     13246 4.55878E-01
 -1     13247 4.56210E-01
 -1     13248 4.72326E-01
 -1     13253 4.56309E-01
 -1     13254 4.56407E-01
 -1     13255 4.72516E-01
 -1     13260 4.56407E-01
 -1     13261 4.56407E-01
 -1     13262 4.72516E-01
 -1     13267 4.56309E-01
 -1     13268 4.56210E-01
 -1     13269 4.72326E-01
 -1     13274 4.55878E-01
 -1     13275 4.55547E-01
 -1     13276 4.71681E-01
 -1     13281 4.54851E-01
 -1     13282 4.54155E-01
 -1     13283 4.70309E-01
 -1     13288 4.52893E-01
 -1     13289 4.51631E-01
 -1     13290 4.67787E-01
 -1     13295 4.49186E-01
 -1     13299 4.49186E-01
 -1     13300 4.51631E-01
 -1     13301 4.67787E-01
 -1     13306 4.52893E-01
 -1     13307 4.54155E-01
 -1     13308 4.70309E-01
 -1     13313 4.54851E-01
 -1     13314 4.55547E-01
 -1     13315 4.71681E-01
 -1     13320 4.55878E-01
 -1     13321 4.56210E-01
 -1     13322 4.72326E-01
 -1     13327 4.56309E-01
 -1     13328 4.56407E-01
 -1     13329 4.72516E-01
 -1     13334 4.56407E-01
 -1     13335 4.56407E-01
 -1     13336 4.72516E-01
 -1     13341 4.56309E-01
 -1     13342 4.56210E-01
 -1     13343 4.72326E-01
 -1     13348 4.55878E-01
 -1     13349 4.55547E-01
 -1     13350 4.71681E-01
 -1     13355 4.54851E-01
 -1     13356 4.54155E-01
 -1     13357 4.70309E-01
 -1     13362 4.52893E-01
 -1     13363 4.51631E-01
 -1     13364 4.67787E-01
 -1     13369 4.49186E-01
 -1     13373 4.49186E-01
 -1     13374 4.51631E-01
 -1     13375 4.67787E-01
 -1     13380 4.52893E-01
 -1     13381 4.54155E-01
 -1     13382 4.70309E-01
 -1     13387 4.54851E-01
 -1     13388 4.55547E-01
 -1     13389 4.71681E-01
 -1     13394 4.55878E-01
 -1     13395 4.56210E-01
 -1     13396 4.72326E-01
 -1     13401 4.56309E-01
 -1     13402 4.56407E-01
 -1     13403 4.72516E-01
 -1     13408 4.56407E-01
 -1     13409 4.56407E-01
 -1     13410 4.72516E-01
 -1     13415 4.56309E-01
 -1     13416 4.56210E-01
 -1     13417 4.72326E-01
 -1     13422 4.55878E-01
 -1     13423 4.55547E-01
 -1     13424 4.71681E-01
 -1     13429 4.54851E-01
 -1     13430 4.54155E-01
 -1     13431 4.70309E-01
 -1     13436 4.52893E-01
 -1     13437 4.51631E-01
 -1     13438 4.67787E-01
 -1     13443 4.49186E-01
 -1     13447 4.51631E-01
 -1     13451 4.54155E-01
 -1     13455 4.55547E-01
 -1     13459 4.56210E-01
 -1     13463 4.56407E-01
 -1     13467 4.56407E-01
 -1     13471 4.56210E-01
 -1     13475 4.55547E-01
 -1     13479 4.54155E-01
 -1     13483 4.51631E-01
 -1     13489 4.20188E-01
 -1     13490 4.22519E-01
 -1     13491 4.37075E-01
 -1     13496 4.23774E-01
 -1     13497 4.25030E-01
 -1     13498 4.39592E-01
 -1     13503 4.25737E-01
 -1     13504 4.26445E-01
 -1     13505 4.40996E-01
 -1     13510 4.26791E-01
 -1     13511 4.27137E-01
 -1     13512 4.41674E-01
 -1     13517 4.27241E-01
 -1     13518 4.27345E-01
 -1     13519 4.41876E-01
 -1     13524 4.27345E-01
 -1     13525 4.27345E-01
 -1     13526 4.41876E-01
 -1     13531 4.27241E-01
 -1     13532 4.27137E-01
 -1     13533 4.41674E-01
 -1     13538 4.26791E-01
 -1     13539 4.26445E-01
 -1     13540 4.40996E-01
 -1     13545 4.25737E-01
 -1     13546 4.25030E-01
 -1     13547 4.39592E-01
 -1     13552 4.23774E-01
 -1     13553 4.22519E-01
 -1     13554 4.37075E-01
 -1     13559 4.20188E-01
 -1     13563 4.20188E-01
 -1     13564 4.22519E-01
 -1     13565 4.37075E-01
 -1     13570 4.23774E-01
 -1     13571 4.25030E-01
 -1     13572 4.39592E-01
 -1     13577 4.25737E-01
 -1     13578 4.26445E-01
 -1     13579 4.40996E-01
 -1     13584 4.26791E-01
 -1     13585 4.27137E-01
 -1     13586 4.41674E-01
 -1     13591 4.27241E-01
 -1     13592 4.27345E-01
 -1     13593 4.41876E-01
 -1     13598 4.27345E-01
 -1     13599 4.27345E-01
 -1     13600 4.41876E-01
 -1     13605 4.27241E-01
 -1     13606 4.27137E-01
 -1     13607 4.41674E-01
 -1     13612 4.26791E-01
 -1     13613 4.26445E-01
 -1     13614 4.40996E-01
 -1     13619 4.25737E-01
 -1     13620 4.25030E-01
 -1     13621 4.39592E-01
 -1     13626 4.23774E-01
 -1     13627 4.22519E-01
 -1     13628 4.37075E-01
 -1     13633 4.20188E-01
 -1     13637 4.20188E-01
 -1     13638 4.22519E-01
 -1     13639 4.37075E-01
 -1     13644 4.23774E-01
 -1     13645 4.25030E-01
 -1     13646 4.39592E-01
 -1     13651 4.25737E-01
 -1     13652 4.26445E-01
 -1     13653 4.40996E-01
 -1     13658 4.26791E-01
 -1     13659 4.27137E-01
 -1     13660 4.41674E-01
 -1     13665 4.27241E-01
 -1     13666 4.27345E-01
 -1     13667 4.41876E-01
 -1     13672 4.27345E-01
 -1     13673 4.27345E-01
 -1     13674 4.41876E-01
 -1     13679 4.27241E-01
 -1     13680 4.27137E-01
 -1     13681 4.41674E-01
 -1     13686 4.26791E-01
 -1     13687 4.26445E-01
 -1     13688 4.40996E-01
 -1     13693 4.25737E-01
 -1     13694 4.25030E-01
 -1     13695 4.39592E-01
 -1     13700 4.23774E-01
 -1     13701 4.22519E-01
 -1     13702 4.37075E-01
 -1     13707 4.20188E-01
 -1     13711 4.20188E-01
 -1     13712 4.22519E-01
 -1     13713 4.37075E-01
 -1     13718 4.23774E-01
 -1     13719 4.25030E-01
 -1     13720 4.39592E-01
 -1     13725 4.25737E-01
 -1     13726 4.26445E-01
 -1     13727 4.40996E-01
 -1     13732 4.26791E-01
 -1     13733 4.27137E-01
 -1     13734 4.41674E-01
 -1     13739 4.27241E-01
 -1     13740 4.27345E-01
 -1     13741 4.41876E-01
 -1     13746 4.27345E-01
 -1     13747 4.27345E-01
 -1     13748 4.41876E-01
 -1     13753 4.27241E-01
 -1     13754 4.27137E-01
 -1     13755 4.41674E-01
 -1     13760 4.26791E-01
 -1     13761 4.26445E-01
 -1     13762 4.40996E-01
 -1     13767 4.25737E-01
 -1     13768 4.25030E-01
 -1     13769 4.39592E-01
 -1     13774 4.23774E-01
 -1     13775 4.22519E-01
 -1     13776 4.37075E-01
 -1     13781 4.20188E-01
 -1     13785 4.20188E-01
 -1     13786 4.22519E-01
 -1     13787 4.37075E-01
 -1     13792 4.23774E-01
 -1     13793 4.25030E-01
 -1     13794 4.39592E-01
 -1     13799 4.25737E-01
 -1     13800 4.26445E-01
 -1     13801 4.40996E-01
 -1     13806 4.26791E-01
 -1     13807 4.27137E-01
 -1     13808 4.41674E-01
 -1     13813 4.27241E-01
 -1     13814 4.27345E-01
 -1     13815 4.41876E-01
 -1     13820 4.27345E-01
 -1     13821 4.27345E-01
 -1     13822 4.41876E-01
 -1     13827 4.27241E-01
 -1     13828 4.27137E-01
 -1     13829 4.41674E-01
 -1     13834 4.26791E-01
 -1     13835 4.26445E-01
 -1     13836 4.40996E-01
 -1     13841 4.25737E-01
 -1     13842 4.25030E-01
 -1     13843 4.39592E-01
 -1     13848 4.23774E-01
 -1     13849 4.22519E-01
 -1     13850 4.37075E-01
 -1     13855 4.20188E-01
 -1     13859 4.20188E-01
 -1     13860 4.22519E-01
 -1     13861 4.37075E-01
 -1     13866 4.23774E-01
 -1     13867 4.25030E-01
 -1     13868 4.39592E-01
 -1     13873 4.25737E-01
 -1     13874 4.26445E-01
 -1     13875 4.40996E-01
 -1     13880 4.26791E-01
 -1     13881 4.27137E-01
 -1     13882 4.41674E-01
 -1     13887 4.27241E-01
 -1     13888 4.27345E-01
 -1     13889 4.41876E-01
 -1     13894 4.27345E-01
 -1     13895 4.27345E-01
 -1     13896 4.41876E-01
 -1     13901 4.27241E-01
 -1     13902 4.27137E-01
 -1     13903 4.41674E-01
 -1     13908 4.26791E-01
 -1     13909 4.26445E-01
 -1     13910 4.40996E-01
 -1     13915 4.25737E-01
 -1     13916 4.25030E-01
 -1     13917 4.39592E-01
 -1     13922 4.23774E-01
 -1     13923 4.22519E-01
 -1     13924 4.37075E-01
 -1     13929 4.20188E-01
 -1     13933 4.20188E-01
 -1     13934 4.22519E-01
 -1     13935 4.37075E-01
 -1     13940 4.23774E-01
 -1     13941 4.25030E-01
 -1     13942 4.39592E-01
 -1     13947 4.25737E-01
 -1     13948 4.26445E-01
 -1     13949 4.40996E-01
 -1     13954 4.26791E-01
 -1     13955 4.27137E-01
 -1     13956 4.41674E-01
 -1     13961 4.27241E-01
 -1     13962 4.27345E-01
 -1     13963 4.41876E-01
 -1     13968 4.27345E-01
 -1     13969 4.27345E-01
 -1     13970 4.41876E-01
 -1     13975 4.27241E-01
 -1     13976 4.27137E-01
 -1     13977 4.41674E-01
 -1     13982 4.26791E-01
 -1     13983 4.26445E-01
 -1     13984 4.40996E-01
 -1     13989 4.25737E-01
 -1     13990 4.25030E-01
 -1     13991 4.39592E-01
 -1     13996 4.23774E-01
 -1     13997 4.22519E-01
 -1     13998 4.37075E-01
 -1     14003 4.20188E-01
 -1     14007 4.20188E-01
 -1     14008 4.22519E-01
 -1     14009 4.37075E-01
 -1     14014 4.23774E-01
 -1     14015 4.25030E-01
 -1     14016 4.39592E-01
 -1     14021 4.25737E-01
 -1     14022 4.26445E-01
 -1     14023 4.40996E-01
 -1     14028 4.26791E-01
 -1     14029 4.27137E-01
 -1     14030 4.41674E-01
 -1     14035 4.27241E-01
 -1     14036 4.27345E-01
 -1     14037 4.41876E-01
 -1     14042 4.27345E-01
 -1     14043 4.27345E-01
 -1     14044 4.41876E-01
 -1     14049 4.27241E-01
 -1     14050 4.27137E-01
 -1     14051 4.41674E-01
 -1     14056 4.26791E-01
 -1     14057 4.26445E-01
 -1     14058 4.40996E-01
 -1     14063 4.25737E-01
 -1     14064 4.25030E-01
 -1     14065 4.39592E-01
 -1     14070 4.23774E-01
 -1     14071 4.22519E-01
 -1     14072 4.37075E-01
 -1     14077 4.20188E-01
 -1     14081 4.20188E-01
 -1     14082 4.22519E-01
 -1     14083 4.37075E-01
 -1     14088 4.23774E-01
 -1     14089 4.25030E-01
 -1     14090 4.39592E-01
 -1     14095 4.25737E-01
 -1     14096 4.26445E-01
 -1     14097 4.40996E-01
 -1     14102 4.26791E-01
 -1     14103 4.27137E-01
 -1     14104 4.41674E-01
 -1     14109 4.27241E-01
 -1     14110 4.27345E-01
 -1     14111 4.41876E-01
 -1     14116 4.27345E-01
 -1     14117 4.27345E-01
 -1     14118 4.41876E-01
 -1     14123 4.27241E-01
 -1     14124 4.27137E-01
 -1     14125 4.41674E-01
 -1     14130 4.26791E-01
 -1     14131 4.26445E-01
 -1     14132 4.40996E-01
 -1     14137 4.25737E-01
 -1     14138 4.25030E-01
 -1     14139 4.39592E-01
 -1     14144 4.23774E-01
 -1     14145 4.22519E-01
 -1     14146 4.37075E-01
 -1     14151 4.20188E-01
 -1     14155 4.22519E-01
 -1     14159 4.25030E-01
 -1     14163 4.26445E-01
 -1     14167 4.27137E-01
 -1     14171 4.27345E-01
 -1     14175 4.27345E-01
 -1     14179 4.27137E-01
 -1     14183 4.26445E-01
 -1     14187 4.25030E-01
 -1     14191 4.22519E-01
 -1     14197 3.93923E-01
 -1     14198 3.96143E-01
 -1     14199 4.09331E-01
 -1     14204 3.97383E-01
 -1     14205 3.98622E-01
 -1     14206 4.11826E-01
 -1     14211 3.99335E-01
 -1     14212 4.00048E-01
 -1     14213 4.13246E-01
 -1     14218 4.00404E-01
 -1     14219 4.00760E-01
 -1     14220 4.13948E-01
 -1     14225 4.00868E-01
 -1     14226 4.00976E-01
 -1     14227 4.14160E-01
 -1     14232 4.00976E-01
 -1     14233 4.00976E-01
 -1     14234 4.14160E-01
 -1     14239 4.00868E-01
 -1     14240 4.00760E-01
 -1     14241 4.13948E-01
 -1     14246 4.00404E-01
 -1     14247 4.00048E-01
 -1     14248 4.13246E-01
 -1     14253 3.99335E-01
 -1     14254 3.98622E-01
 -1     14255 4.11826E-01
 -1     14260 3.97383E-01
 -1     14261 3.96143E-01
 -1     14262 4.09331E-01
 -1     14267 3.93923E-01
 -1     14271 3.93923E-01
 -1     14272 3.96143E-01
 -1     14273 4.09331E-01
 -1     14278 3.97383E-01
 -1     14279 3.98622E-01
 -1     14280 4.11826E-01
 -1     14285 3.99335E-01
 -1     14286 4.00048E-01
 -1     14287 4.13246E-01
 -1     14292 4.00404E-01
 -1     14293 4.00760E-01
 -1     14294 4.13948E-01
 -1     14299 4.00868E-01
 -1     14300 4.00976E-01
 -1     14301 4.14160E-01
 -1     14306 4.00976E-01
 -1     14307 4.00976E-01
 -1     14308 4.14160E-01
 -1     14313 4.00868E-01
 -1     14314 4.00760E-01
 -1     14315 4.13948E-01
 -1     14320 4.00404E-01
 -1     14321 4.00048E-01
 -1     14322 4.13246E-01
 -1     14327 3.99335E-01
 -1     14328 3.98622E-01
 -1     14329 4.11826E-01
 -1     14334 3.97383E-01
 -1     14335 3.96143E-01
 -1     14336 4.09331E-01
 -1     14341 3.93923E-01
 -1     14345 3.93923E-01
 -1     14346 3.96143E-01
 -1     14347 4.09331E-01
 -1     14352 3.97383E-01
 -1     14353 3.98622E-01
 -1     14354 4.11826E-01
 -1     14359 3.99335E-01
 -1     14360 4.00048E-01
 -1     14361 4.13246E-01
 -1     14366 4.00404E-01
 -1     14367 4.00760E-01
 -1     14368 4.13948E-01
 -1     14373 4.00868E-01
 -1     14374 4.00976E-01
 -1     14375 4.14160E-01
 -1     14380 4.00976E-01
 -1     14381 4.00976E-01
 -1     14382 4.14160E-01
 -1     14387 4.00868E-01
 -1     14388 4.00760E-01
 -1     14389 4.13948E-01
 -1     14394 4.00404E-01
 -1     14395 4.00048E-01
 -1     14396 4.13246E-01
 -1     14401 3.99335E-01
 -1     14402 3.98622E-01
 -1     14403 4.11826E-01
 -1     14408 3.97383E-01
 -1     14409 3.96143E-01
 -1     14410 4.09331E-01
 -1     14415 3.93923E-01
 -1     14419 3.93923E-01
 -1     14420 3.96143E-01
 -1     14421 4.09331E-01
 -1     14426 3.97383E-01
 -1     14427 3.98622E-01
 -1     14428 4.11826E-01
 -1     14433 3.99335E-01
 -1     14434 4.00048E-01
 -1     14435 4.13246E-01
 -1     14440 4.00404E-01
 -1     14441 4.00760E-01
 -1     14442 4.13948E-01
 -1     14447 4.00868E-01
 -1     14448 4.00976E-01
 -1     14449 4.14160E-01
 -1     14454 4.00976E-01
 -1     14455 4.00976E-01
 -1     14456 4.14160E-01
 -1     14461 4.00868E-01
 -1     14462 4.00760E-01
 -1     14463 4.13948E-01
 -1     14468 4.00404E-01
 -1     14469 4.00048E-01
 -1     14470 4.13246E-01
 -1     14475 3.99335E-01
 -1     14476 3.98622E-01
 -1     14477 4.11826E-01
 -1     14482 3.97383E-01
 -1     14483 3.96143E-01
 -1     14484 4.09331E-01
 -1     14489 3.93923E-01
 -1     14493 3.93923E-01
 -1     14494 3.96143E-01
 -1     14495 4.09331E-01
 -1     14500 3.97383E-01
 -1     14501 3.98622E-01
 -1     14502 4.11826E-01
 -1     14507 3.99335E-01
 -1     14508 4.00048E-01
 -1     14509 4.13246E-01
 -1     14514 4.00404E-01
 -1     14515 4.00760E-01
 -1     14516 4.13948E-01
 -1     14521 4.00868E-01
 -1     14522 4.00976E-01
 -1     14523 4.14160E-01
 -1     14528 4.00976E-01
 -1     14529 4.00976E-01
 -1     14530 4.14160E-01
 -1     14535 4.00868E-01
 -1     14536 4.00760E-01
 -1     14537 4.13948E-01
 -1     14542 4.00404E-01
 -1     14543 4.00048E-01
 -1     14544 4.13246E-01
 -1     14549 3.99335E-01
 -1     14550 3.98622E-01
 -1     14551 4.11826E-01
 -1     14556 3.97383E-01
 -1     14557 3.96143E-01
 -1     14558 4.09331E-01
 -1     14563 3.93923E-01
 -1     14567 3.93923E-01
 -1     14568 3.96143E-01
 -1     14569 4.09331E-01
 -1     14574 3.97383E-01
 -1     14575 3.98622E-01
 -1     14576 4.11826E-01
 -1     14581 3.99335E-01
 -1     14582 4.00048E-01
 -1     14583 4.13246E-01
 -1     14588 4.00404E-01
 -1     14589 4.00760E-01
 -1     14590 4.13948E-01
 -1     14595 4.00868E-01
 -1     14596 4.00976E-01
 -1     14597 4.14160E-01
 -1     14602 4.00976E-01
 -1     14603 4.00976E-01
 -1     14604 4.14160E-01
 -1     14609 4.00868E-01
 -1     14610 4.00760E-01
 -1     14611 4.13948E-01
 -1     14616 4.00404E-01
 -1     14617 4.00048E-01
 -1     14618 4.13246E-01
 -1     14623 3.99335E-01
 -1     14624 3.98622E-01
 -1     14625 4.11826E-01
 -1     14630 3.97383E-01
 -1     14631 3.96143E-01
 -1     14632 4.09331E-01
 -1     14637 3.93923E-01
 -1     14641 3.93923E-01
 -1     14642 3.96143E-01
 -1     14643 4.09331E-01
 -1     14648 3.97383E-01
 -1     14649 3.98622E-01
 -1     14650 4.11826E-01
 -1     14655 3.99335E-01
 -1     14656 4.00048E-01
 -1     14657 4.13246E-01
 -1     14662 4.00404E-01
 -1     14663 4.00760E-01
 -1     14664 4.13948E-01
 -1     14669 4.00868E-01
 -1     14670 4.00976E-01
 -1     14671 4.14160E-01
 -1     14676 4.00976E-01
 -1     14677 4.00976E-01
 -1     14678 4.14160E-01
 -1     14683 4.00868E-01
 -1     14684 4.00760E-01
 -1     14685 4.13948E-01
 -1     14690 4.00404E-01
 -1     14691 4.00048E-01
 -1     14692 4.13246E-01
 -1     14697 3.99335E-01
 -1     14698 3.98622E-01
 -1     14699 4.11826E-01
 -1     14704 3.97383E-01
 -1     14705 3.96143E-01
 -1     14706 4.09331E-01
 -1     14711 3.93923E-01
 -1     14715 3.93923E-01
 -1     14716 3.96143E-01
 -1     14717 4.09331E-01
 -1     14722 3.97383E-01
 -1     14723 3.98622E-01
 -1     14724 4.11826E-01
 -1     14729 3.99335E-01
 -1     14730 4.00048E-01
 -1     14731 4.13246E-01
 -1     14736 4.00404E-01
 -1     14737 4.00760E-01
 -1     14738 4.13948E-01
 -1     14743 4.00868E-01
 -1     14744 4.00976E-01
 -1     14745 4.14160E-01
 -1     14750 4.00976E-01
 -1     14751 4.00976E-01
 -1     14752 4.14160E-01
 -1     14757 4.00868E-01
 -1     14758 4.00760E-01
 -1     14759 4.13948E-01
 -1     14764 4.00404E-01
 -1     14765 4.00048E-01
 -1     14766 4.13246E-01
 -1     14771 3.99335E-01
 -1     14772 3.98622E-01
 -1     14773 4.11826E-01
 -1     14778 3.97383E-01
 -1     14779 3.96143E-01
 -1     14780 4.09331E-01
 -1     14785 3.93923E-01
 -1     14789 3.93923E-01
 -1     14790 3.96143E-01
 -1     14791 4.09331E-01
 -1     14796 3.97383E-01
 -1     14797 3.98622E-01
 -1     14798 4.11826E-01
 -1     14803 3.99335E-01
 -1     14804 4.00048E-01
 -1     14805 4.13246E-01
 -1     14810 4.00404E-01
 -1     14811 4.00760E-01
 -1     14812 4.13948E-01
 -1     14817 4.00868E-01
 -1     14818 4.00976E-01
 -1     14819 4.14160E-01
 -1     14824 4.00976E-01
 -1     14825 4.00976E-01
 -1     14826 4.14160E-01
 -1     14831 4.00868E-01
 -1     14832 4.00760E-01
 -1     14833 4.13948E-01
 -1     14838 4.00404E-01
 -1     14839 4.00048E-01
 -1     14840 4.13246E-01
 -1     14845 3.99335E-01
 -1     14846 3.98622E-01
 -1     14847 4.11826E-01
 -1     14852 3.97383E-01
 -1     14853 3.96143E-01
 -1     14854 4.09331E-01
 -1     14859 3.93923E-01
 -1     14863 3.96143E-01
 -1     14867 3.98622E-01
 -1     14871 4.00048E-01
 -1     14875 4.00760E-01
 -1     14879 4.00976E-01
 -1     14883 4.00976E-01
 -1     14887 4.00760E-01
 -1     14891 4.00048E-01
 -1     14895 3.98622E-01
 -1     14899 3.96143E-01
 -1     14905 3.70013E-01
 -1     14906 3.72127E-01
 -1     14907 3.84135E-01
 -1     14912 3.73344E-01
 -1     14913 3.74561E-01
 -1     14914 3.86592E-01
 -1     14919 3.75273E-01
 -1     14920 3.75985E-01
 -1     14921 3.88017E-01
 -1     14926 3.76348E-01
 -1     14927 3.76710E-01
 -1     14928 3.88735E-01
 -1     14933 3.76821E-01
 -1     14934 3.76932E-01
 -1     14935 3.88954E-01
 -1     14940 3.76932E-01
 -1     14941 3.76932E-01
 -1     14942 3.88954E-01
 -1     14947 3.76821E-01
 -1     14948 3.76710E-01
 -1     14949 3.88735E-01
 -1     14954 3.76348E-01
 -1     14955 3.75985E-01
 -1     14956 3.88017E-01
 -1     14961 3.75273E-01
 -1     14962 3.74561E-01
 -1     14963 3.86592E-01
 -1     14968 3.73344E-01
 -1     14969 3.72127E-01
 -1     14970 3.84135E-01
 -1     14975 3.70013E-01
 -1     14979 3.70013E-01
 -1     14980 3.72127E-01
 -1     14981 3.84135E-01
 -1     14986 3.73344E-01
 -1     14987 3.74561E-01
 -1     14988 3.86592E-01
 -1     14993 3.75273E-01
 -1     14994 3.75985E-01
 -1     14995 3.88017E-01
 -1     15000 3.76348E-01
 -1     15001 3.76710E-01
 -1     15002 3.88735E-01
 -1     15007 3.76821E-01
 -1     15008 3.76932E-01
 -1     15009 3.88954E-01
 -1     15014 3.76932E-01
 -1     15015 3.76932E-01
 -1     15016 3.88954E-01
 -1     15021 3.76821E-01
 -1     15022 3.76710E-01
 -1     15023 3.88735E-01
 -1     15028 3.76348E-01
 -1     15029 3.75985E-01
 -1     15030 3.88017E-01
 -1     15035 3.75273E-01
 -1     15036 3.74561E-01
 -1     15037 3.86592E-01
 -1     15042 3.73344E-01
 -1     15043 3.72127E-01
 -1     15044 3.84135E-01
 -1     15049 3.70013E-01
 -1     15053 3.70013E-01
 -1     15054 3.72127E-01
 -1     15055 3.84135E-01
 -1     15060 3.73344E-01
 -1     15061 3.74561E-01
 -1     15062 3.86592E-01
 -1     15067 3.75273E-01
 -1     15068 3.75985E-01
 -1     15069 3.88017E-01
 -1     15074 3.76348E-01
 -1     15075 3.76710E-01
 -1     15076 3.88735E-01
 -1     15081 3.76821E-01
 -1     15082 3.76932E-01
 -1     15083 3.88954E-01
 -1     15088 3.76932E-01
 -1     15089 3.76932E-01
 -1     15090 3.88954E-01
 -1     15095 3.76821E-01
 -1     15096 3.76710E-01
 -1     15097 3.88735E-01
 -1     15102 3.76348E-01
 -1     15103 3.75985E-01
 -1     15104 3.88017E-01
 -1     15109 3.75273E-01
 -1     15110 3.74561E-01
 -1     15111 3.86592E-01
 -1     15116 3.73344E-01
 -1     15117 3.72127E-01
 -1     15118 3.84135E-01
 -1     15123 3.70013E-01
 -1     15127 3.70013E-01
 -1     15128 3.72127E-01
 -1     15129 3.84135E-01
 -1     15134 3.73344E-01
 -1     15135 3.74561E-01
 -1     15136 3.86592E-01
 -1     15141 3.75273E-01
 -1     15142 3.75985E-01
 -1     15143 3.88017E-01
 -1     15148 3.76348E-01
 -1     15149 3.76710E-01
 -1     15150 3.88735E-01
 -1     15155 3.76821E-01
 -1     15156 3.76932E-01
 -1     15157 3.88954E-01
 -1     15162 3.76932E-01
 -1     15163 3.76932E-01
 -1     15164 3.88954E-01
 -1     15169 3.76821E-01
 -1     15170 3.76710E-01
 -1     15171 3.88735E-01
 -1     15176 3.76348E-01
 -1     15177 3.75985E-01
 -1     15178 3.88017E-01
 -1     15183 3.75273E-01
 -1     15184 3.74561E-01
 -1     15185 3.86592E-01
 -1     15190 3.73344E-01
 -1     15191 3.72127E-01
 -1     15192 3.84135E-01
 -1     15197 3.70013E-01
 -1     15201 3.70013E-01
 -1     15202 3.72127E-01
 -1     15203 3.84135E-01
 -1     15208 3.73344E-01
 -1     15209 3.74561E-01
 -1     15210 3.86592E-01
 -1     15215 3.75273E-01
 -1     15216 3.75985E-01
 -1     15217 3.88017E-01
 -1     15222 3.76348E-01
 -1     15223 3.76710E-01
 -1     15224 3.88735E-01
 -1     15229 3.76821E-01
 -1     15230 3.76932E-01
 -1     15231 3.88954E-01
 -1     15236 3.76932E-01
 -1     15237 3.76932E-01
 -1     15238 3.88954E-01
 -1     15243 3.76821E-01
 -1     15244 3.76710E-01
 -1     15245 3.88735E-01
 -1     15250 3.76348E-01
 -1     15251 3.75985E-01
 -1     15252 3.88017E-01
 -1     15257 3.75273E-01
 -1     15258 3.74561E-01
 -1     15259 3.86592E-01
 -1     15264 3.73344E-01
 -1     15265 3.72127E-01
 -1     15266 3.84135E-01
 -1     15271 3.70013E-01
 -1     15275 3.70013E-01
 -1     15276 3.72127E-01
 -1     15277 3.84135E-01
 -1     15282 3.73344E-01
 -1     15283 3.74561E-01
 -1     15284 3.86592E-01
 -1     15289 3.75273E-01
 -1     15290 3.75985E-01
 -1     15291 3.88017E-01
 -1     15296 3.76348E-01
 -1     15297 3.76710E-01
 -1     15298 3.88735E-01
 -1     15303 3.76821E-01
 -1     15304 3.76932E-01
 -1     15305 3.88954E-01
 -1     15310 3.76932E-01
 -1     15311 3.76932E-01
 -1     15312 3.88954E-01
 -1     15317 3.76821E-01
 -1     15318 3.76710E-01
 -1     15319 3.88735E-01
 -1     15324 3.76348E-01
 -1     15325 3.75985E-01
 -1     15326 3.88017E-01
 -1     15331 3.75273E-01
 -1     15332 3.74561E-01
 -1     15333 3.86592E-01
 -1     15338 3.73344E-01
 -1     15339 3.72127E-01
 -1     15340 3.84135E-01
 -1     15345 3.70013E-01
 -1     15349 3.70013E-01
 -1     15350 3.72127E-01
 -1     15351 3.84135E-01
 -1     15356 3.73344E-01
 -1     15357 3.74561E-01
 -1     15358 3.86592E-01
 -1     15363 3.75273E-01
 -1     15364 3.75985E-01
 -1     15365 3.88017E-01
 -1     15370 3.76348E-01
 -1     15371 3.76710E-01
 -1     15372 3.88735E-01
 -1     15377 3.76821E-01
 -1     15378 3.76932E-01
 -1     15379 3.88954E-01
 -1     15384 3.76932E-01
 -1     15385 3.76932E-01
 -1     15386 3.88954E-01
 -1     15391 3.76821E-01
 -1     15392 3.76710E-01
 -1     15393 3.88735E-01
 -1     15398 3.76348E-01
 -1     15399 3.75985E-01
 -1     15400 3.88017E-01
 -1     15405 3.75273E-01
 -1     15406 3.74561E-01
 -1     15407 3.86592E-01
 -1     15412 3.73344E-01
 -1     15413 3.72127E-01
 -1     15414 3.84135E-01
 -1     15419 3.70013E-01
 -1     15423 3.70013E-01
 -1     15424 3.72127E-01
 -1     15425 3.84135E-01
 -1     15430 3.73344E-01
 -1     15431 3.74561E-01
 -1     15432 3.86592E-01
 -1     15437 3.75273E-01
 -1     15438 3.75985E-01
 -1     15439 3.88017E-01
 -1     15444 3.76348E-01
 -1     15445 3.76710E-01
 -1     15446 3.88735E-01
 -1     15451 3.76821E-01
 -1     15452 3.76932E-01
 -1     15453 3.88954E-01
 -1     15458 3.76932E-01
 -1     15459 3.76932E-01
 -1     15460 3.88954E-01
 -1     15465 3.76821E-01
 -1     15466 3.76710E-01
 -1     15467 3.88735E-01
 -1     15472 3.76348E-01
 -1     15473 3.75985E-01
 -1     15474 3.88017E-01
 -1     15479 3.75273E-01
 -1     15480 3.74561E-01
 -1     15481 3.86592E-01
 -1     15486 3.73344E-01
 -1     15487 3.72127E-01
 -1     15488 3.84135E-01
 -1     15493 3.70013E-01
 -1     15497 3.70013E-01
 -1     15498 3.72127E-01
 -1     15499 3.84135E-01
 -1     15504 3.73344E-01
 -1     15505 3.74561E-01
 -1     15506 3.86592E-01
 -1     15511 3.75273E-01
 -1     15512 3.75985E-01
 -1     15513 3.88017E-01
 -1     15518 3.76348E-01
 -1     15519 3.76710E-01
 -1     15520 3.88735E-01
 -1     15525 3.76821E-01
 -1     15526 3.76932E-01
 -1     15527 3.88954E-01
 -1     15532 3.76932E-01
 -1     15533 3.76932E-01
 -1     15534 3.88954E-01
 -1     15539 3.76821E-01
 -1     15540 3.76710E-01
 -1     15541 3.88735E-01
 -1     15546 3.76348E-01
 -1     15547 3.75985E-01
 -1     15548 3.88017E-01
 -1     15553 3.75273E-01
 -1     15554 3.74561E-01
 -1     15555 3.86592E-01
 -1     15560 3.73344E-01
 -1     15561 3.72127E-01
 -1     15562 3.84135E-01
 -1     15567 3.70013E-01
 -1     15571 3.72127E-01
 -1     15575 3.74561E-01
 -1     15579 3.75985E-01
 -1     15583 3.76710E-01
 -1     15587 3.76932E-01
 -1     15591 3.76932E-01
 -1     15595 3.76710E-01
 -1     15599 3.75985E-01
 -1     15603 3.74561E-01
 -1     15607 3.72127E-01
 -1     15613 3.48154E-01
 -1     15614 3.50164E-01
 -1     15615 3.61145E-01
 -1     15620 3.51353E-01
 -1     15621 3.52542E-01
 -1     15622 3.63551E-01
 -1     15627 3.53249E-01
 -1     15628 3.53956E-01
 -1     15629 3.64971E-01
 -1     15634 3.54322E-01
 -1     15635 3.54687E-01
 -1     15636 3.65699E-01
 -1     15641 3.54800E-01
 -1     15642 3.54913E-01
 -1     15643 3.65922E-01
 -1     15648 3.54913E-01
 -1     15649 3.54913E-01
 -1     15650 3.65922E-01
 -1     15655 3.54800E-01
 -1     15656 3.54687E-01
 -1     15657 3.65699E-01
 -1     15662 3.54322E-01
 -1     15663 3.53956E-01
 -1     15664 3.64971E-01
 -1     15669 3.53249E-01
 -1     15670 3.52542E-01
 -1     15671 3.63551E-01
 -1     15676 3.51353E-01
 -1     15677 3.50164E-01
 -1     15678 3.61145E-01
 -1     15683 3.48154E-01
 -1     15687 3.48154E-01
 -1     15688 3.50164E-01
 -1     15689 3.61145E-01
 -1     15694 3.51353E-01
 -1     15695 3.52542E-01
 -1     15696 3.63551E-01
 -1     15701 3.53249E-01
 -1     15702 3.53956E-01
 -1     15703 3.64971E-01
 -1     15708 3.54322E-01
 -1     15709 3.54687E-01
 -1     15710 3.65699E-01
 -1     15715 3.54800E-01
 -1     15716 3.54913E-01
 -1     15717 3.65922E-01
 -1     15722 3.54913E-01
 -1     15723 3.54913E-01
 -1     15724 3.65922E-01
 -1     15729 3.54800E-01
 -1     15730 3.54687E-01
 -1     15731 3.65699E-01
 -1     15736 3.54322E-01
 -1     15737 3.53956E-01
 -1     15738 3.64971E-01
 -1     15743 3.53249E-01
 -1     15744 3.52542E-01
 -1     15745 3.63551E-01
 -1     15750 3.51353E-01
 -1     15751 3.50164E-01
 -1     15752 3.61145E-01
 -1     15757 3.48154E-01
 -1     15761 3.48154E-01
 -1     15762 3.50164E-01
 -1     15763 3.61145E-01
 -1     15768 3.51353E-01
 -1     15769 3.52542E-01
 -1     15770 3.63551E-01
 -1     15775 3.53249E-01
 -1     15776 3.53956E-01
 -1     15777 3.64971E-01
 -1     15782 3.54322E-01
 -1     15783 3.54687E-01
 -1     15784 3.65699E-01
 -1     15789 3.54800E-01
 -1     15790 3.54913E-01
 -1     15791 3.65922E-01
 -1     15796 3.54913E-01
 -1     15797 3.54913E-01
 -1     15798 3.65922E-01
 -1     15803 3.54800E-01
 -1     15804 3.54687E-01
 -1     15805 3.65699E-01
 -1     15810 3.54322E-01
 -1     15811 3.53956E-01
 -1     15812 3.64971E-01
 -1     15817 3.53249E-01
 -1     15818 3.52542E-01
 -1     15819 3.63551E-01
 -1     15824 3.51353E-01
 -1     15825 3.50164E-01
 -1     15826 3.61145E-01
 -1     15831 3.48154E-01
 -1     15835 3.48154E-01
 -1     15836 3.50164E-01
 -1     15837 3.61145E-01
 -1     15842 3.51353E-01
 -1     15843 3.52542E-01
 -1     15844 3.63551E-01
 -1     15849 3.53249E-01
 -1     15850 3.53956E-01
 -1     15851 3.64971E-01
 -1     15856 3.54322E-01
 -1     15857 3.54687E-01
 -1     15858 3.65699E-01
 -1     15863 3.54800E-01
 -1     15864 3.54913E-01
 -1     15865 3.65922E-01
 -1     15870 3.54913E-01
 -1     15871 3.54913E-01
 -1     15872 3.65922E-01
 -1     15877 3.54800E-01
 -1     15878 3.54687E-01
 -1     15879 3.65699E-01
 -1     15884 3.54322E-01
 -1     15885 3.53956E-01
 -1     15886 3.64971E-01
 -1     15891 3.53249E-01
 -1     15892 3.52542E-01
 -1     15893 3.63551E-01
 -1     15898 3.51353E-01
 -1     15899 3.50164E-01
 -1     15900 3.61145E-01
 -1     15905 3.48154E-01
 -1     15909 3.48154E-01
 -1     15910 3.50164E-01
 -1     15911 3.61145E-01
 -1     15916 3.51353E-01
 -1     15917 3.52542E-01
 -1     15918 3.63551E-01
 -1     15923 3.53249E-01
 -1     15924 3.53956E-01
 -1     15925 3.64971E-01
 -1     15930 3.54322E-01
 -1     15931 3.54687E-01
 -1     15932 3.65699E-01
 -1     15937 3.54800E-01
 -1     15938 3.54913E-01
 -1     15939 3.65922E-01
 -1     15944 3.54913E-01
 -1     15945 3.54913E-01
 -1     15946 3.65922E-01
 -1     15951 3.54800E-01
 -1     15952 3.54687E-01
 -1     15953 3.65699E-01
 -1     15958 3.54322E-01
 -1     15959 3.53956E-01
 -1     15960 3.64971E-01
 -1     15965 3.53249E-01
 -1     15966 3.52542E-01
 -1     15967 3.63551E-01
 -1     15972 3.51353E-01
 -1     15973 3.50164E-01
 -1     15974 3.61145E-01
 -1     15979 3.48154E-01
 -1     15983 3.48154E-01
 -1     15984 3.50164E-01
 -1     15985 3.61145E-01
 -1     15990 3.51353E-01
 -1     15991 3.52542E-01
 -1     15992 3.63551E-01
 -1     15997 3.53249E-01
 -1     15998 3.53956E-01
 -1     15999 3.64971E-01
 -1     16004 3.54322E-01
 -1     16005 3.54687E-01
 -1     16006 3.65699E-01
 -1     16011 3.54800E-01
 -1     16012 3.54913E-01
 -1     16013 3.65922E-01
 -1     16018 3.54913E-01
 -1     16019 3.54913E-01
 -1     16020 3.65922E-01
 -1     16025 3.54800E-01
 -1     16026 3.54687E-01
 -1     16027 3.65699E-01
 -1     16032 3.54322E-01
 -1     16033 3.53956E-01
 -1     16034 3.64971E-01
 -1     16039 3.53249E-01
 -1     16040 3.52542E-01
 -1     16041 3.63551E-01
 -1     16046 3.51353E-01
 -1     16047 3.50164E-01
 -1     16048 3.61145E-01
 -1     16053 3.48154E-01
 -1     16057 3.48154E-01
 -1     16058 3.50164E-01
 -1     16059 3.61145E-01
 -1     16064 3.51353E-01
 -1     16065 3.52542E-01
 -1     16066 3.63551E-01
 -1     16071 3.53249E-01
 -1     16072 3.53956E-01
 -1     16073 3.64971E-01
 -1     16078 3.54322E-01
 -1     16079 3.54687E-01
 -1     16080 3.65699E-01
 -1     16085 3.54800E-01
 -1     16086 3.54913E-01
 -1     16087 3.65922E-01
 -1     16092 3.54913E-01
 -1     16093 3.54913E-01
 -1     16094 3.65922E-01
 -1     16099 3.54800E-01
 -1     16100 3.54687E-01
 -1     16101 3.65699E-01
 -1     16106 3.54322E-01
 -1     16107 3.53956E-01
 -1     16108 3.64971E-01
 -1     16113 3.53249E-01
 -1     16114 3.52542E-01
 -1     16115 3.63551E-01
 -1     16120 3.51353E-01
 -1     16121 3.50164E-01
 -1     16122 3.61145E-01
 -1     16127 3.48154E-01
 -1     16131 3.48154E-01
 -1     16132 3.50164E-01
 -1     16133 3.61145E-01
 -1     16138 3.51353E-01
 -1     16139 3.52542E-01
 -1     16140 3.63551E-01
 -1     16145 3.53249E-01
 -1     16146 3.53956E-01
 -1     16147 3.64971E-01
 -1     16152 3.54322E-01
 -1     16153 3.54687E-01
 -1     16154 3.65699E-01
 -1     16159 3.54800E-01
 -1     16160 3.54913E-01
 -1     16161 3.65922E-01
 -1     16166 3.54913E-01
 -1     16167 3.54913E-01
 -1     16168 3.65922E-01
 -1     16173 3.54800E-01
 -1     16174 3.54687E-01
 -1     16175 3.65699E-01
 -1     16180 3.54322E-01
 -1     16181 3.53956E-01
 -1     16182 3.64971E-01
 -1     16187 3.53249E-01
 -1     16188 3.52542E-01
 -1     16189 3.63551E-01
 -1     16194 3.51353E-01
 -1     16195 3.50164E-01
 -1     16196 3.61145E-01
 -1     16201 3.48154E-01
 -1     16205 3.48154E-01
 -1     16206 3.50164E-01
 -1     16207 3.61145E-01
 -1     16212 3.51353E-01
 -1     16213 3.52542E-01
 -1     16214 3.63551E-01
 -1     16219 3.53249E-01
 -1     16220 3.53956E-01
 -1     16221 3.64971E-01
 -1     16226 3.54322E-01
 -1     16227 3.54687E-01
 -1     16228 3.65699E-01
 -1     16233 3.54800E-01
 -1     16234 3.54913E-01
 -1     16235 3.65922E-01
 -1     16240 3.54913E-01
 -1     16241 3.54913E-01
 -1     16242 3.65922E-01
 -1     16247 3.54800E-01
 -1     16248 3.54687E-01
 -1     16249 3.65699E-01
 -1     16254 3.54322E-01
 -1     16255 3.53956E-01
 -1     16256 3.64971E-01
 -1     16261 3.53249E-01
 -1     16262 3.52542E-01
 -1     16263 3.63551E-01
 -1     16268 3.51353E-01
 -1     16269 3.50164E-01
 -1     16270 3.61145E-01
 -1     16275 3.48154E-01
 -1     16279 3.50164E-01
 -1     16283 3.52542E-01
 -1     16287 3.53956E-01
 -1     16291 3.54687E-01
 -1     16295 3.54913E-01
 -1     16299 3.54913E-01
 -1     16303 3.54687E-01
 -1     16307 3.53956E-01
 -1     16311 3.52542E-01
 -1     16315 3.50164E-01
 -1     16321 3.28092E-01
 -1     16322 3.30002E-01
 -1     16323 3.40083E-01
 -1     16328 3.31159E-01
 -1     16329 3.32317E-01
 -1     16330 3.42430E-01
 -1     16335 3.33015E-01
 -1     16336 3.33712E-01
 -1     16337 3.43834E-01
 -1     16342 3.34078E-01
 -1     16343 3.34443E-01
 -1     16344 3.44565E-01
 -1     16349 3.34557E-01
 -1     16350 3.34671E-01
 -1     16351 3.44792E-01
 -1     16356 3.34671E-01
 -1     16357 3.34671E-01
 -1     16358 3.44792E-01
 -1     16363 3.34557E-01
 -1     16364 3.34443E-01
 -1     16365 3.44565E-01
 -1     16370 3.34078E-01
 -1     16371 3.33712E-01
 -1     16372 3.43834E-01
 -1     16377 3.33015E-01
 -1     16378 3.32317E-01
 -1     16379 3.42430E-01
 -1     16384 3.31159E-01
 -1     16385 3.30002E-01
 -1     16386 3.40083E-01
 -1     16391 3.28092E-01
 -1     16395 3.28092E-01
 -1     16396 3.30002E-01
 -1     16397 3.40083E-01
 -1     16402 3.31159E-01
 -1     16403 3.32317E-01
 -1     16404 3.42430E-01
 -1     16409 3.33015E-01
 -1     16410 3.33712E-01
 -1     16411 3.43834E-01
 -1     16416 3.34078E-01
 -1     16417 3.34443E-01
 -1     16418 3.44565E-01
 -1     16423 3.34557E-01
 -1     16424 3.34671E-01
 -1     16425 3.44792E-01
 -1     16430 3.34671E-01
 -1     16431 3.34671E-01
 -1     16432 3.44792E-01
 -1     16437 3.34557E-01
 -1     16438 3.34443E-01
 -1     16439 3.44565E-01
 -1     16444 3.34078E-01
 -1     16445 3.33712E-01
 -1     16446 3.43834E-01
 -1     16451 3.33015E-01
 -1     16452 3.32317E-01
 -1     16453 3.42430E-01
 -1     16458 3.31159E-01
 -1     16459 3.30002E-01
 -1     16460 3.40083E-01
 -1     16465 3.28092E-01
 -1     16469 3.28092E-01
 -1     16470 3.30002E-01
 -1     16471 3.40083E-01
 -1     16476 3.31159E-01
 -1     16477 3.32317E-01
 -1     16478 3.42430E-01
 -1     16483 3.33015E-01
 -1     16484 3.33712E-01
 -1     16485 3.43834E-01
 -1     16490 3.34078E-01
 -1     16491 3.34443E-01
 -1     16492 3.44565E-01
 -1     16497 3.34557E-01
 -1     16498 3.34671E-01
 -1     16499 3.44792E-01
 -1     16504 3.34671E-01
 -1     16505 3.34671E-01
 -1     16506 3.44792E-01
 -1     16511 3.34557E-01
 -1     16512 3.34443E-01
 -1     16513 3.44565E-01
 -1     16518 3.34078E-01
 -1     16519 3.33712E-01
 -1     16520 3.43834E-01
 -1     16525 3.33015E-01
 -1     16526 3.32317E-01
 -1     16527 3.42430E-01
 -1     16532 3.31159E-01
 -1     16533 3.30002E-01
 -1     16534 3.40083E-01
 -1     16539 3.28092E-01
 -1     16543 3.28092E-01
 -1     16544 3.30002E-01
 -1     16545 3.40083E-01
 -1     16550 3.31159E-01
 -1     16551 3.32317E-01
 -1     16552 3.42430E-01
 -1     16557 3.33015E-01
 -1     16558 3.33712E-01
 -1     16559 3.43834E-01
 -1     16564 3.34078E-01
 -1     16565 3.34443E-01
 -1     16566 3.44565E-01
 -1     16571 3.34557E-01
 -1     16572 3.34671E-01
 -1     16573 3.44792E-01
 -1     16578 3.34671E-01
 -1     16579 3.34671E-01
 -1     16580 3.44792E-01
 -1     16585 3.34557E-01
 -1     16586 3.34443E-01
 -1     16587 3.44565E-01
 -1     16592 3.34078E-01
 -1     16593 3.33712E-01
 -1     16594 3.43834E-01
 -1     16599 3.33015E-01
 -1     16600 3.32317E-01
 -1     16601 3.42430E-01
 -1     16606 3.31159E-01
 -1     16607 3.30002E-01
 -1     16608 3.40083E-01
 -1     16613 3.28092E-01
 -1     16617 3.28092E-01
 -1     16618 3.30002E-01
 -1     16619 3.40083E-01
 -1     16624 3.31159E-01
 -1     16625 3.32317E-01
 -1     16626 3.42430E-01
 -1     16631 3.33015E-01
 -1     16632 3.33712E-01
 -1     16633 3.43834E-01
 -1     16638 3.34078E-01
 -1     16639 3.34443E-01
 -1     16640 3.44565E-01
 -1     16645 3.34557E-01
 -1     16646 3.34671E-01
 -1     16647 3.44792E-01
 -1     16652 3.34671E-01
 -1     16653 3.34671E-01
 -1     16654 3.44792E-01
 -1     16659 3.34557E-01
 -1     16660 3.34443E-01
 -1     16661 3.44565E-01
 -1     16666 3.34078E-01
 -1     16667 3.33712E-01
 -1     16668 3.43834E-01
 -1     16673 3.33015E-01
 -1     16674 3.32317E-01
 -1     16675 3.42430E-01
 -1     16680 3.31159E-01
 -1     16681 3.30002E-01
 -1     16682 3.40083E-01
 -1     16687 3.28092E-01
 -1     16691 3.28092E-01
 -1     16692 3.30002E-01
 -1     16693 3.40083E-01
 -1     16698 3.31159E-01
 -1     16699 3.32317E-01
 -1     16700 3.42430E-01
 -1     16705 3.33015E-01
 -1     16706 3.33712E-01
 -1     16707 3.43834E-01
 -1     16712 3.34078E-01
 -1     16713 3.34443E-01
 -1     16714 3.44565E-01
 -1     16719 3.34557E-01
 -1     16720 3.34671E-01
 -1     16721 3.44792E-01
 -1     16726 3.34671E-01
 -1     16727 3.34671E-01
 -1     16728 3.44792E-01
 -1     16733 3.34557E-01
 -1     16734 3.34443E-01
 -1     16735 3.44565E-01
 -1     16740 3.34078E-01
 -1     16741 3.33712E-01
 -1     16742 3.43834E-01
 -1     16747 3.33015E-01
 -1     16748 3.32317E-01
 -1     16749 3.42430E-01
 -1     16754 3.31159E-01
 -1     16755 3.30002E-01
 -1     16756 3.40083E-01
 -1     16761 3.28092E-01
 -1     16765 3.28092E-01
 -1     16766 3.30002E-01
 -1     16767 3.40083E-01
 -1     16772 3.31159E-01
 -1     16773 3.32317E-01
 -1     16774 3.42430E-01
 -1     16779 3.33015E-01
 -1     16780 3.33712E-01
 -1     16781 3.43834E-01
 -1     16786 3.34078E-01
 -1     16787 3.34443E-01
 -1     16788 3.44565E-01
 -1     16793 3.34557E-01
 -1     16794 3.34671E-01
 -1     16795 3.44792E-01
 -1     16800 3.34671E-01
 -1     16801 3.34671E-01
 -1     16802 3.44792E-01
 -1     16807 3.34557E-01
 -1     16808 3.34443E-01
 -1     16809 3.44565E-01
 -1     16814 3.34078E-01
 -1     16815 3.33712E-01
 -1     16816 3.43834E-01
 -1     16821 3.33015E-01
 -1     16822 3.32317E-01
 -1     16823 3.42430E-01
 -1     16828 3.31159E-01
 -1     16829 3.30002E-01
 -1     16830 3.40083E-01
 -1     16835 3.28092E-01
 -1     16839 3.28092E-01
 -1     16840 3.30002E-01
 -1     16841 3.40083E-01
 -1     16846 3.31159E-01
 -1     16847 3.32317E-01
 -1     16848 3.42430E-01
 -1     16853 3.33015E-01
 -1     16854 3.33712E-01
 -1     16855 3.43834E-01
 -1     16860 3.34078E-01
 -1     16861 3.34443E-01
 -1     16862 3.44565E-01
 -1     16867 3.34557E-01
 -1     16868 3.34671E-01
 -1     16869 3.44792E-01
 -1     16874 3.34671E-01
 -1     16875 3.34671E-01
 -1     16876 3.44792E-01
 -1     16881 3.34557E-01
 -1     16882 3.34443E-01
 -1     16883 3.44565E-01
 -1     16888 3.34078E-01
 -1     16889 3.33712E-01
 -1     16890 3.43834E-01
 -1     16895 3.33015E-01
 -1     16896 3.32317E-01
 -1     16897 3.42430E-01
 -1     16902 3.31159E-01
 -1     16903 3.30002E-01
 -1     16904 3.40083E-01
 -1     16909 3.28092E-01
 -1     16913 3.28092E-01
 -1     16914 3.30002E-01
 -1     16915 3.40083E-01
 -1     16920 3.31159E-01
 -1     16921 3.32317E-01
 -1     16922 3.42430E-01
 -1     16927 3.33015E-01
 -1     16928 3.33712E-01
 -1     16929 3.43834E-01
 -1     16934 3.34078E-01
 -1     16935 3.34443E-01
 -1     16936 3.44565E-01
 -1     16941 3.34557E-01
 -1     16942 3.34671E-01
 -1     16943 3.44792E-01
 -1     16948 3.34671E-01
 -1     16949 3.34671E-01
 -1     16950 3.44792E-01
 -1     16955 3.34557E-01
 -1     16956 3.34443E-01
 -1     16957 3.44565E-01
 -1     16962 3.34078E-01
 -1     16963 3.33712E-01
 -1     16964 3.43834E-01
 -1     16969 3.33015E-01
 -1     16970 3.32317E-01
 -1     16971 3.42430E-01
 -1     16976 3.31159E-01
 -1     16977 3.30002E-01
 -1     16978 3.40083E-01
 -1     16983 3.28092E-01
 -1     16987 3.30002E-01
 -1     16991 3.32317E-01
 -1     16995 3.33712E-01
 -1     16999 3.34443E-01
 -1     17003 3.34671E-01
 -1     17007 3.34671E-01
 -1     17011 3.34443E-01
 -1     17015 3.33712E-01
 -1     17019 3.32317E-01
 -1     17023 3.30002E-01
 -1     17029 3.09618E-01
 -1     17030 3.11432E-01
 -1     17031 3.20717E-01
 -1     17036 3.12555E-01
 -1     17037 3.13677E-01
 -1     17038 3.22997E-01
 -1     17043 3.14362E-01
 -1     17044 3.15047E-01
 -1     17045 3.24380E-01
 -1     17050 3.15411E-01
 -1     17051 3.15774E-01
 -1     17052 3.25109E-01
 -1     17057 3.15888E-01
 -1     17058 3.16001E-01
 -1     17059 3.25336E-01
 -1     17064 3.16001E-01
 -1     17065 3.16001E-01
 -1     17066 3.25336E-01
 -1     17071 3.15888E-01
 -1     17072 3.15774E-01
 -1     17073 3.25109E-01
 -1     17078 3.15411E-01
 -1     17079 3.15047E-01
 -1     17080 3.24380E-01
 -1     17085 3.14362E-01
 -1     17086 3.13677E-01
 -1     17087 3.22997E-01
 -1     17092 3.12555E-01
 -1     17093 3.11432E-01
 -1     17094 3.20717E-01
 -1     17099 3.09618E-01
 -1     17103 3.09618E-01
 -1     17104 3.11432E-01
 -1     17105 3.20717E-01
 -1     17110 3.12555E-01
 -1     17111 3.13677E-01
 -1     17112 3.22997E-01
 -1     17117 3.14362E-01
 -1     17118 3.15047E-01
 -1     17119 3.24380E-01
 -1     17124 3.15411E-01
 -1     17125 3.15774E-01
 -1     17126 3.25109E-01
 -1     17131 3.15888E-01
 -1     17132 3.16001E-01
 -1     17133 3.25336E-01
 -1     17138 3.16001E-01
 -1     17139 3.16001E-01
 -1     17140 3.25336E-01
 -1     17145 3.15888E-01
 -1     17146 3.15774E-01
 -1     17147 3.25109E-01
 -1     17152 3.15411E-01
 -1     17153 3.15047E-01
 -1     17154 3.24380E-01
 -1     17159 3.14362E-01
 -1     17160 3.13677E-01
 -1     17161 3.22997E-01
 -1     17166 3.12555E-01
 -1     17167 3.11432E-01
 -1     17168 3.20717E-01
 -1     17173 3.09618E-01
 -1     17177 3.09618E-01
 -1     17178 3.11432E-01
 -1     17179 3.20717E-01
 -1     17184 3.12555E-01
 -1     17185 3.13677E-01
 -1     17186 3.22997E-01
 -1     17191 3.14362E-01
 -1     17192 3.15047E-01
 -1     17193 3.24380E-01
 -1     17198 3.15411E-01
 -1     17199 3.15774E-01
 -1     17200 3.25109E-01
 -1     17205 3.15888E-01
 -1     17206 3.16001E-01
 -1     17207 3.25336E-01
 -1     17212 3.16001E-01
 -1     17213 3.16001E-01
 -1     17214 3.25336E-01
 -1     17219 3.15888E-01
 -1     17220 3.15774E-01
 -1     17221 3.25109E-01
 -1     17226 3.15411E-01
 -1     17227 3.15047E-01
 -1     17228 3.24380E-01
 -1     17233 3.14362E-01
 -1     17234 3.13677E-01
 -1     17235 3.22997E-01
 -1     17240 3.12555E-01
 -1     17241 3.11432E-01
 -1     17242 3.20717E-01
 -1     17247 3.09618E-01
 -1     17251 3.09618E-01
 -1     17252 3.11432E-01
 -1     17253 3.20717E-01
 -1     17258 3.12555E-01
 -1     17259 3.13677E-01
 -1     17260 3.22997E-01
 -1     17265 3.14362E-01
 -1     17266 3.15047E-01
 -1     17267 3.24380E-01
 -1     17272 3.15411E-01
 -1     17273 3.15774E-01
 -1     17274 3.25109E-01
 -1     17279 3.15888E-01
 -1     17280 3.16001E-01
 -1     17281 3.25336E-01
 -1     17286 3.16001E-01
 -1     17287 3.16001E-01
 -1     17288 3.25336E-01
 -1     17293 3.15888E-01
 -1     17294 3.15774E-01
 -1     17295 3.25109E-01
 -1     17300 3.15411E-01
 -1     17301 3.15047E-01
 -1     17302 3.24380E-01
 -1     17307 3.14362E-01
 -1     17308 3.13677E-01
 -1     17309 3.22997E-01
 -1     17314 3.12555E-01
 -1     17315 3.11432E-01
 -1     17316 3.20717E-01
 -1     17321 3.09618E-01
 -1     17325 3.09618E-01
 -1     17326 3.11432E-01
 -1     17327 3.20717E-01
 -1     17332 3.12555E-01
 -1     17333 3.13677E-01
 -1     17334 3.22997E-01
 -1     17339 3.14362E-01
 -1     17340 3.15047E-01
 -1     17341 3.24380E-01
 -1     17346 3.15411E-01
 -1     17347 3.15774E-01
 -1     17348 3.25109E-01
 -1     17353 3.15888E-01
 -1     17354 3.16001E-01
 -1     17355 3.25336E-01
 -1     17360 3.16001E-01
 -1     17361 3.16001E-01
 -1     17362 3.25336E-01
 -1     17367 3.15888E-01
 -1     17368 3.15774E-01
 -1     17369 3.25109E-01
 -1     17374 3.15411E-01
 -1     17375 3.15047E-01
 -1     17376 3.24380E-01
 -1     17381 3.14362E-01
 -1     17382 3.13677E-01
 -1     17383 3.22997E-01
 -1     17388 3.12555E-01
 -1     17389 3.11432E-01
 -1     17390 3.20717E-01
 -1     17395 3.09618E-01
 -1     17399 3.09618E-01
 -1     17400 3.11432E-01
 -1     17401 3.20717E-01
 -1     17406 3.12555E-01
 -1     17407 3.13677E-01
 -1     17408 3.22997E-01
 -1     17413 3.14362E-01
 -1     17414 3.15047E-01
 -1     17415 3.24380E-01
 -1     17420 3.15411E-01
 -1     17421 3.15774E-01
 -1     17422 3.25109E-01
 -1     17427 3.15888E-01
 -1     17428 3.16001E-01
 -1     17429 3.25336E-01
 -1     17434 3.16001E-01
 -1     17435 3.16001E-01
 -1     17436 3.25336E-01
 -1     17441 3.15888E-01
 -1     17442 3.15774E-01
 -1     17443 3.25109E-01
 -1     17448 3.15411E-01
 -1     17449 3.15047E-01
 -1     17450 3.24380E-01
 -1     17455 3.14362E-01
 -1     17456 3.13677E-01
 -1     17457 3.22997E-01
 -1     17462 3.12555E-01
 -1     17463 3.11432E-01
 -1     17464 3.20717E-01
 -1     17469 3.09618E-01
 -1     17473 3.09618E-01
 -1     17474 3.11432E-01
 -1     17475 3.20717E-01
 -1     17480 3.12555E-01
 -1     17481 3.13677E-01
 -1     17482 3.22997E-01
 -1     17487 3.14362E-01
 -1     17488 3.15047E-01
 -1     17489 3.24380E-01
 -1     17494 3.15411E-01
 -1     17495 3.15774E-01
 -1     17496 3.25109E-01
 -1     17501 3.15888E-01
 -1     17502 3.16001E-01
 -1     17503 3.25336E-01
 -1     17508 3.16001E-01
 -1     17509 3.16001E-01
 -1     17510 3.25336E-01
 -1     17515 3.15888E-01
 -1     17516 3.15774E-01
 -1     17517 3.25109E-01
 -1     17522 3.15411E-01
 -1     17523 3.15047E-01
 -1     17524 3.24380E-01
 -1     17529 3.14362E-01
 -1     17530 3.13677E-01
 -1     17531 3.22997E-01
 -1     17536 3.12555E-01
 -1     17537 3.11432E-01
 -1     17538 3.20717E-01
 -1     17543 3.09618E-01
 -1     17547 3.09618E-01
 -1     17548 3.11432E-01
 -1     17549 3.20717E-01
 -1     17554 3.12555E-01
 -1     17555 3.13677E-01
 -1     17556 3.22997E-01
 -1     17561 3.14362E-01
 -1     17562 3.15047E-01
 -1     17563 3.24380E-01
 -1     17568 3.15411E-01
 -1     17569 3.15774E-01
 -1     17570 3.25109E-01
 -1     17575 3.15888E-01
 -1     17576 3.16001E-01
 -1     17577 3.25336E-01
 -1     17582 3.16001E-01
 -1     17583 3.16001E-01
 -1     17584 3.25336E-01
 -1     17589 3.15888E-01
 -1     17590 3.15774E-01
 -1     17591 3.25109E-01
 -1     17596 3.15411E-01
 -1     17597 3.15047E-01
 -1     17598 3.24380E-01
 -1     17603 3.14362E-01
 -1     17604 3.13677E-01
 -1     17605 3.22997E-01
 -1     17610 3.12555E-01
 -1     17611 3.11432E-01
 -1     17612 3.20717E-01
 -1     17617 3.09618E-01
 -1     17621 3.09618E-01
 -1     17622 3.11432E-01
 -1     17623 3.20717E-01
 -1     17628 3.12555E-01
 -1     17629 3.13677E-01
 -1     17630 3.22997E-01
 -1     17635 3.14362E-01
 -1     17636 3.15047E-01
 -1     17637 3.24380E-01
 -1     17642 3.15411E-01
 -1     17643 3.15774E-01
 -1     17644 3.25109E-01
 -1     17649 3.15888E-01
 -1     17650 3.16001E-01
 -1     17651 3.25336E-01
 -1     17656 3.16001E-01
 -1     17657 3.16001E-01
 -1     17658 3.25336E-01
 -1     17663 3.15888E-01
 -1     17664 3.15774E-01
 -1     17665 3.25109E-01
 -1     17670 3.15411E-01
 -1     17671 3.15047E-01
 -1     17672 3.24380E-01
 -1     17677 3.14362E-01
 -1     17678 3.13677E-01
 -1     17679 3.22997E-01
 -1     17684 3.12555E-01
 -1     17685 3.11432E-01
 -1     17686 3.20717E-01
 -1     17691 3.09618E-01
 -1     17695 3.11432E-01
 -1     17699 3.13677E-01
 -1     17703 3.15047E-01
 -1     17707 3.15774E-01
 -1     17711 3.16001E-01
 -1     17715 3.16001E-01
 -1     17719 3.15774E-01
 -1     17723 3.15047E-01
 -1     17727 3.13677E-01
 -1     17731 3.11432E-01
 -1     17737 2.92556E-01
 -1     17738 2.94278E-01
 -1     17739 3.02855E-01
 -1     17744 2.95364E-01
 -1     17745 2.96449E-01
 -1     17746 3.05063E-01
 -1     17751 2.97119E-01
 -1     17752 2.97789E-01
 -1     17753 3.06418E-01
 -1     17758 2.98148E-01
 -1     17759 2.98507E-01
 -1     17760 3.07140E-01
 -1     17765 2.98619E-01
 -1     17766 2.98732E-01
 -1     17767 3.07367E-01
 -1     17772 2.98732E-01
 -1     17773 2.98732E-01
 -1     17774 3.07367E-01
 -1     17779 2.98619E-01
 -1     17780 2.98507E-01
 -1     17781 3.07140E-01
 -1     17786 2.98148E-01
 -1     17787 2.97789E-01
 -1     17788 3.06418E-01
 -1     17793 2.97119E-01
 -1     17794 2.96449E-01
 -1     17795 3.05063E-01
 -1     17800 2.95364E-01
 -1     17801 2.94278E-01
 -1     17802 3.02855E-01
 -1     17807 2.92556E-01
 -1     17811 2.92556E-01
 -1     17812 2.94278E-01
 -1     17813 3.02855E-01
 -1     17818 2.95364E-01
 -1     17819 2.96449E-01
 -1     17820 3.05063E-01
 -1     17825 2.97119E-01
 -1     17826 2.97789E-01
 -1     17827 3.06418E-01
 -1     17832 2.98148E-01
 -1     17833 2.98507E-01
 -1     17834 3.07140E-01
 -1     17839 2.98619E-01
 -1     17840 2.98732E-01
 -1     17841 3.07367E-01
 -1     17846 2.98732E-01
 -1     17847 2.98732E-01
 -1     17848 3.07367E-01
 -1     17853 2.98619E-01
 -1     17854 2.98507E-01
 -1     17855 3.07140E-01
 -1     17860 2.98148E-01
 -1     17861 2.97789E-01
 -1     17862 3.06418E-01
 -1     17867 2.97119E-01
 -1     17868 2.96449E-01
 -1     17869 3.05063E-01
 -1     17874 2.95364E-01
 -1     17875 2.94278E-01
 -1     17876 3.02855E-01
 -1     17881 2.92556E-01
 -1     17885 2.92556E-01
 -1     17886 2.94278E-01
 -1     17887 3.02855E-01
 -1     17892 2.95364E-01
 -1     17893 2.96449E-01
 -1     17894 3.05063E-01
 -1     17899 2.97119E-01
 -1     17900 2.97789E-01
 -1     17901 3.06418E-01
 -1     17906 2.98148E-01
 -1     17907 2.98507E-01
 -1     17908 3.07140E-01
 -1     17913 2.98619E-01
 -1     17914 2.98732E-01
 -1     17915 3.07367E-01
 -1     17920 2.98732E-01
 -1     17921 2.98732E-01
 -1     17922 3.07367E-01
 -1     17927 2.98619E-01
 -1     17928 2.98507E-01
 -1     17929 3.07140E-01
 -1     17934 2.98148E-01
 -1     17935 2.97789E-01
 -1     17936 3.06418E-01
 -1     17941 2.97119E-01
 -1     17942 2.96449E-01
 -1     17943 3.05063E-01
 -1     17948 2.95364E-01
 -1     17949 2.94278E-01
 -1     17950 3.02855E-01
 -1     17955 2.92556E-01
 -1     17959 2.92556E-01
 -1     17960 2.94278E-01
 -1     17961 3.02855E-01
 -1     17966 2.95364E-01
 -1     17967 2.96449E-01
 -1     17968 3.05063E-01
 -1     17973 2.97119E-01
 -1     17974 2.97789E-01
 -1     17975 3.06418E-01
 -1     17980 2.98148E-01
 -1     17981 2.98507E-01
 -1     17982 3.07140E-01
 -1     17987 2.98619E-01
 -1     17988 2.98732E-01
 -1     17989 3.07367E-01
 -1     17994 2.98732E-01
 -1     17995 2.98732E-01
 -1     17996 3.07367E-01
 -1     18001 2.98619E-01
 -1     18002 2.98507E-01
 -1     18003 3.07140E-01
 -1     18008 2.98148E-01
 -1     18009 2.97789E-01
 -1     18010 3.06418E-01
 -1     18015 2.97119E-01
 -1     18016 2.96449E-01
 -1     18017 3.05063E-01
 -1     18022 2.95364E-01
 -1     18023 2.94278E-01
 -1     18024 3.02855E-01
 -1     18029 2.92556E-01
 -1     18033 2.92556E-01
 -1     18034 2.94278E-01
 -1     18035 3.02855E-01
 -1     18040 2.95364E-01
 -1     18041 2.96449E-01
 -1     18042 3.05063E-01
 -1     18047 2.97119E-01
 -1     18048 2.97789E-01
 -1     18049 3.06418E-01
 -1     18054 2.98148E-01
 -1     18055 2.98507E-01
 -1     18056 3.07140E-01
 -1     18061 2.98619E-01
 -1     18062 2.98732E-01
 -1     18063 3.07367E-01
 -1     18068 2.98732E-01
 -1     18069 2.98732E-01
 -1     18070 3.07367E-01
 -1     18075 2.98619E-01
 -1     18076 2.98507E-01
 -1     18077 3.07140E-01
 -1     18082 2.98148E-01
 -1     18083 2.97789E-01
 -1     18084 3.06418E-01
 -1     18089 2.97119E-01
 -1     18090 2.96449E-01
 -1     18091 3.05063E-01
 -1     18096 2.95364E-01
 -1     18097 2.94278E-01
 -1     18098 3.02855E-01
 -1     18103 2.92556E-01
 -1     18107 2.92556E-01
 -1     18108 2.94278E-01
 -1     18109 3.02855E-01
 -1     18114 2.95364E-01
 -1     18115 2.96449E-01
 -1     18116 3.05063E-01
 -1     18121 2.97119E-01
 -1     18122 2.97789E-01
 -1     18123 3.06418E-01
 -1     18128 2.98148E-01
 -1     18129 2.98507E-01
 -1     18130 3.07140E-01
 -1     18135 2.98619E-01
 -1     18136 2.98732E-01
 -1     18137 3.07367E-01
 -1     18142 2.98732E-01
 -1     18143 2.98732E-01
 -1     18144 3.07367E-01
 -1     18149 2.98619E-01
 -1     18150 2.98507E-01
 -1     18151 3.07140E-01
 -1     18156 2.98148E-01
 -1     18157 2.97789E-01
 -1     18158 3.06418E-01
 -1     18163 2.97119E-01
 -1     18164 2.96449E-01
 -1     18165 3.05063E-01
 -1     18170 2.95364E-01
 -1     18171 2.94278E-01
 -1     18172 3.02855E-01
 -1     18177 2.92556E-01
 -1     18181 2.92556E-01
 -1     18182 2.94278E-01
 -1     18183 3.02855E-01
 -1     18188 2.95364E-01
 -1     18189 2.96449E-01
 -1     18190 3.05063E-01
 -1     18195 2.97119E-01
 -1     18196 2.97789E-01
 -1     18197 3.06418E-01
 -1     18202 2.98148E-01
 -1     18203 2.98507E-01
 -1     18204 3.07140E-01
 -1     18209 2.98619E-01
 -1     18210 2.98732E-01
 -1     18211 3.07367E-01
 -1     18216 2.98732E-01
 -1     18217 2.98732E-01
 -1     18218 3.07367E-01
 -1     18223 2.98619E-01
 -1     18224 2.98507E-01
 -1     18225 3.07140E-01
 -1     18230 2.98148E-01
 -1     18231 2.97789E-01
 -1     18232 3.06418E-01
 -1     18237 2.97119E-01
 -1     18238 2.96449E-01
 -1     18239 3.05063E-01
 -1     18244 2.95364E-01
 -1     18245 2.94278E-01
 -1     18246 3.02855E-01
 -1     18251 2.92556E-01
 -1     18255 2.92556E-01
 -1     18256 2.94278E-01
 -1     18257 3.02855E-01
 -1     18262 2.95364E-01
 -1     18263 2.96449E-01
 -1     18264 3.05063E-01
 -1     18269 2.97119E-01
 -1     18270 2.97789E-01
 -1     18271 3.06418E-01
 -1     18276 2.98148E-01
 -1     18277 2.98507E-01
 -1     18278 3.07140E-01
 -1     18283 2.98619E-01
 -1     18284 2.98732E-01
 -1     18285 3.07367E-01
 -1     18290 2.98732E-01
 -1     18291 2.98732E-01
 -1     18292 3.07367E-01
 -1     18297 2.98619E-01
 -1     18298 2.98507E-01
 -1     18299 3.07140E-01
 -1     18304 2.98148E-01
 -1     18305 2.97789E-01
 -1     18306 3.06418E-01
 -1     18311 2.97119E-01
 -1     18312 2.96449E-01
 -1     18313 3.05063E-01
 -1     18318 2.95364E-01
 -1     18319 2.94278E-01
 -1     18320 3.02855E-01
 -1     18325 2.92556E-01
 -1     18329 2.92556E-01
 -1     18330 2.94278E-01
 -1     18331 3.02855E-01
 -1     18336 2.95364E-01
 -1     18337 2.96449E-01
 -1     18338 3.05063E-01
 -1     18343 2.97119E-01
 -1     18344 2.97789E-01
 -1     18345 3.06418E-01
 -1     18350 2.98148E-01
 -1     18351 2.98507E-01
 -1     18352 3.07140E-01
 -1     18357 2.98619E-01
 -1     18358 2.98732E-01
 -1     18359 3.07367E-01
 -1     18364 2.98732E-01
 -1     18365 2.98732E-01
 -1     18366 3.07367E-01
 -1     18371 2.98619E-01
 -1     18372 2.98507E-01
 -1     18373 3.07140E-01
 -1     18378 2.98148E-01
 -1     18379 2.97789E-01
 -1     18380 3.06418E-01
 -1     18385 2.97119E-01
 -1     18386 2.96449E-01
 -1     18387 3.05063E-01
 -1     18392 2.95364E-01
 -1     18393 2.94278E-01
 -1     18394 3.02855E-01
 -1     18399 2.92556E-01
 -1     18403 2.94278E-01
 -1     18407 2.96449E-01
 -1     18411 2.97789E-01
 -1     18415 2.98507E-01
 -1     18419 2.98732E-01
 -1     18423 2.98732E-01
 -1     18427 2.98507E-01
 -1     18431 2.97789E-01
 -1     18435 2.96449E-01
 -1     18439 2.94278E-01
 -1     18445 2.76756E-01
 -1     18446 2.78390E-01
 -1     18447 2.86334E-01
 -1     18452 2.79437E-01
 -1     18453 2.80485E-01
 -1     18454 2.88467E-01
 -1     18459 2.81137E-01
 -1     18460 2.81789E-01
 -1     18461 2.89789E-01
 -1     18466 2.82142E-01
 -1     18467 2.82495E-01
 -1     18468 2.90501E-01
 -1     18473 2.82606E-01
 -1     18474 2.82718E-01
 -1     18475 2.90725E-01
 -1     18480 2.82718E-01
 -1     18481 2.82718E-01
 -1     18482 2.90725E-01
 -1     18487 2.82606E-01
 -1     18488 2.82495E-01
 -1     18489 2.90501E-01
 -1     18494 2.82142E-01
 -1     18495 2.81789E-01
 -1     18496 2.89789E-01
 -1     18501 2.81137E-01
 -1     18502 2.80485E-01
 -1     18503 2.88467E-01
 -1     18508 2.79437E-01
 -1     18509 2.78390E-01
 -1     18510 2.86334E-01
 -1     18515 2.76756E-01
 -1     18519 2.76756E-01
 -1     18520 2.78390E-01
 -1     18521 2.86334E-01
 -1     18526 2.79437E-01
 -1     18527 2.80485E-01
 -1     18528 2.88467E-01
 -1     18533 2.81137E-01
 -1     18534 2.81789E-01
 -1     18535 2.89789E-01
 -1     18540 2.82142E-01
 -1     18541 2.82495E-01
 -1     18542 2.90501E-01
 -1     18547 2.82606E-01
 -1     18548 2.82718E-01
 -1     18549 2.90725E-01
 -1     18554 2.82718E-01
 -1     18555 2.82718E-01
 -1     18556 2.90725E-01
 -1     18561 2.82606E-01
 -1     18562 2.82495E-01
 -1     18563 2.90501E-01
 -1     18568 2.82142E-01
 -1     18569 2.81789E-01
 -1     18570 2.89789E-01
 -1     18575 2.81137E-01
 -1     18576 2.80485E-01
 -1     18577 2.88467E-01
 -1     18582 2.79437E-01
 -1     18583 2.78390E-01
 -1     18584 2.86334E-01
 -1     18589 2.76756E-01
 -1     18593 2.76756E-01
 -1     18594 2.78390E-01
 -1     18595 2.86334E-01
 -1     18600 2.79437E-01
 -1     18601 2.80485E-01
 -1     18602 2.88467E-01
 -1     18607 2.81137E-01
 -1     18608 2.81789E-01
 -1     18609 2.89789E-01
 -1     18614 2.82142E-01
 -1     18615 2.82495E-01
 -1     18616 2.90501E-01
 -1     18621 2.82606E-01
 -1     18622 2.82718E-01
 -1     18623 2.90725E-01
 -1     18628 2.82718E-01
 -1     18629 2.82718E-01
 -1     18630 2.90725E-01
 -1     18635 2.82606E-01
 -1     18636 2.82495E-01
 -1     18637 2.90501E-01
 -1     18642 2.82142E-01
 -1     18643 2.81789E-01
 -1     18644 2.89789E-01
 -1     18649 2.81137E-01
 -1     18650 2.80485E-01
 -1     18651 2.88467E-01
 -1     18656 2.79437E-01
 -1     18657 2.78390E-01
 -1     18658 2.86334E-01
 -1     18663 2.76756E-01
 -1     18667 2.76756E-01
 -1     18668 2.78390E-01
 -1     18669 2.86334E-01
 -1     18674 2.79437E-01
 -1     18675 2.80485E-01
 -1     18676 2.88467E-01
 -1     18681 2.81137E-01
 -1     18682 2.81789E-01
 -1     18683 2.89789E-01
 -1     18688 2.82142E-01
 -1     18689 2.82495E-01
 -1     18690 2.90501E-01
 -1     18695 2.82606E-01
 -1     18696 2.82718E-01
 -1     18697 2.90725E-01
 -1     18702 2.82718E-01
 -1     18703 2.82718E-01
 -1     18704 2.90725E-01
 -1     18709 2.82606E-01
 -1     18710 2.82495E-01
 -1     18711 2.90501E-01
 -1     18716 2.82142E-01
 -1     18717 2.81789E-01
 -1     18718 2.89789E-01
 -1     18723 2.81137E-01
 -1     18724 2.80485E-01
 -1     18725 2.88467E-01
 -1     18730 2.79437E-01
 -1     18731 2.78390E-01
 -1     18732 2.86334E-01
 -1     18737 2.76756E-01
 -1     18741 2.76756E-01
 -1     18742 2.78390E-01
 -1     18743 2.86334E-01
 -1     18748 2.79437E-01
 -1     18749 2.80485E-01
 -1     18750 2.88467E-01
 -1     18755 2.81137E-01
 -1     18756 2.81789E-01
 -1     18757 2.89789E-01
 -1     18762 2.82142E-01
 -1     18763 2.82495E-01
 -1     18764 2.90501E-01
 -1     18769 2.82606E-01
 -1     18770 2.82718E-01
 -1     18771 2.90725E-01
 -1     18776 2.82718E-01
 -1     18777 2.82718E-01
 -1     18778 2.90725E-01
 -1     18783 2.82606E-01
 -1     18784 2.82495E-01
 -1     18785 2.90501E-01
 -1     18790 2.82142E-01
 -1     18791 2.81789E-01
 -1     18792 2.89789E-01
 -1     18797 2.81137E-01
 -1     18798 2.80485E-01
 -1     18799 2.88467E-01
 -1     18804 2.79437E-01
 -1     18805 2.78390E-01
 -1     18806 2.86334E-01
 -1     18811 2.76756E-01
 -1     18815 2.76756E-01
 -1     18816 2.78390E-01
 -1     18817 2.86334E-01
 -1     18822 2.79437E-01
 -1     18823 2.80485E-01
 -1     18824 2.88467E-01
 -1     18829 2.81137E-01
 -1     18830 2.81789E-01
 -1     18831 2.89789E-01
 -1     18836 2.82142E-01
 -1     18837 2.82495E-01
 -1     18838 2.90501E-01
 -1     18843 2.82606E-01
 -1     18844 2.82718E-01
 -1     18845 2.90725E-01
 -1     18850 2.82718E-01
 -1     18851 2.82718E-01
 -1     18852 2.90725E-01
 -1     18857 2.82606E-01
 -1     18858 2.82495E-01
 -1     18859 2.90501E-01
 -1     18864 2.82142E-01
 -1     18865 2.81789E-01
 -1     18866 2.89789E-01
 -1     18871 2.81137E-01
 -1     18872 2.80485E-01
 -1     18873 2.88467E-01
 -1     18878 2.79437E-01
 -1     18879 2.78390E-01
 -1     18880 2.86334E-01
 -1     18885 2.76756E-01
 -1     18889 2.76756E-01
 -1     18890 2.78390E-01
 -1     18891 2.86334E-01
 -1     18896 2.79437E-01
 -1     18897 2.80485E-01
 -1     18898 2.88467E-01
 -1     18903 2.81137E-01
 -1     18904 2.81789E-01
 -1     18905 2.89789E-01
 -1     18910 2.82142E-01
 -1     18911 2.82495E-01
 -1     18912 2.90501E-01
 -1     18917 2.82606E-01
 -1     18918 2.82718E-01
 -1     18919 2.90725E-01
 -1     18924 2.82718E-01
 -1     18925 2.82718E-01
 -1     18926 2.90725E-01
 -1     18931 2.82606E-01
 -1     18932 2.82495E-01
 -1     18933 2.90501E-01
 -1     18938 2.82142E-01
 -1     18939 2.81789E-01
 -1     18940 2.89789E-01
 -1     18945 2.81137E-01
 -1     18946 2.80485E-01
 -1     18947 2.88467E-01
 -1     18952 2.79437E-01
 -1     18953 2.78390E-01
 -1     18954 2.86334E-01
 -1     18959 2.76756E-01
 -1     18963 2.76756E-01
 -1     18964 2.78390E-01
 -1     18965 2.86334E-01
 -1     18970 2.79437E-01
 -1     18971 2.80485E-01
 -1     18972 2.88467E-01
 -1     18977 2.81137E-01
 -1     18978 2.81789E-01
 -1     18979 2.89789E-01
 -1     18984 2.82142E-01
 -1     18985 2.82495E-01
 -1     18986 2.90501E-01
 -1     18991 2.82606E-01
 -1     18992 2.82718E-01
 -1     18993 2.90725E-01
 -1     18998 2.82718E-01
 -1     18999 2.82718E-01
 -1     19000 2.90725E-01
 -1     19005 2.82606E-01
 -1     19006 2.82495E-01
 -1     19007 2.90501E-01
 -1     19012 2.82142E-01
 -1     19013 2.81789E-01
 -1     19014 2.89789E-01
 -1     19019 2.81137E-01
 -1     19020 2.80485E-01
 -1     19021 2.88467E-01
 -1     19026 2.79437E-01
 -1     19027 2.78390E-01
 -1     19028 2.86334E-01
 -1     19033 2.76756E-01
 -1     19037 2.76756E-01
 -1     19038 2.78390E-01
 -1     19039 2.86334E-01
 -1     19044 2.79437E-01
 -1     19045 2.80485E-01
 -1     19046 2.88467E-01
 -1     19051 2.81137E-01
 -1     19052 2.81789E-01
 -1     19053 2.89789E-01
 -1     19058 2.82142E-01
 -1     19059 2.82495E-01
 -1     19060 2.90501E-01
 -1     19065 2.82606E-01
 -1     19066 2.82718E-01
 -1     19067 2.90725E-01
 -1     19072 2.82718E-01
 -1     19073 2.82718E-01
 -1     19074 2.90725E-01
 -1     19079 2.82606E-01
 -1     19080 2.82495E-01
 -1     19081 2.90501E-01
 -1     19086 2.82142E-01
 -1     19087 2.81789E-01
 -1     19088 2.89789E-01
 -1     19093 2.81137E-01
 -1     19094 2.80485E-01
 -1     19095 2.88467E-01
 -1     19100 2.79437E-01
 -1     19101 2.78390E-01
 -1     19102 2.86334E-01
 -1     19107 2.76756E-01
 -1     19111 2.78390E-01
 -1     19115 2.80485E-01
 -1     19119 2.81789E-01
 -1     19123 2.82495E-01
 -1     19127 2.82718E-01
 -1     19131 2.82718E-01
 -1     19135 2.82495E-01
 -1     19139 2.81789E-01
 -1     19143 2.80485E-01
 -1     19147 2.78390E-01
 -1     19153 2.62092E-01
 -1     19154 2.63641E-01
 -1     19155 2.71016E-01
 -1     19160 2.64649E-01
 -1     19161 2.65657E-01
 -1     19162 2.73071E-01
 -1     19167 2.66290E-01
 -1     19168 2.66924E-01
 -1     19169 2.74356E-01
 -1     19174 2.67269E-01
 -1     19175 2.67615E-01
 -1     19176 2.75055E-01
 -1     19181 2.67724E-01
 -1     19182 2.67834E-01
 -1     19183 2.75276E-01
 -1     19188 2.67834E-01
 -1     19189 2.67834E-01
 -1     19190 2.75276E-01
 -1     19195 2.67724E-01
 -1     19196 2.67615E-01
 -1     19197 2.75055E-01
 -1     19202 2.67269E-01
 -1     19203 2.66924E-01
 -1     19204 2.74356E-01
 -1     19209 2.66290E-01
 -1     19210 2.65657E-01
 -1     19211 2.73071E-01
 -1     19216 2.64649E-01
 -1     19217 2.63641E-01
 -1     19218 2.71016E-01
 -1     19223 2.62092E-01
 -1     19227 2.62092E-01
 -1     19228 2.63641E-01
 -1     19229 2.71016E-01
 -1     19234 2.64649E-01
 -1     19235 2.65657E-01
 -1     19236 2.73071E-01
 -1     19241 2.66290E-01
 -1     19242 2.66924E-01
 -1     19243 2.74356E-01
 -1     19248 2.67269E-01
 -1     19249 2.67615E-01
 -1     19250 2.75055E-01
 -1     19255 2.67724E-01
 -1     19256 2.67834E-01
 -1     19257 2.75276E-01
 -1     19262 2.67834E-01
 -1     19263 2.67834E-01
 -1     19264 2.75276E-01
 -1     19269 2.67724E-01
 -1     19270 2.67615E-01
 -1     19271 2.75055E-01
 -1     19276 2.67269E-01
 -1     19277 2.66924E-01
 -1     19278 2.74356E-01
 -1     19283 2.66290E-01
 -1     19284 2.65657E-01
 -1     19285 2.73071E-01
 -1     19290 2.64649E-01
 -1     19291 2.63641E-01
 -1     19292 2.71016E-01
 -1     19297 2.62092E-01
 -1     19301 2.62092E-01
 -1     19302 2.63641E-01
 -1     19303 2.71016E-01
 -1     19308 2.64649E-01
 -1     19309 2.65657E-01
 -1     19310 2.73071E-01
 -1     19315 2.66290E-01
 -1     19316 2.66924E-01
 -1     19317 2.74356E-01
 -1     19322 2.67269E-01
 -1     19323 2.67615E-01
 -1     19324 2.75055E-01
 -1     19329 2.67724E-01
 -1     19330 2.67834E-01
 -1     19331 2.75276E-01
 -1     19336 2.67834E-01
 -1     19337 2.67834E-01
 -1     19338 2.75276E-01
 -1     19343 2.67724E-01
 -1     19344 2.67615E-01
 -1     19345 2.75055E-01
 -1     19350 2.67269E-01
 -1     19351 2.66924E-01
 -1     19352 2.74356E-01
 -1     19357 2.66290E-01
 -1     19358 2.65657E-01
 -1     19359 2.73071E-01
 -1     19364 2.64649E-01
 -1     19365 2.63641E-01
 -1     19366 2.71016E-01
 -1     19371 2.62092E-01
 -1     19375 2.62092E-01
 -1     19376 2.63641E-01
 -1     19377 2.71016E-01
 -1     19382 2.64649E-01
 -1     19383 2.65657E-01
 -1     19384 2.73071E-01
 -1     19389 2.66290E-01
 -1     19390 2.66924E-01
 -1     19391 2.74356E-01
 -1     19396 2.67269E-01
 -1     19397 2.67615E-01
 -1     19398 2.75055E-01
 -1     19403 2.67724E-01
 -1     19404 2.67834E-01
 -1     19405 2.75276E-01
 -1     19410 2.67834E-01
 -1     19411 2.67834E-01
 -1     19412 2.75276E-01
 -1     19417 2.67724E-01
 -1     19418 2.67615E-01
 -1     19419 2.75055E-01
 -1     19424 2.67269E-01
 -1     19425 2.66924E-01
 -1     19426 2.74356E-01
 -1     19431 2.66290E-01
 -1     19432 2.65657E-01
 -1     19433 2.73071E-01
 -1     19438 2.64649E-01
 -1     19439 2.63641E-01
 -1     19440 2.71016E-01
 -1     19445 2.62092E-01
 -1     19449 2.62092E-01
 -1     19450 2.63641E-01
 -1     19451 2.71016E-01
 -1     19456 2.64649E-01
 -1     19457 2.65657E-01
 -1     19458 2.73071E-01
 -1     19463 2.66290E-01
 -1     19464 2.66924E-01
 -1     19465 2.74356E-01
 -1     19470 2.67269E-01
 -1     19471 2.67615E-01
 -1     19472 2.75055E-01
 -1     19477 2.67724E-01
 -1     19478 2.67834E-01
 -1     19479 2.75276E-01
 -1     19484 2.67834E-01
 -1     19485 2.67834E-01
 -1     19486 2.75276E-01
 -1     19491 2.67724E-01
 -1     19492 2.67615E-01
 -1     19493 2.75055E-01
 -1     19498 2.67269E-01
 -1     19499 2.66924E-01
 -1     19500 2.74356E-01
 -1     19505 2.66290E-01
 -1     19506 2.65657E-01
 -1     19507 2.73071E-01
 -1     19512 2.64649E-01
 -1     19513 2.63641E-01
 -1     19514 2.71016E-01
 -1     19519 2.62092E-01
 -1     19523 2.62092E-01
 -1     19524 2.63641E-01
 -1     19525 2.71016E-01
 -1     19530 2.64649E-01
 -1     19531 2.65657E-01
 -1     19532 2.73071E-01
 -1     19537 2.66290E-01
 -1     19538 2.66924E-01
 -1     19539 2.74356E-01
 -1     19544 2.67269E-01
 -1     19545 2.67615E-01
 -1     19546 2.75055E-01
 -1     19551 2.67724E-01
 -1     19552 2.67834E-01
 -1     19553 2.75276E-01
 -1     19558 2.67834E-01
 -1     19559 2.67834E-01
 -1     19560 2.75276E-01
 -1     19565 2.67724E-01
 -1     19566 2.67615E-01
 -1     19567 2.75055E-01
 -1     19572 2.67269E-01
 -1     19573 2.66924E-01
 -1     19574 2.74356E-01
 -1     19579 2.66290E-01
 -1     19580 2.65657E-01
 -1     19581 2.73071E-01
 -1     19586 2.64649E-01
 -1     19587 2.63641E-01
 -1     19588 2.71016E-01
 -1     19593 2.62092E-01
 -1     19597 2.62092E-01
 -1     19598 2.63641E-01
 -1     19599 2.71016E-01
 -1     19604 2.64649E-01
 -1     19605 2.65657E-01
 -1     19606 2.73071E-01
 -1     19611 2.66290E-01
 -1     19612 2.66924E-01
 -1     19613 2.74356E-01
 -1     19618 2.67269E-01
 -1     19619 2.67615E-01
 -1     19620 2.75055E-01
 -1     19625 2.67724E-01
 -1     19626 2.67834E-01
 -1     19627 2.75276E-01
 -1     19632 2.67834E-01
 -1     19633 2.67834E-01
 -1     19634 2.75276E-01
 -1     19639 2.67724E-01
 -1     19640 2.67615E-01
 -1     19641 2.75055E-01
 -1     19646 2.67269E-01
 -1     19647 2.66924E-01
 -1     19648 2.74356E-01
 -1     19653 2.66290E-01
 -1     19654 2.65657E-01
 -1     19655 2.73071E-01
 -1     19660 2.64649E-01
 -1     19661 2.63641E-01
 -1     19662 2.71016E-01
 -1     19667 2.62092E-01
 -1     19671 2.62092E-01
 -1     19672 2.63641E-01
 -1     19673 2.71016E-01
 -1     19678 2.64649E-01
 -1     19679 2.65657E-01
 -1     19680 2.73071E-01
 -1     19685 2.66290E-01
 -1     19686 2.66924E-01
 -1     19687 2.74356E-01
 -1     19692 2.67269E-01
 -1     19693 2.67615E-01
 -1     19694 2.75055E-01
 -1     19699 2.67724E-01
 -1     19700 2.67834E-01
 -1     19701 2.75276E-01
 -1     19706 2.67834E-01
 -1     19707 2.67834E-01
 -1     19708 2.75276E-01
 -1     19713 2.67724E-01
 -1     19714 2.67615E-01
 -1     19715 2.75055E-01
 -1     19720 2.67269E-01
 -1     19721 2.66924E-01
 -1     19722 2.74356E-01
 -1     19727 2.66290E-01
 -1     19728 2.65657E-01
 -1     19729 2.73071E-01
 -1     19734 2.64649E-01
 -1     19735 2.63641E-01
 -1     19736 2.71016E-01
 -1     19741 2.62092E-01
 -1     19745 2.62092E-01
 -1     19746 2.63641E-01
 -1     19747 2.71016E-01
 -1     19752 2.64649E-01
 -1     19753 2.65657E-01
 -1     19754 2.73071E-01
 -1     19759 2.66290E-01
 -1     19760 2.66924E-01
 -1     19761 2.74356E-01
 -1     19766 2.67269E-01
 -1     19767 2.67615E-01
 -1     19768 2.75055E-01
 -1     19773 2.67724E-01
 -1     19774 2.67834E-01
 -1     19775 2.75276E-01
 -1     19780 2.67834E-01
 -1     19781 2.67834E-01
 -1     19782 2.75276E-01
 -1     19787 2.67724E-01
 -1     19788 2.67615E-01
 -1     19789 2.75055E-01
 -1     19794 2.67269E-01
 -1     19795 2.66924E-01
 -1     19796 2.74356E-01
 -1     19801 2.66290E-01
 -1     19802 2.65657E-01
 -1     19803 2.73071E-01
 -1     19808 2.64649E-01
 -1     19809 2.63641E-01
 -1     19810 2.71016E-01
 -1     19815 2.62092E-01
 -1     19819 2.63641E-01
 -1     19823 2.65657E-01
 -1     19827 2.66924E-01
 -1     19831 2.67615E-01
 -1     19835 2.67834E-01
 -1     19839 2.67834E-01
 -1     19843 2.67615E-01
 -1     19847 2.66924E-01
 -1     19851 2.65657E-01
 -1     19855 2.63641E-01
 -1     19861 2.48453E-01
 -1     19862 2.49921E-01
 -1     19863 2.56781E-01
 -1     19868 2.50890E-01
 -1     19869 2.51858E-01
 -1     19870 2.58758E-01
 -1     19875 2.52471E-01
 -1     19876 2.53084E-01
 -1     19877 2.60004E-01
 -1     19882 2.53421E-01
 -1     19883 2.53758E-01
 -1     19884 2.60686E-01
 -1     19889 2.53865E-01
 -1     19890 2.53972E-01
 -1     19891 2.60903E-01
 -1     19896 2.53972E-01
 -1     19897 2.53972E-01
 -1     19898 2.60903E-01
 -1     19903 2.53865E-01
 -1     19904 2.53758E-01
 -1     19905 2.60686E-01
 -1     19910 2.53421E-01
 -1     19911 2.53084E-01
 -1     19912 2.60004E-01
 -1     19917 2.52471E-01
 -1     19918 2.51858E-01
 -1     19919 2.58758E-01
 -1     19924 2.50890E-01
 -1     19925 2.49921E-01
 -1     19926 2.56781E-01
 -1     19931 2.48453E-01
 -1     19935 2.48453E-01
 -1     19936 2.49921E-01
 -1     19937 2.56781E-01
 -1     19942 2.50890E-01
 -1     19943 2.51858E-01
 -1     19944 2.58758E-01
 -1     19949 2.52471E-01
 -1     19950 2.53084E-01
 -1     19951 2.60004E-01
 -1     19956 2.53421E-01
 -1     19957 2.53758E-01
 -1     19958 2.60686E-01
 -1     19963 2.53865E-01
 -1     19964 2.53972E-01
 -1     19965 2.60903E-01
 -1     19970 2.53972E-01
 -1     19971 2.53972E-01
 -1     19972 2.60903E-01
 -1     19977 2.53865E-01
 -1     19978 2.53758E-01
 -1     19979 2.60686E-01
 -1     19984 2.53421E-01
 -1     19985 2.53084E-01
 -1     19986 2.60004E-01
 -1     19991 2.52471E-01
 -1     19992 2.51858E-01
 -1     19993 2.58758E-01
 -1     19998 2.50890E-01
 -1     19999 2.49921E-01
 -1     20000 2.56781E-01
 -1     20005 2.48453E-01
 -1     20009 2.48453E-01
 -1     20010 2.49921E-01
 -1     20011 2.56781E-01
 -1     20016 2.50890E-01
 -1     20017 2.51858E-01
 -1     20018 2.58758E-01
 -1     20023 2.52471E-01
 -1     20024 2.53084E-01
 -1     20025 2.60004E-01
 -1     20030 2.53421E-01
 -1     20031 2.53758E-01
 -1     20032 2.60686E-01
 -1     20037 2.53865E-01
 -1     20038 2.53972E-01
 -1     20039 2.60903E-01
 -1     20044 2.53972E-01
 -1     20045 2.53972E-01
 -1     20046 2.60903E-01
 -1     20051 2.53865E-01
 -1     20052 2.53758E-01
 -1     20053 2.60686E-01
 -1     20058 2.53421E-01
 -1     20059 2.53084E-01
 -1     20060 2.60004E-01
 -1     20065 2.52471E-01
 -1     20066 2.51858E-01
 -1     20067 2.58758E-01
 -1     20072 2.50890E-01
 -1     20073 2.49921E-01
 -1     20074 2.56781E-01
 -1     20079 2.48453E-01
 -1     20083 2.48453E-01
 -1     20084 2.49921E-01
 -1     20085 2.56781E-01
 -1     20090 2.50890E-01
 -1     20091 2.51858E-01
 -1     20092 2.58758E-01
 -1     20097 2.52471E-01
 -1     20098 2.53084E-01
 -1     20099 2.60004E-01
 -1     20104 2.53421E-01
 -1     20105 2.53758E-01
 -1     20106 2.60686E-01
 -1     20111 2.53865E-01
 -1     20112 2.53972E-01
 -1     20113 2.60903E-01
 -1     20118 2.53972E-01
 -1     20119 2.53972E-01
 -1     20120 2.60903E-01
 -1     20125 2.53865E-01
 -1     20126 2.53758E-01
 -1     20127 2.60686E-01
 -1     20132 2.53421E-01
 -1     20133 2.53084E-01
 -1     20134 2.60004E-01
 -1     20139 2.52471E-01
 -1     20140 2.51858E-01
 -1     20141 2.58758E-01
 -1     20146 2.50890E-01
 -1     20147 2.49921E-01
 -1     20148 2.56781E-01
 -1     20153 2.48453E-01
 -1     20157 2.48453E-01
 -1     20158 2.49921E-01
 -1     20159 2.56781E-01
 -1     20164 2.50890E-01
 -1     20165 2.51858E-01
 -1     20166 2.58758E-01
 -1     20171 2.52471E-01
 -1     20172 2.53084E-01
 -1     20173 2.60004E-01
 -1     20178 2.53421E-01
 -1     20179 2.53758E-01
 -1     20180 2.60686E-01
 -1     20185 2.53865E-01
 -1     20186 2.53972E-01
 -1     20187 2.60903E-01
 -1     20192 2.53972E-01
 -1     20193 2.53972E-01
 -1     20194 2.60903E-01
 -1     20199 2.53865E-01
 -1     20200 2.53758E-01
 -1     20201 2.60686E-01
 -1     20206 2.53421E-01
 -1     20207 2.53084E-01
 -1     20208 2.60004E-01
 -1     20213 2.52471E-01
 -1     20214 2.51858E-01
 -1     20215 2.58758E-01
 -1     20220 2.50890E-01
 -1     20221 2.49921E-01
 -1     20222 2.56781E-01
 -1     20227 2.48453E-01
 -1     20231 2.48453E-01
 -1     20232 2.49921E-01
 -1     20233 2.56781E-01
 -1     20238 2.50890E-01
 -1     20239 2.51858E-01
 -1     20240 2.58758E-01
 -1     20245 2.52471E-01
 -1     20246 2.53084E-01
 -1     20247 2.60004E-01
 -1     20252 2.53421E-01
 -1     20253 2.53758E-01
 -1     20254 2.60686E-01
 -1     20259 2.53865E-01
 -1     20260 2.53972E-01
 -1     20261 2.60903E-01
 -1     20266 2.53972E-01
 -1     20267 2.53972E-01
 -1     20268 2.60903E-01
 -1     20273 2.53865E-01
 -1     20274 2.53758E-01
 -1     20275 2.60686E-01
 -1     20280 2.53421E-01
 -1     20281 2.53084E-01
 -1     20282 2.60004E-01
 -1     20287 2.52471E-01
 -1     20288 2.51858E-01
 -1     20289 2.58758E-01
 -1     20294 2.50890E-01
 -1     20295 2.49921E-01
 -1     20296 2.56781E-01
 -1     20301 2.48453E-01
 -1     20305 2.48453E-01
 -1     20306 2.49921E-01
 -1     20307 2.56781E-01
 -1     20312 2.50890E-01
 -1     20313 2.51858E-01
 -1     20314 2.58758E-01
 -1     20319 2.52471E-01
 -1     20320 2.53084E-01
 -1     20321 2.60004E-01
 -1     20326 2.53421E-01
 -1     20327 2.53758E-01
 -1     20328 2.60686E-01
 -1     20333 2.53865E-01
 -1     20334 2.53972E-01
 -1     20335 2.60903E-01
 -1     20340 2.53972E-01
 -1     20341 2.53972E-01
 -1     20342 2.60903E-01
 -1     20347 2.53865E-01
 -1     20348 2.53758E-01
 -1     20349 2.60686E-01
 -1     20354 2.53421E-01
 -1     20355 2.53084E-01
 -1     20356 2.60004E-01
 -1     20361 2.52471E-01
 -1     20362 2.51858E-01
 -1     20363 2.58758E-01
 -1     20368 2.50890E-01
 -1     20369 2.49921E-01
 -1     20370 2.56781E-01
 -1     20375 2.48453E-01
 -1     20379 2.48453E-01
 -1     20380 2.49921E-01
 -1     20381 2.56781E-01
 -1     20386 2.50890E-01
 -1     20387 2.51858E-01
 -1     20388 2.58758E-01
 -1     20393 2.52471E-01
 -1     20394 2.53084E-01
 -1     20395 2.60004E-01
 -1     20400 2.53421E-01
 -1     20401 2.53758E-01
 -1     20402 2.60686E-01
 -1     20407 2.53865E-01
 -1     20408 2.53972E-01
 -1     20409 2.60903E-01
 -1     20414 2.53972E-01
 -1     20415 2.53972E-01
 -1     20416 2.60903E-01
 -1     20421 2.53865E-01
 -1     20422 2.53758E-01
 -1     20423 2.60686E-01
 -1     20428 2.53421E-01
 -1     20429 2.53084E-01
 -1     20430 2.60004E-01
 -1     20435 2.52471E-01
 -1     20436 2.51858E-01
 -1     20437 2.58758E-01
 -1     20442 2.50890E-01
 -1     20443 2.49921E-01
 -1     20444 2.56781E-01
 -1     20449 2.48453E-01
 -1     20453 2.48453E-01
 -1     20454 2.49921E-01
 -1     20455 2.56781E-01
 -1     20460 2.50890E-01
 -1     20461 2.51858E-01
 -1     20462 2.58758E-01
 -1     20467 2.52471E-01
 -1     20468 2.53084E-01
 -1     20469 2.60004E-01
 -1     20474 2.53421E-01
 -1     20475 2.53758E-01
 -1     20476 2.60686E-01
 -1     20481 2.53865E-01
 -1     20482 2.53972E-01
 -1     20483 2.60903E-01
 -1     20488 2.53972E-01
 -1     20489 2.53972E-01
 -1     20490 2.60903E-01
 -1     20495 2.53865E-01
 -1     20496 2.53758E-01
 -1     20497 2.60686E-01
 -1     20502 2.53421E-01
 -1     20503 2.53084E-01
 -1     20504 2.60004E-01
 -1     20509 2.52471E-01
 -1     20510 2.51858E-01
 -1     20511 2.58758E-01
 -1     20516 2.50890E-01
 -1     20517 2.49921E-01
 -1     20518 2.56781E-01
 -1     20523 2.48453E-01
 -1     20527 2.49921E-01
 -1     20531 2.51858E-01
 -1     20535 2.53084E-01
 -1     20539 2.53758E-01
 -1     20543 2.53972E-01
 -1     20547 2.53972E-01
 -1     20551 2.53758E-01
 -1     20555 2.53084E-01
 -1     20559 2.51858E-01
 -1     20563 2.49921E-01
 -1     20569 2.35744E-01
 -1     20570 2.37136E-01
 -1     20571 2.43529E-01
 -1     20576 2.38064E-01
 -1     20577 2.38992E-01
 -1     20578 2.45425E-01
 -1     20583 2.39584E-01
 -1     20584 2.40176E-01
 -1     20585 2.46630E-01
 -1     20590 2.40503E-01
 -1     20591 2.40831E-01
 -1     20592 2.47294E-01
 -1     20597 2.40936E-01
 -1     20598 2.41041E-01
 -1     20599 2.47506E-01
 -1     20604 2.41041E-01
 -1     20605 2.41041E-01
 -1     20606 2.47506E-01
 -1     20611 2.40936E-01
 -1     20612 2.40831E-01
 -1     20613 2.47294E-01
 -1     20618 2.40503E-01
 -1     20619 2.40176E-01
 -1     20620 2.46630E-01
 -1     20625 2.39584E-01
 -1     20626 2.38992E-01
 -1     20627 2.45425E-01
 -1     20632 2.38064E-01
 -1     20633 2.37136E-01
 -1     20634 2.43529E-01
 -1     20639 2.35744E-01
 -1     20643 2.35744E-01
 -1     20644 2.37136E-01
 -1     20645 2.43529E-01
 -1     20650 2.38064E-01
 -1     20651 2.38992E-01
 -1     20652 2.45425E-01
 -1     20657 2.39584E-01
 -1     20658 2.40176E-01
 -1     20659 2.46630E-01
 -1     20664 2.40503E-01
 -1     20665 2.40831E-01
 -1     20666 2.47294E-01
 -1     20671 2.40936E-01
 -1     20672 2.41041E-01
 -1     20673 2.47506E-01
 -1     20678 2.41041E-01
 -1     20679 2.41041E-01
 -1     20680 2.47506E-01
 -1     20685 2.40936E-01
 -1     20686 2.40831E-01
 -1     20687 2.47294E-01
 -1     20692 2.40503E-01
 -1     20693 2.40176E-01
 -1     20694 2.46630E-01
 -1     20699 2.39584E-01
 -1     20700 2.38992E-01
 -1     20701 2.45425E-01
 -1     20706 2.38064E-01
 -1     20707 2.37136E-01
 -1     20708 2.43529E-01
 -1     20713 2.35744E-01
 -1     20717 2.35744E-01
 -1     20718 2.37136E-01
 -1     20719 2.43529E-01
 -1     20724 2.38064E-01
 -1     20725 2.38992E-01
 -1     20726 2.45425E-01
 -1     20731 2.39584E-01
 -1     20732 2.40176E-01
 -1     20733 2.46630E-01
 -1     20738 2.40503E-01
 -1     20739 2.40831E-01
 -1     20740 2.47294E-01
 -1     20745 2.40936E-01
 -1     20746 2.41041E-01
 -1     20747 2.47506E-01
 -1     20752 2.41041E-01
 -1     20753 2.41041E-01
 -1     20754 2.47506E-01
 -1     20759 2.40936E-01
 -1     20760 2.40831E-01
 -1     20761 2.47294E-01
 -1     20766 2.40503E-01
 -1     20767 2.40176E-01
 -1     20768 2.46630E-01
 -1     20773 2.39584E-01
 -1     20774 2.38992E-01
 -1     20775 2.45425E-01
 -1     20780 2.38064E-01
 -1     20781 2.37136E-01
 -1     20782 2.43529E-01
 -1     20787 2.35744E-01
 -1     20791 2.35744E-01
 -1     20792 2.37136E-01
 -1     20793 2.43529E-01
 -1     20798 2.38064E-01
 -1     20799 2.38992E-01
 -1     20800 2.45425E-01
 -1     20805 2.39584E-01
 -1     20806 2.40176E-01
 -1     20807 2.46630E-01
 -1     20812 2.40503E-01
 -1     20813 2.40831E-01
 -1     20814 2.47294E-01
 -1     20819 2.40936E-01
 -1     20820 2.41041E-01
 -1     20821 2.47506E-01
 -1     20826 2.41041E-01
 -1     20827 2.41041E-01
 -1     20828 2.47506E-01
 -1     20833 2.40936E-01
 -1     20834 2.40831E-01
 -1     20835 2.47294E-01
 -1     20840 2.40503E-01
 -1     20841 2.40176E-01
 -1     20842 2.46630E-01
 -1     20847 2.39584E-01
 -1     20848 2.38992E-01
 -1     20849 2.45425E-01
 -1     20854 2.38064E-01
 -1     20855 2.37136E-01
 -1     20856 2.43529E-01
 -1     20861 2.35744E-01
 -1     20865 2.35744E-01
 -1     20866 2.37136E-01
 -1     20867 2.43529E-01
 -1     20872 2.38064E-01
 -1     20873 2.38992E-01
 -1     20874 2.45425E-01
 -1     20879 2.39584E-01
 -1     20880 2.40176E-01
 -1     20881 2.46630E-01
 -1     20886 2.40503E-01
 -1     20887 2.40831E-01
 -1     20888 2.47294E-01
 -1     20893 2.40936E-01
 -1     20894 2.41041E-01
 -1     20895 2.47506E-01
 -1     20900 2.41041E-01
 -1     20901 2.41041E-01
 -1     20902 2.47506E-01
 -1     20907 2.40936E-01
 -1     20908 2.40831E-01
 -1     20909 2.47294E-01
 -1     20914 2.40503E-01
 -1     20915 2.40176E-01
 -1     20916 2.46630E-01
 -1     20921 2.39584E-01
 -1     20922 2.38992E-01
 -1     20923 2.45425E-01
 -1     20928 2.38064E-01
 -1     20929 2.37136E-01
 -1     20930 2.43529E-01
 -1     20935 2.35744E-01
 -1     20939 2.35744E-01
 -1     20940 2.37136E-01
 -1     20941 2.43529E-01
 -1     20946 2.38064E-01
 -1     20947 2.38992E-01
 -1     20948 2.45425E-01
 -1     20953 2.39584E-01
 -1     20954 2.40176E-01
 -1     20955 2.46630E-01
 -1     20960 2.40503E-01
 -1     20961 2.40831E-01
 -1     20962 2.47294E-01
 -1     20967 2.40936E-01
 -1     20968 2.41041E-01
 -1     20969 2.47506E-01
 -1     20974 2.41041E-01
 -1     20975 2.41041E-01
 -1     20976 2.47506E-01
 -1     20981 2.40936E-01
 -1     20982 2.40831E-01
 -1     20983 2.47294E-01
 -1     20988 2.40503E-01
 -1     20989 2.40176E-01
 -1     20990 2.46630E-01
 -1     20995 2.39584E-01
 -1     20996 2.38992E-01
 -1     20997 2.45425E-01
 -1     21002 2.38064E-01
 -1     21003 2.37136E-01
 -1     21004 2.43529E-01
 -1     21009 2.35744E-01
 -1     21013 2.35744E-01
 -1     21014 2.37136E-01
 -1     21015 2.43529E-01
 -1     21020 2.38064E-01
 -1     21021 2.38992E-01
 -1     21022 2.45425E-01
 -1     21027 2.39584E-01
 -1     21028 2.40176E-01
 -1     21029 2.46630E-01
 -1     21034 2.40503E-01
 -1     21035 2.40831E-01
 -1     21036 2.47294E-01
 -1     21041 2.40936E-01
 -1     21042 2.41041E-01
 -1     21043 2.47506E-01
 -1     21048 2.41041E-01
 -1     21049 2.41041E-01
 -1     21050 2.47506E-01
 -1     21055 2.40936E-01
 -1     21056 2.40831E-01
 -1     21057 2.47294E-01
 -1     21062 2.40503E-01
 -1     21063 2.40176E-01
 -1     21064 2.46630E-01
 -1     21069 2.39584E-01
 -1     21070 2.38992E-01
 -1     21071 2.45425E-01
 -1     21076 2.38064E-01
 -1     21077 2.37136E-01
 -1     21078 2.43529E-01
 -1     21083 2.35744E-01
 -1     21087 2.35744E-01
 -1     21088 2.37136E-01
 -1     21089 2.43529E-01
 -1     21094 2.38064E-01
 -1     21095 2.38992E-01
 -1     21096 2.45425E-01
 -1     21101 2.39584E-01
 -1     21102 2.40176E-01
 -1     21103 2.46630E-01
 -1     21108 2.40503E-01
 -1     21109 2.40831E-01
 -1     21110 2.47294E-01
 -1     21115 2.40936E-01
 -1     21116 2.41041E-01
 -1     21117 2.47506E-01
 -1     21122 2.41041E-01
 -1     21123 2.41041E-01
 -1     21124 2.47506E-01
 -1     21129 2.40936E-01
 -1     21130 2.40831E-01
 -1     21131 2.47294E-01
 -1     21136 2.40503E-01
 -1     21137 2.40176E-01
 -1     21138 2.46630E-01
 -1     21143 2.39584E-01
 -1     21144 2.38992E-01
 -1     21145 2.45425E-01
 -1     21150 2.38064E-01
 -1     21151 2.37136E-01
 -1     21152 2.43529E-01
 -1     21157 2.35744E-01
 -1     21161 2.35744E-01
 -1     21162 2.37136E-01
 -1     21163 2.43529E-01
 -1     21168 2.38064E-01
 -1     21169 2.38992E-01
 -1     21170 2.45425E-01
 -1     21175 2.39584E-01
 -1     21176 2.40176E-01
 -1     21177 2.46630E-01
 -1     21182 2.40503E-01
 -1     21183 2.40831E-01
 -1     21184 2.47294E-01
 -1     21189 2.40936E-01
 -1     21190 2.41041E-01
 -1     21191 2.47506E-01
 -1     21196 2.41041E-01
 -1     21197 2.41041E-01
 -1     21198 2.47506E-01
 -1     21203 2.40936E-01
 -1     21204 2.40831E-01
 -1     21205 2.47294E-01
 -1     21210 2.40503E-01
 -1     21211 2.40176E-01
 -1     21212 2.46630E-01
 -1     21217 2.39584E-01
 -1     21218 2.38992E-01
 -1     21219 2.45425E-01
 -1     21224 2.38064E-01
 -1     21225 2.37136E-01
 -1     21226 2.43529E-01
 -1     21231 2.35744E-01
 -1     21235 2.37136E-01
 -1     21239 2.38992E-01
 -1     21243 2.40176E-01
 -1     21247 2.40831E-01
 -1     21251 2.41041E-01
 -1     21255 2.41041E-01
 -1     21259 2.40831E-01
 -1     21263 2.40176E-01
 -1     21267 2.38992E-01
 -1     21271 2.37136E-01
 -1     21277 2.23882E-01
 -1     21278 2.25200E-01
 -1     21279 2.31168E-01
 -1     21284 2.26089E-01
 -1     21285 2.26977E-01
 -1     21286 2.32984E-01
 -1     21291 2.27547E-01
 -1     21292 2.28118E-01
 -1     21293 2.34147E-01
 -1     21298 2.28435E-01
 -1     21299 2.28753E-01
 -1     21300 2.34792E-01
 -1     21305 2.28855E-01
 -1     21306 2.28956E-01
 -1     21307 2.34998E-01
 -1     21312 2.28956E-01
 -1     21313 2.28956E-01
 -1     21314 2.34998E-01
 -1     21319 2.28855E-01
 -1     21320 2.28753E-01
 -1     21321 2.34792E-01
 -1     21326 2.28435E-01
 -1     21327 2.28118E-01
 -1     21328 2.34147E-01
 -1     21333 2.27547E-01
 -1     21334 2.26977E-01
 -1     21335 2.32984E-01
 -1     21340 2.26089E-01
 -1     21341 2.25200E-01
 -1     21342 2.31168E-01
 -1     21347 2.23882E-01
 -1     21351 2.23882E-01
 -1     21352 2.25200E-01
 -1     21353 2.31168E-01
 -1     21358 2.26089E-01
 -1     21359 2.26977E-01
 -1     21360 2.32984E-01
 -1     21365 2.27547E-01
 -1     21366 2.28118E-01
 -1     21367 2.34147E-01
 -1     21372 2.28435E-01
 -1     21373 2.28753E-01
 -1     21374 2.34792E-01
 -1     21379 2.28855E-01
 -1     21380 2.28956E-01
 -1     21381 2.34998E-01
 -1     21386 2.28956E-01
 -1     21387 2.28956E-01
 -1     21388 2.34998E-01
 -1     21393 2.28855E-01
 -1     21394 2.28753E-01
 -1     21395 2.34792E-01
 -1     21400 2.28435E-01
 -1     21401 2.28118E-01
 -1     21402 2.34147E-01
 -1     21407 2.27547E-01
 -1     21408 2.26977E-01
 -1     21409 2.32984E-01
 -1     21414 2.26089E-01
 -1     21415 2.25200E-01
 -1     21416 2.31168E-01
 -1     21421 2.23882E-01
 -1     21425 2.23882E-01
 -1     21426 2.25200E-01
 -1     21427 2.31168E-01
 -1     21432 2.26089E-01
 -1     21433 2.26977E-01
 -1     21434 2.32984E-01
 -1     21439 2.27547E-01
 -1     21440 2.28118E-01
 -1     21441 2.34147E-01
 -1     21446 2.28435E-01
 -1     21447 2.28753E-01
 -1     21448 2.34792E-01
 -1     21453 2.28855E-01
 -1     21454 2.28956E-01
 -1     21455 2.34998E-01
 -1     21460 2.28956E-01
 -1     21461 2.28956E-01
 -1     21462 2.34998E-01
 -1     21467 2.28855E-01
 -1     21468 2.28753E-01
 -1     21469 2.34792E-01
 -1     21474 2.28435E-01
 -1     21475 2.28118E-01
 -1     21476 2.34147E-01
 -1     21481 2.27547E-01
 -1     21482 2.26977E-01
 -1     21483 2.32984E-01
 -1     21488 2.26089E-01
 -1     21489 2.25200E-01
 -1     21490 2.31168E-01
 -1     21495 2.23882E-01
 -1     21499 2.23882E-01
 -1     21500 2.25200E-01
 -1     21501 2.31168E-01
 -1     21506 2.26089E-01
 -1     21507 2.26977E-01
 -1     21508 2.32984E-01
 -1     21513 2.27547E-01
 -1     21514 2.28118E-01
 -1     21515 2.34147E-01
 -1     21520 2.28435E-01
 -1     21521 2.28753E-01
 -1     21522 2.34792E-01
 -1     21527 2.28855E-01
 -1     21528 2.28956E-01
 -1     21529 2.34998E-01
 -1     21534 2.28956E-01
 -1     21535 2.28956E-01
 -1     21536 2.34998E-01
 -1     21541 2.28855E-01
 -1     21542 2.28753E-01
 -1     21543 2.34792E-01
 -1     21548 2.28435E-01
 -1     21549 2.28118E-01
 -1     21550 2.34147E-01
 -1     21555 2.27547E-01
 -1     21556 2.26977E-01
 -1     21557 2.32984E-01
 -1     21562 2.26089E-01
 -1     21563 2.25200E-01
 -1     21564 2.31168E-01
 -1     21569 2.23882E-01
 -1     21573 2.23882E-01
 -1     21574 2.25200E-01
 -1     21575 2.31168E-01
 -1     21580 2.26089E-01
 -1     21581 2.26977E-01
 -1     21582 2.32984E-01
 -1     21587 2.27547E-01
 -1     21588 2.28118E-01
 -1     21589 2.34147E-01
 -1     21594 2.28435E-01
 -1     21595 2.28753E-01
 -1     21596 2.34792E-01
 -1     21601 2.28855E-01
 -1     21602 2.28956E-01
 -1     21603 2.34998E-01
 -1     21608 2.28956E-01
 -1     21609 2.28956E-01
 -1     21610 2.34998E-01
 -1     21615 2.28855E-01
 -1     21616 2.28753E-01
 -1     21617 2.34792E-01
 -1     21622 2.28435E-01
 -1     21623 2.28118E-01
 -1     21624 2.34147E-01
 -1     21629 2.27547E-01
 -1     21630 2.26977E-01
 -1     21631 2.32984E-01
 -1     21636 2.26089E-01
 -1     21637 2.25200E-01
 -1     21638 2.31168E-01
 -1     21643 2.23882E-01
 -1     21647 2.23882E-01
 -1     21648 2.25200E-01
 -1     21649 2.31168E-01
 -1     21654 2.26089E-01
 -1     21655 2.26977E-01
 -1     21656 2.32984E-01
 -1     21661 2.27547E-01
 -1     21662 2.28118E-01
 -1     21663 2.34147E-01
 -1     21668 2.28435E-01
 -1     21669 2.28753E-01
 -1     21670 2.34792E-01
 -1     21675 2.28855E-01
 -1     21676 2.28956E-01
 -1     21677 2.34998E-01
 -1     21682 2.28956E-01
 -1     21683 2.28956E-01
 -1     21684 2.34998E-01
 -1     21689 2.28855E-01
 -1     21690 2.28753E-01
 -1     21691 2.34792E-01
 -1     21696 2.28435E-01
 -1     21697 2.28118E-01
 -1     21698 2.34147E-01
 -1     21703 2.27547E-01
 -1     21704 2.26977E-01
 -1     21705 2.32984E-01
 -1     21710 2.26089E-01
 -1     21711 2.25200E-01
 -1     21712 2.31168E-01
 -1     21717 2.23882E-01
 -1     21721 2.23882E-01
 -1     21722 2.25200E-01
 -1     21723 2.31168E-01
 -1     21728 2.26089E-01
 -1     21729 2.26977E-01
 -1     21730 2.32984E-01
 -1     21735 2.27547E-01
 -1     21736 2.28118E-01
 -1     21737 2.34147E-01
 -1     21742 2.28435E-01
 -1     21743 2.28753E-01
 -1     21744 2.34792E-01
 -1     21749 2.28855E-01
 -1     21750 2.28956E-01
 -1     21751 2.34998E-01
 -1     21756 2.28956E-01
 -1     21757 2.28956E-01
 -1     21758 2.34998E-01
 -1     21763 2.28855E-01
 -1     21764 2.28753E-01
 -1     21765 2.34792E-01
 -1     21770 2.28435E-01
 -1     21771 2.28118E-01
 -1     21772 2.34147E-01
 -1     21777 2.27547E-01
 -1     21778 2.26977E-01
 -1     21779 2.32984E-01
 -1     21784 2.26089E-01
 -1     21785 2.25200E-01
 -1     21786 2.31168E-01
 -1     21791 2.23882E-01
 -1     21795 2.23882E-01
 -1     21796 2.25200E-01
 -1     21797 2.31168E-01
 -1     21802 2.26089E-01
 -1     21803 2.26977E-01
 -1     21804 2.32984E-01
 -1     21809 2.27547E-01
 -1     21810 2.28118E-01
 -1     21811 2.34147E-01
 -1     21816 2.28435E-01
 -1     21817 2.28753E-01
 -1     21818 2.34792E-01
 -1     21823 2.28855E-01
 -1     21824 2.28956E-01
 -1     21825 2.34998E-01
 -1     21830 2.28956E-01
 -1     21831 2.28956E-01
 -1     21832 2.34998E-01
 -1     21837 2.28855E-01
 -1     21838 2.28753E-01
 -1     21839 2.34792E-01
 -1     21844 2.28435E-01
 -1     21845 2.28118E-01
 -1     21846 2.34147E-01
 -1     21851 2.27547E-01
 -1     21852 2.26977E-01
 -1     21853 2.32984E-01
 -1     21858 2.26089E-01
 -1     21859 2.25200E-01
 -1     21860 2.31168E-01
 -1     21865 2.23882E-01
 -1     21869 2.23882E-01
 -1     21870 2.25200E-01
 -1     21871 2.31168E-01
 -1     21876 2.26089E-01
 -1     21877 2.26977E-01
 -1     21878 2.32984E-01
 -1     21883 2.27547E-01
 -1     21884 2.28118E-01
 -1     21885 2.34147E-01
 -1     21890 2.28435E-01
 -1     21891 2.28753E-01
 -1     21892 2.34792E-01
 -1     21897 2.28855E-01
 -1     21898 2.28956E-01
 -1     21899 2.34998E-01
 -1     21904 2.28956E-01
 -1     21905 2.28956E-01
 -1     21906 2.34998E-01
 -1     21911 2.28855E-01
 -1     21912 2.28753E-01
 -1     21913 2.34792E-01
 -1     21918 2.28435E-01
 -1     21919 2.28118E-01
 -1     21920 2.34147E-01
 -1     21925 2.27547E-01
 -1     21926 2.26977E-01
 -1     21927 2.32984E-01
 -1     21932 2.26089E-01
 -1     21933 2.25200E-01
 -1     21934 2.31168E-01
 -1     21939 2.23882E-01
 -1     21943 2.25200E-01
 -1     21947 2.26977E-01
 -1     21951 2.28118E-01
 -1     21955 2.28753E-01
 -1     21959 2.28956E-01
 -1     21963 2.28956E-01
 -1     21967 2.28753E-01
 -1     21971 2.28118E-01
 -1     21975 2.26977E-01
 -1     21979 2.25200E-01
 -1     21985 2.12792E-01
 -1     21986 2.14041E-01
 -1     21987 2.19621E-01
 -1     21992 2.14890E-01
 -1     21993 2.15739E-01
 -1     21994 2.21358E-01
 -1     21999 2.16288E-01
 -1     22000 2.16836E-01
 -1     22001 2.22477E-01
 -1     22006 2.17143E-01
 -1     22007 2.17450E-01
 -1     22008 2.23102E-01
 -1     22013 2.17549E-01
 -1     22014 2.17648E-01
 -1     22015 2.23302E-01
 -1     22020 2.17648E-01
 -1     22021 2.17648E-01
 -1     22022 2.23302E-01
 -1     22027 2.17549E-01
 -1     22028 2.17450E-01
 -1     22029 2.23102E-01
 -1     22034 2.17143E-01
 -1     22035 2.16836E-01
 -1     22036 2.22477E-01
 -1     22041 2.16288E-01
 -1     22042 2.15739E-01
 -1     22043 2.21358E-01
 -1     22048 2.14890E-01
 -1     22049 2.14041E-01
 -1     22050 2.19621E-01
 -1     22055 2.12792E-01
 -1     22059 2.12792E-01
 -1     22060 2.14041E-01
 -1     22061 2.19621E-01
 -1     22066 2.14890E-01
 -1     22067 2.15739E-01
 -1     22068 2.21358E-01
 -1     22073 2.16288E-01
 -1     22074 2.16836E-01
 -1     22075 2.22477E-01
 -1     22080 2.17143E-01
 -1     22081 2.17450E-01
 -1     22082 2.23102E-01
 -1     22087 2.17549E-01
 -1     22088 2.17648E-01
 -1     22089 2.23302E-01
 -1     22094 2.17648E-01
 -1     22095 2.17648E-01
 -1     22096 2.23302E-01
 -1     22101 2.17549E-01
 -1     22102 2.17450E-01
 -1     22103 2.23102E-01
 -1     22108 2.17143E-01
 -1     22109 2.16836E-01
 -1     22110 2.22477E-01
 -1     22115 2.16288E-01
 -1     22116 2.15739E-01
 -1     22117 2.21358E-01
 -1     22122 2.14890E-01
 -1     22123 2.14041E-01
 -1     22124 2.19621E-01
 -1     22129 2.12792E-01
 -1     22133 2.12792E-01
 -1     22134 2.14041E-01
 -1     22135 2.19621E-01
 -1     22140 2.14890E-01
 -1     22141 2.15739E-01
 -1     22142 2.21358E-01
 -1     22147 2.16288E-01
 -1     22148 2.16837E-01
 -1     22149 2.22477E-01
 -1     22154 2.17143E-01
 -1     22155 2.17450E-01
 -1     22156 2.23102E-01
 -1     22161 2.17549E-01
 -1     22162 2.17648E-01
 -1     22163 2.23302E-01
 -1     22168 2.17648E-01
 -1     22169 2.17648E-01
 -1     22170 2.23302E-01
 -1     22175 2.17549E-01
 -1     22176 2.17450E-01
 -1     22177 2.23102E-01
 -1     22182 2.17143E-01
 -1     22183 2.16837E-01
 -1     22184 2.22477E-01
 -1     22189 2.16288E-01
 -1     22190 2.15739E-01
 -1     22191 2.21358E-01
 -1     22196 2.14890E-01
 -1     22197 2.14041E-01
 -1     22198 2.19621E-01
 -1     22203 2.12792E-01
 -1     22207 2.12792E-01
 -1     22208 2.14041E-01
 -1     22209 2.19621E-01
 -1     22214 2.14890E-01
 -1     22215 2.15739E-01
 -1     22216 2.21358E-01
 -1     22221 2.16288E-01
 -1     22222 2.16837E-01
 -1     22223 2.22477E-01
 -1     22228 2.17143E-01
 -1     22229 2.17450E-01
 -1     22230 2.23102E-01
 -1     22235 2.17549E-01
 -1     22236 2.17648E-01
 -1     22237 2.23302E-01
 -1     22242 2.17648E-01
 -1     22243 2.17648E-01
 -1     22244 2.23302E-01
 -1     22249 2.17549E-01
 -1     22250 2.17450E-01
 -1     22251 2.23102E-01
 -1     22256 2.17143E-01
 -1     22257 2.16837E-01
 -1     22258 2.22477E-01
 -1     22263 2.16288E-01
 -1     22264 2.15739E-01
 -1     22265 2.21358E-01
 -1     22270 2.14890E-01
 -1     22271 2.14041E-01
 -1     22272 2.19621E-01
 -1     22277 2.12792E-01
 -1     22281 2.12792E-01
 -1     22282 2.14041E-01
 -1     22283 2.19621E-01
 -1     22288 2.14890E-01
 -1     22289 2.15739E-01
 -1     22290 2.21358E-01
 -1     22295 2.16288E-01
 -1     22296 2.16837E-01
 -1     22297 2.22477E-01
 -1     22302 2.17143E-01
 -1     22303 2.17450E-01
 -1     22304 2.23102E-01
 -1     22309 2.17549E-01
 -1     22310 2.17648E-01
 -1     22311 2.23302E-01
 -1     22316 2.17648E-01
 -1     22317 2.17648E-01
 -1     22318 2.23302E-01
 -1     22323 2.17549E-01
 -1     22324 2.17450E-01
 -1     22325 2.23102E-01
 -1     22330 2.17143E-01
 -1     22331 2.16837E-01
 -1     22332 2.22477E-01
 -1     22337 2.16288E-01
 -1     22338 2.15739E-01
 -1     22339 2.21358E-01
 -1     22344 2.14890E-01
 -1     22345 2.14041E-01
 -1     22346 2.19621E-01
 -1     22351 2.12792E-01
 -1     22355 2.12792E-01
 -1     22356 2.14041E-01
 -1     22357 2.19621E-01
 -1     22362 2.14890E-01
 -1     22363 2.15739E-01
 -1     22364 2.21358E-01
 -1     22369 2.16288E-01
 -1     22370 2.16837E-01
 -1     22371 2.22477E-01
 -1     22376 2.17143E-01
 -1     22377 2.17450E-01
 -1     22378 2.23102E-01
 -1     22383 2.17549E-01
 -1     22384 2.17648E-01
 -1     22385 2.23302E-01
 -1     22390 2.17648E-01
 -1     22391 2.17648E-01
 -1     22392 2.23302E-01
 -1     22397 2.17549E-01
 -1     22398 2.17450E-01
 -1     22399 2.23102E-01
 -1     22404 2.17143E-01
 -1     22405 2.16837E-01
 -1     22406 2.22477E-01
 -1     22411 2.16288E-01
 -1     22412 2.15739E-01
 -1     22413 2.21358E-01
 -1     22418 2.14890E-01
 -1     22419 2.14041E-01
 -1     22420 2.19621E-01
 -1     22425 2.12792E-01
 -1     22429 2.12792E-01
 -1     22430 2.14041E-01
 -1     22431 2.19621E-01
 -1     22436 2.14890E-01
 -1     22437 2.15739E-01
 -1     22438 2.21358E-01
 -1     22443 2.16288E-01
 -1     22444 2.16837E-01
 -1     22445 2.22477E-01
 -1     22450 2.17143E-01
 -1     22451 2.17450E-01
 -1     22452 2.23102E-01
 -1     22457 2.17549E-01
 -1     22458 2.17648E-01
 -1     22459 2.23302E-01
 -1     22464 2.17648E-01
 -1     22465 2.17648E-01
 -1     22466 2.23302E-01
 -1     22471 2.17549E-01
 -1     22472 2.17450E-01
 -1     22473 2.23102E-01
 -1     22478 2.17143E-01
 -1     22479 2.16837E-01
 -1     22480 2.22477E-01
 -1     22485 2.16288E-01
 -1     22486 2.15739E-01
 -1     22487 2.21358E-01
 -1     22492 2.14890E-01
 -1     22493 2.14041E-01
 -1     22494 2.19621E-01
 -1     22499 2.12792E-01
 -1     22503 2.12792E-01
 -1     22504 2.14041E-01
 -1     22505 2.19621E-01
 -1     22510 2.14890E-01
 -1     22511 2.15739E-01
 -1     22512 2.21358E-01
 -1     22517 2.16288E-01
 -1     22518 2.16837E-01
 -1     22519 2.22477E-01
 -1     22524 2.17143E-01
 -1     22525 2.17450E-01
 -1     22526 2.23102E-01
 -1     22531 2.17549E-01
 -1     22532 2.17648E-01
 -1     22533 2.23302E-01
 -1     22538 2.17648E-01
 -1     22539 2.17648E-01
 -1     22540 2.23302E-01
 -1     22545 2.17549E-01
 -1     22546 2.17450E-01
 -1     22547 2.23102E-01
 -1     22552 2.17143E-01
 -1     22553 2.16837E-01
 -1     22554 2.22477E-01
 -1     22559 2.16288E-01
 -1     22560 2.15739E-01
 -1     22561 2.21358E-01
 -1     22566 2.14890E-01
 -1     22567 2.14041E-01
 -1     22568 2.19621E-01
 -1     22573 2.12792E-01
 -1     22577 2.12792E-01
 -1     22578 2.14041E-01
 -1     22579 2.19621E-01
 -1     22584 2.14890E-01
 -1     22585 2.15739E-01
 -1     22586 2.21358E-01
 -1     22591 2.16288E-01
 -1     22592 2.16837E-01
 -1     22593 2.22477E-01
 -1     22598 2.17143E-01
 -1     22599 2.17450E-01
 -1     22600 2.23102E-01
 -1     22605 2.17549E-01
 -1     22606 2.17648E-01
 -1     22607 2.23302E-01
 -1     22612 2.17648E-01
 -1     22613 2.17648E-01
 -1     22614 2.23302E-01
 -1     22619 2.17549E-01
 -1     22620 2.17450E-01
 -1     22621 2.23102E-01
 -1     22626 2.17143E-01
 -1     22627 2.16837E-01
 -1     22628 2.22477E-01
 -1     22633 2.16288E-01
 -1     22634 2.15739E-01
 -1     22635 2.21358E-01
 -1     22640 2.14890E-01
 -1     22641 2.14041E-01
 -1     22642 2.19621E-01
 -1     22647 2.12792E-01
 -1     22651 2.14041E-01
 -1     22655 2.15739E-01
 -1     22659 2.16837E-01
 -1     22663 2.17450E-01
 -1     22667 2.17648E-01
 -1     22671 2.17648E-01
 -1     22675 2.17450E-01
 -1     22679 2.16837E-01
 -1     22683 2.15739E-01
 -1     22687 2.14041E-01
 -1     22693 2.02410E-01
 -1     22694 2.03592E-01
 -1     22695 2.08816E-01
 -1     22700 2.04403E-01
 -1     22701 2.05213E-01
 -1     22702 2.10476E-01
 -1     22707 2.05740E-01
 -1     22708 2.06267E-01
 -1     22709 2.11552E-01
 -1     22714 2.06564E-01
 -1     22715 2.06860E-01
 -1     22716 2.12155E-01
 -1     22721 2.06955E-01
 -1     22722 2.07051E-01
 -1     22723 2.12349E-01
 -1     22728 2.07051E-01
 -1     22729 2.07051E-01
 -1     22730 2.12349E-01
 -1     22735 2.06955E-01
 -1     22736 2.06860E-01
 -1     22737 2.12155E-01
 -1     22742 2.06564E-01
 -1     22743 2.06267E-01
 -1     22744 2.11552E-01
 -1     22749 2.05740E-01
 -1     22750 2.05213E-01
 -1     22751 2.10476E-01
 -1     22756 2.04403E-01
 -1     22757 2.03592E-01
 -1     22758 2.08816E-01
 -1     22763 2.02410E-01
 -1     22767 2.02410E-01
 -1     22768 2.03592E-01
 -1     22769 2.08816E-01
 -1     22774 2.04403E-01
 -1     22775 2.05213E-01
 -1     22776 2.10476E-01
 -1     22781 2.05740E-01
 -1     22782 2.06267E-01
 -1     22783 2.11552E-01
 -1     22788 2.06564E-01
 -1     22789 2.06860E-01
 -1     22790 2.12155E-01
 -1     22795 2.06955E-01
 -1     22796 2.07051E-01
 -1     22797 2.12349E-01
 -1     22802 2.07051E-01
 -1     22803 2.07051E-01
 -1     22804 2.12349E-01
 -1     22809 2.06955E-01
 -1     22810 2.06860E-01
 -1     22811 2.12155E-01
 -1     22816 2.06564E-01
 -1     22817 2.06267E-01
 -1     22818 2.11552E-01
 -1     22823 2.05740E-01
 -1     22824 2.05213E-01
 -1     22825 2.10476E-01
 -1     22830 2.04403E-01
 -1     22831 2.03592E-01
 -1     22832 2.08816E-01
 -1     22837 2.02410E-01
 -1     22841 2.02410E-01
 -1     22842 2.03592E-01
 -1     22843 2.08816E-01
 -1     22848 2.04403E-01
 -1     22849 2.05213E-01
 -1     22850 2.10476E-01
 -1     22855 2.05740E-01
 -1     22856 2.06267E-01
 -1     22857 2.11552E-01
 -1     22862 2.06564E-01
 -1     22863 2.06860E-01
 -1     22864 2.12155E-01
 -1     22869 2.06955E-01
 -1     22870 2.07051E-01
 -1     22871 2.12349E-01
 -1     22876 2.07051E-01
 -1     22877 2.07051E-01
 -1     22878 2.12349E-01
 -1     22883 2.06955E-01
 -1     22884 2.06860E-01
 -1     22885 2.12155E-01
 -1     22890 2.06564E-01
 -1     22891 2.06267E-01
 -1     22892 2.11552E-01
 -1     22897 2.05740E-01
 -1     22898 2.05213E-01
 -1     22899 2.10476E-01
 -1     22904 2.04403E-01
 -1     22905 2.03592E-01
 -1     22906 2.08816E-01
 -1     22911 2.02410E-01
 -1     22915 2.02410E-01
 -1     22916 2.03592E-01
 -1     22917 2.08816E-01
 -1     22922 2.04403E-01
 -1     22923 2.05213E-01
 -1     22924 2.10476E-01
 -1     22929 2.05740E-01
 -1     22930 2.06267E-01
 -1     22931 2.11552E-01
 -1     22936 2.06564E-01
 -1     22937 2.06860E-01
 -1     22938 2.12155E-01
 -1     22943 2.06955E-01
 -1     22944 2.07051E-01
 -1     22945 2.12349E-01
 -1     22950 2.07051E-01
 -1     22951 2.07051E-01
 -1     22952 2.12349E-01
 -1     22957 2.06955E-01
 -1     22958 2.06860E-01
 -1     22959 2.12155E-01
 -1     22964 2.06564E-01
 -1     22965 2.06267E-01
 -1     22966 2.11552E-01
 -1     22971 2.05740E-01
 -1     22972 2.05213E-01
 -1     22973 2.10476E-01
 -1     22978 2.04403E-01
 -1     22979 2.03592E-01
 -1     22980 2.08816E-01
 -1     22985 2.02410E-01
 -1     22989 2.02410E-01
 -1     22990 2.03592E-01
 -1     22991 2.08816E-01
 -1     22996 2.04403E-01
 -1     22997 2.05213E-01
 -1     22998 2.10476E-01
 -1     23003 2.05740E-01
 -1     23004 2.06267E-01
 -1     23005 2.11552E-01
 -1     23010 2.06564E-01
 -1     23011 2.06860E-01
 -1     23012 2.12155E-01
 -1     23017 2.06955E-01
 -1     23018 2.07051E-01
 -1     23019 2.12349E-01
 -1     23024 2.07051E-01
 -1     23025 2.07051E-01
 -1     23026 2.12349E-01
 -1     23031 2.06955E-01
 -1     23032 2.06860E-01
 -1     23033 2.12155E-01
 -1     23038 2.06564E-01
 -1     23039 2.06267E-01
 -1     23040 2.11552E-01
 -1     23045 2.05740E-01
 -1     23046 2.05213E-01
 -1     23047 2.10476E-01
 -1     23052 2.04403E-01
 -1     23053 2.03592E-01
 -1     23054 2.08816E-01
 -1     23059 2.02410E-01
 -1     23063 2.02410E-01
 -1     23064 2.03592E-01
 -1     23065 2.08816E-01
 -1     23070 2.04403E-01
 -1     23071 2.05213E-01
 -1     23072 2.10476E-01
 -1     23077 2.05740E-01
 -1     23078 2.06267E-01
 -1     23079 2.11552E-01
 -1     23084 2.06564E-01
 -1     23085 2.06860E-01
 -1     23086 2.12155E-01
 -1     23091 2.06955E-01
 -1     23092 2.07051E-01
 -1     23093 2.12349E-01
 -1     23098 2.07051E-01
 -1     23099 2.07051E-01
 -1     23100 2.12349E-01
 -1     23105 2.06955E-01
 -1     23106 2.06860E-01
 -1     23107 2.12155E-01
 -1     23112 2.06564E-01
 -1     23113 2.06267E-01
 -1     23114 2.11552E-01
 -1     23119 2.05740E-01
 -1     23120 2.05213E-01
 -1     23121 2.10476E-01
 -1     23126 2.04403E-01
 -1     23127 2.03592E-01
 -1     23128 2.08816E-01
 -1     23133 2.02410E-01
 -1     23137 2.02410E-01
 -1     23138 2.03592E-01
 -1     23139 2.08816E-01
 -1     23144 2.04403E-01
 -1     23145 2.05213E-01
 -1     23146 2.10476E-01
 -1     23151 2.05740E-01
 -1     23152 2.06267E-01
 -1     23153 2.11552E-01
 -1     23158 2.06564E-01
 -1     23159 2.06860E-01
 -1     23160 2.12155E-01
 -1     23165 2.06955E-01
 -1     23166 2.07051E-01
 -1     23167 2.12349E-01
 -1     23172 2.07051E-01
 -1     23173 2.07051E-01
 -1     23174 2.12349E-01
 -1     23179 2.06955E-01
 -1     23180 2.06860E-01
 -1     23181 2.12155E-01
 -1     23186 2.06564E-01
 -1     23187 2.06267E-01
 -1     23188 2.11552E-01
 -1     23193 2.05740E-01
 -1     23194 2.05213E-01
 -1     23195 2.10476E-01
 -1     23200 2.04403E-01
 -1     23201 2.03592E-01
 -1     23202 2.08816E-01
 -1     23207 2.02410E-01
 -1     23211 2.02410E-01
 -1     23212 2.03592E-01
 -1     23213 2.08816E-01
 -1     23218 2.04403E-01
 -1     23219 2.05213E-01
 -1     23220 2.10476E-01
 -1     23225 2.05740E-01
 -1     23226 2.06267E-01
 -1     23227 2.11552E-01
 -1     23232 2.06564E-01
 -1     23233 2.06860E-01
 -1     23234 2.12155E-01
 -1     23239 2.06955E-01
 -1     23240 2.07051E-01
 -1     23241 2.12349E-01
 -1     23246 2.07051E-01
 -1     23247 2.07051E-01
 -1     23248 2.12349E-01
 -1     23253 2.06955E-01
 -1     23254 2.06860E-01
 -1     23255 2.12155E-01
 -1     23260 2.06564E-01
 -1     23261 2.06267E-01
 -1     23262 2.11552E-01
 -1     23267 2.05740E-01
 -1     23268 2.05213E-01
 -1     23269 2.10476E-01
 -1     23274 2.04403E-01
 -1     23275 2.03592E-01
 -1     23276 2.08816E-01
 -1     23281 2.02410E-01
 -1     23285 2.02410E-01
 -1     23286 2.03592E-01
 -1     23287 2.08816E-01
 -1     23292 2.04403E-01
 -1     23293 2.05213E-01
 -1     23294 2.10476E-01
 -1     23299 2.05740E-01
 -1     23300 2.06267E-01
 -1     23301 2.11552E-01
 -1     23306 2.06564E-01
 -1     23307 2.06860E-01
 -1     23308 2.12155E-01
 -1     23313 2.06955E-01
 -1     23314 2.07051E-01
 -1     23315 2.12349E-01
 -1     23320 2.07051E-01
 -1     23321 2.07051E-01
 -1     23322 2.12349E-01
 -1     23327 2.06955E-01
 -1     23328 2.06860E-01
 -1     23329 2.12155E-01
 -1     23334 2.06564E-01
 -1     23335 2.06267E-01
 -1     23336 2.11552E-01
 -1     23341 2.05740E-01
 -1     23342 2.05213E-01
 -1     23343 2.10476E-01
 -1     23348 2.04403E-01
 -1     23349 2.03592E-01
 -1     23350 2.08816E-01
 -1     23355 2.02410E-01
 -1     23359 2.03592E-01
 -1     23363 2.05213E-01
 -1     23367 2.06267E-01
 -1     23371 2.06860E-01
 -1     23375 2.07051E-01
 -1     23379 2.07051E-01
 -1     23383 2.06860E-01
 -1     23387 2.06267E-01
 -1     23391 2.05213E-01
 -1     23395 2.03592E-01
 -1     23401 1.92675E-01
 -1     23402 1.93794E-01
 -1     23403 1.98693E-01
 -1     23408 1.94568E-01
 -1     23409 1.95341E-01
 -1     23410 2.00277E-01
 -1     23415 1.95846E-01
 -1     23416 1.96351E-01
 -1     23417 2.01309E-01
 -1     23422 1.96637E-01
 -1     23423 1.96922E-01
 -1     23424 2.01891E-01
 -1     23429 1.97014E-01
 -1     23430 1.97106E-01
 -1     23431 2.02078E-01
 -1     23436 1.97106E-01
 -1     23437 1.97106E-01
 -1     23438 2.02078E-01
 -1     23443 1.97014E-01
 -1     23444 1.96922E-01
 -1     23445 2.01891E-01
 -1     23450 1.96637E-01
 -1     23451 1.96351E-01
 -1     23452 2.01309E-01
 -1     23457 1.95846E-01
 -1     23458 1.95341E-01
 -1     23459 2.00277E-01
 -1     23464 1.94568E-01
 -1     23465 1.93794E-01
 -1     23466 1.98693E-01
 -1     23471 1.92675E-01
 -1     23475 1.92675E-01
 -1     23476 1.93794E-01
 -1     23477 1.98693E-01
 -1     23482 1.94568E-01
 -1     23483 1.95341E-01
 -1     23484 2.00277E-01
 -1     23489 1.95846E-01
 -1     23490 1.96351E-01
 -1     23491 2.01309E-01
 -1     23496 1.96637E-01
 -1     23497 1.96922E-01
 -1     23498 2.01891E-01
 -1     23503 1.97014E-01
 -1     23504 1.97106E-01
 -1     23505 2.02078E-01
 -1     23510 1.97106E-01
 -1     23511 1.97106E-01
 -1     23512 2.02078E-01
 -1     23517 1.97014E-01
 -1     23518 1.96922E-01
 -1     23519 2.01891E-01
 -1     23524 1.96637E-01
 -1     23525 1.96351E-01
 -1     23526 2.01309E-01
 -1     23531 1.95846E-01
 -1     23532 1.95341E-01
 -1     23533 2.00277E-01
 -1     23538 1.94568E-01
 -1     23539 1.93794E-01
 -1     23540 1.98693E-01
 -1     23545 1.92675E-01
 -1     23549 1.92675E-01
 -1     23550 1.93794E-01
 -1     23551 1.98693E-01
 -1     23556 1.94568E-01
 -1     23557 1.95341E-01
 -1     23558 2.00277E-01
 -1     23563 1.95846E-01
 -1     23564 1.96351E-01
 -1     23565 2.01309E-01
 -1     23570 1.96637E-01
 -1     23571 1.96922E-01
 -1     23572 2.01891E-01
 -1     23577 1.97014E-01
 -1     23578 1.97106E-01
 -1     23579 2.02078E-01
 -1     23584 1.97106E-01
 -1     23585 1.97106E-01
 -1     23586 2.02078E-01
 -1     23591 1.97014E-01
 -1     23592 1.96922E-01
 -1     23593 2.01891E-01
 -1     23598 1.96637E-01
 -1     23599 1.96351E-01
 -1     23600 2.01309E-01
 -1     23605 1.95846E-01
 -1     23606 1.95341E-01
 -1     23607 2.00277E-01
 -1     23612 1.94568E-01
 -1     23613 1.93794E-01
 -1     23614 1.98693E-01
 -1     23619 1.92675E-01
 -1     23623 1.92675E-01
 -1     23624 1.93794E-01
 -1     23625 1.98693E-01
 -1     23630 1.94568E-01
 -1     23631 1.95341E-01
 -1     23632 2.00277E-01
 -1     23637 1.95846E-01
 -1     23638 1.96351E-01
 -1     23639 2.01309E-01
 -1     23644 1.96637E-01
 -1     23645 1.96922E-01
 -1     23646 2.01891E-01
 -1     23651 1.97014E-01
 -1     23652 1.97106E-01
 -1     23653 2.02078E-01
 -1     23658 1.97106E-01
 -1     23659 1.97106E-01
 -1     23660 2.02078E-01
 -1     23665 1.97014E-01
 -1     23666 1.96922E-01
 -1     23667 2.01891E-01
 -1     23672 1.96637E-01
 -1     23673 1.96351E-01
 -1     23674 2.01309E-01
 -1     23679 1.95846E-01
 -1     23680 1.95341E-01
 -1     23681 2.00277E-01
 -1     23686 1.94568E-01
 -1     23687 1.93794E-01
 -1     23688 1.98693E-01
 -1     23693 1.92675E-01
 -1     23697 1.92675E-01
 -1     23698 1.93794E-01
 -1     23699 1.98693E-01
 -1     23704 1.94568E-01
 -1     23705 1.95341E-01
 -1     23706 2.00277E-01
 -1     23711 1.95846E-01
 -1     23712 1.96351E-01
 -1     23713 2.01309E-01
 -1     23718 1.96637E-01
 -1     23719 1.96922E-01
 -1     23720 2.01891E-01
 -1     23725 1.97014E-01
 -1     23726 1.97106E-01
 -1     23727 2.02078E-01
 -1     23732 1.97106E-01
 -1     23733 1.97106E-01
 -1     23734 2.02078E-01
 -1     23739 1.97014E-01
 -1     23740 1.96922E-01
 -1     23741 2.01891E-01
 -1     23746 1.96637E-01
 -1     23747 1.96351E-01
 -1     23748 2.01309E-01
 -1     23753 1.95846E-01
 -1     23754 1.95341E-01
 -1     23755 2.00277E-01
 -1     23760 1.94568E-01
 -1     23761 1.93794E-01
 -1     23762 1.98693E-01
 -1     23767 1.92675E-01
 -1     23771 1.92675E-01
 -1     23772 1.93794E-01
 -1     23773 1.98693E-01
 -1     23778 1.94568E-01
 -1     23779 1.95341E-01
 -1     23780 2.00277E-01
 -1     23785 1.95846E-01
 -1     23786 1.96351E-01
 -1     23787 2.01309E-01
 -1     23792 1.96637E-01
 -1     23793 1.96922E-01
 -1     23794 2.01891E-01
 -1     23799 1.97014E-01
 -1     23800 1.97106E-01
 -1     23801 2.02078E-01
 -1     23806 1.97106E-01
 -1     23807 1.97106E-01
 -1     23808 2.02078E-01
 -1     23813 1.97014E-01
 -1     23814 1.96922E-01
 -1     23815 2.01891E-01
 -1     23820 1.96637E-01
 -1     23821 1.96351E-01
 -1     23822 2.01309E-01
 -1     23827 1.95846E-01
 -1     23828 1.95341E-01
 -1     23829 2.00277E-01
 -1     23834 1.94568E-01
 -1     23835 1.93794E-01
 -1     23836 1.98693E-01
 -1     23841 1.92675E-01
 -1     23845 1.92675E-01
 -1     23846 1.93794E-01
 -1     23847 1.98693E-01
 -1     23852 1.94568E-01
 -1     23853 1.95341E-01
 -1     23854 2.00277E-01
 -1     23859 1.95846E-01
 -1     23860 1.96351E-01
 -1     23861 2.01309E-01
 -1     23866 1.96637E-01
 -1     23867 1.96922E-01
 -1     23868 2.01891E-01
 -1     23873 1.97014E-01
 -1     23874 1.97106E-01
 -1     23875 2.02078E-01
 -1     23880 1.97106E-01
 -1     23881 1.97106E-01
 -1     23882 2.02078E-01
 -1     23887 1.97014E-01
 -1     23888 1.96922E-01
 -1     23889 2.01891E-01
 -1     23894 1.96637E-01
 -1     23895 1.96351E-01
 -1     23896 2.01309E-01
 -1     23901 1.95846E-01
 -1     23902 1.95341E-01
 -1     23903 2.00277E-01
 -1     23908 1.94568E-01
 -1     23909 1.93794E-01
 -1     23910 1.98693E-01
 -1     23915 1.92675E-01
 -1     23919 1.92675E-01
 -1     23920 1.93794E-01
 -1     23921 1.98693E-01
 -1     23926 1.94568E-01
 -1     23927 1.95341E-01
 -1     23928 2.00277E-01
 -1     23933 1.95846E-01
 -1     23934 1.96351E-01
 -1     23935 2.01309E-01
 -1     23940 1.96637E-01
 -1     23941 1.96922E-01
 -1     23942 2.01891E-01
 -1     23947 1.97014E-01
 -1     23948 1.97106E-01
 -1     23949 2.02078E-01
 -1     23954 1.97106E-01
 -1     23955 1.97106E-01
 -1     23956 2.02078E-01
 -1     23961 1.97014E-01
 -1     23962 1.96922E-01
 -1     23963 2.01891E-01
 -1     23968 1.96637E-01
 -1     23969 1.96351E-01
 -1     23970 2.01309E-01
 -1     23975 1.95846E-01
 -1     23976 1.95341E-01
 -1     23977 2.00277E-01
 -1     23982 1.94568E-01
 -1     23983 1.93794E-01
 -1     23984 1.98693E-01
 -1     23989 1.92675E-01
 -1     23993 1.92675E-01
 -1     23994 1.93794E-01
 -1     23995 1.98693E-01
 -1     24000 1.94568E-01
 -1     24001 1.95341E-01
 -1     24002 2.00277E-01
 -1     24007 1.95846E-01
 -1     24008 1.96351E-01
 -1     24009 2.01309E-01
 -1     24014 1.96637E-01
 -1     24015 1.96922E-01
 -1     24016 2.01891E-01
 -1     24021 1.97014E-01
 -1     24022 1.97106E-01
 -1     24023 2.02078E-01
 -1     24028 1.97106E-01
 -1     24029 1.97106E-01
 -1     24030 2.02078E-01
 -1     24035 1.97014E-01
 -1     24036 1.96922E-01
 -1     24037 2.01891E-01
 -1     24042 1.96637E-01
 -1     24043 1.96351E-01
 -1     24044 2.01309E-01
 -1     24049 1.95846E-01
 -1     24050 1.95341E-01
 -1     24051 2.00277E-01
 -1     24056 1.94568E-01
 -1     24057 1.93794E-01
 -1     24058 1.98693E-01
 -1     24063 1.92675E-01
 -1     24067 1.93794E-01
 -1     24071 1.95341E-01
 -1     24075 1.96351E-01
 -1     24079 1.96922E-01
 -1     24083 1.97106E-01
 -1     24087 1.97106E-01
 -1     24091 1.96922E-01
 -1     24095 1.96351E-01
 -1     24099 1.95341E-01
 -1     24103 1.93794E-01
 -1     24109 1.83534E-01
 -1     24110 1.84592E-01
 -1     24111 1.89193E-01
 -1     24116 1.85329E-01
 -1     24117 1.86066E-01
 -1     24118 1.90703E-01
 -1     24123 1.86550E-01
 -1     24124 1.87033E-01
 -1     24125 1.91692E-01
 -1     24130 1.87307E-01
 -1     24131 1.87581E-01
 -1     24132 1.92251E-01
 -1     24137 1.87670E-01
 -1     24138 1.87758E-01
 -1     24139 1.92432E-01
 -1     24144 1.87758E-01
 -1     24145 1.87758E-01
 -1     24146 1.92432E-01
 -1     24151 1.87670E-01
 -1     24152 1.87581E-01
 -1     24153 1.92251E-01
 -1     24158 1.87307E-01
 -1     24159 1.87033E-01
 -1     24160 1.91692E-01
 -1     24165 1.86550E-01
 -1     24166 1.86066E-01
 -1     24167 1.90703E-01
 -1     24172 1.85329E-01
 -1     24173 1.84592E-01
 -1     24174 1.89193E-01
 -1     24179 1.83534E-01
 -1     24183 1.83534E-01
 -1     24184 1.84592E-01
 -1     24185 1.89193E-01
 -1     24190 1.85329E-01
 -1     24191 1.86066E-01
 -1     24192 1.90703E-01
 -1     24197 1.86550E-01
 -1     24198 1.87033E-01
 -1     24199 1.91692E-01
 -1     24204 1.87307E-01
 -1     24205 1.87581E-01
 -1     24206 1.92251E-01
 -1     24211 1.87670E-01
 -1     24212 1.87758E-01
 -1     24213 1.92432E-01
 -1     24218 1.87758E-01
 -1     24219 1.87758E-01
 -1     24220 1.92432E-01
 -1     24225 1.87670E-01
 -1     24226 1.87581E-01
 -1     24227 1.92251E-01
 -1     24232 1.87307E-01
 -1     24233 1.87033E-01
 -1     24234 1.91692E-01
 -1     24239 1.86550E-01
 -1     24240 1.86066E-01
 -1     24241 1.90703E-01
 -1     24246 1.85329E-01
 -1     24247 1.84592E-01
 -1     24248 1.89193E-01
 -1     24253 1.83534E-01
 -1     24257 1.83534E-01
 -1     24258 1.84592E-01
 -1     24259 1.89193E-01
 -1     24264 1.85329E-01
 -1     24265 1.86066E-01
 -1     24266 1.90703E-01
 -1     24271 1.86550E-01
 -1     24272 1.87033E-01
 -1     24273 1.91692E-01
 -1     24278 1.87307E-01
 -1     24279 1.87581E-01
 -1     24280 1.92251E-01
 -1     24285 1.87670E-01
 -1     24286 1.87758E-01
 -1     24287 1.92432E-01
 -1     24292 1.87758E-01
 -1     24293 1.87758E-01
 -1     24294 1.92432E-01
 -1     24299 1.87670E-01
 -1     24300 1.87581E-01
 -1     24301 1.92251E-01
 -1     24306 1.87307E-01
 -1     24307 1.87033E-01
 -1     24308 1.91692E-01
 -1     24313 1.86550E-01
 -1     24314 1.86066E-01
 -1     24315 1.90703E-01
 -1     24320 1.85329E-01
 -1     24321 1.84592E-01
 -1     24322 1.89193E-01
 -1     24327 1.83534E-01
 -1     24331 1.83534E-01
 -1     24332 1.84592E-01
 -1     24333 1.89193E-01
 -1     24338 1.85329E-01
 -1     24339 1.86066E-01
 -1     24340 1.90703E-01
 -1     24345 1.86550E-01
 -1     24346 1.87033E-01
 -1     24347 1.91692E-01
 -1     24352 1.87307E-01
 -1     24353 1.87581E-01
 -1     24354 1.92251E-01
 -1     24359 1.87670E-01
 -1     24360 1.87758E-01
 -1     24361 1.92432E-01
 -1     24366 1.87758E-01
 -1     24367 1.87758E-01
 -1     24368 1.92432E-01
 -1     24373 1.87670E-01
 -1     24374 1.87581E-01
 -1     24375 1.92251E-01
 -1     24380 1.87307E-01
 -1     24381 1.87033E-01
 -1     24382 1.91692E-01
 -1     24387 1.86550E-01
 -1     24388 1.86066E-01
 -1     24389 1.90703E-01
 -1     24394 1.85329E-01
 -1     24395 1.84592E-01
 -1     24396 1.89193E-01
 -1     24401 1.83534E-01
 -1     24405 1.83534E-01
 -1     24406 1.84592E-01
 -1     24407 1.89193E-01
 -1     24412 1.85329E-01
 -1     24413 1.86066E-01
 -1     24414 1.90703E-01
 -1     24419 1.86550E-01
 -1     24420 1.87033E-01
 -1     24421 1.91692E-01
 -1     24426 1.87307E-01
 -1     24427 1.87581E-01
 -1     24428 1.92252E-01
 -1     24433 1.87670E-01
 -1     24434 1.87758E-01
 -1     24435 1.92432E-01
 -1     24440 1.87758E-01
 -1     24441 1.87758E-01
 -1     24442 1.92432E-01
 -1     24447 1.87670E-01
 -1     24448 1.87581E-01
 -1     24449 1.92252E-01
 -1     24454 1.87307E-01
 -1     24455 1.87033E-01
 -1     24456 1.91692E-01
 -1     24461 1.86550E-01
 -1     24462 1.86066E-01
 -1     24463 1.90703E-01
 -1     24468 1.85329E-01
 -1     24469 1.84592E-01
 -1     24470 1.89193E-01
 -1     24475 1.83534E-01
 -1     24479 1.83534E-01
 -1     24480 1.84592E-01
 -1     24481 1.89193E-01
 -1     24486 1.85329E-01
 -1     24487 1.86066E-01
 -1     24488 1.90703E-01
 -1     24493 1.86550E-01
 -1     24494 1.87033E-01
 -1     24495 1.91692E-01
 -1     24500 1.87307E-01
 -1     24501 1.87581E-01
 -1     24502 1.92251E-01
 -1     24507 1.87670E-01
 -1     24508 1.87758E-01
 -1     24509 1.92432E-01
 -1     24514 1.87758E-01
 -1     24515 1.87758E-01
 -1     24516 1.92432E-01
 -1     24521 1.87670E-01
 -1     24522 1.87581E-01
 -1     24523 1.92251E-01
 -1     24528 1.87307E-01
 -1     24529 1.87033E-01
 -1     24530 1.91692E-01
 -1     24535 1.86550E-01
 -1     24536 1.86066E-01
 -1     24537 1.90703E-01
 -1     24542 1.85329E-01
 -1     24543 1.84592E-01
 -1     24544 1.89193E-01
 -1     24549 1.83534E-01
 -1     24553 1.83534E-01
 -1     24554 1.84592E-01
 -1     24555 1.89193E-01
 -1     24560 1.85329E-01
 -1     24561 1.86066E-01
 -1     24562 1.90703E-01
 -1     24567 1.86550E-01
 -1     24568 1.87033E-01
 -1     24569 1.91692E-01
 -1     24574 1.87307E-01
 -1     24575 1.87581E-01
 -1     24576 1.92252E-01
 -1     24581 1.87670E-01
 -1     24582 1.87758E-01
 -1     24583 1.92432E-01
 -1     24588 1.87758E-01
 -1     24589 1.87758E-01
 -1     24590 1.92432E-01
 -1     24595 1.87670E-01
 -1     24596 1.87581E-01
 -1     24597 1.92252E-01
 -1     24602 1.87307E-01
 -1     24603 1.87033E-01
 -1     24604 1.91692E-01
 -1     24609 1.86550E-01
 -1     24610 1.86066E-01
 -1     24611 1.90703E-01
 -1     24616 1.85329E-01
 -1     24617 1.84592E-01
 -1     24618 1.89193E-01
 -1     24623 1.83534E-01
 -1     24627 1.83534E-01
 -1     24628 1.84592E-01
 -1     24629 1.89193E-01
 -1     24634 1.85329E-01
 -1     24635 1.86066E-01
 -1     24636 1.90703E-01
 -1     24641 1.86550E-01
 -1     24642 1.87033E-01
 -1     24643 1.91692E-01
 -1     24648 1.87307E-01
 -1     24649 1.87581E-01
 -1     24650 1.92252E-01
 -1     24655 1.87670E-01
 -1     24656 1.87758E-01
 -1     24657 1.92432E-01
 -1     24662 1.87758E-01
 -1     24663 1.87758E-01
 -1     24664 1.92432E-01
 -1     24669 1.87670E-01
 -1     24670 1.87581E-01
 -1     24671 1.92252E-01
 -1     24676 1.87307E-01
 -1     24677 1.87033E-01
 -1     24678 1.91692E-01
 -1     24683 1.86550E-01
 -1     24684 1.86066E-01
 -1     24685 1.90703E-01
 -1     24690 1.85329E-01
 -1     24691 1.84592E-01
 -1     24692 1.89193E-01
 -1     24697 1.83534E-01
 -1     24701 1.83534E-01
 -1     24702 1.84592E-01
 -1     24703 1.89193E-01
 -1     24708 1.85329E-01
 -1     24709 1.86066E-01
 -1     24710 1.90703E-01
 -1     24715 1.86550E-01
 -1     24716 1.87033E-01
 -1     24717 1.91692E-01
 -1     24722 1.87307E-01
 -1     24723 1.87581E-01
 -1     24724 1.92251E-01
 -1     24729 1.87670E-01
 -1     24730 1.87758E-01
 -1     24731 1.92432E-01
 -1     24736 1.87758E-01
 -1     24737 1.87758E-01
 -1     24738 1.92432E-01
 -1     24743 1.87670E-01
 -1     24744 1.87581E-01
 -1     24745 1.92251E-01
 -1     24750 1.87307E-01
 -1     24751 1.87033E-01
 -1     24752 1.91692E-01
 -1     24757 1.86550E-01
 -1     24758 1.86066E-01
 -1     24759 1.90703E-01
 -1     24764 1.85329E-01
 -1     24765 1.84592E-01
 -1     24766 1.89193E-01
 -1     24771 1.83534E-01
 -1     24775 1.84592E-01
 -1     24779 1.86066E-01
 -1     24783 1.87033E-01
 -1     24787 1.87581E-01
 -1     24791 1.87758E-01
 -1     24795 1.87758E-01
 -1     24799 1.87581E-01
 -1     24803 1.87033E-01
 -1     24807 1.86066E-01
 -1     24811 1.84592E-01
 -1     24817 1.74931E-01
 -1     24818 1.75931E-01
 -1     24819 1.80262E-01
 -1     24824 1.76632E-01
 -1     24825 1.77333E-01
 -1     24826 1.81699E-01
 -1     24831 1.77795E-01
 -1     24832 1.78257E-01
 -1     24833 1.82645E-01
 -1     24838 1.78520E-01
 -1     24839 1.78782E-01
 -1     24840 1.83182E-01
 -1     24845 1.78867E-01
 -1     24846 1.78952E-01
 -1     24847 1.83355E-01
 -1     24852 1.78952E-01
 -1     24853 1.78952E-01
 -1     24854 1.83355E-01
 -1     24859 1.78867E-01
 -1     24860 1.78782E-01
 -1     24861 1.83182E-01
 -1     24866 1.78520E-01
 -1     24867 1.78257E-01
 -1     24868 1.82645E-01
 -1     24873 1.77795E-01
 -1     24874 1.77333E-01
 -1     24875 1.81699E-01
 -1     24880 1.76632E-01
 -1     24881 1.75931E-01
 -1     24882 1.80262E-01
 -1     24887 1.74931E-01
 -1     24891 1.74931E-01
 -1     24892 1.75931E-01
 -1     24893 1.80262E-01
 -1     24898 1.76632E-01
 -1     24899 1.77333E-01
 -1     24900 1.81699E-01
 -1     24905 1.77795E-01
 -1     24906 1.78257E-01
 -1     24907 1.82645E-01
 -1     24912 1.78520E-01
 -1     24913 1.78782E-01
 -1     24914 1.83182E-01
 -1     24919 1.78867E-01
 -1     24920 1.78952E-01
 -1     24921 1.83355E-01
 -1     24926 1.78952E-01
 -1     24927 1.78952E-01
 -1     24928 1.83355E-01
 -1     24933 1.78867E-01
 -1     24934 1.78782E-01
 -1     24935 1.83182E-01
 -1     24940 1.78520E-01
 -1     24941 1.78257E-01
 -1     24942 1.82645E-01
 -1     24947 1.77795E-01
 -1     24948 1.77333E-01
 -1     24949 1.81699E-01
 -1     24954 1.76632E-01
 -1     24955 1.75931E-01
 -1     24956 1.80262E-01
 -1     24961 1.74931E-01
 -1     24965 1.74931E-01
 -1     24966 1.75931E-01
 -1     24967 1.80262E-01
 -1     24972 1.76632E-01
 -1     24973 1.77333E-01
 -1     24974 1.81699E-01
 -1     24979 1.77795E-01
 -1     24980 1.78257E-01
 -1     24981 1.82645E-01
 -1     24986 1.78520E-01
 -1     24987 1.78782E-01
 -1     24988 1.83182E-01
 -1     24993 1.78867E-01
 -1     24994 1.78952E-01
 -1     24995 1.83355E-01
 -1     25000 1.78952E-01
 -1     25001 1.78952E-01
 -1     25002 1.83355E-01
 -1     25007 1.78867E-01
 -1     25008 1.78782E-01
 -1     25009 1.83182E-01
 -1     25014 1.78520E-01
 -1     25015 1.78257E-01
 -1     25016 1.82645E-01
 -1     25021 1.77795E-01
 -1     25022 1.77333E-01
 -1     25023 1.81699E-01
 -1     25028 1.76632E-01
 -1     25029 1.75931E-01
 -1     25030 1.80262E-01
 -1     25035 1.74931E-01
 -1     25039 1.74931E-01
 -1     25040 1.75931E-01
 -1     25041 1.80262E-01
 -1     25046 1.76632E-01
 -1     25047 1.77333E-01
 -1     25048 1.81699E-01
 -1     25053 1.77795E-01
 -1     25054 1.78257E-01
 -1     25055 1.82645E-01
 -1     25060 1.78520E-01
 -1     25061 1.78782E-01
 -1     25062 1.83182E-01
 -1     25067 1.78867E-01
 -1     25068 1.78952E-01
 -1     25069 1.83355E-01
 -1     25074 1.78952E-01
 -1     25075 1.78952E-01
 -1     25076 1.83355E-01
 -1     25081 1.78867E-01
 -1     25082 1.78782E-01
 -1     25083 1.83182E-01
 -1     25088 1.78520E-01
 -1     25089 1.78257E-01
 -1     25090 1.82645E-01
 -1     25095 1.77795E-01
 -1     25096 1.77333E-01
 -1     25097 1.81699E-01
 -1     25102 1.76632E-01
 -1     25103 1.75931E-01
 -1     25104 1.80262E-01
 -1     25109 1.74931E-01
 -1     25113 1.74931E-01
 -1     25114 1.75931E-01
 -1     25115 1.80262E-01
 -1     25120 1.76632E-01
 -1     25121 1.77333E-01
 -1     25122 1.81699E-01
 -1     25127 1.77795E-01
 -1     25128 1.78257E-01
 -1     25129 1.82645E-01
 -1     25134 1.78520E-01
 -1     25135 1.78782E-01
 -1     25136 1.83182E-01
 -1     25141 1.78867E-01
 -1     25142 1.78952E-01
 -1     25143 1.83355E-01
 -1     25148 1.78952E-01
 -1     25149 1.78952E-01
 -1     25150 1.83355E-01
 -1     25155 1.78867E-01
 -1     25156 1.78782E-01
 -1     25157 1.83182E-01
 -1     25162 1.78520E-01
 -1     25163 1.78257E-01
 -1     25164 1.82645E-01
 -1     25169 1.77795E-01
 -1     25170 1.77333E-01
 -1     25171 1.81699E-01
 -1     25176 1.76632E-01
 -1     25177 1.75931E-01
 -1     25178 1.80262E-01
 -1     25183 1.74931E-01
 -1     25187 1.74931E-01
 -1     25188 1.75931E-01
 -1     25189 1.80262E-01
 -1     25194 1.76632E-01
 -1     25195 1.77333E-01
 -1     25196 1.81699E-01
 -1     25201 1.77795E-01
 -1     25202 1.78257E-01
 -1     25203 1.82645E-01
 -1     25208 1.78520E-01
 -1     25209 1.78782E-01
 -1     25210 1.83182E-01
 -1     25215 1.78867E-01
 -1     25216 1.78952E-01
 -1     25217 1.83355E-01
 -1     25222 1.78952E-01
 -1     25223 1.78952E-01
 -1     25224 1.83355E-01
 -1     25229 1.78867E-01
 -1     25230 1.78782E-01
 -1     25231 1.83182E-01
 -1     25236 1.78520E-01
 -1     25237 1.78257E-01
 -1     25238 1.82645E-01
 -1     25243 1.77795E-01
 -1     25244 1.77333E-01
 -1     25245 1.81699E-01
 -1     25250 1.76632E-01
 -1     25251 1.75931E-01
 -1     25252 1.80262E-01
 -1     25257 1.74931E-01
 -1     25261 1.74931E-01
 -1     25262 1.75931E-01
 -1     25263 1.80262E-01
 -1     25268 1.76632E-01
 -1     25269 1.77333E-01
 -1     25270 1.81699E-01
 -1     25275 1.77795E-01
 -1     25276 1.78257E-01
 -1     25277 1.82645E-01
 -1     25282 1.78520E-01
 -1     25283 1.78782E-01
 -1     25284 1.83182E-01
 -1     25289 1.78867E-01
 -1     25290 1.78952E-01
 -1     25291 1.83355E-01
 -1     25296 1.78952E-01
 -1     25297 1.78952E-01
 -1     25298 1.83355E-01
 -1     25303 1.78867E-01
 -1     25304 1.78782E-01
 -1     25305 1.83182E-01
 -1     25310 1.78520E-01
 -1     25311 1.78257E-01
 -1     25312 1.82645E-01
 -1     25317 1.77795E-01
 -1     25318 1.77333E-01
 -1     25319 1.81699E-01
 -1     25324 1.76632E-01
 -1     25325 1.75931E-01
 -1     25326 1.80262E-01
 -1     25331 1.74931E-01
 -1     25335 1.74931E-01
 -1     25336 1.75931E-01
 -1     25337 1.80262E-01
 -1     25342 1.76632E-01
 -1     25343 1.77333E-01
 -1     25344 1.81699E-01
 -1     25349 1.77795E-01
 -1     25350 1.78257E-01
 -1     25351 1.82645E-01
 -1     25356 1.78520E-01
 -1     25357 1.78782E-01
 -1     25358 1.83182E-01
 -1     25363 1.78867E-01
 -1     25364 1.78952E-01
 -1     25365 1.83355E-01
 -1     25370 1.78952E-01
 -1     25371 1.78952E-01
 -1     25372 1.83355E-01
 -1     25377 1.78867E-01
 -1     25378 1.78782E-01
 -1     25379 1.83182E-01
 -1     25384 1.78520E-01
 -1     25385 1.78257E-01
 -1     25386 1.82645E-01
 -1     25391 1.77795E-01
 -1     25392 1.77333E-01
 -1     25393 1.81699E-01
 -1     25398 1.76632E-01
 -1     25399 1.75931E-01
 -1     25400 1.80262E-01
 -1     25405 1.74931E-01
 -1     25409 1.74931E-01
 -1     25410 1.75931E-01
 -1     25411 1.80262E-01
 -1     25416 1.76632E-01
 -1     25417 1.77333E-01
 -1     25418 1.81699E-01
 -1     25423 1.77795E-01
 -1     25424 1.78257E-01
 -1     25425 1.82645E-01
 -1     25430 1.78520E-01
 -1     25431 1.78782E-01
 -1     25432 1.83182E-01
 -1     25437 1.78867E-01
 -1     25438 1.78952E-01
 -1     25439 1.83355E-01
 -1     25444 1.78952E-01
 -1     25445 1.78952E-01
 -1     25446 1.83355E-01
 -1     25451 1.78867E-01
 -1     25452 1.78782E-01
 -1     25453 1.83182E-01
 -1     25458 1.78520E-01
 -1     25459 1.78257E-01
 -1     25460 1.82645E-01
 -1     25465 1.77795E-01
 -1     25466 1.77333E-01
 -1     25467 1.81699E-01
 -1     25472 1.76632E-01
 -1     25473 1.75931E-01
 -1     25474 1.80262E-01
 -1     25479 1.74931E-01
 -1     25483 1.75931E-01
 -1     25487 1.77333E-01
 -1     25491 1.78257E-01
 -1     25495 1.78782E-01
 -1     25499 1.78952E-01
 -1     25503 1.78952E-01
 -1     25507 1.78782E-01
 -1     25511 1.78257E-01
 -1     25515 1.77333E-01
 -1     25519 1.75931E-01
 -1     25525 1.66807E-01
 -1     25526 1.67749E-01
 -1     25527 1.71840E-01
 -1     25532 1.68414E-01
 -1     25533 1.69079E-01
 -1     25534 1.73206E-01
 -1     25539 1.69519E-01
 -1     25540 1.69959E-01
 -1     25541 1.74108E-01
 -1     25546 1.70210E-01
 -1     25547 1.70460E-01
 -1     25548 1.74621E-01
 -1     25553 1.70542E-01
 -1     25554 1.70623E-01
 -1     25555 1.74787E-01
 -1     25560 1.70623E-01
 -1     25561 1.70623E-01
 -1     25562 1.74787E-01
 -1     25567 1.70542E-01
 -1     25568 1.70460E-01
 -1     25569 1.74621E-01
 -1     25574 1.70210E-01
 -1     25575 1.69959E-01
 -1     25576 1.74108E-01
 -1     25581 1.69519E-01
 -1     25582 1.69079E-01
 -1     25583 1.73206E-01
 -1     25588 1.68414E-01
 -1     25589 1.67749E-01
 -1     25590 1.71840E-01
 -1     25595 1.66807E-01
 -1     25599 1.66807E-01
 -1     25600 1.67749E-01
 -1     25601 1.71840E-01
 -1     25606 1.68414E-01
 -1     25607 1.69079E-01
 -1     25608 1.73206E-01
 -1     25613 1.69519E-01
 -1     25614 1.69959E-01
 -1     25615 1.74108E-01
 -1     25620 1.70210E-01
 -1     25621 1.70460E-01
 -1     25622 1.74621E-01
 -1     25627 1.70542E-01
 -1     25628 1.70623E-01
 -1     25629 1.74787E-01
 -1     25634 1.70623E-01
 -1     25635 1.70623E-01
 -1     25636 1.74787E-01
 -1     25641 1.70542E-01
 -1     25642 1.70460E-01
 -1     25643 1.74621E-01
 -1     25648 1.70210E-01
 -1     25649 1.69959E-01
 -1     25650 1.74108E-01
 -1     25655 1.69519E-01
 -1     25656 1.69079E-01
 -1     25657 1.73206E-01
 -1     25662 1.68414E-01
 -1     25663 1.67749E-01
 -1     25664 1.71840E-01
 -1     25669 1.66807E-01
 -1     25673 1.66807E-01
 -1     25674 1.67749E-01
 -1     25675 1.71840E-01
 -1     25680 1.68414E-01
 -1     25681 1.69079E-01
 -1     25682 1.73206E-01
 -1     25687 1.69519E-01
 -1     25688 1.69959E-01
 -1     25689 1.74108E-01
 -1     25694 1.70210E-01
 -1     25695 1.70460E-01
 -1     25696 1.74621E-01
 -1     25701 1.70542E-01
 -1     25702 1.70623E-01
 -1     25703 1.74787E-01
 -1     25708 1.70623E-01
 -1     25709 1.70623E-01
 -1     25710 1.74787E-01
 -1     25715 1.70542E-01
 -1     25716 1.70460E-01
 -1     25717 1.74621E-01
 -1     25722 1.70210E-01
 -1     25723 1.69959E-01
 -1     25724 1.74108E-01
 -1     25729 1.69519E-01
 -1     25730 1.69079E-01
 -1     25731 1.73206E-01
 -1     25736 1.68414E-01
 -1     25737 1.67749E-01
 -1     25738 1.71840E-01
 -1     25743 1.66807E-01
 -1     25747 1.66807E-01
 -1     25748 1.67749E-01
 -1     25749 1.71840E-01
 -1     25754 1.68414E-01
 -1     25755 1.69079E-01
 -1     25756 1.73206E-01
 -1     25761 1.69519E-01
 -1     25762 1.69959E-01
 -1     25763 1.74108E-01
 -1     25768 1.70210E-01
 -1     25769 1.70460E-01
 -1     25770 1.74621E-01
 -1     25775 1.70542E-01
 -1     25776 1.70623E-01
 -1     25777 1.74787E-01
 -1     25782 1.70623E-01
 -1     25783 1.70623E-01
 -1     25784 1.74787E-01
 -1     25789 1.70542E-01
 -1     25790 1.70460E-01
 -1     25791 1.74621E-01
 -1     25796 1.70210E-01
 -1     25797 1.69959E-01
 -1     25798 1.74108E-01
 -1     25803 1.69519E-01
 -1     25804 1.69079E-01
 -1     25805 1.73206E-01
 -1     25810 1.68414E-01
 -1     25811 1.67749E-01
 -1     25812 1.71840E-01
 -1     25817 1.66807E-01
 -1     25821 1.66807E-01
 -1     25822 1.67749E-01
 -1     25823 1.71840E-01
 -1     25828 1.68414E-01
 -1     25829 1.69079E-01
 -1     25830 1.73206E-01
 -1     25835 1.69519E-01
 -1     25836 1.69959E-01
 -1     25837 1.74108E-01
 -1     25842 1.70210E-01
 -1     25843 1.70460E-01
 -1     25844 1.74621E-01
 -1     25849 1.70542E-01
 -1     25850 1.70623E-01
 -1     25851 1.74787E-01
 -1     25856 1.70623E-01
 -1     25857 1.70623E-01
 -1     25858 1.74787E-01
 -1     25863 1.70542E-01
 -1     25864 1.70460E-01
 -1     25865 1.74621E-01
 -1     25870 1.70210E-01
 -1     25871 1.69959E-01
 -1     25872 1.74108E-01
 -1     25877 1.69519E-01
 -1     25878 1.69079E-01
 -1     25879 1.73206E-01
 -1     25884 1.68414E-01
 -1     25885 1.67749E-01
 -1     25886 1.71840E-01
 -1     25891 1.66807E-01
 -1     25895 1.66807E-01
 -1     25896 1.67749E-01
 -1     25897 1.71840E-01
 -1     25902 1.68414E-01
 -1     25903 1.69079E-01
 -1     25904 1.73206E-01
 -1     25909 1.69519E-01
 -1     25910 1.69959E-01
 -1     25911 1.74108E-01
 -1     25916 1.70210E-01
 -1     25917 1.70460E-01
 -1     25918 1.74621E-01
 -1     25923 1.70542E-01
 -1     25924 1.70623E-01
 -1     25925 1.74787E-01
 -1     25930 1.70623E-01
 -1     25931 1.70623E-01
 -1     25932 1.74787E-01
 -1     25937 1.70542E-01
 -1     25938 1.70460E-01
 -1     25939 1.74621E-01
 -1     25944 1.70210E-01
 -1     25945 1.69959E-01
 -1     25946 1.74108E-01
 -1     25951 1.69519E-01
 -1     25952 1.69079E-01
 -1     25953 1.73206E-01
 -1     25958 1.68414E-01
 -1     25959 1.67749E-01
 -1     25960 1.71840E-01
 -1     25965 1.66807E-01
 -1     25969 1.66807E-01
 -1     25970 1.67749E-01
 -1     25971 1.71840E-01
 -1     25976 1.68414E-01
 -1     25977 1.69079E-01
 -1     25978 1.73206E-01
 -1     25983 1.69519E-01
 -1     25984 1.69959E-01
 -1     25985 1.74108E-01
 -1     25990 1.70210E-01
 -1     25991 1.70460E-01
 -1     25992 1.74621E-01
 -1     25997 1.70542E-01
 -1     25998 1.70623E-01
 -1     25999 1.74787E-01
 -1     26004 1.70623E-01
 -1     26005 1.70623E-01
 -1     26006 1.74787E-01
 -1     26011 1.70542E-01
 -1     26012 1.70460E-01
 -1     26013 1.74621E-01
 -1     26018 1.70210E-01
 -1     26019 1.69959E-01
 -1     26020 1.74108E-01
 -1     26025 1.69519E-01
 -1     26026 1.69079E-01
 -1     26027 1.73206E-01
 -1     26032 1.68414E-01
 -1     26033 1.67749E-01
 -1     26034 1.71840E-01
 -1     26039 1.66807E-01
 -1     26043 1.66807E-01
 -1     26044 1.67749E-01
 -1     26045 1.71840E-01
 -1     26050 1.68414E-01
 -1     26051 1.69079E-01
 -1     26052 1.73206E-01
 -1     26057 1.69519E-01
 -1     26058 1.69959E-01
 -1     26059 1.74108E-01
 -1     26064 1.70210E-01
 -1     26065 1.70460E-01
 -1     26066 1.74621E-01
 -1     26071 1.70542E-01
 -1     26072 1.70623E-01
 -1     26073 1.74787E-01
 -1     26078 1.70623E-01
 -1     26079 1.70623E-01
 -1     26080 1.74787E-01
 -1     26085 1.70542E-01
 -1     26086 1.70460E-01
 -1     26087 1.74621E-01
 -1     26092 1.70210E-01
 -1     26093 1.69959E-01
 -1     26094 1.74108E-01
 -1     26099 1.69519E-01
 -1     26100 1.69079E-01
 -1     26101 1.73206E-01
 -1     26106 1.68414E-01
 -1     26107 1.67749E-01
 -1     26108 1.71840E-01
 -1     26113 1.66807E-01
 -1     26117 1.66807E-01
 -1     26118 1.67749E-01
 -1     26119 1.71840E-01
 -1     26124 1.68414E-01
 -1     26125 1.69079E-01
 -1     26126 1.73206E-01
 -1     26131 1.69519E-01
 -1     26132 1.69959E-01
 -1     26133 1.74108E-01
 -1     26138 1.70210E-01
 -1     26139 1.70460E-01
 -1     26140 1.74621E-01
 -1     26145 1.70542E-01
 -1     26146 1.70623E-01
 -1     26147 1.74787E-01
 -1     26152 1.70623E-01
 -1     26153 1.70623E-01
 -1     26154 1.74787E-01
 -1     26159 1.70542E-01
 -1     26160 1.70460E-01
 -1     26161 1.74621E-01
 -1     26166 1.70210E-01
 -1     26167 1.69959E-01
 -1     26168 1.74108E-01
 -1     26173 1.69519E-01
 -1     26174 1.69079E-01
 -1     26175 1.73206E-01
 -1     26180 1.68414E-01
 -1     26181 1.67749E-01
 -1     26182 1.71840E-01
 -1     26187 1.66807E-01
 -1     26191 1.67749E-01
 -1     26195 1.69079E-01
 -1     26199 1.69959E-01
 -1     26203 1.70460E-01
 -1     26207 1.70623E-01
 -1     26211 1.70623E-01
 -1     26215 1.70460E-01
 -1     26219 1.69959E-01
 -1     26223 1.69079E-01
 -1     26227 1.67749E-01
 -1     26233 1.59082E-01
 -1     26234 1.59967E-01
 -1     26235 1.63858E-01
 -1     26240 1.60594E-01
 -1     26241 1.61221E-01
 -1     26242 1.65150E-01
 -1     26247 1.61637E-01
 -1     26248 1.62054E-01
 -1     26249 1.66007E-01
 -1     26254 1.62293E-01
 -1     26255 1.62531E-01
 -1     26256 1.66496E-01
 -1     26261 1.62608E-01
 -1     26262 1.62685E-01
 -1     26263 1.66654E-01
 -1     26268 1.62685E-01
 -1     26269 1.62685E-01
 -1     26270 1.66654E-01
 -1     26275 1.62608E-01
 -1     26276 1.62531E-01
 -1     26277 1.66496E-01
 -1     26282 1.62293E-01
 -1     26283 1.62054E-01
 -1     26284 1.66007E-01
 -1     26289 1.61637E-01
 -1     26290 1.61221E-01
 -1     26291 1.65150E-01
 -1     26296 1.60594E-01
 -1     26297 1.59967E-01
 -1     26298 1.63858E-01
 -1     26303 1.59082E-01
 -1     26307 1.59082E-01
 -1     26308 1.59967E-01
 -1     26309 1.63858E-01
 -1     26314 1.60594E-01
 -1     26315 1.61221E-01
 -1     26316 1.65150E-01
 -1     26321 1.61637E-01
 -1     26322 1.62054E-01
 -1     26323 1.66007E-01
 -1     26328 1.62293E-01
 -1     26329 1.62531E-01
 -1     26330 1.66496E-01
 -1     26335 1.62608E-01
 -1     26336 1.62685E-01
 -1     26337 1.66654E-01
 -1     26342 1.62685E-01
 -1     26343 1.62685E-01
 -1     26344 1.66654E-01
 -1     26349 1.62608E-01
 -1     26350 1.62531E-01
 -1     26351 1.66496E-01
 -1     26356 1.62293E-01
 -1     26357 1.62054E-01
 -1     26358 1.66007E-01
 -1     26363 1.61637E-01
 -1     26364 1.61221E-01
 -1     26365 1.65150E-01
 -1     26370 1.60594E-01
 -1     26371 1.59967E-01
 -1     26372 1.63858E-01
 -1     26377 1.59082E-01
 -1     26381 1.59082E-01
 -1     26382 1.59967E-01
 -1     26383 1.63858E-01
 -1     26388 1.60594E-01
 -1     26389 1.61221E-01
 -1     26390 1.65150E-01
 -1     26395 1.61637E-01
 -1     26396 1.62054E-01
 -1     26397 1.66007E-01
 -1     26402 1.62293E-01
 -1     26403 1.62531E-01
 -1     26404 1.66496E-01
 -1     26409 1.62608E-01
 -1     26410 1.62685E-01
 -1     26411 1.66654E-01
 -1     26416 1.62685E-01
 -1     26417 1.62685E-01
 -1     26418 1.66654E-01
 -1     26423 1.62608E-01
 -1     26424 1.62531E-01
 -1     26425 1.66496E-01
 -1     26430 1.62293E-01
 -1     26431 1.62054E-01
 -1     26432 1.66007E-01
 -1     26437 1.61637E-01
 -1     26438 1.61221E-01
 -1     26439 1.65150E-01
 -1     26444 1.60594E-01
 -1     26445 1.59967E-01
 -1     26446 1.63858E-01
 -1     26451 1.59082E-01
 -1     26455 1.59082E-01
 -1     26456 1.59967E-01
 -1     26457 1.63858E-01
 -1     26462 1.60594E-01
 -1     26463 1.61221E-01
 -1     26464 1.65150E-01
 -1     26469 1.61637E-01
 -1     26470 1.62054E-01
 -1     26471 1.66007E-01
 -1     26476 1.62293E-01
 -1     26477 1.62531E-01
 -1     26478 1.66496E-01
 -1     26483 1.62608E-01
 -1     26484 1.62685E-01
 -1     26485 1.66654E-01
 -1     26490 1.62685E-01
 -1     26491 1.62685E-01
 -1     26492 1.66654E-01
 -1     26497 1.62608E-01
 -1     26498 1.62531E-01
 -1     26499 1.66496E-01
 -1     26504 1.62293E-01
 -1     26505 1.62054E-01
 -1     26506 1.66007E-01
 -1     26511 1.61637E-01
 -1     26512 1.61221E-01
 -1     26513 1.65150E-01
 -1     26518 1.60594E-01
 -1     26519 1.59967E-01
 -1     26520 1.63858E-01
 -1     26525 1.59082E-01
 -1     26529 1.59082E-01
 -1     26530 1.59967E-01
 -1     26531 1.63858E-01
 -1     26536 1.60594E-01
 -1     26537 1.61221E-01
 -1     26538 1.65150E-01
 -1     26543 1.61637E-01
 -1     26544 1.62054E-01
 -1     26545 1.66007E-01
 -1     26550 1.62293E-01
 -1     26551 1.62531E-01
 -1     26552 1.66496E-01
 -1     26557 1.62608E-01
 -1     26558 1.62685E-01
 -1     26559 1.66654E-01
 -1     26564 1.62685E-01
 -1     26565 1.62685E-01
 -1     26566 1.66654E-01
 -1     26571 1.62608E-01
 -1     26572 1.62531E-01
 -1     26573 1.66496E-01
 -1     26578 1.62293E-01
 -1     26579 1.62054E-01
 -1     26580 1.66007E-01
 -1     26585 1.61637E-01
 -1     26586 1.61221E-01
 -1     26587 1.65150E-01
 -1     26592 1.60594E-01
 -1     26593 1.59967E-01
 -1     26594 1.63858E-01
 -1     26599 1.59082E-01
 -1     26603 1.59082E-01
 -1     26604 1.59967E-01
 -1     26605 1.63858E-01
 -1     26610 1.60594E-01
 -1     26611 1.61221E-01
 -1     26612 1.65150E-01
 -1     26617 1.61637E-01
 -1     26618 1.62054E-01
 -1     26619 1.66007E-01
 -1     26624 1.62293E-01
 -1     26625 1.62531E-01
 -1     26626 1.66496E-01
 -1     26631 1.62608E-01
 -1     26632 1.62685E-01
 -1     26633 1.66654E-01
 -1     26638 1.62685E-01
 -1     26639 1.62685E-01
 -1     26640 1.66654E-01
 -1     26645 1.62608E-01
 -1     26646 1.62531E-01
 -1     26647 1.66496E-01
 -1     26652 1.62293E-01
 -1     26653 1.62054E-01
 -1     26654 1.66007E-01
 -1     26659 1.61637E-01
 -1     26660 1.61221E-01
 -1     26661 1.65150E-01
 -1     26666 1.60594E-01
 -1     26667 1.59967E-01
 -1     26668 1.63858E-01
 -1     26673 1.59082E-01
 -1     26677 1.59082E-01
 -1     26678 1.59967E-01
 -1     26679 1.63858E-01
 -1     26684 1.60594E-01
 -1     26685 1.61221E-01
 -1     26686 1.65150E-01
 -1     26691 1.61637E-01
 -1     26692 1.62054E-01
 -1     26693 1.66007E-01
 -1     26698 1.62293E-01
 -1     26699 1.62531E-01
 -1     26700 1.66496E-01
 -1     26705 1.62608E-01
 -1     26706 1.62685E-01
 -1     26707 1.66654E-01
 -1     26712 1.62685E-01
 -1     26713 1.62685E-01
 -1     26714 1.66654E-01
 -1     26719 1.62608E-01
 -1     26720 1.62531E-01
 -1     26721 1.66496E-01
 -1     26726 1.62293E-01
 -1     26727 1.62054E-01
 -1     26728 1.66007E-01
 -1     26733 1.61637E-01
 -1     26734 1.61221E-01
 -1     26735 1.65150E-01
 -1     26740 1.60594E-01
 -1     26741 1.59967E-01
 -1     26742 1.63858E-01
 -1     26747 1.59082E-01
 -1     26751 1.59082E-01
 -1     26752 1.59967E-01
 -1     26753 1.63858E-01
 -1     26758 1.60594E-01
 -1     26759 1.61221E-01
 -1     26760 1.65150E-01
 -1     26765 1.61637E-01
 -1     26766 1.62054E-01
 -1     26767 1.66007E-01
 -1     26772 1.62293E-01
 -1     26773 1.62531E-01
 -1     26774 1.66496E-01
 -1     26779 1.62608E-01
 -1     26780 1.62685E-01
 -1     26781 1.66654E-01
 -1     26786 1.62685E-01
 -1     26787 1.62685E-01
 -1     26788 1.66654E-01
 -1     26793 1.62608E-01
 -1     26794 1.62531E-01
 -1     26795 1.66496E-01
 -1     26800 1.62293E-01
 -1     26801 1.62054E-01
 -1     26802 1.66007E-01
 -1     26807 1.61637E-01
 -1     26808 1.61221E-01
 -1     26809 1.65150E-01
 -1     26814 1.60594E-01
 -1     26815 1.59967E-01
 -1     26816 1.63858E-01
 -1     26821 1.59082E-01
 -1     26825 1.59082E-01
 -1     26826 1.59967E-01
 -1     26827 1.63858E-01
 -1     26832 1.60594E-01
 -1     26833 1.61221E-01
 -1     26834 1.65150E-01
 -1     26839 1.61637E-01
 -1     26840 1.62054E-01
 -1     26841 1.66007E-01
 -1     26846 1.62293E-01
 -1     26847 1.62531E-01
 -1     26848 1.66496E-01
 -1     26853 1.62608E-01
 -1     26854 1.62685E-01
 -1     26855 1.66654E-01
 -1     26860 1.62685E-01
 -1     26861 1.62685E-01
 -1     26862 1.66654E-01
 -1     26867 1.62608E-01
 -1     26868 1.62531E-01
 -1     26869 1.66496E-01
 -1     26874 1.62293E-01
 -1     26875 1.62054E-01
 -1     26876 1.66007E-01
 -1     26881 1.61637E-01
 -1     26882 1.61221E-01
 -1     26883 1.65150E-01
 -1     26888 1.60594E-01
 -1     26889 1.59967E-01
 -1     26890 1.63858E-01
 -1     26895 1.59082E-01
 -1     26899 1.59967E-01
 -1     26903 1.61221E-01
 -1     26907 1.62054E-01
 -1     26911 1.62531E-01
 -1     26915 1.62685E-01
 -1     26919 1.62685E-01
 -1     26923 1.62531E-01
 -1     26927 1.62054E-01
 -1     26931 1.61221E-01
 -1     26935 1.59967E-01
 -1     26941 1.51640E-01
 -1     26942 1.52458E-01
 -1     26943 1.56213E-01
 -1     26948 1.53043E-01
 -1     26949 1.53628E-01
 -1     26950 1.57424E-01
 -1     26955 1.54020E-01
 -1     26956 1.54411E-01
 -1     26957 1.58233E-01
 -1     26962 1.54636E-01
 -1     26963 1.54861E-01
 -1     26964 1.58696E-01
 -1     26969 1.54934E-01
 -1     26970 1.55006E-01
 -1     26971 1.58846E-01
 -1     26976 1.55006E-01
 -1     26977 1.55006E-01
 -1     26978 1.58846E-01
 -1     26983 1.54934E-01
 -1     26984 1.54861E-01
 -1     26985 1.58696E-01
 -1     26990 1.54636E-01
 -1     26991 1.54411E-01
 -1     26992 1.58233E-01
 -1     26997 1.54020E-01
 -1     26998 1.53628E-01
 -1     26999 1.57424E-01
 -1     27004 1.53043E-01
 -1     27005 1.52458E-01
 -1     27006 1.56213E-01
 -1     27011 1.51640E-01
 -1     27015 1.51640E-01
 -1     27016 1.52458E-01
 -1     27017 1.56213E-01
 -1     27022 1.53043E-01
 -1     27023 1.53628E-01
 -1     27024 1.57424E-01
 -1     27029 1.54020E-01
 -1     27030 1.54411E-01
 -1     27031 1.58233E-01
 -1     27036 1.54636E-01
 -1     27037 1.54861E-01
 -1     27038 1.58696E-01
 -1     27043 1.54934E-01
 -1     27044 1.55006E-01
 -1     27045 1.58846E-01
 -1     27050 1.55006E-01
 -1     27051 1.55006E-01
 -1     27052 1.58846E-01
 -1     27057 1.54934E-01
 -1     27058 1.54861E-01
 -1     27059 1.58696E-01
 -1     27064 1.54636E-01
 -1     27065 1.54411E-01
 -1     27066 1.58233E-01
 -1     27071 1.54020E-01
 -1     27072 1.53628E-01
 -1     27073 1.57424E-01
 -1     27078 1.53043E-01
 -1     27079 1.52458E-01
 -1     27080 1.56213E-01
 -1     27085 1.51640E-01
 -1     27089 1.51640E-01
 -1     27090 1.52458E-01
 -1     27091 1.56213E-01
 -1     27096 1.53043E-01
 -1     27097 1.53628E-01
 -1     27098 1.57424E-01
 -1     27103 1.54020E-01
 -1     27104 1.54411E-01
 -1     27105 1.58233E-01
 -1     27110 1.54636E-01
 -1     27111 1.54861E-01
 -1     27112 1.58696E-01
 -1     27117 1.54934E-01
 -1     27118 1.55006E-01
 -1     27119 1.58846E-01
 -1     27124 1.55006E-01
 -1     27125 1.55006E-01
 -1     27126 1.58846E-01
 -1     27131 1.54934E-01
 -1     27132 1.54861E-01
 -1     27133 1.58696E-01
 -1     27138 1.54636E-01
 -1     27139 1.54411E-01
 -1     27140 1.58233E-01
 -1     27145 1.54020E-01
 -1     27146 1.53628E-01
 -1     27147 1.57424E-01
 -1     27152 1.53043E-01
 -1     27153 1.52458E-01
 -1     27154 1.56213E-01
 -1     27159 1.51640E-01
 -1     27163 1.51640E-01
 -1     27164 1.52458E-01
 -1     27165 1.56213E-01
 -1     27170 1.53043E-01
 -1     27171 1.53628E-01
 -1     27172 1.57424E-01
 -1     27177 1.54020E-01
 -1     27178 1.54411E-01
 -1     27179 1.58233E-01
 -1     27184 1.54636E-01
 -1     27185 1.54861E-01
 -1     27186 1.58696E-01
 -1     27191 1.54934E-01
 -1     27192 1.55006E-01
 -1     27193 1.58846E-01
 -1     27198 1.55006E-01
 -1     27199 1.55006E-01
 -1     27200 1.58846E-01
 -1     27205 1.54934E-01
 -1     27206 1.54861E-01
 -1     27207 1.58696E-01
 -1     27212 1.54636E-01
 -1     27213 1.54411E-01
 -1     27214 1.58233E-01
 -1     27219 1.54020E-01
 -1     27220 1.53628E-01
 -1     27221 1.57424E-01
 -1     27226 1.53043E-01
 -1     27227 1.52458E-01
 -1     27228 1.56213E-01
 -1     27233 1.51640E-01
 -1     27237 1.51640E-01
 -1     27238 1.52458E-01
 -1     27239 1.56213E-01
 -1     27244 1.53043E-01
 -1     27245 1.53628E-01
 -1     27246 1.57424E-01
 -1     27251 1.54020E-01
 -1     27252 1.54411E-01
 -1     27253 1.58233E-01
 -1     27258 1.54636E-01
 -1     27259 1.54861E-01
 -1     27260 1.58696E-01
 -1     27265 1.54934E-01
 -1     27266 1.55006E-01
 -1     27267 1.58846E-01
 -1     27272 1.55006E-01
 -1     27273 1.55006E-01
 -1     27274 1.58846E-01
 -1     27279 1.54934E-01
 -1     27280 1.54861E-01
 -1     27281 1.58696E-01
 -1     27286 1.54636E-01
 -1     27287 1.54411E-01
 -1     27288 1.58233E-01
 -1     27293 1.54020E-01
 -1     27294 1.53628E-01
 -1     27295 1.57424E-01
 -1     27300 1.53043E-01
 -1     27301 1.52458E-01
 -1     27302 1.56213E-01
 -1     27307 1.51640E-01
 -1     27311 1.51640E-01
 -1     27312 1.52458E-01
 -1     27313 1.56213E-01
 -1     27318 1.53043E-01
 -1     27319 1.53628E-01
 -1     27320 1.57424E-01
 -1     27325 1.54020E-01
 -1     27326 1.54411E-01
 -1     27327 1.58233E-01
 -1     27332 1.54636E-01
 -1     27333 1.54861E-01
 -1     27334 1.58696E-01
 -1     27339 1.54934E-01
 -1     27340 1.55006E-01
 -1     27341 1.58846E-01
 -1     27346 1.55006E-01
 -1     27347 1.55006E-01
 -1     27348 1.58846E-01
 -1     27353 1.54934E-01
 -1     27354 1.54861E-01
 -1     27355 1.58696E-01
 -1     27360 1.54636E-01
 -1     27361 1.54411E-01
 -1     27362 1.58233E-01
 -1     27367 1.54020E-01
 -1     27368 1.53628E-01
 -1     27369 1.57424E-01
 -1     27374 1.53043E-01
 -1     27375 1.52458E-01
 -1     27376 1.56213E-01
 -1     27381 1.51640E-01
 -1     27385 1.51640E-01
 -1     27386 1.52458E-01
 -1     27387 1.56213E-01
 -1     27392 1.53043E-01
 -1     27393 1.53628E-01
 -1     27394 1.57424E-01
 -1     27399 1.54020E-01
 -1     27400 1.54411E-01
 -1     27401 1.58233E-01
 -1     27406 1.54636E-01
 -1     27407 1.54861E-01
 -1     27408 1.58696E-01
 -1     27413 1.54934E-01
 -1     27414 1.55006E-01
 -1     27415 1.58846E-01
 -1     27420 1.55007E-01
 -1     27421 1.55006E-01
 -1     27422 1.58846E-01
 -1     27427 1.54934E-01
 -1     27428 1.54861E-01
 -1     27429 1.58696E-01
 -1     27434 1.54636E-01
 -1     27435 1.54411E-01
 -1     27436 1.58233E-01
 -1     27441 1.54020E-01
 -1     27442 1.53628E-01
 -1     27443 1.57424E-01
 -1     27448 1.53043E-01
 -1     27449 1.52458E-01
 -1     27450 1.56213E-01
 -1     27455 1.51640E-01
 -1     27459 1.51640E-01
 -1     27460 1.52458E-01
 -1     27461 1.56213E-01
 -1     27466 1.53043E-01
 -1     27467 1.53628E-01
 -1     27468 1.57424E-01
 -1     27473 1.54020E-01
 -1     27474 1.54411E-01
 -1     27475 1.58233E-01
 -1     27480 1.54636E-01
 -1     27481 1.54861E-01
 -1     27482 1.58696E-01
 -1     27487 1.54934E-01
 -1     27488 1.55007E-01
 -1     27489 1.58846E-01
 -1     27494 1.55007E-01
 -1     27495 1.55007E-01
 -1     27496 1.58846E-01
 -1     27501 1.54934E-01
 -1     27502 1.54861E-01
 -1     27503 1.58696E-01
 -1     27508 1.54636E-01
 -1     27509 1.54411E-01
 -1     27510 1.58233E-01
 -1     27515 1.54020E-01
 -1     27516 1.53628E-01
 -1     27517 1.57424E-01
 -1     27522 1.53043E-01
 -1     27523 1.52458E-01
 -1     27524 1.56213E-01
 -1     27529 1.51640E-01
 -1     27533 1.51640E-01
 -1     27534 1.52458E-01
 -1     27535 1.56213E-01
 -1     27540 1.53043E-01
 -1     27541 1.53628E-01
 -1     27542 1.57424E-01
 -1     27547 1.54020E-01
 -1     27548 1.54411E-01
 -1     27549 1.58233E-01
 -1     27554 1.54636E-01
 -1     27555 1.54861E-01
 -1     27556 1.58696E-01
 -1     27561 1.54934E-01
 -1     27562 1.55007E-01
 -1     27563 1.58846E-01
 -1     27568 1.55007E-01
 -1     27569 1.55007E-01
 -1     27570 1.58846E-01
 -1     27575 1.54934E-01
 -1     27576 1.54861E-01
 -1     27577 1.58696E-01
 -1     27582 1.54636E-01
 -1     27583 1.54411E-01
 -1     27584 1.58233E-01
 -1     27589 1.54020E-01
 -1     27590 1.53628E-01
 -1     27591 1.57424E-01
 -1     27596 1.53043E-01
 -1     27597 1.52458E-01
 -1     27598 1.56213E-01
 -1     27603 1.51640E-01
 -1     27607 1.52458E-01
 -1     27611 1.53628E-01
 -1     27615 1.54411E-01
 -1     27619 1.54861E-01
 -1     27623 1.55007E-01
 -1     27627 1.55007E-01
 -1     27631 1.54861E-01
 -1     27635 1.54411E-01
 -1     27639 1.53628E-01
 -1     27643 1.52458E-01
 -1     27649 1.44271E-01
 -1     27650 1.45015E-01
 -1     27651 1.48737E-01
 -1     27656 1.45547E-01
 -1     27657 1.46079E-01
 -1     27658 1.49854E-01
 -1     27663 1.46440E-01
 -1     27664 1.46800E-01
 -1     27665 1.50606E-01
 -1     27670 1.47007E-01
 -1     27671 1.47213E-01
 -1     27672 1.51037E-01
 -1     27677 1.47278E-01
 -1     27678 1.47343E-01
 -1     27679 1.51175E-01
 -1     27684 1.47343E-01
 -1     27685 1.47343E-01
 -1     27686 1.51175E-01
 -1     27691 1.47278E-01
 -1     27692 1.47213E-01
 -1     27693 1.51037E-01
 -1     27698 1.47007E-01
 -1     27699 1.46800E-01
 -1     27700 1.50606E-01
 -1     27705 1.46440E-01
 -1     27706 1.46079E-01
 -1     27707 1.49854E-01
 -1     27712 1.45547E-01
 -1     27713 1.45015E-01
 -1     27714 1.48737E-01
 -1     27719 1.44271E-01
 -1     27723 1.44271E-01
 -1     27724 1.45015E-01
 -1     27725 1.48737E-01
 -1     27730 1.45547E-01
 -1     27731 1.46079E-01
 -1     27732 1.49854E-01
 -1     27737 1.46440E-01
 -1     27738 1.46800E-01
 -1     27739 1.50606E-01
 -1     27744 1.47007E-01
 -1     27745 1.47213E-01
 -1     27746 1.51037E-01
 -1     27751 1.47278E-01
 -1     27752 1.47343E-01
 -1     27753 1.51175E-01
 -1     27758 1.47343E-01
 -1     27759 1.47343E-01
 -1     27760 1.51175E-01
 -1     27765 1.47278E-01
 -1     27766 1.47213E-01
 -1     27767 1.51037E-01
 -1     27772 1.47007E-01
 -1     27773 1.46800E-01
 -1     27774 1.50606E-01
 -1     27779 1.46440E-01
 -1     27780 1.46079E-01
 -1     27781 1.49854E-01
 -1     27786 1.45547E-01
 -1     27787 1.45015E-01
 -1     27788 1.48737E-01
 -1     27793 1.44271E-01
 -1     27797 1.44271E-01
 -1     27798 1.45015E-01
 -1     27799 1.48737E-01
 -1     27804 1.45547E-01
 -1     27805 1.46079E-01
 -1     27806 1.49854E-01
 -1     27811 1.46440E-01
 -1     27812 1.46800E-01
 -1     27813 1.50606E-01
 -1     27818 1.47007E-01
 -1     27819 1.47213E-01
 -1     27820 1.51037E-01
 -1     27825 1.47278E-01
 -1     27826 1.47343E-01
 -1     27827 1.51175E-01
 -1     27832 1.47343E-01
 -1     27833 1.47343E-01
 -1     27834 1.51175E-01
 -1     27839 1.47278E-01
 -1     27840 1.47213E-01
 -1     27841 1.51037E-01
 -1     27846 1.47007E-01
 -1     27847 1.46800E-01
 -1     27848 1.50606E-01
 -1     27853 1.46440E-01
 -1     27854 1.46079E-01
 -1     27855 1.49854E-01
 -1     27860 1.45547E-01
 -1     27861 1.45015E-01
 -1     27862 1.48737E-01
 -1     27867 1.44271E-01
 -1     27871 1.44271E-01
 -1     27872 1.45015E-01
 -1     27873 1.48737E-01
 -1     27878 1.45547E-01
 -1     27879 1.46079E-01
 -1     27880 1.49854E-01
 -1     27885 1.46440E-01
 -1     27886 1.46800E-01
 -1     27887 1.50606E-01
 -1     27892 1.47007E-01
 -1     27893 1.47213E-01
 -1     27894 1.51037E-01
 -1     27899 1.47278E-01
 -1     27900 1.47343E-01
 -1     27901 1.51175E-01
 -1     27906 1.47343E-01
 -1     27907 1.47343E-01
 -1     27908 1.51175E-01
 -1     27913 1.47278E-01
 -1     27914 1.47213E-01
 -1     27915 1.51037E-01
 -1     27920 1.47007E-01
 -1     27921 1.46800E-01
 -1     27922 1.50606E-01
 -1     27927 1.46440E-01
 -1     27928 1.46079E-01
 -1     27929 1.49854E-01
 -1     27934 1.45547E-01
 -1     27935 1.45015E-01
 -1     27936 1.48737E-01
 -1     27941 1.44271E-01
 -1     27945 1.44271E-01
 -1     27946 1.45015E-01
 -1     27947 1.48737E-01
 -1     27952 1.45547E-01
 -1     27953 1.46079E-01
 -1     27954 1.49854E-01
 -1     27959 1.46440E-01
 -1     27960 1.46800E-01
 -1     27961 1.50606E-01
 -1     27966 1.47007E-01
 -1     27967 1.47213E-01
 -1     27968 1.51037E-01
 -1     27973 1.47278E-01
 -1     27974 1.47343E-01
 -1     27975 1.51175E-01
 -1     27980 1.47343E-01
 -1     27981 1.47343E-01
 -1     27982 1.51175E-01
 -1     27987 1.47278E-01
 -1     27988 1.47213E-01
 -1     27989 1.51037E-01
 -1     27994 1.47007E-01
 -1     27995 1.46800E-01
 -1     27996 1.50606E-01
 -1     28001 1.46440E-01
 -1     28002 1.46079E-01
 -1     28003 1.49854E-01
 -1     28008 1.45547E-01
 -1     28009 1.45015E-01
 -1     28010 1.48737E-01
 -1     28015 1.44271E-01
 -1     28019 1.44271E-01
 -1     28020 1.45015E-01
 -1     28021 1.48737E-01
 -1     28026 1.45547E-01
 -1     28027 1.46079E-01
 -1     28028 1.49854E-01
 -1     28033 1.46440E-01
 -1     28034 1.46801E-01
 -1     28035 1.50606E-01
 -1     28040 1.47007E-01
 -1     28041 1.47213E-01
 -1     28042 1.51037E-01
 -1     28047 1.47278E-01
 -1     28048 1.47343E-01
 -1     28049 1.51175E-01
 -1     28054 1.47343E-01
 -1     28055 1.47343E-01
 -1     28056 1.51175E-01
 -1     28061 1.47278E-01
 -1     28062 1.47213E-01
 -1     28063 1.51037E-01
 -1     28068 1.47007E-01
 -1     28069 1.46801E-01
 -1     28070 1.50606E-01
 -1     28075 1.46440E-01
 -1     28076 1.46079E-01
 -1     28077 1.49854E-01
 -1     28082 1.45547E-01
 -1     28083 1.45015E-01
 -1     28084 1.48737E-01
 -1     28089 1.44271E-01
 -1     28093 1.44271E-01
 -1     28094 1.45015E-01
 -1     28095 1.48737E-01
 -1     28100 1.45547E-01
 -1     28101 1.46079E-01
 -1     28102 1.49854E-01
 -1     28107 1.46440E-01
 -1     28108 1.46801E-01
 -1     28109 1.50606E-01
 -1     28114 1.47007E-01
 -1     28115 1.47213E-01
 -1     28116 1.51037E-01
 -1     28121 1.47278E-01
 -1     28122 1.47343E-01
 -1     28123 1.51175E-01
 -1     28128 1.47343E-01
 -1     28129 1.47343E-01
 -1     28130 1.51175E-01
 -1     28135 1.47278E-01
 -1     28136 1.47213E-01
 -1     28137 1.51037E-01
 -1     28142 1.47007E-01
 -1     28143 1.46801E-01
 -1     28144 1.50606E-01
 -1     28149 1.46440E-01
 -1     28150 1.46079E-01
 -1     28151 1.49854E-01
 -1     28156 1.45547E-01
 -1     28157 1.45015E-01
 -1     28158 1.48737E-01
 -1     28163 1.44271E-01
 -1     28167 1.44271E-01
 -1     28168 1.45015E-01
 -1     28169 1.48737E-01
 -1     28174 1.45547E-01
 -1     28175 1.46079E-01
 -1     28176 1.49854E-01
 -1     28181 1.46440E-01
 -1     28182 1.46800E-01
 -1     28183 1.50606E-01
 -1     28188 1.47007E-01
 -1     28189 1.47213E-01
 -1     28190 1.51037E-01
 -1     28195 1.47278E-01
 -1     28196 1.47343E-01
 -1     28197 1.51175E-01
 -1     28202 1.47343E-01
 -1     28203 1.47343E-01
 -1     28204 1.51175E-01
 -1     28209 1.47278E-01
 -1     28210 1.47213E-01
 -1     28211 1.51037E-01
 -1     28216 1.47007E-01
 -1     28217 1.46800E-01
 -1     28218 1.50606E-01
 -1     28223 1.46440E-01
 -1     28224 1.46079E-01
 -1     28225 1.49854E-01
 -1     28230 1.45547E-01
 -1     28231 1.45015E-01
 -1     28232 1.48737E-01
 -1     28237 1.44271E-01
 -1     28241 1.44271E-01
 -1     28242 1.45015E-01
 -1     28243 1.48737E-01
 -1     28248 1.45547E-01
 -1     28249 1.46079E-01
 -1     28250 1.49854E-01
 -1     28255 1.46440E-01
 -1     28256 1.46801E-01
 -1     28257 1.50606E-01
 -1     28262 1.47007E-01
 -1     28263 1.47213E-01
 -1     28264 1.51037E-01
 -1     28269 1.47278E-01
 -1     28270 1.47343E-01
 -1     28271 1.51175E-01
 -1     28276 1.47343E-01
 -1     28277 1.47343E-01
 -1     28278 1.51175E-01
 -1     28283 1.47278E-01
 -1     28284 1.47213E-01
 -1     28285 1.51037E-01
 -1     28290 1.47007E-01
 -1     28291 1.46801E-01
 -1     28292 1.50606E-01
 -1     28297 1.46440E-01
 -1     28298 1.46079E-01
 -1     28299 1.49854E-01
 -1     28304 1.45547E-01
 -1     28305 1.45015E-01
 -1     28306 1.48737E-01
 -1     28311 1.44271E-01
 -1     28315 1.45015E-01
 -1     28319 1.46079E-01
 -1     28323 1.46801E-01
 -1     28327 1.47213E-01
 -1     28331 1.47343E-01
 -1     28335 1.47343E-01
 -1     28339 1.47213E-01
 -1     28343 1.46801E-01
 -1     28347 1.46079E-01
 -1     28351 1.45015E-01
 -1     28357 1.36784E-01
 -1     28358 1.37363E-01
 -1     28359 1.41189E-01
 -1     28364 1.37780E-01
 -1     28365 1.38197E-01
 -1     28366 1.42138E-01
 -1     28371 1.38478E-01
 -1     28372 1.38759E-01
 -1     28373 1.42779E-01
 -1     28378 1.38910E-01
 -1     28379 1.39061E-01
 -1     28380 1.43137E-01
 -1     28385 1.39106E-01
 -1     28386 1.39150E-01
 -1     28387 1.43247E-01
 -1     28392 1.39150E-01
 -1     28393 1.39150E-01
 -1     28394 1.43247E-01
 -1     28399 1.39106E-01
 -1     28400 1.39061E-01
 -1     28401 1.43137E-01
 -1     28406 1.38910E-01
 -1     28407 1.38759E-01
 -1     28408 1.42779E-01
 -1     28413 1.38478E-01
 -1     28414 1.38197E-01
 -1     28415 1.42138E-01
 -1     28420 1.37780E-01
 -1     28421 1.37363E-01
 -1     28422 1.41189E-01
 -1     28427 1.36784E-01
 -1     28431 1.36784E-01
 -1     28432 1.37363E-01
 -1     28433 1.41189E-01
 -1     28438 1.37780E-01
 -1     28439 1.38197E-01
 -1     28440 1.42138E-01
 -1     28445 1.38478E-01
 -1     28446 1.38759E-01
 -1     28447 1.42779E-01
 -1     28452 1.38910E-01
 -1     28453 1.39061E-01
 -1     28454 1.43137E-01
 -1     28459 1.39106E-01
 -1     28460 1.39150E-01
 -1     28461 1.43247E-01
 -1     28466 1.39150E-01
 -1     28467 1.39150E-01
 -1     28468 1.43247E-01
 -1     28473 1.39106E-01
 -1     28474 1.39061E-01
 -1     28475 1.43137E-01
 -1     28480 1.38910E-01
 -1     28481 1.38759E-01
 -1     28482 1.42779E-01
 -1     28487 1.38478E-01
 -1     28488 1.38197E-01
 -1     28489 1.42138E-01
 -1     28494 1.37780E-01
 -1     28495 1.37363E-01
 -1     28496 1.41189E-01
 -1     28501 1.36784E-01
 -1     28505 1.36784E-01
 -1     28506 1.37363E-01
 -1     28507 1.41189E-01
 -1     28512 1.37780E-01
 -1     28513 1.38197E-01
 -1     28514 1.42138E-01
 -1     28519 1.38478E-01
 -1     28520 1.38759E-01
 -1     28521 1.42779E-01
 -1     28526 1.38910E-01
 -1     28527 1.39061E-01
 -1     28528 1.43137E-01
 -1     28533 1.39106E-01
 -1     28534 1.39150E-01
 -1     28535 1.43247E-01
 -1     28540 1.39150E-01
 -1     28541 1.39150E-01
 -1     28542 1.43247E-01
 -1     28547 1.39106E-01
 -1     28548 1.39061E-01
 -1     28549 1.43137E-01
 -1     28554 1.38910E-01
 -1     28555 1.38759E-01
 -1     28556 1.42779E-01
 -1     28561 1.38478E-01
 -1     28562 1.38197E-01
 -1     28563 1.42138E-01
 -1     28568 1.37780E-01
 -1     28569 1.37363E-01
 -1     28570 1.41189E-01
 -1     28575 1.36784E-01
 -1     28579 1.36784E-01
 -1     28580 1.37363E-01
 -1     28581 1.41189E-01
 -1     28586 1.37780E-01
 -1     28587 1.38197E-01
 -1     28588 1.42138E-01
 -1     28593 1.38478E-01
 -1     28594 1.38759E-01
 -1     28595 1.42779E-01
 -1     28600 1.38910E-01
 -1     28601 1.39061E-01
 -1     28602 1.43137E-01
 -1     28607 1.39106E-01
 -1     28608 1.39150E-01
 -1     28609 1.43247E-01
 -1     28614 1.39150E-01
 -1     28615 1.39150E-01
 -1     28616 1.43247E-01
 -1     28621 1.39106E-01
 -1     28622 1.39061E-01
 -1     28623 1.43137E-01
 -1     28628 1.38910E-01
 -1     28629 1.38759E-01
 -1     28630 1.42779E-01
 -1     28635 1.38478E-01
 -1     28636 1.38197E-01
 -1     28637 1.42138E-01
 -1     28642 1.37780E-01
 -1     28643 1.37363E-01
 -1     28644 1.41189E-01
 -1     28649 1.36784E-01
 -1     28653 1.36784E-01
 -1     28654 1.37364E-01
 -1     28655 1.41189E-01
 -1     28660 1.37781E-01
 -1     28661 1.38197E-01
 -1     28662 1.42138E-01
 -1     28667 1.38478E-01
 -1     28668 1.38759E-01
 -1     28669 1.42780E-01
 -1     28674 1.38911E-01
 -1     28675 1.39062E-01
 -1     28676 1.43137E-01
 -1     28681 1.39106E-01
 -1     28682 1.39151E-01
 -1     28683 1.43247E-01
 -1     28688 1.39151E-01
 -1     28689 1.39151E-01
 -1     28690 1.43247E-01
 -1     28695 1.39106E-01
 -1     28696 1.39062E-01
 -1     28697 1.43137E-01
 -1     28702 1.38911E-01
 -1     28703 1.38759E-01
 -1     28704 1.42780E-01
 -1     28709 1.38478E-01
 -1     28710 1.38197E-01
 -1     28711 1.42138E-01
 -1     28716 1.37781E-01
 -1     28717 1.37364E-01
 -1     28718 1.41189E-01
 -1     28723 1.36784E-01
 -1     28727 1.36784E-01
 -1     28728 1.37364E-01
 -1     28729 1.41189E-01
 -1     28734 1.37781E-01
 -1     28735 1.38197E-01
 -1     28736 1.42138E-01
 -1     28741 1.38478E-01
 -1     28742 1.38759E-01
 -1     28743 1.42780E-01
 -1     28748 1.38911E-01
 -1     28749 1.39062E-01
 -1     28750 1.43137E-01
 -1     28755 1.39106E-01
 -1     28756 1.39151E-01
 -1     28757 1.43247E-01
 -1     28762 1.39151E-01
 -1     28763 1.39151E-01
 -1     28764 1.43247E-01
 -1     28769 1.39106E-01
 -1     28770 1.39062E-01
 -1     28771 1.43137E-01
 -1     28776 1.38911E-01
 -1     28777 1.38759E-01
 -1     28778 1.42780E-01
 -1     28783 1.38478E-01
 -1     28784 1.38197E-01
 -1     28785 1.42138E-01
 -1     28790 1.37781E-01
 -1     28791 1.37364E-01
 -1     28792 1.41189E-01
 -1     28797 1.36784E-01
 -1     28801 1.36784E-01
 -1     28802 1.37364E-01
 -1     28803 1.41189E-01
 -1     28808 1.37780E-01
 -1     28809 1.38197E-01
 -1     28810 1.42138E-01
 -1     28815 1.38478E-01
 -1     28816 1.38759E-01
 -1     28817 1.42780E-01
 -1     28822 1.38910E-01
 -1     28823 1.39062E-01
 -1     28824 1.43137E-01
 -1     28829 1.39106E-01
 -1     28830 1.39151E-01
 -1     28831 1.43247E-01
 -1     28836 1.39151E-01
 -1     28837 1.39151E-01
 -1     28838 1.43247E-01
 -1     28843 1.39106E-01
 -1     28844 1.39062E-01
 -1     28845 1.43137E-01
 -1     28850 1.38910E-01
 -1     28851 1.38759E-01
 -1     28852 1.42780E-01
 -1     28857 1.38478E-01
 -1     28858 1.38197E-01
 -1     28859 1.42138E-01
 -1     28864 1.37780E-01
 -1     28865 1.37364E-01
 -1     28866 1.41189E-01
 -1     28871 1.36784E-01
 -1     28875 1.36784E-01
 -1     28876 1.37364E-01
 -1     28877 1.41189E-01
 -1     28882 1.37780E-01
 -1     28883 1.38197E-01
 -1     28884 1.42138E-01
 -1     28889 1.38478E-01
 -1     28890 1.38759E-01
 -1     28891 1.42780E-01
 -1     28896 1.38910E-01
 -1     28897 1.39062E-01
 -1     28898 1.43137E-01
 -1     28903 1.39106E-01
 -1     28904 1.39151E-01
 -1     28905 1.43247E-01
 -1     28910 1.39151E-01
 -1     28911 1.39151E-01
 -1     28912 1.43247E-01
 -1     28917 1.39106E-01
 -1     28918 1.39062E-01
 -1     28919 1.43137E-01
 -1     28924 1.38910E-01
 -1     28925 1.38759E-01
 -1     28926 1.42780E-01
 -1     28931 1.38478E-01
 -1     28932 1.38197E-01
 -1     28933 1.42138E-01
 -1     28938 1.37780E-01
 -1     28939 1.37364E-01
 -1     28940 1.41189E-01
 -1     28945 1.36784E-01
 -1     28949 1.36785E-01
 -1     28950 1.37364E-01
 -1     28951 1.41190E-01
 -1     28956 1.37781E-01
 -1     28957 1.38198E-01
 -1     28958 1.42138E-01
 -1     28963 1.38479E-01
 -1     28964 1.38759E-01
 -1     28965 1.42780E-01
 -1     28970 1.38911E-01
 -1     28971 1.39062E-01
 -1     28972 1.43138E-01
 -1     28977 1.39107E-01
 -1     28978 1.39151E-01
 -1     28979 1.43247E-01
 -1     28984 1.39152E-01
 -1     28985 1.39151E-01
 -1     28986 1.43247E-01
 -1     28991 1.39107E-01
 -1     28992 1.39062E-01
 -1     28993 1.43138E-01
 -1     28998 1.38911E-01
 -1     28999 1.38759E-01
 -1     29000 1.42780E-01
 -1     29005 1.38479E-01
 -1     29006 1.38198E-01
 -1     29007 1.42138E-01
 -1     29012 1.37781E-01
 -1     29013 1.37364E-01
 -1     29014 1.41190E-01
 -1     29019 1.36785E-01
 -1     29023 1.37364E-01
 -1     29027 1.38198E-01
 -1     29031 1.38760E-01
 -1     29035 1.39063E-01
 -1     29039 1.39152E-01
 -1     29043 1.39152E-01
 -1     29047 1.39063E-01
 -1     29051 1.38760E-01
 -1     29055 1.38198E-01
 -1     29059 1.37364E-01
 -1     29065 1.29635E-01
 -1     29069 1.30150E-01
 -1     29073 1.30497E-01
 -1     29077 1.30683E-01
 -1     29081 1.30738E-01
 -1     29085 1.30738E-01
 -1     29089 1.30683E-01
 -1     29093 1.30497E-01
 -1     29097 1.30150E-01
 -1     29101 1.29635E-01
 -1     29107 1.29635E-01
 -1     29111 1.30150E-01
 -1     29115 1.30497E-01
 -1     29119 1.30683E-01
 -1     29123 1.30738E-01
 -1     29127 1.30738E-01
 -1     29131 1.30683E-01
 -1     29135 1.30497E-01
 -1     29139 1.30150E-01
 -1     29143 1.29635E-01
 -1     29149 1.29635E-01
 -1     29153 1.30150E-01
 -1     29157 1.30497E-01
 -1     29161 1.30683E-01
 -1     29165 1.30738E-01
 -1     29169 1.30738E-01
 -1     29173 1.30683E-01
 -1     29177 1.30497E-01
 -1     29181 1.30150E-01
 -1     29185 1.29635E-01
 -1     29191 1.29635E-01
 -1     29195 1.30150E-01
 -1     29199 1.30496E-01
 -1     29203 1.30683E-01
 -1     29207 1.30738E-01
 -1     29211 1.30738E-01
 -1     29215 1.30683E-01
 -1     29219 1.30496E-01
 -1     29223 1.30150E-01
 -1     29227 1.29635E-01
 -1     29233 1.29636E-01
 -1     29237 1.30151E-01
 -1     29241 1.30498E-01
 -1     29245 1.30684E-01
 -1     29249 1.30739E-01
 -1     29253 1.30739E-01
 -1     29257 1.30684E-01
 -1     29261 1.30498E-01
 -1     29265 1.30151E-01
 -1     29269 1.29636E-01
 -1     29275 1.29636E-01
 -1     29279 1.30151E-01
 -1     29283 1.30498E-01
 -1     29287 1.30684E-01
 -1     29291 1.30739E-01
 -1     29295 1.30739E-01
 -1     29299 1.30684E-01
 -1     29303 1.30498E-01
 -1     29307 1.30151E-01
 -1     29311 1.29636E-01
 -1     29317 1.29636E-01
 -1     29321 1.30151E-01
 -1     29325 1.30497E-01
 -1     29329 1.30684E-01
 -1     29333 1.30739E-01
 -1     29337 1.30739E-01
 -1     29341 1.30684E-01
 -1     29345 1.30497E-01
 -1     29349 1.30151E-01
 -1     29353 1.29636E-01
 -1     29359 1.29635E-01
 -1     29363 1.30150E-01
 -1     29367 1.30497E-01
 -1     29371 1.30683E-01
 -1     29375 1.30738E-01
 -1     29379 1.30738E-01
 -1     29383 1.30683E-01
 -1     29387 1.30497E-01
 -1     29391 1.30150E-01
 -1     29395 1.29635E-01
 -1     29401 1.29638E-01
 -1     29405 1.30153E-01
 -1     29409 1.30499E-01
 -1     29413 1.30686E-01
 -1     29417 1.30741E-01
 -1     29421 1.30741E-01
 -1     29425 1.30686E-01
 -1     29429 1.30499E-01
 -1     29433 1.30153E-01
 -1     29437 1.29638E-01
 -3
 9999
