    1C
    1U disc.inp                                                         
    1UUSER                                                              
    1UDATE              25.february.2021                                
    1UTIME              12:37:09                                        
    1UHOST                                                              
    1UPGM               CalculiX                                        
    1UVERSION           Version 2.17                             
    1UCOMPILETIME       Thu Jul 23 21:29:36 CEST 2020                    
    1UDIR                                                               
    1UDBN                                                               
    1UMAT    1STEEL                                                     
    2C                         15523                                     1
 -1         1 2.50000E+01 0.00000E+00 0.00000E+00
 -1         2 1.00000E+02 0.00000E+00 0.00000E+00
 -1         3 6.12323E-15 1.00000E+02 0.00000E+00
 -1         4 1.53081E-15 2.50000E+01 0.00000E+00
 -1         5 2.50000E+01 0.00000E+00 1.00000E+01
 -1         6 1.00000E+02 0.00000E+00 1.00000E+01
 -1         7 6.12323E-15 1.00000E+02 1.00000E+01
 -1         8 1.53081E-15 2.50000E+01 1.00000E+01
 -1         9 2.75000E+01 0.00000E+00 0.00000E+00
 -1        10 3.00000E+01 0.00000E+00 0.00000E+00
 -1        11 3.25000E+01 0.00000E+00 0.00000E+00
 -1        12 3.50000E+01 0.00000E+00 0.00000E+00
 -1        13 3.75000E+01 0.00000E+00 0.00000E+00
 -1        14 4.00000E+01 0.00000E+00 0.00000E+00
 -1        15 4.25000E+01 0.00000E+00 0.00000E+00
 -1        16 4.50000E+01 0.00000E+00 0.00000E+00
 -1        17 4.75000E+01 0.00000E+00 0.00000E+00
 -1        18 5.00000E+01 0.00000E+00 0.00000E+00
 -1        19 5.25000E+01 0.00000E+00 0.00000E+00
 -1        20 5.50000E+01 0.00000E+00 0.00000E+00
 -1        21 5.75000E+01 0.00000E+00 0.00000E+00
 -1        22 6.00000E+01 0.00000E+00 0.00000E+00
 -1        23 6.25000E+01 0.00000E+00 0.00000E+00
 -1        24 6.50000E+01 0.00000E+00 0.00000E+00
 -1        25 6.75000E+01 0.00000E+00 0.00000E+00
 -1        26 7.00000E+01 0.00000E+00 0.00000E+00
 -1        27 7.25000E+01 0.00000E+00 0.00000E+00
 -1        28 7.50000E+01 0.00000E+00 0.00000E+00
 -1        29 7.75000E+01 0.00000E+00 0.00000E+00
 -1        30 8.00000E+01 0.00000E+00 0.00000E+00
 -1        31 8.25000E+01 0.00000E+00 0.00000E+00
 -1        32 8.50000E+01 0.00000E+00 0.00000E+00
 -1        33 8.75000E+01 0.00000E+00 0.00000E+00
 -1        34 9.00000E+01 0.00000E+00 0.00000E+00
 -1        35 9.25000E+01 0.00000E+00 0.00000E+00
 -1        36 9.50000E+01 0.00000E+00 0.00000E+00
 -1        37 9.75000E+01 0.00000E+00 0.00000E+00
 -1        38 2.62500E+01 0.00000E+00 0.00000E+00
 -1        39 2.87500E+01 0.00000E+00 0.00000E+00
 -1        40 3.12500E+01 0.00000E+00 0.00000E+00
 -1        41 3.37500E+01 0.00000E+00 0.00000E+00
 -1        42 3.62500E+01 0.00000E+00 0.00000E+00
 -1        43 3.87500E+01 0.00000E+00 0.00000E+00
 -1        44 4.12500E+01 0.00000E+00 0.00000E+00
 -1        45 4.37500E+01 0.00000E+00 0.00000E+00
 -1        46 4.62500E+01 0.00000E+00 0.00000E+00
 -1        47 4.87500E+01 0.00000E+00 0.00000E+00
 -1        48 5.12500E+01 0.00000E+00 0.00000E+00
 -1        49 5.37500E+01 0.00000E+00 0.00000E+00
 -1        50 5.62500E+01 0.00000E+00 0.00000E+00
 -1        51 5.87500E+01 0.00000E+00 0.00000E+00
 -1        52 6.12500E+01 0.00000E+00 0.00000E+00
 -1        53 6.37500E+01 0.00000E+00 0.00000E+00
 -1        54 6.62500E+01 0.00000E+00 0.00000E+00
 -1        55 6.87500E+01 0.00000E+00 0.00000E+00
 -1        56 7.12500E+01 0.00000E+00 0.00000E+00
 -1        57 7.37500E+01 0.00000E+00 0.00000E+00
 -1        58 7.62500E+01 0.00000E+00 0.00000E+00
 -1        59 7.87500E+01 0.00000E+00 0.00000E+00
 -1        60 8.12500E+01 0.00000E+00 0.00000E+00
 -1        61 8.37500E+01 0.00000E+00 0.00000E+00
 -1        62 8.62500E+01 0.00000E+00 0.00000E+00
 -1        63 8.87500E+01 0.00000E+00 0.00000E+00
 -1        64 9.12500E+01 0.00000E+00 0.00000E+00
 -1        65 9.37500E+01 0.00000E+00 0.00000E+00
 -1        66 9.62500E+01 0.00000E+00 0.00000E+00
 -1        67 9.87500E+01 0.00000E+00 0.00000E+00
 -1        68 9.87688E+01 1.56434E+01 0.00000E+00
 -1        69 9.51057E+01 3.09017E+01 0.00000E+00
 -1        70 8.91007E+01 4.53991E+01 0.00000E+00
 -1        71 8.09017E+01 5.87785E+01 0.00000E+00
 -1        72 7.07107E+01 7.07107E+01 0.00000E+00
 -1        73 5.87785E+01 8.09017E+01 0.00000E+00
 -1        74 4.53991E+01 8.91007E+01 0.00000E+00
 -1        75 3.09017E+01 9.51057E+01 0.00000E+00
 -1        76 1.56434E+01 9.87688E+01 0.00000E+00
 -1        77 9.96917E+01 7.84591E+00 0.00000E+00
 -1        78 9.72370E+01 2.33445E+01 0.00000E+00
 -1        79 9.23880E+01 3.82683E+01 0.00000E+00
 -1        80 8.52640E+01 5.22499E+01 0.00000E+00
 -1        81 7.60406E+01 6.49448E+01 0.00000E+00
 -1        82 6.49448E+01 7.60406E+01 0.00000E+00
 -1        83 5.22499E+01 8.52640E+01 0.00000E+00
 -1        84 3.82683E+01 9.23880E+01 0.00000E+00
 -1        85 2.33445E+01 9.72370E+01 0.00000E+00
 -1        86 7.84591E+00 9.96917E+01 0.00000E+00
 -1        87 5.97015E-15 9.75000E+01 0.00000E+00
 -1        88 5.81707E-15 9.50000E+01 0.00000E+00
 -1        89 5.66399E-15 9.25000E+01 0.00000E+00
 -1        90 5.51091E-15 9.00000E+01 0.00000E+00
 -1        91 5.35783E-15 8.75000E+01 0.00000E+00
 -1        92 5.20475E-15 8.50000E+01 0.00000E+00
 -1        93 5.05167E-15 8.25000E+01 0.00000E+00
 -1        94 4.89859E-15 8.00000E+01 0.00000E+00
 -1        95 4.74551E-15 7.75000E+01 0.00000E+00
 -1        96 4.59243E-15 7.50000E+01 0.00000E+00
 -1        97 4.43934E-15 7.25000E+01 0.00000E+00
 -1        98 4.28626E-15 7.00000E+01 0.00000E+00
 -1        99 4.13318E-15 6.75000E+01 0.00000E+00
 -1       100 3.98010E-15 6.50000E+01 0.00000E+00
 -1       101 3.82702E-15 6.25000E+01 0.00000E+00
 -1       102 3.67394E-15 6.00000E+01 0.00000E+00
 -1       103 3.52086E-15 5.75000E+01 0.00000E+00
 -1       104 3.36778E-15 5.50000E+01 0.00000E+00
 -1       105 3.21470E-15 5.25000E+01 0.00000E+00
 -1       106 3.06162E-15 5.00000E+01 0.00000E+00
 -1       107 2.90854E-15 4.75000E+01 0.00000E+00
 -1       108 2.75546E-15 4.50000E+01 0.00000E+00
 -1       109 2.60237E-15 4.25000E+01 0.00000E+00
 -1       110 2.44929E-15 4.00000E+01 0.00000E+00
 -1       111 2.29621E-15 3.75000E+01 0.00000E+00
 -1       112 2.14313E-15 3.50000E+01 0.00000E+00
 -1       113 1.99005E-15 3.25000E+01 0.00000E+00
 -1       114 1.83697E-15 3.00000E+01 0.00000E+00
 -1       115 1.68389E-15 2.75000E+01 0.00000E+00
 -1       116 6.04669E-15 9.87500E+01 0.00000E+00
 -1       117 5.89361E-15 9.62500E+01 0.00000E+00
 -1       118 5.74053E-15 9.37500E+01 0.00000E+00
 -1       119 5.58745E-15 9.12500E+01 0.00000E+00
 -1       120 5.43437E-15 8.87500E+01 0.00000E+00
 -1       121 5.28129E-15 8.62500E+01 0.00000E+00
 -1       122 5.12821E-15 8.37500E+01 0.00000E+00
 -1       123 4.97513E-15 8.12500E+01 0.00000E+00
 -1       124 4.82205E-15 7.87500E+01 0.00000E+00
 -1       125 4.66897E-15 7.62500E+01 0.00000E+00
 -1       126 4.51589E-15 7.37500E+01 0.00000E+00
 -1       127 4.36280E-15 7.12500E+01 0.00000E+00
 -1       128 4.20972E-15 6.87500E+01 0.00000E+00
 -1       129 4.05664E-15 6.62500E+01 0.00000E+00
 -1       130 3.90356E-15 6.37500E+01 0.00000E+00
 -1       131 3.75048E-15 6.12500E+01 0.00000E+00
 -1       132 3.59740E-15 5.87500E+01 0.00000E+00
 -1       133 3.44432E-15 5.62500E+01 0.00000E+00
 -1       134 3.29124E-15 5.37500E+01 0.00000E+00
 -1       135 3.13816E-15 5.12500E+01 0.00000E+00
 -1       136 2.98508E-15 4.87500E+01 0.00000E+00
 -1       137 2.83200E-15 4.62500E+01 0.00000E+00
 -1       138 2.67891E-15 4.37500E+01 0.00000E+00
 -1       139 2.52583E-15 4.12500E+01 0.00000E+00
 -1       140 2.37275E-15 3.87500E+01 0.00000E+00
 -1       141 2.21967E-15 3.62500E+01 0.00000E+00
 -1       142 2.06659E-15 3.37500E+01 0.00000E+00
 -1       143 1.91351E-15 3.12500E+01 0.00000E+00
 -1       144 1.76043E-15 2.87500E+01 0.00000E+00
 -1       145 1.60735E-15 2.62500E+01 0.00000E+00
 -1       146 3.91086E+00 2.46922E+01 0.00000E+00
 -1       147 7.72542E+00 2.37764E+01 0.00000E+00
 -1       148 1.13498E+01 2.22752E+01 0.00000E+00
 -1       149 1.46946E+01 2.02254E+01 0.00000E+00
 -1       150 1.76777E+01 1.76777E+01 0.00000E+00
 -1       151 2.02254E+01 1.46946E+01 0.00000E+00
 -1       152 2.22752E+01 1.13498E+01 0.00000E+00
 -1       153 2.37764E+01 7.72542E+00 0.00000E+00
 -1       154 2.46922E+01 3.91086E+00 0.00000E+00
 -1       155 1.96148E+00 2.49229E+01 0.00000E+00
 -1       156 5.83613E+00 2.43092E+01 0.00000E+00
 -1       157 9.56709E+00 2.30970E+01 0.00000E+00
 -1       158 1.30625E+01 2.13160E+01 0.00000E+00
 -1       159 1.62362E+01 1.90101E+01 0.00000E+00
 -1       160 1.90101E+01 1.62362E+01 0.00000E+00
 -1       161 2.13160E+01 1.30625E+01 0.00000E+00
 -1       162 2.30970E+01 9.56709E+00 0.00000E+00
 -1       163 2.43092E+01 5.83613E+00 0.00000E+00
 -1       164 2.49229E+01 1.96148E+00 0.00000E+00
 -1       165 2.75000E+01 0.00000E+00 1.00000E+01
 -1       166 3.00000E+01 0.00000E+00 1.00000E+01
 -1       167 3.25000E+01 0.00000E+00 1.00000E+01
 -1       168 3.50000E+01 0.00000E+00 1.00000E+01
 -1       169 3.75000E+01 0.00000E+00 1.00000E+01
 -1       170 4.00000E+01 0.00000E+00 1.00000E+01
 -1       171 4.25000E+01 0.00000E+00 1.00000E+01
 -1       172 4.50000E+01 0.00000E+00 1.00000E+01
 -1       173 4.75000E+01 0.00000E+00 1.00000E+01
 -1       174 5.00000E+01 0.00000E+00 1.00000E+01
 -1       175 5.25000E+01 0.00000E+00 1.00000E+01
 -1       176 5.50000E+01 0.00000E+00 1.00000E+01
 -1       177 5.75000E+01 0.00000E+00 1.00000E+01
 -1       178 6.00000E+01 0.00000E+00 1.00000E+01
 -1       179 6.25000E+01 0.00000E+00 1.00000E+01
 -1       180 6.50000E+01 0.00000E+00 1.00000E+01
 -1       181 6.75000E+01 0.00000E+00 1.00000E+01
 -1       182 7.00000E+01 0.00000E+00 1.00000E+01
 -1       183 7.25000E+01 0.00000E+00 1.00000E+01
 -1       184 7.50000E+01 0.00000E+00 1.00000E+01
 -1       185 7.75000E+01 0.00000E+00 1.00000E+01
 -1       186 8.00000E+01 0.00000E+00 1.00000E+01
 -1       187 8.25000E+01 0.00000E+00 1.00000E+01
 -1       188 8.50000E+01 0.00000E+00 1.00000E+01
 -1       189 8.75000E+01 0.00000E+00 1.00000E+01
 -1       190 9.00000E+01 0.00000E+00 1.00000E+01
 -1       191 9.25000E+01 0.00000E+00 1.00000E+01
 -1       192 9.50000E+01 0.00000E+00 1.00000E+01
 -1       193 9.75000E+01 0.00000E+00 1.00000E+01
 -1       194 2.62500E+01 0.00000E+00 1.00000E+01
 -1       195 2.87500E+01 0.00000E+00 1.00000E+01
 -1       196 3.12500E+01 0.00000E+00 1.00000E+01
 -1       197 3.37500E+01 0.00000E+00 1.00000E+01
 -1       198 3.62500E+01 0.00000E+00 1.00000E+01
 -1       199 3.87500E+01 0.00000E+00 1.00000E+01
 -1       200 4.12500E+01 0.00000E+00 1.00000E+01
 -1       201 4.37500E+01 0.00000E+00 1.00000E+01
 -1       202 4.62500E+01 0.00000E+00 1.00000E+01
 -1       203 4.87500E+01 0.00000E+00 1.00000E+01
 -1       204 5.12500E+01 0.00000E+00 1.00000E+01
 -1       205 5.37500E+01 0.00000E+00 1.00000E+01
 -1       206 5.62500E+01 0.00000E+00 1.00000E+01
 -1       207 5.87500E+01 0.00000E+00 1.00000E+01
 -1       208 6.12500E+01 0.00000E+00 1.00000E+01
 -1       209 6.37500E+01 0.00000E+00 1.00000E+01
 -1       210 6.62500E+01 0.00000E+00 1.00000E+01
 -1       211 6.87500E+01 0.00000E+00 1.00000E+01
 -1       212 7.12500E+01 0.00000E+00 1.00000E+01
 -1       213 7.37500E+01 0.00000E+00 1.00000E+01
 -1       214 7.62500E+01 0.00000E+00 1.00000E+01
 -1       215 7.87500E+01 0.00000E+00 1.00000E+01
 -1       216 8.12500E+01 0.00000E+00 1.00000E+01
 -1       217 8.37500E+01 0.00000E+00 1.00000E+01
 -1       218 8.62500E+01 0.00000E+00 1.00000E+01
 -1       219 8.87500E+01 0.00000E+00 1.00000E+01
 -1       220 9.12500E+01 0.00000E+00 1.00000E+01
 -1       221 9.37500E+01 0.00000E+00 1.00000E+01
 -1       222 9.62500E+01 0.00000E+00 1.00000E+01
 -1       223 9.87500E+01 0.00000E+00 1.00000E+01
 -1       224 9.87688E+01 1.56434E+01 1.00000E+01
 -1       225 9.51057E+01 3.09017E+01 1.00000E+01
 -1       226 8.91007E+01 4.53991E+01 1.00000E+01
 -1       227 8.09017E+01 5.87785E+01 1.00000E+01
 -1       228 7.07107E+01 7.07107E+01 1.00000E+01
 -1       229 5.87785E+01 8.09017E+01 1.00000E+01
 -1       230 4.53991E+01 8.91007E+01 1.00000E+01
 -1       231 3.09017E+01 9.51057E+01 1.00000E+01
 -1       232 1.56434E+01 9.87688E+01 1.00000E+01
 -1       233 9.96917E+01 7.84591E+00 1.00000E+01
 -1       234 9.72370E+01 2.33445E+01 1.00000E+01
 -1       235 9.23880E+01 3.82683E+01 1.00000E+01
 -1       236 8.52640E+01 5.22499E+01 1.00000E+01
 -1       237 7.60406E+01 6.49448E+01 1.00000E+01
 -1       238 6.49448E+01 7.60406E+01 1.00000E+01
 -1       239 5.22499E+01 8.52640E+01 1.00000E+01
 -1       240 3.82683E+01 9.23880E+01 1.00000E+01
 -1       241 2.33445E+01 9.72370E+01 1.00000E+01
 -1       242 7.84591E+00 9.96917E+01 1.00000E+01
 -1       243 5.97015E-15 9.75000E+01 1.00000E+01
 -1       244 5.81707E-15 9.50000E+01 1.00000E+01
 -1       245 5.66399E-15 9.25000E+01 1.00000E+01
 -1       246 5.51091E-15 9.00000E+01 1.00000E+01
 -1       247 5.35783E-15 8.75000E+01 1.00000E+01
 -1       248 5.20475E-15 8.50000E+01 1.00000E+01
 -1       249 5.05167E-15 8.25000E+01 1.00000E+01
 -1       250 4.89859E-15 8.00000E+01 1.00000E+01
 -1       251 4.74551E-15 7.75000E+01 1.00000E+01
 -1       252 4.59243E-15 7.50000E+01 1.00000E+01
 -1       253 4.43934E-15 7.25000E+01 1.00000E+01
 -1       254 4.28626E-15 7.00000E+01 1.00000E+01
 -1       255 4.13318E-15 6.75000E+01 1.00000E+01
 -1       256 3.98010E-15 6.50000E+01 1.00000E+01
 -1       257 3.82702E-15 6.25000E+01 1.00000E+01
 -1       258 3.67394E-15 6.00000E+01 1.00000E+01
 -1       259 3.52086E-15 5.75000E+01 1.00000E+01
 -1       260 3.36778E-15 5.50000E+01 1.00000E+01
 -1       261 3.21470E-15 5.25000E+01 1.00000E+01
 -1       262 3.06162E-15 5.00000E+01 1.00000E+01
 -1       263 2.90854E-15 4.75000E+01 1.00000E+01
 -1       264 2.75546E-15 4.50000E+01 1.00000E+01
 -1       265 2.60237E-15 4.25000E+01 1.00000E+01
 -1       266 2.44929E-15 4.00000E+01 1.00000E+01
 -1       267 2.29621E-15 3.75000E+01 1.00000E+01
 -1       268 2.14313E-15 3.50000E+01 1.00000E+01
 -1       269 1.99005E-15 3.25000E+01 1.00000E+01
 -1       270 1.83697E-15 3.00000E+01 1.00000E+01
 -1       271 1.68389E-15 2.75000E+01 1.00000E+01
 -1       272 6.04669E-15 9.87500E+01 1.00000E+01
 -1       273 5.89361E-15 9.62500E+01 1.00000E+01
 -1       274 5.74053E-15 9.37500E+01 1.00000E+01
 -1       275 5.58745E-15 9.12500E+01 1.00000E+01
 -1       276 5.43437E-15 8.87500E+01 1.00000E+01
 -1       277 5.28129E-15 8.62500E+01 1.00000E+01
 -1       278 5.12821E-15 8.37500E+01 1.00000E+01
 -1       279 4.97513E-15 8.12500E+01 1.00000E+01
 -1       280 4.82205E-15 7.87500E+01 1.00000E+01
 -1       281 4.66897E-15 7.62500E+01 1.00000E+01
 -1       282 4.51589E-15 7.37500E+01 1.00000E+01
 -1       283 4.36280E-15 7.12500E+01 1.00000E+01
 -1       284 4.20972E-15 6.87500E+01 1.00000E+01
 -1       285 4.05664E-15 6.62500E+01 1.00000E+01
 -1       286 3.90356E-15 6.37500E+01 1.00000E+01
 -1       287 3.75048E-15 6.12500E+01 1.00000E+01
 -1       288 3.59740E-15 5.87500E+01 1.00000E+01
 -1       289 3.44432E-15 5.62500E+01 1.00000E+01
 -1       290 3.29124E-15 5.37500E+01 1.00000E+01
 -1       291 3.13816E-15 5.12500E+01 1.00000E+01
 -1       292 2.98508E-15 4.87500E+01 1.00000E+01
 -1       293 2.83200E-15 4.62500E+01 1.00000E+01
 -1       294 2.67891E-15 4.37500E+01 1.00000E+01
 -1       295 2.52583E-15 4.12500E+01 1.00000E+01
 -1       296 2.37275E-15 3.87500E+01 1.00000E+01
 -1       297 2.21967E-15 3.62500E+01 1.00000E+01
 -1       298 2.06659E-15 3.37500E+01 1.00000E+01
 -1       299 1.91351E-15 3.12500E+01 1.00000E+01
 -1       300 1.76043E-15 2.87500E+01 1.00000E+01
 -1       301 1.60735E-15 2.62500E+01 1.00000E+01
 -1       302 3.91086E+00 2.46922E+01 1.00000E+01
 -1       303 7.72542E+00 2.37764E+01 1.00000E+01
 -1       304 1.13498E+01 2.22752E+01 1.00000E+01
 -1       305 1.46946E+01 2.02254E+01 1.00000E+01
 -1       306 1.76777E+01 1.76777E+01 1.00000E+01
 -1       307 2.02254E+01 1.46946E+01 1.00000E+01
 -1       308 2.22752E+01 1.13498E+01 1.00000E+01
 -1       309 2.37764E+01 7.72542E+00 1.00000E+01
 -1       310 2.46922E+01 3.91086E+00 1.00000E+01
 -1       311 1.96148E+00 2.49229E+01 1.00000E+01
 -1       312 5.83613E+00 2.43092E+01 1.00000E+01
 -1       313 9.56709E+00 2.30970E+01 1.00000E+01
 -1       314 1.30625E+01 2.13160E+01 1.00000E+01
 -1       315 1.62362E+01 1.90101E+01 1.00000E+01
 -1       316 1.90101E+01 1.62362E+01 1.00000E+01
 -1       317 2.13160E+01 1.30625E+01 1.00000E+01
 -1       318 2.30970E+01 9.56709E+00 1.00000E+01
 -1       319 2.43092E+01 5.83613E+00 1.00000E+01
 -1       320 2.49229E+01 1.96148E+00 1.00000E+01
 -1       321 2.50000E+01 0.00000E+00 9.09091E-01
 -1       322 2.50000E+01 0.00000E+00 1.81818E+00
 -1       323 2.50000E+01 0.00000E+00 2.72727E+00
 -1       324 2.50000E+01 0.00000E+00 3.63636E+00
 -1       325 2.50000E+01 0.00000E+00 4.54545E+00
 -1       326 2.50000E+01 0.00000E+00 5.45455E+00
 -1       327 2.50000E+01 0.00000E+00 6.36364E+00
 -1       328 2.50000E+01 0.00000E+00 7.27273E+00
 -1       329 2.50000E+01 0.00000E+00 8.18182E+00
 -1       330 2.50000E+01 0.00000E+00 9.09091E+00
 -1       331 2.50000E+01 0.00000E+00 4.54545E-01
 -1       332 2.50000E+01 0.00000E+00 1.36364E+00
 -1       333 2.50000E+01 0.00000E+00 2.27273E+00
 -1       334 2.50000E+01 0.00000E+00 3.18182E+00
 -1       335 2.50000E+01 0.00000E+00 4.09091E+00
 -1       336 2.50000E+01 0.00000E+00 5.00000E+00
 -1       337 2.50000E+01 0.00000E+00 5.90909E+00
 -1       338 2.50000E+01 0.00000E+00 6.81818E+00
 -1       339 2.50000E+01 0.00000E+00 7.72727E+00
 -1       340 2.50000E+01 0.00000E+00 8.63636E+00
 -1       341 2.50000E+01 0.00000E+00 9.54545E+00
 -1       342 1.00000E+02 0.00000E+00 9.09091E-01
 -1       343 1.00000E+02 0.00000E+00 1.81818E+00
 -1       344 1.00000E+02 0.00000E+00 2.72727E+00
 -1       345 1.00000E+02 0.00000E+00 3.63636E+00
 -1       346 1.00000E+02 0.00000E+00 4.54545E+00
 -1       347 1.00000E+02 0.00000E+00 5.45455E+00
 -1       348 1.00000E+02 0.00000E+00 6.36364E+00
 -1       349 1.00000E+02 0.00000E+00 7.27273E+00
 -1       350 1.00000E+02 0.00000E+00 8.18182E+00
 -1       351 1.00000E+02 0.00000E+00 9.09091E+00
 -1       352 1.00000E+02 0.00000E+00 4.54545E-01
 -1       353 1.00000E+02 0.00000E+00 1.36364E+00
 -1       354 1.00000E+02 0.00000E+00 2.27273E+00
 -1       355 1.00000E+02 0.00000E+00 3.18182E+00
 -1       356 1.00000E+02 0.00000E+00 4.09091E+00
 -1       357 1.00000E+02 0.00000E+00 5.00000E+00
 -1       358 1.00000E+02 0.00000E+00 5.90909E+00
 -1       359 1.00000E+02 0.00000E+00 6.81818E+00
 -1       360 1.00000E+02 0.00000E+00 7.72727E+00
 -1       361 1.00000E+02 0.00000E+00 8.63636E+00
 -1       362 1.00000E+02 0.00000E+00 9.54545E+00
 -1       363 6.12323E-15 1.00000E+02 9.09091E-01
 -1       364 6.12323E-15 1.00000E+02 1.81818E+00
 -1       365 6.12323E-15 1.00000E+02 2.72727E+00
 -1       366 6.12323E-15 1.00000E+02 3.63636E+00
 -1       367 6.12323E-15 1.00000E+02 4.54545E+00
 -1       368 6.12323E-15 1.00000E+02 5.45455E+00
 -1       369 6.12323E-15 1.00000E+02 6.36364E+00
 -1       370 6.12323E-15 1.00000E+02 7.27273E+00
 -1       371 6.12323E-15 1.00000E+02 8.18182E+00
 -1       372 6.12323E-15 1.00000E+02 9.09091E+00
 -1       373 6.12323E-15 1.00000E+02 4.54545E-01
 -1       374 6.12323E-15 1.00000E+02 1.36364E+00
 -1       375 6.12323E-15 1.00000E+02 2.27273E+00
 -1       376 6.12323E-15 1.00000E+02 3.18182E+00
 -1       377 6.12323E-15 1.00000E+02 4.09091E+00
 -1       378 6.12323E-15 1.00000E+02 5.00000E+00
 -1       379 6.12323E-15 1.00000E+02 5.90909E+00
 -1       380 6.12323E-15 1.00000E+02 6.81818E+00
 -1       381 6.12323E-15 1.00000E+02 7.72727E+00
 -1       382 6.12323E-15 1.00000E+02 8.63636E+00
 -1       383 6.12323E-15 1.00000E+02 9.54545E+00
 -1       384 1.53081E-15 2.50000E+01 9.09091E-01
 -1       385 1.53081E-15 2.50000E+01 1.81818E+00
 -1       386 1.53081E-15 2.50000E+01 2.72727E+00
 -1       387 1.53081E-15 2.50000E+01 3.63636E+00
 -1       388 1.53081E-15 2.50000E+01 4.54545E+00
 -1       389 1.53081E-15 2.50000E+01 5.45455E+00
 -1       390 1.53081E-15 2.50000E+01 6.36364E+00
 -1       391 1.53081E-15 2.50000E+01 7.27273E+00
 -1       392 1.53081E-15 2.50000E+01 8.18182E+00
 -1       393 1.53081E-15 2.50000E+01 9.09091E+00
 -1       394 1.53081E-15 2.50000E+01 4.54545E-01
 -1       395 1.53081E-15 2.50000E+01 1.36364E+00
 -1       396 1.53081E-15 2.50000E+01 2.27273E+00
 -1       397 1.53081E-15 2.50000E+01 3.18182E+00
 -1       398 1.53081E-15 2.50000E+01 4.09091E+00
 -1       399 1.53081E-15 2.50000E+01 5.00000E+00
 -1       400 1.53081E-15 2.50000E+01 5.90909E+00
 -1       401 1.53081E-15 2.50000E+01 6.81818E+00
 -1       402 1.53081E-15 2.50000E+01 7.72727E+00
 -1       403 1.53081E-15 2.50000E+01 8.63636E+00
 -1       404 1.53081E-15 2.50000E+01 9.54545E+00
 -1       405 2.71614E+01 4.30195E+00 0.00000E+00
 -1       406 2.61541E+01 8.49797E+00 0.00000E+00
 -1       407 2.45027E+01 1.24847E+01 0.00000E+00
 -1       408 2.22480E+01 1.61641E+01 0.00000E+00
 -1       409 1.94454E+01 1.94454E+01 0.00000E+00
 -1       410 1.61641E+01 2.22480E+01 0.00000E+00
 -1       411 1.24847E+01 2.45027E+01 0.00000E+00
 -1       412 8.49797E+00 2.61541E+01 0.00000E+00
 -1       413 4.30195E+00 2.71614E+01 0.00000E+00
 -1       414 2.96306E+01 4.69303E+00 0.00000E+00
 -1       415 2.85317E+01 9.27051E+00 0.00000E+00
 -1       416 2.67302E+01 1.36197E+01 0.00000E+00
 -1       417 2.42705E+01 1.76336E+01 0.00000E+00
 -1       418 2.12132E+01 2.12132E+01 0.00000E+00
 -1       419 1.76336E+01 2.42705E+01 0.00000E+00
 -1       420 1.36197E+01 2.67302E+01 0.00000E+00
 -1       421 9.27051E+00 2.85317E+01 0.00000E+00
 -1       422 4.69303E+00 2.96306E+01 0.00000E+00
 -1       423 3.20999E+01 5.08412E+00 0.00000E+00
 -1       424 3.09093E+01 1.00431E+01 0.00000E+00
 -1       425 2.89577E+01 1.47547E+01 0.00000E+00
 -1       426 2.62931E+01 1.91030E+01 0.00000E+00
 -1       427 2.29810E+01 2.29810E+01 0.00000E+00
 -1       428 1.91030E+01 2.62931E+01 0.00000E+00
 -1       429 1.47547E+01 2.89577E+01 0.00000E+00
 -1       430 1.00431E+01 3.09093E+01 0.00000E+00
 -1       431 5.08412E+00 3.20999E+01 0.00000E+00
 -1       432 3.45691E+01 5.47521E+00 0.00000E+00
 -1       433 3.32870E+01 1.08156E+01 0.00000E+00
 -1       434 3.11852E+01 1.58897E+01 0.00000E+00
 -1       435 2.83156E+01 2.05725E+01 0.00000E+00
 -1       436 2.47487E+01 2.47487E+01 0.00000E+00
 -1       437 2.05725E+01 2.83156E+01 0.00000E+00
 -1       438 1.58897E+01 3.11852E+01 0.00000E+00
 -1       439 1.08156E+01 3.32870E+01 0.00000E+00
 -1       440 5.47521E+00 3.45691E+01 0.00000E+00
 -1       441 3.70383E+01 5.86629E+00 0.00000E+00
 -1       442 3.56646E+01 1.15881E+01 0.00000E+00
 -1       443 3.34127E+01 1.70246E+01 0.00000E+00
 -1       444 3.03381E+01 2.20419E+01 0.00000E+00
 -1       445 2.65165E+01 2.65165E+01 0.00000E+00
 -1       446 2.20419E+01 3.03381E+01 0.00000E+00
 -1       447 1.70246E+01 3.34127E+01 0.00000E+00
 -1       448 1.15881E+01 3.56646E+01 0.00000E+00
 -1       449 5.86629E+00 3.70383E+01 0.00000E+00
 -1       450 3.95075E+01 6.25738E+00 0.00000E+00
 -1       451 3.80423E+01 1.23607E+01 0.00000E+00
 -1       452 3.56403E+01 1.81596E+01 0.00000E+00
 -1       453 3.23607E+01 2.35114E+01 0.00000E+00
 -1       454 2.82843E+01 2.82843E+01 0.00000E+00
 -1       455 2.35114E+01 3.23607E+01 0.00000E+00
 -1       456 1.81596E+01 3.56403E+01 0.00000E+00
 -1       457 1.23607E+01 3.80423E+01 0.00000E+00
 -1       458 6.25738E+00 3.95075E+01 0.00000E+00
 -1       459 4.19768E+01 6.64846E+00 0.00000E+00
 -1       460 4.04199E+01 1.31332E+01 0.00000E+00
 -1       461 3.78678E+01 1.92946E+01 0.00000E+00
 -1       462 3.43832E+01 2.49809E+01 0.00000E+00
 -1       463 3.00520E+01 3.00520E+01 0.00000E+00
 -1       464 2.49809E+01 3.43832E+01 0.00000E+00
 -1       465 1.92946E+01 3.78678E+01 0.00000E+00
 -1       466 1.31332E+01 4.04199E+01 0.00000E+00
 -1       467 6.64846E+00 4.19768E+01 0.00000E+00
 -1       468 4.44460E+01 7.03955E+00 0.00000E+00
 -1       469 4.27975E+01 1.39058E+01 0.00000E+00
 -1       470 4.00953E+01 2.04296E+01 0.00000E+00
 -1       471 3.64058E+01 2.64503E+01 0.00000E+00
 -1       472 3.18198E+01 3.18198E+01 0.00000E+00
 -1       473 2.64503E+01 3.64058E+01 0.00000E+00
 -1       474 2.04296E+01 4.00953E+01 0.00000E+00
 -1       475 1.39058E+01 4.27975E+01 0.00000E+00
 -1       476 7.03955E+00 4.44460E+01 0.00000E+00
 -1       477 4.69152E+01 7.43064E+00 0.00000E+00
 -1       478 4.51752E+01 1.46783E+01 0.00000E+00
 -1       479 4.23228E+01 2.15645E+01 0.00000E+00
 -1       480 3.84283E+01 2.79198E+01 0.00000E+00
 -1       481 3.35876E+01 3.35876E+01 0.00000E+00
 -1       482 2.79198E+01 3.84283E+01 0.00000E+00
 -1       483 2.15645E+01 4.23228E+01 0.00000E+00
 -1       484 1.46783E+01 4.51752E+01 0.00000E+00
 -1       485 7.43064E+00 4.69152E+01 0.00000E+00
 -1       486 4.93844E+01 7.82172E+00 0.00000E+00
 -1       487 4.75528E+01 1.54508E+01 0.00000E+00
 -1       488 4.45503E+01 2.26995E+01 0.00000E+00
 -1       489 4.04509E+01 2.93893E+01 0.00000E+00
 -1       490 3.53553E+01 3.53553E+01 0.00000E+00
 -1       491 2.93893E+01 4.04509E+01 0.00000E+00
 -1       492 2.26995E+01 4.45503E+01 0.00000E+00
 -1       493 1.54508E+01 4.75528E+01 0.00000E+00
 -1       494 7.82172E+00 4.93844E+01 0.00000E+00
 -1       495 5.18536E+01 8.21281E+00 0.00000E+00
 -1       496 4.99305E+01 1.62234E+01 0.00000E+00
 -1       497 4.67778E+01 2.38345E+01 0.00000E+00
 -1       498 4.24734E+01 3.08587E+01 0.00000E+00
 -1       499 3.71231E+01 3.71231E+01 0.00000E+00
 -1       500 3.08587E+01 4.24734E+01 0.00000E+00
 -1       501 2.38345E+01 4.67778E+01 0.00000E+00
 -1       502 1.62234E+01 4.99305E+01 0.00000E+00
 -1       503 8.21281E+00 5.18536E+01 0.00000E+00
 -1       504 5.43229E+01 8.60390E+00 0.00000E+00
 -1       505 5.23081E+01 1.69959E+01 0.00000E+00
 -1       506 4.90054E+01 2.49695E+01 0.00000E+00
 -1       507 4.44959E+01 3.23282E+01 0.00000E+00
 -1       508 3.88909E+01 3.88909E+01 0.00000E+00
 -1       509 3.23282E+01 4.44959E+01 0.00000E+00
 -1       510 2.49695E+01 4.90054E+01 0.00000E+00
 -1       511 1.69959E+01 5.23081E+01 0.00000E+00
 -1       512 8.60390E+00 5.43229E+01 0.00000E+00
 -1       513 5.67921E+01 8.99498E+00 0.00000E+00
 -1       514 5.46857E+01 1.77685E+01 0.00000E+00
 -1       515 5.12329E+01 2.61045E+01 0.00000E+00
 -1       516 4.65185E+01 3.37977E+01 0.00000E+00
 -1       517 4.06586E+01 4.06586E+01 0.00000E+00
 -1       518 3.37977E+01 4.65185E+01 0.00000E+00
 -1       519 2.61045E+01 5.12329E+01 0.00000E+00
 -1       520 1.77685E+01 5.46857E+01 0.00000E+00
 -1       521 8.99498E+00 5.67921E+01 0.00000E+00
 -1       522 5.92613E+01 9.38607E+00 0.00000E+00
 -1       523 5.70634E+01 1.85410E+01 0.00000E+00
 -1       524 5.34604E+01 2.72394E+01 0.00000E+00
 -1       525 4.85410E+01 3.52671E+01 0.00000E+00
 -1       526 4.24264E+01 4.24264E+01 0.00000E+00
 -1       527 3.52671E+01 4.85410E+01 0.00000E+00
 -1       528 2.72394E+01 5.34604E+01 0.00000E+00
 -1       529 1.85410E+01 5.70634E+01 0.00000E+00
 -1       530 9.38607E+00 5.92613E+01 0.00000E+00
 -1       531 6.17305E+01 9.77715E+00 0.00000E+00
 -1       532 5.94410E+01 1.93136E+01 0.00000E+00
 -1       533 5.56879E+01 2.83744E+01 0.00000E+00
 -1       534 5.05636E+01 3.67366E+01 0.00000E+00
 -1       535 4.41942E+01 4.41942E+01 0.00000E+00
 -1       536 3.67366E+01 5.05636E+01 0.00000E+00
 -1       537 2.83744E+01 5.56879E+01 0.00000E+00
 -1       538 1.93136E+01 5.94410E+01 0.00000E+00
 -1       539 9.77715E+00 6.17305E+01 0.00000E+00
 -1       540 6.41997E+01 1.01682E+01 0.00000E+00
 -1       541 6.18187E+01 2.00861E+01 0.00000E+00
 -1       542 5.79154E+01 2.95094E+01 0.00000E+00
 -1       543 5.25861E+01 3.82060E+01 0.00000E+00
 -1       544 4.59619E+01 4.59619E+01 0.00000E+00
 -1       545 3.82060E+01 5.25861E+01 0.00000E+00
 -1       546 2.95094E+01 5.79154E+01 0.00000E+00
 -1       547 2.00861E+01 6.18187E+01 0.00000E+00
 -1       548 1.01682E+01 6.41997E+01 0.00000E+00
 -1       549 6.66690E+01 1.05593E+01 0.00000E+00
 -1       550 6.41963E+01 2.08586E+01 0.00000E+00
 -1       551 6.01429E+01 3.06444E+01 0.00000E+00
 -1       552 5.46086E+01 3.96755E+01 0.00000E+00
 -1       553 4.77297E+01 4.77297E+01 0.00000E+00
 -1       554 3.96755E+01 5.46086E+01 0.00000E+00
 -1       555 3.06444E+01 6.01429E+01 0.00000E+00
 -1       556 2.08586E+01 6.41963E+01 0.00000E+00
 -1       557 1.05593E+01 6.66690E+01 0.00000E+00
 -1       558 6.91382E+01 1.09504E+01 0.00000E+00
 -1       559 6.65740E+01 2.16312E+01 0.00000E+00
 -1       560 6.23705E+01 3.17793E+01 0.00000E+00
 -1       561 5.66312E+01 4.11450E+01 0.00000E+00
 -1       562 4.94975E+01 4.94975E+01 0.00000E+00
 -1       563 4.11450E+01 5.66312E+01 0.00000E+00
 -1       564 3.17793E+01 6.23705E+01 0.00000E+00
 -1       565 2.16312E+01 6.65740E+01 0.00000E+00
 -1       566 1.09504E+01 6.91382E+01 0.00000E+00
 -1       567 7.16074E+01 1.13415E+01 0.00000E+00
 -1       568 6.89516E+01 2.24037E+01 0.00000E+00
 -1       569 6.45980E+01 3.29143E+01 0.00000E+00
 -1       570 5.86537E+01 4.26144E+01 0.00000E+00
 -1       571 5.12652E+01 5.12652E+01 0.00000E+00
 -1       572 4.26144E+01 5.86537E+01 0.00000E+00
 -1       573 3.29143E+01 6.45980E+01 0.00000E+00
 -1       574 2.24037E+01 6.89516E+01 0.00000E+00
 -1       575 1.13415E+01 7.16074E+01 0.00000E+00
 -1       576 7.40766E+01 1.17326E+01 0.00000E+00
 -1       577 7.13292E+01 2.31763E+01 0.00000E+00
 -1       578 6.68255E+01 3.40493E+01 0.00000E+00
 -1       579 6.06763E+01 4.40839E+01 0.00000E+00
 -1       580 5.30330E+01 5.30330E+01 0.00000E+00
 -1       581 4.40839E+01 6.06763E+01 0.00000E+00
 -1       582 3.40493E+01 6.68255E+01 0.00000E+00
 -1       583 2.31763E+01 7.13292E+01 0.00000E+00
 -1       584 1.17326E+01 7.40766E+01 0.00000E+00
 -1       585 7.65458E+01 1.21237E+01 0.00000E+00
 -1       586 7.37069E+01 2.39488E+01 0.00000E+00
 -1       587 6.90530E+01 3.51843E+01 0.00000E+00
 -1       588 6.26988E+01 4.55534E+01 0.00000E+00
 -1       589 5.48008E+01 5.48008E+01 0.00000E+00
 -1       590 4.55534E+01 6.26988E+01 0.00000E+00
 -1       591 3.51843E+01 6.90530E+01 0.00000E+00
 -1       592 2.39488E+01 7.37069E+01 0.00000E+00
 -1       593 1.21237E+01 7.65458E+01 0.00000E+00
 -1       594 7.90151E+01 1.25148E+01 0.00000E+00
 -1       595 7.60845E+01 2.47214E+01 0.00000E+00
 -1       596 7.12805E+01 3.63192E+01 0.00000E+00
 -1       597 6.47214E+01 4.70228E+01 0.00000E+00
 -1       598 5.65685E+01 5.65685E+01 0.00000E+00
 -1       599 4.70228E+01 6.47214E+01 0.00000E+00
 -1       600 3.63192E+01 7.12805E+01 0.00000E+00
 -1       601 2.47214E+01 7.60845E+01 0.00000E+00
 -1       602 1.25148E+01 7.90151E+01 0.00000E+00
 -1       603 8.14843E+01 1.29058E+01 0.00000E+00
 -1       604 7.84622E+01 2.54939E+01 0.00000E+00
 -1       605 7.35080E+01 3.74542E+01 0.00000E+00
 -1       606 6.67439E+01 4.84923E+01 0.00000E+00
 -1       607 5.83363E+01 5.83363E+01 0.00000E+00
 -1       608 4.84923E+01 6.67439E+01 0.00000E+00
 -1       609 3.74542E+01 7.35080E+01 0.00000E+00
 -1       610 2.54939E+01 7.84622E+01 0.00000E+00
 -1       611 1.29058E+01 8.14843E+01 0.00000E+00
 -1       612 8.39535E+01 1.32969E+01 0.00000E+00
 -1       613 8.08398E+01 2.62664E+01 0.00000E+00
 -1       614 7.57356E+01 3.85892E+01 0.00000E+00
 -1       615 6.87664E+01 4.99617E+01 0.00000E+00
 -1       616 6.01041E+01 6.01041E+01 0.00000E+00
 -1       617 4.99617E+01 6.87664E+01 0.00000E+00
 -1       618 3.85892E+01 7.57356E+01 0.00000E+00
 -1       619 2.62664E+01 8.08398E+01 0.00000E+00
 -1       620 1.32969E+01 8.39535E+01 0.00000E+00
 -1       621 8.64227E+01 1.36880E+01 0.00000E+00
 -1       622 8.32174E+01 2.70390E+01 0.00000E+00
 -1       623 7.79631E+01 3.97242E+01 0.00000E+00
 -1       624 7.07890E+01 5.14312E+01 0.00000E+00
 -1       625 6.18718E+01 6.18718E+01 0.00000E+00
 -1       626 5.14312E+01 7.07890E+01 0.00000E+00
 -1       627 3.97242E+01 7.79631E+01 0.00000E+00
 -1       628 2.70390E+01 8.32174E+01 0.00000E+00
 -1       629 1.36880E+01 8.64227E+01 0.00000E+00
 -1       630 8.88920E+01 1.40791E+01 0.00000E+00
 -1       631 8.55951E+01 2.78115E+01 0.00000E+00
 -1       632 8.01906E+01 4.08591E+01 0.00000E+00
 -1       633 7.28115E+01 5.29007E+01 0.00000E+00
 -1       634 6.36396E+01 6.36396E+01 0.00000E+00
 -1       635 5.29007E+01 7.28115E+01 0.00000E+00
 -1       636 4.08591E+01 8.01906E+01 0.00000E+00
 -1       637 2.78115E+01 8.55951E+01 0.00000E+00
 -1       638 1.40791E+01 8.88920E+01 0.00000E+00
 -1       639 9.13612E+01 1.44702E+01 0.00000E+00
 -1       640 8.79727E+01 2.85841E+01 0.00000E+00
 -1       641 8.24181E+01 4.19941E+01 0.00000E+00
 -1       642 7.48341E+01 5.43701E+01 0.00000E+00
 -1       643 6.54074E+01 6.54074E+01 0.00000E+00
 -1       644 5.43701E+01 7.48341E+01 0.00000E+00
 -1       645 4.19941E+01 8.24181E+01 0.00000E+00
 -1       646 2.85841E+01 8.79727E+01 0.00000E+00
 -1       647 1.44702E+01 9.13612E+01 0.00000E+00
 -1       648 9.38304E+01 1.48613E+01 0.00000E+00
 -1       649 9.03504E+01 2.93566E+01 0.00000E+00
 -1       650 8.46456E+01 4.31291E+01 0.00000E+00
 -1       651 7.68566E+01 5.58396E+01 0.00000E+00
 -1       652 6.71751E+01 6.71751E+01 0.00000E+00
 -1       653 5.58396E+01 7.68566E+01 0.00000E+00
 -1       654 4.31291E+01 8.46456E+01 0.00000E+00
 -1       655 2.93566E+01 9.03504E+01 0.00000E+00
 -1       656 1.48613E+01 9.38304E+01 0.00000E+00
 -1       657 9.62996E+01 1.52524E+01 0.00000E+00
 -1       658 9.27280E+01 3.01292E+01 0.00000E+00
 -1       659 8.68731E+01 4.42641E+01 0.00000E+00
 -1       660 7.88792E+01 5.73091E+01 0.00000E+00
 -1       661 6.89429E+01 6.89429E+01 0.00000E+00
 -1       662 5.73091E+01 7.88792E+01 0.00000E+00
 -1       663 4.42641E+01 8.68731E+01 0.00000E+00
 -1       664 3.01292E+01 9.27280E+01 0.00000E+00
 -1       665 1.52524E+01 9.62996E+01 0.00000E+00
 -1       666 2.73307E+01 2.15097E+00 0.00000E+00
 -1       667 2.59268E+01 4.10640E+00 0.00000E+00
 -1       669 2.66577E+01 6.39996E+00 0.00000E+00
 -1       670 2.49652E+01 8.11170E+00 0.00000E+00
 -1       672 2.53284E+01 1.04914E+01 0.00000E+00
 -1       673 2.33889E+01 1.19173E+01 0.00000E+00
 -1       675 2.33753E+01 1.43244E+01 0.00000E+00
 -1       676 2.12367E+01 1.54294E+01 0.00000E+00
 -1       678 2.08467E+01 1.78048E+01 0.00000E+00
 -1       679 1.85616E+01 1.85616E+01 0.00000E+00
 -1       681 1.78048E+01 2.08467E+01 0.00000E+00
 -1       682 1.54294E+01 2.12367E+01 0.00000E+00
 -1       684 1.43244E+01 2.33753E+01 0.00000E+00
 -1       685 1.19173E+01 2.33889E+01 0.00000E+00
 -1       687 1.04914E+01 2.53284E+01 0.00000E+00
 -1       688 8.11170E+00 2.49652E+01 0.00000E+00
 -1       690 6.39996E+00 2.66577E+01 0.00000E+00
 -1       691 4.10640E+00 2.59268E+01 0.00000E+00
 -1       693 2.15097E+00 2.73307E+01 0.00000E+00
 -1       695 2.98153E+01 2.34652E+00 0.00000E+00
 -1       696 2.83960E+01 4.49749E+00 0.00000E+00
 -1       698 2.90812E+01 6.98177E+00 0.00000E+00
 -1       699 2.73429E+01 8.88424E+00 0.00000E+00
 -1       701 2.76309E+01 1.14451E+01 0.00000E+00
 -1       702 2.56164E+01 1.30522E+01 0.00000E+00
 -1       704 2.55004E+01 1.56266E+01 0.00000E+00
 -1       705 2.32592E+01 1.68988E+01 0.00000E+00
 -1       707 2.27419E+01 1.94234E+01 0.00000E+00
 -1       708 2.03293E+01 2.03293E+01 0.00000E+00
 -1       710 1.94234E+01 2.27419E+01 0.00000E+00
 -1       711 1.68988E+01 2.32592E+01 0.00000E+00
 -1       713 1.56266E+01 2.55004E+01 0.00000E+00
 -1       714 1.30522E+01 2.56164E+01 0.00000E+00
 -1       716 1.14451E+01 2.76309E+01 0.00000E+00
 -1       717 8.88424E+00 2.73429E+01 0.00000E+00
 -1       719 6.98177E+00 2.90812E+01 0.00000E+00
 -1       720 4.49749E+00 2.83960E+01 0.00000E+00
 -1       722 2.34652E+00 2.98153E+01 0.00000E+00
 -1       724 3.22999E+01 2.54206E+00 0.00000E+00
 -1       725 3.08653E+01 4.88858E+00 0.00000E+00
 -1       727 3.15046E+01 7.56359E+00 0.00000E+00
 -1       728 2.97205E+01 9.65678E+00 0.00000E+00
 -1       730 2.99335E+01 1.23989E+01 0.00000E+00
 -1       731 2.78440E+01 1.41872E+01 0.00000E+00
 -1       733 2.76254E+01 1.69289E+01 0.00000E+00
 -1       734 2.52818E+01 1.83683E+01 0.00000E+00
 -1       736 2.46370E+01 2.10420E+01 0.00000E+00
 -1       737 2.20971E+01 2.20971E+01 0.00000E+00
 -1       739 2.10420E+01 2.46370E+01 0.00000E+00
 -1       740 1.83683E+01 2.52818E+01 0.00000E+00
 -1       742 1.69289E+01 2.76254E+01 0.00000E+00
 -1       743 1.41872E+01 2.78440E+01 0.00000E+00
 -1       745 1.23989E+01 2.99335E+01 0.00000E+00
 -1       746 9.65678E+00 2.97205E+01 0.00000E+00
 -1       748 7.56359E+00 3.15046E+01 0.00000E+00
 -1       749 4.88858E+00 3.08653E+01 0.00000E+00
 -1       751 2.54206E+00 3.22999E+01 0.00000E+00
 -1       753 3.47845E+01 2.73760E+00 0.00000E+00
 -1       754 3.33345E+01 5.27966E+00 0.00000E+00
 -1       756 3.39280E+01 8.14540E+00 0.00000E+00
 -1       757 3.20982E+01 1.04293E+01 0.00000E+00
 -1       759 3.22361E+01 1.33526E+01 0.00000E+00
 -1       760 3.00715E+01 1.53222E+01 0.00000E+00
 -1       762 2.97504E+01 1.82311E+01 0.00000E+00
 -1       763 2.73043E+01 1.98378E+01 0.00000E+00
 -1       765 2.65322E+01 2.26606E+01 0.00000E+00
 -1       766 2.38649E+01 2.38649E+01 0.00000E+00
 -1       768 2.26606E+01 2.65322E+01 0.00000E+00
 -1       769 1.98378E+01 2.73043E+01 0.00000E+00
 -1       771 1.82311E+01 2.97504E+01 0.00000E+00
 -1       772 1.53222E+01 3.00715E+01 0.00000E+00
 -1       774 1.33526E+01 3.22361E+01 0.00000E+00
 -1       775 1.04293E+01 3.20982E+01 0.00000E+00
 -1       777 8.14540E+00 3.39280E+01 0.00000E+00
 -1       778 5.27966E+00 3.33345E+01 0.00000E+00
 -1       780 2.73760E+00 3.47845E+01 0.00000E+00
 -1       782 3.72692E+01 2.93315E+00 0.00000E+00
 -1       783 3.58037E+01 5.67075E+00 0.00000E+00
 -1       785 3.63515E+01 8.72721E+00 0.00000E+00
 -1       786 3.44758E+01 1.12019E+01 0.00000E+00
 -1       788 3.45387E+01 1.43064E+01 0.00000E+00
 -1       789 3.22990E+01 1.64572E+01 0.00000E+00
 -1       791 3.18754E+01 1.95333E+01 0.00000E+00
 -1       792 2.93269E+01 2.13072E+01 0.00000E+00
 -1       794 2.84273E+01 2.42792E+01 0.00000E+00
 -1       795 2.56326E+01 2.56326E+01 0.00000E+00
 -1       797 2.42792E+01 2.84273E+01 0.00000E+00
 -1       798 2.13072E+01 2.93269E+01 0.00000E+00
 -1       800 1.95333E+01 3.18754E+01 0.00000E+00
 -1       801 1.64572E+01 3.22990E+01 0.00000E+00
 -1       803 1.43064E+01 3.45387E+01 0.00000E+00
 -1       804 1.12019E+01 3.44758E+01 0.00000E+00
 -1       806 8.72721E+00 3.63515E+01 0.00000E+00
 -1       807 5.67075E+00 3.58037E+01 0.00000E+00
 -1       809 2.93315E+00 3.72692E+01 0.00000E+00
 -1       811 3.97538E+01 3.12869E+00 0.00000E+00
 -1       812 3.82729E+01 6.06184E+00 0.00000E+00
 -1       814 3.87749E+01 9.30903E+00 0.00000E+00
 -1       815 3.68534E+01 1.19744E+01 0.00000E+00
 -1       817 3.68413E+01 1.52601E+01 0.00000E+00
 -1       818 3.45265E+01 1.75921E+01 0.00000E+00
 -1       820 3.40005E+01 2.08355E+01 0.00000E+00
 -1       821 3.13494E+01 2.27767E+01 0.00000E+00
 -1       823 3.03225E+01 2.58978E+01 0.00000E+00
 -1       824 2.74004E+01 2.74004E+01 0.00000E+00
 -1       826 2.58978E+01 3.03225E+01 0.00000E+00
 -1       827 2.27767E+01 3.13494E+01 0.00000E+00
 -1       829 2.08355E+01 3.40005E+01 0.00000E+00
 -1       830 1.75921E+01 3.45265E+01 0.00000E+00
 -1       832 1.52601E+01 3.68413E+01 0.00000E+00
 -1       833 1.19744E+01 3.68534E+01 0.00000E+00
 -1       835 9.30903E+00 3.87749E+01 0.00000E+00
 -1       836 6.06184E+00 3.82729E+01 0.00000E+00
 -1       838 3.12869E+00 3.97538E+01 0.00000E+00
 -1       840 4.22384E+01 3.32423E+00 0.00000E+00
 -1       841 4.07421E+01 6.45292E+00 0.00000E+00
 -1       843 4.11983E+01 9.89084E+00 0.00000E+00
 -1       844 3.92311E+01 1.27470E+01 0.00000E+00
 -1       846 3.91438E+01 1.62139E+01 0.00000E+00
 -1       847 3.67540E+01 1.87271E+01 0.00000E+00
 -1       849 3.61255E+01 2.21377E+01 0.00000E+00
 -1       850 3.33720E+01 2.42461E+01 0.00000E+00
 -1       852 3.22176E+01 2.75165E+01 0.00000E+00
 -1       853 2.91682E+01 2.91682E+01 0.00000E+00
 -1       855 2.75165E+01 3.22176E+01 0.00000E+00
 -1       856 2.42461E+01 3.33720E+01 0.00000E+00
 -1       858 2.21377E+01 3.61255E+01 0.00000E+00
 -1       859 1.87271E+01 3.67540E+01 0.00000E+00
 -1       861 1.62139E+01 3.91438E+01 0.00000E+00
 -1       862 1.27470E+01 3.92311E+01 0.00000E+00
 -1       864 9.89084E+00 4.11983E+01 0.00000E+00
 -1       865 6.45292E+00 4.07421E+01 0.00000E+00
 -1       867 3.32423E+00 4.22384E+01 0.00000E+00
 -1       869 4.47230E+01 3.51978E+00 0.00000E+00
 -1       870 4.32114E+01 6.84401E+00 0.00000E+00
 -1       872 4.36218E+01 1.04727E+01 0.00000E+00
 -1       873 4.16087E+01 1.35195E+01 0.00000E+00
 -1       875 4.14464E+01 1.71677E+01 0.00000E+00
 -1       876 3.89815E+01 1.98621E+01 0.00000E+00
 -1       878 3.82505E+01 2.34400E+01 0.00000E+00
 -1       879 3.53945E+01 2.57156E+01 0.00000E+00
 -1       881 3.41128E+01 2.91351E+01 0.00000E+00
 -1       882 3.09359E+01 3.09359E+01 0.00000E+00
 -1       884 2.91351E+01 3.41128E+01 0.00000E+00
 -1       885 2.57156E+01 3.53945E+01 0.00000E+00
 -1       887 2.34400E+01 3.82505E+01 0.00000E+00
 -1       888 1.98621E+01 3.89815E+01 0.00000E+00
 -1       890 1.71677E+01 4.14464E+01 0.00000E+00
 -1       891 1.35195E+01 4.16087E+01 0.00000E+00
 -1       893 1.04727E+01 4.36218E+01 0.00000E+00
 -1       894 6.84401E+00 4.32114E+01 0.00000E+00
 -1       896 3.51978E+00 4.47230E+01 0.00000E+00
 -1       898 4.72076E+01 3.71532E+00 0.00000E+00
 -1       899 4.56806E+01 7.23509E+00 0.00000E+00
 -1       901 4.60452E+01 1.10545E+01 0.00000E+00
 -1       902 4.39864E+01 1.42920E+01 0.00000E+00
 -1       904 4.37490E+01 1.81214E+01 0.00000E+00
 -1       905 4.12091E+01 2.09971E+01 0.00000E+00
 -1       907 4.03756E+01 2.47422E+01 0.00000E+00
 -1       908 3.74170E+01 2.71851E+01 0.00000E+00
 -1       910 3.60079E+01 3.07537E+01 0.00000E+00
 -1       911 3.27037E+01 3.27037E+01 0.00000E+00
 -1       913 3.07537E+01 3.60079E+01 0.00000E+00
 -1       914 2.71851E+01 3.74170E+01 0.00000E+00
 -1       916 2.47422E+01 4.03756E+01 0.00000E+00
 -1       917 2.09971E+01 4.12091E+01 0.00000E+00
 -1       919 1.81214E+01 4.37490E+01 0.00000E+00
 -1       920 1.42920E+01 4.39864E+01 0.00000E+00
 -1       922 1.10545E+01 4.60452E+01 0.00000E+00
 -1       923 7.23509E+00 4.56806E+01 0.00000E+00
 -1       925 3.71532E+00 4.72076E+01 0.00000E+00
 -1       927 4.96922E+01 3.91086E+00 0.00000E+00
 -1       928 4.81498E+01 7.62618E+00 0.00000E+00
 -1       930 4.84686E+01 1.16363E+01 0.00000E+00
 -1       931 4.63640E+01 1.50646E+01 0.00000E+00
 -1       933 4.60516E+01 1.90752E+01 0.00000E+00
 -1       934 4.34366E+01 2.21320E+01 0.00000E+00
 -1       936 4.25006E+01 2.60444E+01 0.00000E+00
 -1       937 3.94396E+01 2.86545E+01 0.00000E+00
 -1       939 3.79031E+01 3.23723E+01 0.00000E+00
 -1       940 3.44715E+01 3.44715E+01 0.00000E+00
 -1       942 3.23723E+01 3.79031E+01 0.00000E+00
 -1       943 2.86545E+01 3.94396E+01 0.00000E+00
 -1       945 2.60444E+01 4.25006E+01 0.00000E+00
 -1       946 2.21320E+01 4.34366E+01 0.00000E+00
 -1       948 1.90752E+01 4.60516E+01 0.00000E+00
 -1       949 1.50646E+01 4.63640E+01 0.00000E+00
 -1       951 1.16363E+01 4.84686E+01 0.00000E+00
 -1       952 7.62618E+00 4.81498E+01 0.00000E+00
 -1       954 3.91086E+00 4.96922E+01 0.00000E+00
 -1       956 5.21768E+01 4.10640E+00 0.00000E+00
 -1       957 5.06190E+01 8.01727E+00 0.00000E+00
 -1       959 5.08921E+01 1.22181E+01 0.00000E+00
 -1       960 4.87416E+01 1.58371E+01 0.00000E+00
 -1       962 4.83542E+01 2.00289E+01 0.00000E+00
 -1       963 4.56641E+01 2.32670E+01 0.00000E+00
 -1       965 4.46256E+01 2.73466E+01 0.00000E+00
 -1       966 4.14621E+01 3.01240E+01 0.00000E+00
 -1       968 3.97982E+01 3.39909E+01 0.00000E+00
 -1       969 3.62392E+01 3.62392E+01 0.00000E+00
 -1       971 3.39909E+01 3.97982E+01 0.00000E+00
 -1       972 3.01240E+01 4.14621E+01 0.00000E+00
 -1       974 2.73466E+01 4.46256E+01 0.00000E+00
 -1       975 2.32670E+01 4.56641E+01 0.00000E+00
 -1       977 2.00289E+01 4.83542E+01 0.00000E+00
 -1       978 1.58371E+01 4.87416E+01 0.00000E+00
 -1       980 1.22181E+01 5.08921E+01 0.00000E+00
 -1       981 8.01727E+00 5.06190E+01 0.00000E+00
 -1       983 4.10640E+00 5.21768E+01 0.00000E+00
 -1       985 5.46614E+01 4.30195E+00 0.00000E+00
 -1       986 5.30882E+01 8.40835E+00 0.00000E+00
 -1       988 5.33155E+01 1.27999E+01 0.00000E+00
 -1       989 5.11193E+01 1.66097E+01 0.00000E+00
 -1       991 5.06567E+01 2.09827E+01 0.00000E+00
 -1       992 4.78916E+01 2.44020E+01 0.00000E+00
 -1       994 4.67506E+01 2.86488E+01 0.00000E+00
 -1       995 4.34847E+01 3.15935E+01 0.00000E+00
 -1       997 4.16934E+01 3.56095E+01 0.00000E+00
 -1       998 3.80070E+01 3.80070E+01 0.00000E+00
 -1      1000 3.56095E+01 4.16934E+01 0.00000E+00
 -1      1001 3.15935E+01 4.34847E+01 0.00000E+00
 -1      1003 2.86488E+01 4.67506E+01 0.00000E+00
 -1      1004 2.44020E+01 4.78916E+01 0.00000E+00
 -1      1006 2.09827E+01 5.06567E+01 0.00000E+00
 -1      1007 1.66097E+01 5.11193E+01 0.00000E+00
 -1      1009 1.27999E+01 5.33155E+01 0.00000E+00
 -1      1010 8.40835E+00 5.30882E+01 0.00000E+00
 -1      1012 4.30195E+00 5.46614E+01 0.00000E+00
 -1      1014 5.71460E+01 4.49749E+00 0.00000E+00
 -1      1015 5.55575E+01 8.79944E+00 0.00000E+00
 -1      1017 5.57389E+01 1.33817E+01 0.00000E+00
 -1      1018 5.34969E+01 1.73822E+01 0.00000E+00
 -1      1020 5.29593E+01 2.19365E+01 0.00000E+00
 -1      1021 5.01191E+01 2.55370E+01 0.00000E+00
 -1      1023 4.88757E+01 2.99511E+01 0.00000E+00
 -1      1024 4.55072E+01 3.30629E+01 0.00000E+00
 -1      1026 4.35886E+01 3.72281E+01 0.00000E+00
 -1      1027 3.97748E+01 3.97748E+01 0.00000E+00
 -1      1029 3.72281E+01 4.35886E+01 0.00000E+00
 -1      1030 3.30629E+01 4.55072E+01 0.00000E+00
 -1      1032 2.99511E+01 4.88757E+01 0.00000E+00
 -1      1033 2.55370E+01 5.01191E+01 0.00000E+00
 -1      1035 2.19365E+01 5.29593E+01 0.00000E+00
 -1      1036 1.73822E+01 5.34969E+01 0.00000E+00
 -1      1038 1.33817E+01 5.57389E+01 0.00000E+00
 -1      1039 8.79944E+00 5.55575E+01 0.00000E+00
 -1      1041 4.49749E+00 5.71460E+01 0.00000E+00
 -1      1043 5.96306E+01 4.69303E+00 0.00000E+00
 -1      1044 5.80267E+01 9.19053E+00 0.00000E+00
 -1      1046 5.81623E+01 1.39635E+01 0.00000E+00
 -1      1047 5.58746E+01 1.81547E+01 0.00000E+00
 -1      1049 5.52619E+01 2.28902E+01 0.00000E+00
 -1      1050 5.23466E+01 2.66719E+01 0.00000E+00
 -1      1052 5.10007E+01 3.12533E+01 0.00000E+00
 -1      1053 4.75297E+01 3.45324E+01 0.00000E+00
 -1      1055 4.54837E+01 3.88468E+01 0.00000E+00
 -1      1056 4.15425E+01 4.15425E+01 0.00000E+00
 -1      1058 3.88468E+01 4.54837E+01 0.00000E+00
 -1      1059 3.45324E+01 4.75297E+01 0.00000E+00
 -1      1061 3.12533E+01 5.10007E+01 0.00000E+00
 -1      1062 2.66719E+01 5.23466E+01 0.00000E+00
 -1      1064 2.28902E+01 5.52619E+01 0.00000E+00
 -1      1065 1.81547E+01 5.58746E+01 0.00000E+00
 -1      1067 1.39635E+01 5.81623E+01 0.00000E+00
 -1      1068 9.19053E+00 5.80267E+01 0.00000E+00
 -1      1070 4.69303E+00 5.96306E+01 0.00000E+00
 -1      1072 6.21153E+01 4.88858E+00 0.00000E+00
 -1      1073 6.04959E+01 9.58161E+00 0.00000E+00
 -1      1075 6.05858E+01 1.45454E+01 0.00000E+00
 -1      1076 5.82522E+01 1.89273E+01 0.00000E+00
 -1      1078 5.75645E+01 2.38440E+01 0.00000E+00
 -1      1079 5.45742E+01 2.78069E+01 0.00000E+00
 -1      1081 5.31257E+01 3.25555E+01 0.00000E+00
 -1      1082 4.95523E+01 3.60018E+01 0.00000E+00
 -1      1084 4.73789E+01 4.04654E+01 0.00000E+00
 -1      1085 4.33103E+01 4.33103E+01 0.00000E+00
 -1      1087 4.04654E+01 4.73789E+01 0.00000E+00
 -1      1088 3.60018E+01 4.95523E+01 0.00000E+00
 -1      1090 3.25555E+01 5.31257E+01 0.00000E+00
 -1      1091 2.78069E+01 5.45742E+01 0.00000E+00
 -1      1093 2.38440E+01 5.75645E+01 0.00000E+00
 -1      1094 1.89273E+01 5.82522E+01 0.00000E+00
 -1      1096 1.45454E+01 6.05858E+01 0.00000E+00
 -1      1097 9.58161E+00 6.04959E+01 0.00000E+00
 -1      1099 4.88858E+00 6.21153E+01 0.00000E+00
 -1      1101 6.45999E+01 5.08412E+00 0.00000E+00
 -1      1102 6.29651E+01 9.97270E+00 0.00000E+00
 -1      1104 6.30092E+01 1.51272E+01 0.00000E+00
 -1      1105 6.06299E+01 1.96998E+01 0.00000E+00
 -1      1107 5.98671E+01 2.47977E+01 0.00000E+00
 -1      1108 5.68017E+01 2.89419E+01 0.00000E+00
 -1      1110 5.52508E+01 3.38577E+01 0.00000E+00
 -1      1111 5.15748E+01 3.74713E+01 0.00000E+00
 -1      1113 4.92740E+01 4.20840E+01 0.00000E+00
 -1      1114 4.50781E+01 4.50781E+01 0.00000E+00
 -1      1116 4.20840E+01 4.92740E+01 0.00000E+00
 -1      1117 3.74713E+01 5.15748E+01 0.00000E+00
 -1      1119 3.38577E+01 5.52508E+01 0.00000E+00
 -1      1120 2.89419E+01 5.68017E+01 0.00000E+00
 -1      1122 2.47977E+01 5.98671E+01 0.00000E+00
 -1      1123 1.96998E+01 6.06299E+01 0.00000E+00
 -1      1125 1.51272E+01 6.30092E+01 0.00000E+00
 -1      1126 9.97270E+00 6.29651E+01 0.00000E+00
 -1      1128 5.08412E+00 6.45999E+01 0.00000E+00
 -1      1130 6.70845E+01 5.27966E+00 0.00000E+00
 -1      1131 6.54343E+01 1.03638E+01 0.00000E+00
 -1      1133 6.54326E+01 1.57090E+01 0.00000E+00
 -1      1134 6.30075E+01 2.04724E+01 0.00000E+00
 -1      1136 6.21696E+01 2.57515E+01 0.00000E+00
 -1      1137 5.90292E+01 3.00769E+01 0.00000E+00
 -1      1139 5.73758E+01 3.51599E+01 0.00000E+00
 -1      1140 5.35974E+01 3.89408E+01 0.00000E+00
 -1      1142 5.11692E+01 4.37026E+01 0.00000E+00
 -1      1143 4.68458E+01 4.68458E+01 0.00000E+00
 -1      1145 4.37026E+01 5.11692E+01 0.00000E+00
 -1      1146 3.89408E+01 5.35974E+01 0.00000E+00
 -1      1148 3.51599E+01 5.73758E+01 0.00000E+00
 -1      1149 3.00769E+01 5.90292E+01 0.00000E+00
 -1      1151 2.57515E+01 6.21696E+01 0.00000E+00
 -1      1152 2.04724E+01 6.30075E+01 0.00000E+00
 -1      1154 1.57090E+01 6.54326E+01 0.00000E+00
 -1      1155 1.03638E+01 6.54343E+01 0.00000E+00
 -1      1157 5.27966E+00 6.70845E+01 0.00000E+00
 -1      1159 6.95691E+01 5.47521E+00 0.00000E+00
 -1      1160 6.79036E+01 1.07549E+01 0.00000E+00
 -1      1162 6.78561E+01 1.62908E+01 0.00000E+00
 -1      1163 6.53851E+01 2.12449E+01 0.00000E+00
 -1      1165 6.44722E+01 2.67053E+01 0.00000E+00
 -1      1166 6.12567E+01 3.12118E+01 0.00000E+00
 -1      1168 5.95008E+01 3.64622E+01 0.00000E+00
 -1      1169 5.56199E+01 4.04102E+01 0.00000E+00
 -1      1171 5.30643E+01 4.53212E+01 0.00000E+00
 -1      1172 4.86136E+01 4.86136E+01 0.00000E+00
 -1      1174 4.53212E+01 5.30643E+01 0.00000E+00
 -1      1175 4.04102E+01 5.56199E+01 0.00000E+00
 -1      1177 3.64622E+01 5.95008E+01 0.00000E+00
 -1      1178 3.12118E+01 6.12567E+01 0.00000E+00
 -1      1180 2.67053E+01 6.44722E+01 0.00000E+00
 -1      1181 2.12449E+01 6.53851E+01 0.00000E+00
 -1      1183 1.62908E+01 6.78561E+01 0.00000E+00
 -1      1184 1.07549E+01 6.79036E+01 0.00000E+00
 -1      1186 5.47521E+00 6.95691E+01 0.00000E+00
 -1      1188 7.20537E+01 5.67075E+00 0.00000E+00
 -1      1189 7.03728E+01 1.11460E+01 0.00000E+00
 -1      1191 7.02795E+01 1.68726E+01 0.00000E+00
 -1      1192 6.77628E+01 2.20175E+01 0.00000E+00
 -1      1194 6.67748E+01 2.76590E+01 0.00000E+00
 -1      1195 6.34842E+01 3.23468E+01 0.00000E+00
 -1      1197 6.16259E+01 3.77644E+01 0.00000E+00
 -1      1198 5.76425E+01 4.18797E+01 0.00000E+00
 -1      1200 5.49595E+01 4.69398E+01 0.00000E+00
 -1      1201 5.03814E+01 5.03814E+01 0.00000E+00
 -1      1203 4.69398E+01 5.49595E+01 0.00000E+00
 -1      1204 4.18797E+01 5.76425E+01 0.00000E+00
 -1      1206 3.77644E+01 6.16259E+01 0.00000E+00
 -1      1207 3.23468E+01 6.34842E+01 0.00000E+00
 -1      1209 2.76590E+01 6.67748E+01 0.00000E+00
 -1      1210 2.20175E+01 6.77628E+01 0.00000E+00
 -1      1212 1.68726E+01 7.02795E+01 0.00000E+00
 -1      1213 1.11460E+01 7.03728E+01 0.00000E+00
 -1      1215 5.67075E+00 7.20537E+01 0.00000E+00
 -1      1217 7.45383E+01 5.86629E+00 0.00000E+00
 -1      1218 7.28420E+01 1.15370E+01 0.00000E+00
 -1      1220 7.27029E+01 1.74544E+01 0.00000E+00
 -1      1221 7.01404E+01 2.27900E+01 0.00000E+00
 -1      1223 6.90774E+01 2.86128E+01 0.00000E+00
 -1      1224 6.57117E+01 3.34818E+01 0.00000E+00
 -1      1226 6.37509E+01 3.90666E+01 0.00000E+00
 -1      1227 5.96650E+01 4.33492E+01 0.00000E+00
 -1      1229 5.68546E+01 4.85585E+01 0.00000E+00
 -1      1230 5.21491E+01 5.21491E+01 0.00000E+00
 -1      1232 4.85585E+01 5.68546E+01 0.00000E+00
 -1      1233 4.33492E+01 5.96650E+01 0.00000E+00
 -1      1235 3.90666E+01 6.37509E+01 0.00000E+00
 -1      1236 3.34818E+01 6.57117E+01 0.00000E+00
 -1      1238 2.86128E+01 6.90774E+01 0.00000E+00
 -1      1239 2.27900E+01 7.01404E+01 0.00000E+00
 -1      1241 1.74544E+01 7.27029E+01 0.00000E+00
 -1      1242 1.15370E+01 7.28420E+01 0.00000E+00
 -1      1244 5.86629E+00 7.45383E+01 0.00000E+00
 -1      1246 7.70229E+01 6.06184E+00 0.00000E+00
 -1      1247 7.53112E+01 1.19281E+01 0.00000E+00
 -1      1249 7.51264E+01 1.80362E+01 0.00000E+00
 -1      1250 7.25181E+01 2.35625E+01 0.00000E+00
 -1      1252 7.13799E+01 2.95665E+01 0.00000E+00
 -1      1253 6.79392E+01 3.46168E+01 0.00000E+00
 -1      1255 6.58759E+01 4.03688E+01 0.00000E+00
 -1      1256 6.16875E+01 4.48186E+01 0.00000E+00
 -1      1258 5.87498E+01 5.01771E+01 0.00000E+00
 -1      1259 5.39169E+01 5.39169E+01 0.00000E+00
 -1      1261 5.01771E+01 5.87498E+01 0.00000E+00
 -1      1262 4.48186E+01 6.16875E+01 0.00000E+00
 -1      1264 4.03688E+01 6.58759E+01 0.00000E+00
 -1      1265 3.46168E+01 6.79392E+01 0.00000E+00
 -1      1267 2.95665E+01 7.13799E+01 0.00000E+00
 -1      1268 2.35625E+01 7.25181E+01 0.00000E+00
 -1      1270 1.80362E+01 7.51264E+01 0.00000E+00
 -1      1271 1.19281E+01 7.53112E+01 0.00000E+00
 -1      1273 6.06184E+00 7.70229E+01 0.00000E+00
 -1      1275 7.95075E+01 6.25738E+00 0.00000E+00
 -1      1276 7.77805E+01 1.23192E+01 0.00000E+00
 -1      1278 7.75498E+01 1.86181E+01 0.00000E+00
 -1      1279 7.48957E+01 2.43351E+01 0.00000E+00
 -1      1281 7.36825E+01 3.05203E+01 0.00000E+00
 -1      1282 7.01668E+01 3.57518E+01 0.00000E+00
 -1      1284 6.80009E+01 4.16710E+01 0.00000E+00
 -1      1285 6.37101E+01 4.62881E+01 0.00000E+00
 -1      1287 6.06450E+01 5.17957E+01 0.00000E+00
 -1      1288 5.56847E+01 5.56847E+01 0.00000E+00
 -1      1290 5.17957E+01 6.06450E+01 0.00000E+00
 -1      1291 4.62881E+01 6.37101E+01 0.00000E+00
 -1      1293 4.16710E+01 6.80009E+01 0.00000E+00
 -1      1294 3.57518E+01 7.01668E+01 0.00000E+00
 -1      1296 3.05203E+01 7.36825E+01 0.00000E+00
 -1      1297 2.43351E+01 7.48957E+01 0.00000E+00
 -1      1299 1.86181E+01 7.75498E+01 0.00000E+00
 -1      1300 1.23192E+01 7.77805E+01 0.00000E+00
 -1      1302 6.25738E+00 7.95075E+01 0.00000E+00
 -1      1304 8.19921E+01 6.45292E+00 0.00000E+00
 -1      1305 8.02497E+01 1.27103E+01 0.00000E+00
 -1      1307 7.99732E+01 1.91999E+01 0.00000E+00
 -1      1308 7.72733E+01 2.51076E+01 0.00000E+00
 -1      1310 7.59851E+01 3.14741E+01 0.00000E+00
 -1      1311 7.23943E+01 3.68867E+01 0.00000E+00
 -1      1313 7.01260E+01 4.29733E+01 0.00000E+00
 -1      1314 6.57326E+01 4.77576E+01 0.00000E+00
 -1      1316 6.25401E+01 5.34143E+01 0.00000E+00
 -1      1317 5.74524E+01 5.74524E+01 0.00000E+00
 -1      1319 5.34143E+01 6.25401E+01 0.00000E+00
 -1      1320 4.77576E+01 6.57326E+01 0.00000E+00
 -1      1322 4.29733E+01 7.01260E+01 0.00000E+00
 -1      1323 3.68867E+01 7.23943E+01 0.00000E+00
 -1      1325 3.14741E+01 7.59851E+01 0.00000E+00
 -1      1326 2.51076E+01 7.72733E+01 0.00000E+00
 -1      1328 1.91999E+01 7.99732E+01 0.00000E+00
 -1      1329 1.27103E+01 8.02497E+01 0.00000E+00
 -1      1331 6.45292E+00 8.19921E+01 0.00000E+00
 -1      1333 8.44768E+01 6.64846E+00 0.00000E+00
 -1      1334 8.27189E+01 1.31014E+01 0.00000E+00
 -1      1336 8.23967E+01 1.97817E+01 0.00000E+00
 -1      1337 7.96510E+01 2.58802E+01 0.00000E+00
 -1      1339 7.82877E+01 3.24278E+01 0.00000E+00
 -1      1340 7.46218E+01 3.80217E+01 0.00000E+00
 -1      1342 7.22510E+01 4.42755E+01 0.00000E+00
 -1      1343 6.77552E+01 4.92270E+01 0.00000E+00
 -1      1345 6.44353E+01 5.50329E+01 0.00000E+00
 -1      1346 5.92202E+01 5.92202E+01 0.00000E+00
 -1      1348 5.50329E+01 6.44353E+01 0.00000E+00
 -1      1349 4.92270E+01 6.77552E+01 0.00000E+00
 -1      1351 4.42755E+01 7.22510E+01 0.00000E+00
 -1      1352 3.80217E+01 7.46218E+01 0.00000E+00
 -1      1354 3.24278E+01 7.82877E+01 0.00000E+00
 -1      1355 2.58802E+01 7.96510E+01 0.00000E+00
 -1      1357 1.97817E+01 8.23967E+01 0.00000E+00
 -1      1358 1.31014E+01 8.27189E+01 0.00000E+00
 -1      1360 6.64846E+00 8.44768E+01 0.00000E+00
 -1      1362 8.69614E+01 6.84401E+00 0.00000E+00
 -1      1363 8.51881E+01 1.34925E+01 0.00000E+00
 -1      1365 8.48201E+01 2.03635E+01 0.00000E+00
 -1      1366 8.20286E+01 2.66527E+01 0.00000E+00
 -1      1368 8.05903E+01 3.33816E+01 0.00000E+00
 -1      1369 7.68493E+01 3.91567E+01 0.00000E+00
 -1      1371 7.43760E+01 4.55777E+01 0.00000E+00
 -1      1372 6.97777E+01 5.06965E+01 0.00000E+00
 -1      1374 6.63304E+01 5.66515E+01 0.00000E+00
 -1      1375 6.09880E+01 6.09880E+01 0.00000E+00
 -1      1377 5.66515E+01 6.63304E+01 0.00000E+00
 -1      1378 5.06965E+01 6.97777E+01 0.00000E+00
 -1      1380 4.55777E+01 7.43760E+01 0.00000E+00
 -1      1381 3.91567E+01 7.68493E+01 0.00000E+00
 -1      1383 3.33816E+01 8.05903E+01 0.00000E+00
 -1      1384 2.66527E+01 8.20286E+01 0.00000E+00
 -1      1386 2.03635E+01 8.48201E+01 0.00000E+00
 -1      1387 1.34925E+01 8.51881E+01 0.00000E+00
 -1      1389 6.84401E+00 8.69614E+01 0.00000E+00
 -1      1391 8.94460E+01 7.03955E+00 0.00000E+00
 -1      1392 8.76573E+01 1.38836E+01 0.00000E+00
 -1      1394 8.72435E+01 2.09453E+01 0.00000E+00
 -1      1395 8.44063E+01 2.74253E+01 0.00000E+00
 -1      1397 8.28928E+01 3.43353E+01 0.00000E+00
 -1      1398 7.90768E+01 4.02917E+01 0.00000E+00
 -1      1400 7.65011E+01 4.68799E+01 0.00000E+00
 -1      1401 7.18003E+01 5.21659E+01 0.00000E+00
 -1      1403 6.82256E+01 5.82701E+01 0.00000E+00
 -1      1404 6.27557E+01 6.27557E+01 0.00000E+00
 -1      1406 5.82701E+01 6.82256E+01 0.00000E+00
 -1      1407 5.21659E+01 7.18003E+01 0.00000E+00
 -1      1409 4.68799E+01 7.65011E+01 0.00000E+00
 -1      1410 4.02917E+01 7.90768E+01 0.00000E+00
 -1      1412 3.43353E+01 8.28928E+01 0.00000E+00
 -1      1413 2.74253E+01 8.44063E+01 0.00000E+00
 -1      1415 2.09453E+01 8.72435E+01 0.00000E+00
 -1      1416 1.38836E+01 8.76573E+01 0.00000E+00
 -1      1418 7.03955E+00 8.94460E+01 0.00000E+00
 -1      1420 9.19306E+01 7.23509E+00 0.00000E+00
 -1      1421 9.01266E+01 1.42746E+01 0.00000E+00
 -1      1423 8.96669E+01 2.15271E+01 0.00000E+00
 -1      1424 8.67839E+01 2.81978E+01 0.00000E+00
 -1      1426 8.51954E+01 3.52891E+01 0.00000E+00
 -1      1427 8.13043E+01 4.14266E+01 0.00000E+00
 -1      1429 7.86261E+01 4.81821E+01 0.00000E+00
 -1      1430 7.38228E+01 5.36354E+01 0.00000E+00
 -1      1432 7.01207E+01 5.98888E+01 0.00000E+00
 -1      1433 6.45235E+01 6.45235E+01 0.00000E+00
 -1      1435 5.98888E+01 7.01207E+01 0.00000E+00
 -1      1436 5.36354E+01 7.38228E+01 0.00000E+00
 -1      1438 4.81821E+01 7.86261E+01 0.00000E+00
 -1      1439 4.14266E+01 8.13043E+01 0.00000E+00
 -1      1441 3.52891E+01 8.51954E+01 0.00000E+00
 -1      1442 2.81978E+01 8.67839E+01 0.00000E+00
 -1      1444 2.15271E+01 8.96669E+01 0.00000E+00
 -1      1445 1.42746E+01 9.01266E+01 0.00000E+00
 -1      1447 7.23509E+00 9.19306E+01 0.00000E+00
 -1      1449 9.44152E+01 7.43064E+00 0.00000E+00
 -1      1450 9.25958E+01 1.46657E+01 0.00000E+00
 -1      1452 9.20904E+01 2.21089E+01 0.00000E+00
 -1      1453 8.91615E+01 2.89703E+01 0.00000E+00
 -1      1455 8.74980E+01 3.62429E+01 0.00000E+00
 -1      1456 8.35319E+01 4.25616E+01 0.00000E+00
 -1      1458 8.07511E+01 4.94843E+01 0.00000E+00
 -1      1459 7.58453E+01 5.51049E+01 0.00000E+00
 -1      1461 7.20159E+01 6.15074E+01 0.00000E+00
 -1      1462 6.62913E+01 6.62913E+01 0.00000E+00
 -1      1464 6.15074E+01 7.20159E+01 0.00000E+00
 -1      1465 5.51049E+01 7.58453E+01 0.00000E+00
 -1      1467 4.94843E+01 8.07511E+01 0.00000E+00
 -1      1468 4.25616E+01 8.35319E+01 0.00000E+00
 -1      1470 3.62429E+01 8.74980E+01 0.00000E+00
 -1      1471 2.89703E+01 8.91615E+01 0.00000E+00
 -1      1473 2.21089E+01 9.20904E+01 0.00000E+00
 -1      1474 1.46657E+01 9.25958E+01 0.00000E+00
 -1      1476 7.43064E+00 9.44152E+01 0.00000E+00
 -1      1478 9.68998E+01 7.62618E+00 0.00000E+00
 -1      1479 9.50650E+01 1.50568E+01 0.00000E+00
 -1      1481 9.45138E+01 2.26908E+01 0.00000E+00
 -1      1482 9.15392E+01 2.97429E+01 0.00000E+00
 -1      1484 8.98006E+01 3.71966E+01 0.00000E+00
 -1      1485 8.57594E+01 4.36966E+01 0.00000E+00
 -1      1487 8.28761E+01 5.07866E+01 0.00000E+00
 -1      1488 7.78679E+01 5.65743E+01 0.00000E+00
 -1      1490 7.39110E+01 6.31260E+01 0.00000E+00
 -1      1491 6.80590E+01 6.80590E+01 0.00000E+00
 -1      1493 6.31260E+01 7.39110E+01 0.00000E+00
 -1      1494 5.65743E+01 7.78679E+01 0.00000E+00
 -1      1496 5.07866E+01 8.28761E+01 0.00000E+00
 -1      1497 4.36966E+01 8.57594E+01 0.00000E+00
 -1      1499 3.71966E+01 8.98006E+01 0.00000E+00
 -1      1500 2.97429E+01 9.15392E+01 0.00000E+00
 -1      1502 2.26908E+01 9.45138E+01 0.00000E+00
 -1      1503 1.50568E+01 9.50650E+01 0.00000E+00
 -1      1505 7.62618E+00 9.68998E+01 0.00000E+00
 -1      1507 9.75342E+01 1.54479E+01 0.00000E+00
 -1      1509 9.39168E+01 3.05154E+01 0.00000E+00
 -1      1511 8.79869E+01 4.48316E+01 0.00000E+00
 -1      1513 7.98904E+01 5.80438E+01 0.00000E+00
 -1      1515 6.98268E+01 6.98268E+01 0.00000E+00
 -1      1517 5.80438E+01 7.98904E+01 0.00000E+00
 -1      1519 4.48316E+01 8.79869E+01 0.00000E+00
 -1      1521 3.05154E+01 9.39168E+01 0.00000E+00
 -1      1523 1.54479E+01 9.75342E+01 0.00000E+00
 -1      1526 2.75000E+01 0.00000E+00 9.09091E-01
 -1      1527 2.75000E+01 0.00000E+00 1.81818E+00
 -1      1528 2.75000E+01 0.00000E+00 2.72727E+00
 -1      1529 2.75000E+01 0.00000E+00 3.63636E+00
 -1      1530 2.75000E+01 0.00000E+00 4.54545E+00
 -1      1531 2.75000E+01 0.00000E+00 5.45455E+00
 -1      1532 2.75000E+01 0.00000E+00 6.36364E+00
 -1      1533 2.75000E+01 0.00000E+00 7.27273E+00
 -1      1534 2.75000E+01 0.00000E+00 8.18182E+00
 -1      1535 2.75000E+01 0.00000E+00 9.09091E+00
 -1      1536 3.00000E+01 0.00000E+00 9.09091E-01
 -1      1537 3.00000E+01 0.00000E+00 1.81818E+00
 -1      1538 3.00000E+01 0.00000E+00 2.72727E+00
 -1      1539 3.00000E+01 0.00000E+00 3.63636E+00
 -1      1540 3.00000E+01 0.00000E+00 4.54545E+00
 -1      1541 3.00000E+01 0.00000E+00 5.45455E+00
 -1      1542 3.00000E+01 0.00000E+00 6.36364E+00
 -1      1543 3.00000E+01 0.00000E+00 7.27273E+00
 -1      1544 3.00000E+01 0.00000E+00 8.18182E+00
 -1      1545 3.00000E+01 0.00000E+00 9.09091E+00
 -1      1546 3.25000E+01 0.00000E+00 9.09091E-01
 -1      1547 3.25000E+01 0.00000E+00 1.81818E+00
 -1      1548 3.25000E+01 0.00000E+00 2.72727E+00
 -1      1549 3.25000E+01 0.00000E+00 3.63636E+00
 -1      1550 3.25000E+01 0.00000E+00 4.54545E+00
 -1      1551 3.25000E+01 0.00000E+00 5.45455E+00
 -1      1552 3.25000E+01 0.00000E+00 6.36364E+00
 -1      1553 3.25000E+01 0.00000E+00 7.27273E+00
 -1      1554 3.25000E+01 0.00000E+00 8.18182E+00
 -1      1555 3.25000E+01 0.00000E+00 9.09091E+00
 -1      1556 3.50000E+01 0.00000E+00 9.09091E-01
 -1      1557 3.50000E+01 0.00000E+00 1.81818E+00
 -1      1558 3.50000E+01 0.00000E+00 2.72727E+00
 -1      1559 3.50000E+01 0.00000E+00 3.63636E+00
 -1      1560 3.50000E+01 0.00000E+00 4.54545E+00
 -1      1561 3.50000E+01 0.00000E+00 5.45455E+00
 -1      1562 3.50000E+01 0.00000E+00 6.36364E+00
 -1      1563 3.50000E+01 0.00000E+00 7.27273E+00
 -1      1564 3.50000E+01 0.00000E+00 8.18182E+00
 -1      1565 3.50000E+01 0.00000E+00 9.09091E+00
 -1      1566 3.75000E+01 0.00000E+00 9.09091E-01
 -1      1567 3.75000E+01 0.00000E+00 1.81818E+00
 -1      1568 3.75000E+01 0.00000E+00 2.72727E+00
 -1      1569 3.75000E+01 0.00000E+00 3.63636E+00
 -1      1570 3.75000E+01 0.00000E+00 4.54545E+00
 -1      1571 3.75000E+01 0.00000E+00 5.45455E+00
 -1      1572 3.75000E+01 0.00000E+00 6.36364E+00
 -1      1573 3.75000E+01 0.00000E+00 7.27273E+00
 -1      1574 3.75000E+01 0.00000E+00 8.18182E+00
 -1      1575 3.75000E+01 0.00000E+00 9.09091E+00
 -1      1576 4.00000E+01 0.00000E+00 9.09091E-01
 -1      1577 4.00000E+01 0.00000E+00 1.81818E+00
 -1      1578 4.00000E+01 0.00000E+00 2.72727E+00
 -1      1579 4.00000E+01 0.00000E+00 3.63636E+00
 -1      1580 4.00000E+01 0.00000E+00 4.54545E+00
 -1      1581 4.00000E+01 0.00000E+00 5.45455E+00
 -1      1582 4.00000E+01 0.00000E+00 6.36364E+00
 -1      1583 4.00000E+01 0.00000E+00 7.27273E+00
 -1      1584 4.00000E+01 0.00000E+00 8.18182E+00
 -1      1585 4.00000E+01 0.00000E+00 9.09091E+00
 -1      1586 4.25000E+01 0.00000E+00 9.09091E-01
 -1      1587 4.25000E+01 0.00000E+00 1.81818E+00
 -1      1588 4.25000E+01 0.00000E+00 2.72727E+00
 -1      1589 4.25000E+01 0.00000E+00 3.63636E+00
 -1      1590 4.25000E+01 0.00000E+00 4.54545E+00
 -1      1591 4.25000E+01 0.00000E+00 5.45455E+00
 -1      1592 4.25000E+01 0.00000E+00 6.36364E+00
 -1      1593 4.25000E+01 0.00000E+00 7.27273E+00
 -1      1594 4.25000E+01 0.00000E+00 8.18182E+00
 -1      1595 4.25000E+01 0.00000E+00 9.09091E+00
 -1      1596 4.50000E+01 0.00000E+00 9.09091E-01
 -1      1597 4.50000E+01 0.00000E+00 1.81818E+00
 -1      1598 4.50000E+01 0.00000E+00 2.72727E+00
 -1      1599 4.50000E+01 0.00000E+00 3.63636E+00
 -1      1600 4.50000E+01 0.00000E+00 4.54545E+00
 -1      1601 4.50000E+01 0.00000E+00 5.45455E+00
 -1      1602 4.50000E+01 0.00000E+00 6.36364E+00
 -1      1603 4.50000E+01 0.00000E+00 7.27273E+00
 -1      1604 4.50000E+01 0.00000E+00 8.18182E+00
 -1      1605 4.50000E+01 0.00000E+00 9.09091E+00
 -1      1606 4.75000E+01 0.00000E+00 9.09091E-01
 -1      1607 4.75000E+01 0.00000E+00 1.81818E+00
 -1      1608 4.75000E+01 0.00000E+00 2.72727E+00
 -1      1609 4.75000E+01 0.00000E+00 3.63636E+00
 -1      1610 4.75000E+01 0.00000E+00 4.54545E+00
 -1      1611 4.75000E+01 0.00000E+00 5.45455E+00
 -1      1612 4.75000E+01 0.00000E+00 6.36364E+00
 -1      1613 4.75000E+01 0.00000E+00 7.27273E+00
 -1      1614 4.75000E+01 0.00000E+00 8.18182E+00
 -1      1615 4.75000E+01 0.00000E+00 9.09091E+00
 -1      1616 5.00000E+01 0.00000E+00 9.09091E-01
 -1      1617 5.00000E+01 0.00000E+00 1.81818E+00
 -1      1618 5.00000E+01 0.00000E+00 2.72727E+00
 -1      1619 5.00000E+01 0.00000E+00 3.63636E+00
 -1      1620 5.00000E+01 0.00000E+00 4.54545E+00
 -1      1621 5.00000E+01 0.00000E+00 5.45455E+00
 -1      1622 5.00000E+01 0.00000E+00 6.36364E+00
 -1      1623 5.00000E+01 0.00000E+00 7.27273E+00
 -1      1624 5.00000E+01 0.00000E+00 8.18182E+00
 -1      1625 5.00000E+01 0.00000E+00 9.09091E+00
 -1      1626 5.25000E+01 0.00000E+00 9.09091E-01
 -1      1627 5.25000E+01 0.00000E+00 1.81818E+00
 -1      1628 5.25000E+01 0.00000E+00 2.72727E+00
 -1      1629 5.25000E+01 0.00000E+00 3.63636E+00
 -1      1630 5.25000E+01 0.00000E+00 4.54545E+00
 -1      1631 5.25000E+01 0.00000E+00 5.45455E+00
 -1      1632 5.25000E+01 0.00000E+00 6.36364E+00
 -1      1633 5.25000E+01 0.00000E+00 7.27273E+00
 -1      1634 5.25000E+01 0.00000E+00 8.18182E+00
 -1      1635 5.25000E+01 0.00000E+00 9.09091E+00
 -1      1636 5.50000E+01 0.00000E+00 9.09091E-01
 -1      1637 5.50000E+01 0.00000E+00 1.81818E+00
 -1      1638 5.50000E+01 0.00000E+00 2.72727E+00
 -1      1639 5.50000E+01 0.00000E+00 3.63636E+00
 -1      1640 5.50000E+01 0.00000E+00 4.54545E+00
 -1      1641 5.50000E+01 0.00000E+00 5.45455E+00
 -1      1642 5.50000E+01 0.00000E+00 6.36364E+00
 -1      1643 5.50000E+01 0.00000E+00 7.27273E+00
 -1      1644 5.50000E+01 0.00000E+00 8.18182E+00
 -1      1645 5.50000E+01 0.00000E+00 9.09091E+00
 -1      1646 5.75000E+01 0.00000E+00 9.09091E-01
 -1      1647 5.75000E+01 0.00000E+00 1.81818E+00
 -1      1648 5.75000E+01 0.00000E+00 2.72727E+00
 -1      1649 5.75000E+01 0.00000E+00 3.63636E+00
 -1      1650 5.75000E+01 0.00000E+00 4.54545E+00
 -1      1651 5.75000E+01 0.00000E+00 5.45455E+00
 -1      1652 5.75000E+01 0.00000E+00 6.36364E+00
 -1      1653 5.75000E+01 0.00000E+00 7.27273E+00
 -1      1654 5.75000E+01 0.00000E+00 8.18182E+00
 -1      1655 5.75000E+01 0.00000E+00 9.09091E+00
 -1      1656 6.00000E+01 0.00000E+00 9.09091E-01
 -1      1657 6.00000E+01 0.00000E+00 1.81818E+00
 -1      1658 6.00000E+01 0.00000E+00 2.72727E+00
 -1      1659 6.00000E+01 0.00000E+00 3.63636E+00
 -1      1660 6.00000E+01 0.00000E+00 4.54545E+00
 -1      1661 6.00000E+01 0.00000E+00 5.45455E+00
 -1      1662 6.00000E+01 0.00000E+00 6.36364E+00
 -1      1663 6.00000E+01 0.00000E+00 7.27273E+00
 -1      1664 6.00000E+01 0.00000E+00 8.18182E+00
 -1      1665 6.00000E+01 0.00000E+00 9.09091E+00
 -1      1666 6.25000E+01 0.00000E+00 9.09091E-01
 -1      1667 6.25000E+01 0.00000E+00 1.81818E+00
 -1      1668 6.25000E+01 0.00000E+00 2.72727E+00
 -1      1669 6.25000E+01 0.00000E+00 3.63636E+00
 -1      1670 6.25000E+01 0.00000E+00 4.54545E+00
 -1      1671 6.25000E+01 0.00000E+00 5.45455E+00
 -1      1672 6.25000E+01 0.00000E+00 6.36364E+00
 -1      1673 6.25000E+01 0.00000E+00 7.27273E+00
 -1      1674 6.25000E+01 0.00000E+00 8.18182E+00
 -1      1675 6.25000E+01 0.00000E+00 9.09091E+00
 -1      1676 6.50000E+01 0.00000E+00 9.09091E-01
 -1      1677 6.50000E+01 0.00000E+00 1.81818E+00
 -1      1678 6.50000E+01 0.00000E+00 2.72727E+00
 -1      1679 6.50000E+01 0.00000E+00 3.63636E+00
 -1      1680 6.50000E+01 0.00000E+00 4.54545E+00
 -1      1681 6.50000E+01 0.00000E+00 5.45455E+00
 -1      1682 6.50000E+01 0.00000E+00 6.36364E+00
 -1      1683 6.50000E+01 0.00000E+00 7.27273E+00
 -1      1684 6.50000E+01 0.00000E+00 8.18182E+00
 -1      1685 6.50000E+01 0.00000E+00 9.09091E+00
 -1      1686 6.75000E+01 0.00000E+00 9.09091E-01
 -1      1687 6.75000E+01 0.00000E+00 1.81818E+00
 -1      1688 6.75000E+01 0.00000E+00 2.72727E+00
 -1      1689 6.75000E+01 0.00000E+00 3.63636E+00
 -1      1690 6.75000E+01 0.00000E+00 4.54545E+00
 -1      1691 6.75000E+01 0.00000E+00 5.45455E+00
 -1      1692 6.75000E+01 0.00000E+00 6.36364E+00
 -1      1693 6.75000E+01 0.00000E+00 7.27273E+00
 -1      1694 6.75000E+01 0.00000E+00 8.18182E+00
 -1      1695 6.75000E+01 0.00000E+00 9.09091E+00
 -1      1696 7.00000E+01 0.00000E+00 9.09091E-01
 -1      1697 7.00000E+01 0.00000E+00 1.81818E+00
 -1      1698 7.00000E+01 0.00000E+00 2.72727E+00
 -1      1699 7.00000E+01 0.00000E+00 3.63636E+00
 -1      1700 7.00000E+01 0.00000E+00 4.54545E+00
 -1      1701 7.00000E+01 0.00000E+00 5.45455E+00
 -1      1702 7.00000E+01 0.00000E+00 6.36364E+00
 -1      1703 7.00000E+01 0.00000E+00 7.27273E+00
 -1      1704 7.00000E+01 0.00000E+00 8.18182E+00
 -1      1705 7.00000E+01 0.00000E+00 9.09091E+00
 -1      1706 7.25000E+01 0.00000E+00 9.09091E-01
 -1      1707 7.25000E+01 0.00000E+00 1.81818E+00
 -1      1708 7.25000E+01 0.00000E+00 2.72727E+00
 -1      1709 7.25000E+01 0.00000E+00 3.63636E+00
 -1      1710 7.25000E+01 0.00000E+00 4.54545E+00
 -1      1711 7.25000E+01 0.00000E+00 5.45455E+00
 -1      1712 7.25000E+01 0.00000E+00 6.36364E+00
 -1      1713 7.25000E+01 0.00000E+00 7.27273E+00
 -1      1714 7.25000E+01 0.00000E+00 8.18182E+00
 -1      1715 7.25000E+01 0.00000E+00 9.09091E+00
 -1      1716 7.50000E+01 0.00000E+00 9.09091E-01
 -1      1717 7.50000E+01 0.00000E+00 1.81818E+00
 -1      1718 7.50000E+01 0.00000E+00 2.72727E+00
 -1      1719 7.50000E+01 0.00000E+00 3.63636E+00
 -1      1720 7.50000E+01 0.00000E+00 4.54545E+00
 -1      1721 7.50000E+01 0.00000E+00 5.45455E+00
 -1      1722 7.50000E+01 0.00000E+00 6.36364E+00
 -1      1723 7.50000E+01 0.00000E+00 7.27273E+00
 -1      1724 7.50000E+01 0.00000E+00 8.18182E+00
 -1      1725 7.50000E+01 0.00000E+00 9.09091E+00
 -1      1726 7.75000E+01 0.00000E+00 9.09091E-01
 -1      1727 7.75000E+01 0.00000E+00 1.81818E+00
 -1      1728 7.75000E+01 0.00000E+00 2.72727E+00
 -1      1729 7.75000E+01 0.00000E+00 3.63636E+00
 -1      1730 7.75000E+01 0.00000E+00 4.54545E+00
 -1      1731 7.75000E+01 0.00000E+00 5.45455E+00
 -1      1732 7.75000E+01 0.00000E+00 6.36364E+00
 -1      1733 7.75000E+01 0.00000E+00 7.27273E+00
 -1      1734 7.75000E+01 0.00000E+00 8.18182E+00
 -1      1735 7.75000E+01 0.00000E+00 9.09091E+00
 -1      1736 8.00000E+01 0.00000E+00 9.09091E-01
 -1      1737 8.00000E+01 0.00000E+00 1.81818E+00
 -1      1738 8.00000E+01 0.00000E+00 2.72727E+00
 -1      1739 8.00000E+01 0.00000E+00 3.63636E+00
 -1      1740 8.00000E+01 0.00000E+00 4.54545E+00
 -1      1741 8.00000E+01 0.00000E+00 5.45455E+00
 -1      1742 8.00000E+01 0.00000E+00 6.36364E+00
 -1      1743 8.00000E+01 0.00000E+00 7.27273E+00
 -1      1744 8.00000E+01 0.00000E+00 8.18182E+00
 -1      1745 8.00000E+01 0.00000E+00 9.09091E+00
 -1      1746 8.25000E+01 0.00000E+00 9.09091E-01
 -1      1747 8.25000E+01 0.00000E+00 1.81818E+00
 -1      1748 8.25000E+01 0.00000E+00 2.72727E+00
 -1      1749 8.25000E+01 0.00000E+00 3.63636E+00
 -1      1750 8.25000E+01 0.00000E+00 4.54545E+00
 -1      1751 8.25000E+01 0.00000E+00 5.45455E+00
 -1      1752 8.25000E+01 0.00000E+00 6.36364E+00
 -1      1753 8.25000E+01 0.00000E+00 7.27273E+00
 -1      1754 8.25000E+01 0.00000E+00 8.18182E+00
 -1      1755 8.25000E+01 0.00000E+00 9.09091E+00
 -1      1756 8.50000E+01 0.00000E+00 9.09091E-01
 -1      1757 8.50000E+01 0.00000E+00 1.81818E+00
 -1      1758 8.50000E+01 0.00000E+00 2.72727E+00
 -1      1759 8.50000E+01 0.00000E+00 3.63636E+00
 -1      1760 8.50000E+01 0.00000E+00 4.54545E+00
 -1      1761 8.50000E+01 0.00000E+00 5.45455E+00
 -1      1762 8.50000E+01 0.00000E+00 6.36364E+00
 -1      1763 8.50000E+01 0.00000E+00 7.27273E+00
 -1      1764 8.50000E+01 0.00000E+00 8.18182E+00
 -1      1765 8.50000E+01 0.00000E+00 9.09091E+00
 -1      1766 8.75000E+01 0.00000E+00 9.09091E-01
 -1      1767 8.75000E+01 0.00000E+00 1.81818E+00
 -1      1768 8.75000E+01 0.00000E+00 2.72727E+00
 -1      1769 8.75000E+01 0.00000E+00 3.63636E+00
 -1      1770 8.75000E+01 0.00000E+00 4.54545E+00
 -1      1771 8.75000E+01 0.00000E+00 5.45455E+00
 -1      1772 8.75000E+01 0.00000E+00 6.36364E+00
 -1      1773 8.75000E+01 0.00000E+00 7.27273E+00
 -1      1774 8.75000E+01 0.00000E+00 8.18182E+00
 -1      1775 8.75000E+01 0.00000E+00 9.09091E+00
 -1      1776 9.00000E+01 0.00000E+00 9.09091E-01
 -1      1777 9.00000E+01 0.00000E+00 1.81818E+00
 -1      1778 9.00000E+01 0.00000E+00 2.72727E+00
 -1      1779 9.00000E+01 0.00000E+00 3.63636E+00
 -1      1780 9.00000E+01 0.00000E+00 4.54545E+00
 -1      1781 9.00000E+01 0.00000E+00 5.45455E+00
 -1      1782 9.00000E+01 0.00000E+00 6.36364E+00
 -1      1783 9.00000E+01 0.00000E+00 7.27273E+00
 -1      1784 9.00000E+01 0.00000E+00 8.18182E+00
 -1      1785 9.00000E+01 0.00000E+00 9.09091E+00
 -1      1786 9.25000E+01 0.00000E+00 9.09091E-01
 -1      1787 9.25000E+01 0.00000E+00 1.81818E+00
 -1      1788 9.25000E+01 0.00000E+00 2.72727E+00
 -1      1789 9.25000E+01 0.00000E+00 3.63636E+00
 -1      1790 9.25000E+01 0.00000E+00 4.54545E+00
 -1      1791 9.25000E+01 0.00000E+00 5.45455E+00
 -1      1792 9.25000E+01 0.00000E+00 6.36364E+00
 -1      1793 9.25000E+01 0.00000E+00 7.27273E+00
 -1      1794 9.25000E+01 0.00000E+00 8.18182E+00
 -1      1795 9.25000E+01 0.00000E+00 9.09091E+00
 -1      1796 9.50000E+01 0.00000E+00 9.09091E-01
 -1      1797 9.50000E+01 0.00000E+00 1.81818E+00
 -1      1798 9.50000E+01 0.00000E+00 2.72727E+00
 -1      1799 9.50000E+01 0.00000E+00 3.63636E+00
 -1      1800 9.50000E+01 0.00000E+00 4.54545E+00
 -1      1801 9.50000E+01 0.00000E+00 5.45455E+00
 -1      1802 9.50000E+01 0.00000E+00 6.36364E+00
 -1      1803 9.50000E+01 0.00000E+00 7.27273E+00
 -1      1804 9.50000E+01 0.00000E+00 8.18182E+00
 -1      1805 9.50000E+01 0.00000E+00 9.09091E+00
 -1      1806 9.75000E+01 0.00000E+00 9.09091E-01
 -1      1807 9.75000E+01 0.00000E+00 1.81818E+00
 -1      1808 9.75000E+01 0.00000E+00 2.72727E+00
 -1      1809 9.75000E+01 0.00000E+00 3.63636E+00
 -1      1810 9.75000E+01 0.00000E+00 4.54545E+00
 -1      1811 9.75000E+01 0.00000E+00 5.45455E+00
 -1      1812 9.75000E+01 0.00000E+00 6.36364E+00
 -1      1813 9.75000E+01 0.00000E+00 7.27273E+00
 -1      1814 9.75000E+01 0.00000E+00 8.18182E+00
 -1      1815 9.75000E+01 0.00000E+00 9.09091E+00
 -1      1816 2.75000E+01 0.00000E+00 4.54545E-01
 -1      1817 2.62500E+01 0.00000E+00 9.09091E-01
 -1      1819 2.75000E+01 0.00000E+00 1.36364E+00
 -1      1820 2.62500E+01 0.00000E+00 1.81818E+00
 -1      1822 2.75000E+01 0.00000E+00 2.27273E+00
 -1      1823 2.62500E+01 0.00000E+00 2.72727E+00
 -1      1825 2.75000E+01 0.00000E+00 3.18182E+00
 -1      1826 2.62500E+01 0.00000E+00 3.63636E+00
 -1      1828 2.75000E+01 0.00000E+00 4.09091E+00
 -1      1829 2.62500E+01 0.00000E+00 4.54545E+00
 -1      1831 2.75000E+01 0.00000E+00 5.00000E+00
 -1      1832 2.62500E+01 0.00000E+00 5.45455E+00
 -1      1834 2.75000E+01 0.00000E+00 5.90909E+00
 -1      1835 2.62500E+01 0.00000E+00 6.36364E+00
 -1      1837 2.75000E+01 0.00000E+00 6.81818E+00
 -1      1838 2.62500E+01 0.00000E+00 7.27273E+00
 -1      1840 2.75000E+01 0.00000E+00 7.72727E+00
 -1      1841 2.62500E+01 0.00000E+00 8.18182E+00
 -1      1843 2.75000E+01 0.00000E+00 8.63636E+00
 -1      1844 2.62500E+01 0.00000E+00 9.09091E+00
 -1      1846 2.75000E+01 0.00000E+00 9.54545E+00
 -1      1848 3.00000E+01 0.00000E+00 4.54545E-01
 -1      1849 2.87500E+01 0.00000E+00 9.09091E-01
 -1      1851 3.00000E+01 0.00000E+00 1.36364E+00
 -1      1852 2.87500E+01 0.00000E+00 1.81818E+00
 -1      1854 3.00000E+01 0.00000E+00 2.27273E+00
 -1      1855 2.87500E+01 0.00000E+00 2.72727E+00
 -1      1857 3.00000E+01 0.00000E+00 3.18182E+00
 -1      1858 2.87500E+01 0.00000E+00 3.63636E+00
 -1      1860 3.00000E+01 0.00000E+00 4.09091E+00
 -1      1861 2.87500E+01 0.00000E+00 4.54545E+00
 -1      1863 3.00000E+01 0.00000E+00 5.00000E+00
 -1      1864 2.87500E+01 0.00000E+00 5.45455E+00
 -1      1866 3.00000E+01 0.00000E+00 5.90909E+00
 -1      1867 2.87500E+01 0.00000E+00 6.36364E+00
 -1      1869 3.00000E+01 0.00000E+00 6.81818E+00
 -1      1870 2.87500E+01 0.00000E+00 7.27273E+00
 -1      1872 3.00000E+01 0.00000E+00 7.72727E+00
 -1      1873 2.87500E+01 0.00000E+00 8.18182E+00
 -1      1875 3.00000E+01 0.00000E+00 8.63636E+00
 -1      1876 2.87500E+01 0.00000E+00 9.09091E+00
 -1      1878 3.00000E+01 0.00000E+00 9.54545E+00
 -1      1880 3.25000E+01 0.00000E+00 4.54545E-01
 -1      1881 3.12500E+01 0.00000E+00 9.09091E-01
 -1      1883 3.25000E+01 0.00000E+00 1.36364E+00
 -1      1884 3.12500E+01 0.00000E+00 1.81818E+00
 -1      1886 3.25000E+01 0.00000E+00 2.27273E+00
 -1      1887 3.12500E+01 0.00000E+00 2.72727E+00
 -1      1889 3.25000E+01 0.00000E+00 3.18182E+00
 -1      1890 3.12500E+01 0.00000E+00 3.63636E+00
 -1      1892 3.25000E+01 0.00000E+00 4.09091E+00
 -1      1893 3.12500E+01 0.00000E+00 4.54545E+00
 -1      1895 3.25000E+01 0.00000E+00 5.00000E+00
 -1      1896 3.12500E+01 0.00000E+00 5.45455E+00
 -1      1898 3.25000E+01 0.00000E+00 5.90909E+00
 -1      1899 3.12500E+01 0.00000E+00 6.36364E+00
 -1      1901 3.25000E+01 0.00000E+00 6.81818E+00
 -1      1902 3.12500E+01 0.00000E+00 7.27273E+00
 -1      1904 3.25000E+01 0.00000E+00 7.72727E+00
 -1      1905 3.12500E+01 0.00000E+00 8.18182E+00
 -1      1907 3.25000E+01 0.00000E+00 8.63636E+00
 -1      1908 3.12500E+01 0.00000E+00 9.09091E+00
 -1      1910 3.25000E+01 0.00000E+00 9.54545E+00
 -1      1912 3.50000E+01 0.00000E+00 4.54545E-01
 -1      1913 3.37500E+01 0.00000E+00 9.09091E-01
 -1      1915 3.50000E+01 0.00000E+00 1.36364E+00
 -1      1916 3.37500E+01 0.00000E+00 1.81818E+00
 -1      1918 3.50000E+01 0.00000E+00 2.27273E+00
 -1      1919 3.37500E+01 0.00000E+00 2.72727E+00
 -1      1921 3.50000E+01 0.00000E+00 3.18182E+00
 -1      1922 3.37500E+01 0.00000E+00 3.63636E+00
 -1      1924 3.50000E+01 0.00000E+00 4.09091E+00
 -1      1925 3.37500E+01 0.00000E+00 4.54545E+00
 -1      1927 3.50000E+01 0.00000E+00 5.00000E+00
 -1      1928 3.37500E+01 0.00000E+00 5.45455E+00
 -1      1930 3.50000E+01 0.00000E+00 5.90909E+00
 -1      1931 3.37500E+01 0.00000E+00 6.36364E+00
 -1      1933 3.50000E+01 0.00000E+00 6.81818E+00
 -1      1934 3.37500E+01 0.00000E+00 7.27273E+00
 -1      1936 3.50000E+01 0.00000E+00 7.72727E+00
 -1      1937 3.37500E+01 0.00000E+00 8.18182E+00
 -1      1939 3.50000E+01 0.00000E+00 8.63636E+00
 -1      1940 3.37500E+01 0.00000E+00 9.09091E+00
 -1      1942 3.50000E+01 0.00000E+00 9.54545E+00
 -1      1944 3.75000E+01 0.00000E+00 4.54545E-01
 -1      1945 3.62500E+01 0.00000E+00 9.09091E-01
 -1      1947 3.75000E+01 0.00000E+00 1.36364E+00
 -1      1948 3.62500E+01 0.00000E+00 1.81818E+00
 -1      1950 3.75000E+01 0.00000E+00 2.27273E+00
 -1      1951 3.62500E+01 0.00000E+00 2.72727E+00
 -1      1953 3.75000E+01 0.00000E+00 3.18182E+00
 -1      1954 3.62500E+01 0.00000E+00 3.63636E+00
 -1      1956 3.75000E+01 0.00000E+00 4.09091E+00
 -1      1957 3.62500E+01 0.00000E+00 4.54545E+00
 -1      1959 3.75000E+01 0.00000E+00 5.00000E+00
 -1      1960 3.62500E+01 0.00000E+00 5.45455E+00
 -1      1962 3.75000E+01 0.00000E+00 5.90909E+00
 -1      1963 3.62500E+01 0.00000E+00 6.36364E+00
 -1      1965 3.75000E+01 0.00000E+00 6.81818E+00
 -1      1966 3.62500E+01 0.00000E+00 7.27273E+00
 -1      1968 3.75000E+01 0.00000E+00 7.72727E+00
 -1      1969 3.62500E+01 0.00000E+00 8.18182E+00
 -1      1971 3.75000E+01 0.00000E+00 8.63636E+00
 -1      1972 3.62500E+01 0.00000E+00 9.09091E+00
 -1      1974 3.75000E+01 0.00000E+00 9.54545E+00
 -1      1976 4.00000E+01 0.00000E+00 4.54545E-01
 -1      1977 3.87500E+01 0.00000E+00 9.09091E-01
 -1      1979 4.00000E+01 0.00000E+00 1.36364E+00
 -1      1980 3.87500E+01 0.00000E+00 1.81818E+00
 -1      1982 4.00000E+01 0.00000E+00 2.27273E+00
 -1      1983 3.87500E+01 0.00000E+00 2.72727E+00
 -1      1985 4.00000E+01 0.00000E+00 3.18182E+00
 -1      1986 3.87500E+01 0.00000E+00 3.63636E+00
 -1      1988 4.00000E+01 0.00000E+00 4.09091E+00
 -1      1989 3.87500E+01 0.00000E+00 4.54545E+00
 -1      1991 4.00000E+01 0.00000E+00 5.00000E+00
 -1      1992 3.87500E+01 0.00000E+00 5.45455E+00
 -1      1994 4.00000E+01 0.00000E+00 5.90909E+00
 -1      1995 3.87500E+01 0.00000E+00 6.36364E+00
 -1      1997 4.00000E+01 0.00000E+00 6.81818E+00
 -1      1998 3.87500E+01 0.00000E+00 7.27273E+00
 -1      2000 4.00000E+01 0.00000E+00 7.72727E+00
 -1      2001 3.87500E+01 0.00000E+00 8.18182E+00
 -1      2003 4.00000E+01 0.00000E+00 8.63636E+00
 -1      2004 3.87500E+01 0.00000E+00 9.09091E+00
 -1      2006 4.00000E+01 0.00000E+00 9.54545E+00
 -1      2008 4.25000E+01 0.00000E+00 4.54545E-01
 -1      2009 4.12500E+01 0.00000E+00 9.09091E-01
 -1      2011 4.25000E+01 0.00000E+00 1.36364E+00
 -1      2012 4.12500E+01 0.00000E+00 1.81818E+00
 -1      2014 4.25000E+01 0.00000E+00 2.27273E+00
 -1      2015 4.12500E+01 0.00000E+00 2.72727E+00
 -1      2017 4.25000E+01 0.00000E+00 3.18182E+00
 -1      2018 4.12500E+01 0.00000E+00 3.63636E+00
 -1      2020 4.25000E+01 0.00000E+00 4.09091E+00
 -1      2021 4.12500E+01 0.00000E+00 4.54545E+00
 -1      2023 4.25000E+01 0.00000E+00 5.00000E+00
 -1      2024 4.12500E+01 0.00000E+00 5.45455E+00
 -1      2026 4.25000E+01 0.00000E+00 5.90909E+00
 -1      2027 4.12500E+01 0.00000E+00 6.36364E+00
 -1      2029 4.25000E+01 0.00000E+00 6.81818E+00
 -1      2030 4.12500E+01 0.00000E+00 7.27273E+00
 -1      2032 4.25000E+01 0.00000E+00 7.72727E+00
 -1      2033 4.12500E+01 0.00000E+00 8.18182E+00
 -1      2035 4.25000E+01 0.00000E+00 8.63636E+00
 -1      2036 4.12500E+01 0.00000E+00 9.09091E+00
 -1      2038 4.25000E+01 0.00000E+00 9.54545E+00
 -1      2040 4.50000E+01 0.00000E+00 4.54545E-01
 -1      2041 4.37500E+01 0.00000E+00 9.09091E-01
 -1      2043 4.50000E+01 0.00000E+00 1.36364E+00
 -1      2044 4.37500E+01 0.00000E+00 1.81818E+00
 -1      2046 4.50000E+01 0.00000E+00 2.27273E+00
 -1      2047 4.37500E+01 0.00000E+00 2.72727E+00
 -1      2049 4.50000E+01 0.00000E+00 3.18182E+00
 -1      2050 4.37500E+01 0.00000E+00 3.63636E+00
 -1      2052 4.50000E+01 0.00000E+00 4.09091E+00
 -1      2053 4.37500E+01 0.00000E+00 4.54545E+00
 -1      2055 4.50000E+01 0.00000E+00 5.00000E+00
 -1      2056 4.37500E+01 0.00000E+00 5.45455E+00
 -1      2058 4.50000E+01 0.00000E+00 5.90909E+00
 -1      2059 4.37500E+01 0.00000E+00 6.36364E+00
 -1      2061 4.50000E+01 0.00000E+00 6.81818E+00
 -1      2062 4.37500E+01 0.00000E+00 7.27273E+00
 -1      2064 4.50000E+01 0.00000E+00 7.72727E+00
 -1      2065 4.37500E+01 0.00000E+00 8.18182E+00
 -1      2067 4.50000E+01 0.00000E+00 8.63636E+00
 -1      2068 4.37500E+01 0.00000E+00 9.09091E+00
 -1      2070 4.50000E+01 0.00000E+00 9.54545E+00
 -1      2072 4.75000E+01 0.00000E+00 4.54545E-01
 -1      2073 4.62500E+01 0.00000E+00 9.09091E-01
 -1      2075 4.75000E+01 0.00000E+00 1.36364E+00
 -1      2076 4.62500E+01 0.00000E+00 1.81818E+00
 -1      2078 4.75000E+01 0.00000E+00 2.27273E+00
 -1      2079 4.62500E+01 0.00000E+00 2.72727E+00
 -1      2081 4.75000E+01 0.00000E+00 3.18182E+00
 -1      2082 4.62500E+01 0.00000E+00 3.63636E+00
 -1      2084 4.75000E+01 0.00000E+00 4.09091E+00
 -1      2085 4.62500E+01 0.00000E+00 4.54545E+00
 -1      2087 4.75000E+01 0.00000E+00 5.00000E+00
 -1      2088 4.62500E+01 0.00000E+00 5.45455E+00
 -1      2090 4.75000E+01 0.00000E+00 5.90909E+00
 -1      2091 4.62500E+01 0.00000E+00 6.36364E+00
 -1      2093 4.75000E+01 0.00000E+00 6.81818E+00
 -1      2094 4.62500E+01 0.00000E+00 7.27273E+00
 -1      2096 4.75000E+01 0.00000E+00 7.72727E+00
 -1      2097 4.62500E+01 0.00000E+00 8.18182E+00
 -1      2099 4.75000E+01 0.00000E+00 8.63636E+00
 -1      2100 4.62500E+01 0.00000E+00 9.09091E+00
 -1      2102 4.75000E+01 0.00000E+00 9.54545E+00
 -1      2104 5.00000E+01 0.00000E+00 4.54545E-01
 -1      2105 4.87500E+01 0.00000E+00 9.09091E-01
 -1      2107 5.00000E+01 0.00000E+00 1.36364E+00
 -1      2108 4.87500E+01 0.00000E+00 1.81818E+00
 -1      2110 5.00000E+01 0.00000E+00 2.27273E+00
 -1      2111 4.87500E+01 0.00000E+00 2.72727E+00
 -1      2113 5.00000E+01 0.00000E+00 3.18182E+00
 -1      2114 4.87500E+01 0.00000E+00 3.63636E+00
 -1      2116 5.00000E+01 0.00000E+00 4.09091E+00
 -1      2117 4.87500E+01 0.00000E+00 4.54545E+00
 -1      2119 5.00000E+01 0.00000E+00 5.00000E+00
 -1      2120 4.87500E+01 0.00000E+00 5.45455E+00
 -1      2122 5.00000E+01 0.00000E+00 5.90909E+00
 -1      2123 4.87500E+01 0.00000E+00 6.36364E+00
 -1      2125 5.00000E+01 0.00000E+00 6.81818E+00
 -1      2126 4.87500E+01 0.00000E+00 7.27273E+00
 -1      2128 5.00000E+01 0.00000E+00 7.72727E+00
 -1      2129 4.87500E+01 0.00000E+00 8.18182E+00
 -1      2131 5.00000E+01 0.00000E+00 8.63636E+00
 -1      2132 4.87500E+01 0.00000E+00 9.09091E+00
 -1      2134 5.00000E+01 0.00000E+00 9.54545E+00
 -1      2136 5.25000E+01 0.00000E+00 4.54545E-01
 -1      2137 5.12500E+01 0.00000E+00 9.09091E-01
 -1      2139 5.25000E+01 0.00000E+00 1.36364E+00
 -1      2140 5.12500E+01 0.00000E+00 1.81818E+00
 -1      2142 5.25000E+01 0.00000E+00 2.27273E+00
 -1      2143 5.12500E+01 0.00000E+00 2.72727E+00
 -1      2145 5.25000E+01 0.00000E+00 3.18182E+00
 -1      2146 5.12500E+01 0.00000E+00 3.63636E+00
 -1      2148 5.25000E+01 0.00000E+00 4.09091E+00
 -1      2149 5.12500E+01 0.00000E+00 4.54545E+00
 -1      2151 5.25000E+01 0.00000E+00 5.00000E+00
 -1      2152 5.12500E+01 0.00000E+00 5.45455E+00
 -1      2154 5.25000E+01 0.00000E+00 5.90909E+00
 -1      2155 5.12500E+01 0.00000E+00 6.36364E+00
 -1      2157 5.25000E+01 0.00000E+00 6.81818E+00
 -1      2158 5.12500E+01 0.00000E+00 7.27273E+00
 -1      2160 5.25000E+01 0.00000E+00 7.72727E+00
 -1      2161 5.12500E+01 0.00000E+00 8.18182E+00
 -1      2163 5.25000E+01 0.00000E+00 8.63636E+00
 -1      2164 5.12500E+01 0.00000E+00 9.09091E+00
 -1      2166 5.25000E+01 0.00000E+00 9.54545E+00
 -1      2168 5.50000E+01 0.00000E+00 4.54545E-01
 -1      2169 5.37500E+01 0.00000E+00 9.09091E-01
 -1      2171 5.50000E+01 0.00000E+00 1.36364E+00
 -1      2172 5.37500E+01 0.00000E+00 1.81818E+00
 -1      2174 5.50000E+01 0.00000E+00 2.27273E+00
 -1      2175 5.37500E+01 0.00000E+00 2.72727E+00
 -1      2177 5.50000E+01 0.00000E+00 3.18182E+00
 -1      2178 5.37500E+01 0.00000E+00 3.63636E+00
 -1      2180 5.50000E+01 0.00000E+00 4.09091E+00
 -1      2181 5.37500E+01 0.00000E+00 4.54545E+00
 -1      2183 5.50000E+01 0.00000E+00 5.00000E+00
 -1      2184 5.37500E+01 0.00000E+00 5.45455E+00
 -1      2186 5.50000E+01 0.00000E+00 5.90909E+00
 -1      2187 5.37500E+01 0.00000E+00 6.36364E+00
 -1      2189 5.50000E+01 0.00000E+00 6.81818E+00
 -1      2190 5.37500E+01 0.00000E+00 7.27273E+00
 -1      2192 5.50000E+01 0.00000E+00 7.72727E+00
 -1      2193 5.37500E+01 0.00000E+00 8.18182E+00
 -1      2195 5.50000E+01 0.00000E+00 8.63636E+00
 -1      2196 5.37500E+01 0.00000E+00 9.09091E+00
 -1      2198 5.50000E+01 0.00000E+00 9.54545E+00
 -1      2200 5.75000E+01 0.00000E+00 4.54545E-01
 -1      2201 5.62500E+01 0.00000E+00 9.09091E-01
 -1      2203 5.75000E+01 0.00000E+00 1.36364E+00
 -1      2204 5.62500E+01 0.00000E+00 1.81818E+00
 -1      2206 5.75000E+01 0.00000E+00 2.27273E+00
 -1      2207 5.62500E+01 0.00000E+00 2.72727E+00
 -1      2209 5.75000E+01 0.00000E+00 3.18182E+00
 -1      2210 5.62500E+01 0.00000E+00 3.63636E+00
 -1      2212 5.75000E+01 0.00000E+00 4.09091E+00
 -1      2213 5.62500E+01 0.00000E+00 4.54545E+00
 -1      2215 5.75000E+01 0.00000E+00 5.00000E+00
 -1      2216 5.62500E+01 0.00000E+00 5.45455E+00
 -1      2218 5.75000E+01 0.00000E+00 5.90909E+00
 -1      2219 5.62500E+01 0.00000E+00 6.36364E+00
 -1      2221 5.75000E+01 0.00000E+00 6.81818E+00
 -1      2222 5.62500E+01 0.00000E+00 7.27273E+00
 -1      2224 5.75000E+01 0.00000E+00 7.72727E+00
 -1      2225 5.62500E+01 0.00000E+00 8.18182E+00
 -1      2227 5.75000E+01 0.00000E+00 8.63636E+00
 -1      2228 5.62500E+01 0.00000E+00 9.09091E+00
 -1      2230 5.75000E+01 0.00000E+00 9.54545E+00
 -1      2232 6.00000E+01 0.00000E+00 4.54545E-01
 -1      2233 5.87500E+01 0.00000E+00 9.09091E-01
 -1      2235 6.00000E+01 0.00000E+00 1.36364E+00
 -1      2236 5.87500E+01 0.00000E+00 1.81818E+00
 -1      2238 6.00000E+01 0.00000E+00 2.27273E+00
 -1      2239 5.87500E+01 0.00000E+00 2.72727E+00
 -1      2241 6.00000E+01 0.00000E+00 3.18182E+00
 -1      2242 5.87500E+01 0.00000E+00 3.63636E+00
 -1      2244 6.00000E+01 0.00000E+00 4.09091E+00
 -1      2245 5.87500E+01 0.00000E+00 4.54545E+00
 -1      2247 6.00000E+01 0.00000E+00 5.00000E+00
 -1      2248 5.87500E+01 0.00000E+00 5.45455E+00
 -1      2250 6.00000E+01 0.00000E+00 5.90909E+00
 -1      2251 5.87500E+01 0.00000E+00 6.36364E+00
 -1      2253 6.00000E+01 0.00000E+00 6.81818E+00
 -1      2254 5.87500E+01 0.00000E+00 7.27273E+00
 -1      2256 6.00000E+01 0.00000E+00 7.72727E+00
 -1      2257 5.87500E+01 0.00000E+00 8.18182E+00
 -1      2259 6.00000E+01 0.00000E+00 8.63636E+00
 -1      2260 5.87500E+01 0.00000E+00 9.09091E+00
 -1      2262 6.00000E+01 0.00000E+00 9.54545E+00
 -1      2264 6.25000E+01 0.00000E+00 4.54545E-01
 -1      2265 6.12500E+01 0.00000E+00 9.09091E-01
 -1      2267 6.25000E+01 0.00000E+00 1.36364E+00
 -1      2268 6.12500E+01 0.00000E+00 1.81818E+00
 -1      2270 6.25000E+01 0.00000E+00 2.27273E+00
 -1      2271 6.12500E+01 0.00000E+00 2.72727E+00
 -1      2273 6.25000E+01 0.00000E+00 3.18182E+00
 -1      2274 6.12500E+01 0.00000E+00 3.63636E+00
 -1      2276 6.25000E+01 0.00000E+00 4.09091E+00
 -1      2277 6.12500E+01 0.00000E+00 4.54545E+00
 -1      2279 6.25000E+01 0.00000E+00 5.00000E+00
 -1      2280 6.12500E+01 0.00000E+00 5.45455E+00
 -1      2282 6.25000E+01 0.00000E+00 5.90909E+00
 -1      2283 6.12500E+01 0.00000E+00 6.36364E+00
 -1      2285 6.25000E+01 0.00000E+00 6.81818E+00
 -1      2286 6.12500E+01 0.00000E+00 7.27273E+00
 -1      2288 6.25000E+01 0.00000E+00 7.72727E+00
 -1      2289 6.12500E+01 0.00000E+00 8.18182E+00
 -1      2291 6.25000E+01 0.00000E+00 8.63636E+00
 -1      2292 6.12500E+01 0.00000E+00 9.09091E+00
 -1      2294 6.25000E+01 0.00000E+00 9.54545E+00
 -1      2296 6.50000E+01 0.00000E+00 4.54545E-01
 -1      2297 6.37500E+01 0.00000E+00 9.09091E-01
 -1      2299 6.50000E+01 0.00000E+00 1.36364E+00
 -1      2300 6.37500E+01 0.00000E+00 1.81818E+00
 -1      2302 6.50000E+01 0.00000E+00 2.27273E+00
 -1      2303 6.37500E+01 0.00000E+00 2.72727E+00
 -1      2305 6.50000E+01 0.00000E+00 3.18182E+00
 -1      2306 6.37500E+01 0.00000E+00 3.63636E+00
 -1      2308 6.50000E+01 0.00000E+00 4.09091E+00
 -1      2309 6.37500E+01 0.00000E+00 4.54545E+00
 -1      2311 6.50000E+01 0.00000E+00 5.00000E+00
 -1      2312 6.37500E+01 0.00000E+00 5.45455E+00
 -1      2314 6.50000E+01 0.00000E+00 5.90909E+00
 -1      2315 6.37500E+01 0.00000E+00 6.36364E+00
 -1      2317 6.50000E+01 0.00000E+00 6.81818E+00
 -1      2318 6.37500E+01 0.00000E+00 7.27273E+00
 -1      2320 6.50000E+01 0.00000E+00 7.72727E+00
 -1      2321 6.37500E+01 0.00000E+00 8.18182E+00
 -1      2323 6.50000E+01 0.00000E+00 8.63636E+00
 -1      2324 6.37500E+01 0.00000E+00 9.09091E+00
 -1      2326 6.50000E+01 0.00000E+00 9.54545E+00
 -1      2328 6.75000E+01 0.00000E+00 4.54545E-01
 -1      2329 6.62500E+01 0.00000E+00 9.09091E-01
 -1      2331 6.75000E+01 0.00000E+00 1.36364E+00
 -1      2332 6.62500E+01 0.00000E+00 1.81818E+00
 -1      2334 6.75000E+01 0.00000E+00 2.27273E+00
 -1      2335 6.62500E+01 0.00000E+00 2.72727E+00
 -1      2337 6.75000E+01 0.00000E+00 3.18182E+00
 -1      2338 6.62500E+01 0.00000E+00 3.63636E+00
 -1      2340 6.75000E+01 0.00000E+00 4.09091E+00
 -1      2341 6.62500E+01 0.00000E+00 4.54545E+00
 -1      2343 6.75000E+01 0.00000E+00 5.00000E+00
 -1      2344 6.62500E+01 0.00000E+00 5.45455E+00
 -1      2346 6.75000E+01 0.00000E+00 5.90909E+00
 -1      2347 6.62500E+01 0.00000E+00 6.36364E+00
 -1      2349 6.75000E+01 0.00000E+00 6.81818E+00
 -1      2350 6.62500E+01 0.00000E+00 7.27273E+00
 -1      2352 6.75000E+01 0.00000E+00 7.72727E+00
 -1      2353 6.62500E+01 0.00000E+00 8.18182E+00
 -1      2355 6.75000E+01 0.00000E+00 8.63636E+00
 -1      2356 6.62500E+01 0.00000E+00 9.09091E+00
 -1      2358 6.75000E+01 0.00000E+00 9.54545E+00
 -1      2360 7.00000E+01 0.00000E+00 4.54545E-01
 -1      2361 6.87500E+01 0.00000E+00 9.09091E-01
 -1      2363 7.00000E+01 0.00000E+00 1.36364E+00
 -1      2364 6.87500E+01 0.00000E+00 1.81818E+00
 -1      2366 7.00000E+01 0.00000E+00 2.27273E+00
 -1      2367 6.87500E+01 0.00000E+00 2.72727E+00
 -1      2369 7.00000E+01 0.00000E+00 3.18182E+00
 -1      2370 6.87500E+01 0.00000E+00 3.63636E+00
 -1      2372 7.00000E+01 0.00000E+00 4.09091E+00
 -1      2373 6.87500E+01 0.00000E+00 4.54545E+00
 -1      2375 7.00000E+01 0.00000E+00 5.00000E+00
 -1      2376 6.87500E+01 0.00000E+00 5.45455E+00
 -1      2378 7.00000E+01 0.00000E+00 5.90909E+00
 -1      2379 6.87500E+01 0.00000E+00 6.36364E+00
 -1      2381 7.00000E+01 0.00000E+00 6.81818E+00
 -1      2382 6.87500E+01 0.00000E+00 7.27273E+00
 -1      2384 7.00000E+01 0.00000E+00 7.72727E+00
 -1      2385 6.87500E+01 0.00000E+00 8.18182E+00
 -1      2387 7.00000E+01 0.00000E+00 8.63636E+00
 -1      2388 6.87500E+01 0.00000E+00 9.09091E+00
 -1      2390 7.00000E+01 0.00000E+00 9.54545E+00
 -1      2392 7.25000E+01 0.00000E+00 4.54545E-01
 -1      2393 7.12500E+01 0.00000E+00 9.09091E-01
 -1      2395 7.25000E+01 0.00000E+00 1.36364E+00
 -1      2396 7.12500E+01 0.00000E+00 1.81818E+00
 -1      2398 7.25000E+01 0.00000E+00 2.27273E+00
 -1      2399 7.12500E+01 0.00000E+00 2.72727E+00
 -1      2401 7.25000E+01 0.00000E+00 3.18182E+00
 -1      2402 7.12500E+01 0.00000E+00 3.63636E+00
 -1      2404 7.25000E+01 0.00000E+00 4.09091E+00
 -1      2405 7.12500E+01 0.00000E+00 4.54545E+00
 -1      2407 7.25000E+01 0.00000E+00 5.00000E+00
 -1      2408 7.12500E+01 0.00000E+00 5.45455E+00
 -1      2410 7.25000E+01 0.00000E+00 5.90909E+00
 -1      2411 7.12500E+01 0.00000E+00 6.36364E+00
 -1      2413 7.25000E+01 0.00000E+00 6.81818E+00
 -1      2414 7.12500E+01 0.00000E+00 7.27273E+00
 -1      2416 7.25000E+01 0.00000E+00 7.72727E+00
 -1      2417 7.12500E+01 0.00000E+00 8.18182E+00
 -1      2419 7.25000E+01 0.00000E+00 8.63636E+00
 -1      2420 7.12500E+01 0.00000E+00 9.09091E+00
 -1      2422 7.25000E+01 0.00000E+00 9.54545E+00
 -1      2424 7.50000E+01 0.00000E+00 4.54545E-01
 -1      2425 7.37500E+01 0.00000E+00 9.09091E-01
 -1      2427 7.50000E+01 0.00000E+00 1.36364E+00
 -1      2428 7.37500E+01 0.00000E+00 1.81818E+00
 -1      2430 7.50000E+01 0.00000E+00 2.27273E+00
 -1      2431 7.37500E+01 0.00000E+00 2.72727E+00
 -1      2433 7.50000E+01 0.00000E+00 3.18182E+00
 -1      2434 7.37500E+01 0.00000E+00 3.63636E+00
 -1      2436 7.50000E+01 0.00000E+00 4.09091E+00
 -1      2437 7.37500E+01 0.00000E+00 4.54545E+00
 -1      2439 7.50000E+01 0.00000E+00 5.00000E+00
 -1      2440 7.37500E+01 0.00000E+00 5.45455E+00
 -1      2442 7.50000E+01 0.00000E+00 5.90909E+00
 -1      2443 7.37500E+01 0.00000E+00 6.36364E+00
 -1      2445 7.50000E+01 0.00000E+00 6.81818E+00
 -1      2446 7.37500E+01 0.00000E+00 7.27273E+00
 -1      2448 7.50000E+01 0.00000E+00 7.72727E+00
 -1      2449 7.37500E+01 0.00000E+00 8.18182E+00
 -1      2451 7.50000E+01 0.00000E+00 8.63636E+00
 -1      2452 7.37500E+01 0.00000E+00 9.09091E+00
 -1      2454 7.50000E+01 0.00000E+00 9.54545E+00
 -1      2456 7.75000E+01 0.00000E+00 4.54545E-01
 -1      2457 7.62500E+01 0.00000E+00 9.09091E-01
 -1      2459 7.75000E+01 0.00000E+00 1.36364E+00
 -1      2460 7.62500E+01 0.00000E+00 1.81818E+00
 -1      2462 7.75000E+01 0.00000E+00 2.27273E+00
 -1      2463 7.62500E+01 0.00000E+00 2.72727E+00
 -1      2465 7.75000E+01 0.00000E+00 3.18182E+00
 -1      2466 7.62500E+01 0.00000E+00 3.63636E+00
 -1      2468 7.75000E+01 0.00000E+00 4.09091E+00
 -1      2469 7.62500E+01 0.00000E+00 4.54545E+00
 -1      2471 7.75000E+01 0.00000E+00 5.00000E+00
 -1      2472 7.62500E+01 0.00000E+00 5.45455E+00
 -1      2474 7.75000E+01 0.00000E+00 5.90909E+00
 -1      2475 7.62500E+01 0.00000E+00 6.36364E+00
 -1      2477 7.75000E+01 0.00000E+00 6.81818E+00
 -1      2478 7.62500E+01 0.00000E+00 7.27273E+00
 -1      2480 7.75000E+01 0.00000E+00 7.72727E+00
 -1      2481 7.62500E+01 0.00000E+00 8.18182E+00
 -1      2483 7.75000E+01 0.00000E+00 8.63636E+00
 -1      2484 7.62500E+01 0.00000E+00 9.09091E+00
 -1      2486 7.75000E+01 0.00000E+00 9.54545E+00
 -1      2488 8.00000E+01 0.00000E+00 4.54545E-01
 -1      2489 7.87500E+01 0.00000E+00 9.09091E-01
 -1      2491 8.00000E+01 0.00000E+00 1.36364E+00
 -1      2492 7.87500E+01 0.00000E+00 1.81818E+00
 -1      2494 8.00000E+01 0.00000E+00 2.27273E+00
 -1      2495 7.87500E+01 0.00000E+00 2.72727E+00
 -1      2497 8.00000E+01 0.00000E+00 3.18182E+00
 -1      2498 7.87500E+01 0.00000E+00 3.63636E+00
 -1      2500 8.00000E+01 0.00000E+00 4.09091E+00
 -1      2501 7.87500E+01 0.00000E+00 4.54545E+00
 -1      2503 8.00000E+01 0.00000E+00 5.00000E+00
 -1      2504 7.87500E+01 0.00000E+00 5.45455E+00
 -1      2506 8.00000E+01 0.00000E+00 5.90909E+00
 -1      2507 7.87500E+01 0.00000E+00 6.36364E+00
 -1      2509 8.00000E+01 0.00000E+00 6.81818E+00
 -1      2510 7.87500E+01 0.00000E+00 7.27273E+00
 -1      2512 8.00000E+01 0.00000E+00 7.72727E+00
 -1      2513 7.87500E+01 0.00000E+00 8.18182E+00
 -1      2515 8.00000E+01 0.00000E+00 8.63636E+00
 -1      2516 7.87500E+01 0.00000E+00 9.09091E+00
 -1      2518 8.00000E+01 0.00000E+00 9.54545E+00
 -1      2520 8.25000E+01 0.00000E+00 4.54545E-01
 -1      2521 8.12500E+01 0.00000E+00 9.09091E-01
 -1      2523 8.25000E+01 0.00000E+00 1.36364E+00
 -1      2524 8.12500E+01 0.00000E+00 1.81818E+00
 -1      2526 8.25000E+01 0.00000E+00 2.27273E+00
 -1      2527 8.12500E+01 0.00000E+00 2.72727E+00
 -1      2529 8.25000E+01 0.00000E+00 3.18182E+00
 -1      2530 8.12500E+01 0.00000E+00 3.63636E+00
 -1      2532 8.25000E+01 0.00000E+00 4.09091E+00
 -1      2533 8.12500E+01 0.00000E+00 4.54545E+00
 -1      2535 8.25000E+01 0.00000E+00 5.00000E+00
 -1      2536 8.12500E+01 0.00000E+00 5.45455E+00
 -1      2538 8.25000E+01 0.00000E+00 5.90909E+00
 -1      2539 8.12500E+01 0.00000E+00 6.36364E+00
 -1      2541 8.25000E+01 0.00000E+00 6.81818E+00
 -1      2542 8.12500E+01 0.00000E+00 7.27273E+00
 -1      2544 8.25000E+01 0.00000E+00 7.72727E+00
 -1      2545 8.12500E+01 0.00000E+00 8.18182E+00
 -1      2547 8.25000E+01 0.00000E+00 8.63636E+00
 -1      2548 8.12500E+01 0.00000E+00 9.09091E+00
 -1      2550 8.25000E+01 0.00000E+00 9.54545E+00
 -1      2552 8.50000E+01 0.00000E+00 4.54545E-01
 -1      2553 8.37500E+01 0.00000E+00 9.09091E-01
 -1      2555 8.50000E+01 0.00000E+00 1.36364E+00
 -1      2556 8.37500E+01 0.00000E+00 1.81818E+00
 -1      2558 8.50000E+01 0.00000E+00 2.27273E+00
 -1      2559 8.37500E+01 0.00000E+00 2.72727E+00
 -1      2561 8.50000E+01 0.00000E+00 3.18182E+00
 -1      2562 8.37500E+01 0.00000E+00 3.63636E+00
 -1      2564 8.50000E+01 0.00000E+00 4.09091E+00
 -1      2565 8.37500E+01 0.00000E+00 4.54545E+00
 -1      2567 8.50000E+01 0.00000E+00 5.00000E+00
 -1      2568 8.37500E+01 0.00000E+00 5.45455E+00
 -1      2570 8.50000E+01 0.00000E+00 5.90909E+00
 -1      2571 8.37500E+01 0.00000E+00 6.36364E+00
 -1      2573 8.50000E+01 0.00000E+00 6.81818E+00
 -1      2574 8.37500E+01 0.00000E+00 7.27273E+00
 -1      2576 8.50000E+01 0.00000E+00 7.72727E+00
 -1      2577 8.37500E+01 0.00000E+00 8.18182E+00
 -1      2579 8.50000E+01 0.00000E+00 8.63636E+00
 -1      2580 8.37500E+01 0.00000E+00 9.09091E+00
 -1      2582 8.50000E+01 0.00000E+00 9.54545E+00
 -1      2584 8.75000E+01 0.00000E+00 4.54545E-01
 -1      2585 8.62500E+01 0.00000E+00 9.09091E-01
 -1      2587 8.75000E+01 0.00000E+00 1.36364E+00
 -1      2588 8.62500E+01 0.00000E+00 1.81818E+00
 -1      2590 8.75000E+01 0.00000E+00 2.27273E+00
 -1      2591 8.62500E+01 0.00000E+00 2.72727E+00
 -1      2593 8.75000E+01 0.00000E+00 3.18182E+00
 -1      2594 8.62500E+01 0.00000E+00 3.63636E+00
 -1      2596 8.75000E+01 0.00000E+00 4.09091E+00
 -1      2597 8.62500E+01 0.00000E+00 4.54545E+00
 -1      2599 8.75000E+01 0.00000E+00 5.00000E+00
 -1      2600 8.62500E+01 0.00000E+00 5.45455E+00
 -1      2602 8.75000E+01 0.00000E+00 5.90909E+00
 -1      2603 8.62500E+01 0.00000E+00 6.36364E+00
 -1      2605 8.75000E+01 0.00000E+00 6.81818E+00
 -1      2606 8.62500E+01 0.00000E+00 7.27273E+00
 -1      2608 8.75000E+01 0.00000E+00 7.72727E+00
 -1      2609 8.62500E+01 0.00000E+00 8.18182E+00
 -1      2611 8.75000E+01 0.00000E+00 8.63636E+00
 -1      2612 8.62500E+01 0.00000E+00 9.09091E+00
 -1      2614 8.75000E+01 0.00000E+00 9.54545E+00
 -1      2616 9.00000E+01 0.00000E+00 4.54545E-01
 -1      2617 8.87500E+01 0.00000E+00 9.09091E-01
 -1      2619 9.00000E+01 0.00000E+00 1.36364E+00
 -1      2620 8.87500E+01 0.00000E+00 1.81818E+00
 -1      2622 9.00000E+01 0.00000E+00 2.27273E+00
 -1      2623 8.87500E+01 0.00000E+00 2.72727E+00
 -1      2625 9.00000E+01 0.00000E+00 3.18182E+00
 -1      2626 8.87500E+01 0.00000E+00 3.63636E+00
 -1      2628 9.00000E+01 0.00000E+00 4.09091E+00
 -1      2629 8.87500E+01 0.00000E+00 4.54545E+00
 -1      2631 9.00000E+01 0.00000E+00 5.00000E+00
 -1      2632 8.87500E+01 0.00000E+00 5.45455E+00
 -1      2634 9.00000E+01 0.00000E+00 5.90909E+00
 -1      2635 8.87500E+01 0.00000E+00 6.36364E+00
 -1      2637 9.00000E+01 0.00000E+00 6.81818E+00
 -1      2638 8.87500E+01 0.00000E+00 7.27273E+00
 -1      2640 9.00000E+01 0.00000E+00 7.72727E+00
 -1      2641 8.87500E+01 0.00000E+00 8.18182E+00
 -1      2643 9.00000E+01 0.00000E+00 8.63636E+00
 -1      2644 8.87500E+01 0.00000E+00 9.09091E+00
 -1      2646 9.00000E+01 0.00000E+00 9.54545E+00
 -1      2648 9.25000E+01 0.00000E+00 4.54545E-01
 -1      2649 9.12500E+01 0.00000E+00 9.09091E-01
 -1      2651 9.25000E+01 0.00000E+00 1.36364E+00
 -1      2652 9.12500E+01 0.00000E+00 1.81818E+00
 -1      2654 9.25000E+01 0.00000E+00 2.27273E+00
 -1      2655 9.12500E+01 0.00000E+00 2.72727E+00
 -1      2657 9.25000E+01 0.00000E+00 3.18182E+00
 -1      2658 9.12500E+01 0.00000E+00 3.63636E+00
 -1      2660 9.25000E+01 0.00000E+00 4.09091E+00
 -1      2661 9.12500E+01 0.00000E+00 4.54545E+00
 -1      2663 9.25000E+01 0.00000E+00 5.00000E+00
 -1      2664 9.12500E+01 0.00000E+00 5.45455E+00
 -1      2666 9.25000E+01 0.00000E+00 5.90909E+00
 -1      2667 9.12500E+01 0.00000E+00 6.36364E+00
 -1      2669 9.25000E+01 0.00000E+00 6.81818E+00
 -1      2670 9.12500E+01 0.00000E+00 7.27273E+00
 -1      2672 9.25000E+01 0.00000E+00 7.72727E+00
 -1      2673 9.12500E+01 0.00000E+00 8.18182E+00
 -1      2675 9.25000E+01 0.00000E+00 8.63636E+00
 -1      2676 9.12500E+01 0.00000E+00 9.09091E+00
 -1      2678 9.25000E+01 0.00000E+00 9.54545E+00
 -1      2680 9.50000E+01 0.00000E+00 4.54545E-01
 -1      2681 9.37500E+01 0.00000E+00 9.09091E-01
 -1      2683 9.50000E+01 0.00000E+00 1.36364E+00
 -1      2684 9.37500E+01 0.00000E+00 1.81818E+00
 -1      2686 9.50000E+01 0.00000E+00 2.27273E+00
 -1      2687 9.37500E+01 0.00000E+00 2.72727E+00
 -1      2689 9.50000E+01 0.00000E+00 3.18182E+00
 -1      2690 9.37500E+01 0.00000E+00 3.63636E+00
 -1      2692 9.50000E+01 0.00000E+00 4.09091E+00
 -1      2693 9.37500E+01 0.00000E+00 4.54545E+00
 -1      2695 9.50000E+01 0.00000E+00 5.00000E+00
 -1      2696 9.37500E+01 0.00000E+00 5.45455E+00
 -1      2698 9.50000E+01 0.00000E+00 5.90909E+00
 -1      2699 9.37500E+01 0.00000E+00 6.36364E+00
 -1      2701 9.50000E+01 0.00000E+00 6.81818E+00
 -1      2702 9.37500E+01 0.00000E+00 7.27273E+00
 -1      2704 9.50000E+01 0.00000E+00 7.72727E+00
 -1      2705 9.37500E+01 0.00000E+00 8.18182E+00
 -1      2707 9.50000E+01 0.00000E+00 8.63636E+00
 -1      2708 9.37500E+01 0.00000E+00 9.09091E+00
 -1      2710 9.50000E+01 0.00000E+00 9.54545E+00
 -1      2712 9.75000E+01 0.00000E+00 4.54545E-01
 -1      2713 9.62500E+01 0.00000E+00 9.09091E-01
 -1      2715 9.75000E+01 0.00000E+00 1.36364E+00
 -1      2716 9.62500E+01 0.00000E+00 1.81818E+00
 -1      2718 9.75000E+01 0.00000E+00 2.27273E+00
 -1      2719 9.62500E+01 0.00000E+00 2.72727E+00
 -1      2721 9.75000E+01 0.00000E+00 3.18182E+00
 -1      2722 9.62500E+01 0.00000E+00 3.63636E+00
 -1      2724 9.75000E+01 0.00000E+00 4.09091E+00
 -1      2725 9.62500E+01 0.00000E+00 4.54545E+00
 -1      2727 9.75000E+01 0.00000E+00 5.00000E+00
 -1      2728 9.62500E+01 0.00000E+00 5.45455E+00
 -1      2730 9.75000E+01 0.00000E+00 5.90909E+00
 -1      2731 9.62500E+01 0.00000E+00 6.36364E+00
 -1      2733 9.75000E+01 0.00000E+00 6.81818E+00
 -1      2734 9.62500E+01 0.00000E+00 7.27273E+00
 -1      2736 9.75000E+01 0.00000E+00 7.72727E+00
 -1      2737 9.62500E+01 0.00000E+00 8.18182E+00
 -1      2739 9.75000E+01 0.00000E+00 8.63636E+00
 -1      2740 9.62500E+01 0.00000E+00 9.09091E+00
 -1      2742 9.75000E+01 0.00000E+00 9.54545E+00
 -1      2744 9.87500E+01 0.00000E+00 9.09091E-01
 -1      2746 9.87500E+01 0.00000E+00 1.81818E+00
 -1      2748 9.87500E+01 0.00000E+00 2.72727E+00
 -1      2750 9.87500E+01 0.00000E+00 3.63636E+00
 -1      2752 9.87500E+01 0.00000E+00 4.54545E+00
 -1      2754 9.87500E+01 0.00000E+00 5.45455E+00
 -1      2756 9.87500E+01 0.00000E+00 6.36364E+00
 -1      2758 9.87500E+01 0.00000E+00 7.27273E+00
 -1      2760 9.87500E+01 0.00000E+00 8.18182E+00
 -1      2762 9.87500E+01 0.00000E+00 9.09091E+00
 -1      2765 9.87688E+01 1.56434E+01 9.09091E-01
 -1      2766 9.87688E+01 1.56434E+01 1.81818E+00
 -1      2767 9.87688E+01 1.56434E+01 2.72727E+00
 -1      2768 9.87688E+01 1.56434E+01 3.63636E+00
 -1      2769 9.87688E+01 1.56434E+01 4.54545E+00
 -1      2770 9.87688E+01 1.56434E+01 5.45455E+00
 -1      2771 9.87688E+01 1.56434E+01 6.36364E+00
 -1      2772 9.87688E+01 1.56434E+01 7.27273E+00
 -1      2773 9.87688E+01 1.56434E+01 8.18182E+00
 -1      2774 9.87688E+01 1.56434E+01 9.09091E+00
 -1      2775 9.51057E+01 3.09017E+01 9.09091E-01
 -1      2776 9.51057E+01 3.09017E+01 1.81818E+00
 -1      2777 9.51057E+01 3.09017E+01 2.72727E+00
 -1      2778 9.51057E+01 3.09017E+01 3.63636E+00
 -1      2779 9.51057E+01 3.09017E+01 4.54545E+00
 -1      2780 9.51057E+01 3.09017E+01 5.45455E+00
 -1      2781 9.51057E+01 3.09017E+01 6.36364E+00
 -1      2782 9.51057E+01 3.09017E+01 7.27273E+00
 -1      2783 9.51057E+01 3.09017E+01 8.18182E+00
 -1      2784 9.51057E+01 3.09017E+01 9.09091E+00
 -1      2785 8.91007E+01 4.53991E+01 9.09091E-01
 -1      2786 8.91007E+01 4.53991E+01 1.81818E+00
 -1      2787 8.91007E+01 4.53991E+01 2.72727E+00
 -1      2788 8.91007E+01 4.53991E+01 3.63636E+00
 -1      2789 8.91007E+01 4.53991E+01 4.54545E+00
 -1      2790 8.91007E+01 4.53991E+01 5.45455E+00
 -1      2791 8.91007E+01 4.53991E+01 6.36364E+00
 -1      2792 8.91007E+01 4.53991E+01 7.27273E+00
 -1      2793 8.91007E+01 4.53991E+01 8.18182E+00
 -1      2794 8.91007E+01 4.53991E+01 9.09091E+00
 -1      2795 8.09017E+01 5.87785E+01 9.09091E-01
 -1      2796 8.09017E+01 5.87785E+01 1.81818E+00
 -1      2797 8.09017E+01 5.87785E+01 2.72727E+00
 -1      2798 8.09017E+01 5.87785E+01 3.63636E+00
 -1      2799 8.09017E+01 5.87785E+01 4.54545E+00
 -1      2800 8.09017E+01 5.87785E+01 5.45455E+00
 -1      2801 8.09017E+01 5.87785E+01 6.36364E+00
 -1      2802 8.09017E+01 5.87785E+01 7.27273E+00
 -1      2803 8.09017E+01 5.87785E+01 8.18182E+00
 -1      2804 8.09017E+01 5.87785E+01 9.09091E+00
 -1      2805 7.07107E+01 7.07107E+01 9.09091E-01
 -1      2806 7.07107E+01 7.07107E+01 1.81818E+00
 -1      2807 7.07107E+01 7.07107E+01 2.72727E+00
 -1      2808 7.07107E+01 7.07107E+01 3.63636E+00
 -1      2809 7.07107E+01 7.07107E+01 4.54545E+00
 -1      2810 7.07107E+01 7.07107E+01 5.45455E+00
 -1      2811 7.07107E+01 7.07107E+01 6.36364E+00
 -1      2812 7.07107E+01 7.07107E+01 7.27273E+00
 -1      2813 7.07107E+01 7.07107E+01 8.18182E+00
 -1      2814 7.07107E+01 7.07107E+01 9.09091E+00
 -1      2815 5.87785E+01 8.09017E+01 9.09091E-01
 -1      2816 5.87785E+01 8.09017E+01 1.81818E+00
 -1      2817 5.87785E+01 8.09017E+01 2.72727E+00
 -1      2818 5.87785E+01 8.09017E+01 3.63636E+00
 -1      2819 5.87785E+01 8.09017E+01 4.54545E+00
 -1      2820 5.87785E+01 8.09017E+01 5.45455E+00
 -1      2821 5.87785E+01 8.09017E+01 6.36364E+00
 -1      2822 5.87785E+01 8.09017E+01 7.27273E+00
 -1      2823 5.87785E+01 8.09017E+01 8.18182E+00
 -1      2824 5.87785E+01 8.09017E+01 9.09091E+00
 -1      2825 4.53991E+01 8.91007E+01 9.09091E-01
 -1      2826 4.53991E+01 8.91007E+01 1.81818E+00
 -1      2827 4.53991E+01 8.91007E+01 2.72727E+00
 -1      2828 4.53991E+01 8.91007E+01 3.63636E+00
 -1      2829 4.53991E+01 8.91007E+01 4.54545E+00
 -1      2830 4.53991E+01 8.91007E+01 5.45455E+00
 -1      2831 4.53991E+01 8.91007E+01 6.36364E+00
 -1      2832 4.53991E+01 8.91007E+01 7.27273E+00
 -1      2833 4.53991E+01 8.91007E+01 8.18182E+00
 -1      2834 4.53991E+01 8.91007E+01 9.09091E+00
 -1      2835 3.09017E+01 9.51057E+01 9.09091E-01
 -1      2836 3.09017E+01 9.51057E+01 1.81818E+00
 -1      2837 3.09017E+01 9.51057E+01 2.72727E+00
 -1      2838 3.09017E+01 9.51057E+01 3.63636E+00
 -1      2839 3.09017E+01 9.51057E+01 4.54545E+00
 -1      2840 3.09017E+01 9.51057E+01 5.45455E+00
 -1      2841 3.09017E+01 9.51057E+01 6.36364E+00
 -1      2842 3.09017E+01 9.51057E+01 7.27273E+00
 -1      2843 3.09017E+01 9.51057E+01 8.18182E+00
 -1      2844 3.09017E+01 9.51057E+01 9.09091E+00
 -1      2845 1.56434E+01 9.87688E+01 9.09091E-01
 -1      2846 1.56434E+01 9.87688E+01 1.81818E+00
 -1      2847 1.56434E+01 9.87688E+01 2.72727E+00
 -1      2848 1.56434E+01 9.87688E+01 3.63636E+00
 -1      2849 1.56434E+01 9.87688E+01 4.54545E+00
 -1      2850 1.56434E+01 9.87688E+01 5.45455E+00
 -1      2851 1.56434E+01 9.87688E+01 6.36364E+00
 -1      2852 1.56434E+01 9.87688E+01 7.27273E+00
 -1      2853 1.56434E+01 9.87688E+01 8.18182E+00
 -1      2854 1.56434E+01 9.87688E+01 9.09091E+00
 -1      2855 9.87688E+01 1.56434E+01 4.54545E-01
 -1      2856 9.96917E+01 7.84591E+00 9.09091E-01
 -1      2858 9.87688E+01 1.56434E+01 1.36364E+00
 -1      2859 9.96917E+01 7.84591E+00 1.81818E+00
 -1      2861 9.87688E+01 1.56434E+01 2.27273E+00
 -1      2862 9.96917E+01 7.84591E+00 2.72727E+00
 -1      2864 9.87688E+01 1.56434E+01 3.18182E+00
 -1      2865 9.96917E+01 7.84591E+00 3.63636E+00
 -1      2867 9.87688E+01 1.56434E+01 4.09091E+00
 -1      2868 9.96917E+01 7.84591E+00 4.54545E+00
 -1      2870 9.87688E+01 1.56434E+01 5.00000E+00
 -1      2871 9.96917E+01 7.84591E+00 5.45455E+00
 -1      2873 9.87688E+01 1.56434E+01 5.90909E+00
 -1      2874 9.96917E+01 7.84591E+00 6.36364E+00
 -1      2876 9.87688E+01 1.56434E+01 6.81818E+00
 -1      2877 9.96917E+01 7.84591E+00 7.27273E+00
 -1      2879 9.87688E+01 1.56434E+01 7.72727E+00
 -1      2880 9.96917E+01 7.84591E+00 8.18182E+00
 -1      2882 9.87688E+01 1.56434E+01 8.63636E+00
 -1      2883 9.96917E+01 7.84591E+00 9.09091E+00
 -1      2885 9.87688E+01 1.56434E+01 9.54545E+00
 -1      2887 9.51057E+01 3.09017E+01 4.54545E-01
 -1      2888 9.72370E+01 2.33445E+01 9.09091E-01
 -1      2890 9.51057E+01 3.09017E+01 1.36364E+00
 -1      2891 9.72370E+01 2.33445E+01 1.81818E+00
 -1      2893 9.51057E+01 3.09017E+01 2.27273E+00
 -1      2894 9.72370E+01 2.33445E+01 2.72727E+00
 -1      2896 9.51057E+01 3.09017E+01 3.18182E+00
 -1      2897 9.72370E+01 2.33445E+01 3.63636E+00
 -1      2899 9.51057E+01 3.09017E+01 4.09091E+00
 -1      2900 9.72370E+01 2.33445E+01 4.54545E+00
 -1      2902 9.51057E+01 3.09017E+01 5.00000E+00
 -1      2903 9.72370E+01 2.33445E+01 5.45455E+00
 -1      2905 9.51057E+01 3.09017E+01 5.90909E+00
 -1      2906 9.72370E+01 2.33445E+01 6.36364E+00
 -1      2908 9.51057E+01 3.09017E+01 6.81818E+00
 -1      2909 9.72370E+01 2.33445E+01 7.27273E+00
 -1      2911 9.51057E+01 3.09017E+01 7.72727E+00
 -1      2912 9.72370E+01 2.33445E+01 8.18182E+00
 -1      2914 9.51057E+01 3.09017E+01 8.63636E+00
 -1      2915 9.72370E+01 2.33445E+01 9.09091E+00
 -1      2917 9.51057E+01 3.09017E+01 9.54545E+00
 -1      2919 8.91007E+01 4.53991E+01 4.54545E-01
 -1      2920 9.23880E+01 3.82683E+01 9.09091E-01
 -1      2922 8.91007E+01 4.53991E+01 1.36364E+00
 -1      2923 9.23880E+01 3.82683E+01 1.81818E+00
 -1      2925 8.91007E+01 4.53991E+01 2.27273E+00
 -1      2926 9.23880E+01 3.82683E+01 2.72727E+00
 -1      2928 8.91007E+01 4.53991E+01 3.18182E+00
 -1      2929 9.23880E+01 3.82683E+01 3.63636E+00
 -1      2931 8.91007E+01 4.53991E+01 4.09091E+00
 -1      2932 9.23880E+01 3.82683E+01 4.54545E+00
 -1      2934 8.91007E+01 4.53991E+01 5.00000E+00
 -1      2935 9.23880E+01 3.82683E+01 5.45455E+00
 -1      2937 8.91007E+01 4.53991E+01 5.90909E+00
 -1      2938 9.23880E+01 3.82683E+01 6.36364E+00
 -1      2940 8.91007E+01 4.53991E+01 6.81818E+00
 -1      2941 9.23880E+01 3.82683E+01 7.27273E+00
 -1      2943 8.91007E+01 4.53991E+01 7.72727E+00
 -1      2944 9.23880E+01 3.82683E+01 8.18182E+00
 -1      2946 8.91007E+01 4.53991E+01 8.63636E+00
 -1      2947 9.23880E+01 3.82683E+01 9.09091E+00
 -1      2949 8.91007E+01 4.53991E+01 9.54545E+00
 -1      2951 8.09017E+01 5.87785E+01 4.54545E-01
 -1      2952 8.52640E+01 5.22499E+01 9.09091E-01
 -1      2954 8.09017E+01 5.87785E+01 1.36364E+00
 -1      2955 8.52640E+01 5.22499E+01 1.81818E+00
 -1      2957 8.09017E+01 5.87785E+01 2.27273E+00
 -1      2958 8.52640E+01 5.22499E+01 2.72727E+00
 -1      2960 8.09017E+01 5.87785E+01 3.18182E+00
 -1      2961 8.52640E+01 5.22499E+01 3.63636E+00
 -1      2963 8.09017E+01 5.87785E+01 4.09091E+00
 -1      2964 8.52640E+01 5.22499E+01 4.54545E+00
 -1      2966 8.09017E+01 5.87785E+01 5.00000E+00
 -1      2967 8.52640E+01 5.22499E+01 5.45455E+00
 -1      2969 8.09017E+01 5.87785E+01 5.90909E+00
 -1      2970 8.52640E+01 5.22499E+01 6.36364E+00
 -1      2972 8.09017E+01 5.87785E+01 6.81818E+00
 -1      2973 8.52640E+01 5.22499E+01 7.27273E+00
 -1      2975 8.09017E+01 5.87785E+01 7.72727E+00
 -1      2976 8.52640E+01 5.22499E+01 8.18182E+00
 -1      2978 8.09017E+01 5.87785E+01 8.63636E+00
 -1      2979 8.52640E+01 5.22499E+01 9.09091E+00
 -1      2981 8.09017E+01 5.87785E+01 9.54545E+00
 -1      2983 7.07107E+01 7.07107E+01 4.54545E-01
 -1      2984 7.60406E+01 6.49448E+01 9.09091E-01
 -1      2986 7.07107E+01 7.07107E+01 1.36364E+00
 -1      2987 7.60406E+01 6.49448E+01 1.81818E+00
 -1      2989 7.07107E+01 7.07107E+01 2.27273E+00
 -1      2990 7.60406E+01 6.49448E+01 2.72727E+00
 -1      2992 7.07107E+01 7.07107E+01 3.18182E+00
 -1      2993 7.60406E+01 6.49448E+01 3.63636E+00
 -1      2995 7.07107E+01 7.07107E+01 4.09091E+00
 -1      2996 7.60406E+01 6.49448E+01 4.54545E+00
 -1      2998 7.07107E+01 7.07107E+01 5.00000E+00
 -1      2999 7.60406E+01 6.49448E+01 5.45455E+00
 -1      3001 7.07107E+01 7.07107E+01 5.90909E+00
 -1      3002 7.60406E+01 6.49448E+01 6.36364E+00
 -1      3004 7.07107E+01 7.07107E+01 6.81818E+00
 -1      3005 7.60406E+01 6.49448E+01 7.27273E+00
 -1      3007 7.07107E+01 7.07107E+01 7.72727E+00
 -1      3008 7.60406E+01 6.49448E+01 8.18182E+00
 -1      3010 7.07107E+01 7.07107E+01 8.63636E+00
 -1      3011 7.60406E+01 6.49448E+01 9.09091E+00
 -1      3013 7.07107E+01 7.07107E+01 9.54545E+00
 -1      3015 5.87785E+01 8.09017E+01 4.54545E-01
 -1      3016 6.49449E+01 7.60405E+01 9.09091E-01
 -1      3018 5.87785E+01 8.09017E+01 1.36364E+00
 -1      3019 6.49449E+01 7.60405E+01 1.81818E+00
 -1      3021 5.87785E+01 8.09017E+01 2.27273E+00
 -1      3022 6.49449E+01 7.60405E+01 2.72727E+00
 -1      3024 5.87785E+01 8.09017E+01 3.18182E+00
 -1      3025 6.49449E+01 7.60405E+01 3.63636E+00
 -1      3027 5.87785E+01 8.09017E+01 4.09091E+00
 -1      3028 6.49449E+01 7.60405E+01 4.54545E+00
 -1      3030 5.87785E+01 8.09017E+01 5.00000E+00
 -1      3031 6.49449E+01 7.60405E+01 5.45455E+00
 -1      3033 5.87785E+01 8.09017E+01 5.90909E+00
 -1      3034 6.49449E+01 7.60405E+01 6.36364E+00
 -1      3036 5.87785E+01 8.09017E+01 6.81818E+00
 -1      3037 6.49449E+01 7.60405E+01 7.27273E+00
 -1      3039 5.87785E+01 8.09017E+01 7.72727E+00
 -1      3040 6.49449E+01 7.60405E+01 8.18182E+00
 -1      3042 5.87785E+01 8.09017E+01 8.63636E+00
 -1      3043 6.49449E+01 7.60405E+01 9.09091E+00
 -1      3045 5.87785E+01 8.09017E+01 9.54545E+00
 -1      3047 4.53991E+01 8.91007E+01 4.54545E-01
 -1      3048 5.22499E+01 8.52640E+01 9.09091E-01
 -1      3050 4.53991E+01 8.91007E+01 1.36364E+00
 -1      3051 5.22499E+01 8.52640E+01 1.81818E+00
 -1      3053 4.53991E+01 8.91007E+01 2.27273E+00
 -1      3054 5.22499E+01 8.52640E+01 2.72727E+00
 -1      3056 4.53991E+01 8.91007E+01 3.18182E+00
 -1      3057 5.22499E+01 8.52640E+01 3.63636E+00
 -1      3059 4.53991E+01 8.91007E+01 4.09091E+00
 -1      3060 5.22499E+01 8.52640E+01 4.54545E+00
 -1      3062 4.53991E+01 8.91007E+01 5.00000E+00
 -1      3063 5.22499E+01 8.52640E+01 5.45455E+00
 -1      3065 4.53991E+01 8.91007E+01 5.90909E+00
 -1      3066 5.22499E+01 8.52640E+01 6.36364E+00
 -1      3068 4.53991E+01 8.91007E+01 6.81818E+00
 -1      3069 5.22499E+01 8.52640E+01 7.27273E+00
 -1      3071 4.53991E+01 8.91007E+01 7.72727E+00
 -1      3072 5.22499E+01 8.52640E+01 8.18182E+00
 -1      3074 4.53991E+01 8.91007E+01 8.63636E+00
 -1      3075 5.22499E+01 8.52640E+01 9.09091E+00
 -1      3077 4.53991E+01 8.91007E+01 9.54545E+00
 -1      3079 3.09017E+01 9.51057E+01 4.54545E-01
 -1      3080 3.82683E+01 9.23880E+01 9.09091E-01
 -1      3082 3.09017E+01 9.51057E+01 1.36364E+00
 -1      3083 3.82683E+01 9.23880E+01 1.81818E+00
 -1      3085 3.09017E+01 9.51057E+01 2.27273E+00
 -1      3086 3.82683E+01 9.23880E+01 2.72727E+00
 -1      3088 3.09017E+01 9.51057E+01 3.18182E+00
 -1      3089 3.82683E+01 9.23880E+01 3.63636E+00
 -1      3091 3.09017E+01 9.51057E+01 4.09091E+00
 -1      3092 3.82683E+01 9.23880E+01 4.54545E+00
 -1      3094 3.09017E+01 9.51057E+01 5.00000E+00
 -1      3095 3.82683E+01 9.23880E+01 5.45455E+00
 -1      3097 3.09017E+01 9.51057E+01 5.90909E+00
 -1      3098 3.82683E+01 9.23880E+01 6.36364E+00
 -1      3100 3.09017E+01 9.51057E+01 6.81818E+00
 -1      3101 3.82683E+01 9.23880E+01 7.27273E+00
 -1      3103 3.09017E+01 9.51057E+01 7.72727E+00
 -1      3104 3.82683E+01 9.23880E+01 8.18182E+00
 -1      3106 3.09017E+01 9.51057E+01 8.63636E+00
 -1      3107 3.82683E+01 9.23880E+01 9.09091E+00
 -1      3109 3.09017E+01 9.51057E+01 9.54545E+00
 -1      3111 1.56434E+01 9.87688E+01 4.54545E-01
 -1      3112 2.33447E+01 9.72370E+01 9.09091E-01
 -1      3114 1.56434E+01 9.87688E+01 1.36364E+00
 -1      3115 2.33447E+01 9.72370E+01 1.81818E+00
 -1      3117 1.56434E+01 9.87688E+01 2.27273E+00
 -1      3118 2.33447E+01 9.72370E+01 2.72727E+00
 -1      3120 1.56434E+01 9.87688E+01 3.18182E+00
 -1      3121 2.33447E+01 9.72370E+01 3.63636E+00
 -1      3123 1.56434E+01 9.87688E+01 4.09091E+00
 -1      3124 2.33447E+01 9.72370E+01 4.54545E+00
 -1      3126 1.56434E+01 9.87688E+01 5.00000E+00
 -1      3127 2.33447E+01 9.72370E+01 5.45455E+00
 -1      3129 1.56434E+01 9.87688E+01 5.90909E+00
 -1      3130 2.33447E+01 9.72370E+01 6.36364E+00
 -1      3132 1.56434E+01 9.87688E+01 6.81818E+00
 -1      3133 2.33447E+01 9.72370E+01 7.27273E+00
 -1      3135 1.56434E+01 9.87688E+01 7.72727E+00
 -1      3136 2.33447E+01 9.72370E+01 8.18182E+00
 -1      3138 1.56434E+01 9.87688E+01 8.63636E+00
 -1      3139 2.33447E+01 9.72370E+01 9.09091E+00
 -1      3141 1.56434E+01 9.87688E+01 9.54545E+00
 -1      3143 7.84602E+00 9.96917E+01 9.09091E-01
 -1      3145 7.84602E+00 9.96917E+01 1.81818E+00
 -1      3147 7.84602E+00 9.96917E+01 2.72727E+00
 -1      3149 7.84602E+00 9.96917E+01 3.63636E+00
 -1      3151 7.84602E+00 9.96917E+01 4.54545E+00
 -1      3153 7.84602E+00 9.96917E+01 5.45455E+00
 -1      3155 7.84602E+00 9.96917E+01 6.36364E+00
 -1      3157 7.84602E+00 9.96917E+01 7.27273E+00
 -1      3159 7.84602E+00 9.96917E+01 8.18182E+00
 -1      3161 7.84602E+00 9.96917E+01 9.09091E+00
 -1      3164 5.97015E-15 9.75000E+01 9.09091E-01
 -1      3165 5.97015E-15 9.75000E+01 1.81818E+00
 -1      3166 5.97015E-15 9.75000E+01 2.72727E+00
 -1      3167 5.97015E-15 9.75000E+01 3.63636E+00
 -1      3168 5.97015E-15 9.75000E+01 4.54545E+00
 -1      3169 5.97015E-15 9.75000E+01 5.45455E+00
 -1      3170 5.97015E-15 9.75000E+01 6.36364E+00
 -1      3171 5.97015E-15 9.75000E+01 7.27273E+00
 -1      3172 5.97015E-15 9.75000E+01 8.18182E+00
 -1      3173 5.97015E-15 9.75000E+01 9.09091E+00
 -1      3174 5.81707E-15 9.50000E+01 9.09091E-01
 -1      3175 5.81707E-15 9.50000E+01 1.81818E+00
 -1      3176 5.81707E-15 9.50000E+01 2.72727E+00
 -1      3177 5.81707E-15 9.50000E+01 3.63636E+00
 -1      3178 5.81707E-15 9.50000E+01 4.54545E+00
 -1      3179 5.81707E-15 9.50000E+01 5.45455E+00
 -1      3180 5.81707E-15 9.50000E+01 6.36364E+00
 -1      3181 5.81707E-15 9.50000E+01 7.27273E+00
 -1      3182 5.81707E-15 9.50000E+01 8.18182E+00
 -1      3183 5.81707E-15 9.50000E+01 9.09091E+00
 -1      3184 5.66399E-15 9.25000E+01 9.09091E-01
 -1      3185 5.66399E-15 9.25000E+01 1.81818E+00
 -1      3186 5.66399E-15 9.25000E+01 2.72727E+00
 -1      3187 5.66399E-15 9.25000E+01 3.63636E+00
 -1      3188 5.66399E-15 9.25000E+01 4.54545E+00
 -1      3189 5.66399E-15 9.25000E+01 5.45455E+00
 -1      3190 5.66399E-15 9.25000E+01 6.36364E+00
 -1      3191 5.66399E-15 9.25000E+01 7.27273E+00
 -1      3192 5.66399E-15 9.25000E+01 8.18182E+00
 -1      3193 5.66399E-15 9.25000E+01 9.09091E+00
 -1      3194 5.51091E-15 9.00000E+01 9.09091E-01
 -1      3195 5.51091E-15 9.00000E+01 1.81818E+00
 -1      3196 5.51091E-15 9.00000E+01 2.72727E+00
 -1      3197 5.51091E-15 9.00000E+01 3.63636E+00
 -1      3198 5.51091E-15 9.00000E+01 4.54545E+00
 -1      3199 5.51091E-15 9.00000E+01 5.45455E+00
 -1      3200 5.51091E-15 9.00000E+01 6.36364E+00
 -1      3201 5.51091E-15 9.00000E+01 7.27273E+00
 -1      3202 5.51091E-15 9.00000E+01 8.18182E+00
 -1      3203 5.51091E-15 9.00000E+01 9.09091E+00
 -1      3204 5.35783E-15 8.75000E+01 9.09091E-01
 -1      3205 5.35783E-15 8.75000E+01 1.81818E+00
 -1      3206 5.35783E-15 8.75000E+01 2.72727E+00
 -1      3207 5.35783E-15 8.75000E+01 3.63636E+00
 -1      3208 5.35783E-15 8.75000E+01 4.54545E+00
 -1      3209 5.35783E-15 8.75000E+01 5.45455E+00
 -1      3210 5.35783E-15 8.75000E+01 6.36364E+00
 -1      3211 5.35783E-15 8.75000E+01 7.27273E+00
 -1      3212 5.35783E-15 8.75000E+01 8.18182E+00
 -1      3213 5.35783E-15 8.75000E+01 9.09091E+00
 -1      3214 5.20475E-15 8.50000E+01 9.09091E-01
 -1      3215 5.20475E-15 8.50000E+01 1.81818E+00
 -1      3216 5.20475E-15 8.50000E+01 2.72727E+00
 -1      3217 5.20475E-15 8.50000E+01 3.63636E+00
 -1      3218 5.20475E-15 8.50000E+01 4.54545E+00
 -1      3219 5.20475E-15 8.50000E+01 5.45455E+00
 -1      3220 5.20475E-15 8.50000E+01 6.36364E+00
 -1      3221 5.20475E-15 8.50000E+01 7.27273E+00
 -1      3222 5.20475E-15 8.50000E+01 8.18182E+00
 -1      3223 5.20475E-15 8.50000E+01 9.09091E+00
 -1      3224 5.05167E-15 8.25000E+01 9.09091E-01
 -1      3225 5.05167E-15 8.25000E+01 1.81818E+00
 -1      3226 5.05167E-15 8.25000E+01 2.72727E+00
 -1      3227 5.05167E-15 8.25000E+01 3.63636E+00
 -1      3228 5.05167E-15 8.25000E+01 4.54545E+00
 -1      3229 5.05167E-15 8.25000E+01 5.45455E+00
 -1      3230 5.05167E-15 8.25000E+01 6.36364E+00
 -1      3231 5.05167E-15 8.25000E+01 7.27273E+00
 -1      3232 5.05167E-15 8.25000E+01 8.18182E+00
 -1      3233 5.05167E-15 8.25000E+01 9.09091E+00
 -1      3234 4.89859E-15 8.00000E+01 9.09091E-01
 -1      3235 4.89859E-15 8.00000E+01 1.81818E+00
 -1      3236 4.89859E-15 8.00000E+01 2.72727E+00
 -1      3237 4.89859E-15 8.00000E+01 3.63636E+00
 -1      3238 4.89859E-15 8.00000E+01 4.54545E+00
 -1      3239 4.89859E-15 8.00000E+01 5.45455E+00
 -1      3240 4.89859E-15 8.00000E+01 6.36364E+00
 -1      3241 4.89859E-15 8.00000E+01 7.27273E+00
 -1      3242 4.89859E-15 8.00000E+01 8.18182E+00
 -1      3243 4.89859E-15 8.00000E+01 9.09091E+00
 -1      3244 4.74551E-15 7.75000E+01 9.09091E-01
 -1      3245 4.74551E-15 7.75000E+01 1.81818E+00
 -1      3246 4.74551E-15 7.75000E+01 2.72727E+00
 -1      3247 4.74551E-15 7.75000E+01 3.63636E+00
 -1      3248 4.74551E-15 7.75000E+01 4.54545E+00
 -1      3249 4.74551E-15 7.75000E+01 5.45455E+00
 -1      3250 4.74551E-15 7.75000E+01 6.36364E+00
 -1      3251 4.74551E-15 7.75000E+01 7.27273E+00
 -1      3252 4.74551E-15 7.75000E+01 8.18182E+00
 -1      3253 4.74551E-15 7.75000E+01 9.09091E+00
 -1      3254 4.59243E-15 7.50000E+01 9.09091E-01
 -1      3255 4.59243E-15 7.50000E+01 1.81818E+00
 -1      3256 4.59243E-15 7.50000E+01 2.72727E+00
 -1      3257 4.59243E-15 7.50000E+01 3.63636E+00
 -1      3258 4.59243E-15 7.50000E+01 4.54545E+00
 -1      3259 4.59243E-15 7.50000E+01 5.45455E+00
 -1      3260 4.59243E-15 7.50000E+01 6.36364E+00
 -1      3261 4.59243E-15 7.50000E+01 7.27273E+00
 -1      3262 4.59243E-15 7.50000E+01 8.18182E+00
 -1      3263 4.59243E-15 7.50000E+01 9.09091E+00
 -1      3264 4.43934E-15 7.25000E+01 9.09091E-01
 -1      3265 4.43934E-15 7.25000E+01 1.81818E+00
 -1      3266 4.43934E-15 7.25000E+01 2.72727E+00
 -1      3267 4.43934E-15 7.25000E+01 3.63636E+00
 -1      3268 4.43934E-15 7.25000E+01 4.54545E+00
 -1      3269 4.43934E-15 7.25000E+01 5.45455E+00
 -1      3270 4.43934E-15 7.25000E+01 6.36364E+00
 -1      3271 4.43934E-15 7.25000E+01 7.27273E+00
 -1      3272 4.43934E-15 7.25000E+01 8.18182E+00
 -1      3273 4.43934E-15 7.25000E+01 9.09091E+00
 -1      3274 4.28626E-15 7.00000E+01 9.09091E-01
 -1      3275 4.28626E-15 7.00000E+01 1.81818E+00
 -1      3276 4.28626E-15 7.00000E+01 2.72727E+00
 -1      3277 4.28626E-15 7.00000E+01 3.63636E+00
 -1      3278 4.28626E-15 7.00000E+01 4.54545E+00
 -1      3279 4.28626E-15 7.00000E+01 5.45455E+00
 -1      3280 4.28626E-15 7.00000E+01 6.36364E+00
 -1      3281 4.28626E-15 7.00000E+01 7.27273E+00
 -1      3282 4.28626E-15 7.00000E+01 8.18182E+00
 -1      3283 4.28626E-15 7.00000E+01 9.09091E+00
 -1      3284 4.13318E-15 6.75000E+01 9.09091E-01
 -1      3285 4.13318E-15 6.75000E+01 1.81818E+00
 -1      3286 4.13318E-15 6.75000E+01 2.72727E+00
 -1      3287 4.13318E-15 6.75000E+01 3.63636E+00
 -1      3288 4.13318E-15 6.75000E+01 4.54545E+00
 -1      3289 4.13318E-15 6.75000E+01 5.45455E+00
 -1      3290 4.13318E-15 6.75000E+01 6.36364E+00
 -1      3291 4.13318E-15 6.75000E+01 7.27273E+00
 -1      3292 4.13318E-15 6.75000E+01 8.18182E+00
 -1      3293 4.13318E-15 6.75000E+01 9.09091E+00
 -1      3294 3.98010E-15 6.50000E+01 9.09091E-01
 -1      3295 3.98010E-15 6.50000E+01 1.81818E+00
 -1      3296 3.98010E-15 6.50000E+01 2.72727E+00
 -1      3297 3.98010E-15 6.50000E+01 3.63636E+00
 -1      3298 3.98010E-15 6.50000E+01 4.54545E+00
 -1      3299 3.98010E-15 6.50000E+01 5.45455E+00
 -1      3300 3.98010E-15 6.50000E+01 6.36364E+00
 -1      3301 3.98010E-15 6.50000E+01 7.27273E+00
 -1      3302 3.98010E-15 6.50000E+01 8.18182E+00
 -1      3303 3.98010E-15 6.50000E+01 9.09091E+00
 -1      3304 3.82702E-15 6.25000E+01 9.09091E-01
 -1      3305 3.82702E-15 6.25000E+01 1.81818E+00
 -1      3306 3.82702E-15 6.25000E+01 2.72727E+00
 -1      3307 3.82702E-15 6.25000E+01 3.63636E+00
 -1      3308 3.82702E-15 6.25000E+01 4.54545E+00
 -1      3309 3.82702E-15 6.25000E+01 5.45455E+00
 -1      3310 3.82702E-15 6.25000E+01 6.36364E+00
 -1      3311 3.82702E-15 6.25000E+01 7.27273E+00
 -1      3312 3.82702E-15 6.25000E+01 8.18182E+00
 -1      3313 3.82702E-15 6.25000E+01 9.09091E+00
 -1      3314 3.67394E-15 6.00000E+01 9.09091E-01
 -1      3315 3.67394E-15 6.00000E+01 1.81818E+00
 -1      3316 3.67394E-15 6.00000E+01 2.72727E+00
 -1      3317 3.67394E-15 6.00000E+01 3.63636E+00
 -1      3318 3.67394E-15 6.00000E+01 4.54545E+00
 -1      3319 3.67394E-15 6.00000E+01 5.45455E+00
 -1      3320 3.67394E-15 6.00000E+01 6.36364E+00
 -1      3321 3.67394E-15 6.00000E+01 7.27273E+00
 -1      3322 3.67394E-15 6.00000E+01 8.18182E+00
 -1      3323 3.67394E-15 6.00000E+01 9.09091E+00
 -1      3324 3.52086E-15 5.75000E+01 9.09091E-01
 -1      3325 3.52086E-15 5.75000E+01 1.81818E+00
 -1      3326 3.52086E-15 5.75000E+01 2.72727E+00
 -1      3327 3.52086E-15 5.75000E+01 3.63636E+00
 -1      3328 3.52086E-15 5.75000E+01 4.54545E+00
 -1      3329 3.52086E-15 5.75000E+01 5.45455E+00
 -1      3330 3.52086E-15 5.75000E+01 6.36364E+00
 -1      3331 3.52086E-15 5.75000E+01 7.27273E+00
 -1      3332 3.52086E-15 5.75000E+01 8.18182E+00
 -1      3333 3.52086E-15 5.75000E+01 9.09091E+00
 -1      3334 3.36778E-15 5.50000E+01 9.09091E-01
 -1      3335 3.36778E-15 5.50000E+01 1.81818E+00
 -1      3336 3.36778E-15 5.50000E+01 2.72727E+00
 -1      3337 3.36778E-15 5.50000E+01 3.63636E+00
 -1      3338 3.36778E-15 5.50000E+01 4.54545E+00
 -1      3339 3.36778E-15 5.50000E+01 5.45455E+00
 -1      3340 3.36778E-15 5.50000E+01 6.36364E+00
 -1      3341 3.36778E-15 5.50000E+01 7.27273E+00
 -1      3342 3.36778E-15 5.50000E+01 8.18182E+00
 -1      3343 3.36778E-15 5.50000E+01 9.09091E+00
 -1      3344 3.21470E-15 5.25000E+01 9.09091E-01
 -1      3345 3.21470E-15 5.25000E+01 1.81818E+00
 -1      3346 3.21470E-15 5.25000E+01 2.72727E+00
 -1      3347 3.21470E-15 5.25000E+01 3.63636E+00
 -1      3348 3.21470E-15 5.25000E+01 4.54545E+00
 -1      3349 3.21470E-15 5.25000E+01 5.45455E+00
 -1      3350 3.21470E-15 5.25000E+01 6.36364E+00
 -1      3351 3.21470E-15 5.25000E+01 7.27273E+00
 -1      3352 3.21470E-15 5.25000E+01 8.18182E+00
 -1      3353 3.21470E-15 5.25000E+01 9.09091E+00
 -1      3354 3.06162E-15 5.00000E+01 9.09091E-01
 -1      3355 3.06162E-15 5.00000E+01 1.81818E+00
 -1      3356 3.06162E-15 5.00000E+01 2.72727E+00
 -1      3357 3.06162E-15 5.00000E+01 3.63636E+00
 -1      3358 3.06162E-15 5.00000E+01 4.54545E+00
 -1      3359 3.06162E-15 5.00000E+01 5.45455E+00
 -1      3360 3.06162E-15 5.00000E+01 6.36364E+00
 -1      3361 3.06162E-15 5.00000E+01 7.27273E+00
 -1      3362 3.06162E-15 5.00000E+01 8.18182E+00
 -1      3363 3.06162E-15 5.00000E+01 9.09091E+00
 -1      3364 2.90854E-15 4.75000E+01 9.09091E-01
 -1      3365 2.90854E-15 4.75000E+01 1.81818E+00
 -1      3366 2.90854E-15 4.75000E+01 2.72727E+00
 -1      3367 2.90854E-15 4.75000E+01 3.63636E+00
 -1      3368 2.90854E-15 4.75000E+01 4.54545E+00
 -1      3369 2.90854E-15 4.75000E+01 5.45455E+00
 -1      3370 2.90854E-15 4.75000E+01 6.36364E+00
 -1      3371 2.90854E-15 4.75000E+01 7.27273E+00
 -1      3372 2.90854E-15 4.75000E+01 8.18182E+00
 -1      3373 2.90854E-15 4.75000E+01 9.09091E+00
 -1      3374 2.75546E-15 4.50000E+01 9.09091E-01
 -1      3375 2.75546E-15 4.50000E+01 1.81818E+00
 -1      3376 2.75546E-15 4.50000E+01 2.72727E+00
 -1      3377 2.75546E-15 4.50000E+01 3.63636E+00
 -1      3378 2.75546E-15 4.50000E+01 4.54545E+00
 -1      3379 2.75546E-15 4.50000E+01 5.45455E+00
 -1      3380 2.75546E-15 4.50000E+01 6.36364E+00
 -1      3381 2.75546E-15 4.50000E+01 7.27273E+00
 -1      3382 2.75546E-15 4.50000E+01 8.18182E+00
 -1      3383 2.75546E-15 4.50000E+01 9.09091E+00
 -1      3384 2.60237E-15 4.25000E+01 9.09091E-01
 -1      3385 2.60237E-15 4.25000E+01 1.81818E+00
 -1      3386 2.60237E-15 4.25000E+01 2.72727E+00
 -1      3387 2.60237E-15 4.25000E+01 3.63636E+00
 -1      3388 2.60237E-15 4.25000E+01 4.54545E+00
 -1      3389 2.60237E-15 4.25000E+01 5.45455E+00
 -1      3390 2.60237E-15 4.25000E+01 6.36364E+00
 -1      3391 2.60237E-15 4.25000E+01 7.27273E+00
 -1      3392 2.60237E-15 4.25000E+01 8.18182E+00
 -1      3393 2.60237E-15 4.25000E+01 9.09091E+00
 -1      3394 2.44929E-15 4.00000E+01 9.09091E-01
 -1      3395 2.44929E-15 4.00000E+01 1.81818E+00
 -1      3396 2.44929E-15 4.00000E+01 2.72727E+00
 -1      3397 2.44929E-15 4.00000E+01 3.63636E+00
 -1      3398 2.44929E-15 4.00000E+01 4.54545E+00
 -1      3399 2.44929E-15 4.00000E+01 5.45455E+00
 -1      3400 2.44929E-15 4.00000E+01 6.36364E+00
 -1      3401 2.44929E-15 4.00000E+01 7.27273E+00
 -1      3402 2.44929E-15 4.00000E+01 8.18182E+00
 -1      3403 2.44929E-15 4.00000E+01 9.09091E+00
 -1      3404 2.29621E-15 3.75000E+01 9.09091E-01
 -1      3405 2.29621E-15 3.75000E+01 1.81818E+00
 -1      3406 2.29621E-15 3.75000E+01 2.72727E+00
 -1      3407 2.29621E-15 3.75000E+01 3.63636E+00
 -1      3408 2.29621E-15 3.75000E+01 4.54545E+00
 -1      3409 2.29621E-15 3.75000E+01 5.45455E+00
 -1      3410 2.29621E-15 3.75000E+01 6.36364E+00
 -1      3411 2.29621E-15 3.75000E+01 7.27273E+00
 -1      3412 2.29621E-15 3.75000E+01 8.18182E+00
 -1      3413 2.29621E-15 3.75000E+01 9.09091E+00
 -1      3414 2.14313E-15 3.50000E+01 9.09091E-01
 -1      3415 2.14313E-15 3.50000E+01 1.81818E+00
 -1      3416 2.14313E-15 3.50000E+01 2.72727E+00
 -1      3417 2.14313E-15 3.50000E+01 3.63636E+00
 -1      3418 2.14313E-15 3.50000E+01 4.54545E+00
 -1      3419 2.14313E-15 3.50000E+01 5.45455E+00
 -1      3420 2.14313E-15 3.50000E+01 6.36364E+00
 -1      3421 2.14313E-15 3.50000E+01 7.27273E+00
 -1      3422 2.14313E-15 3.50000E+01 8.18182E+00
 -1      3423 2.14313E-15 3.50000E+01 9.09091E+00
 -1      3424 1.99005E-15 3.25000E+01 9.09091E-01
 -1      3425 1.99005E-15 3.25000E+01 1.81818E+00
 -1      3426 1.99005E-15 3.25000E+01 2.72727E+00
 -1      3427 1.99005E-15 3.25000E+01 3.63636E+00
 -1      3428 1.99005E-15 3.25000E+01 4.54545E+00
 -1      3429 1.99005E-15 3.25000E+01 5.45455E+00
 -1      3430 1.99005E-15 3.25000E+01 6.36364E+00
 -1      3431 1.99005E-15 3.25000E+01 7.27273E+00
 -1      3432 1.99005E-15 3.25000E+01 8.18182E+00
 -1      3433 1.99005E-15 3.25000E+01 9.09091E+00
 -1      3434 1.83697E-15 3.00000E+01 9.09091E-01
 -1      3435 1.83697E-15 3.00000E+01 1.81818E+00
 -1      3436 1.83697E-15 3.00000E+01 2.72727E+00
 -1      3437 1.83697E-15 3.00000E+01 3.63636E+00
 -1      3438 1.83697E-15 3.00000E+01 4.54545E+00
 -1      3439 1.83697E-15 3.00000E+01 5.45455E+00
 -1      3440 1.83697E-15 3.00000E+01 6.36364E+00
 -1      3441 1.83697E-15 3.00000E+01 7.27273E+00
 -1      3442 1.83697E-15 3.00000E+01 8.18182E+00
 -1      3443 1.83697E-15 3.00000E+01 9.09091E+00
 -1      3444 1.68389E-15 2.75000E+01 9.09091E-01
 -1      3445 1.68389E-15 2.75000E+01 1.81818E+00
 -1      3446 1.68389E-15 2.75000E+01 2.72727E+00
 -1      3447 1.68389E-15 2.75000E+01 3.63636E+00
 -1      3448 1.68389E-15 2.75000E+01 4.54545E+00
 -1      3449 1.68389E-15 2.75000E+01 5.45455E+00
 -1      3450 1.68389E-15 2.75000E+01 6.36364E+00
 -1      3451 1.68389E-15 2.75000E+01 7.27273E+00
 -1      3452 1.68389E-15 2.75000E+01 8.18182E+00
 -1      3453 1.68389E-15 2.75000E+01 9.09091E+00
 -1      3454 5.97015E-15 9.75000E+01 4.54545E-01
 -1      3455 6.04669E-15 9.87500E+01 9.09091E-01
 -1      3457 5.97015E-15 9.75000E+01 1.36364E+00
 -1      3458 6.04669E-15 9.87500E+01 1.81818E+00
 -1      3460 5.97015E-15 9.75000E+01 2.27273E+00
 -1      3461 6.04669E-15 9.87500E+01 2.72727E+00
 -1      3463 5.97015E-15 9.75000E+01 3.18182E+00
 -1      3464 6.04669E-15 9.87500E+01 3.63636E+00
 -1      3466 5.97015E-15 9.75000E+01 4.09091E+00
 -1      3467 6.04669E-15 9.87500E+01 4.54545E+00
 -1      3469 5.97015E-15 9.75000E+01 5.00000E+00
 -1      3470 6.04669E-15 9.87500E+01 5.45455E+00
 -1      3472 5.97015E-15 9.75000E+01 5.90909E+00
 -1      3473 6.04669E-15 9.87500E+01 6.36364E+00
 -1      3475 5.97015E-15 9.75000E+01 6.81818E+00
 -1      3476 6.04669E-15 9.87500E+01 7.27273E+00
 -1      3478 5.97015E-15 9.75000E+01 7.72727E+00
 -1      3479 6.04669E-15 9.87500E+01 8.18182E+00
 -1      3481 5.97015E-15 9.75000E+01 8.63636E+00
 -1      3482 6.04669E-15 9.87500E+01 9.09091E+00
 -1      3484 5.97015E-15 9.75000E+01 9.54545E+00
 -1      3486 5.81707E-15 9.50000E+01 4.54545E-01
 -1      3487 5.89361E-15 9.62500E+01 9.09091E-01
 -1      3489 5.81707E-15 9.50000E+01 1.36364E+00
 -1      3490 5.89361E-15 9.62500E+01 1.81818E+00
 -1      3492 5.81707E-15 9.50000E+01 2.27273E+00
 -1      3493 5.89361E-15 9.62500E+01 2.72727E+00
 -1      3495 5.81707E-15 9.50000E+01 3.18182E+00
 -1      3496 5.89361E-15 9.62500E+01 3.63636E+00
 -1      3498 5.81707E-15 9.50000E+01 4.09091E+00
 -1      3499 5.89361E-15 9.62500E+01 4.54545E+00
 -1      3501 5.81707E-15 9.50000E+01 5.00000E+00
 -1      3502 5.89361E-15 9.62500E+01 5.45455E+00
 -1      3504 5.81707E-15 9.50000E+01 5.90909E+00
 -1      3505 5.89361E-15 9.62500E+01 6.36364E+00
 -1      3507 5.81707E-15 9.50000E+01 6.81818E+00
 -1      3508 5.89361E-15 9.62500E+01 7.27273E+00
 -1      3510 5.81707E-15 9.50000E+01 7.72727E+00
 -1      3511 5.89361E-15 9.62500E+01 8.18182E+00
 -1      3513 5.81707E-15 9.50000E+01 8.63636E+00
 -1      3514 5.89361E-15 9.62500E+01 9.09091E+00
 -1      3516 5.81707E-15 9.50000E+01 9.54545E+00
 -1      3518 5.66399E-15 9.25000E+01 4.54545E-01
 -1      3519 5.74053E-15 9.37500E+01 9.09091E-01
 -1      3521 5.66399E-15 9.25000E+01 1.36364E+00
 -1      3522 5.74053E-15 9.37500E+01 1.81818E+00
 -1      3524 5.66399E-15 9.25000E+01 2.27273E+00
 -1      3525 5.74053E-15 9.37500E+01 2.72727E+00
 -1      3527 5.66399E-15 9.25000E+01 3.18182E+00
 -1      3528 5.74053E-15 9.37500E+01 3.63636E+00
 -1      3530 5.66399E-15 9.25000E+01 4.09091E+00
 -1      3531 5.74053E-15 9.37500E+01 4.54545E+00
 -1      3533 5.66399E-15 9.25000E+01 5.00000E+00
 -1      3534 5.74053E-15 9.37500E+01 5.45455E+00
 -1      3536 5.66399E-15 9.25000E+01 5.90909E+00
 -1      3537 5.74053E-15 9.37500E+01 6.36364E+00
 -1      3539 5.66399E-15 9.25000E+01 6.81818E+00
 -1      3540 5.74053E-15 9.37500E+01 7.27273E+00
 -1      3542 5.66399E-15 9.25000E+01 7.72727E+00
 -1      3543 5.74053E-15 9.37500E+01 8.18182E+00
 -1      3545 5.66399E-15 9.25000E+01 8.63636E+00
 -1      3546 5.74053E-15 9.37500E+01 9.09091E+00
 -1      3548 5.66399E-15 9.25000E+01 9.54545E+00
 -1      3550 5.51091E-15 9.00000E+01 4.54545E-01
 -1      3551 5.58745E-15 9.12500E+01 9.09091E-01
 -1      3553 5.51091E-15 9.00000E+01 1.36364E+00
 -1      3554 5.58745E-15 9.12500E+01 1.81818E+00
 -1      3556 5.51091E-15 9.00000E+01 2.27273E+00
 -1      3557 5.58745E-15 9.12500E+01 2.72727E+00
 -1      3559 5.51091E-15 9.00000E+01 3.18182E+00
 -1      3560 5.58745E-15 9.12500E+01 3.63636E+00
 -1      3562 5.51091E-15 9.00000E+01 4.09091E+00
 -1      3563 5.58745E-15 9.12500E+01 4.54545E+00
 -1      3565 5.51091E-15 9.00000E+01 5.00000E+00
 -1      3566 5.58745E-15 9.12500E+01 5.45455E+00
 -1      3568 5.51091E-15 9.00000E+01 5.90909E+00
 -1      3569 5.58745E-15 9.12500E+01 6.36364E+00
 -1      3571 5.51091E-15 9.00000E+01 6.81818E+00
 -1      3572 5.58745E-15 9.12500E+01 7.27273E+00
 -1      3574 5.51091E-15 9.00000E+01 7.72727E+00
 -1      3575 5.58745E-15 9.12500E+01 8.18182E+00
 -1      3577 5.51091E-15 9.00000E+01 8.63636E+00
 -1      3578 5.58745E-15 9.12500E+01 9.09091E+00
 -1      3580 5.51091E-15 9.00000E+01 9.54545E+00
 -1      3582 5.35783E-15 8.75000E+01 4.54545E-01
 -1      3583 5.43437E-15 8.87500E+01 9.09091E-01
 -1      3585 5.35783E-15 8.75000E+01 1.36364E+00
 -1      3586 5.43437E-15 8.87500E+01 1.81818E+00
 -1      3588 5.35783E-15 8.75000E+01 2.27273E+00
 -1      3589 5.43437E-15 8.87500E+01 2.72727E+00
 -1      3591 5.35783E-15 8.75000E+01 3.18182E+00
 -1      3592 5.43437E-15 8.87500E+01 3.63636E+00
 -1      3594 5.35783E-15 8.75000E+01 4.09091E+00
 -1      3595 5.43437E-15 8.87500E+01 4.54545E+00
 -1      3597 5.35783E-15 8.75000E+01 5.00000E+00
 -1      3598 5.43437E-15 8.87500E+01 5.45455E+00
 -1      3600 5.35783E-15 8.75000E+01 5.90909E+00
 -1      3601 5.43437E-15 8.87500E+01 6.36364E+00
 -1      3603 5.35783E-15 8.75000E+01 6.81818E+00
 -1      3604 5.43437E-15 8.87500E+01 7.27273E+00
 -1      3606 5.35783E-15 8.75000E+01 7.72727E+00
 -1      3607 5.43437E-15 8.87500E+01 8.18182E+00
 -1      3609 5.35783E-15 8.75000E+01 8.63636E+00
 -1      3610 5.43437E-15 8.87500E+01 9.09091E+00
 -1      3612 5.35783E-15 8.75000E+01 9.54545E+00
 -1      3614 5.20475E-15 8.50000E+01 4.54545E-01
 -1      3615 5.28129E-15 8.62500E+01 9.09091E-01
 -1      3617 5.20475E-15 8.50000E+01 1.36364E+00
 -1      3618 5.28129E-15 8.62500E+01 1.81818E+00
 -1      3620 5.20475E-15 8.50000E+01 2.27273E+00
 -1      3621 5.28129E-15 8.62500E+01 2.72727E+00
 -1      3623 5.20475E-15 8.50000E+01 3.18182E+00
 -1      3624 5.28129E-15 8.62500E+01 3.63636E+00
 -1      3626 5.20475E-15 8.50000E+01 4.09091E+00
 -1      3627 5.28129E-15 8.62500E+01 4.54545E+00
 -1      3629 5.20475E-15 8.50000E+01 5.00000E+00
 -1      3630 5.28129E-15 8.62500E+01 5.45455E+00
 -1      3632 5.20475E-15 8.50000E+01 5.90909E+00
 -1      3633 5.28129E-15 8.62500E+01 6.36364E+00
 -1      3635 5.20475E-15 8.50000E+01 6.81818E+00
 -1      3636 5.28129E-15 8.62500E+01 7.27273E+00
 -1      3638 5.20475E-15 8.50000E+01 7.72727E+00
 -1      3639 5.28129E-15 8.62500E+01 8.18182E+00
 -1      3641 5.20475E-15 8.50000E+01 8.63636E+00
 -1      3642 5.28129E-15 8.62500E+01 9.09091E+00
 -1      3644 5.20475E-15 8.50000E+01 9.54545E+00
 -1      3646 5.05167E-15 8.25000E+01 4.54545E-01
 -1      3647 5.12821E-15 8.37500E+01 9.09091E-01
 -1      3649 5.05167E-15 8.25000E+01 1.36364E+00
 -1      3650 5.12821E-15 8.37500E+01 1.81818E+00
 -1      3652 5.05167E-15 8.25000E+01 2.27273E+00
 -1      3653 5.12821E-15 8.37500E+01 2.72727E+00
 -1      3655 5.05167E-15 8.25000E+01 3.18182E+00
 -1      3656 5.12821E-15 8.37500E+01 3.63636E+00
 -1      3658 5.05167E-15 8.25000E+01 4.09091E+00
 -1      3659 5.12821E-15 8.37500E+01 4.54545E+00
 -1      3661 5.05167E-15 8.25000E+01 5.00000E+00
 -1      3662 5.12821E-15 8.37500E+01 5.45455E+00
 -1      3664 5.05167E-15 8.25000E+01 5.90909E+00
 -1      3665 5.12821E-15 8.37500E+01 6.36364E+00
 -1      3667 5.05167E-15 8.25000E+01 6.81818E+00
 -1      3668 5.12821E-15 8.37500E+01 7.27273E+00
 -1      3670 5.05167E-15 8.25000E+01 7.72727E+00
 -1      3671 5.12821E-15 8.37500E+01 8.18182E+00
 -1      3673 5.05167E-15 8.25000E+01 8.63636E+00
 -1      3674 5.12821E-15 8.37500E+01 9.09091E+00
 -1      3676 5.05167E-15 8.25000E+01 9.54545E+00
 -1      3678 4.89859E-15 8.00000E+01 4.54545E-01
 -1      3679 4.97513E-15 8.12500E+01 9.09091E-01
 -1      3681 4.89859E-15 8.00000E+01 1.36364E+00
 -1      3682 4.97513E-15 8.12500E+01 1.81818E+00
 -1      3684 4.89859E-15 8.00000E+01 2.27273E+00
 -1      3685 4.97513E-15 8.12500E+01 2.72727E+00
 -1      3687 4.89859E-15 8.00000E+01 3.18182E+00
 -1      3688 4.97513E-15 8.12500E+01 3.63636E+00
 -1      3690 4.89859E-15 8.00000E+01 4.09091E+00
 -1      3691 4.97513E-15 8.12500E+01 4.54545E+00
 -1      3693 4.89859E-15 8.00000E+01 5.00000E+00
 -1      3694 4.97513E-15 8.12500E+01 5.45455E+00
 -1      3696 4.89859E-15 8.00000E+01 5.90909E+00
 -1      3697 4.97513E-15 8.12500E+01 6.36364E+00
 -1      3699 4.89859E-15 8.00000E+01 6.81818E+00
 -1      3700 4.97513E-15 8.12500E+01 7.27273E+00
 -1      3702 4.89859E-15 8.00000E+01 7.72727E+00
 -1      3703 4.97513E-15 8.12500E+01 8.18182E+00
 -1      3705 4.89859E-15 8.00000E+01 8.63636E+00
 -1      3706 4.97513E-15 8.12500E+01 9.09091E+00
 -1      3708 4.89859E-15 8.00000E+01 9.54545E+00
 -1      3710 4.74551E-15 7.75000E+01 4.54545E-01
 -1      3711 4.82205E-15 7.87500E+01 9.09091E-01
 -1      3713 4.74551E-15 7.75000E+01 1.36364E+00
 -1      3714 4.82205E-15 7.87500E+01 1.81818E+00
 -1      3716 4.74551E-15 7.75000E+01 2.27273E+00
 -1      3717 4.82205E-15 7.87500E+01 2.72727E+00
 -1      3719 4.74551E-15 7.75000E+01 3.18182E+00
 -1      3720 4.82205E-15 7.87500E+01 3.63636E+00
 -1      3722 4.74551E-15 7.75000E+01 4.09091E+00
 -1      3723 4.82205E-15 7.87500E+01 4.54545E+00
 -1      3725 4.74551E-15 7.75000E+01 5.00000E+00
 -1      3726 4.82205E-15 7.87500E+01 5.45455E+00
 -1      3728 4.74551E-15 7.75000E+01 5.90909E+00
 -1      3729 4.82205E-15 7.87500E+01 6.36364E+00
 -1      3731 4.74551E-15 7.75000E+01 6.81818E+00
 -1      3732 4.82205E-15 7.87500E+01 7.27273E+00
 -1      3734 4.74551E-15 7.75000E+01 7.72727E+00
 -1      3735 4.82205E-15 7.87500E+01 8.18182E+00
 -1      3737 4.74551E-15 7.75000E+01 8.63636E+00
 -1      3738 4.82205E-15 7.87500E+01 9.09091E+00
 -1      3740 4.74551E-15 7.75000E+01 9.54545E+00
 -1      3742 4.59243E-15 7.50000E+01 4.54545E-01
 -1      3743 4.66897E-15 7.62500E+01 9.09091E-01
 -1      3745 4.59243E-15 7.50000E+01 1.36364E+00
 -1      3746 4.66897E-15 7.62500E+01 1.81818E+00
 -1      3748 4.59243E-15 7.50000E+01 2.27273E+00
 -1      3749 4.66897E-15 7.62500E+01 2.72727E+00
 -1      3751 4.59243E-15 7.50000E+01 3.18182E+00
 -1      3752 4.66897E-15 7.62500E+01 3.63636E+00
 -1      3754 4.59243E-15 7.50000E+01 4.09091E+00
 -1      3755 4.66897E-15 7.62500E+01 4.54545E+00
 -1      3757 4.59243E-15 7.50000E+01 5.00000E+00
 -1      3758 4.66897E-15 7.62500E+01 5.45455E+00
 -1      3760 4.59243E-15 7.50000E+01 5.90909E+00
 -1      3761 4.66897E-15 7.62500E+01 6.36364E+00
 -1      3763 4.59243E-15 7.50000E+01 6.81818E+00
 -1      3764 4.66897E-15 7.62500E+01 7.27273E+00
 -1      3766 4.59243E-15 7.50000E+01 7.72727E+00
 -1      3767 4.66897E-15 7.62500E+01 8.18182E+00
 -1      3769 4.59243E-15 7.50000E+01 8.63636E+00
 -1      3770 4.66897E-15 7.62500E+01 9.09091E+00
 -1      3772 4.59243E-15 7.50000E+01 9.54545E+00
 -1      3774 4.43934E-15 7.25000E+01 4.54545E-01
 -1      3775 4.51589E-15 7.37500E+01 9.09091E-01
 -1      3777 4.43934E-15 7.25000E+01 1.36364E+00
 -1      3778 4.51589E-15 7.37500E+01 1.81818E+00
 -1      3780 4.43934E-15 7.25000E+01 2.27273E+00
 -1      3781 4.51589E-15 7.37500E+01 2.72727E+00
 -1      3783 4.43934E-15 7.25000E+01 3.18182E+00
 -1      3784 4.51589E-15 7.37500E+01 3.63636E+00
 -1      3786 4.43934E-15 7.25000E+01 4.09091E+00
 -1      3787 4.51589E-15 7.37500E+01 4.54545E+00
 -1      3789 4.43934E-15 7.25000E+01 5.00000E+00
 -1      3790 4.51589E-15 7.37500E+01 5.45455E+00
 -1      3792 4.43934E-15 7.25000E+01 5.90909E+00
 -1      3793 4.51589E-15 7.37500E+01 6.36364E+00
 -1      3795 4.43934E-15 7.25000E+01 6.81818E+00
 -1      3796 4.51589E-15 7.37500E+01 7.27273E+00
 -1      3798 4.43934E-15 7.25000E+01 7.72727E+00
 -1      3799 4.51589E-15 7.37500E+01 8.18182E+00
 -1      3801 4.43934E-15 7.25000E+01 8.63636E+00
 -1      3802 4.51589E-15 7.37500E+01 9.09091E+00
 -1      3804 4.43934E-15 7.25000E+01 9.54545E+00
 -1      3806 4.28626E-15 7.00000E+01 4.54545E-01
 -1      3807 4.36280E-15 7.12500E+01 9.09091E-01
 -1      3809 4.28626E-15 7.00000E+01 1.36364E+00
 -1      3810 4.36280E-15 7.12500E+01 1.81818E+00
 -1      3812 4.28626E-15 7.00000E+01 2.27273E+00
 -1      3813 4.36280E-15 7.12500E+01 2.72727E+00
 -1      3815 4.28626E-15 7.00000E+01 3.18182E+00
 -1      3816 4.36280E-15 7.12500E+01 3.63636E+00
 -1      3818 4.28626E-15 7.00000E+01 4.09091E+00
 -1      3819 4.36280E-15 7.12500E+01 4.54545E+00
 -1      3821 4.28626E-15 7.00000E+01 5.00000E+00
 -1      3822 4.36280E-15 7.12500E+01 5.45455E+00
 -1      3824 4.28626E-15 7.00000E+01 5.90909E+00
 -1      3825 4.36280E-15 7.12500E+01 6.36364E+00
 -1      3827 4.28626E-15 7.00000E+01 6.81818E+00
 -1      3828 4.36280E-15 7.12500E+01 7.27273E+00
 -1      3830 4.28626E-15 7.00000E+01 7.72727E+00
 -1      3831 4.36280E-15 7.12500E+01 8.18182E+00
 -1      3833 4.28626E-15 7.00000E+01 8.63636E+00
 -1      3834 4.36280E-15 7.12500E+01 9.09091E+00
 -1      3836 4.28626E-15 7.00000E+01 9.54545E+00
 -1      3838 4.13318E-15 6.75000E+01 4.54545E-01
 -1      3839 4.20972E-15 6.87500E+01 9.09091E-01
 -1      3841 4.13318E-15 6.75000E+01 1.36364E+00
 -1      3842 4.20972E-15 6.87500E+01 1.81818E+00
 -1      3844 4.13318E-15 6.75000E+01 2.27273E+00
 -1      3845 4.20972E-15 6.87500E+01 2.72727E+00
 -1      3847 4.13318E-15 6.75000E+01 3.18182E+00
 -1      3848 4.20972E-15 6.87500E+01 3.63636E+00
 -1      3850 4.13318E-15 6.75000E+01 4.09091E+00
 -1      3851 4.20972E-15 6.87500E+01 4.54545E+00
 -1      3853 4.13318E-15 6.75000E+01 5.00000E+00
 -1      3854 4.20972E-15 6.87500E+01 5.45455E+00
 -1      3856 4.13318E-15 6.75000E+01 5.90909E+00
 -1      3857 4.20972E-15 6.87500E+01 6.36364E+00
 -1      3859 4.13318E-15 6.75000E+01 6.81818E+00
 -1      3860 4.20972E-15 6.87500E+01 7.27273E+00
 -1      3862 4.13318E-15 6.75000E+01 7.72727E+00
 -1      3863 4.20972E-15 6.87500E+01 8.18182E+00
 -1      3865 4.13318E-15 6.75000E+01 8.63636E+00
 -1      3866 4.20972E-15 6.87500E+01 9.09091E+00
 -1      3868 4.13318E-15 6.75000E+01 9.54545E+00
 -1      3870 3.98010E-15 6.50000E+01 4.54545E-01
 -1      3871 4.05664E-15 6.62500E+01 9.09091E-01
 -1      3873 3.98010E-15 6.50000E+01 1.36364E+00
 -1      3874 4.05664E-15 6.62500E+01 1.81818E+00
 -1      3876 3.98010E-15 6.50000E+01 2.27273E+00
 -1      3877 4.05664E-15 6.62500E+01 2.72727E+00
 -1      3879 3.98010E-15 6.50000E+01 3.18182E+00
 -1      3880 4.05664E-15 6.62500E+01 3.63636E+00
 -1      3882 3.98010E-15 6.50000E+01 4.09091E+00
 -1      3883 4.05664E-15 6.62500E+01 4.54545E+00
 -1      3885 3.98010E-15 6.50000E+01 5.00000E+00
 -1      3886 4.05664E-15 6.62500E+01 5.45455E+00
 -1      3888 3.98010E-15 6.50000E+01 5.90909E+00
 -1      3889 4.05664E-15 6.62500E+01 6.36364E+00
 -1      3891 3.98010E-15 6.50000E+01 6.81818E+00
 -1      3892 4.05664E-15 6.62500E+01 7.27273E+00
 -1      3894 3.98010E-15 6.50000E+01 7.72727E+00
 -1      3895 4.05664E-15 6.62500E+01 8.18182E+00
 -1      3897 3.98010E-15 6.50000E+01 8.63636E+00
 -1      3898 4.05664E-15 6.62500E+01 9.09091E+00
 -1      3900 3.98010E-15 6.50000E+01 9.54545E+00
 -1      3902 3.82702E-15 6.25000E+01 4.54545E-01
 -1      3903 3.90356E-15 6.37500E+01 9.09091E-01
 -1      3905 3.82702E-15 6.25000E+01 1.36364E+00
 -1      3906 3.90356E-15 6.37500E+01 1.81818E+00
 -1      3908 3.82702E-15 6.25000E+01 2.27273E+00
 -1      3909 3.90356E-15 6.37500E+01 2.72727E+00
 -1      3911 3.82702E-15 6.25000E+01 3.18182E+00
 -1      3912 3.90356E-15 6.37500E+01 3.63636E+00
 -1      3914 3.82702E-15 6.25000E+01 4.09091E+00
 -1      3915 3.90356E-15 6.37500E+01 4.54545E+00
 -1      3917 3.82702E-15 6.25000E+01 5.00000E+00
 -1      3918 3.90356E-15 6.37500E+01 5.45455E+00
 -1      3920 3.82702E-15 6.25000E+01 5.90909E+00
 -1      3921 3.90356E-15 6.37500E+01 6.36364E+00
 -1      3923 3.82702E-15 6.25000E+01 6.81818E+00
 -1      3924 3.90356E-15 6.37500E+01 7.27273E+00
 -1      3926 3.82702E-15 6.25000E+01 7.72727E+00
 -1      3927 3.90356E-15 6.37500E+01 8.18182E+00
 -1      3929 3.82702E-15 6.25000E+01 8.63636E+00
 -1      3930 3.90356E-15 6.37500E+01 9.09091E+00
 -1      3932 3.82702E-15 6.25000E+01 9.54545E+00
 -1      3934 3.67394E-15 6.00000E+01 4.54545E-01
 -1      3935 3.75048E-15 6.12500E+01 9.09091E-01
 -1      3937 3.67394E-15 6.00000E+01 1.36364E+00
 -1      3938 3.75048E-15 6.12500E+01 1.81818E+00
 -1      3940 3.67394E-15 6.00000E+01 2.27273E+00
 -1      3941 3.75048E-15 6.12500E+01 2.72727E+00
 -1      3943 3.67394E-15 6.00000E+01 3.18182E+00
 -1      3944 3.75048E-15 6.12500E+01 3.63636E+00
 -1      3946 3.67394E-15 6.00000E+01 4.09091E+00
 -1      3947 3.75048E-15 6.12500E+01 4.54545E+00
 -1      3949 3.67394E-15 6.00000E+01 5.00000E+00
 -1      3950 3.75048E-15 6.12500E+01 5.45455E+00
 -1      3952 3.67394E-15 6.00000E+01 5.90909E+00
 -1      3953 3.75048E-15 6.12500E+01 6.36364E+00
 -1      3955 3.67394E-15 6.00000E+01 6.81818E+00
 -1      3956 3.75048E-15 6.12500E+01 7.27273E+00
 -1      3958 3.67394E-15 6.00000E+01 7.72727E+00
 -1      3959 3.75048E-15 6.12500E+01 8.18182E+00
 -1      3961 3.67394E-15 6.00000E+01 8.63636E+00
 -1      3962 3.75048E-15 6.12500E+01 9.09091E+00
 -1      3964 3.67394E-15 6.00000E+01 9.54545E+00
 -1      3966 3.52086E-15 5.75000E+01 4.54545E-01
 -1      3967 3.59740E-15 5.87500E+01 9.09091E-01
 -1      3969 3.52086E-15 5.75000E+01 1.36364E+00
 -1      3970 3.59740E-15 5.87500E+01 1.81818E+00
 -1      3972 3.52086E-15 5.75000E+01 2.27273E+00
 -1      3973 3.59740E-15 5.87500E+01 2.72727E+00
 -1      3975 3.52086E-15 5.75000E+01 3.18182E+00
 -1      3976 3.59740E-15 5.87500E+01 3.63636E+00
 -1      3978 3.52086E-15 5.75000E+01 4.09091E+00
 -1      3979 3.59740E-15 5.87500E+01 4.54545E+00
 -1      3981 3.52086E-15 5.75000E+01 5.00000E+00
 -1      3982 3.59740E-15 5.87500E+01 5.45455E+00
 -1      3984 3.52086E-15 5.75000E+01 5.90909E+00
 -1      3985 3.59740E-15 5.87500E+01 6.36364E+00
 -1      3987 3.52086E-15 5.75000E+01 6.81818E+00
 -1      3988 3.59740E-15 5.87500E+01 7.27273E+00
 -1      3990 3.52086E-15 5.75000E+01 7.72727E+00
 -1      3991 3.59740E-15 5.87500E+01 8.18182E+00
 -1      3993 3.52086E-15 5.75000E+01 8.63636E+00
 -1      3994 3.59740E-15 5.87500E+01 9.09091E+00
 -1      3996 3.52086E-15 5.75000E+01 9.54545E+00
 -1      3998 3.36778E-15 5.50000E+01 4.54545E-01
 -1      3999 3.44432E-15 5.62500E+01 9.09091E-01
 -1      4001 3.36778E-15 5.50000E+01 1.36364E+00
 -1      4002 3.44432E-15 5.62500E+01 1.81818E+00
 -1      4004 3.36778E-15 5.50000E+01 2.27273E+00
 -1      4005 3.44432E-15 5.62500E+01 2.72727E+00
 -1      4007 3.36778E-15 5.50000E+01 3.18182E+00
 -1      4008 3.44432E-15 5.62500E+01 3.63636E+00
 -1      4010 3.36778E-15 5.50000E+01 4.09091E+00
 -1      4011 3.44432E-15 5.62500E+01 4.54545E+00
 -1      4013 3.36778E-15 5.50000E+01 5.00000E+00
 -1      4014 3.44432E-15 5.62500E+01 5.45455E+00
 -1      4016 3.36778E-15 5.50000E+01 5.90909E+00
 -1      4017 3.44432E-15 5.62500E+01 6.36364E+00
 -1      4019 3.36778E-15 5.50000E+01 6.81818E+00
 -1      4020 3.44432E-15 5.62500E+01 7.27273E+00
 -1      4022 3.36778E-15 5.50000E+01 7.72727E+00
 -1      4023 3.44432E-15 5.62500E+01 8.18182E+00
 -1      4025 3.36778E-15 5.50000E+01 8.63636E+00
 -1      4026 3.44432E-15 5.62500E+01 9.09091E+00
 -1      4028 3.36778E-15 5.50000E+01 9.54545E+00
 -1      4030 3.21470E-15 5.25000E+01 4.54545E-01
 -1      4031 3.29124E-15 5.37500E+01 9.09091E-01
 -1      4033 3.21470E-15 5.25000E+01 1.36364E+00
 -1      4034 3.29124E-15 5.37500E+01 1.81818E+00
 -1      4036 3.21470E-15 5.25000E+01 2.27273E+00
 -1      4037 3.29124E-15 5.37500E+01 2.72727E+00
 -1      4039 3.21470E-15 5.25000E+01 3.18182E+00
 -1      4040 3.29124E-15 5.37500E+01 3.63636E+00
 -1      4042 3.21470E-15 5.25000E+01 4.09091E+00
 -1      4043 3.29124E-15 5.37500E+01 4.54545E+00
 -1      4045 3.21470E-15 5.25000E+01 5.00000E+00
 -1      4046 3.29124E-15 5.37500E+01 5.45455E+00
 -1      4048 3.21470E-15 5.25000E+01 5.90909E+00
 -1      4049 3.29124E-15 5.37500E+01 6.36364E+00
 -1      4051 3.21470E-15 5.25000E+01 6.81818E+00
 -1      4052 3.29124E-15 5.37500E+01 7.27273E+00
 -1      4054 3.21470E-15 5.25000E+01 7.72727E+00
 -1      4055 3.29124E-15 5.37500E+01 8.18182E+00
 -1      4057 3.21470E-15 5.25000E+01 8.63636E+00
 -1      4058 3.29124E-15 5.37500E+01 9.09091E+00
 -1      4060 3.21470E-15 5.25000E+01 9.54545E+00
 -1      4062 3.06162E-15 5.00000E+01 4.54545E-01
 -1      4063 3.13816E-15 5.12500E+01 9.09091E-01
 -1      4065 3.06162E-15 5.00000E+01 1.36364E+00
 -1      4066 3.13816E-15 5.12500E+01 1.81818E+00
 -1      4068 3.06162E-15 5.00000E+01 2.27273E+00
 -1      4069 3.13816E-15 5.12500E+01 2.72727E+00
 -1      4071 3.06162E-15 5.00000E+01 3.18182E+00
 -1      4072 3.13816E-15 5.12500E+01 3.63636E+00
 -1      4074 3.06162E-15 5.00000E+01 4.09091E+00
 -1      4075 3.13816E-15 5.12500E+01 4.54545E+00
 -1      4077 3.06162E-15 5.00000E+01 5.00000E+00
 -1      4078 3.13816E-15 5.12500E+01 5.45455E+00
 -1      4080 3.06162E-15 5.00000E+01 5.90909E+00
 -1      4081 3.13816E-15 5.12500E+01 6.36364E+00
 -1      4083 3.06162E-15 5.00000E+01 6.81818E+00
 -1      4084 3.13816E-15 5.12500E+01 7.27273E+00
 -1      4086 3.06162E-15 5.00000E+01 7.72727E+00
 -1      4087 3.13816E-15 5.12500E+01 8.18182E+00
 -1      4089 3.06162E-15 5.00000E+01 8.63636E+00
 -1      4090 3.13816E-15 5.12500E+01 9.09091E+00
 -1      4092 3.06162E-15 5.00000E+01 9.54545E+00
 -1      4094 2.90854E-15 4.75000E+01 4.54545E-01
 -1      4095 2.98508E-15 4.87500E+01 9.09091E-01
 -1      4097 2.90854E-15 4.75000E+01 1.36364E+00
 -1      4098 2.98508E-15 4.87500E+01 1.81818E+00
 -1      4100 2.90854E-15 4.75000E+01 2.27273E+00
 -1      4101 2.98508E-15 4.87500E+01 2.72727E+00
 -1      4103 2.90854E-15 4.75000E+01 3.18182E+00
 -1      4104 2.98508E-15 4.87500E+01 3.63636E+00
 -1      4106 2.90854E-15 4.75000E+01 4.09091E+00
 -1      4107 2.98508E-15 4.87500E+01 4.54545E+00
 -1      4109 2.90854E-15 4.75000E+01 5.00000E+00
 -1      4110 2.98508E-15 4.87500E+01 5.45455E+00
 -1      4112 2.90854E-15 4.75000E+01 5.90909E+00
 -1      4113 2.98508E-15 4.87500E+01 6.36364E+00
 -1      4115 2.90854E-15 4.75000E+01 6.81818E+00
 -1      4116 2.98508E-15 4.87500E+01 7.27273E+00
 -1      4118 2.90854E-15 4.75000E+01 7.72727E+00
 -1      4119 2.98508E-15 4.87500E+01 8.18182E+00
 -1      4121 2.90854E-15 4.75000E+01 8.63636E+00
 -1      4122 2.98508E-15 4.87500E+01 9.09091E+00
 -1      4124 2.90854E-15 4.75000E+01 9.54545E+00
 -1      4126 2.75546E-15 4.50000E+01 4.54545E-01
 -1      4127 2.83200E-15 4.62500E+01 9.09091E-01
 -1      4129 2.75546E-15 4.50000E+01 1.36364E+00
 -1      4130 2.83200E-15 4.62500E+01 1.81818E+00
 -1      4132 2.75546E-15 4.50000E+01 2.27273E+00
 -1      4133 2.83200E-15 4.62500E+01 2.72727E+00
 -1      4135 2.75546E-15 4.50000E+01 3.18182E+00
 -1      4136 2.83200E-15 4.62500E+01 3.63636E+00
 -1      4138 2.75546E-15 4.50000E+01 4.09091E+00
 -1      4139 2.83200E-15 4.62500E+01 4.54545E+00
 -1      4141 2.75546E-15 4.50000E+01 5.00000E+00
 -1      4142 2.83200E-15 4.62500E+01 5.45455E+00
 -1      4144 2.75546E-15 4.50000E+01 5.90909E+00
 -1      4145 2.83200E-15 4.62500E+01 6.36364E+00
 -1      4147 2.75546E-15 4.50000E+01 6.81818E+00
 -1      4148 2.83200E-15 4.62500E+01 7.27273E+00
 -1      4150 2.75546E-15 4.50000E+01 7.72727E+00
 -1      4151 2.83200E-15 4.62500E+01 8.18182E+00
 -1      4153 2.75546E-15 4.50000E+01 8.63636E+00
 -1      4154 2.83200E-15 4.62500E+01 9.09091E+00
 -1      4156 2.75546E-15 4.50000E+01 9.54545E+00
 -1      4158 2.60237E-15 4.25000E+01 4.54545E-01
 -1      4159 2.67891E-15 4.37500E+01 9.09091E-01
 -1      4161 2.60237E-15 4.25000E+01 1.36364E+00
 -1      4162 2.67891E-15 4.37500E+01 1.81818E+00
 -1      4164 2.60237E-15 4.25000E+01 2.27273E+00
 -1      4165 2.67891E-15 4.37500E+01 2.72727E+00
 -1      4167 2.60237E-15 4.25000E+01 3.18182E+00
 -1      4168 2.67891E-15 4.37500E+01 3.63636E+00
 -1      4170 2.60237E-15 4.25000E+01 4.09091E+00
 -1      4171 2.67891E-15 4.37500E+01 4.54545E+00
 -1      4173 2.60237E-15 4.25000E+01 5.00000E+00
 -1      4174 2.67891E-15 4.37500E+01 5.45455E+00
 -1      4176 2.60237E-15 4.25000E+01 5.90909E+00
 -1      4177 2.67891E-15 4.37500E+01 6.36364E+00
 -1      4179 2.60237E-15 4.25000E+01 6.81818E+00
 -1      4180 2.67891E-15 4.37500E+01 7.27273E+00
 -1      4182 2.60237E-15 4.25000E+01 7.72727E+00
 -1      4183 2.67891E-15 4.37500E+01 8.18182E+00
 -1      4185 2.60237E-15 4.25000E+01 8.63636E+00
 -1      4186 2.67891E-15 4.37500E+01 9.09091E+00
 -1      4188 2.60237E-15 4.25000E+01 9.54545E+00
 -1      4190 2.44929E-15 4.00000E+01 4.54545E-01
 -1      4191 2.52583E-15 4.12500E+01 9.09091E-01
 -1      4193 2.44929E-15 4.00000E+01 1.36364E+00
 -1      4194 2.52583E-15 4.12500E+01 1.81818E+00
 -1      4196 2.44929E-15 4.00000E+01 2.27273E+00
 -1      4197 2.52583E-15 4.12500E+01 2.72727E+00
 -1      4199 2.44929E-15 4.00000E+01 3.18182E+00
 -1      4200 2.52583E-15 4.12500E+01 3.63636E+00
 -1      4202 2.44929E-15 4.00000E+01 4.09091E+00
 -1      4203 2.52583E-15 4.12500E+01 4.54545E+00
 -1      4205 2.44929E-15 4.00000E+01 5.00000E+00
 -1      4206 2.52583E-15 4.12500E+01 5.45455E+00
 -1      4208 2.44929E-15 4.00000E+01 5.90909E+00
 -1      4209 2.52583E-15 4.12500E+01 6.36364E+00
 -1      4211 2.44929E-15 4.00000E+01 6.81818E+00
 -1      4212 2.52583E-15 4.12500E+01 7.27273E+00
 -1      4214 2.44929E-15 4.00000E+01 7.72727E+00
 -1      4215 2.52583E-15 4.12500E+01 8.18182E+00
 -1      4217 2.44929E-15 4.00000E+01 8.63636E+00
 -1      4218 2.52583E-15 4.12500E+01 9.09091E+00
 -1      4220 2.44929E-15 4.00000E+01 9.54545E+00
 -1      4222 2.29621E-15 3.75000E+01 4.54545E-01
 -1      4223 2.37275E-15 3.87500E+01 9.09091E-01
 -1      4225 2.29621E-15 3.75000E+01 1.36364E+00
 -1      4226 2.37275E-15 3.87500E+01 1.81818E+00
 -1      4228 2.29621E-15 3.75000E+01 2.27273E+00
 -1      4229 2.37275E-15 3.87500E+01 2.72727E+00
 -1      4231 2.29621E-15 3.75000E+01 3.18182E+00
 -1      4232 2.37275E-15 3.87500E+01 3.63636E+00
 -1      4234 2.29621E-15 3.75000E+01 4.09091E+00
 -1      4235 2.37275E-15 3.87500E+01 4.54545E+00
 -1      4237 2.29621E-15 3.75000E+01 5.00000E+00
 -1      4238 2.37275E-15 3.87500E+01 5.45455E+00
 -1      4240 2.29621E-15 3.75000E+01 5.90909E+00
 -1      4241 2.37275E-15 3.87500E+01 6.36364E+00
 -1      4243 2.29621E-15 3.75000E+01 6.81818E+00
 -1      4244 2.37275E-15 3.87500E+01 7.27273E+00
 -1      4246 2.29621E-15 3.75000E+01 7.72727E+00
 -1      4247 2.37275E-15 3.87500E+01 8.18182E+00
 -1      4249 2.29621E-15 3.75000E+01 8.63636E+00
 -1      4250 2.37275E-15 3.87500E+01 9.09091E+00
 -1      4252 2.29621E-15 3.75000E+01 9.54545E+00
 -1      4254 2.14313E-15 3.50000E+01 4.54545E-01
 -1      4255 2.21967E-15 3.62500E+01 9.09091E-01
 -1      4257 2.14313E-15 3.50000E+01 1.36364E+00
 -1      4258 2.21967E-15 3.62500E+01 1.81818E+00
 -1      4260 2.14313E-15 3.50000E+01 2.27273E+00
 -1      4261 2.21967E-15 3.62500E+01 2.72727E+00
 -1      4263 2.14313E-15 3.50000E+01 3.18182E+00
 -1      4264 2.21967E-15 3.62500E+01 3.63636E+00
 -1      4266 2.14313E-15 3.50000E+01 4.09091E+00
 -1      4267 2.21967E-15 3.62500E+01 4.54545E+00
 -1      4269 2.14313E-15 3.50000E+01 5.00000E+00
 -1      4270 2.21967E-15 3.62500E+01 5.45455E+00
 -1      4272 2.14313E-15 3.50000E+01 5.90909E+00
 -1      4273 2.21967E-15 3.62500E+01 6.36364E+00
 -1      4275 2.14313E-15 3.50000E+01 6.81818E+00
 -1      4276 2.21967E-15 3.62500E+01 7.27273E+00
 -1      4278 2.14313E-15 3.50000E+01 7.72727E+00
 -1      4279 2.21967E-15 3.62500E+01 8.18182E+00
 -1      4281 2.14313E-15 3.50000E+01 8.63636E+00
 -1      4282 2.21967E-15 3.62500E+01 9.09091E+00
 -1      4284 2.14313E-15 3.50000E+01 9.54545E+00
 -1      4286 1.99005E-15 3.25000E+01 4.54545E-01
 -1      4287 2.06659E-15 3.37500E+01 9.09091E-01
 -1      4289 1.99005E-15 3.25000E+01 1.36364E+00
 -1      4290 2.06659E-15 3.37500E+01 1.81818E+00
 -1      4292 1.99005E-15 3.25000E+01 2.27273E+00
 -1      4293 2.06659E-15 3.37500E+01 2.72727E+00
 -1      4295 1.99005E-15 3.25000E+01 3.18182E+00
 -1      4296 2.06659E-15 3.37500E+01 3.63636E+00
 -1      4298 1.99005E-15 3.25000E+01 4.09091E+00
 -1      4299 2.06659E-15 3.37500E+01 4.54545E+00
 -1      4301 1.99005E-15 3.25000E+01 5.00000E+00
 -1      4302 2.06659E-15 3.37500E+01 5.45455E+00
 -1      4304 1.99005E-15 3.25000E+01 5.90909E+00
 -1      4305 2.06659E-15 3.37500E+01 6.36364E+00
 -1      4307 1.99005E-15 3.25000E+01 6.81818E+00
 -1      4308 2.06659E-15 3.37500E+01 7.27273E+00
 -1      4310 1.99005E-15 3.25000E+01 7.72727E+00
 -1      4311 2.06659E-15 3.37500E+01 8.18182E+00
 -1      4313 1.99005E-15 3.25000E+01 8.63636E+00
 -1      4314 2.06659E-15 3.37500E+01 9.09091E+00
 -1      4316 1.99005E-15 3.25000E+01 9.54545E+00
 -1      4318 1.83697E-15 3.00000E+01 4.54545E-01
 -1      4319 1.91351E-15 3.12500E+01 9.09091E-01
 -1      4321 1.83697E-15 3.00000E+01 1.36364E+00
 -1      4322 1.91351E-15 3.12500E+01 1.81818E+00
 -1      4324 1.83697E-15 3.00000E+01 2.27273E+00
 -1      4325 1.91351E-15 3.12500E+01 2.72727E+00
 -1      4327 1.83697E-15 3.00000E+01 3.18182E+00
 -1      4328 1.91351E-15 3.12500E+01 3.63636E+00
 -1      4330 1.83697E-15 3.00000E+01 4.09091E+00
 -1      4331 1.91351E-15 3.12500E+01 4.54545E+00
 -1      4333 1.83697E-15 3.00000E+01 5.00000E+00
 -1      4334 1.91351E-15 3.12500E+01 5.45455E+00
 -1      4336 1.83697E-15 3.00000E+01 5.90909E+00
 -1      4337 1.91351E-15 3.12500E+01 6.36364E+00
 -1      4339 1.83697E-15 3.00000E+01 6.81818E+00
 -1      4340 1.91351E-15 3.12500E+01 7.27273E+00
 -1      4342 1.83697E-15 3.00000E+01 7.72727E+00
 -1      4343 1.91351E-15 3.12500E+01 8.18182E+00
 -1      4345 1.83697E-15 3.00000E+01 8.63636E+00
 -1      4346 1.91351E-15 3.12500E+01 9.09091E+00
 -1      4348 1.83697E-15 3.00000E+01 9.54545E+00
 -1      4350 1.68389E-15 2.75000E+01 4.54545E-01
 -1      4351 1.76043E-15 2.87500E+01 9.09091E-01
 -1      4353 1.68389E-15 2.75000E+01 1.36364E+00
 -1      4354 1.76043E-15 2.87500E+01 1.81818E+00
 -1      4356 1.68389E-15 2.75000E+01 2.27273E+00
 -1      4357 1.76043E-15 2.87500E+01 2.72727E+00
 -1      4359 1.68389E-15 2.75000E+01 3.18182E+00
 -1      4360 1.76043E-15 2.87500E+01 3.63636E+00
 -1      4362 1.68389E-15 2.75000E+01 4.09091E+00
 -1      4363 1.76043E-15 2.87500E+01 4.54545E+00
 -1      4365 1.68389E-15 2.75000E+01 5.00000E+00
 -1      4366 1.76043E-15 2.87500E+01 5.45455E+00
 -1      4368 1.68389E-15 2.75000E+01 5.90909E+00
 -1      4369 1.76043E-15 2.87500E+01 6.36364E+00
 -1      4371 1.68389E-15 2.75000E+01 6.81818E+00
 -1      4372 1.76043E-15 2.87500E+01 7.27273E+00
 -1      4374 1.68389E-15 2.75000E+01 7.72727E+00
 -1      4375 1.76043E-15 2.87500E+01 8.18182E+00
 -1      4377 1.68389E-15 2.75000E+01 8.63636E+00
 -1      4378 1.76043E-15 2.87500E+01 9.09091E+00
 -1      4380 1.68389E-15 2.75000E+01 9.54545E+00
 -1      4382 1.60735E-15 2.62500E+01 9.09091E-01
 -1      4384 1.60735E-15 2.62500E+01 1.81818E+00
 -1      4386 1.60735E-15 2.62500E+01 2.72727E+00
 -1      4388 1.60735E-15 2.62500E+01 3.63636E+00
 -1      4390 1.60735E-15 2.62500E+01 4.54545E+00
 -1      4392 1.60735E-15 2.62500E+01 5.45455E+00
 -1      4394 1.60735E-15 2.62500E+01 6.36364E+00
 -1      4396 1.60735E-15 2.62500E+01 7.27273E+00
 -1      4398 1.60735E-15 2.62500E+01 8.18182E+00
 -1      4400 1.60735E-15 2.62500E+01 9.09091E+00
 -1      4403 3.91086E+00 2.46922E+01 9.09091E-01
 -1      4404 3.91086E+00 2.46922E+01 1.81818E+00
 -1      4405 3.91086E+00 2.46922E+01 2.72727E+00
 -1      4406 3.91086E+00 2.46922E+01 3.63636E+00
 -1      4407 3.91086E+00 2.46922E+01 4.54545E+00
 -1      4408 3.91086E+00 2.46922E+01 5.45455E+00
 -1      4409 3.91086E+00 2.46922E+01 6.36364E+00
 -1      4410 3.91086E+00 2.46922E+01 7.27273E+00
 -1      4411 3.91086E+00 2.46922E+01 8.18182E+00
 -1      4412 3.91086E+00 2.46922E+01 9.09091E+00
 -1      4413 7.72542E+00 2.37764E+01 9.09091E-01
 -1      4414 7.72542E+00 2.37764E+01 1.81818E+00
 -1      4415 7.72542E+00 2.37764E+01 2.72727E+00
 -1      4416 7.72542E+00 2.37764E+01 3.63636E+00
 -1      4417 7.72542E+00 2.37764E+01 4.54545E+00
 -1      4418 7.72542E+00 2.37764E+01 5.45455E+00
 -1      4419 7.72542E+00 2.37764E+01 6.36364E+00
 -1      4420 7.72542E+00 2.37764E+01 7.27273E+00
 -1      4421 7.72542E+00 2.37764E+01 8.18182E+00
 -1      4422 7.72542E+00 2.37764E+01 9.09091E+00
 -1      4423 1.13498E+01 2.22752E+01 9.09091E-01
 -1      4424 1.13498E+01 2.22752E+01 1.81818E+00
 -1      4425 1.13498E+01 2.22752E+01 2.72727E+00
 -1      4426 1.13498E+01 2.22752E+01 3.63636E+00
 -1      4427 1.13498E+01 2.22752E+01 4.54545E+00
 -1      4428 1.13498E+01 2.22752E+01 5.45455E+00
 -1      4429 1.13498E+01 2.22752E+01 6.36364E+00
 -1      4430 1.13498E+01 2.22752E+01 7.27273E+00
 -1      4431 1.13498E+01 2.22752E+01 8.18182E+00
 -1      4432 1.13498E+01 2.22752E+01 9.09091E+00
 -1      4433 1.46946E+01 2.02254E+01 9.09091E-01
 -1      4434 1.46946E+01 2.02254E+01 1.81818E+00
 -1      4435 1.46946E+01 2.02254E+01 2.72727E+00
 -1      4436 1.46946E+01 2.02254E+01 3.63636E+00
 -1      4437 1.46946E+01 2.02254E+01 4.54545E+00
 -1      4438 1.46946E+01 2.02254E+01 5.45455E+00
 -1      4439 1.46946E+01 2.02254E+01 6.36364E+00
 -1      4440 1.46946E+01 2.02254E+01 7.27273E+00
 -1      4441 1.46946E+01 2.02254E+01 8.18182E+00
 -1      4442 1.46946E+01 2.02254E+01 9.09091E+00
 -1      4443 1.76777E+01 1.76777E+01 9.09091E-01
 -1      4444 1.76777E+01 1.76777E+01 1.81818E+00
 -1      4445 1.76777E+01 1.76777E+01 2.72727E+00
 -1      4446 1.76777E+01 1.76777E+01 3.63636E+00
 -1      4447 1.76777E+01 1.76777E+01 4.54545E+00
 -1      4448 1.76777E+01 1.76777E+01 5.45455E+00
 -1      4449 1.76777E+01 1.76777E+01 6.36364E+00
 -1      4450 1.76777E+01 1.76777E+01 7.27273E+00
 -1      4451 1.76777E+01 1.76777E+01 8.18182E+00
 -1      4452 1.76777E+01 1.76777E+01 9.09091E+00
 -1      4453 2.02254E+01 1.46946E+01 9.09091E-01
 -1      4454 2.02254E+01 1.46946E+01 1.81818E+00
 -1      4455 2.02254E+01 1.46946E+01 2.72727E+00
 -1      4456 2.02254E+01 1.46946E+01 3.63636E+00
 -1      4457 2.02254E+01 1.46946E+01 4.54545E+00
 -1      4458 2.02254E+01 1.46946E+01 5.45455E+00
 -1      4459 2.02254E+01 1.46946E+01 6.36364E+00
 -1      4460 2.02254E+01 1.46946E+01 7.27273E+00
 -1      4461 2.02254E+01 1.46946E+01 8.18182E+00
 -1      4462 2.02254E+01 1.46946E+01 9.09091E+00
 -1      4463 2.22752E+01 1.13498E+01 9.09091E-01
 -1      4464 2.22752E+01 1.13498E+01 1.81818E+00
 -1      4465 2.22752E+01 1.13498E+01 2.72727E+00
 -1      4466 2.22752E+01 1.13498E+01 3.63636E+00
 -1      4467 2.22752E+01 1.13498E+01 4.54545E+00
 -1      4468 2.22752E+01 1.13498E+01 5.45455E+00
 -1      4469 2.22752E+01 1.13498E+01 6.36364E+00
 -1      4470 2.22752E+01 1.13498E+01 7.27273E+00
 -1      4471 2.22752E+01 1.13498E+01 8.18182E+00
 -1      4472 2.22752E+01 1.13498E+01 9.09091E+00
 -1      4473 2.37764E+01 7.72542E+00 9.09091E-01
 -1      4474 2.37764E+01 7.72542E+00 1.81818E+00
 -1      4475 2.37764E+01 7.72542E+00 2.72727E+00
 -1      4476 2.37764E+01 7.72542E+00 3.63636E+00
 -1      4477 2.37764E+01 7.72542E+00 4.54545E+00
 -1      4478 2.37764E+01 7.72542E+00 5.45455E+00
 -1      4479 2.37764E+01 7.72542E+00 6.36364E+00
 -1      4480 2.37764E+01 7.72542E+00 7.27273E+00
 -1      4481 2.37764E+01 7.72542E+00 8.18182E+00
 -1      4482 2.37764E+01 7.72542E+00 9.09091E+00
 -1      4483 2.46922E+01 3.91086E+00 9.09091E-01
 -1      4484 2.46922E+01 3.91086E+00 1.81818E+00
 -1      4485 2.46922E+01 3.91086E+00 2.72727E+00
 -1      4486 2.46922E+01 3.91086E+00 3.63636E+00
 -1      4487 2.46922E+01 3.91086E+00 4.54545E+00
 -1      4488 2.46922E+01 3.91086E+00 5.45455E+00
 -1      4489 2.46922E+01 3.91086E+00 6.36364E+00
 -1      4490 2.46922E+01 3.91086E+00 7.27273E+00
 -1      4491 2.46922E+01 3.91086E+00 8.18182E+00
 -1      4492 2.46922E+01 3.91086E+00 9.09091E+00
 -1      4493 3.91086E+00 2.46922E+01 4.54545E-01
 -1      4494 1.96148E+00 2.49229E+01 9.09091E-01
 -1      4496 3.91086E+00 2.46922E+01 1.36364E+00
 -1      4497 1.96148E+00 2.49229E+01 1.81818E+00
 -1      4499 3.91086E+00 2.46922E+01 2.27273E+00
 -1      4500 1.96148E+00 2.49229E+01 2.72727E+00
 -1      4502 3.91086E+00 2.46922E+01 3.18182E+00
 -1      4503 1.96148E+00 2.49229E+01 3.63636E+00
 -1      4505 3.91086E+00 2.46922E+01 4.09091E+00
 -1      4506 1.96148E+00 2.49229E+01 4.54545E+00
 -1      4508 3.91086E+00 2.46922E+01 5.00000E+00
 -1      4509 1.96148E+00 2.49229E+01 5.45455E+00
 -1      4511 3.91086E+00 2.46922E+01 5.90909E+00
 -1      4512 1.96148E+00 2.49229E+01 6.36364E+00
 -1      4514 3.91086E+00 2.46922E+01 6.81818E+00
 -1      4515 1.96148E+00 2.49229E+01 7.27273E+00
 -1      4517 3.91086E+00 2.46922E+01 7.72727E+00
 -1      4518 1.96148E+00 2.49229E+01 8.18182E+00
 -1      4520 3.91086E+00 2.46922E+01 8.63636E+00
 -1      4521 1.96148E+00 2.49229E+01 9.09091E+00
 -1      4523 3.91086E+00 2.46922E+01 9.54545E+00
 -1      4525 7.72542E+00 2.37764E+01 4.54545E-01
 -1      4526 5.83613E+00 2.43092E+01 9.09091E-01
 -1      4528 7.72542E+00 2.37764E+01 1.36364E+00
 -1      4529 5.83613E+00 2.43092E+01 1.81818E+00
 -1      4531 7.72542E+00 2.37764E+01 2.27273E+00
 -1      4532 5.83613E+00 2.43092E+01 2.72727E+00
 -1      4534 7.72542E+00 2.37764E+01 3.18182E+00
 -1      4535 5.83613E+00 2.43092E+01 3.63636E+00
 -1      4537 7.72542E+00 2.37764E+01 4.09091E+00
 -1      4538 5.83613E+00 2.43092E+01 4.54545E+00
 -1      4540 7.72542E+00 2.37764E+01 5.00000E+00
 -1      4541 5.83613E+00 2.43092E+01 5.45455E+00
 -1      4543 7.72542E+00 2.37764E+01 5.90909E+00
 -1      4544 5.83613E+00 2.43092E+01 6.36364E+00
 -1      4546 7.72542E+00 2.37764E+01 6.81818E+00
 -1      4547 5.83613E+00 2.43092E+01 7.27273E+00
 -1      4549 7.72542E+00 2.37764E+01 7.72727E+00
 -1      4550 5.83613E+00 2.43092E+01 8.18182E+00
 -1      4552 7.72542E+00 2.37764E+01 8.63636E+00
 -1      4553 5.83613E+00 2.43092E+01 9.09091E+00
 -1      4555 7.72542E+00 2.37764E+01 9.54545E+00
 -1      4557 1.13498E+01 2.22752E+01 4.54545E-01
 -1      4558 9.56709E+00 2.30970E+01 9.09091E-01
 -1      4560 1.13498E+01 2.22752E+01 1.36364E+00
 -1      4561 9.56709E+00 2.30970E+01 1.81818E+00
 -1      4563 1.13498E+01 2.22752E+01 2.27273E+00
 -1      4564 9.56709E+00 2.30970E+01 2.72727E+00
 -1      4566 1.13498E+01 2.22752E+01 3.18182E+00
 -1      4567 9.56709E+00 2.30970E+01 3.63636E+00
 -1      4569 1.13498E+01 2.22752E+01 4.09091E+00
 -1      4570 9.56709E+00 2.30970E+01 4.54545E+00
 -1      4572 1.13498E+01 2.22752E+01 5.00000E+00
 -1      4573 9.56709E+00 2.30970E+01 5.45455E+00
 -1      4575 1.13498E+01 2.22752E+01 5.90909E+00
 -1      4576 9.56709E+00 2.30970E+01 6.36364E+00
 -1      4578 1.13498E+01 2.22752E+01 6.81818E+00
 -1      4579 9.56709E+00 2.30970E+01 7.27273E+00
 -1      4581 1.13498E+01 2.22752E+01 7.72727E+00
 -1      4582 9.56709E+00 2.30970E+01 8.18182E+00
 -1      4584 1.13498E+01 2.22752E+01 8.63636E+00
 -1      4585 9.56709E+00 2.30970E+01 9.09091E+00
 -1      4587 1.13498E+01 2.22752E+01 9.54545E+00
 -1      4589 1.46946E+01 2.02254E+01 4.54545E-01
 -1      4590 1.30625E+01 2.13160E+01 9.09091E-01
 -1      4592 1.46946E+01 2.02254E+01 1.36364E+00
 -1      4593 1.30625E+01 2.13160E+01 1.81818E+00
 -1      4595 1.46946E+01 2.02254E+01 2.27273E+00
 -1      4596 1.30625E+01 2.13160E+01 2.72727E+00
 -1      4598 1.46946E+01 2.02254E+01 3.18182E+00
 -1      4599 1.30625E+01 2.13160E+01 3.63636E+00
 -1      4601 1.46946E+01 2.02254E+01 4.09091E+00
 -1      4602 1.30625E+01 2.13160E+01 4.54545E+00
 -1      4604 1.46946E+01 2.02254E+01 5.00000E+00
 -1      4605 1.30625E+01 2.13160E+01 5.45455E+00
 -1      4607 1.46946E+01 2.02254E+01 5.90909E+00
 -1      4608 1.30625E+01 2.13160E+01 6.36364E+00
 -1      4610 1.46946E+01 2.02254E+01 6.81818E+00
 -1      4611 1.30625E+01 2.13160E+01 7.27273E+00
 -1      4613 1.46946E+01 2.02254E+01 7.72727E+00
 -1      4614 1.30625E+01 2.13160E+01 8.18182E+00
 -1      4616 1.46946E+01 2.02254E+01 8.63636E+00
 -1      4617 1.30625E+01 2.13160E+01 9.09091E+00
 -1      4619 1.46946E+01 2.02254E+01 9.54545E+00
 -1      4621 1.76777E+01 1.76777E+01 4.54545E-01
 -1      4622 1.62362E+01 1.90101E+01 9.09091E-01
 -1      4624 1.76777E+01 1.76777E+01 1.36364E+00
 -1      4625 1.62362E+01 1.90101E+01 1.81818E+00
 -1      4627 1.76777E+01 1.76777E+01 2.27273E+00
 -1      4628 1.62362E+01 1.90101E+01 2.72727E+00
 -1      4630 1.76777E+01 1.76777E+01 3.18182E+00
 -1      4631 1.62362E+01 1.90101E+01 3.63636E+00
 -1      4633 1.76777E+01 1.76777E+01 4.09091E+00
 -1      4634 1.62362E+01 1.90101E+01 4.54545E+00
 -1      4636 1.76777E+01 1.76777E+01 5.00000E+00
 -1      4637 1.62362E+01 1.90101E+01 5.45455E+00
 -1      4639 1.76777E+01 1.76777E+01 5.90909E+00
 -1      4640 1.62362E+01 1.90101E+01 6.36364E+00
 -1      4642 1.76777E+01 1.76777E+01 6.81818E+00
 -1      4643 1.62362E+01 1.90101E+01 7.27273E+00
 -1      4645 1.76777E+01 1.76777E+01 7.72727E+00
 -1      4646 1.62362E+01 1.90101E+01 8.18182E+00
 -1      4648 1.76777E+01 1.76777E+01 8.63636E+00
 -1      4649 1.62362E+01 1.90101E+01 9.09091E+00
 -1      4651 1.76777E+01 1.76777E+01 9.54545E+00
 -1      4653 2.02254E+01 1.46946E+01 4.54545E-01
 -1      4654 1.90101E+01 1.62362E+01 9.09091E-01
 -1      4656 2.02254E+01 1.46946E+01 1.36364E+00
 -1      4657 1.90101E+01 1.62362E+01 1.81818E+00
 -1      4659 2.02254E+01 1.46946E+01 2.27273E+00
 -1      4660 1.90101E+01 1.62362E+01 2.72727E+00
 -1      4662 2.02254E+01 1.46946E+01 3.18182E+00
 -1      4663 1.90101E+01 1.62362E+01 3.63636E+00
 -1      4665 2.02254E+01 1.46946E+01 4.09091E+00
 -1      4666 1.90101E+01 1.62362E+01 4.54545E+00
 -1      4668 2.02254E+01 1.46946E+01 5.00000E+00
 -1      4669 1.90101E+01 1.62362E+01 5.45455E+00
 -1      4671 2.02254E+01 1.46946E+01 5.90909E+00
 -1      4672 1.90101E+01 1.62362E+01 6.36364E+00
 -1      4674 2.02254E+01 1.46946E+01 6.81818E+00
 -1      4675 1.90101E+01 1.62362E+01 7.27273E+00
 -1      4677 2.02254E+01 1.46946E+01 7.72727E+00
 -1      4678 1.90101E+01 1.62362E+01 8.18182E+00
 -1      4680 2.02254E+01 1.46946E+01 8.63636E+00
 -1      4681 1.90101E+01 1.62362E+01 9.09091E+00
 -1      4683 2.02254E+01 1.46946E+01 9.54545E+00
 -1      4685 2.22752E+01 1.13498E+01 4.54545E-01
 -1      4686 2.13160E+01 1.30625E+01 9.09091E-01
 -1      4688 2.22752E+01 1.13498E+01 1.36364E+00
 -1      4689 2.13160E+01 1.30625E+01 1.81818E+00
 -1      4691 2.22752E+01 1.13498E+01 2.27273E+00
 -1      4692 2.13160E+01 1.30625E+01 2.72727E+00
 -1      4694 2.22752E+01 1.13498E+01 3.18182E+00
 -1      4695 2.13160E+01 1.30625E+01 3.63636E+00
 -1      4697 2.22752E+01 1.13498E+01 4.09091E+00
 -1      4698 2.13160E+01 1.30625E+01 4.54545E+00
 -1      4700 2.22752E+01 1.13498E+01 5.00000E+00
 -1      4701 2.13160E+01 1.30625E+01 5.45455E+00
 -1      4703 2.22752E+01 1.13498E+01 5.90909E+00
 -1      4704 2.13160E+01 1.30625E+01 6.36364E+00
 -1      4706 2.22752E+01 1.13498E+01 6.81818E+00
 -1      4707 2.13160E+01 1.30625E+01 7.27273E+00
 -1      4709 2.22752E+01 1.13498E+01 7.72727E+00
 -1      4710 2.13160E+01 1.30625E+01 8.18182E+00
 -1      4712 2.22752E+01 1.13498E+01 8.63636E+00
 -1      4713 2.13160E+01 1.30625E+01 9.09091E+00
 -1      4715 2.22752E+01 1.13498E+01 9.54545E+00
 -1      4717 2.37764E+01 7.72542E+00 4.54545E-01
 -1      4718 2.30970E+01 9.56709E+00 9.09091E-01
 -1      4720 2.37764E+01 7.72542E+00 1.36364E+00
 -1      4721 2.30970E+01 9.56709E+00 1.81818E+00
 -1      4723 2.37764E+01 7.72542E+00 2.27273E+00
 -1      4724 2.30970E+01 9.56709E+00 2.72727E+00
 -1      4726 2.37764E+01 7.72542E+00 3.18182E+00
 -1      4727 2.30970E+01 9.56709E+00 3.63636E+00
 -1      4729 2.37764E+01 7.72542E+00 4.09091E+00
 -1      4730 2.30970E+01 9.56709E+00 4.54545E+00
 -1      4732 2.37764E+01 7.72542E+00 5.00000E+00
 -1      4733 2.30970E+01 9.56709E+00 5.45455E+00
 -1      4735 2.37764E+01 7.72542E+00 5.90909E+00
 -1      4736 2.30970E+01 9.56709E+00 6.36364E+00
 -1      4738 2.37764E+01 7.72542E+00 6.81818E+00
 -1      4739 2.30970E+01 9.56709E+00 7.27273E+00
 -1      4741 2.37764E+01 7.72542E+00 7.72727E+00
 -1      4742 2.30970E+01 9.56709E+00 8.18182E+00
 -1      4744 2.37764E+01 7.72542E+00 8.63636E+00
 -1      4745 2.30970E+01 9.56709E+00 9.09091E+00
 -1      4747 2.37764E+01 7.72542E+00 9.54545E+00
 -1      4749 2.46922E+01 3.91086E+00 4.54545E-01
 -1      4750 2.43092E+01 5.83613E+00 9.09091E-01
 -1      4752 2.46922E+01 3.91086E+00 1.36364E+00
 -1      4753 2.43092E+01 5.83613E+00 1.81818E+00
 -1      4755 2.46922E+01 3.91086E+00 2.27273E+00
 -1      4756 2.43092E+01 5.83613E+00 2.72727E+00
 -1      4758 2.46922E+01 3.91086E+00 3.18182E+00
 -1      4759 2.43092E+01 5.83613E+00 3.63636E+00
 -1      4761 2.46922E+01 3.91086E+00 4.09091E+00
 -1      4762 2.43092E+01 5.83613E+00 4.54545E+00
 -1      4764 2.46922E+01 3.91086E+00 5.00000E+00
 -1      4765 2.43092E+01 5.83613E+00 5.45455E+00
 -1      4767 2.46922E+01 3.91086E+00 5.90909E+00
 -1      4768 2.43092E+01 5.83613E+00 6.36364E+00
 -1      4770 2.46922E+01 3.91086E+00 6.81818E+00
 -1      4771 2.43092E+01 5.83613E+00 7.27273E+00
 -1      4773 2.46922E+01 3.91086E+00 7.72727E+00
 -1      4774 2.43092E+01 5.83613E+00 8.18182E+00
 -1      4776 2.46922E+01 3.91086E+00 8.63636E+00
 -1      4777 2.43092E+01 5.83613E+00 9.09091E+00
 -1      4779 2.46922E+01 3.91086E+00 9.54545E+00
 -1      4781 2.49229E+01 1.96148E+00 9.09091E-01
 -1      4783 2.49229E+01 1.96148E+00 1.81818E+00
 -1      4785 2.49229E+01 1.96148E+00 2.72727E+00
 -1      4787 2.49229E+01 1.96148E+00 3.63636E+00
 -1      4789 2.49229E+01 1.96148E+00 4.54545E+00
 -1      4791 2.49229E+01 1.96148E+00 5.45455E+00
 -1      4793 2.49229E+01 1.96148E+00 6.36364E+00
 -1      4795 2.49229E+01 1.96148E+00 7.27273E+00
 -1      4797 2.49229E+01 1.96148E+00 8.18182E+00
 -1      4799 2.49229E+01 1.96148E+00 9.09091E+00
 -1      4802 2.71614E+01 4.30195E+00 1.00000E+01
 -1      4803 2.61541E+01 8.49797E+00 1.00000E+01
 -1      4804 2.45027E+01 1.24847E+01 1.00000E+01
 -1      4805 2.22480E+01 1.61641E+01 1.00000E+01
 -1      4806 1.94454E+01 1.94454E+01 1.00000E+01
 -1      4807 1.61641E+01 2.22480E+01 1.00000E+01
 -1      4808 1.24847E+01 2.45027E+01 1.00000E+01
 -1      4809 8.49797E+00 2.61541E+01 1.00000E+01
 -1      4810 4.30195E+00 2.71614E+01 1.00000E+01
 -1      4811 2.96306E+01 4.69303E+00 1.00000E+01
 -1      4812 2.85317E+01 9.27051E+00 1.00000E+01
 -1      4813 2.67302E+01 1.36197E+01 1.00000E+01
 -1      4814 2.42705E+01 1.76336E+01 1.00000E+01
 -1      4815 2.12132E+01 2.12132E+01 1.00000E+01
 -1      4816 1.76336E+01 2.42705E+01 1.00000E+01
 -1      4817 1.36197E+01 2.67302E+01 1.00000E+01
 -1      4818 9.27051E+00 2.85317E+01 1.00000E+01
 -1      4819 4.69303E+00 2.96306E+01 1.00000E+01
 -1      4820 3.20999E+01 5.08412E+00 1.00000E+01
 -1      4821 3.09093E+01 1.00431E+01 1.00000E+01
 -1      4822 2.89577E+01 1.47547E+01 1.00000E+01
 -1      4823 2.62931E+01 1.91030E+01 1.00000E+01
 -1      4824 2.29810E+01 2.29810E+01 1.00000E+01
 -1      4825 1.91030E+01 2.62931E+01 1.00000E+01
 -1      4826 1.47547E+01 2.89577E+01 1.00000E+01
 -1      4827 1.00431E+01 3.09093E+01 1.00000E+01
 -1      4828 5.08412E+00 3.20999E+01 1.00000E+01
 -1      4829 3.45691E+01 5.47521E+00 1.00000E+01
 -1      4830 3.32870E+01 1.08156E+01 1.00000E+01
 -1      4831 3.11852E+01 1.58897E+01 1.00000E+01
 -1      4832 2.83156E+01 2.05725E+01 1.00000E+01
 -1      4833 2.47487E+01 2.47487E+01 1.00000E+01
 -1      4834 2.05725E+01 2.83156E+01 1.00000E+01
 -1      4835 1.58897E+01 3.11852E+01 1.00000E+01
 -1      4836 1.08156E+01 3.32870E+01 1.00000E+01
 -1      4837 5.47521E+00 3.45691E+01 1.00000E+01
 -1      4838 3.70383E+01 5.86629E+00 1.00000E+01
 -1      4839 3.56646E+01 1.15881E+01 1.00000E+01
 -1      4840 3.34127E+01 1.70246E+01 1.00000E+01
 -1      4841 3.03381E+01 2.20419E+01 1.00000E+01
 -1      4842 2.65165E+01 2.65165E+01 1.00000E+01
 -1      4843 2.20419E+01 3.03381E+01 1.00000E+01
 -1      4844 1.70246E+01 3.34127E+01 1.00000E+01
 -1      4845 1.15881E+01 3.56646E+01 1.00000E+01
 -1      4846 5.86629E+00 3.70383E+01 1.00000E+01
 -1      4847 3.95075E+01 6.25738E+00 1.00000E+01
 -1      4848 3.80423E+01 1.23607E+01 1.00000E+01
 -1      4849 3.56403E+01 1.81596E+01 1.00000E+01
 -1      4850 3.23607E+01 2.35114E+01 1.00000E+01
 -1      4851 2.82843E+01 2.82843E+01 1.00000E+01
 -1      4852 2.35114E+01 3.23607E+01 1.00000E+01
 -1      4853 1.81596E+01 3.56403E+01 1.00000E+01
 -1      4854 1.23607E+01 3.80423E+01 1.00000E+01
 -1      4855 6.25738E+00 3.95075E+01 1.00000E+01
 -1      4856 4.19768E+01 6.64846E+00 1.00000E+01
 -1      4857 4.04199E+01 1.31332E+01 1.00000E+01
 -1      4858 3.78678E+01 1.92946E+01 1.00000E+01
 -1      4859 3.43832E+01 2.49809E+01 1.00000E+01
 -1      4860 3.00520E+01 3.00520E+01 1.00000E+01
 -1      4861 2.49809E+01 3.43832E+01 1.00000E+01
 -1      4862 1.92946E+01 3.78678E+01 1.00000E+01
 -1      4863 1.31332E+01 4.04199E+01 1.00000E+01
 -1      4864 6.64846E+00 4.19768E+01 1.00000E+01
 -1      4865 4.44460E+01 7.03955E+00 1.00000E+01
 -1      4866 4.27975E+01 1.39058E+01 1.00000E+01
 -1      4867 4.00953E+01 2.04296E+01 1.00000E+01
 -1      4868 3.64058E+01 2.64503E+01 1.00000E+01
 -1      4869 3.18198E+01 3.18198E+01 1.00000E+01
 -1      4870 2.64503E+01 3.64058E+01 1.00000E+01
 -1      4871 2.04296E+01 4.00953E+01 1.00000E+01
 -1      4872 1.39058E+01 4.27975E+01 1.00000E+01
 -1      4873 7.03955E+00 4.44460E+01 1.00000E+01
 -1      4874 4.69152E+01 7.43064E+00 1.00000E+01
 -1      4875 4.51752E+01 1.46783E+01 1.00000E+01
 -1      4876 4.23228E+01 2.15645E+01 1.00000E+01
 -1      4877 3.84283E+01 2.79198E+01 1.00000E+01
 -1      4878 3.35876E+01 3.35876E+01 1.00000E+01
 -1      4879 2.79198E+01 3.84283E+01 1.00000E+01
 -1      4880 2.15645E+01 4.23228E+01 1.00000E+01
 -1      4881 1.46783E+01 4.51752E+01 1.00000E+01
 -1      4882 7.43064E+00 4.69152E+01 1.00000E+01
 -1      4883 4.93844E+01 7.82172E+00 1.00000E+01
 -1      4884 4.75528E+01 1.54508E+01 1.00000E+01
 -1      4885 4.45503E+01 2.26995E+01 1.00000E+01
 -1      4886 4.04509E+01 2.93893E+01 1.00000E+01
 -1      4887 3.53553E+01 3.53553E+01 1.00000E+01
 -1      4888 2.93893E+01 4.04509E+01 1.00000E+01
 -1      4889 2.26995E+01 4.45503E+01 1.00000E+01
 -1      4890 1.54508E+01 4.75528E+01 1.00000E+01
 -1      4891 7.82172E+00 4.93844E+01 1.00000E+01
 -1      4892 5.18536E+01 8.21281E+00 1.00000E+01
 -1      4893 4.99305E+01 1.62234E+01 1.00000E+01
 -1      4894 4.67778E+01 2.38345E+01 1.00000E+01
 -1      4895 4.24734E+01 3.08587E+01 1.00000E+01
 -1      4896 3.71231E+01 3.71231E+01 1.00000E+01
 -1      4897 3.08587E+01 4.24734E+01 1.00000E+01
 -1      4898 2.38345E+01 4.67778E+01 1.00000E+01
 -1      4899 1.62234E+01 4.99305E+01 1.00000E+01
 -1      4900 8.21281E+00 5.18536E+01 1.00000E+01
 -1      4901 5.43229E+01 8.60390E+00 1.00000E+01
 -1      4902 5.23081E+01 1.69959E+01 1.00000E+01
 -1      4903 4.90054E+01 2.49695E+01 1.00000E+01
 -1      4904 4.44959E+01 3.23282E+01 1.00000E+01
 -1      4905 3.88909E+01 3.88909E+01 1.00000E+01
 -1      4906 3.23282E+01 4.44959E+01 1.00000E+01
 -1      4907 2.49695E+01 4.90054E+01 1.00000E+01
 -1      4908 1.69959E+01 5.23081E+01 1.00000E+01
 -1      4909 8.60390E+00 5.43229E+01 1.00000E+01
 -1      4910 5.67921E+01 8.99498E+00 1.00000E+01
 -1      4911 5.46857E+01 1.77685E+01 1.00000E+01
 -1      4912 5.12329E+01 2.61045E+01 1.00000E+01
 -1      4913 4.65185E+01 3.37977E+01 1.00000E+01
 -1      4914 4.06586E+01 4.06586E+01 1.00000E+01
 -1      4915 3.37977E+01 4.65185E+01 1.00000E+01
 -1      4916 2.61045E+01 5.12329E+01 1.00000E+01
 -1      4917 1.77685E+01 5.46857E+01 1.00000E+01
 -1      4918 8.99498E+00 5.67921E+01 1.00000E+01
 -1      4919 5.92613E+01 9.38607E+00 1.00000E+01
 -1      4920 5.70634E+01 1.85410E+01 1.00000E+01
 -1      4921 5.34604E+01 2.72394E+01 1.00000E+01
 -1      4922 4.85410E+01 3.52671E+01 1.00000E+01
 -1      4923 4.24264E+01 4.24264E+01 1.00000E+01
 -1      4924 3.52671E+01 4.85410E+01 1.00000E+01
 -1      4925 2.72394E+01 5.34604E+01 1.00000E+01
 -1      4926 1.85410E+01 5.70634E+01 1.00000E+01
 -1      4927 9.38607E+00 5.92613E+01 1.00000E+01
 -1      4928 6.17305E+01 9.77715E+00 1.00000E+01
 -1      4929 5.94410E+01 1.93136E+01 1.00000E+01
 -1      4930 5.56879E+01 2.83744E+01 1.00000E+01
 -1      4931 5.05636E+01 3.67366E+01 1.00000E+01
 -1      4932 4.41942E+01 4.41942E+01 1.00000E+01
 -1      4933 3.67366E+01 5.05636E+01 1.00000E+01
 -1      4934 2.83744E+01 5.56879E+01 1.00000E+01
 -1      4935 1.93136E+01 5.94410E+01 1.00000E+01
 -1      4936 9.77715E+00 6.17305E+01 1.00000E+01
 -1      4937 6.41997E+01 1.01682E+01 1.00000E+01
 -1      4938 6.18187E+01 2.00861E+01 1.00000E+01
 -1      4939 5.79154E+01 2.95094E+01 1.00000E+01
 -1      4940 5.25861E+01 3.82060E+01 1.00000E+01
 -1      4941 4.59619E+01 4.59619E+01 1.00000E+01
 -1      4942 3.82060E+01 5.25861E+01 1.00000E+01
 -1      4943 2.95094E+01 5.79154E+01 1.00000E+01
 -1      4944 2.00861E+01 6.18187E+01 1.00000E+01
 -1      4945 1.01682E+01 6.41997E+01 1.00000E+01
 -1      4946 6.66690E+01 1.05593E+01 1.00000E+01
 -1      4947 6.41963E+01 2.08586E+01 1.00000E+01
 -1      4948 6.01429E+01 3.06444E+01 1.00000E+01
 -1      4949 5.46086E+01 3.96755E+01 1.00000E+01
 -1      4950 4.77297E+01 4.77297E+01 1.00000E+01
 -1      4951 3.96755E+01 5.46086E+01 1.00000E+01
 -1      4952 3.06444E+01 6.01429E+01 1.00000E+01
 -1      4953 2.08586E+01 6.41963E+01 1.00000E+01
 -1      4954 1.05593E+01 6.66690E+01 1.00000E+01
 -1      4955 6.91382E+01 1.09504E+01 1.00000E+01
 -1      4956 6.65740E+01 2.16312E+01 1.00000E+01
 -1      4957 6.23705E+01 3.17793E+01 1.00000E+01
 -1      4958 5.66312E+01 4.11450E+01 1.00000E+01
 -1      4959 4.94975E+01 4.94975E+01 1.00000E+01
 -1      4960 4.11450E+01 5.66312E+01 1.00000E+01
 -1      4961 3.17793E+01 6.23705E+01 1.00000E+01
 -1      4962 2.16312E+01 6.65740E+01 1.00000E+01
 -1      4963 1.09504E+01 6.91382E+01 1.00000E+01
 -1      4964 7.16074E+01 1.13415E+01 1.00000E+01
 -1      4965 6.89516E+01 2.24037E+01 1.00000E+01
 -1      4966 6.45980E+01 3.29143E+01 1.00000E+01
 -1      4967 5.86537E+01 4.26144E+01 1.00000E+01
 -1      4968 5.12652E+01 5.12652E+01 1.00000E+01
 -1      4969 4.26144E+01 5.86537E+01 1.00000E+01
 -1      4970 3.29143E+01 6.45980E+01 1.00000E+01
 -1      4971 2.24037E+01 6.89516E+01 1.00000E+01
 -1      4972 1.13415E+01 7.16074E+01 1.00000E+01
 -1      4973 7.40766E+01 1.17326E+01 1.00000E+01
 -1      4974 7.13292E+01 2.31763E+01 1.00000E+01
 -1      4975 6.68255E+01 3.40493E+01 1.00000E+01
 -1      4976 6.06763E+01 4.40839E+01 1.00000E+01
 -1      4977 5.30330E+01 5.30330E+01 1.00000E+01
 -1      4978 4.40839E+01 6.06763E+01 1.00000E+01
 -1      4979 3.40493E+01 6.68255E+01 1.00000E+01
 -1      4980 2.31763E+01 7.13292E+01 1.00000E+01
 -1      4981 1.17326E+01 7.40766E+01 1.00000E+01
 -1      4982 7.65458E+01 1.21237E+01 1.00000E+01
 -1      4983 7.37069E+01 2.39488E+01 1.00000E+01
 -1      4984 6.90530E+01 3.51843E+01 1.00000E+01
 -1      4985 6.26988E+01 4.55534E+01 1.00000E+01
 -1      4986 5.48008E+01 5.48008E+01 1.00000E+01
 -1      4987 4.55534E+01 6.26988E+01 1.00000E+01
 -1      4988 3.51843E+01 6.90530E+01 1.00000E+01
 -1      4989 2.39488E+01 7.37069E+01 1.00000E+01
 -1      4990 1.21237E+01 7.65458E+01 1.00000E+01
 -1      4991 7.90151E+01 1.25148E+01 1.00000E+01
 -1      4992 7.60845E+01 2.47214E+01 1.00000E+01
 -1      4993 7.12805E+01 3.63192E+01 1.00000E+01
 -1      4994 6.47214E+01 4.70228E+01 1.00000E+01
 -1      4995 5.65685E+01 5.65685E+01 1.00000E+01
 -1      4996 4.70228E+01 6.47214E+01 1.00000E+01
 -1      4997 3.63192E+01 7.12805E+01 1.00000E+01
 -1      4998 2.47214E+01 7.60845E+01 1.00000E+01
 -1      4999 1.25148E+01 7.90151E+01 1.00000E+01
 -1      5000 8.14843E+01 1.29058E+01 1.00000E+01
 -1      5001 7.84622E+01 2.54939E+01 1.00000E+01
 -1      5002 7.35080E+01 3.74542E+01 1.00000E+01
 -1      5003 6.67439E+01 4.84923E+01 1.00000E+01
 -1      5004 5.83363E+01 5.83363E+01 1.00000E+01
 -1      5005 4.84923E+01 6.67439E+01 1.00000E+01
 -1      5006 3.74542E+01 7.35080E+01 1.00000E+01
 -1      5007 2.54939E+01 7.84622E+01 1.00000E+01
 -1      5008 1.29058E+01 8.14843E+01 1.00000E+01
 -1      5009 8.39535E+01 1.32969E+01 1.00000E+01
 -1      5010 8.08398E+01 2.62664E+01 1.00000E+01
 -1      5011 7.57356E+01 3.85892E+01 1.00000E+01
 -1      5012 6.87664E+01 4.99617E+01 1.00000E+01
 -1      5013 6.01041E+01 6.01041E+01 1.00000E+01
 -1      5014 4.99617E+01 6.87664E+01 1.00000E+01
 -1      5015 3.85892E+01 7.57356E+01 1.00000E+01
 -1      5016 2.62664E+01 8.08398E+01 1.00000E+01
 -1      5017 1.32969E+01 8.39535E+01 1.00000E+01
 -1      5018 8.64227E+01 1.36880E+01 1.00000E+01
 -1      5019 8.32174E+01 2.70390E+01 1.00000E+01
 -1      5020 7.79631E+01 3.97242E+01 1.00000E+01
 -1      5021 7.07890E+01 5.14312E+01 1.00000E+01
 -1      5022 6.18718E+01 6.18718E+01 1.00000E+01
 -1      5023 5.14312E+01 7.07890E+01 1.00000E+01
 -1      5024 3.97242E+01 7.79631E+01 1.00000E+01
 -1      5025 2.70390E+01 8.32174E+01 1.00000E+01
 -1      5026 1.36880E+01 8.64227E+01 1.00000E+01
 -1      5027 8.88920E+01 1.40791E+01 1.00000E+01
 -1      5028 8.55951E+01 2.78115E+01 1.00000E+01
 -1      5029 8.01906E+01 4.08591E+01 1.00000E+01
 -1      5030 7.28115E+01 5.29007E+01 1.00000E+01
 -1      5031 6.36396E+01 6.36396E+01 1.00000E+01
 -1      5032 5.29007E+01 7.28115E+01 1.00000E+01
 -1      5033 4.08591E+01 8.01906E+01 1.00000E+01
 -1      5034 2.78115E+01 8.55951E+01 1.00000E+01
 -1      5035 1.40791E+01 8.88920E+01 1.00000E+01
 -1      5036 9.13612E+01 1.44702E+01 1.00000E+01
 -1      5037 8.79727E+01 2.85841E+01 1.00000E+01
 -1      5038 8.24181E+01 4.19941E+01 1.00000E+01
 -1      5039 7.48341E+01 5.43701E+01 1.00000E+01
 -1      5040 6.54074E+01 6.54074E+01 1.00000E+01
 -1      5041 5.43701E+01 7.48341E+01 1.00000E+01
 -1      5042 4.19941E+01 8.24181E+01 1.00000E+01
 -1      5043 2.85841E+01 8.79727E+01 1.00000E+01
 -1      5044 1.44702E+01 9.13612E+01 1.00000E+01
 -1      5045 9.38304E+01 1.48613E+01 1.00000E+01
 -1      5046 9.03504E+01 2.93566E+01 1.00000E+01
 -1      5047 8.46456E+01 4.31291E+01 1.00000E+01
 -1      5048 7.68566E+01 5.58396E+01 1.00000E+01
 -1      5049 6.71751E+01 6.71751E+01 1.00000E+01
 -1      5050 5.58396E+01 7.68566E+01 1.00000E+01
 -1      5051 4.31291E+01 8.46456E+01 1.00000E+01
 -1      5052 2.93566E+01 9.03504E+01 1.00000E+01
 -1      5053 1.48613E+01 9.38304E+01 1.00000E+01
 -1      5054 9.62996E+01 1.52524E+01 1.00000E+01
 -1      5055 9.27280E+01 3.01292E+01 1.00000E+01
 -1      5056 8.68731E+01 4.42641E+01 1.00000E+01
 -1      5057 7.88792E+01 5.73091E+01 1.00000E+01
 -1      5058 6.89429E+01 6.89429E+01 1.00000E+01
 -1      5059 5.73091E+01 7.88792E+01 1.00000E+01
 -1      5060 4.42641E+01 8.68731E+01 1.00000E+01
 -1      5061 3.01292E+01 9.27280E+01 1.00000E+01
 -1      5062 1.52524E+01 9.62996E+01 1.00000E+01
 -1      5063 2.73307E+01 2.15097E+00 1.00000E+01
 -1      5064 2.59268E+01 4.10640E+00 1.00000E+01
 -1      5066 2.66577E+01 6.39996E+00 1.00000E+01
 -1      5067 2.49652E+01 8.11170E+00 1.00000E+01
 -1      5069 2.53284E+01 1.04914E+01 1.00000E+01
 -1      5070 2.33889E+01 1.19173E+01 1.00000E+01
 -1      5072 2.33753E+01 1.43244E+01 1.00000E+01
 -1      5073 2.12367E+01 1.54294E+01 1.00000E+01
 -1      5075 2.08467E+01 1.78048E+01 1.00000E+01
 -1      5076 1.85616E+01 1.85616E+01 1.00000E+01
 -1      5078 1.78048E+01 2.08467E+01 1.00000E+01
 -1      5079 1.54294E+01 2.12367E+01 1.00000E+01
 -1      5081 1.43244E+01 2.33753E+01 1.00000E+01
 -1      5082 1.19173E+01 2.33889E+01 1.00000E+01
 -1      5084 1.04914E+01 2.53284E+01 1.00000E+01
 -1      5085 8.11170E+00 2.49652E+01 1.00000E+01
 -1      5087 6.39996E+00 2.66577E+01 1.00000E+01
 -1      5088 4.10640E+00 2.59268E+01 1.00000E+01
 -1      5090 2.15097E+00 2.73307E+01 1.00000E+01
 -1      5092 2.98153E+01 2.34652E+00 1.00000E+01
 -1      5093 2.83960E+01 4.49749E+00 1.00000E+01
 -1      5095 2.90812E+01 6.98177E+00 1.00000E+01
 -1      5096 2.73429E+01 8.88424E+00 1.00000E+01
 -1      5098 2.76309E+01 1.14451E+01 1.00000E+01
 -1      5099 2.56164E+01 1.30522E+01 1.00000E+01
 -1      5101 2.55004E+01 1.56266E+01 1.00000E+01
 -1      5102 2.32592E+01 1.68988E+01 1.00000E+01
 -1      5104 2.27419E+01 1.94234E+01 1.00000E+01
 -1      5105 2.03293E+01 2.03293E+01 1.00000E+01
 -1      5107 1.94234E+01 2.27419E+01 1.00000E+01
 -1      5108 1.68988E+01 2.32592E+01 1.00000E+01
 -1      5110 1.56266E+01 2.55004E+01 1.00000E+01
 -1      5111 1.30522E+01 2.56164E+01 1.00000E+01
 -1      5113 1.14451E+01 2.76309E+01 1.00000E+01
 -1      5114 8.88424E+00 2.73429E+01 1.00000E+01
 -1      5116 6.98177E+00 2.90812E+01 1.00000E+01
 -1      5117 4.49749E+00 2.83960E+01 1.00000E+01
 -1      5119 2.34652E+00 2.98153E+01 1.00000E+01
 -1      5121 3.22999E+01 2.54206E+00 1.00000E+01
 -1      5122 3.08653E+01 4.88858E+00 1.00000E+01
 -1      5124 3.15046E+01 7.56359E+00 1.00000E+01
 -1      5125 2.97205E+01 9.65678E+00 1.00000E+01
 -1      5127 2.99335E+01 1.23989E+01 1.00000E+01
 -1      5128 2.78440E+01 1.41872E+01 1.00000E+01
 -1      5130 2.76254E+01 1.69289E+01 1.00000E+01
 -1      5131 2.52818E+01 1.83683E+01 1.00000E+01
 -1      5133 2.46370E+01 2.10420E+01 1.00000E+01
 -1      5134 2.20971E+01 2.20971E+01 1.00000E+01
 -1      5136 2.10420E+01 2.46370E+01 1.00000E+01
 -1      5137 1.83683E+01 2.52818E+01 1.00000E+01
 -1      5139 1.69289E+01 2.76254E+01 1.00000E+01
 -1      5140 1.41872E+01 2.78440E+01 1.00000E+01
 -1      5142 1.23989E+01 2.99335E+01 1.00000E+01
 -1      5143 9.65678E+00 2.97205E+01 1.00000E+01
 -1      5145 7.56359E+00 3.15046E+01 1.00000E+01
 -1      5146 4.88858E+00 3.08653E+01 1.00000E+01
 -1      5148 2.54206E+00 3.22999E+01 1.00000E+01
 -1      5150 3.47845E+01 2.73760E+00 1.00000E+01
 -1      5151 3.33345E+01 5.27966E+00 1.00000E+01
 -1      5153 3.39280E+01 8.14540E+00 1.00000E+01
 -1      5154 3.20982E+01 1.04293E+01 1.00000E+01
 -1      5156 3.22361E+01 1.33526E+01 1.00000E+01
 -1      5157 3.00715E+01 1.53222E+01 1.00000E+01
 -1      5159 2.97504E+01 1.82311E+01 1.00000E+01
 -1      5160 2.73043E+01 1.98378E+01 1.00000E+01
 -1      5162 2.65322E+01 2.26606E+01 1.00000E+01
 -1      5163 2.38649E+01 2.38649E+01 1.00000E+01
 -1      5165 2.26606E+01 2.65322E+01 1.00000E+01
 -1      5166 1.98378E+01 2.73043E+01 1.00000E+01
 -1      5168 1.82311E+01 2.97504E+01 1.00000E+01
 -1      5169 1.53222E+01 3.00715E+01 1.00000E+01
 -1      5171 1.33526E+01 3.22361E+01 1.00000E+01
 -1      5172 1.04293E+01 3.20982E+01 1.00000E+01
 -1      5174 8.14540E+00 3.39280E+01 1.00000E+01
 -1      5175 5.27966E+00 3.33345E+01 1.00000E+01
 -1      5177 2.73760E+00 3.47845E+01 1.00000E+01
 -1      5179 3.72692E+01 2.93315E+00 1.00000E+01
 -1      5180 3.58037E+01 5.67075E+00 1.00000E+01
 -1      5182 3.63515E+01 8.72721E+00 1.00000E+01
 -1      5183 3.44758E+01 1.12019E+01 1.00000E+01
 -1      5185 3.45387E+01 1.43064E+01 1.00000E+01
 -1      5186 3.22990E+01 1.64572E+01 1.00000E+01
 -1      5188 3.18754E+01 1.95333E+01 1.00000E+01
 -1      5189 2.93269E+01 2.13072E+01 1.00000E+01
 -1      5191 2.84273E+01 2.42792E+01 1.00000E+01
 -1      5192 2.56326E+01 2.56326E+01 1.00000E+01
 -1      5194 2.42792E+01 2.84273E+01 1.00000E+01
 -1      5195 2.13072E+01 2.93269E+01 1.00000E+01
 -1      5197 1.95333E+01 3.18754E+01 1.00000E+01
 -1      5198 1.64572E+01 3.22990E+01 1.00000E+01
 -1      5200 1.43064E+01 3.45387E+01 1.00000E+01
 -1      5201 1.12019E+01 3.44758E+01 1.00000E+01
 -1      5203 8.72721E+00 3.63515E+01 1.00000E+01
 -1      5204 5.67075E+00 3.58037E+01 1.00000E+01
 -1      5206 2.93315E+00 3.72692E+01 1.00000E+01
 -1      5208 3.97538E+01 3.12869E+00 1.00000E+01
 -1      5209 3.82729E+01 6.06184E+00 1.00000E+01
 -1      5211 3.87749E+01 9.30903E+00 1.00000E+01
 -1      5212 3.68534E+01 1.19744E+01 1.00000E+01
 -1      5214 3.68413E+01 1.52601E+01 1.00000E+01
 -1      5215 3.45265E+01 1.75921E+01 1.00000E+01
 -1      5217 3.40005E+01 2.08355E+01 1.00000E+01
 -1      5218 3.13494E+01 2.27767E+01 1.00000E+01
 -1      5220 3.03225E+01 2.58978E+01 1.00000E+01
 -1      5221 2.74004E+01 2.74004E+01 1.00000E+01
 -1      5223 2.58978E+01 3.03225E+01 1.00000E+01
 -1      5224 2.27767E+01 3.13494E+01 1.00000E+01
 -1      5226 2.08355E+01 3.40005E+01 1.00000E+01
 -1      5227 1.75921E+01 3.45265E+01 1.00000E+01
 -1      5229 1.52601E+01 3.68413E+01 1.00000E+01
 -1      5230 1.19744E+01 3.68534E+01 1.00000E+01
 -1      5232 9.30903E+00 3.87749E+01 1.00000E+01
 -1      5233 6.06184E+00 3.82729E+01 1.00000E+01
 -1      5235 3.12869E+00 3.97538E+01 1.00000E+01
 -1      5237 4.22384E+01 3.32423E+00 1.00000E+01
 -1      5238 4.07421E+01 6.45292E+00 1.00000E+01
 -1      5240 4.11983E+01 9.89084E+00 1.00000E+01
 -1      5241 3.92311E+01 1.27470E+01 1.00000E+01
 -1      5243 3.91438E+01 1.62139E+01 1.00000E+01
 -1      5244 3.67540E+01 1.87271E+01 1.00000E+01
 -1      5246 3.61255E+01 2.21377E+01 1.00000E+01
 -1      5247 3.33720E+01 2.42461E+01 1.00000E+01
 -1      5249 3.22176E+01 2.75165E+01 1.00000E+01
 -1      5250 2.91682E+01 2.91682E+01 1.00000E+01
 -1      5252 2.75165E+01 3.22176E+01 1.00000E+01
 -1      5253 2.42461E+01 3.33720E+01 1.00000E+01
 -1      5255 2.21377E+01 3.61255E+01 1.00000E+01
 -1      5256 1.87271E+01 3.67540E+01 1.00000E+01
 -1      5258 1.62139E+01 3.91438E+01 1.00000E+01
 -1      5259 1.27470E+01 3.92311E+01 1.00000E+01
 -1      5261 9.89084E+00 4.11983E+01 1.00000E+01
 -1      5262 6.45292E+00 4.07421E+01 1.00000E+01
 -1      5264 3.32423E+00 4.22384E+01 1.00000E+01
 -1      5266 4.47230E+01 3.51978E+00 1.00000E+01
 -1      5267 4.32114E+01 6.84401E+00 1.00000E+01
 -1      5269 4.36218E+01 1.04727E+01 1.00000E+01
 -1      5270 4.16087E+01 1.35195E+01 1.00000E+01
 -1      5272 4.14464E+01 1.71677E+01 1.00000E+01
 -1      5273 3.89815E+01 1.98621E+01 1.00000E+01
 -1      5275 3.82505E+01 2.34400E+01 1.00000E+01
 -1      5276 3.53945E+01 2.57156E+01 1.00000E+01
 -1      5278 3.41128E+01 2.91351E+01 1.00000E+01
 -1      5279 3.09359E+01 3.09359E+01 1.00000E+01
 -1      5281 2.91351E+01 3.41128E+01 1.00000E+01
 -1      5282 2.57156E+01 3.53945E+01 1.00000E+01
 -1      5284 2.34400E+01 3.82505E+01 1.00000E+01
 -1      5285 1.98621E+01 3.89815E+01 1.00000E+01
 -1      5287 1.71677E+01 4.14464E+01 1.00000E+01
 -1      5288 1.35195E+01 4.16087E+01 1.00000E+01
 -1      5290 1.04727E+01 4.36218E+01 1.00000E+01
 -1      5291 6.84401E+00 4.32114E+01 1.00000E+01
 -1      5293 3.51978E+00 4.47230E+01 1.00000E+01
 -1      5295 4.72076E+01 3.71532E+00 1.00000E+01
 -1      5296 4.56806E+01 7.23509E+00 1.00000E+01
 -1      5298 4.60452E+01 1.10545E+01 1.00000E+01
 -1      5299 4.39864E+01 1.42920E+01 1.00000E+01
 -1      5301 4.37490E+01 1.81214E+01 1.00000E+01
 -1      5302 4.12091E+01 2.09971E+01 1.00000E+01
 -1      5304 4.03756E+01 2.47422E+01 1.00000E+01
 -1      5305 3.74170E+01 2.71851E+01 1.00000E+01
 -1      5307 3.60079E+01 3.07537E+01 1.00000E+01
 -1      5308 3.27037E+01 3.27037E+01 1.00000E+01
 -1      5310 3.07537E+01 3.60079E+01 1.00000E+01
 -1      5311 2.71851E+01 3.74170E+01 1.00000E+01
 -1      5313 2.47422E+01 4.03756E+01 1.00000E+01
 -1      5314 2.09971E+01 4.12091E+01 1.00000E+01
 -1      5316 1.81214E+01 4.37490E+01 1.00000E+01
 -1      5317 1.42920E+01 4.39864E+01 1.00000E+01
 -1      5319 1.10545E+01 4.60452E+01 1.00000E+01
 -1      5320 7.23509E+00 4.56806E+01 1.00000E+01
 -1      5322 3.71532E+00 4.72076E+01 1.00000E+01
 -1      5324 4.96922E+01 3.91086E+00 1.00000E+01
 -1      5325 4.81498E+01 7.62618E+00 1.00000E+01
 -1      5327 4.84686E+01 1.16363E+01 1.00000E+01
 -1      5328 4.63640E+01 1.50646E+01 1.00000E+01
 -1      5330 4.60516E+01 1.90752E+01 1.00000E+01
 -1      5331 4.34366E+01 2.21320E+01 1.00000E+01
 -1      5333 4.25006E+01 2.60444E+01 1.00000E+01
 -1      5334 3.94396E+01 2.86545E+01 1.00000E+01
 -1      5336 3.79031E+01 3.23723E+01 1.00000E+01
 -1      5337 3.44715E+01 3.44715E+01 1.00000E+01
 -1      5339 3.23723E+01 3.79031E+01 1.00000E+01
 -1      5340 2.86545E+01 3.94396E+01 1.00000E+01
 -1      5342 2.60444E+01 4.25006E+01 1.00000E+01
 -1      5343 2.21320E+01 4.34366E+01 1.00000E+01
 -1      5345 1.90752E+01 4.60516E+01 1.00000E+01
 -1      5346 1.50646E+01 4.63640E+01 1.00000E+01
 -1      5348 1.16363E+01 4.84686E+01 1.00000E+01
 -1      5349 7.62618E+00 4.81498E+01 1.00000E+01
 -1      5351 3.91086E+00 4.96922E+01 1.00000E+01
 -1      5353 5.21768E+01 4.10640E+00 1.00000E+01
 -1      5354 5.06190E+01 8.01727E+00 1.00000E+01
 -1      5356 5.08921E+01 1.22181E+01 1.00000E+01
 -1      5357 4.87416E+01 1.58371E+01 1.00000E+01
 -1      5359 4.83542E+01 2.00289E+01 1.00000E+01
 -1      5360 4.56641E+01 2.32670E+01 1.00000E+01
 -1      5362 4.46256E+01 2.73466E+01 1.00000E+01
 -1      5363 4.14621E+01 3.01240E+01 1.00000E+01
 -1      5365 3.97982E+01 3.39909E+01 1.00000E+01
 -1      5366 3.62392E+01 3.62392E+01 1.00000E+01
 -1      5368 3.39909E+01 3.97982E+01 1.00000E+01
 -1      5369 3.01240E+01 4.14621E+01 1.00000E+01
 -1      5371 2.73466E+01 4.46256E+01 1.00000E+01
 -1      5372 2.32670E+01 4.56641E+01 1.00000E+01
 -1      5374 2.00289E+01 4.83542E+01 1.00000E+01
 -1      5375 1.58371E+01 4.87416E+01 1.00000E+01
 -1      5377 1.22181E+01 5.08921E+01 1.00000E+01
 -1      5378 8.01727E+00 5.06190E+01 1.00000E+01
 -1      5380 4.10640E+00 5.21768E+01 1.00000E+01
 -1      5382 5.46614E+01 4.30195E+00 1.00000E+01
 -1      5383 5.30882E+01 8.40835E+00 1.00000E+01
 -1      5385 5.33155E+01 1.27999E+01 1.00000E+01
 -1      5386 5.11193E+01 1.66097E+01 1.00000E+01
 -1      5388 5.06567E+01 2.09827E+01 1.00000E+01
 -1      5389 4.78916E+01 2.44020E+01 1.00000E+01
 -1      5391 4.67506E+01 2.86488E+01 1.00000E+01
 -1      5392 4.34847E+01 3.15935E+01 1.00000E+01
 -1      5394 4.16934E+01 3.56095E+01 1.00000E+01
 -1      5395 3.80070E+01 3.80070E+01 1.00000E+01
 -1      5397 3.56095E+01 4.16934E+01 1.00000E+01
 -1      5398 3.15935E+01 4.34847E+01 1.00000E+01
 -1      5400 2.86488E+01 4.67506E+01 1.00000E+01
 -1      5401 2.44020E+01 4.78916E+01 1.00000E+01
 -1      5403 2.09827E+01 5.06567E+01 1.00000E+01
 -1      5404 1.66097E+01 5.11193E+01 1.00000E+01
 -1      5406 1.27999E+01 5.33155E+01 1.00000E+01
 -1      5407 8.40835E+00 5.30882E+01 1.00000E+01
 -1      5409 4.30195E+00 5.46614E+01 1.00000E+01
 -1      5411 5.71460E+01 4.49749E+00 1.00000E+01
 -1      5412 5.55575E+01 8.79944E+00 1.00000E+01
 -1      5414 5.57389E+01 1.33817E+01 1.00000E+01
 -1      5415 5.34969E+01 1.73822E+01 1.00000E+01
 -1      5417 5.29593E+01 2.19365E+01 1.00000E+01
 -1      5418 5.01191E+01 2.55370E+01 1.00000E+01
 -1      5420 4.88757E+01 2.99511E+01 1.00000E+01
 -1      5421 4.55072E+01 3.30629E+01 1.00000E+01
 -1      5423 4.35886E+01 3.72281E+01 1.00000E+01
 -1      5424 3.97748E+01 3.97748E+01 1.00000E+01
 -1      5426 3.72281E+01 4.35886E+01 1.00000E+01
 -1      5427 3.30629E+01 4.55072E+01 1.00000E+01
 -1      5429 2.99511E+01 4.88757E+01 1.00000E+01
 -1      5430 2.55370E+01 5.01191E+01 1.00000E+01
 -1      5432 2.19365E+01 5.29593E+01 1.00000E+01
 -1      5433 1.73822E+01 5.34969E+01 1.00000E+01
 -1      5435 1.33817E+01 5.57389E+01 1.00000E+01
 -1      5436 8.79944E+00 5.55575E+01 1.00000E+01
 -1      5438 4.49749E+00 5.71460E+01 1.00000E+01
 -1      5440 5.96306E+01 4.69303E+00 1.00000E+01
 -1      5441 5.80267E+01 9.19053E+00 1.00000E+01
 -1      5443 5.81623E+01 1.39635E+01 1.00000E+01
 -1      5444 5.58746E+01 1.81547E+01 1.00000E+01
 -1      5446 5.52619E+01 2.28902E+01 1.00000E+01
 -1      5447 5.23466E+01 2.66719E+01 1.00000E+01
 -1      5449 5.10007E+01 3.12533E+01 1.00000E+01
 -1      5450 4.75297E+01 3.45324E+01 1.00000E+01
 -1      5452 4.54837E+01 3.88468E+01 1.00000E+01
 -1      5453 4.15425E+01 4.15425E+01 1.00000E+01
 -1      5455 3.88468E+01 4.54837E+01 1.00000E+01
 -1      5456 3.45324E+01 4.75297E+01 1.00000E+01
 -1      5458 3.12533E+01 5.10007E+01 1.00000E+01
 -1      5459 2.66719E+01 5.23466E+01 1.00000E+01
 -1      5461 2.28902E+01 5.52619E+01 1.00000E+01
 -1      5462 1.81547E+01 5.58746E+01 1.00000E+01
 -1      5464 1.39635E+01 5.81623E+01 1.00000E+01
 -1      5465 9.19053E+00 5.80267E+01 1.00000E+01
 -1      5467 4.69303E+00 5.96306E+01 1.00000E+01
 -1      5469 6.21153E+01 4.88858E+00 1.00000E+01
 -1      5470 6.04959E+01 9.58161E+00 1.00000E+01
 -1      5472 6.05858E+01 1.45454E+01 1.00000E+01
 -1      5473 5.82522E+01 1.89273E+01 1.00000E+01
 -1      5475 5.75645E+01 2.38440E+01 1.00000E+01
 -1      5476 5.45742E+01 2.78069E+01 1.00000E+01
 -1      5478 5.31257E+01 3.25555E+01 1.00000E+01
 -1      5479 4.95523E+01 3.60018E+01 1.00000E+01
 -1      5481 4.73789E+01 4.04654E+01 1.00000E+01
 -1      5482 4.33103E+01 4.33103E+01 1.00000E+01
 -1      5484 4.04654E+01 4.73789E+01 1.00000E+01
 -1      5485 3.60018E+01 4.95523E+01 1.00000E+01
 -1      5487 3.25555E+01 5.31257E+01 1.00000E+01
 -1      5488 2.78069E+01 5.45742E+01 1.00000E+01
 -1      5490 2.38440E+01 5.75645E+01 1.00000E+01
 -1      5491 1.89273E+01 5.82522E+01 1.00000E+01
 -1      5493 1.45454E+01 6.05858E+01 1.00000E+01
 -1      5494 9.58161E+00 6.04959E+01 1.00000E+01
 -1      5496 4.88858E+00 6.21153E+01 1.00000E+01
 -1      5498 6.45999E+01 5.08412E+00 1.00000E+01
 -1      5499 6.29651E+01 9.97270E+00 1.00000E+01
 -1      5501 6.30092E+01 1.51272E+01 1.00000E+01
 -1      5502 6.06299E+01 1.96998E+01 1.00000E+01
 -1      5504 5.98671E+01 2.47977E+01 1.00000E+01
 -1      5505 5.68017E+01 2.89419E+01 1.00000E+01
 -1      5507 5.52508E+01 3.38577E+01 1.00000E+01
 -1      5508 5.15748E+01 3.74713E+01 1.00000E+01
 -1      5510 4.92740E+01 4.20840E+01 1.00000E+01
 -1      5511 4.50781E+01 4.50781E+01 1.00000E+01
 -1      5513 4.20840E+01 4.92740E+01 1.00000E+01
 -1      5514 3.74713E+01 5.15748E+01 1.00000E+01
 -1      5516 3.38577E+01 5.52508E+01 1.00000E+01
 -1      5517 2.89419E+01 5.68017E+01 1.00000E+01
 -1      5519 2.47977E+01 5.98671E+01 1.00000E+01
 -1      5520 1.96998E+01 6.06299E+01 1.00000E+01
 -1      5522 1.51272E+01 6.30092E+01 1.00000E+01
 -1      5523 9.97270E+00 6.29651E+01 1.00000E+01
 -1      5525 5.08412E+00 6.45999E+01 1.00000E+01
 -1      5527 6.70845E+01 5.27966E+00 1.00000E+01
 -1      5528 6.54343E+01 1.03638E+01 1.00000E+01
 -1      5530 6.54326E+01 1.57090E+01 1.00000E+01
 -1      5531 6.30075E+01 2.04724E+01 1.00000E+01
 -1      5533 6.21696E+01 2.57515E+01 1.00000E+01
 -1      5534 5.90292E+01 3.00769E+01 1.00000E+01
 -1      5536 5.73758E+01 3.51599E+01 1.00000E+01
 -1      5537 5.35974E+01 3.89408E+01 1.00000E+01
 -1      5539 5.11692E+01 4.37026E+01 1.00000E+01
 -1      5540 4.68458E+01 4.68458E+01 1.00000E+01
 -1      5542 4.37026E+01 5.11692E+01 1.00000E+01
 -1      5543 3.89408E+01 5.35974E+01 1.00000E+01
 -1      5545 3.51599E+01 5.73758E+01 1.00000E+01
 -1      5546 3.00769E+01 5.90292E+01 1.00000E+01
 -1      5548 2.57515E+01 6.21696E+01 1.00000E+01
 -1      5549 2.04724E+01 6.30075E+01 1.00000E+01
 -1      5551 1.57090E+01 6.54326E+01 1.00000E+01
 -1      5552 1.03638E+01 6.54343E+01 1.00000E+01
 -1      5554 5.27966E+00 6.70845E+01 1.00000E+01
 -1      5556 6.95691E+01 5.47521E+00 1.00000E+01
 -1      5557 6.79036E+01 1.07549E+01 1.00000E+01
 -1      5559 6.78561E+01 1.62908E+01 1.00000E+01
 -1      5560 6.53851E+01 2.12449E+01 1.00000E+01
 -1      5562 6.44722E+01 2.67053E+01 1.00000E+01
 -1      5563 6.12567E+01 3.12118E+01 1.00000E+01
 -1      5565 5.95008E+01 3.64622E+01 1.00000E+01
 -1      5566 5.56199E+01 4.04102E+01 1.00000E+01
 -1      5568 5.30643E+01 4.53212E+01 1.00000E+01
 -1      5569 4.86136E+01 4.86136E+01 1.00000E+01
 -1      5571 4.53212E+01 5.30643E+01 1.00000E+01
 -1      5572 4.04102E+01 5.56199E+01 1.00000E+01
 -1      5574 3.64622E+01 5.95008E+01 1.00000E+01
 -1      5575 3.12118E+01 6.12567E+01 1.00000E+01
 -1      5577 2.67053E+01 6.44722E+01 1.00000E+01
 -1      5578 2.12449E+01 6.53851E+01 1.00000E+01
 -1      5580 1.62908E+01 6.78561E+01 1.00000E+01
 -1      5581 1.07549E+01 6.79036E+01 1.00000E+01
 -1      5583 5.47521E+00 6.95691E+01 1.00000E+01
 -1      5585 7.20537E+01 5.67075E+00 1.00000E+01
 -1      5586 7.03728E+01 1.11460E+01 1.00000E+01
 -1      5588 7.02795E+01 1.68726E+01 1.00000E+01
 -1      5589 6.77628E+01 2.20175E+01 1.00000E+01
 -1      5591 6.67748E+01 2.76590E+01 1.00000E+01
 -1      5592 6.34842E+01 3.23468E+01 1.00000E+01
 -1      5594 6.16259E+01 3.77644E+01 1.00000E+01
 -1      5595 5.76425E+01 4.18797E+01 1.00000E+01
 -1      5597 5.49595E+01 4.69398E+01 1.00000E+01
 -1      5598 5.03814E+01 5.03814E+01 1.00000E+01
 -1      5600 4.69398E+01 5.49595E+01 1.00000E+01
 -1      5601 4.18797E+01 5.76425E+01 1.00000E+01
 -1      5603 3.77644E+01 6.16259E+01 1.00000E+01
 -1      5604 3.23468E+01 6.34842E+01 1.00000E+01
 -1      5606 2.76590E+01 6.67748E+01 1.00000E+01
 -1      5607 2.20175E+01 6.77628E+01 1.00000E+01
 -1      5609 1.68726E+01 7.02795E+01 1.00000E+01
 -1      5610 1.11460E+01 7.03728E+01 1.00000E+01
 -1      5612 5.67075E+00 7.20537E+01 1.00000E+01
 -1      5614 7.45383E+01 5.86629E+00 1.00000E+01
 -1      5615 7.28420E+01 1.15370E+01 1.00000E+01
 -1      5617 7.27029E+01 1.74544E+01 1.00000E+01
 -1      5618 7.01404E+01 2.27900E+01 1.00000E+01
 -1      5620 6.90774E+01 2.86128E+01 1.00000E+01
 -1      5621 6.57117E+01 3.34818E+01 1.00000E+01
 -1      5623 6.37509E+01 3.90666E+01 1.00000E+01
 -1      5624 5.96650E+01 4.33492E+01 1.00000E+01
 -1      5626 5.68546E+01 4.85585E+01 1.00000E+01
 -1      5627 5.21491E+01 5.21491E+01 1.00000E+01
 -1      5629 4.85585E+01 5.68546E+01 1.00000E+01
 -1      5630 4.33492E+01 5.96650E+01 1.00000E+01
 -1      5632 3.90666E+01 6.37509E+01 1.00000E+01
 -1      5633 3.34818E+01 6.57117E+01 1.00000E+01
 -1      5635 2.86128E+01 6.90774E+01 1.00000E+01
 -1      5636 2.27900E+01 7.01404E+01 1.00000E+01
 -1      5638 1.74544E+01 7.27029E+01 1.00000E+01
 -1      5639 1.15370E+01 7.28420E+01 1.00000E+01
 -1      5641 5.86629E+00 7.45383E+01 1.00000E+01
 -1      5643 7.70229E+01 6.06184E+00 1.00000E+01
 -1      5644 7.53112E+01 1.19281E+01 1.00000E+01
 -1      5646 7.51264E+01 1.80362E+01 1.00000E+01
 -1      5647 7.25181E+01 2.35625E+01 1.00000E+01
 -1      5649 7.13799E+01 2.95665E+01 1.00000E+01
 -1      5650 6.79392E+01 3.46168E+01 1.00000E+01
 -1      5652 6.58759E+01 4.03688E+01 1.00000E+01
 -1      5653 6.16875E+01 4.48186E+01 1.00000E+01
 -1      5655 5.87498E+01 5.01771E+01 1.00000E+01
 -1      5656 5.39169E+01 5.39169E+01 1.00000E+01
 -1      5658 5.01771E+01 5.87498E+01 1.00000E+01
 -1      5659 4.48186E+01 6.16875E+01 1.00000E+01
 -1      5661 4.03688E+01 6.58759E+01 1.00000E+01
 -1      5662 3.46168E+01 6.79392E+01 1.00000E+01
 -1      5664 2.95665E+01 7.13799E+01 1.00000E+01
 -1      5665 2.35625E+01 7.25181E+01 1.00000E+01
 -1      5667 1.80362E+01 7.51264E+01 1.00000E+01
 -1      5668 1.19281E+01 7.53112E+01 1.00000E+01
 -1      5670 6.06184E+00 7.70229E+01 1.00000E+01
 -1      5672 7.95075E+01 6.25738E+00 1.00000E+01
 -1      5673 7.77805E+01 1.23192E+01 1.00000E+01
 -1      5675 7.75498E+01 1.86181E+01 1.00000E+01
 -1      5676 7.48957E+01 2.43351E+01 1.00000E+01
 -1      5678 7.36825E+01 3.05203E+01 1.00000E+01
 -1      5679 7.01668E+01 3.57518E+01 1.00000E+01
 -1      5681 6.80009E+01 4.16710E+01 1.00000E+01
 -1      5682 6.37101E+01 4.62881E+01 1.00000E+01
 -1      5684 6.06450E+01 5.17957E+01 1.00000E+01
 -1      5685 5.56847E+01 5.56847E+01 1.00000E+01
 -1      5687 5.17957E+01 6.06450E+01 1.00000E+01
 -1      5688 4.62881E+01 6.37101E+01 1.00000E+01
 -1      5690 4.16710E+01 6.80009E+01 1.00000E+01
 -1      5691 3.57518E+01 7.01668E+01 1.00000E+01
 -1      5693 3.05203E+01 7.36825E+01 1.00000E+01
 -1      5694 2.43351E+01 7.48957E+01 1.00000E+01
 -1      5696 1.86181E+01 7.75498E+01 1.00000E+01
 -1      5697 1.23192E+01 7.77805E+01 1.00000E+01
 -1      5699 6.25738E+00 7.95075E+01 1.00000E+01
 -1      5701 8.19921E+01 6.45292E+00 1.00000E+01
 -1      5702 8.02497E+01 1.27103E+01 1.00000E+01
 -1      5704 7.99732E+01 1.91999E+01 1.00000E+01
 -1      5705 7.72733E+01 2.51076E+01 1.00000E+01
 -1      5707 7.59851E+01 3.14741E+01 1.00000E+01
 -1      5708 7.23943E+01 3.68867E+01 1.00000E+01
 -1      5710 7.01260E+01 4.29733E+01 1.00000E+01
 -1      5711 6.57326E+01 4.77576E+01 1.00000E+01
 -1      5713 6.25401E+01 5.34143E+01 1.00000E+01
 -1      5714 5.74524E+01 5.74524E+01 1.00000E+01
 -1      5716 5.34143E+01 6.25401E+01 1.00000E+01
 -1      5717 4.77576E+01 6.57326E+01 1.00000E+01
 -1      5719 4.29733E+01 7.01260E+01 1.00000E+01
 -1      5720 3.68867E+01 7.23943E+01 1.00000E+01
 -1      5722 3.14741E+01 7.59851E+01 1.00000E+01
 -1      5723 2.51076E+01 7.72733E+01 1.00000E+01
 -1      5725 1.91999E+01 7.99732E+01 1.00000E+01
 -1      5726 1.27103E+01 8.02497E+01 1.00000E+01
 -1      5728 6.45292E+00 8.19921E+01 1.00000E+01
 -1      5730 8.44768E+01 6.64846E+00 1.00000E+01
 -1      5731 8.27189E+01 1.31014E+01 1.00000E+01
 -1      5733 8.23967E+01 1.97817E+01 1.00000E+01
 -1      5734 7.96510E+01 2.58802E+01 1.00000E+01
 -1      5736 7.82877E+01 3.24278E+01 1.00000E+01
 -1      5737 7.46218E+01 3.80217E+01 1.00000E+01
 -1      5739 7.22510E+01 4.42755E+01 1.00000E+01
 -1      5740 6.77552E+01 4.92270E+01 1.00000E+01
 -1      5742 6.44353E+01 5.50329E+01 1.00000E+01
 -1      5743 5.92202E+01 5.92202E+01 1.00000E+01
 -1      5745 5.50329E+01 6.44353E+01 1.00000E+01
 -1      5746 4.92270E+01 6.77552E+01 1.00000E+01
 -1      5748 4.42755E+01 7.22510E+01 1.00000E+01
 -1      5749 3.80217E+01 7.46218E+01 1.00000E+01
 -1      5751 3.24278E+01 7.82877E+01 1.00000E+01
 -1      5752 2.58802E+01 7.96510E+01 1.00000E+01
 -1      5754 1.97817E+01 8.23967E+01 1.00000E+01
 -1      5755 1.31014E+01 8.27189E+01 1.00000E+01
 -1      5757 6.64846E+00 8.44768E+01 1.00000E+01
 -1      5759 8.69614E+01 6.84401E+00 1.00000E+01
 -1      5760 8.51881E+01 1.34925E+01 1.00000E+01
 -1      5762 8.48201E+01 2.03635E+01 1.00000E+01
 -1      5763 8.20286E+01 2.66527E+01 1.00000E+01
 -1      5765 8.05903E+01 3.33816E+01 1.00000E+01
 -1      5766 7.68493E+01 3.91567E+01 1.00000E+01
 -1      5768 7.43760E+01 4.55777E+01 1.00000E+01
 -1      5769 6.97777E+01 5.06965E+01 1.00000E+01
 -1      5771 6.63304E+01 5.66515E+01 1.00000E+01
 -1      5772 6.09880E+01 6.09880E+01 1.00000E+01
 -1      5774 5.66515E+01 6.63304E+01 1.00000E+01
 -1      5775 5.06965E+01 6.97777E+01 1.00000E+01
 -1      5777 4.55777E+01 7.43760E+01 1.00000E+01
 -1      5778 3.91567E+01 7.68493E+01 1.00000E+01
 -1      5780 3.33816E+01 8.05903E+01 1.00000E+01
 -1      5781 2.66527E+01 8.20286E+01 1.00000E+01
 -1      5783 2.03635E+01 8.48201E+01 1.00000E+01
 -1      5784 1.34925E+01 8.51881E+01 1.00000E+01
 -1      5786 6.84401E+00 8.69614E+01 1.00000E+01
 -1      5788 8.94460E+01 7.03955E+00 1.00000E+01
 -1      5789 8.76573E+01 1.38836E+01 1.00000E+01
 -1      5791 8.72435E+01 2.09453E+01 1.00000E+01
 -1      5792 8.44063E+01 2.74253E+01 1.00000E+01
 -1      5794 8.28928E+01 3.43353E+01 1.00000E+01
 -1      5795 7.90768E+01 4.02917E+01 1.00000E+01
 -1      5797 7.65011E+01 4.68799E+01 1.00000E+01
 -1      5798 7.18003E+01 5.21659E+01 1.00000E+01
 -1      5800 6.82256E+01 5.82701E+01 1.00000E+01
 -1      5801 6.27557E+01 6.27557E+01 1.00000E+01
 -1      5803 5.82701E+01 6.82256E+01 1.00000E+01
 -1      5804 5.21659E+01 7.18003E+01 1.00000E+01
 -1      5806 4.68799E+01 7.65011E+01 1.00000E+01
 -1      5807 4.02917E+01 7.90768E+01 1.00000E+01
 -1      5809 3.43353E+01 8.28928E+01 1.00000E+01
 -1      5810 2.74253E+01 8.44063E+01 1.00000E+01
 -1      5812 2.09453E+01 8.72435E+01 1.00000E+01
 -1      5813 1.38836E+01 8.76573E+01 1.00000E+01
 -1      5815 7.03955E+00 8.94460E+01 1.00000E+01
 -1      5817 9.19306E+01 7.23509E+00 1.00000E+01
 -1      5818 9.01266E+01 1.42746E+01 1.00000E+01
 -1      5820 8.96669E+01 2.15271E+01 1.00000E+01
 -1      5821 8.67839E+01 2.81978E+01 1.00000E+01
 -1      5823 8.51954E+01 3.52891E+01 1.00000E+01
 -1      5824 8.13043E+01 4.14266E+01 1.00000E+01
 -1      5826 7.86261E+01 4.81821E+01 1.00000E+01
 -1      5827 7.38228E+01 5.36354E+01 1.00000E+01
 -1      5829 7.01207E+01 5.98888E+01 1.00000E+01
 -1      5830 6.45235E+01 6.45235E+01 1.00000E+01
 -1      5832 5.98888E+01 7.01207E+01 1.00000E+01
 -1      5833 5.36354E+01 7.38228E+01 1.00000E+01
 -1      5835 4.81821E+01 7.86261E+01 1.00000E+01
 -1      5836 4.14266E+01 8.13043E+01 1.00000E+01
 -1      5838 3.52891E+01 8.51954E+01 1.00000E+01
 -1      5839 2.81978E+01 8.67839E+01 1.00000E+01
 -1      5841 2.15271E+01 8.96669E+01 1.00000E+01
 -1      5842 1.42746E+01 9.01266E+01 1.00000E+01
 -1      5844 7.23509E+00 9.19306E+01 1.00000E+01
 -1      5846 9.44152E+01 7.43064E+00 1.00000E+01
 -1      5847 9.25958E+01 1.46657E+01 1.00000E+01
 -1      5849 9.20904E+01 2.21089E+01 1.00000E+01
 -1      5850 8.91615E+01 2.89703E+01 1.00000E+01
 -1      5852 8.74980E+01 3.62429E+01 1.00000E+01
 -1      5853 8.35319E+01 4.25616E+01 1.00000E+01
 -1      5855 8.07511E+01 4.94843E+01 1.00000E+01
 -1      5856 7.58453E+01 5.51049E+01 1.00000E+01
 -1      5858 7.20159E+01 6.15074E+01 1.00000E+01
 -1      5859 6.62913E+01 6.62913E+01 1.00000E+01
 -1      5861 6.15074E+01 7.20159E+01 1.00000E+01
 -1      5862 5.51049E+01 7.58453E+01 1.00000E+01
 -1      5864 4.94843E+01 8.07511E+01 1.00000E+01
 -1      5865 4.25616E+01 8.35319E+01 1.00000E+01
 -1      5867 3.62429E+01 8.74980E+01 1.00000E+01
 -1      5868 2.89703E+01 8.91615E+01 1.00000E+01
 -1      5870 2.21089E+01 9.20904E+01 1.00000E+01
 -1      5871 1.46657E+01 9.25958E+01 1.00000E+01
 -1      5873 7.43064E+00 9.44152E+01 1.00000E+01
 -1      5875 9.68998E+01 7.62618E+00 1.00000E+01
 -1      5876 9.50650E+01 1.50568E+01 1.00000E+01
 -1      5878 9.45138E+01 2.26908E+01 1.00000E+01
 -1      5879 9.15392E+01 2.97429E+01 1.00000E+01
 -1      5881 8.98006E+01 3.71966E+01 1.00000E+01
 -1      5882 8.57594E+01 4.36966E+01 1.00000E+01
 -1      5884 8.28761E+01 5.07866E+01 1.00000E+01
 -1      5885 7.78679E+01 5.65743E+01 1.00000E+01
 -1      5887 7.39110E+01 6.31260E+01 1.00000E+01
 -1      5888 6.80590E+01 6.80590E+01 1.00000E+01
 -1      5890 6.31260E+01 7.39110E+01 1.00000E+01
 -1      5891 5.65743E+01 7.78679E+01 1.00000E+01
 -1      5893 5.07866E+01 8.28761E+01 1.00000E+01
 -1      5894 4.36966E+01 8.57594E+01 1.00000E+01
 -1      5896 3.71966E+01 8.98006E+01 1.00000E+01
 -1      5897 2.97429E+01 9.15392E+01 1.00000E+01
 -1      5899 2.26908E+01 9.45138E+01 1.00000E+01
 -1      5900 1.50568E+01 9.50650E+01 1.00000E+01
 -1      5902 7.62618E+00 9.68998E+01 1.00000E+01
 -1      5904 9.75342E+01 1.54479E+01 1.00000E+01
 -1      5906 9.39168E+01 3.05154E+01 1.00000E+01
 -1      5908 8.79869E+01 4.48316E+01 1.00000E+01
 -1      5910 7.98904E+01 5.80438E+01 1.00000E+01
 -1      5912 6.98268E+01 6.98268E+01 1.00000E+01
 -1      5914 5.80438E+01 7.98904E+01 1.00000E+01
 -1      5916 4.48316E+01 8.79869E+01 1.00000E+01
 -1      5918 3.05154E+01 9.39168E+01 1.00000E+01
 -1      5920 1.54479E+01 9.75342E+01 1.00000E+01
 -1      5923 2.71614E+01 4.30195E+00 9.09091E-01
 -1      5924 2.71614E+01 4.30195E+00 1.81818E+00
 -1      5925 2.71614E+01 4.30195E+00 2.72727E+00
 -1      5926 2.71614E+01 4.30195E+00 3.63636E+00
 -1      5927 2.71614E+01 4.30195E+00 4.54545E+00
 -1      5928 2.71614E+01 4.30195E+00 5.45455E+00
 -1      5929 2.71614E+01 4.30195E+00 6.36364E+00
 -1      5930 2.71614E+01 4.30195E+00 7.27273E+00
 -1      5931 2.71614E+01 4.30195E+00 8.18182E+00
 -1      5932 2.71614E+01 4.30195E+00 9.09091E+00
 -1      5933 2.61541E+01 8.49797E+00 9.09091E-01
 -1      5934 2.61541E+01 8.49797E+00 1.81818E+00
 -1      5935 2.61541E+01 8.49797E+00 2.72727E+00
 -1      5936 2.61541E+01 8.49797E+00 3.63636E+00
 -1      5937 2.61541E+01 8.49797E+00 4.54545E+00
 -1      5938 2.61541E+01 8.49797E+00 5.45455E+00
 -1      5939 2.61541E+01 8.49797E+00 6.36364E+00
 -1      5940 2.61541E+01 8.49797E+00 7.27273E+00
 -1      5941 2.61541E+01 8.49797E+00 8.18182E+00
 -1      5942 2.61541E+01 8.49797E+00 9.09091E+00
 -1      5943 2.45027E+01 1.24847E+01 9.09091E-01
 -1      5944 2.45027E+01 1.24847E+01 1.81818E+00
 -1      5945 2.45027E+01 1.24847E+01 2.72727E+00
 -1      5946 2.45027E+01 1.24847E+01 3.63636E+00
 -1      5947 2.45027E+01 1.24847E+01 4.54545E+00
 -1      5948 2.45027E+01 1.24847E+01 5.45455E+00
 -1      5949 2.45027E+01 1.24847E+01 6.36364E+00
 -1      5950 2.45027E+01 1.24847E+01 7.27273E+00
 -1      5951 2.45027E+01 1.24847E+01 8.18182E+00
 -1      5952 2.45027E+01 1.24847E+01 9.09091E+00
 -1      5953 2.22480E+01 1.61641E+01 9.09091E-01
 -1      5954 2.22480E+01 1.61641E+01 1.81818E+00
 -1      5955 2.22480E+01 1.61641E+01 2.72727E+00
 -1      5956 2.22480E+01 1.61641E+01 3.63636E+00
 -1      5957 2.22480E+01 1.61641E+01 4.54545E+00
 -1      5958 2.22480E+01 1.61641E+01 5.45455E+00
 -1      5959 2.22480E+01 1.61641E+01 6.36364E+00
 -1      5960 2.22480E+01 1.61641E+01 7.27273E+00
 -1      5961 2.22480E+01 1.61641E+01 8.18182E+00
 -1      5962 2.22480E+01 1.61641E+01 9.09091E+00
 -1      5963 1.94454E+01 1.94454E+01 9.09091E-01
 -1      5964 1.94454E+01 1.94454E+01 1.81818E+00
 -1      5965 1.94454E+01 1.94454E+01 2.72727E+00
 -1      5966 1.94454E+01 1.94454E+01 3.63636E+00
 -1      5967 1.94454E+01 1.94454E+01 4.54545E+00
 -1      5968 1.94454E+01 1.94454E+01 5.45455E+00
 -1      5969 1.94454E+01 1.94454E+01 6.36364E+00
 -1      5970 1.94454E+01 1.94454E+01 7.27273E+00
 -1      5971 1.94454E+01 1.94454E+01 8.18182E+00
 -1      5972 1.94454E+01 1.94454E+01 9.09091E+00
 -1      5973 1.61641E+01 2.22480E+01 9.09091E-01
 -1      5974 1.61641E+01 2.22480E+01 1.81818E+00
 -1      5975 1.61641E+01 2.22480E+01 2.72727E+00
 -1      5976 1.61641E+01 2.22480E+01 3.63636E+00
 -1      5977 1.61641E+01 2.22480E+01 4.54545E+00
 -1      5978 1.61641E+01 2.22480E+01 5.45455E+00
 -1      5979 1.61641E+01 2.22480E+01 6.36364E+00
 -1      5980 1.61641E+01 2.22480E+01 7.27273E+00
 -1      5981 1.61641E+01 2.22480E+01 8.18182E+00
 -1      5982 1.61641E+01 2.22480E+01 9.09091E+00
 -1      5983 1.24847E+01 2.45027E+01 9.09091E-01
 -1      5984 1.24847E+01 2.45027E+01 1.81818E+00
 -1      5985 1.24847E+01 2.45027E+01 2.72727E+00
 -1      5986 1.24847E+01 2.45027E+01 3.63636E+00
 -1      5987 1.24847E+01 2.45027E+01 4.54545E+00
 -1      5988 1.24847E+01 2.45027E+01 5.45455E+00
 -1      5989 1.24847E+01 2.45027E+01 6.36364E+00
 -1      5990 1.24847E+01 2.45027E+01 7.27273E+00
 -1      5991 1.24847E+01 2.45027E+01 8.18182E+00
 -1      5992 1.24847E+01 2.45027E+01 9.09091E+00
 -1      5993 8.49797E+00 2.61541E+01 9.09091E-01
 -1      5994 8.49797E+00 2.61541E+01 1.81818E+00
 -1      5995 8.49797E+00 2.61541E+01 2.72727E+00
 -1      5996 8.49797E+00 2.61541E+01 3.63636E+00
 -1      5997 8.49797E+00 2.61541E+01 4.54545E+00
 -1      5998 8.49797E+00 2.61541E+01 5.45455E+00
 -1      5999 8.49797E+00 2.61541E+01 6.36364E+00
 -1      6000 8.49797E+00 2.61541E+01 7.27273E+00
 -1      6001 8.49797E+00 2.61541E+01 8.18182E+00
 -1      6002 8.49797E+00 2.61541E+01 9.09091E+00
 -1      6003 4.30195E+00 2.71614E+01 9.09091E-01
 -1      6004 4.30195E+00 2.71614E+01 1.81818E+00
 -1      6005 4.30195E+00 2.71614E+01 2.72727E+00
 -1      6006 4.30195E+00 2.71614E+01 3.63636E+00
 -1      6007 4.30195E+00 2.71614E+01 4.54545E+00
 -1      6008 4.30195E+00 2.71614E+01 5.45455E+00
 -1      6009 4.30195E+00 2.71614E+01 6.36364E+00
 -1      6010 4.30195E+00 2.71614E+01 7.27273E+00
 -1      6011 4.30195E+00 2.71614E+01 8.18182E+00
 -1      6012 4.30195E+00 2.71614E+01 9.09091E+00
 -1      6013 2.96306E+01 4.69303E+00 9.09091E-01
 -1      6014 2.96306E+01 4.69303E+00 1.81818E+00
 -1      6015 2.96306E+01 4.69303E+00 2.72727E+00
 -1      6016 2.96306E+01 4.69303E+00 3.63636E+00
 -1      6017 2.96306E+01 4.69303E+00 4.54545E+00
 -1      6018 2.96306E+01 4.69303E+00 5.45455E+00
 -1      6019 2.96306E+01 4.69303E+00 6.36364E+00
 -1      6020 2.96306E+01 4.69303E+00 7.27273E+00
 -1      6021 2.96306E+01 4.69303E+00 8.18182E+00
 -1      6022 2.96306E+01 4.69303E+00 9.09091E+00
 -1      6023 2.85317E+01 9.27051E+00 9.09091E-01
 -1      6024 2.85317E+01 9.27051E+00 1.81818E+00
 -1      6025 2.85317E+01 9.27051E+00 2.72727E+00
 -1      6026 2.85317E+01 9.27051E+00 3.63636E+00
 -1      6027 2.85317E+01 9.27051E+00 4.54545E+00
 -1      6028 2.85317E+01 9.27051E+00 5.45455E+00
 -1      6029 2.85317E+01 9.27051E+00 6.36364E+00
 -1      6030 2.85317E+01 9.27051E+00 7.27273E+00
 -1      6031 2.85317E+01 9.27051E+00 8.18182E+00
 -1      6032 2.85317E+01 9.27051E+00 9.09091E+00
 -1      6033 2.67302E+01 1.36197E+01 9.09091E-01
 -1      6034 2.67302E+01 1.36197E+01 1.81818E+00
 -1      6035 2.67302E+01 1.36197E+01 2.72727E+00
 -1      6036 2.67302E+01 1.36197E+01 3.63636E+00
 -1      6037 2.67302E+01 1.36197E+01 4.54545E+00
 -1      6038 2.67302E+01 1.36197E+01 5.45455E+00
 -1      6039 2.67302E+01 1.36197E+01 6.36364E+00
 -1      6040 2.67302E+01 1.36197E+01 7.27273E+00
 -1      6041 2.67302E+01 1.36197E+01 8.18182E+00
 -1      6042 2.67302E+01 1.36197E+01 9.09091E+00
 -1      6043 2.42705E+01 1.76336E+01 9.09091E-01
 -1      6044 2.42705E+01 1.76336E+01 1.81818E+00
 -1      6045 2.42705E+01 1.76336E+01 2.72727E+00
 -1      6046 2.42705E+01 1.76336E+01 3.63636E+00
 -1      6047 2.42705E+01 1.76336E+01 4.54545E+00
 -1      6048 2.42705E+01 1.76336E+01 5.45455E+00
 -1      6049 2.42705E+01 1.76336E+01 6.36364E+00
 -1      6050 2.42705E+01 1.76336E+01 7.27273E+00
 -1      6051 2.42705E+01 1.76336E+01 8.18182E+00
 -1      6052 2.42705E+01 1.76336E+01 9.09091E+00
 -1      6053 2.12132E+01 2.12132E+01 9.09091E-01
 -1      6054 2.12132E+01 2.12132E+01 1.81818E+00
 -1      6055 2.12132E+01 2.12132E+01 2.72727E+00
 -1      6056 2.12132E+01 2.12132E+01 3.63636E+00
 -1      6057 2.12132E+01 2.12132E+01 4.54545E+00
 -1      6058 2.12132E+01 2.12132E+01 5.45455E+00
 -1      6059 2.12132E+01 2.12132E+01 6.36364E+00
 -1      6060 2.12132E+01 2.12132E+01 7.27273E+00
 -1      6061 2.12132E+01 2.12132E+01 8.18182E+00
 -1      6062 2.12132E+01 2.12132E+01 9.09091E+00
 -1      6063 1.76336E+01 2.42705E+01 9.09091E-01
 -1      6064 1.76336E+01 2.42705E+01 1.81818E+00
 -1      6065 1.76336E+01 2.42705E+01 2.72727E+00
 -1      6066 1.76336E+01 2.42705E+01 3.63636E+00
 -1      6067 1.76336E+01 2.42705E+01 4.54545E+00
 -1      6068 1.76336E+01 2.42705E+01 5.45455E+00
 -1      6069 1.76336E+01 2.42705E+01 6.36364E+00
 -1      6070 1.76336E+01 2.42705E+01 7.27273E+00
 -1      6071 1.76336E+01 2.42705E+01 8.18182E+00
 -1      6072 1.76336E+01 2.42705E+01 9.09091E+00
 -1      6073 1.36197E+01 2.67302E+01 9.09091E-01
 -1      6074 1.36197E+01 2.67302E+01 1.81818E+00
 -1      6075 1.36197E+01 2.67302E+01 2.72727E+00
 -1      6076 1.36197E+01 2.67302E+01 3.63636E+00
 -1      6077 1.36197E+01 2.67302E+01 4.54545E+00
 -1      6078 1.36197E+01 2.67302E+01 5.45455E+00
 -1      6079 1.36197E+01 2.67302E+01 6.36364E+00
 -1      6080 1.36197E+01 2.67302E+01 7.27273E+00
 -1      6081 1.36197E+01 2.67302E+01 8.18182E+00
 -1      6082 1.36197E+01 2.67302E+01 9.09091E+00
 -1      6083 9.27051E+00 2.85317E+01 9.09091E-01
 -1      6084 9.27051E+00 2.85317E+01 1.81818E+00
 -1      6085 9.27051E+00 2.85317E+01 2.72727E+00
 -1      6086 9.27051E+00 2.85317E+01 3.63636E+00
 -1      6087 9.27051E+00 2.85317E+01 4.54545E+00
 -1      6088 9.27051E+00 2.85317E+01 5.45455E+00
 -1      6089 9.27051E+00 2.85317E+01 6.36364E+00
 -1      6090 9.27051E+00 2.85317E+01 7.27273E+00
 -1      6091 9.27051E+00 2.85317E+01 8.18182E+00
 -1      6092 9.27051E+00 2.85317E+01 9.09091E+00
 -1      6093 4.69303E+00 2.96306E+01 9.09091E-01
 -1      6094 4.69303E+00 2.96306E+01 1.81818E+00
 -1      6095 4.69303E+00 2.96306E+01 2.72727E+00
 -1      6096 4.69303E+00 2.96306E+01 3.63636E+00
 -1      6097 4.69303E+00 2.96306E+01 4.54545E+00
 -1      6098 4.69303E+00 2.96306E+01 5.45455E+00
 -1      6099 4.69303E+00 2.96306E+01 6.36364E+00
 -1      6100 4.69303E+00 2.96306E+01 7.27273E+00
 -1      6101 4.69303E+00 2.96306E+01 8.18182E+00
 -1      6102 4.69303E+00 2.96306E+01 9.09091E+00
 -1      6103 3.20999E+01 5.08412E+00 9.09091E-01
 -1      6104 3.20999E+01 5.08412E+00 1.81818E+00
 -1      6105 3.20999E+01 5.08412E+00 2.72727E+00
 -1      6106 3.20999E+01 5.08412E+00 3.63636E+00
 -1      6107 3.20999E+01 5.08412E+00 4.54545E+00
 -1      6108 3.20999E+01 5.08412E+00 5.45455E+00
 -1      6109 3.20999E+01 5.08412E+00 6.36364E+00
 -1      6110 3.20999E+01 5.08412E+00 7.27273E+00
 -1      6111 3.20999E+01 5.08412E+00 8.18182E+00
 -1      6112 3.20999E+01 5.08412E+00 9.09091E+00
 -1      6113 3.09093E+01 1.00431E+01 9.09091E-01
 -1      6114 3.09093E+01 1.00431E+01 1.81818E+00
 -1      6115 3.09093E+01 1.00431E+01 2.72727E+00
 -1      6116 3.09093E+01 1.00431E+01 3.63636E+00
 -1      6117 3.09093E+01 1.00431E+01 4.54545E+00
 -1      6118 3.09093E+01 1.00431E+01 5.45455E+00
 -1      6119 3.09093E+01 1.00431E+01 6.36364E+00
 -1      6120 3.09093E+01 1.00431E+01 7.27273E+00
 -1      6121 3.09093E+01 1.00431E+01 8.18182E+00
 -1      6122 3.09093E+01 1.00431E+01 9.09091E+00
 -1      6123 2.89577E+01 1.47547E+01 9.09091E-01
 -1      6124 2.89577E+01 1.47547E+01 1.81818E+00
 -1      6125 2.89577E+01 1.47547E+01 2.72727E+00
 -1      6126 2.89577E+01 1.47547E+01 3.63636E+00
 -1      6127 2.89577E+01 1.47547E+01 4.54545E+00
 -1      6128 2.89577E+01 1.47547E+01 5.45455E+00
 -1      6129 2.89577E+01 1.47547E+01 6.36364E+00
 -1      6130 2.89577E+01 1.47547E+01 7.27273E+00
 -1      6131 2.89577E+01 1.47547E+01 8.18182E+00
 -1      6132 2.89577E+01 1.47547E+01 9.09091E+00
 -1      6133 2.62931E+01 1.91030E+01 9.09091E-01
 -1      6134 2.62931E+01 1.91030E+01 1.81818E+00
 -1      6135 2.62931E+01 1.91030E+01 2.72727E+00
 -1      6136 2.62931E+01 1.91030E+01 3.63636E+00
 -1      6137 2.62931E+01 1.91030E+01 4.54545E+00
 -1      6138 2.62931E+01 1.91030E+01 5.45455E+00
 -1      6139 2.62931E+01 1.91030E+01 6.36364E+00
 -1      6140 2.62931E+01 1.91030E+01 7.27273E+00
 -1      6141 2.62931E+01 1.91030E+01 8.18182E+00
 -1      6142 2.62931E+01 1.91030E+01 9.09091E+00
 -1      6143 2.29810E+01 2.29810E+01 9.09091E-01
 -1      6144 2.29810E+01 2.29810E+01 1.81818E+00
 -1      6145 2.29810E+01 2.29810E+01 2.72727E+00
 -1      6146 2.29810E+01 2.29810E+01 3.63636E+00
 -1      6147 2.29810E+01 2.29810E+01 4.54545E+00
 -1      6148 2.29810E+01 2.29810E+01 5.45455E+00
 -1      6149 2.29810E+01 2.29810E+01 6.36364E+00
 -1      6150 2.29810E+01 2.29810E+01 7.27273E+00
 -1      6151 2.29810E+01 2.29810E+01 8.18182E+00
 -1      6152 2.29810E+01 2.29810E+01 9.09091E+00
 -1      6153 1.91030E+01 2.62931E+01 9.09091E-01
 -1      6154 1.91030E+01 2.62931E+01 1.81818E+00
 -1      6155 1.91030E+01 2.62931E+01 2.72727E+00
 -1      6156 1.91030E+01 2.62931E+01 3.63636E+00
 -1      6157 1.91030E+01 2.62931E+01 4.54545E+00
 -1      6158 1.91030E+01 2.62931E+01 5.45455E+00
 -1      6159 1.91030E+01 2.62931E+01 6.36364E+00
 -1      6160 1.91030E+01 2.62931E+01 7.27273E+00
 -1      6161 1.91030E+01 2.62931E+01 8.18182E+00
 -1      6162 1.91030E+01 2.62931E+01 9.09091E+00
 -1      6163 1.47547E+01 2.89577E+01 9.09091E-01
 -1      6164 1.47547E+01 2.89577E+01 1.81818E+00
 -1      6165 1.47547E+01 2.89577E+01 2.72727E+00
 -1      6166 1.47547E+01 2.89577E+01 3.63636E+00
 -1      6167 1.47547E+01 2.89577E+01 4.54545E+00
 -1      6168 1.47547E+01 2.89577E+01 5.45455E+00
 -1      6169 1.47547E+01 2.89577E+01 6.36364E+00
 -1      6170 1.47547E+01 2.89577E+01 7.27273E+00
 -1      6171 1.47547E+01 2.89577E+01 8.18182E+00
 -1      6172 1.47547E+01 2.89577E+01 9.09091E+00
 -1      6173 1.00431E+01 3.09093E+01 9.09091E-01
 -1      6174 1.00431E+01 3.09093E+01 1.81818E+00
 -1      6175 1.00431E+01 3.09093E+01 2.72727E+00
 -1      6176 1.00431E+01 3.09093E+01 3.63636E+00
 -1      6177 1.00431E+01 3.09093E+01 4.54545E+00
 -1      6178 1.00431E+01 3.09093E+01 5.45455E+00
 -1      6179 1.00431E+01 3.09093E+01 6.36364E+00
 -1      6180 1.00431E+01 3.09093E+01 7.27273E+00
 -1      6181 1.00431E+01 3.09093E+01 8.18182E+00
 -1      6182 1.00431E+01 3.09093E+01 9.09091E+00
 -1      6183 5.08412E+00 3.20999E+01 9.09091E-01
 -1      6184 5.08412E+00 3.20999E+01 1.81818E+00
 -1      6185 5.08412E+00 3.20999E+01 2.72727E+00
 -1      6186 5.08412E+00 3.20999E+01 3.63636E+00
 -1      6187 5.08412E+00 3.20999E+01 4.54545E+00
 -1      6188 5.08412E+00 3.20999E+01 5.45455E+00
 -1      6189 5.08412E+00 3.20999E+01 6.36364E+00
 -1      6190 5.08412E+00 3.20999E+01 7.27273E+00
 -1      6191 5.08412E+00 3.20999E+01 8.18182E+00
 -1      6192 5.08412E+00 3.20999E+01 9.09091E+00
 -1      6193 3.45691E+01 5.47521E+00 9.09091E-01
 -1      6194 3.45691E+01 5.47521E+00 1.81818E+00
 -1      6195 3.45691E+01 5.47521E+00 2.72727E+00
 -1      6196 3.45691E+01 5.47521E+00 3.63636E+00
 -1      6197 3.45691E+01 5.47521E+00 4.54545E+00
 -1      6198 3.45691E+01 5.47521E+00 5.45455E+00
 -1      6199 3.45691E+01 5.47521E+00 6.36364E+00
 -1      6200 3.45691E+01 5.47521E+00 7.27273E+00
 -1      6201 3.45691E+01 5.47521E+00 8.18182E+00
 -1      6202 3.45691E+01 5.47521E+00 9.09091E+00
 -1      6203 3.32870E+01 1.08156E+01 9.09091E-01
 -1      6204 3.32870E+01 1.08156E+01 1.81818E+00
 -1      6205 3.32870E+01 1.08156E+01 2.72727E+00
 -1      6206 3.32870E+01 1.08156E+01 3.63636E+00
 -1      6207 3.32870E+01 1.08156E+01 4.54545E+00
 -1      6208 3.32870E+01 1.08156E+01 5.45455E+00
 -1      6209 3.32870E+01 1.08156E+01 6.36364E+00
 -1      6210 3.32870E+01 1.08156E+01 7.27273E+00
 -1      6211 3.32870E+01 1.08156E+01 8.18182E+00
 -1      6212 3.32870E+01 1.08156E+01 9.09091E+00
 -1      6213 3.11852E+01 1.58897E+01 9.09091E-01
 -1      6214 3.11852E+01 1.58897E+01 1.81818E+00
 -1      6215 3.11852E+01 1.58897E+01 2.72727E+00
 -1      6216 3.11852E+01 1.58897E+01 3.63636E+00
 -1      6217 3.11852E+01 1.58897E+01 4.54545E+00
 -1      6218 3.11852E+01 1.58897E+01 5.45455E+00
 -1      6219 3.11852E+01 1.58897E+01 6.36364E+00
 -1      6220 3.11852E+01 1.58897E+01 7.27273E+00
 -1      6221 3.11852E+01 1.58897E+01 8.18182E+00
 -1      6222 3.11852E+01 1.58897E+01 9.09091E+00
 -1      6223 2.83156E+01 2.05725E+01 9.09091E-01
 -1      6224 2.83156E+01 2.05725E+01 1.81818E+00
 -1      6225 2.83156E+01 2.05725E+01 2.72727E+00
 -1      6226 2.83156E+01 2.05725E+01 3.63636E+00
 -1      6227 2.83156E+01 2.05725E+01 4.54545E+00
 -1      6228 2.83156E+01 2.05725E+01 5.45455E+00
 -1      6229 2.83156E+01 2.05725E+01 6.36364E+00
 -1      6230 2.83156E+01 2.05725E+01 7.27273E+00
 -1      6231 2.83156E+01 2.05725E+01 8.18182E+00
 -1      6232 2.83156E+01 2.05725E+01 9.09091E+00
 -1      6233 2.47487E+01 2.47487E+01 9.09091E-01
 -1      6234 2.47487E+01 2.47487E+01 1.81818E+00
 -1      6235 2.47487E+01 2.47487E+01 2.72727E+00
 -1      6236 2.47487E+01 2.47487E+01 3.63636E+00
 -1      6237 2.47487E+01 2.47487E+01 4.54545E+00
 -1      6238 2.47487E+01 2.47487E+01 5.45455E+00
 -1      6239 2.47487E+01 2.47487E+01 6.36364E+00
 -1      6240 2.47487E+01 2.47487E+01 7.27273E+00
 -1      6241 2.47487E+01 2.47487E+01 8.18182E+00
 -1      6242 2.47487E+01 2.47487E+01 9.09091E+00
 -1      6243 2.05725E+01 2.83156E+01 9.09091E-01
 -1      6244 2.05725E+01 2.83156E+01 1.81818E+00
 -1      6245 2.05725E+01 2.83156E+01 2.72727E+00
 -1      6246 2.05725E+01 2.83156E+01 3.63636E+00
 -1      6247 2.05725E+01 2.83156E+01 4.54545E+00
 -1      6248 2.05725E+01 2.83156E+01 5.45455E+00
 -1      6249 2.05725E+01 2.83156E+01 6.36364E+00
 -1      6250 2.05725E+01 2.83156E+01 7.27273E+00
 -1      6251 2.05725E+01 2.83156E+01 8.18182E+00
 -1      6252 2.05725E+01 2.83156E+01 9.09091E+00
 -1      6253 1.58897E+01 3.11852E+01 9.09091E-01
 -1      6254 1.58897E+01 3.11852E+01 1.81818E+00
 -1      6255 1.58897E+01 3.11852E+01 2.72727E+00
 -1      6256 1.58897E+01 3.11852E+01 3.63636E+00
 -1      6257 1.58897E+01 3.11852E+01 4.54545E+00
 -1      6258 1.58897E+01 3.11852E+01 5.45455E+00
 -1      6259 1.58897E+01 3.11852E+01 6.36364E+00
 -1      6260 1.58897E+01 3.11852E+01 7.27273E+00
 -1      6261 1.58897E+01 3.11852E+01 8.18182E+00
 -1      6262 1.58897E+01 3.11852E+01 9.09091E+00
 -1      6263 1.08156E+01 3.32870E+01 9.09091E-01
 -1      6264 1.08156E+01 3.32870E+01 1.81818E+00
 -1      6265 1.08156E+01 3.32870E+01 2.72727E+00
 -1      6266 1.08156E+01 3.32870E+01 3.63636E+00
 -1      6267 1.08156E+01 3.32870E+01 4.54545E+00
 -1      6268 1.08156E+01 3.32870E+01 5.45455E+00
 -1      6269 1.08156E+01 3.32870E+01 6.36364E+00
 -1      6270 1.08156E+01 3.32870E+01 7.27273E+00
 -1      6271 1.08156E+01 3.32870E+01 8.18182E+00
 -1      6272 1.08156E+01 3.32870E+01 9.09091E+00
 -1      6273 5.47521E+00 3.45691E+01 9.09091E-01
 -1      6274 5.47521E+00 3.45691E+01 1.81818E+00
 -1      6275 5.47521E+00 3.45691E+01 2.72727E+00
 -1      6276 5.47521E+00 3.45691E+01 3.63636E+00
 -1      6277 5.47521E+00 3.45691E+01 4.54545E+00
 -1      6278 5.47521E+00 3.45691E+01 5.45455E+00
 -1      6279 5.47521E+00 3.45691E+01 6.36364E+00
 -1      6280 5.47521E+00 3.45691E+01 7.27273E+00
 -1      6281 5.47521E+00 3.45691E+01 8.18182E+00
 -1      6282 5.47521E+00 3.45691E+01 9.09091E+00
 -1      6283 3.70383E+01 5.86629E+00 9.09091E-01
 -1      6284 3.70383E+01 5.86629E+00 1.81818E+00
 -1      6285 3.70383E+01 5.86629E+00 2.72727E+00
 -1      6286 3.70383E+01 5.86629E+00 3.63636E+00
 -1      6287 3.70383E+01 5.86629E+00 4.54545E+00
 -1      6288 3.70383E+01 5.86629E+00 5.45455E+00
 -1      6289 3.70383E+01 5.86629E+00 6.36364E+00
 -1      6290 3.70383E+01 5.86629E+00 7.27273E+00
 -1      6291 3.70383E+01 5.86629E+00 8.18182E+00
 -1      6292 3.70383E+01 5.86629E+00 9.09091E+00
 -1      6293 3.56646E+01 1.15881E+01 9.09091E-01
 -1      6294 3.56646E+01 1.15881E+01 1.81818E+00
 -1      6295 3.56646E+01 1.15881E+01 2.72727E+00
 -1      6296 3.56646E+01 1.15881E+01 3.63636E+00
 -1      6297 3.56646E+01 1.15881E+01 4.54545E+00
 -1      6298 3.56646E+01 1.15881E+01 5.45455E+00
 -1      6299 3.56646E+01 1.15881E+01 6.36364E+00
 -1      6300 3.56646E+01 1.15881E+01 7.27273E+00
 -1      6301 3.56646E+01 1.15881E+01 8.18182E+00
 -1      6302 3.56646E+01 1.15881E+01 9.09091E+00
 -1      6303 3.34127E+01 1.70246E+01 9.09091E-01
 -1      6304 3.34127E+01 1.70246E+01 1.81818E+00
 -1      6305 3.34127E+01 1.70246E+01 2.72727E+00
 -1      6306 3.34127E+01 1.70246E+01 3.63636E+00
 -1      6307 3.34127E+01 1.70246E+01 4.54545E+00
 -1      6308 3.34127E+01 1.70246E+01 5.45455E+00
 -1      6309 3.34127E+01 1.70246E+01 6.36364E+00
 -1      6310 3.34127E+01 1.70246E+01 7.27273E+00
 -1      6311 3.34127E+01 1.70246E+01 8.18182E+00
 -1      6312 3.34127E+01 1.70246E+01 9.09091E+00
 -1      6313 3.03381E+01 2.20419E+01 9.09091E-01
 -1      6314 3.03381E+01 2.20419E+01 1.81818E+00
 -1      6315 3.03381E+01 2.20419E+01 2.72727E+00
 -1      6316 3.03381E+01 2.20419E+01 3.63636E+00
 -1      6317 3.03381E+01 2.20419E+01 4.54545E+00
 -1      6318 3.03381E+01 2.20419E+01 5.45455E+00
 -1      6319 3.03381E+01 2.20419E+01 6.36364E+00
 -1      6320 3.03381E+01 2.20419E+01 7.27273E+00
 -1      6321 3.03381E+01 2.20419E+01 8.18182E+00
 -1      6322 3.03381E+01 2.20419E+01 9.09091E+00
 -1      6323 2.65165E+01 2.65165E+01 9.09091E-01
 -1      6324 2.65165E+01 2.65165E+01 1.81818E+00
 -1      6325 2.65165E+01 2.65165E+01 2.72727E+00
 -1      6326 2.65165E+01 2.65165E+01 3.63636E+00
 -1      6327 2.65165E+01 2.65165E+01 4.54545E+00
 -1      6328 2.65165E+01 2.65165E+01 5.45455E+00
 -1      6329 2.65165E+01 2.65165E+01 6.36364E+00
 -1      6330 2.65165E+01 2.65165E+01 7.27273E+00
 -1      6331 2.65165E+01 2.65165E+01 8.18182E+00
 -1      6332 2.65165E+01 2.65165E+01 9.09091E+00
 -1      6333 2.20419E+01 3.03381E+01 9.09091E-01
 -1      6334 2.20419E+01 3.03381E+01 1.81818E+00
 -1      6335 2.20419E+01 3.03381E+01 2.72727E+00
 -1      6336 2.20419E+01 3.03381E+01 3.63636E+00
 -1      6337 2.20419E+01 3.03381E+01 4.54545E+00
 -1      6338 2.20419E+01 3.03381E+01 5.45455E+00
 -1      6339 2.20419E+01 3.03381E+01 6.36364E+00
 -1      6340 2.20419E+01 3.03381E+01 7.27273E+00
 -1      6341 2.20419E+01 3.03381E+01 8.18182E+00
 -1      6342 2.20419E+01 3.03381E+01 9.09091E+00
 -1      6343 1.70246E+01 3.34127E+01 9.09091E-01
 -1      6344 1.70246E+01 3.34127E+01 1.81818E+00
 -1      6345 1.70246E+01 3.34127E+01 2.72727E+00
 -1      6346 1.70246E+01 3.34127E+01 3.63636E+00
 -1      6347 1.70246E+01 3.34127E+01 4.54545E+00
 -1      6348 1.70246E+01 3.34127E+01 5.45455E+00
 -1      6349 1.70246E+01 3.34127E+01 6.36364E+00
 -1      6350 1.70246E+01 3.34127E+01 7.27273E+00
 -1      6351 1.70246E+01 3.34127E+01 8.18182E+00
 -1      6352 1.70246E+01 3.34127E+01 9.09091E+00
 -1      6353 1.15881E+01 3.56646E+01 9.09091E-01
 -1      6354 1.15881E+01 3.56646E+01 1.81818E+00
 -1      6355 1.15881E+01 3.56646E+01 2.72727E+00
 -1      6356 1.15881E+01 3.56646E+01 3.63636E+00
 -1      6357 1.15881E+01 3.56646E+01 4.54545E+00
 -1      6358 1.15881E+01 3.56646E+01 5.45455E+00
 -1      6359 1.15881E+01 3.56646E+01 6.36364E+00
 -1      6360 1.15881E+01 3.56646E+01 7.27273E+00
 -1      6361 1.15881E+01 3.56646E+01 8.18182E+00
 -1      6362 1.15881E+01 3.56646E+01 9.09091E+00
 -1      6363 5.86629E+00 3.70383E+01 9.09091E-01
 -1      6364 5.86629E+00 3.70383E+01 1.81818E+00
 -1      6365 5.86629E+00 3.70383E+01 2.72727E+00
 -1      6366 5.86629E+00 3.70383E+01 3.63636E+00
 -1      6367 5.86629E+00 3.70383E+01 4.54545E+00
 -1      6368 5.86629E+00 3.70383E+01 5.45455E+00
 -1      6369 5.86629E+00 3.70383E+01 6.36364E+00
 -1      6370 5.86629E+00 3.70383E+01 7.27273E+00
 -1      6371 5.86629E+00 3.70383E+01 8.18182E+00
 -1      6372 5.86629E+00 3.70383E+01 9.09091E+00
 -1      6373 3.95075E+01 6.25738E+00 9.09091E-01
 -1      6374 3.95075E+01 6.25738E+00 1.81818E+00
 -1      6375 3.95075E+01 6.25738E+00 2.72727E+00
 -1      6376 3.95075E+01 6.25738E+00 3.63636E+00
 -1      6377 3.95075E+01 6.25738E+00 4.54545E+00
 -1      6378 3.95075E+01 6.25738E+00 5.45455E+00
 -1      6379 3.95075E+01 6.25738E+00 6.36364E+00
 -1      6380 3.95075E+01 6.25738E+00 7.27273E+00
 -1      6381 3.95075E+01 6.25738E+00 8.18182E+00
 -1      6382 3.95075E+01 6.25738E+00 9.09091E+00
 -1      6383 3.80423E+01 1.23607E+01 9.09091E-01
 -1      6384 3.80423E+01 1.23607E+01 1.81818E+00
 -1      6385 3.80423E+01 1.23607E+01 2.72727E+00
 -1      6386 3.80423E+01 1.23607E+01 3.63636E+00
 -1      6387 3.80423E+01 1.23607E+01 4.54545E+00
 -1      6388 3.80423E+01 1.23607E+01 5.45455E+00
 -1      6389 3.80423E+01 1.23607E+01 6.36364E+00
 -1      6390 3.80423E+01 1.23607E+01 7.27273E+00
 -1      6391 3.80423E+01 1.23607E+01 8.18182E+00
 -1      6392 3.80423E+01 1.23607E+01 9.09091E+00
 -1      6393 3.56403E+01 1.81596E+01 9.09091E-01
 -1      6394 3.56403E+01 1.81596E+01 1.81818E+00
 -1      6395 3.56403E+01 1.81596E+01 2.72727E+00
 -1      6396 3.56403E+01 1.81596E+01 3.63636E+00
 -1      6397 3.56403E+01 1.81596E+01 4.54545E+00
 -1      6398 3.56403E+01 1.81596E+01 5.45455E+00
 -1      6399 3.56403E+01 1.81596E+01 6.36364E+00
 -1      6400 3.56403E+01 1.81596E+01 7.27273E+00
 -1      6401 3.56403E+01 1.81596E+01 8.18182E+00
 -1      6402 3.56403E+01 1.81596E+01 9.09091E+00
 -1      6403 3.23607E+01 2.35114E+01 9.09091E-01
 -1      6404 3.23607E+01 2.35114E+01 1.81818E+00
 -1      6405 3.23607E+01 2.35114E+01 2.72727E+00
 -1      6406 3.23607E+01 2.35114E+01 3.63636E+00
 -1      6407 3.23607E+01 2.35114E+01 4.54545E+00
 -1      6408 3.23607E+01 2.35114E+01 5.45455E+00
 -1      6409 3.23607E+01 2.35114E+01 6.36364E+00
 -1      6410 3.23607E+01 2.35114E+01 7.27273E+00
 -1      6411 3.23607E+01 2.35114E+01 8.18182E+00
 -1      6412 3.23607E+01 2.35114E+01 9.09091E+00
 -1      6413 2.82843E+01 2.82843E+01 9.09091E-01
 -1      6414 2.82843E+01 2.82843E+01 1.81818E+00
 -1      6415 2.82843E+01 2.82843E+01 2.72727E+00
 -1      6416 2.82843E+01 2.82843E+01 3.63636E+00
 -1      6417 2.82843E+01 2.82843E+01 4.54545E+00
 -1      6418 2.82843E+01 2.82843E+01 5.45455E+00
 -1      6419 2.82843E+01 2.82843E+01 6.36364E+00
 -1      6420 2.82843E+01 2.82843E+01 7.27273E+00
 -1      6421 2.82843E+01 2.82843E+01 8.18182E+00
 -1      6422 2.82843E+01 2.82843E+01 9.09091E+00
 -1      6423 2.35114E+01 3.23607E+01 9.09091E-01
 -1      6424 2.35114E+01 3.23607E+01 1.81818E+00
 -1      6425 2.35114E+01 3.23607E+01 2.72727E+00
 -1      6426 2.35114E+01 3.23607E+01 3.63636E+00
 -1      6427 2.35114E+01 3.23607E+01 4.54545E+00
 -1      6428 2.35114E+01 3.23607E+01 5.45455E+00
 -1      6429 2.35114E+01 3.23607E+01 6.36364E+00
 -1      6430 2.35114E+01 3.23607E+01 7.27273E+00
 -1      6431 2.35114E+01 3.23607E+01 8.18182E+00
 -1      6432 2.35114E+01 3.23607E+01 9.09091E+00
 -1      6433 1.81596E+01 3.56403E+01 9.09091E-01
 -1      6434 1.81596E+01 3.56403E+01 1.81818E+00
 -1      6435 1.81596E+01 3.56403E+01 2.72727E+00
 -1      6436 1.81596E+01 3.56403E+01 3.63636E+00
 -1      6437 1.81596E+01 3.56403E+01 4.54545E+00
 -1      6438 1.81596E+01 3.56403E+01 5.45455E+00
 -1      6439 1.81596E+01 3.56403E+01 6.36364E+00
 -1      6440 1.81596E+01 3.56403E+01 7.27273E+00
 -1      6441 1.81596E+01 3.56403E+01 8.18182E+00
 -1      6442 1.81596E+01 3.56403E+01 9.09091E+00
 -1      6443 1.23607E+01 3.80423E+01 9.09091E-01
 -1      6444 1.23607E+01 3.80423E+01 1.81818E+00
 -1      6445 1.23607E+01 3.80423E+01 2.72727E+00
 -1      6446 1.23607E+01 3.80423E+01 3.63636E+00
 -1      6447 1.23607E+01 3.80423E+01 4.54545E+00
 -1      6448 1.23607E+01 3.80423E+01 5.45455E+00
 -1      6449 1.23607E+01 3.80423E+01 6.36364E+00
 -1      6450 1.23607E+01 3.80423E+01 7.27273E+00
 -1      6451 1.23607E+01 3.80423E+01 8.18182E+00
 -1      6452 1.23607E+01 3.80423E+01 9.09091E+00
 -1      6453 6.25738E+00 3.95075E+01 9.09091E-01
 -1      6454 6.25738E+00 3.95075E+01 1.81818E+00
 -1      6455 6.25738E+00 3.95075E+01 2.72727E+00
 -1      6456 6.25738E+00 3.95075E+01 3.63636E+00
 -1      6457 6.25738E+00 3.95075E+01 4.54545E+00
 -1      6458 6.25738E+00 3.95075E+01 5.45455E+00
 -1      6459 6.25738E+00 3.95075E+01 6.36364E+00
 -1      6460 6.25738E+00 3.95075E+01 7.27273E+00
 -1      6461 6.25738E+00 3.95075E+01 8.18182E+00
 -1      6462 6.25738E+00 3.95075E+01 9.09091E+00
 -1      6463 4.19768E+01 6.64846E+00 9.09091E-01
 -1      6464 4.19768E+01 6.64846E+00 1.81818E+00
 -1      6465 4.19768E+01 6.64846E+00 2.72727E+00
 -1      6466 4.19768E+01 6.64846E+00 3.63636E+00
 -1      6467 4.19768E+01 6.64846E+00 4.54545E+00
 -1      6468 4.19768E+01 6.64846E+00 5.45455E+00
 -1      6469 4.19768E+01 6.64846E+00 6.36364E+00
 -1      6470 4.19768E+01 6.64846E+00 7.27273E+00
 -1      6471 4.19768E+01 6.64846E+00 8.18182E+00
 -1      6472 4.19768E+01 6.64846E+00 9.09091E+00
 -1      6473 4.04199E+01 1.31332E+01 9.09091E-01
 -1      6474 4.04199E+01 1.31332E+01 1.81818E+00
 -1      6475 4.04199E+01 1.31332E+01 2.72727E+00
 -1      6476 4.04199E+01 1.31332E+01 3.63636E+00
 -1      6477 4.04199E+01 1.31332E+01 4.54545E+00
 -1      6478 4.04199E+01 1.31332E+01 5.45455E+00
 -1      6479 4.04199E+01 1.31332E+01 6.36364E+00
 -1      6480 4.04199E+01 1.31332E+01 7.27273E+00
 -1      6481 4.04199E+01 1.31332E+01 8.18182E+00
 -1      6482 4.04199E+01 1.31332E+01 9.09091E+00
 -1      6483 3.78678E+01 1.92946E+01 9.09091E-01
 -1      6484 3.78678E+01 1.92946E+01 1.81818E+00
 -1      6485 3.78678E+01 1.92946E+01 2.72727E+00
 -1      6486 3.78678E+01 1.92946E+01 3.63636E+00
 -1      6487 3.78678E+01 1.92946E+01 4.54545E+00
 -1      6488 3.78678E+01 1.92946E+01 5.45455E+00
 -1      6489 3.78678E+01 1.92946E+01 6.36364E+00
 -1      6490 3.78678E+01 1.92946E+01 7.27273E+00
 -1      6491 3.78678E+01 1.92946E+01 8.18182E+00
 -1      6492 3.78678E+01 1.92946E+01 9.09091E+00
 -1      6493 3.43832E+01 2.49809E+01 9.09091E-01
 -1      6494 3.43832E+01 2.49809E+01 1.81818E+00
 -1      6495 3.43832E+01 2.49809E+01 2.72727E+00
 -1      6496 3.43832E+01 2.49809E+01 3.63636E+00
 -1      6497 3.43832E+01 2.49809E+01 4.54545E+00
 -1      6498 3.43832E+01 2.49809E+01 5.45455E+00
 -1      6499 3.43832E+01 2.49809E+01 6.36364E+00
 -1      6500 3.43832E+01 2.49809E+01 7.27273E+00
 -1      6501 3.43832E+01 2.49809E+01 8.18182E+00
 -1      6502 3.43832E+01 2.49809E+01 9.09091E+00
 -1      6503 3.00520E+01 3.00520E+01 9.09091E-01
 -1      6504 3.00520E+01 3.00520E+01 1.81818E+00
 -1      6505 3.00520E+01 3.00520E+01 2.72727E+00
 -1      6506 3.00520E+01 3.00520E+01 3.63636E+00
 -1      6507 3.00520E+01 3.00520E+01 4.54545E+00
 -1      6508 3.00520E+01 3.00520E+01 5.45455E+00
 -1      6509 3.00520E+01 3.00520E+01 6.36364E+00
 -1      6510 3.00520E+01 3.00520E+01 7.27273E+00
 -1      6511 3.00520E+01 3.00520E+01 8.18182E+00
 -1      6512 3.00520E+01 3.00520E+01 9.09091E+00
 -1      6513 2.49809E+01 3.43832E+01 9.09091E-01
 -1      6514 2.49809E+01 3.43832E+01 1.81818E+00
 -1      6515 2.49809E+01 3.43832E+01 2.72727E+00
 -1      6516 2.49809E+01 3.43832E+01 3.63636E+00
 -1      6517 2.49809E+01 3.43832E+01 4.54545E+00
 -1      6518 2.49809E+01 3.43832E+01 5.45455E+00
 -1      6519 2.49809E+01 3.43832E+01 6.36364E+00
 -1      6520 2.49809E+01 3.43832E+01 7.27273E+00
 -1      6521 2.49809E+01 3.43832E+01 8.18182E+00
 -1      6522 2.49809E+01 3.43832E+01 9.09091E+00
 -1      6523 1.92946E+01 3.78678E+01 9.09091E-01
 -1      6524 1.92946E+01 3.78678E+01 1.81818E+00
 -1      6525 1.92946E+01 3.78678E+01 2.72727E+00
 -1      6526 1.92946E+01 3.78678E+01 3.63636E+00
 -1      6527 1.92946E+01 3.78678E+01 4.54545E+00
 -1      6528 1.92946E+01 3.78678E+01 5.45455E+00
 -1      6529 1.92946E+01 3.78678E+01 6.36364E+00
 -1      6530 1.92946E+01 3.78678E+01 7.27273E+00
 -1      6531 1.92946E+01 3.78678E+01 8.18182E+00
 -1      6532 1.92946E+01 3.78678E+01 9.09091E+00
 -1      6533 1.31332E+01 4.04199E+01 9.09091E-01
 -1      6534 1.31332E+01 4.04199E+01 1.81818E+00
 -1      6535 1.31332E+01 4.04199E+01 2.72727E+00
 -1      6536 1.31332E+01 4.04199E+01 3.63636E+00
 -1      6537 1.31332E+01 4.04199E+01 4.54545E+00
 -1      6538 1.31332E+01 4.04199E+01 5.45455E+00
 -1      6539 1.31332E+01 4.04199E+01 6.36364E+00
 -1      6540 1.31332E+01 4.04199E+01 7.27273E+00
 -1      6541 1.31332E+01 4.04199E+01 8.18182E+00
 -1      6542 1.31332E+01 4.04199E+01 9.09091E+00
 -1      6543 6.64846E+00 4.19768E+01 9.09091E-01
 -1      6544 6.64846E+00 4.19768E+01 1.81818E+00
 -1      6545 6.64846E+00 4.19768E+01 2.72727E+00
 -1      6546 6.64846E+00 4.19768E+01 3.63636E+00
 -1      6547 6.64846E+00 4.19768E+01 4.54545E+00
 -1      6548 6.64846E+00 4.19768E+01 5.45455E+00
 -1      6549 6.64846E+00 4.19768E+01 6.36364E+00
 -1      6550 6.64846E+00 4.19768E+01 7.27273E+00
 -1      6551 6.64846E+00 4.19768E+01 8.18182E+00
 -1      6552 6.64846E+00 4.19768E+01 9.09091E+00
 -1      6553 4.44460E+01 7.03955E+00 9.09091E-01
 -1      6554 4.44460E+01 7.03955E+00 1.81818E+00
 -1      6555 4.44460E+01 7.03955E+00 2.72727E+00
 -1      6556 4.44460E+01 7.03955E+00 3.63636E+00
 -1      6557 4.44460E+01 7.03955E+00 4.54545E+00
 -1      6558 4.44460E+01 7.03955E+00 5.45455E+00
 -1      6559 4.44460E+01 7.03955E+00 6.36364E+00
 -1      6560 4.44460E+01 7.03955E+00 7.27273E+00
 -1      6561 4.44460E+01 7.03955E+00 8.18182E+00
 -1      6562 4.44460E+01 7.03955E+00 9.09091E+00
 -1      6563 4.27975E+01 1.39058E+01 9.09091E-01
 -1      6564 4.27975E+01 1.39058E+01 1.81818E+00
 -1      6565 4.27975E+01 1.39058E+01 2.72727E+00
 -1      6566 4.27975E+01 1.39058E+01 3.63636E+00
 -1      6567 4.27975E+01 1.39058E+01 4.54545E+00
 -1      6568 4.27975E+01 1.39058E+01 5.45455E+00
 -1      6569 4.27975E+01 1.39058E+01 6.36364E+00
 -1      6570 4.27975E+01 1.39058E+01 7.27273E+00
 -1      6571 4.27975E+01 1.39058E+01 8.18182E+00
 -1      6572 4.27975E+01 1.39058E+01 9.09091E+00
 -1      6573 4.00953E+01 2.04296E+01 9.09091E-01
 -1      6574 4.00953E+01 2.04296E+01 1.81818E+00
 -1      6575 4.00953E+01 2.04296E+01 2.72727E+00
 -1      6576 4.00953E+01 2.04296E+01 3.63636E+00
 -1      6577 4.00953E+01 2.04296E+01 4.54545E+00
 -1      6578 4.00953E+01 2.04296E+01 5.45455E+00
 -1      6579 4.00953E+01 2.04296E+01 6.36364E+00
 -1      6580 4.00953E+01 2.04296E+01 7.27273E+00
 -1      6581 4.00953E+01 2.04296E+01 8.18182E+00
 -1      6582 4.00953E+01 2.04296E+01 9.09091E+00
 -1      6583 3.64058E+01 2.64503E+01 9.09091E-01
 -1      6584 3.64058E+01 2.64503E+01 1.81818E+00
 -1      6585 3.64058E+01 2.64503E+01 2.72727E+00
 -1      6586 3.64058E+01 2.64503E+01 3.63636E+00
 -1      6587 3.64058E+01 2.64503E+01 4.54545E+00
 -1      6588 3.64058E+01 2.64503E+01 5.45455E+00
 -1      6589 3.64058E+01 2.64503E+01 6.36364E+00
 -1      6590 3.64058E+01 2.64503E+01 7.27273E+00
 -1      6591 3.64058E+01 2.64503E+01 8.18182E+00
 -1      6592 3.64058E+01 2.64503E+01 9.09091E+00
 -1      6593 3.18198E+01 3.18198E+01 9.09091E-01
 -1      6594 3.18198E+01 3.18198E+01 1.81818E+00
 -1      6595 3.18198E+01 3.18198E+01 2.72727E+00
 -1      6596 3.18198E+01 3.18198E+01 3.63636E+00
 -1      6597 3.18198E+01 3.18198E+01 4.54545E+00
 -1      6598 3.18198E+01 3.18198E+01 5.45455E+00
 -1      6599 3.18198E+01 3.18198E+01 6.36364E+00
 -1      6600 3.18198E+01 3.18198E+01 7.27273E+00
 -1      6601 3.18198E+01 3.18198E+01 8.18182E+00
 -1      6602 3.18198E+01 3.18198E+01 9.09091E+00
 -1      6603 2.64503E+01 3.64058E+01 9.09091E-01
 -1      6604 2.64503E+01 3.64058E+01 1.81818E+00
 -1      6605 2.64503E+01 3.64058E+01 2.72727E+00
 -1      6606 2.64503E+01 3.64058E+01 3.63636E+00
 -1      6607 2.64503E+01 3.64058E+01 4.54545E+00
 -1      6608 2.64503E+01 3.64058E+01 5.45455E+00
 -1      6609 2.64503E+01 3.64058E+01 6.36364E+00
 -1      6610 2.64503E+01 3.64058E+01 7.27273E+00
 -1      6611 2.64503E+01 3.64058E+01 8.18182E+00
 -1      6612 2.64503E+01 3.64058E+01 9.09091E+00
 -1      6613 2.04296E+01 4.00953E+01 9.09091E-01
 -1      6614 2.04296E+01 4.00953E+01 1.81818E+00
 -1      6615 2.04296E+01 4.00953E+01 2.72727E+00
 -1      6616 2.04296E+01 4.00953E+01 3.63636E+00
 -1      6617 2.04296E+01 4.00953E+01 4.54545E+00
 -1      6618 2.04296E+01 4.00953E+01 5.45455E+00
 -1      6619 2.04296E+01 4.00953E+01 6.36364E+00
 -1      6620 2.04296E+01 4.00953E+01 7.27273E+00
 -1      6621 2.04296E+01 4.00953E+01 8.18182E+00
 -1      6622 2.04296E+01 4.00953E+01 9.09091E+00
 -1      6623 1.39058E+01 4.27975E+01 9.09091E-01
 -1      6624 1.39058E+01 4.27975E+01 1.81818E+00
 -1      6625 1.39058E+01 4.27975E+01 2.72727E+00
 -1      6626 1.39058E+01 4.27975E+01 3.63636E+00
 -1      6627 1.39058E+01 4.27975E+01 4.54545E+00
 -1      6628 1.39058E+01 4.27975E+01 5.45455E+00
 -1      6629 1.39058E+01 4.27975E+01 6.36364E+00
 -1      6630 1.39058E+01 4.27975E+01 7.27273E+00
 -1      6631 1.39058E+01 4.27975E+01 8.18182E+00
 -1      6632 1.39058E+01 4.27975E+01 9.09091E+00
 -1      6633 7.03955E+00 4.44460E+01 9.09091E-01
 -1      6634 7.03955E+00 4.44460E+01 1.81818E+00
 -1      6635 7.03955E+00 4.44460E+01 2.72727E+00
 -1      6636 7.03955E+00 4.44460E+01 3.63636E+00
 -1      6637 7.03955E+00 4.44460E+01 4.54545E+00
 -1      6638 7.03955E+00 4.44460E+01 5.45455E+00
 -1      6639 7.03955E+00 4.44460E+01 6.36364E+00
 -1      6640 7.03955E+00 4.44460E+01 7.27273E+00
 -1      6641 7.03955E+00 4.44460E+01 8.18182E+00
 -1      6642 7.03955E+00 4.44460E+01 9.09091E+00
 -1      6643 4.69152E+01 7.43064E+00 9.09091E-01
 -1      6644 4.69152E+01 7.43064E+00 1.81818E+00
 -1      6645 4.69152E+01 7.43064E+00 2.72727E+00
 -1      6646 4.69152E+01 7.43064E+00 3.63636E+00
 -1      6647 4.69152E+01 7.43064E+00 4.54545E+00
 -1      6648 4.69152E+01 7.43064E+00 5.45455E+00
 -1      6649 4.69152E+01 7.43064E+00 6.36364E+00
 -1      6650 4.69152E+01 7.43064E+00 7.27273E+00
 -1      6651 4.69152E+01 7.43064E+00 8.18182E+00
 -1      6652 4.69152E+01 7.43064E+00 9.09091E+00
 -1      6653 4.51752E+01 1.46783E+01 9.09091E-01
 -1      6654 4.51752E+01 1.46783E+01 1.81818E+00
 -1      6655 4.51752E+01 1.46783E+01 2.72727E+00
 -1      6656 4.51752E+01 1.46783E+01 3.63636E+00
 -1      6657 4.51752E+01 1.46783E+01 4.54545E+00
 -1      6658 4.51752E+01 1.46783E+01 5.45455E+00
 -1      6659 4.51752E+01 1.46783E+01 6.36364E+00
 -1      6660 4.51752E+01 1.46783E+01 7.27273E+00
 -1      6661 4.51752E+01 1.46783E+01 8.18182E+00
 -1      6662 4.51752E+01 1.46783E+01 9.09091E+00
 -1      6663 4.23228E+01 2.15645E+01 9.09091E-01
 -1      6664 4.23228E+01 2.15645E+01 1.81818E+00
 -1      6665 4.23228E+01 2.15645E+01 2.72727E+00
 -1      6666 4.23228E+01 2.15645E+01 3.63636E+00
 -1      6667 4.23228E+01 2.15645E+01 4.54545E+00
 -1      6668 4.23228E+01 2.15645E+01 5.45455E+00
 -1      6669 4.23228E+01 2.15645E+01 6.36364E+00
 -1      6670 4.23228E+01 2.15645E+01 7.27273E+00
 -1      6671 4.23228E+01 2.15645E+01 8.18182E+00
 -1      6672 4.23228E+01 2.15645E+01 9.09091E+00
 -1      6673 3.84283E+01 2.79198E+01 9.09091E-01
 -1      6674 3.84283E+01 2.79198E+01 1.81818E+00
 -1      6675 3.84283E+01 2.79198E+01 2.72727E+00
 -1      6676 3.84283E+01 2.79198E+01 3.63636E+00
 -1      6677 3.84283E+01 2.79198E+01 4.54545E+00
 -1      6678 3.84283E+01 2.79198E+01 5.45455E+00
 -1      6679 3.84283E+01 2.79198E+01 6.36364E+00
 -1      6680 3.84283E+01 2.79198E+01 7.27273E+00
 -1      6681 3.84283E+01 2.79198E+01 8.18182E+00
 -1      6682 3.84283E+01 2.79198E+01 9.09091E+00
 -1      6683 3.35876E+01 3.35876E+01 9.09091E-01
 -1      6684 3.35876E+01 3.35876E+01 1.81818E+00
 -1      6685 3.35876E+01 3.35876E+01 2.72727E+00
 -1      6686 3.35876E+01 3.35876E+01 3.63636E+00
 -1      6687 3.35876E+01 3.35876E+01 4.54545E+00
 -1      6688 3.35876E+01 3.35876E+01 5.45455E+00
 -1      6689 3.35876E+01 3.35876E+01 6.36364E+00
 -1      6690 3.35876E+01 3.35876E+01 7.27273E+00
 -1      6691 3.35876E+01 3.35876E+01 8.18182E+00
 -1      6692 3.35876E+01 3.35876E+01 9.09091E+00
 -1      6693 2.79198E+01 3.84283E+01 9.09091E-01
 -1      6694 2.79198E+01 3.84283E+01 1.81818E+00
 -1      6695 2.79198E+01 3.84283E+01 2.72727E+00
 -1      6696 2.79198E+01 3.84283E+01 3.63636E+00
 -1      6697 2.79198E+01 3.84283E+01 4.54545E+00
 -1      6698 2.79198E+01 3.84283E+01 5.45455E+00
 -1      6699 2.79198E+01 3.84283E+01 6.36364E+00
 -1      6700 2.79198E+01 3.84283E+01 7.27273E+00
 -1      6701 2.79198E+01 3.84283E+01 8.18182E+00
 -1      6702 2.79198E+01 3.84283E+01 9.09091E+00
 -1      6703 2.15645E+01 4.23228E+01 9.09091E-01
 -1      6704 2.15645E+01 4.23228E+01 1.81818E+00
 -1      6705 2.15645E+01 4.23228E+01 2.72727E+00
 -1      6706 2.15645E+01 4.23228E+01 3.63636E+00
 -1      6707 2.15645E+01 4.23228E+01 4.54545E+00
 -1      6708 2.15645E+01 4.23228E+01 5.45455E+00
 -1      6709 2.15645E+01 4.23228E+01 6.36364E+00
 -1      6710 2.15645E+01 4.23228E+01 7.27273E+00
 -1      6711 2.15645E+01 4.23228E+01 8.18182E+00
 -1      6712 2.15645E+01 4.23228E+01 9.09091E+00
 -1      6713 1.46783E+01 4.51752E+01 9.09091E-01
 -1      6714 1.46783E+01 4.51752E+01 1.81818E+00
 -1      6715 1.46783E+01 4.51752E+01 2.72727E+00
 -1      6716 1.46783E+01 4.51752E+01 3.63636E+00
 -1      6717 1.46783E+01 4.51752E+01 4.54545E+00
 -1      6718 1.46783E+01 4.51752E+01 5.45455E+00
 -1      6719 1.46783E+01 4.51752E+01 6.36364E+00
 -1      6720 1.46783E+01 4.51752E+01 7.27273E+00
 -1      6721 1.46783E+01 4.51752E+01 8.18182E+00
 -1      6722 1.46783E+01 4.51752E+01 9.09091E+00
 -1      6723 7.43064E+00 4.69152E+01 9.09091E-01
 -1      6724 7.43064E+00 4.69152E+01 1.81818E+00
 -1      6725 7.43064E+00 4.69152E+01 2.72727E+00
 -1      6726 7.43064E+00 4.69152E+01 3.63636E+00
 -1      6727 7.43064E+00 4.69152E+01 4.54545E+00
 -1      6728 7.43064E+00 4.69152E+01 5.45455E+00
 -1      6729 7.43064E+00 4.69152E+01 6.36364E+00
 -1      6730 7.43064E+00 4.69152E+01 7.27273E+00
 -1      6731 7.43064E+00 4.69152E+01 8.18182E+00
 -1      6732 7.43064E+00 4.69152E+01 9.09091E+00
 -1      6733 4.93844E+01 7.82172E+00 9.09091E-01
 -1      6734 4.93844E+01 7.82172E+00 1.81818E+00
 -1      6735 4.93844E+01 7.82172E+00 2.72727E+00
 -1      6736 4.93844E+01 7.82172E+00 3.63636E+00
 -1      6737 4.93844E+01 7.82172E+00 4.54545E+00
 -1      6738 4.93844E+01 7.82172E+00 5.45455E+00
 -1      6739 4.93844E+01 7.82172E+00 6.36364E+00
 -1      6740 4.93844E+01 7.82172E+00 7.27273E+00
 -1      6741 4.93844E+01 7.82172E+00 8.18182E+00
 -1      6742 4.93844E+01 7.82172E+00 9.09091E+00
 -1      6743 4.75528E+01 1.54508E+01 9.09091E-01
 -1      6744 4.75528E+01 1.54508E+01 1.81818E+00
 -1      6745 4.75528E+01 1.54508E+01 2.72727E+00
 -1      6746 4.75528E+01 1.54508E+01 3.63636E+00
 -1      6747 4.75528E+01 1.54508E+01 4.54545E+00
 -1      6748 4.75528E+01 1.54508E+01 5.45455E+00
 -1      6749 4.75528E+01 1.54508E+01 6.36364E+00
 -1      6750 4.75528E+01 1.54508E+01 7.27273E+00
 -1      6751 4.75528E+01 1.54508E+01 8.18182E+00
 -1      6752 4.75528E+01 1.54508E+01 9.09091E+00
 -1      6753 4.45503E+01 2.26995E+01 9.09091E-01
 -1      6754 4.45503E+01 2.26995E+01 1.81818E+00
 -1      6755 4.45503E+01 2.26995E+01 2.72727E+00
 -1      6756 4.45503E+01 2.26995E+01 3.63636E+00
 -1      6757 4.45503E+01 2.26995E+01 4.54545E+00
 -1      6758 4.45503E+01 2.26995E+01 5.45455E+00
 -1      6759 4.45503E+01 2.26995E+01 6.36364E+00
 -1      6760 4.45503E+01 2.26995E+01 7.27273E+00
 -1      6761 4.45503E+01 2.26995E+01 8.18182E+00
 -1      6762 4.45503E+01 2.26995E+01 9.09091E+00
 -1      6763 4.04509E+01 2.93893E+01 9.09091E-01
 -1      6764 4.04509E+01 2.93893E+01 1.81818E+00
 -1      6765 4.04509E+01 2.93893E+01 2.72727E+00
 -1      6766 4.04509E+01 2.93893E+01 3.63636E+00
 -1      6767 4.04509E+01 2.93893E+01 4.54545E+00
 -1      6768 4.04509E+01 2.93893E+01 5.45455E+00
 -1      6769 4.04509E+01 2.93893E+01 6.36364E+00
 -1      6770 4.04509E+01 2.93893E+01 7.27273E+00
 -1      6771 4.04509E+01 2.93893E+01 8.18182E+00
 -1      6772 4.04509E+01 2.93893E+01 9.09091E+00
 -1      6773 3.53553E+01 3.53553E+01 9.09091E-01
 -1      6774 3.53553E+01 3.53553E+01 1.81818E+00
 -1      6775 3.53553E+01 3.53553E+01 2.72727E+00
 -1      6776 3.53553E+01 3.53553E+01 3.63636E+00
 -1      6777 3.53553E+01 3.53553E+01 4.54545E+00
 -1      6778 3.53553E+01 3.53553E+01 5.45455E+00
 -1      6779 3.53553E+01 3.53553E+01 6.36364E+00
 -1      6780 3.53553E+01 3.53553E+01 7.27273E+00
 -1      6781 3.53553E+01 3.53553E+01 8.18182E+00
 -1      6782 3.53553E+01 3.53553E+01 9.09091E+00
 -1      6783 2.93893E+01 4.04509E+01 9.09091E-01
 -1      6784 2.93893E+01 4.04509E+01 1.81818E+00
 -1      6785 2.93893E+01 4.04509E+01 2.72727E+00
 -1      6786 2.93893E+01 4.04509E+01 3.63636E+00
 -1      6787 2.93893E+01 4.04509E+01 4.54545E+00
 -1      6788 2.93893E+01 4.04509E+01 5.45455E+00
 -1      6789 2.93893E+01 4.04509E+01 6.36364E+00
 -1      6790 2.93893E+01 4.04509E+01 7.27273E+00
 -1      6791 2.93893E+01 4.04509E+01 8.18182E+00
 -1      6792 2.93893E+01 4.04509E+01 9.09091E+00
 -1      6793 2.26995E+01 4.45503E+01 9.09091E-01
 -1      6794 2.26995E+01 4.45503E+01 1.81818E+00
 -1      6795 2.26995E+01 4.45503E+01 2.72727E+00
 -1      6796 2.26995E+01 4.45503E+01 3.63636E+00
 -1      6797 2.26995E+01 4.45503E+01 4.54545E+00
 -1      6798 2.26995E+01 4.45503E+01 5.45455E+00
 -1      6799 2.26995E+01 4.45503E+01 6.36364E+00
 -1      6800 2.26995E+01 4.45503E+01 7.27273E+00
 -1      6801 2.26995E+01 4.45503E+01 8.18182E+00
 -1      6802 2.26995E+01 4.45503E+01 9.09091E+00
 -1      6803 1.54508E+01 4.75528E+01 9.09091E-01
 -1      6804 1.54508E+01 4.75528E+01 1.81818E+00
 -1      6805 1.54508E+01 4.75528E+01 2.72727E+00
 -1      6806 1.54508E+01 4.75528E+01 3.63636E+00
 -1      6807 1.54508E+01 4.75528E+01 4.54545E+00
 -1      6808 1.54508E+01 4.75528E+01 5.45455E+00
 -1      6809 1.54508E+01 4.75528E+01 6.36364E+00
 -1      6810 1.54508E+01 4.75528E+01 7.27273E+00
 -1      6811 1.54508E+01 4.75528E+01 8.18182E+00
 -1      6812 1.54508E+01 4.75528E+01 9.09091E+00
 -1      6813 7.82172E+00 4.93844E+01 9.09091E-01
 -1      6814 7.82172E+00 4.93844E+01 1.81818E+00
 -1      6815 7.82172E+00 4.93844E+01 2.72727E+00
 -1      6816 7.82172E+00 4.93844E+01 3.63636E+00
 -1      6817 7.82172E+00 4.93844E+01 4.54545E+00
 -1      6818 7.82172E+00 4.93844E+01 5.45455E+00
 -1      6819 7.82172E+00 4.93844E+01 6.36364E+00
 -1      6820 7.82172E+00 4.93844E+01 7.27273E+00
 -1      6821 7.82172E+00 4.93844E+01 8.18182E+00
 -1      6822 7.82172E+00 4.93844E+01 9.09091E+00
 -1      6823 5.18536E+01 8.21281E+00 9.09091E-01
 -1      6824 5.18536E+01 8.21281E+00 1.81818E+00
 -1      6825 5.18536E+01 8.21281E+00 2.72727E+00
 -1      6826 5.18536E+01 8.21281E+00 3.63636E+00
 -1      6827 5.18536E+01 8.21281E+00 4.54545E+00
 -1      6828 5.18536E+01 8.21281E+00 5.45455E+00
 -1      6829 5.18536E+01 8.21281E+00 6.36364E+00
 -1      6830 5.18536E+01 8.21281E+00 7.27273E+00
 -1      6831 5.18536E+01 8.21281E+00 8.18182E+00
 -1      6832 5.18536E+01 8.21281E+00 9.09091E+00
 -1      6833 4.99305E+01 1.62234E+01 9.09091E-01
 -1      6834 4.99305E+01 1.62234E+01 1.81818E+00
 -1      6835 4.99305E+01 1.62234E+01 2.72727E+00
 -1      6836 4.99305E+01 1.62234E+01 3.63636E+00
 -1      6837 4.99305E+01 1.62234E+01 4.54545E+00
 -1      6838 4.99305E+01 1.62234E+01 5.45455E+00
 -1      6839 4.99305E+01 1.62234E+01 6.36364E+00
 -1      6840 4.99305E+01 1.62234E+01 7.27273E+00
 -1      6841 4.99305E+01 1.62234E+01 8.18182E+00
 -1      6842 4.99305E+01 1.62234E+01 9.09091E+00
 -1      6843 4.67778E+01 2.38345E+01 9.09091E-01
 -1      6844 4.67778E+01 2.38345E+01 1.81818E+00
 -1      6845 4.67778E+01 2.38345E+01 2.72727E+00
 -1      6846 4.67778E+01 2.38345E+01 3.63636E+00
 -1      6847 4.67778E+01 2.38345E+01 4.54545E+00
 -1      6848 4.67778E+01 2.38345E+01 5.45455E+00
 -1      6849 4.67778E+01 2.38345E+01 6.36364E+00
 -1      6850 4.67778E+01 2.38345E+01 7.27273E+00
 -1      6851 4.67778E+01 2.38345E+01 8.18182E+00
 -1      6852 4.67778E+01 2.38345E+01 9.09091E+00
 -1      6853 4.24734E+01 3.08587E+01 9.09091E-01
 -1      6854 4.24734E+01 3.08587E+01 1.81818E+00
 -1      6855 4.24734E+01 3.08587E+01 2.72727E+00
 -1      6856 4.24734E+01 3.08587E+01 3.63636E+00
 -1      6857 4.24734E+01 3.08587E+01 4.54545E+00
 -1      6858 4.24734E+01 3.08587E+01 5.45455E+00
 -1      6859 4.24734E+01 3.08587E+01 6.36364E+00
 -1      6860 4.24734E+01 3.08587E+01 7.27273E+00
 -1      6861 4.24734E+01 3.08587E+01 8.18182E+00
 -1      6862 4.24734E+01 3.08587E+01 9.09091E+00
 -1      6863 3.71231E+01 3.71231E+01 9.09091E-01
 -1      6864 3.71231E+01 3.71231E+01 1.81818E+00
 -1      6865 3.71231E+01 3.71231E+01 2.72727E+00
 -1      6866 3.71231E+01 3.71231E+01 3.63636E+00
 -1      6867 3.71231E+01 3.71231E+01 4.54545E+00
 -1      6868 3.71231E+01 3.71231E+01 5.45455E+00
 -1      6869 3.71231E+01 3.71231E+01 6.36364E+00
 -1      6870 3.71231E+01 3.71231E+01 7.27273E+00
 -1      6871 3.71231E+01 3.71231E+01 8.18182E+00
 -1      6872 3.71231E+01 3.71231E+01 9.09091E+00
 -1      6873 3.08587E+01 4.24734E+01 9.09091E-01
 -1      6874 3.08587E+01 4.24734E+01 1.81818E+00
 -1      6875 3.08587E+01 4.24734E+01 2.72727E+00
 -1      6876 3.08587E+01 4.24734E+01 3.63636E+00
 -1      6877 3.08587E+01 4.24734E+01 4.54545E+00
 -1      6878 3.08587E+01 4.24734E+01 5.45455E+00
 -1      6879 3.08587E+01 4.24734E+01 6.36364E+00
 -1      6880 3.08587E+01 4.24734E+01 7.27273E+00
 -1      6881 3.08587E+01 4.24734E+01 8.18182E+00
 -1      6882 3.08587E+01 4.24734E+01 9.09091E+00
 -1      6883 2.38345E+01 4.67778E+01 9.09091E-01
 -1      6884 2.38345E+01 4.67778E+01 1.81818E+00
 -1      6885 2.38345E+01 4.67778E+01 2.72727E+00
 -1      6886 2.38345E+01 4.67778E+01 3.63636E+00
 -1      6887 2.38345E+01 4.67778E+01 4.54545E+00
 -1      6888 2.38345E+01 4.67778E+01 5.45455E+00
 -1      6889 2.38345E+01 4.67778E+01 6.36364E+00
 -1      6890 2.38345E+01 4.67778E+01 7.27273E+00
 -1      6891 2.38345E+01 4.67778E+01 8.18182E+00
 -1      6892 2.38345E+01 4.67778E+01 9.09091E+00
 -1      6893 1.62234E+01 4.99305E+01 9.09091E-01
 -1      6894 1.62234E+01 4.99305E+01 1.81818E+00
 -1      6895 1.62234E+01 4.99305E+01 2.72727E+00
 -1      6896 1.62234E+01 4.99305E+01 3.63636E+00
 -1      6897 1.62234E+01 4.99305E+01 4.54545E+00
 -1      6898 1.62234E+01 4.99305E+01 5.45455E+00
 -1      6899 1.62234E+01 4.99305E+01 6.36364E+00
 -1      6900 1.62234E+01 4.99305E+01 7.27273E+00
 -1      6901 1.62234E+01 4.99305E+01 8.18182E+00
 -1      6902 1.62234E+01 4.99305E+01 9.09091E+00
 -1      6903 8.21281E+00 5.18536E+01 9.09091E-01
 -1      6904 8.21281E+00 5.18536E+01 1.81818E+00
 -1      6905 8.21281E+00 5.18536E+01 2.72727E+00
 -1      6906 8.21281E+00 5.18536E+01 3.63636E+00
 -1      6907 8.21281E+00 5.18536E+01 4.54545E+00
 -1      6908 8.21281E+00 5.18536E+01 5.45455E+00
 -1      6909 8.21281E+00 5.18536E+01 6.36364E+00
 -1      6910 8.21281E+00 5.18536E+01 7.27273E+00
 -1      6911 8.21281E+00 5.18536E+01 8.18182E+00
 -1      6912 8.21281E+00 5.18536E+01 9.09091E+00
 -1      6913 5.43229E+01 8.60390E+00 9.09091E-01
 -1      6914 5.43229E+01 8.60390E+00 1.81818E+00
 -1      6915 5.43229E+01 8.60390E+00 2.72727E+00
 -1      6916 5.43229E+01 8.60390E+00 3.63636E+00
 -1      6917 5.43229E+01 8.60390E+00 4.54545E+00
 -1      6918 5.43229E+01 8.60390E+00 5.45455E+00
 -1      6919 5.43229E+01 8.60390E+00 6.36364E+00
 -1      6920 5.43229E+01 8.60390E+00 7.27273E+00
 -1      6921 5.43229E+01 8.60390E+00 8.18182E+00
 -1      6922 5.43229E+01 8.60390E+00 9.09091E+00
 -1      6923 5.23081E+01 1.69959E+01 9.09091E-01
 -1      6924 5.23081E+01 1.69959E+01 1.81818E+00
 -1      6925 5.23081E+01 1.69959E+01 2.72727E+00
 -1      6926 5.23081E+01 1.69959E+01 3.63636E+00
 -1      6927 5.23081E+01 1.69959E+01 4.54545E+00
 -1      6928 5.23081E+01 1.69959E+01 5.45455E+00
 -1      6929 5.23081E+01 1.69959E+01 6.36364E+00
 -1      6930 5.23081E+01 1.69959E+01 7.27273E+00
 -1      6931 5.23081E+01 1.69959E+01 8.18182E+00
 -1      6932 5.23081E+01 1.69959E+01 9.09091E+00
 -1      6933 4.90054E+01 2.49695E+01 9.09091E-01
 -1      6934 4.90054E+01 2.49695E+01 1.81818E+00
 -1      6935 4.90054E+01 2.49695E+01 2.72727E+00
 -1      6936 4.90054E+01 2.49695E+01 3.63636E+00
 -1      6937 4.90054E+01 2.49695E+01 4.54545E+00
 -1      6938 4.90054E+01 2.49695E+01 5.45455E+00
 -1      6939 4.90054E+01 2.49695E+01 6.36364E+00
 -1      6940 4.90054E+01 2.49695E+01 7.27273E+00
 -1      6941 4.90054E+01 2.49695E+01 8.18182E+00
 -1      6942 4.90054E+01 2.49695E+01 9.09091E+00
 -1      6943 4.44959E+01 3.23282E+01 9.09091E-01
 -1      6944 4.44959E+01 3.23282E+01 1.81818E+00
 -1      6945 4.44959E+01 3.23282E+01 2.72727E+00
 -1      6946 4.44959E+01 3.23282E+01 3.63636E+00
 -1      6947 4.44959E+01 3.23282E+01 4.54545E+00
 -1      6948 4.44959E+01 3.23282E+01 5.45455E+00
 -1      6949 4.44959E+01 3.23282E+01 6.36364E+00
 -1      6950 4.44959E+01 3.23282E+01 7.27273E+00
 -1      6951 4.44959E+01 3.23282E+01 8.18182E+00
 -1      6952 4.44959E+01 3.23282E+01 9.09091E+00
 -1      6953 3.88909E+01 3.88909E+01 9.09091E-01
 -1      6954 3.88909E+01 3.88909E+01 1.81818E+00
 -1      6955 3.88909E+01 3.88909E+01 2.72727E+00
 -1      6956 3.88909E+01 3.88909E+01 3.63636E+00
 -1      6957 3.88909E+01 3.88909E+01 4.54545E+00
 -1      6958 3.88909E+01 3.88909E+01 5.45455E+00
 -1      6959 3.88909E+01 3.88909E+01 6.36364E+00
 -1      6960 3.88909E+01 3.88909E+01 7.27273E+00
 -1      6961 3.88909E+01 3.88909E+01 8.18182E+00
 -1      6962 3.88909E+01 3.88909E+01 9.09091E+00
 -1      6963 3.23282E+01 4.44959E+01 9.09091E-01
 -1      6964 3.23282E+01 4.44959E+01 1.81818E+00
 -1      6965 3.23282E+01 4.44959E+01 2.72727E+00
 -1      6966 3.23282E+01 4.44959E+01 3.63636E+00
 -1      6967 3.23282E+01 4.44959E+01 4.54545E+00
 -1      6968 3.23282E+01 4.44959E+01 5.45455E+00
 -1      6969 3.23282E+01 4.44959E+01 6.36364E+00
 -1      6970 3.23282E+01 4.44959E+01 7.27273E+00
 -1      6971 3.23282E+01 4.44959E+01 8.18182E+00
 -1      6972 3.23282E+01 4.44959E+01 9.09091E+00
 -1      6973 2.49695E+01 4.90054E+01 9.09091E-01
 -1      6974 2.49695E+01 4.90054E+01 1.81818E+00
 -1      6975 2.49695E+01 4.90054E+01 2.72727E+00
 -1      6976 2.49695E+01 4.90054E+01 3.63636E+00
 -1      6977 2.49695E+01 4.90054E+01 4.54545E+00
 -1      6978 2.49695E+01 4.90054E+01 5.45455E+00
 -1      6979 2.49695E+01 4.90054E+01 6.36364E+00
 -1      6980 2.49695E+01 4.90054E+01 7.27273E+00
 -1      6981 2.49695E+01 4.90054E+01 8.18182E+00
 -1      6982 2.49695E+01 4.90054E+01 9.09091E+00
 -1      6983 1.69959E+01 5.23081E+01 9.09091E-01
 -1      6984 1.69959E+01 5.23081E+01 1.81818E+00
 -1      6985 1.69959E+01 5.23081E+01 2.72727E+00
 -1      6986 1.69959E+01 5.23081E+01 3.63636E+00
 -1      6987 1.69959E+01 5.23081E+01 4.54545E+00
 -1      6988 1.69959E+01 5.23081E+01 5.45455E+00
 -1      6989 1.69959E+01 5.23081E+01 6.36364E+00
 -1      6990 1.69959E+01 5.23081E+01 7.27273E+00
 -1      6991 1.69959E+01 5.23081E+01 8.18182E+00
 -1      6992 1.69959E+01 5.23081E+01 9.09091E+00
 -1      6993 8.60390E+00 5.43229E+01 9.09091E-01
 -1      6994 8.60390E+00 5.43229E+01 1.81818E+00
 -1      6995 8.60390E+00 5.43229E+01 2.72727E+00
 -1      6996 8.60390E+00 5.43229E+01 3.63636E+00
 -1      6997 8.60390E+00 5.43229E+01 4.54545E+00
 -1      6998 8.60390E+00 5.43229E+01 5.45455E+00
 -1      6999 8.60390E+00 5.43229E+01 6.36364E+00
 -1      7000 8.60390E+00 5.43229E+01 7.27273E+00
 -1      7001 8.60390E+00 5.43229E+01 8.18182E+00
 -1      7002 8.60390E+00 5.43229E+01 9.09091E+00
 -1      7003 5.67921E+01 8.99498E+00 9.09091E-01
 -1      7004 5.67921E+01 8.99498E+00 1.81818E+00
 -1      7005 5.67921E+01 8.99498E+00 2.72727E+00
 -1      7006 5.67921E+01 8.99498E+00 3.63636E+00
 -1      7007 5.67921E+01 8.99498E+00 4.54545E+00
 -1      7008 5.67921E+01 8.99498E+00 5.45455E+00
 -1      7009 5.67921E+01 8.99498E+00 6.36364E+00
 -1      7010 5.67921E+01 8.99498E+00 7.27273E+00
 -1      7011 5.67921E+01 8.99498E+00 8.18182E+00
 -1      7012 5.67921E+01 8.99498E+00 9.09091E+00
 -1      7013 5.46857E+01 1.77685E+01 9.09091E-01
 -1      7014 5.46857E+01 1.77685E+01 1.81818E+00
 -1      7015 5.46857E+01 1.77685E+01 2.72727E+00
 -1      7016 5.46857E+01 1.77685E+01 3.63636E+00
 -1      7017 5.46857E+01 1.77685E+01 4.54545E+00
 -1      7018 5.46857E+01 1.77685E+01 5.45455E+00
 -1      7019 5.46857E+01 1.77685E+01 6.36364E+00
 -1      7020 5.46857E+01 1.77685E+01 7.27273E+00
 -1      7021 5.46857E+01 1.77685E+01 8.18182E+00
 -1      7022 5.46857E+01 1.77685E+01 9.09091E+00
 -1      7023 5.12329E+01 2.61045E+01 9.09091E-01
 -1      7024 5.12329E+01 2.61045E+01 1.81818E+00
 -1      7025 5.12329E+01 2.61045E+01 2.72727E+00
 -1      7026 5.12329E+01 2.61045E+01 3.63636E+00
 -1      7027 5.12329E+01 2.61045E+01 4.54545E+00
 -1      7028 5.12329E+01 2.61045E+01 5.45455E+00
 -1      7029 5.12329E+01 2.61045E+01 6.36364E+00
 -1      7030 5.12329E+01 2.61045E+01 7.27273E+00
 -1      7031 5.12329E+01 2.61045E+01 8.18182E+00
 -1      7032 5.12329E+01 2.61045E+01 9.09091E+00
 -1      7033 4.65185E+01 3.37977E+01 9.09091E-01
 -1      7034 4.65185E+01 3.37977E+01 1.81818E+00
 -1      7035 4.65185E+01 3.37977E+01 2.72727E+00
 -1      7036 4.65185E+01 3.37977E+01 3.63636E+00
 -1      7037 4.65185E+01 3.37977E+01 4.54545E+00
 -1      7038 4.65185E+01 3.37977E+01 5.45455E+00
 -1      7039 4.65185E+01 3.37977E+01 6.36364E+00
 -1      7040 4.65185E+01 3.37977E+01 7.27273E+00
 -1      7041 4.65185E+01 3.37977E+01 8.18182E+00
 -1      7042 4.65185E+01 3.37977E+01 9.09091E+00
 -1      7043 4.06586E+01 4.06586E+01 9.09091E-01
 -1      7044 4.06586E+01 4.06586E+01 1.81818E+00
 -1      7045 4.06586E+01 4.06586E+01 2.72727E+00
 -1      7046 4.06586E+01 4.06586E+01 3.63636E+00
 -1      7047 4.06586E+01 4.06586E+01 4.54545E+00
 -1      7048 4.06586E+01 4.06586E+01 5.45455E+00
 -1      7049 4.06586E+01 4.06586E+01 6.36364E+00
 -1      7050 4.06586E+01 4.06586E+01 7.27273E+00
 -1      7051 4.06586E+01 4.06586E+01 8.18182E+00
 -1      7052 4.06586E+01 4.06586E+01 9.09091E+00
 -1      7053 3.37977E+01 4.65185E+01 9.09091E-01
 -1      7054 3.37977E+01 4.65185E+01 1.81818E+00
 -1      7055 3.37977E+01 4.65185E+01 2.72727E+00
 -1      7056 3.37977E+01 4.65185E+01 3.63636E+00
 -1      7057 3.37977E+01 4.65185E+01 4.54545E+00
 -1      7058 3.37977E+01 4.65185E+01 5.45455E+00
 -1      7059 3.37977E+01 4.65185E+01 6.36364E+00
 -1      7060 3.37977E+01 4.65185E+01 7.27273E+00
 -1      7061 3.37977E+01 4.65185E+01 8.18182E+00
 -1      7062 3.37977E+01 4.65185E+01 9.09091E+00
 -1      7063 2.61045E+01 5.12329E+01 9.09091E-01
 -1      7064 2.61045E+01 5.12329E+01 1.81818E+00
 -1      7065 2.61045E+01 5.12329E+01 2.72727E+00
 -1      7066 2.61045E+01 5.12329E+01 3.63636E+00
 -1      7067 2.61045E+01 5.12329E+01 4.54545E+00
 -1      7068 2.61045E+01 5.12329E+01 5.45455E+00
 -1      7069 2.61045E+01 5.12329E+01 6.36364E+00
 -1      7070 2.61045E+01 5.12329E+01 7.27273E+00
 -1      7071 2.61045E+01 5.12329E+01 8.18182E+00
 -1      7072 2.61045E+01 5.12329E+01 9.09091E+00
 -1      7073 1.77685E+01 5.46857E+01 9.09091E-01
 -1      7074 1.77685E+01 5.46857E+01 1.81818E+00
 -1      7075 1.77685E+01 5.46857E+01 2.72727E+00
 -1      7076 1.77685E+01 5.46857E+01 3.63636E+00
 -1      7077 1.77685E+01 5.46857E+01 4.54545E+00
 -1      7078 1.77685E+01 5.46857E+01 5.45455E+00
 -1      7079 1.77685E+01 5.46857E+01 6.36364E+00
 -1      7080 1.77685E+01 5.46857E+01 7.27273E+00
 -1      7081 1.77685E+01 5.46857E+01 8.18182E+00
 -1      7082 1.77685E+01 5.46857E+01 9.09091E+00
 -1      7083 8.99498E+00 5.67921E+01 9.09091E-01
 -1      7084 8.99498E+00 5.67921E+01 1.81818E+00
 -1      7085 8.99498E+00 5.67921E+01 2.72727E+00
 -1      7086 8.99498E+00 5.67921E+01 3.63636E+00
 -1      7087 8.99498E+00 5.67921E+01 4.54545E+00
 -1      7088 8.99498E+00 5.67921E+01 5.45455E+00
 -1      7089 8.99498E+00 5.67921E+01 6.36364E+00
 -1      7090 8.99498E+00 5.67921E+01 7.27273E+00
 -1      7091 8.99498E+00 5.67921E+01 8.18182E+00
 -1      7092 8.99498E+00 5.67921E+01 9.09091E+00
 -1      7093 5.92613E+01 9.38607E+00 9.09091E-01
 -1      7094 5.92613E+01 9.38607E+00 1.81818E+00
 -1      7095 5.92613E+01 9.38607E+00 2.72727E+00
 -1      7096 5.92613E+01 9.38607E+00 3.63636E+00
 -1      7097 5.92613E+01 9.38607E+00 4.54545E+00
 -1      7098 5.92613E+01 9.38607E+00 5.45455E+00
 -1      7099 5.92613E+01 9.38607E+00 6.36364E+00
 -1      7100 5.92613E+01 9.38607E+00 7.27273E+00
 -1      7101 5.92613E+01 9.38607E+00 8.18182E+00
 -1      7102 5.92613E+01 9.38607E+00 9.09091E+00
 -1      7103 5.70634E+01 1.85410E+01 9.09091E-01
 -1      7104 5.70634E+01 1.85410E+01 1.81818E+00
 -1      7105 5.70634E+01 1.85410E+01 2.72727E+00
 -1      7106 5.70634E+01 1.85410E+01 3.63636E+00
 -1      7107 5.70634E+01 1.85410E+01 4.54545E+00
 -1      7108 5.70634E+01 1.85410E+01 5.45455E+00
 -1      7109 5.70634E+01 1.85410E+01 6.36364E+00
 -1      7110 5.70634E+01 1.85410E+01 7.27273E+00
 -1      7111 5.70634E+01 1.85410E+01 8.18182E+00
 -1      7112 5.70634E+01 1.85410E+01 9.09091E+00
 -1      7113 5.34604E+01 2.72394E+01 9.09091E-01
 -1      7114 5.34604E+01 2.72394E+01 1.81818E+00
 -1      7115 5.34604E+01 2.72394E+01 2.72727E+00
 -1      7116 5.34604E+01 2.72394E+01 3.63636E+00
 -1      7117 5.34604E+01 2.72394E+01 4.54545E+00
 -1      7118 5.34604E+01 2.72394E+01 5.45455E+00
 -1      7119 5.34604E+01 2.72394E+01 6.36364E+00
 -1      7120 5.34604E+01 2.72394E+01 7.27273E+00
 -1      7121 5.34604E+01 2.72394E+01 8.18182E+00
 -1      7122 5.34604E+01 2.72394E+01 9.09091E+00
 -1      7123 4.85410E+01 3.52671E+01 9.09091E-01
 -1      7124 4.85410E+01 3.52671E+01 1.81818E+00
 -1      7125 4.85410E+01 3.52671E+01 2.72727E+00
 -1      7126 4.85410E+01 3.52671E+01 3.63636E+00
 -1      7127 4.85410E+01 3.52671E+01 4.54545E+00
 -1      7128 4.85410E+01 3.52671E+01 5.45455E+00
 -1      7129 4.85410E+01 3.52671E+01 6.36364E+00
 -1      7130 4.85410E+01 3.52671E+01 7.27273E+00
 -1      7131 4.85410E+01 3.52671E+01 8.18182E+00
 -1      7132 4.85410E+01 3.52671E+01 9.09091E+00
 -1      7133 4.24264E+01 4.24264E+01 9.09091E-01
 -1      7134 4.24264E+01 4.24264E+01 1.81818E+00
 -1      7135 4.24264E+01 4.24264E+01 2.72727E+00
 -1      7136 4.24264E+01 4.24264E+01 3.63636E+00
 -1      7137 4.24264E+01 4.24264E+01 4.54545E+00
 -1      7138 4.24264E+01 4.24264E+01 5.45455E+00
 -1      7139 4.24264E+01 4.24264E+01 6.36364E+00
 -1      7140 4.24264E+01 4.24264E+01 7.27273E+00
 -1      7141 4.24264E+01 4.24264E+01 8.18182E+00
 -1      7142 4.24264E+01 4.24264E+01 9.09091E+00
 -1      7143 3.52671E+01 4.85410E+01 9.09091E-01
 -1      7144 3.52671E+01 4.85410E+01 1.81818E+00
 -1      7145 3.52671E+01 4.85410E+01 2.72727E+00
 -1      7146 3.52671E+01 4.85410E+01 3.63636E+00
 -1      7147 3.52671E+01 4.85410E+01 4.54545E+00
 -1      7148 3.52671E+01 4.85410E+01 5.45455E+00
 -1      7149 3.52671E+01 4.85410E+01 6.36364E+00
 -1      7150 3.52671E+01 4.85410E+01 7.27273E+00
 -1      7151 3.52671E+01 4.85410E+01 8.18182E+00
 -1      7152 3.52671E+01 4.85410E+01 9.09091E+00
 -1      7153 2.72394E+01 5.34604E+01 9.09091E-01
 -1      7154 2.72394E+01 5.34604E+01 1.81818E+00
 -1      7155 2.72394E+01 5.34604E+01 2.72727E+00
 -1      7156 2.72394E+01 5.34604E+01 3.63636E+00
 -1      7157 2.72394E+01 5.34604E+01 4.54545E+00
 -1      7158 2.72394E+01 5.34604E+01 5.45455E+00
 -1      7159 2.72394E+01 5.34604E+01 6.36364E+00
 -1      7160 2.72394E+01 5.34604E+01 7.27273E+00
 -1      7161 2.72394E+01 5.34604E+01 8.18182E+00
 -1      7162 2.72394E+01 5.34604E+01 9.09091E+00
 -1      7163 1.85410E+01 5.70634E+01 9.09091E-01
 -1      7164 1.85410E+01 5.70634E+01 1.81818E+00
 -1      7165 1.85410E+01 5.70634E+01 2.72727E+00
 -1      7166 1.85410E+01 5.70634E+01 3.63636E+00
 -1      7167 1.85410E+01 5.70634E+01 4.54545E+00
 -1      7168 1.85410E+01 5.70634E+01 5.45455E+00
 -1      7169 1.85410E+01 5.70634E+01 6.36364E+00
 -1      7170 1.85410E+01 5.70634E+01 7.27273E+00
 -1      7171 1.85410E+01 5.70634E+01 8.18182E+00
 -1      7172 1.85410E+01 5.70634E+01 9.09091E+00
 -1      7173 9.38607E+00 5.92613E+01 9.09091E-01
 -1      7174 9.38607E+00 5.92613E+01 1.81818E+00
 -1      7175 9.38607E+00 5.92613E+01 2.72727E+00
 -1      7176 9.38607E+00 5.92613E+01 3.63636E+00
 -1      7177 9.38607E+00 5.92613E+01 4.54545E+00
 -1      7178 9.38607E+00 5.92613E+01 5.45455E+00
 -1      7179 9.38607E+00 5.92613E+01 6.36364E+00
 -1      7180 9.38607E+00 5.92613E+01 7.27273E+00
 -1      7181 9.38607E+00 5.92613E+01 8.18182E+00
 -1      7182 9.38607E+00 5.92613E+01 9.09091E+00
 -1      7183 6.17305E+01 9.77715E+00 9.09091E-01
 -1      7184 6.17305E+01 9.77715E+00 1.81818E+00
 -1      7185 6.17305E+01 9.77715E+00 2.72727E+00
 -1      7186 6.17305E+01 9.77715E+00 3.63636E+00
 -1      7187 6.17305E+01 9.77715E+00 4.54545E+00
 -1      7188 6.17305E+01 9.77715E+00 5.45455E+00
 -1      7189 6.17305E+01 9.77715E+00 6.36364E+00
 -1      7190 6.17305E+01 9.77715E+00 7.27273E+00
 -1      7191 6.17305E+01 9.77715E+00 8.18182E+00
 -1      7192 6.17305E+01 9.77715E+00 9.09091E+00
 -1      7193 5.94410E+01 1.93136E+01 9.09091E-01
 -1      7194 5.94410E+01 1.93136E+01 1.81818E+00
 -1      7195 5.94410E+01 1.93136E+01 2.72727E+00
 -1      7196 5.94410E+01 1.93136E+01 3.63636E+00
 -1      7197 5.94410E+01 1.93136E+01 4.54545E+00
 -1      7198 5.94410E+01 1.93136E+01 5.45455E+00
 -1      7199 5.94410E+01 1.93136E+01 6.36364E+00
 -1      7200 5.94410E+01 1.93136E+01 7.27273E+00
 -1      7201 5.94410E+01 1.93136E+01 8.18182E+00
 -1      7202 5.94410E+01 1.93136E+01 9.09091E+00
 -1      7203 5.56879E+01 2.83744E+01 9.09091E-01
 -1      7204 5.56879E+01 2.83744E+01 1.81818E+00
 -1      7205 5.56879E+01 2.83744E+01 2.72727E+00
 -1      7206 5.56879E+01 2.83744E+01 3.63636E+00
 -1      7207 5.56879E+01 2.83744E+01 4.54545E+00
 -1      7208 5.56879E+01 2.83744E+01 5.45455E+00
 -1      7209 5.56879E+01 2.83744E+01 6.36364E+00
 -1      7210 5.56879E+01 2.83744E+01 7.27273E+00
 -1      7211 5.56879E+01 2.83744E+01 8.18182E+00
 -1      7212 5.56879E+01 2.83744E+01 9.09091E+00
 -1      7213 5.05636E+01 3.67366E+01 9.09091E-01
 -1      7214 5.05636E+01 3.67366E+01 1.81818E+00
 -1      7215 5.05636E+01 3.67366E+01 2.72727E+00
 -1      7216 5.05636E+01 3.67366E+01 3.63636E+00
 -1      7217 5.05636E+01 3.67366E+01 4.54545E+00
 -1      7218 5.05636E+01 3.67366E+01 5.45455E+00
 -1      7219 5.05636E+01 3.67366E+01 6.36364E+00
 -1      7220 5.05636E+01 3.67366E+01 7.27273E+00
 -1      7221 5.05636E+01 3.67366E+01 8.18182E+00
 -1      7222 5.05636E+01 3.67366E+01 9.09091E+00
 -1      7223 4.41942E+01 4.41942E+01 9.09091E-01
 -1      7224 4.41942E+01 4.41942E+01 1.81818E+00
 -1      7225 4.41942E+01 4.41942E+01 2.72727E+00
 -1      7226 4.41942E+01 4.41942E+01 3.63636E+00
 -1      7227 4.41942E+01 4.41942E+01 4.54545E+00
 -1      7228 4.41942E+01 4.41942E+01 5.45455E+00
 -1      7229 4.41942E+01 4.41942E+01 6.36364E+00
 -1      7230 4.41942E+01 4.41942E+01 7.27273E+00
 -1      7231 4.41942E+01 4.41942E+01 8.18182E+00
 -1      7232 4.41942E+01 4.41942E+01 9.09091E+00
 -1      7233 3.67366E+01 5.05636E+01 9.09091E-01
 -1      7234 3.67366E+01 5.05636E+01 1.81818E+00
 -1      7235 3.67366E+01 5.05636E+01 2.72727E+00
 -1      7236 3.67366E+01 5.05636E+01 3.63636E+00
 -1      7237 3.67366E+01 5.05636E+01 4.54545E+00
 -1      7238 3.67366E+01 5.05636E+01 5.45455E+00
 -1      7239 3.67366E+01 5.05636E+01 6.36364E+00
 -1      7240 3.67366E+01 5.05636E+01 7.27273E+00
 -1      7241 3.67366E+01 5.05636E+01 8.18182E+00
 -1      7242 3.67366E+01 5.05636E+01 9.09091E+00
 -1      7243 2.83744E+01 5.56879E+01 9.09091E-01
 -1      7244 2.83744E+01 5.56879E+01 1.81818E+00
 -1      7245 2.83744E+01 5.56879E+01 2.72727E+00
 -1      7246 2.83744E+01 5.56879E+01 3.63636E+00
 -1      7247 2.83744E+01 5.56879E+01 4.54545E+00
 -1      7248 2.83744E+01 5.56879E+01 5.45455E+00
 -1      7249 2.83744E+01 5.56879E+01 6.36364E+00
 -1      7250 2.83744E+01 5.56879E+01 7.27273E+00
 -1      7251 2.83744E+01 5.56879E+01 8.18182E+00
 -1      7252 2.83744E+01 5.56879E+01 9.09091E+00
 -1      7253 1.93136E+01 5.94410E+01 9.09091E-01
 -1      7254 1.93136E+01 5.94410E+01 1.81818E+00
 -1      7255 1.93136E+01 5.94410E+01 2.72727E+00
 -1      7256 1.93136E+01 5.94410E+01 3.63636E+00
 -1      7257 1.93136E+01 5.94410E+01 4.54545E+00
 -1      7258 1.93136E+01 5.94410E+01 5.45455E+00
 -1      7259 1.93136E+01 5.94410E+01 6.36364E+00
 -1      7260 1.93136E+01 5.94410E+01 7.27273E+00
 -1      7261 1.93136E+01 5.94410E+01 8.18182E+00
 -1      7262 1.93136E+01 5.94410E+01 9.09091E+00
 -1      7263 9.77715E+00 6.17305E+01 9.09091E-01
 -1      7264 9.77715E+00 6.17305E+01 1.81818E+00
 -1      7265 9.77715E+00 6.17305E+01 2.72727E+00
 -1      7266 9.77715E+00 6.17305E+01 3.63636E+00
 -1      7267 9.77715E+00 6.17305E+01 4.54545E+00
 -1      7268 9.77715E+00 6.17305E+01 5.45455E+00
 -1      7269 9.77715E+00 6.17305E+01 6.36364E+00
 -1      7270 9.77715E+00 6.17305E+01 7.27273E+00
 -1      7271 9.77715E+00 6.17305E+01 8.18182E+00
 -1      7272 9.77715E+00 6.17305E+01 9.09091E+00
 -1      7273 6.41997E+01 1.01682E+01 9.09091E-01
 -1      7274 6.41997E+01 1.01682E+01 1.81818E+00
 -1      7275 6.41997E+01 1.01682E+01 2.72727E+00
 -1      7276 6.41997E+01 1.01682E+01 3.63636E+00
 -1      7277 6.41997E+01 1.01682E+01 4.54545E+00
 -1      7278 6.41997E+01 1.01682E+01 5.45455E+00
 -1      7279 6.41997E+01 1.01682E+01 6.36364E+00
 -1      7280 6.41997E+01 1.01682E+01 7.27273E+00
 -1      7281 6.41997E+01 1.01682E+01 8.18182E+00
 -1      7282 6.41997E+01 1.01682E+01 9.09091E+00
 -1      7283 6.18187E+01 2.00861E+01 9.09091E-01
 -1      7284 6.18187E+01 2.00861E+01 1.81818E+00
 -1      7285 6.18187E+01 2.00861E+01 2.72727E+00
 -1      7286 6.18187E+01 2.00861E+01 3.63636E+00
 -1      7287 6.18187E+01 2.00861E+01 4.54545E+00
 -1      7288 6.18187E+01 2.00861E+01 5.45455E+00
 -1      7289 6.18187E+01 2.00861E+01 6.36364E+00
 -1      7290 6.18187E+01 2.00861E+01 7.27273E+00
 -1      7291 6.18187E+01 2.00861E+01 8.18182E+00
 -1      7292 6.18187E+01 2.00861E+01 9.09091E+00
 -1      7293 5.79154E+01 2.95094E+01 9.09091E-01
 -1      7294 5.79154E+01 2.95094E+01 1.81818E+00
 -1      7295 5.79154E+01 2.95094E+01 2.72727E+00
 -1      7296 5.79154E+01 2.95094E+01 3.63636E+00
 -1      7297 5.79154E+01 2.95094E+01 4.54545E+00
 -1      7298 5.79154E+01 2.95094E+01 5.45455E+00
 -1      7299 5.79154E+01 2.95094E+01 6.36364E+00
 -1      7300 5.79154E+01 2.95094E+01 7.27273E+00
 -1      7301 5.79154E+01 2.95094E+01 8.18182E+00
 -1      7302 5.79154E+01 2.95094E+01 9.09091E+00
 -1      7303 5.25861E+01 3.82060E+01 9.09091E-01
 -1      7304 5.25861E+01 3.82060E+01 1.81818E+00
 -1      7305 5.25861E+01 3.82060E+01 2.72727E+00
 -1      7306 5.25861E+01 3.82060E+01 3.63636E+00
 -1      7307 5.25861E+01 3.82060E+01 4.54545E+00
 -1      7308 5.25861E+01 3.82060E+01 5.45455E+00
 -1      7309 5.25861E+01 3.82060E+01 6.36364E+00
 -1      7310 5.25861E+01 3.82060E+01 7.27273E+00
 -1      7311 5.25861E+01 3.82060E+01 8.18182E+00
 -1      7312 5.25861E+01 3.82060E+01 9.09091E+00
 -1      7313 4.59619E+01 4.59619E+01 9.09091E-01
 -1      7314 4.59619E+01 4.59619E+01 1.81818E+00
 -1      7315 4.59619E+01 4.59619E+01 2.72727E+00
 -1      7316 4.59619E+01 4.59619E+01 3.63636E+00
 -1      7317 4.59619E+01 4.59619E+01 4.54545E+00
 -1      7318 4.59619E+01 4.59619E+01 5.45455E+00
 -1      7319 4.59619E+01 4.59619E+01 6.36364E+00
 -1      7320 4.59619E+01 4.59619E+01 7.27273E+00
 -1      7321 4.59619E+01 4.59619E+01 8.18182E+00
 -1      7322 4.59619E+01 4.59619E+01 9.09091E+00
 -1      7323 3.82060E+01 5.25861E+01 9.09091E-01
 -1      7324 3.82060E+01 5.25861E+01 1.81818E+00
 -1      7325 3.82060E+01 5.25861E+01 2.72727E+00
 -1      7326 3.82060E+01 5.25861E+01 3.63636E+00
 -1      7327 3.82060E+01 5.25861E+01 4.54545E+00
 -1      7328 3.82060E+01 5.25861E+01 5.45455E+00
 -1      7329 3.82060E+01 5.25861E+01 6.36364E+00
 -1      7330 3.82060E+01 5.25861E+01 7.27273E+00
 -1      7331 3.82060E+01 5.25861E+01 8.18182E+00
 -1      7332 3.82060E+01 5.25861E+01 9.09091E+00
 -1      7333 2.95094E+01 5.79154E+01 9.09091E-01
 -1      7334 2.95094E+01 5.79154E+01 1.81818E+00
 -1      7335 2.95094E+01 5.79154E+01 2.72727E+00
 -1      7336 2.95094E+01 5.79154E+01 3.63636E+00
 -1      7337 2.95094E+01 5.79154E+01 4.54545E+00
 -1      7338 2.95094E+01 5.79154E+01 5.45455E+00
 -1      7339 2.95094E+01 5.79154E+01 6.36364E+00
 -1      7340 2.95094E+01 5.79154E+01 7.27273E+00
 -1      7341 2.95094E+01 5.79154E+01 8.18182E+00
 -1      7342 2.95094E+01 5.79154E+01 9.09091E+00
 -1      7343 2.00861E+01 6.18187E+01 9.09091E-01
 -1      7344 2.00861E+01 6.18187E+01 1.81818E+00
 -1      7345 2.00861E+01 6.18187E+01 2.72727E+00
 -1      7346 2.00861E+01 6.18187E+01 3.63636E+00
 -1      7347 2.00861E+01 6.18187E+01 4.54545E+00
 -1      7348 2.00861E+01 6.18187E+01 5.45455E+00
 -1      7349 2.00861E+01 6.18187E+01 6.36364E+00
 -1      7350 2.00861E+01 6.18187E+01 7.27273E+00
 -1      7351 2.00861E+01 6.18187E+01 8.18182E+00
 -1      7352 2.00861E+01 6.18187E+01 9.09091E+00
 -1      7353 1.01682E+01 6.41997E+01 9.09091E-01
 -1      7354 1.01682E+01 6.41997E+01 1.81818E+00
 -1      7355 1.01682E+01 6.41997E+01 2.72727E+00
 -1      7356 1.01682E+01 6.41997E+01 3.63636E+00
 -1      7357 1.01682E+01 6.41997E+01 4.54545E+00
 -1      7358 1.01682E+01 6.41997E+01 5.45455E+00
 -1      7359 1.01682E+01 6.41997E+01 6.36364E+00
 -1      7360 1.01682E+01 6.41997E+01 7.27273E+00
 -1      7361 1.01682E+01 6.41997E+01 8.18182E+00
 -1      7362 1.01682E+01 6.41997E+01 9.09091E+00
 -1      7363 6.66690E+01 1.05593E+01 9.09091E-01
 -1      7364 6.66690E+01 1.05593E+01 1.81818E+00
 -1      7365 6.66690E+01 1.05593E+01 2.72727E+00
 -1      7366 6.66690E+01 1.05593E+01 3.63636E+00
 -1      7367 6.66690E+01 1.05593E+01 4.54545E+00
 -1      7368 6.66690E+01 1.05593E+01 5.45455E+00
 -1      7369 6.66690E+01 1.05593E+01 6.36364E+00
 -1      7370 6.66690E+01 1.05593E+01 7.27273E+00
 -1      7371 6.66690E+01 1.05593E+01 8.18182E+00
 -1      7372 6.66690E+01 1.05593E+01 9.09091E+00
 -1      7373 6.41963E+01 2.08586E+01 9.09091E-01
 -1      7374 6.41963E+01 2.08586E+01 1.81818E+00
 -1      7375 6.41963E+01 2.08586E+01 2.72727E+00
 -1      7376 6.41963E+01 2.08586E+01 3.63636E+00
 -1      7377 6.41963E+01 2.08586E+01 4.54545E+00
 -1      7378 6.41963E+01 2.08586E+01 5.45455E+00
 -1      7379 6.41963E+01 2.08586E+01 6.36364E+00
 -1      7380 6.41963E+01 2.08586E+01 7.27273E+00
 -1      7381 6.41963E+01 2.08586E+01 8.18182E+00
 -1      7382 6.41963E+01 2.08586E+01 9.09091E+00
 -1      7383 6.01429E+01 3.06444E+01 9.09091E-01
 -1      7384 6.01429E+01 3.06444E+01 1.81818E+00
 -1      7385 6.01429E+01 3.06444E+01 2.72727E+00
 -1      7386 6.01429E+01 3.06444E+01 3.63636E+00
 -1      7387 6.01429E+01 3.06444E+01 4.54545E+00
 -1      7388 6.01429E+01 3.06444E+01 5.45455E+00
 -1      7389 6.01429E+01 3.06444E+01 6.36364E+00
 -1      7390 6.01429E+01 3.06444E+01 7.27273E+00
 -1      7391 6.01429E+01 3.06444E+01 8.18182E+00
 -1      7392 6.01429E+01 3.06444E+01 9.09091E+00
 -1      7393 5.46086E+01 3.96755E+01 9.09091E-01
 -1      7394 5.46086E+01 3.96755E+01 1.81818E+00
 -1      7395 5.46086E+01 3.96755E+01 2.72727E+00
 -1      7396 5.46086E+01 3.96755E+01 3.63636E+00
 -1      7397 5.46086E+01 3.96755E+01 4.54545E+00
 -1      7398 5.46086E+01 3.96755E+01 5.45455E+00
 -1      7399 5.46086E+01 3.96755E+01 6.36364E+00
 -1      7400 5.46086E+01 3.96755E+01 7.27273E+00
 -1      7401 5.46086E+01 3.96755E+01 8.18182E+00
 -1      7402 5.46086E+01 3.96755E+01 9.09091E+00
 -1      7403 4.77297E+01 4.77297E+01 9.09091E-01
 -1      7404 4.77297E+01 4.77297E+01 1.81818E+00
 -1      7405 4.77297E+01 4.77297E+01 2.72727E+00
 -1      7406 4.77297E+01 4.77297E+01 3.63636E+00
 -1      7407 4.77297E+01 4.77297E+01 4.54545E+00
 -1      7408 4.77297E+01 4.77297E+01 5.45455E+00
 -1      7409 4.77297E+01 4.77297E+01 6.36364E+00
 -1      7410 4.77297E+01 4.77297E+01 7.27273E+00
 -1      7411 4.77297E+01 4.77297E+01 8.18182E+00
 -1      7412 4.77297E+01 4.77297E+01 9.09091E+00
 -1      7413 3.96755E+01 5.46086E+01 9.09091E-01
 -1      7414 3.96755E+01 5.46086E+01 1.81818E+00
 -1      7415 3.96755E+01 5.46086E+01 2.72727E+00
 -1      7416 3.96755E+01 5.46086E+01 3.63636E+00
 -1      7417 3.96755E+01 5.46086E+01 4.54545E+00
 -1      7418 3.96755E+01 5.46086E+01 5.45455E+00
 -1      7419 3.96755E+01 5.46086E+01 6.36364E+00
 -1      7420 3.96755E+01 5.46086E+01 7.27273E+00
 -1      7421 3.96755E+01 5.46086E+01 8.18182E+00
 -1      7422 3.96755E+01 5.46086E+01 9.09091E+00
 -1      7423 3.06444E+01 6.01429E+01 9.09091E-01
 -1      7424 3.06444E+01 6.01429E+01 1.81818E+00
 -1      7425 3.06444E+01 6.01429E+01 2.72727E+00
 -1      7426 3.06444E+01 6.01429E+01 3.63636E+00
 -1      7427 3.06444E+01 6.01429E+01 4.54545E+00
 -1      7428 3.06444E+01 6.01429E+01 5.45455E+00
 -1      7429 3.06444E+01 6.01429E+01 6.36364E+00
 -1      7430 3.06444E+01 6.01429E+01 7.27273E+00
 -1      7431 3.06444E+01 6.01429E+01 8.18182E+00
 -1      7432 3.06444E+01 6.01429E+01 9.09091E+00
 -1      7433 2.08586E+01 6.41963E+01 9.09091E-01
 -1      7434 2.08586E+01 6.41963E+01 1.81818E+00
 -1      7435 2.08586E+01 6.41963E+01 2.72727E+00
 -1      7436 2.08586E+01 6.41963E+01 3.63636E+00
 -1      7437 2.08586E+01 6.41963E+01 4.54545E+00
 -1      7438 2.08586E+01 6.41963E+01 5.45455E+00
 -1      7439 2.08586E+01 6.41963E+01 6.36364E+00
 -1      7440 2.08586E+01 6.41963E+01 7.27273E+00
 -1      7441 2.08586E+01 6.41963E+01 8.18182E+00
 -1      7442 2.08586E+01 6.41963E+01 9.09091E+00
 -1      7443 1.05593E+01 6.66690E+01 9.09091E-01
 -1      7444 1.05593E+01 6.66690E+01 1.81818E+00
 -1      7445 1.05593E+01 6.66690E+01 2.72727E+00
 -1      7446 1.05593E+01 6.66690E+01 3.63636E+00
 -1      7447 1.05593E+01 6.66690E+01 4.54545E+00
 -1      7448 1.05593E+01 6.66690E+01 5.45455E+00
 -1      7449 1.05593E+01 6.66690E+01 6.36364E+00
 -1      7450 1.05593E+01 6.66690E+01 7.27273E+00
 -1      7451 1.05593E+01 6.66690E+01 8.18182E+00
 -1      7452 1.05593E+01 6.66690E+01 9.09091E+00
 -1      7453 6.91382E+01 1.09504E+01 9.09091E-01
 -1      7454 6.91382E+01 1.09504E+01 1.81818E+00
 -1      7455 6.91382E+01 1.09504E+01 2.72727E+00
 -1      7456 6.91382E+01 1.09504E+01 3.63636E+00
 -1      7457 6.91382E+01 1.09504E+01 4.54545E+00
 -1      7458 6.91382E+01 1.09504E+01 5.45455E+00
 -1      7459 6.91382E+01 1.09504E+01 6.36364E+00
 -1      7460 6.91382E+01 1.09504E+01 7.27273E+00
 -1      7461 6.91382E+01 1.09504E+01 8.18182E+00
 -1      7462 6.91382E+01 1.09504E+01 9.09091E+00
 -1      7463 6.65740E+01 2.16312E+01 9.09091E-01
 -1      7464 6.65740E+01 2.16312E+01 1.81818E+00
 -1      7465 6.65740E+01 2.16312E+01 2.72727E+00
 -1      7466 6.65740E+01 2.16312E+01 3.63636E+00
 -1      7467 6.65740E+01 2.16312E+01 4.54545E+00
 -1      7468 6.65740E+01 2.16312E+01 5.45455E+00
 -1      7469 6.65740E+01 2.16312E+01 6.36364E+00
 -1      7470 6.65740E+01 2.16312E+01 7.27273E+00
 -1      7471 6.65740E+01 2.16312E+01 8.18182E+00
 -1      7472 6.65740E+01 2.16312E+01 9.09091E+00
 -1      7473 6.23705E+01 3.17793E+01 9.09091E-01
 -1      7474 6.23705E+01 3.17793E+01 1.81818E+00
 -1      7475 6.23705E+01 3.17793E+01 2.72727E+00
 -1      7476 6.23705E+01 3.17793E+01 3.63636E+00
 -1      7477 6.23705E+01 3.17793E+01 4.54545E+00
 -1      7478 6.23705E+01 3.17793E+01 5.45455E+00
 -1      7479 6.23705E+01 3.17793E+01 6.36364E+00
 -1      7480 6.23705E+01 3.17793E+01 7.27273E+00
 -1      7481 6.23705E+01 3.17793E+01 8.18182E+00
 -1      7482 6.23705E+01 3.17793E+01 9.09091E+00
 -1      7483 5.66312E+01 4.11450E+01 9.09091E-01
 -1      7484 5.66312E+01 4.11450E+01 1.81818E+00
 -1      7485 5.66312E+01 4.11450E+01 2.72727E+00
 -1      7486 5.66312E+01 4.11450E+01 3.63636E+00
 -1      7487 5.66312E+01 4.11450E+01 4.54545E+00
 -1      7488 5.66312E+01 4.11450E+01 5.45455E+00
 -1      7489 5.66312E+01 4.11450E+01 6.36364E+00
 -1      7490 5.66312E+01 4.11450E+01 7.27273E+00
 -1      7491 5.66312E+01 4.11450E+01 8.18182E+00
 -1      7492 5.66312E+01 4.11450E+01 9.09091E+00
 -1      7493 4.94975E+01 4.94975E+01 9.09091E-01
 -1      7494 4.94975E+01 4.94975E+01 1.81818E+00
 -1      7495 4.94975E+01 4.94975E+01 2.72727E+00
 -1      7496 4.94975E+01 4.94975E+01 3.63636E+00
 -1      7497 4.94975E+01 4.94975E+01 4.54545E+00
 -1      7498 4.94975E+01 4.94975E+01 5.45455E+00
 -1      7499 4.94975E+01 4.94975E+01 6.36364E+00
 -1      7500 4.94975E+01 4.94975E+01 7.27273E+00
 -1      7501 4.94975E+01 4.94975E+01 8.18182E+00
 -1      7502 4.94975E+01 4.94975E+01 9.09091E+00
 -1      7503 4.11450E+01 5.66312E+01 9.09091E-01
 -1      7504 4.11450E+01 5.66312E+01 1.81818E+00
 -1      7505 4.11450E+01 5.66312E+01 2.72727E+00
 -1      7506 4.11450E+01 5.66312E+01 3.63636E+00
 -1      7507 4.11450E+01 5.66312E+01 4.54545E+00
 -1      7508 4.11450E+01 5.66312E+01 5.45455E+00
 -1      7509 4.11450E+01 5.66312E+01 6.36364E+00
 -1      7510 4.11450E+01 5.66312E+01 7.27273E+00
 -1      7511 4.11450E+01 5.66312E+01 8.18182E+00
 -1      7512 4.11450E+01 5.66312E+01 9.09091E+00
 -1      7513 3.17793E+01 6.23705E+01 9.09091E-01
 -1      7514 3.17793E+01 6.23705E+01 1.81818E+00
 -1      7515 3.17793E+01 6.23705E+01 2.72727E+00
 -1      7516 3.17793E+01 6.23705E+01 3.63636E+00
 -1      7517 3.17793E+01 6.23705E+01 4.54545E+00
 -1      7518 3.17793E+01 6.23705E+01 5.45455E+00
 -1      7519 3.17793E+01 6.23705E+01 6.36364E+00
 -1      7520 3.17793E+01 6.23705E+01 7.27273E+00
 -1      7521 3.17793E+01 6.23705E+01 8.18182E+00
 -1      7522 3.17793E+01 6.23705E+01 9.09091E+00
 -1      7523 2.16312E+01 6.65740E+01 9.09091E-01
 -1      7524 2.16312E+01 6.65740E+01 1.81818E+00
 -1      7525 2.16312E+01 6.65740E+01 2.72727E+00
 -1      7526 2.16312E+01 6.65740E+01 3.63636E+00
 -1      7527 2.16312E+01 6.65740E+01 4.54545E+00
 -1      7528 2.16312E+01 6.65740E+01 5.45455E+00
 -1      7529 2.16312E+01 6.65740E+01 6.36364E+00
 -1      7530 2.16312E+01 6.65740E+01 7.27273E+00
 -1      7531 2.16312E+01 6.65740E+01 8.18182E+00
 -1      7532 2.16312E+01 6.65740E+01 9.09091E+00
 -1      7533 1.09504E+01 6.91382E+01 9.09091E-01
 -1      7534 1.09504E+01 6.91382E+01 1.81818E+00
 -1      7535 1.09504E+01 6.91382E+01 2.72727E+00
 -1      7536 1.09504E+01 6.91382E+01 3.63636E+00
 -1      7537 1.09504E+01 6.91382E+01 4.54545E+00
 -1      7538 1.09504E+01 6.91382E+01 5.45455E+00
 -1      7539 1.09504E+01 6.91382E+01 6.36364E+00
 -1      7540 1.09504E+01 6.91382E+01 7.27273E+00
 -1      7541 1.09504E+01 6.91382E+01 8.18182E+00
 -1      7542 1.09504E+01 6.91382E+01 9.09091E+00
 -1      7543 7.16074E+01 1.13415E+01 9.09091E-01
 -1      7544 7.16074E+01 1.13415E+01 1.81818E+00
 -1      7545 7.16074E+01 1.13415E+01 2.72727E+00
 -1      7546 7.16074E+01 1.13415E+01 3.63636E+00
 -1      7547 7.16074E+01 1.13415E+01 4.54545E+00
 -1      7548 7.16074E+01 1.13415E+01 5.45455E+00
 -1      7549 7.16074E+01 1.13415E+01 6.36364E+00
 -1      7550 7.16074E+01 1.13415E+01 7.27273E+00
 -1      7551 7.16074E+01 1.13415E+01 8.18182E+00
 -1      7552 7.16074E+01 1.13415E+01 9.09091E+00
 -1      7553 6.89516E+01 2.24037E+01 9.09091E-01
 -1      7554 6.89516E+01 2.24037E+01 1.81818E+00
 -1      7555 6.89516E+01 2.24037E+01 2.72727E+00
 -1      7556 6.89516E+01 2.24037E+01 3.63636E+00
 -1      7557 6.89516E+01 2.24037E+01 4.54545E+00
 -1      7558 6.89516E+01 2.24037E+01 5.45455E+00
 -1      7559 6.89516E+01 2.24037E+01 6.36364E+00
 -1      7560 6.89516E+01 2.24037E+01 7.27273E+00
 -1      7561 6.89516E+01 2.24037E+01 8.18182E+00
 -1      7562 6.89516E+01 2.24037E+01 9.09091E+00
 -1      7563 6.45980E+01 3.29143E+01 9.09091E-01
 -1      7564 6.45980E+01 3.29143E+01 1.81818E+00
 -1      7565 6.45980E+01 3.29143E+01 2.72727E+00
 -1      7566 6.45980E+01 3.29143E+01 3.63636E+00
 -1      7567 6.45980E+01 3.29143E+01 4.54545E+00
 -1      7568 6.45980E+01 3.29143E+01 5.45455E+00
 -1      7569 6.45980E+01 3.29143E+01 6.36364E+00
 -1      7570 6.45980E+01 3.29143E+01 7.27273E+00
 -1      7571 6.45980E+01 3.29143E+01 8.18182E+00
 -1      7572 6.45980E+01 3.29143E+01 9.09091E+00
 -1      7573 5.86537E+01 4.26144E+01 9.09091E-01
 -1      7574 5.86537E+01 4.26144E+01 1.81818E+00
 -1      7575 5.86537E+01 4.26144E+01 2.72727E+00
 -1      7576 5.86537E+01 4.26144E+01 3.63636E+00
 -1      7577 5.86537E+01 4.26144E+01 4.54545E+00
 -1      7578 5.86537E+01 4.26144E+01 5.45455E+00
 -1      7579 5.86537E+01 4.26144E+01 6.36364E+00
 -1      7580 5.86537E+01 4.26144E+01 7.27273E+00
 -1      7581 5.86537E+01 4.26144E+01 8.18182E+00
 -1      7582 5.86537E+01 4.26144E+01 9.09091E+00
 -1      7583 5.12652E+01 5.12652E+01 9.09091E-01
 -1      7584 5.12652E+01 5.12652E+01 1.81818E+00
 -1      7585 5.12652E+01 5.12652E+01 2.72727E+00
 -1      7586 5.12652E+01 5.12652E+01 3.63636E+00
 -1      7587 5.12652E+01 5.12652E+01 4.54545E+00
 -1      7588 5.12652E+01 5.12652E+01 5.45455E+00
 -1      7589 5.12652E+01 5.12652E+01 6.36364E+00
 -1      7590 5.12652E+01 5.12652E+01 7.27273E+00
 -1      7591 5.12652E+01 5.12652E+01 8.18182E+00
 -1      7592 5.12652E+01 5.12652E+01 9.09091E+00
 -1      7593 4.26144E+01 5.86537E+01 9.09091E-01
 -1      7594 4.26144E+01 5.86537E+01 1.81818E+00
 -1      7595 4.26144E+01 5.86537E+01 2.72727E+00
 -1      7596 4.26144E+01 5.86537E+01 3.63636E+00
 -1      7597 4.26144E+01 5.86537E+01 4.54545E+00
 -1      7598 4.26144E+01 5.86537E+01 5.45455E+00
 -1      7599 4.26144E+01 5.86537E+01 6.36364E+00
 -1      7600 4.26144E+01 5.86537E+01 7.27273E+00
 -1      7601 4.26144E+01 5.86537E+01 8.18182E+00
 -1      7602 4.26144E+01 5.86537E+01 9.09091E+00
 -1      7603 3.29143E+01 6.45980E+01 9.09091E-01
 -1      7604 3.29143E+01 6.45980E+01 1.81818E+00
 -1      7605 3.29143E+01 6.45980E+01 2.72727E+00
 -1      7606 3.29143E+01 6.45980E+01 3.63636E+00
 -1      7607 3.29143E+01 6.45980E+01 4.54545E+00
 -1      7608 3.29143E+01 6.45980E+01 5.45455E+00
 -1      7609 3.29143E+01 6.45980E+01 6.36364E+00
 -1      7610 3.29143E+01 6.45980E+01 7.27273E+00
 -1      7611 3.29143E+01 6.45980E+01 8.18182E+00
 -1      7612 3.29143E+01 6.45980E+01 9.09091E+00
 -1      7613 2.24037E+01 6.89516E+01 9.09091E-01
 -1      7614 2.24037E+01 6.89516E+01 1.81818E+00
 -1      7615 2.24037E+01 6.89516E+01 2.72727E+00
 -1      7616 2.24037E+01 6.89516E+01 3.63636E+00
 -1      7617 2.24037E+01 6.89516E+01 4.54545E+00
 -1      7618 2.24037E+01 6.89516E+01 5.45455E+00
 -1      7619 2.24037E+01 6.89516E+01 6.36364E+00
 -1      7620 2.24037E+01 6.89516E+01 7.27273E+00
 -1      7621 2.24037E+01 6.89516E+01 8.18182E+00
 -1      7622 2.24037E+01 6.89516E+01 9.09091E+00
 -1      7623 1.13415E+01 7.16074E+01 9.09091E-01
 -1      7624 1.13415E+01 7.16074E+01 1.81818E+00
 -1      7625 1.13415E+01 7.16074E+01 2.72727E+00
 -1      7626 1.13415E+01 7.16074E+01 3.63636E+00
 -1      7627 1.13415E+01 7.16074E+01 4.54545E+00
 -1      7628 1.13415E+01 7.16074E+01 5.45455E+00
 -1      7629 1.13415E+01 7.16074E+01 6.36364E+00
 -1      7630 1.13415E+01 7.16074E+01 7.27273E+00
 -1      7631 1.13415E+01 7.16074E+01 8.18182E+00
 -1      7632 1.13415E+01 7.16074E+01 9.09091E+00
 -1      7633 7.40766E+01 1.17326E+01 9.09091E-01
 -1      7634 7.40766E+01 1.17326E+01 1.81818E+00
 -1      7635 7.40766E+01 1.17326E+01 2.72727E+00
 -1      7636 7.40766E+01 1.17326E+01 3.63636E+00
 -1      7637 7.40766E+01 1.17326E+01 4.54545E+00
 -1      7638 7.40766E+01 1.17326E+01 5.45455E+00
 -1      7639 7.40766E+01 1.17326E+01 6.36364E+00
 -1      7640 7.40766E+01 1.17326E+01 7.27273E+00
 -1      7641 7.40766E+01 1.17326E+01 8.18182E+00
 -1      7642 7.40766E+01 1.17326E+01 9.09091E+00
 -1      7643 7.13292E+01 2.31763E+01 9.09091E-01
 -1      7644 7.13292E+01 2.31763E+01 1.81818E+00
 -1      7645 7.13292E+01 2.31763E+01 2.72727E+00
 -1      7646 7.13292E+01 2.31763E+01 3.63636E+00
 -1      7647 7.13292E+01 2.31763E+01 4.54545E+00
 -1      7648 7.13292E+01 2.31763E+01 5.45455E+00
 -1      7649 7.13292E+01 2.31763E+01 6.36364E+00
 -1      7650 7.13292E+01 2.31763E+01 7.27273E+00
 -1      7651 7.13292E+01 2.31763E+01 8.18182E+00
 -1      7652 7.13292E+01 2.31763E+01 9.09091E+00
 -1      7653 6.68255E+01 3.40493E+01 9.09091E-01
 -1      7654 6.68255E+01 3.40493E+01 1.81818E+00
 -1      7655 6.68255E+01 3.40493E+01 2.72727E+00
 -1      7656 6.68255E+01 3.40493E+01 3.63636E+00
 -1      7657 6.68255E+01 3.40493E+01 4.54545E+00
 -1      7658 6.68255E+01 3.40493E+01 5.45455E+00
 -1      7659 6.68255E+01 3.40493E+01 6.36364E+00
 -1      7660 6.68255E+01 3.40493E+01 7.27273E+00
 -1      7661 6.68255E+01 3.40493E+01 8.18182E+00
 -1      7662 6.68255E+01 3.40493E+01 9.09091E+00
 -1      7663 6.06763E+01 4.40839E+01 9.09091E-01
 -1      7664 6.06763E+01 4.40839E+01 1.81818E+00
 -1      7665 6.06763E+01 4.40839E+01 2.72727E+00
 -1      7666 6.06763E+01 4.40839E+01 3.63636E+00
 -1      7667 6.06763E+01 4.40839E+01 4.54545E+00
 -1      7668 6.06763E+01 4.40839E+01 5.45455E+00
 -1      7669 6.06763E+01 4.40839E+01 6.36364E+00
 -1      7670 6.06763E+01 4.40839E+01 7.27273E+00
 -1      7671 6.06763E+01 4.40839E+01 8.18182E+00
 -1      7672 6.06763E+01 4.40839E+01 9.09091E+00
 -1      7673 5.30330E+01 5.30330E+01 9.09091E-01
 -1      7674 5.30330E+01 5.30330E+01 1.81818E+00
 -1      7675 5.30330E+01 5.30330E+01 2.72727E+00
 -1      7676 5.30330E+01 5.30330E+01 3.63636E+00
 -1      7677 5.30330E+01 5.30330E+01 4.54545E+00
 -1      7678 5.30330E+01 5.30330E+01 5.45455E+00
 -1      7679 5.30330E+01 5.30330E+01 6.36364E+00
 -1      7680 5.30330E+01 5.30330E+01 7.27273E+00
 -1      7681 5.30330E+01 5.30330E+01 8.18182E+00
 -1      7682 5.30330E+01 5.30330E+01 9.09091E+00
 -1      7683 4.40839E+01 6.06763E+01 9.09091E-01
 -1      7684 4.40839E+01 6.06763E+01 1.81818E+00
 -1      7685 4.40839E+01 6.06763E+01 2.72727E+00
 -1      7686 4.40839E+01 6.06763E+01 3.63636E+00
 -1      7687 4.40839E+01 6.06763E+01 4.54545E+00
 -1      7688 4.40839E+01 6.06763E+01 5.45455E+00
 -1      7689 4.40839E+01 6.06763E+01 6.36364E+00
 -1      7690 4.40839E+01 6.06763E+01 7.27273E+00
 -1      7691 4.40839E+01 6.06763E+01 8.18182E+00
 -1      7692 4.40839E+01 6.06763E+01 9.09091E+00
 -1      7693 3.40493E+01 6.68255E+01 9.09091E-01
 -1      7694 3.40493E+01 6.68255E+01 1.81818E+00
 -1      7695 3.40493E+01 6.68255E+01 2.72727E+00
 -1      7696 3.40493E+01 6.68255E+01 3.63636E+00
 -1      7697 3.40493E+01 6.68255E+01 4.54545E+00
 -1      7698 3.40493E+01 6.68255E+01 5.45455E+00
 -1      7699 3.40493E+01 6.68255E+01 6.36364E+00
 -1      7700 3.40493E+01 6.68255E+01 7.27273E+00
 -1      7701 3.40493E+01 6.68255E+01 8.18182E+00
 -1      7702 3.40493E+01 6.68255E+01 9.09091E+00
 -1      7703 2.31763E+01 7.13292E+01 9.09091E-01
 -1      7704 2.31763E+01 7.13292E+01 1.81818E+00
 -1      7705 2.31763E+01 7.13292E+01 2.72727E+00
 -1      7706 2.31763E+01 7.13292E+01 3.63636E+00
 -1      7707 2.31763E+01 7.13292E+01 4.54545E+00
 -1      7708 2.31763E+01 7.13292E+01 5.45455E+00
 -1      7709 2.31763E+01 7.13292E+01 6.36364E+00
 -1      7710 2.31763E+01 7.13292E+01 7.27273E+00
 -1      7711 2.31763E+01 7.13292E+01 8.18182E+00
 -1      7712 2.31763E+01 7.13292E+01 9.09091E+00
 -1      7713 1.17326E+01 7.40766E+01 9.09091E-01
 -1      7714 1.17326E+01 7.40766E+01 1.81818E+00
 -1      7715 1.17326E+01 7.40766E+01 2.72727E+00
 -1      7716 1.17326E+01 7.40766E+01 3.63636E+00
 -1      7717 1.17326E+01 7.40766E+01 4.54545E+00
 -1      7718 1.17326E+01 7.40766E+01 5.45455E+00
 -1      7719 1.17326E+01 7.40766E+01 6.36364E+00
 -1      7720 1.17326E+01 7.40766E+01 7.27273E+00
 -1      7721 1.17326E+01 7.40766E+01 8.18182E+00
 -1      7722 1.17326E+01 7.40766E+01 9.09091E+00
 -1      7723 7.65458E+01 1.21237E+01 9.09091E-01
 -1      7724 7.65458E+01 1.21237E+01 1.81818E+00
 -1      7725 7.65458E+01 1.21237E+01 2.72727E+00
 -1      7726 7.65458E+01 1.21237E+01 3.63636E+00
 -1      7727 7.65458E+01 1.21237E+01 4.54545E+00
 -1      7728 7.65458E+01 1.21237E+01 5.45455E+00
 -1      7729 7.65458E+01 1.21237E+01 6.36364E+00
 -1      7730 7.65458E+01 1.21237E+01 7.27273E+00
 -1      7731 7.65458E+01 1.21237E+01 8.18182E+00
 -1      7732 7.65458E+01 1.21237E+01 9.09091E+00
 -1      7733 7.37069E+01 2.39488E+01 9.09091E-01
 -1      7734 7.37069E+01 2.39488E+01 1.81818E+00
 -1      7735 7.37069E+01 2.39488E+01 2.72727E+00
 -1      7736 7.37069E+01 2.39488E+01 3.63636E+00
 -1      7737 7.37069E+01 2.39488E+01 4.54545E+00
 -1      7738 7.37069E+01 2.39488E+01 5.45455E+00
 -1      7739 7.37069E+01 2.39488E+01 6.36364E+00
 -1      7740 7.37069E+01 2.39488E+01 7.27273E+00
 -1      7741 7.37069E+01 2.39488E+01 8.18182E+00
 -1      7742 7.37069E+01 2.39488E+01 9.09091E+00
 -1      7743 6.90530E+01 3.51843E+01 9.09091E-01
 -1      7744 6.90530E+01 3.51843E+01 1.81818E+00
 -1      7745 6.90530E+01 3.51843E+01 2.72727E+00
 -1      7746 6.90530E+01 3.51843E+01 3.63636E+00
 -1      7747 6.90530E+01 3.51843E+01 4.54545E+00
 -1      7748 6.90530E+01 3.51843E+01 5.45455E+00
 -1      7749 6.90530E+01 3.51843E+01 6.36364E+00
 -1      7750 6.90530E+01 3.51843E+01 7.27273E+00
 -1      7751 6.90530E+01 3.51843E+01 8.18182E+00
 -1      7752 6.90530E+01 3.51843E+01 9.09091E+00
 -1      7753 6.26988E+01 4.55534E+01 9.09091E-01
 -1      7754 6.26988E+01 4.55534E+01 1.81818E+00
 -1      7755 6.26988E+01 4.55534E+01 2.72727E+00
 -1      7756 6.26988E+01 4.55534E+01 3.63636E+00
 -1      7757 6.26988E+01 4.55534E+01 4.54545E+00
 -1      7758 6.26988E+01 4.55534E+01 5.45455E+00
 -1      7759 6.26988E+01 4.55534E+01 6.36364E+00
 -1      7760 6.26988E+01 4.55534E+01 7.27273E+00
 -1      7761 6.26988E+01 4.55534E+01 8.18182E+00
 -1      7762 6.26988E+01 4.55534E+01 9.09091E+00
 -1      7763 5.48008E+01 5.48008E+01 9.09091E-01
 -1      7764 5.48008E+01 5.48008E+01 1.81818E+00
 -1      7765 5.48008E+01 5.48008E+01 2.72727E+00
 -1      7766 5.48008E+01 5.48008E+01 3.63636E+00
 -1      7767 5.48008E+01 5.48008E+01 4.54545E+00
 -1      7768 5.48008E+01 5.48008E+01 5.45455E+00
 -1      7769 5.48008E+01 5.48008E+01 6.36364E+00
 -1      7770 5.48008E+01 5.48008E+01 7.27273E+00
 -1      7771 5.48008E+01 5.48008E+01 8.18182E+00
 -1      7772 5.48008E+01 5.48008E+01 9.09091E+00
 -1      7773 4.55534E+01 6.26988E+01 9.09091E-01
 -1      7774 4.55534E+01 6.26988E+01 1.81818E+00
 -1      7775 4.55534E+01 6.26988E+01 2.72727E+00
 -1      7776 4.55534E+01 6.26988E+01 3.63636E+00
 -1      7777 4.55534E+01 6.26988E+01 4.54545E+00
 -1      7778 4.55534E+01 6.26988E+01 5.45455E+00
 -1      7779 4.55534E+01 6.26988E+01 6.36364E+00
 -1      7780 4.55534E+01 6.26988E+01 7.27273E+00
 -1      7781 4.55534E+01 6.26988E+01 8.18182E+00
 -1      7782 4.55534E+01 6.26988E+01 9.09091E+00
 -1      7783 3.51843E+01 6.90530E+01 9.09091E-01
 -1      7784 3.51843E+01 6.90530E+01 1.81818E+00
 -1      7785 3.51843E+01 6.90530E+01 2.72727E+00
 -1      7786 3.51843E+01 6.90530E+01 3.63636E+00
 -1      7787 3.51843E+01 6.90530E+01 4.54545E+00
 -1      7788 3.51843E+01 6.90530E+01 5.45455E+00
 -1      7789 3.51843E+01 6.90530E+01 6.36364E+00
 -1      7790 3.51843E+01 6.90530E+01 7.27273E+00
 -1      7791 3.51843E+01 6.90530E+01 8.18182E+00
 -1      7792 3.51843E+01 6.90530E+01 9.09091E+00
 -1      7793 2.39488E+01 7.37069E+01 9.09091E-01
 -1      7794 2.39488E+01 7.37069E+01 1.81818E+00
 -1      7795 2.39488E+01 7.37069E+01 2.72727E+00
 -1      7796 2.39488E+01 7.37069E+01 3.63636E+00
 -1      7797 2.39488E+01 7.37069E+01 4.54545E+00
 -1      7798 2.39488E+01 7.37069E+01 5.45455E+00
 -1      7799 2.39488E+01 7.37069E+01 6.36364E+00
 -1      7800 2.39488E+01 7.37069E+01 7.27273E+00
 -1      7801 2.39488E+01 7.37069E+01 8.18182E+00
 -1      7802 2.39488E+01 7.37069E+01 9.09091E+00
 -1      7803 1.21237E+01 7.65458E+01 9.09091E-01
 -1      7804 1.21237E+01 7.65458E+01 1.81818E+00
 -1      7805 1.21237E+01 7.65458E+01 2.72727E+00
 -1      7806 1.21237E+01 7.65458E+01 3.63636E+00
 -1      7807 1.21237E+01 7.65458E+01 4.54545E+00
 -1      7808 1.21237E+01 7.65458E+01 5.45455E+00
 -1      7809 1.21237E+01 7.65458E+01 6.36364E+00
 -1      7810 1.21237E+01 7.65458E+01 7.27273E+00
 -1      7811 1.21237E+01 7.65458E+01 8.18182E+00
 -1      7812 1.21237E+01 7.65458E+01 9.09091E+00
 -1      7813 7.90151E+01 1.25148E+01 9.09091E-01
 -1      7814 7.90151E+01 1.25148E+01 1.81818E+00
 -1      7815 7.90151E+01 1.25148E+01 2.72727E+00
 -1      7816 7.90151E+01 1.25148E+01 3.63636E+00
 -1      7817 7.90151E+01 1.25148E+01 4.54545E+00
 -1      7818 7.90151E+01 1.25148E+01 5.45455E+00
 -1      7819 7.90151E+01 1.25148E+01 6.36364E+00
 -1      7820 7.90151E+01 1.25148E+01 7.27273E+00
 -1      7821 7.90151E+01 1.25148E+01 8.18182E+00
 -1      7822 7.90151E+01 1.25148E+01 9.09091E+00
 -1      7823 7.60845E+01 2.47214E+01 9.09091E-01
 -1      7824 7.60845E+01 2.47214E+01 1.81818E+00
 -1      7825 7.60845E+01 2.47214E+01 2.72727E+00
 -1      7826 7.60845E+01 2.47214E+01 3.63636E+00
 -1      7827 7.60845E+01 2.47214E+01 4.54545E+00
 -1      7828 7.60845E+01 2.47214E+01 5.45455E+00
 -1      7829 7.60845E+01 2.47214E+01 6.36364E+00
 -1      7830 7.60845E+01 2.47214E+01 7.27273E+00
 -1      7831 7.60845E+01 2.47214E+01 8.18182E+00
 -1      7832 7.60845E+01 2.47214E+01 9.09091E+00
 -1      7833 7.12805E+01 3.63192E+01 9.09091E-01
 -1      7834 7.12805E+01 3.63192E+01 1.81818E+00
 -1      7835 7.12805E+01 3.63192E+01 2.72727E+00
 -1      7836 7.12805E+01 3.63192E+01 3.63636E+00
 -1      7837 7.12805E+01 3.63192E+01 4.54545E+00
 -1      7838 7.12805E+01 3.63192E+01 5.45455E+00
 -1      7839 7.12805E+01 3.63192E+01 6.36364E+00
 -1      7840 7.12805E+01 3.63192E+01 7.27273E+00
 -1      7841 7.12805E+01 3.63192E+01 8.18182E+00
 -1      7842 7.12805E+01 3.63192E+01 9.09091E+00
 -1      7843 6.47214E+01 4.70228E+01 9.09091E-01
 -1      7844 6.47214E+01 4.70228E+01 1.81818E+00
 -1      7845 6.47214E+01 4.70228E+01 2.72727E+00
 -1      7846 6.47214E+01 4.70228E+01 3.63636E+00
 -1      7847 6.47214E+01 4.70228E+01 4.54545E+00
 -1      7848 6.47214E+01 4.70228E+01 5.45455E+00
 -1      7849 6.47214E+01 4.70228E+01 6.36364E+00
 -1      7850 6.47214E+01 4.70228E+01 7.27273E+00
 -1      7851 6.47214E+01 4.70228E+01 8.18182E+00
 -1      7852 6.47214E+01 4.70228E+01 9.09091E+00
 -1      7853 5.65685E+01 5.65685E+01 9.09091E-01
 -1      7854 5.65685E+01 5.65685E+01 1.81818E+00
 -1      7855 5.65685E+01 5.65685E+01 2.72727E+00
 -1      7856 5.65685E+01 5.65685E+01 3.63636E+00
 -1      7857 5.65685E+01 5.65685E+01 4.54545E+00
 -1      7858 5.65685E+01 5.65685E+01 5.45455E+00
 -1      7859 5.65685E+01 5.65685E+01 6.36364E+00
 -1      7860 5.65685E+01 5.65685E+01 7.27273E+00
 -1      7861 5.65685E+01 5.65685E+01 8.18182E+00
 -1      7862 5.65685E+01 5.65685E+01 9.09091E+00
 -1      7863 4.70228E+01 6.47214E+01 9.09091E-01
 -1      7864 4.70228E+01 6.47214E+01 1.81818E+00
 -1      7865 4.70228E+01 6.47214E+01 2.72727E+00
 -1      7866 4.70228E+01 6.47214E+01 3.63636E+00
 -1      7867 4.70228E+01 6.47214E+01 4.54545E+00
 -1      7868 4.70228E+01 6.47214E+01 5.45455E+00
 -1      7869 4.70228E+01 6.47214E+01 6.36364E+00
 -1      7870 4.70228E+01 6.47214E+01 7.27273E+00
 -1      7871 4.70228E+01 6.47214E+01 8.18182E+00
 -1      7872 4.70228E+01 6.47214E+01 9.09091E+00
 -1      7873 3.63192E+01 7.12805E+01 9.09091E-01
 -1      7874 3.63192E+01 7.12805E+01 1.81818E+00
 -1      7875 3.63192E+01 7.12805E+01 2.72727E+00
 -1      7876 3.63192E+01 7.12805E+01 3.63636E+00
 -1      7877 3.63192E+01 7.12805E+01 4.54545E+00
 -1      7878 3.63192E+01 7.12805E+01 5.45455E+00
 -1      7879 3.63192E+01 7.12805E+01 6.36364E+00
 -1      7880 3.63192E+01 7.12805E+01 7.27273E+00
 -1      7881 3.63192E+01 7.12805E+01 8.18182E+00
 -1      7882 3.63192E+01 7.12805E+01 9.09091E+00
 -1      7883 2.47214E+01 7.60845E+01 9.09091E-01
 -1      7884 2.47214E+01 7.60845E+01 1.81818E+00
 -1      7885 2.47214E+01 7.60845E+01 2.72727E+00
 -1      7886 2.47214E+01 7.60845E+01 3.63636E+00
 -1      7887 2.47214E+01 7.60845E+01 4.54545E+00
 -1      7888 2.47214E+01 7.60845E+01 5.45455E+00
 -1      7889 2.47214E+01 7.60845E+01 6.36364E+00
 -1      7890 2.47214E+01 7.60845E+01 7.27273E+00
 -1      7891 2.47214E+01 7.60845E+01 8.18182E+00
 -1      7892 2.47214E+01 7.60845E+01 9.09091E+00
 -1      7893 1.25148E+01 7.90151E+01 9.09091E-01
 -1      7894 1.25148E+01 7.90151E+01 1.81818E+00
 -1      7895 1.25148E+01 7.90151E+01 2.72727E+00
 -1      7896 1.25148E+01 7.90151E+01 3.63636E+00
 -1      7897 1.25148E+01 7.90151E+01 4.54545E+00
 -1      7898 1.25148E+01 7.90151E+01 5.45455E+00
 -1      7899 1.25148E+01 7.90151E+01 6.36364E+00
 -1      7900 1.25148E+01 7.90151E+01 7.27273E+00
 -1      7901 1.25148E+01 7.90151E+01 8.18182E+00
 -1      7902 1.25148E+01 7.90151E+01 9.09091E+00
 -1      7903 8.14843E+01 1.29058E+01 9.09091E-01
 -1      7904 8.14843E+01 1.29058E+01 1.81818E+00
 -1      7905 8.14843E+01 1.29058E+01 2.72727E+00
 -1      7906 8.14843E+01 1.29058E+01 3.63636E+00
 -1      7907 8.14843E+01 1.29058E+01 4.54545E+00
 -1      7908 8.14843E+01 1.29058E+01 5.45455E+00
 -1      7909 8.14843E+01 1.29058E+01 6.36364E+00
 -1      7910 8.14843E+01 1.29058E+01 7.27273E+00
 -1      7911 8.14843E+01 1.29058E+01 8.18182E+00
 -1      7912 8.14843E+01 1.29058E+01 9.09091E+00
 -1      7913 7.84622E+01 2.54939E+01 9.09091E-01
 -1      7914 7.84622E+01 2.54939E+01 1.81818E+00
 -1      7915 7.84622E+01 2.54939E+01 2.72727E+00
 -1      7916 7.84622E+01 2.54939E+01 3.63636E+00
 -1      7917 7.84622E+01 2.54939E+01 4.54545E+00
 -1      7918 7.84622E+01 2.54939E+01 5.45455E+00
 -1      7919 7.84622E+01 2.54939E+01 6.36364E+00
 -1      7920 7.84622E+01 2.54939E+01 7.27273E+00
 -1      7921 7.84622E+01 2.54939E+01 8.18182E+00
 -1      7922 7.84622E+01 2.54939E+01 9.09091E+00
 -1      7923 7.35080E+01 3.74542E+01 9.09091E-01
 -1      7924 7.35080E+01 3.74542E+01 1.81818E+00
 -1      7925 7.35080E+01 3.74542E+01 2.72727E+00
 -1      7926 7.35080E+01 3.74542E+01 3.63636E+00
 -1      7927 7.35080E+01 3.74542E+01 4.54545E+00
 -1      7928 7.35080E+01 3.74542E+01 5.45455E+00
 -1      7929 7.35080E+01 3.74542E+01 6.36364E+00
 -1      7930 7.35080E+01 3.74542E+01 7.27273E+00
 -1      7931 7.35080E+01 3.74542E+01 8.18182E+00
 -1      7932 7.35080E+01 3.74542E+01 9.09091E+00
 -1      7933 6.67439E+01 4.84923E+01 9.09091E-01
 -1      7934 6.67439E+01 4.84923E+01 1.81818E+00
 -1      7935 6.67439E+01 4.84923E+01 2.72727E+00
 -1      7936 6.67439E+01 4.84923E+01 3.63636E+00
 -1      7937 6.67439E+01 4.84923E+01 4.54545E+00
 -1      7938 6.67439E+01 4.84923E+01 5.45455E+00
 -1      7939 6.67439E+01 4.84923E+01 6.36364E+00
 -1      7940 6.67439E+01 4.84923E+01 7.27273E+00
 -1      7941 6.67439E+01 4.84923E+01 8.18182E+00
 -1      7942 6.67439E+01 4.84923E+01 9.09091E+00
 -1      7943 5.83363E+01 5.83363E+01 9.09091E-01
 -1      7944 5.83363E+01 5.83363E+01 1.81818E+00
 -1      7945 5.83363E+01 5.83363E+01 2.72727E+00
 -1      7946 5.83363E+01 5.83363E+01 3.63636E+00
 -1      7947 5.83363E+01 5.83363E+01 4.54545E+00
 -1      7948 5.83363E+01 5.83363E+01 5.45455E+00
 -1      7949 5.83363E+01 5.83363E+01 6.36364E+00
 -1      7950 5.83363E+01 5.83363E+01 7.27273E+00
 -1      7951 5.83363E+01 5.83363E+01 8.18182E+00
 -1      7952 5.83363E+01 5.83363E+01 9.09091E+00
 -1      7953 4.84923E+01 6.67439E+01 9.09091E-01
 -1      7954 4.84923E+01 6.67439E+01 1.81818E+00
 -1      7955 4.84923E+01 6.67439E+01 2.72727E+00
 -1      7956 4.84923E+01 6.67439E+01 3.63636E+00
 -1      7957 4.84923E+01 6.67439E+01 4.54545E+00
 -1      7958 4.84923E+01 6.67439E+01 5.45455E+00
 -1      7959 4.84923E+01 6.67439E+01 6.36364E+00
 -1      7960 4.84923E+01 6.67439E+01 7.27273E+00
 -1      7961 4.84923E+01 6.67439E+01 8.18182E+00
 -1      7962 4.84923E+01 6.67439E+01 9.09091E+00
 -1      7963 3.74542E+01 7.35080E+01 9.09091E-01
 -1      7964 3.74542E+01 7.35080E+01 1.81818E+00
 -1      7965 3.74542E+01 7.35080E+01 2.72727E+00
 -1      7966 3.74542E+01 7.35080E+01 3.63636E+00
 -1      7967 3.74542E+01 7.35080E+01 4.54545E+00
 -1      7968 3.74542E+01 7.35080E+01 5.45455E+00
 -1      7969 3.74542E+01 7.35080E+01 6.36364E+00
 -1      7970 3.74542E+01 7.35080E+01 7.27273E+00
 -1      7971 3.74542E+01 7.35080E+01 8.18182E+00
 -1      7972 3.74542E+01 7.35080E+01 9.09091E+00
 -1      7973 2.54939E+01 7.84622E+01 9.09091E-01
 -1      7974 2.54939E+01 7.84622E+01 1.81818E+00
 -1      7975 2.54939E+01 7.84622E+01 2.72727E+00
 -1      7976 2.54939E+01 7.84622E+01 3.63636E+00
 -1      7977 2.54939E+01 7.84622E+01 4.54545E+00
 -1      7978 2.54939E+01 7.84622E+01 5.45455E+00
 -1      7979 2.54939E+01 7.84622E+01 6.36364E+00
 -1      7980 2.54939E+01 7.84622E+01 7.27273E+00
 -1      7981 2.54939E+01 7.84622E+01 8.18182E+00
 -1      7982 2.54939E+01 7.84622E+01 9.09091E+00
 -1      7983 1.29058E+01 8.14843E+01 9.09091E-01
 -1      7984 1.29058E+01 8.14843E+01 1.81818E+00
 -1      7985 1.29058E+01 8.14843E+01 2.72727E+00
 -1      7986 1.29058E+01 8.14843E+01 3.63636E+00
 -1      7987 1.29058E+01 8.14843E+01 4.54545E+00
 -1      7988 1.29058E+01 8.14843E+01 5.45455E+00
 -1      7989 1.29058E+01 8.14843E+01 6.36364E+00
 -1      7990 1.29058E+01 8.14843E+01 7.27273E+00
 -1      7991 1.29058E+01 8.14843E+01 8.18182E+00
 -1      7992 1.29058E+01 8.14843E+01 9.09091E+00
 -1      7993 8.39535E+01 1.32969E+01 9.09091E-01
 -1      7994 8.39535E+01 1.32969E+01 1.81818E+00
 -1      7995 8.39535E+01 1.32969E+01 2.72727E+00
 -1      7996 8.39535E+01 1.32969E+01 3.63636E+00
 -1      7997 8.39535E+01 1.32969E+01 4.54545E+00
 -1      7998 8.39535E+01 1.32969E+01 5.45455E+00
 -1      7999 8.39535E+01 1.32969E+01 6.36364E+00
 -1      8000 8.39535E+01 1.32969E+01 7.27273E+00
 -1      8001 8.39535E+01 1.32969E+01 8.18182E+00
 -1      8002 8.39535E+01 1.32969E+01 9.09091E+00
 -1      8003 8.08398E+01 2.62664E+01 9.09091E-01
 -1      8004 8.08398E+01 2.62664E+01 1.81818E+00
 -1      8005 8.08398E+01 2.62664E+01 2.72727E+00
 -1      8006 8.08398E+01 2.62664E+01 3.63636E+00
 -1      8007 8.08398E+01 2.62664E+01 4.54545E+00
 -1      8008 8.08398E+01 2.62664E+01 5.45455E+00
 -1      8009 8.08398E+01 2.62664E+01 6.36364E+00
 -1      8010 8.08398E+01 2.62664E+01 7.27273E+00
 -1      8011 8.08398E+01 2.62664E+01 8.18182E+00
 -1      8012 8.08398E+01 2.62664E+01 9.09091E+00
 -1      8013 7.57356E+01 3.85892E+01 9.09091E-01
 -1      8014 7.57356E+01 3.85892E+01 1.81818E+00
 -1      8015 7.57356E+01 3.85892E+01 2.72727E+00
 -1      8016 7.57356E+01 3.85892E+01 3.63636E+00
 -1      8017 7.57356E+01 3.85892E+01 4.54545E+00
 -1      8018 7.57356E+01 3.85892E+01 5.45455E+00
 -1      8019 7.57356E+01 3.85892E+01 6.36364E+00
 -1      8020 7.57356E+01 3.85892E+01 7.27273E+00
 -1      8021 7.57356E+01 3.85892E+01 8.18182E+00
 -1      8022 7.57356E+01 3.85892E+01 9.09091E+00
 -1      8023 6.87664E+01 4.99617E+01 9.09091E-01
 -1      8024 6.87664E+01 4.99617E+01 1.81818E+00
 -1      8025 6.87664E+01 4.99617E+01 2.72727E+00
 -1      8026 6.87664E+01 4.99617E+01 3.63636E+00
 -1      8027 6.87664E+01 4.99617E+01 4.54545E+00
 -1      8028 6.87664E+01 4.99617E+01 5.45455E+00
 -1      8029 6.87664E+01 4.99617E+01 6.36364E+00
 -1      8030 6.87664E+01 4.99617E+01 7.27273E+00
 -1      8031 6.87664E+01 4.99617E+01 8.18182E+00
 -1      8032 6.87664E+01 4.99617E+01 9.09091E+00
 -1      8033 6.01041E+01 6.01041E+01 9.09091E-01
 -1      8034 6.01041E+01 6.01041E+01 1.81818E+00
 -1      8035 6.01041E+01 6.01041E+01 2.72727E+00
 -1      8036 6.01041E+01 6.01041E+01 3.63636E+00
 -1      8037 6.01041E+01 6.01041E+01 4.54545E+00
 -1      8038 6.01041E+01 6.01041E+01 5.45455E+00
 -1      8039 6.01041E+01 6.01041E+01 6.36364E+00
 -1      8040 6.01041E+01 6.01041E+01 7.27273E+00
 -1      8041 6.01041E+01 6.01041E+01 8.18182E+00
 -1      8042 6.01041E+01 6.01041E+01 9.09091E+00
 -1      8043 4.99617E+01 6.87664E+01 9.09091E-01
 -1      8044 4.99617E+01 6.87664E+01 1.81818E+00
 -1      8045 4.99617E+01 6.87664E+01 2.72727E+00
 -1      8046 4.99617E+01 6.87664E+01 3.63636E+00
 -1      8047 4.99617E+01 6.87664E+01 4.54545E+00
 -1      8048 4.99617E+01 6.87664E+01 5.45455E+00
 -1      8049 4.99617E+01 6.87664E+01 6.36364E+00
 -1      8050 4.99617E+01 6.87664E+01 7.27273E+00
 -1      8051 4.99617E+01 6.87664E+01 8.18182E+00
 -1      8052 4.99617E+01 6.87664E+01 9.09091E+00
 -1      8053 3.85892E+01 7.57356E+01 9.09091E-01
 -1      8054 3.85892E+01 7.57356E+01 1.81818E+00
 -1      8055 3.85892E+01 7.57356E+01 2.72727E+00
 -1      8056 3.85892E+01 7.57356E+01 3.63636E+00
 -1      8057 3.85892E+01 7.57356E+01 4.54545E+00
 -1      8058 3.85892E+01 7.57356E+01 5.45455E+00
 -1      8059 3.85892E+01 7.57356E+01 6.36364E+00
 -1      8060 3.85892E+01 7.57356E+01 7.27273E+00
 -1      8061 3.85892E+01 7.57356E+01 8.18182E+00
 -1      8062 3.85892E+01 7.57356E+01 9.09091E+00
 -1      8063 2.62664E+01 8.08398E+01 9.09091E-01
 -1      8064 2.62664E+01 8.08398E+01 1.81818E+00
 -1      8065 2.62664E+01 8.08398E+01 2.72727E+00
 -1      8066 2.62664E+01 8.08398E+01 3.63636E+00
 -1      8067 2.62664E+01 8.08398E+01 4.54545E+00
 -1      8068 2.62664E+01 8.08398E+01 5.45455E+00
 -1      8069 2.62664E+01 8.08398E+01 6.36364E+00
 -1      8070 2.62664E+01 8.08398E+01 7.27273E+00
 -1      8071 2.62664E+01 8.08398E+01 8.18182E+00
 -1      8072 2.62664E+01 8.08398E+01 9.09091E+00
 -1      8073 1.32969E+01 8.39535E+01 9.09091E-01
 -1      8074 1.32969E+01 8.39535E+01 1.81818E+00
 -1      8075 1.32969E+01 8.39535E+01 2.72727E+00
 -1      8076 1.32969E+01 8.39535E+01 3.63636E+00
 -1      8077 1.32969E+01 8.39535E+01 4.54545E+00
 -1      8078 1.32969E+01 8.39535E+01 5.45455E+00
 -1      8079 1.32969E+01 8.39535E+01 6.36364E+00
 -1      8080 1.32969E+01 8.39535E+01 7.27273E+00
 -1      8081 1.32969E+01 8.39535E+01 8.18182E+00
 -1      8082 1.32969E+01 8.39535E+01 9.09091E+00
 -1      8083 8.64227E+01 1.36880E+01 9.09091E-01
 -1      8084 8.64227E+01 1.36880E+01 1.81818E+00
 -1      8085 8.64227E+01 1.36880E+01 2.72727E+00
 -1      8086 8.64227E+01 1.36880E+01 3.63636E+00
 -1      8087 8.64227E+01 1.36880E+01 4.54545E+00
 -1      8088 8.64227E+01 1.36880E+01 5.45455E+00
 -1      8089 8.64227E+01 1.36880E+01 6.36364E+00
 -1      8090 8.64227E+01 1.36880E+01 7.27273E+00
 -1      8091 8.64227E+01 1.36880E+01 8.18182E+00
 -1      8092 8.64227E+01 1.36880E+01 9.09091E+00
 -1      8093 8.32174E+01 2.70390E+01 9.09091E-01
 -1      8094 8.32174E+01 2.70390E+01 1.81818E+00
 -1      8095 8.32174E+01 2.70390E+01 2.72727E+00
 -1      8096 8.32174E+01 2.70390E+01 3.63636E+00
 -1      8097 8.32174E+01 2.70390E+01 4.54545E+00
 -1      8098 8.32174E+01 2.70390E+01 5.45455E+00
 -1      8099 8.32174E+01 2.70390E+01 6.36364E+00
 -1      8100 8.32174E+01 2.70390E+01 7.27273E+00
 -1      8101 8.32174E+01 2.70390E+01 8.18182E+00
 -1      8102 8.32174E+01 2.70390E+01 9.09091E+00
 -1      8103 7.79631E+01 3.97242E+01 9.09091E-01
 -1      8104 7.79631E+01 3.97242E+01 1.81818E+00
 -1      8105 7.79631E+01 3.97242E+01 2.72727E+00
 -1      8106 7.79631E+01 3.97242E+01 3.63636E+00
 -1      8107 7.79631E+01 3.97242E+01 4.54545E+00
 -1      8108 7.79631E+01 3.97242E+01 5.45455E+00
 -1      8109 7.79631E+01 3.97242E+01 6.36364E+00
 -1      8110 7.79631E+01 3.97242E+01 7.27273E+00
 -1      8111 7.79631E+01 3.97242E+01 8.18182E+00
 -1      8112 7.79631E+01 3.97242E+01 9.09091E+00
 -1      8113 7.07890E+01 5.14312E+01 9.09091E-01
 -1      8114 7.07890E+01 5.14312E+01 1.81818E+00
 -1      8115 7.07890E+01 5.14312E+01 2.72727E+00
 -1      8116 7.07890E+01 5.14312E+01 3.63636E+00
 -1      8117 7.07890E+01 5.14312E+01 4.54545E+00
 -1      8118 7.07890E+01 5.14312E+01 5.45455E+00
 -1      8119 7.07890E+01 5.14312E+01 6.36364E+00
 -1      8120 7.07890E+01 5.14312E+01 7.27273E+00
 -1      8121 7.07890E+01 5.14312E+01 8.18182E+00
 -1      8122 7.07890E+01 5.14312E+01 9.09091E+00
 -1      8123 6.18718E+01 6.18718E+01 9.09091E-01
 -1      8124 6.18718E+01 6.18718E+01 1.81818E+00
 -1      8125 6.18718E+01 6.18718E+01 2.72727E+00
 -1      8126 6.18718E+01 6.18718E+01 3.63636E+00
 -1      8127 6.18718E+01 6.18718E+01 4.54545E+00
 -1      8128 6.18718E+01 6.18718E+01 5.45455E+00
 -1      8129 6.18718E+01 6.18718E+01 6.36364E+00
 -1      8130 6.18718E+01 6.18718E+01 7.27273E+00
 -1      8131 6.18718E+01 6.18718E+01 8.18182E+00
 -1      8132 6.18718E+01 6.18718E+01 9.09091E+00
 -1      8133 5.14312E+01 7.07890E+01 9.09091E-01
 -1      8134 5.14312E+01 7.07890E+01 1.81818E+00
 -1      8135 5.14312E+01 7.07890E+01 2.72727E+00
 -1      8136 5.14312E+01 7.07890E+01 3.63636E+00
 -1      8137 5.14312E+01 7.07890E+01 4.54545E+00
 -1      8138 5.14312E+01 7.07890E+01 5.45455E+00
 -1      8139 5.14312E+01 7.07890E+01 6.36364E+00
 -1      8140 5.14312E+01 7.07890E+01 7.27273E+00
 -1      8141 5.14312E+01 7.07890E+01 8.18182E+00
 -1      8142 5.14312E+01 7.07890E+01 9.09091E+00
 -1      8143 3.97242E+01 7.79631E+01 9.09091E-01
 -1      8144 3.97242E+01 7.79631E+01 1.81818E+00
 -1      8145 3.97242E+01 7.79631E+01 2.72727E+00
 -1      8146 3.97242E+01 7.79631E+01 3.63636E+00
 -1      8147 3.97242E+01 7.79631E+01 4.54545E+00
 -1      8148 3.97242E+01 7.79631E+01 5.45455E+00
 -1      8149 3.97242E+01 7.79631E+01 6.36364E+00
 -1      8150 3.97242E+01 7.79631E+01 7.27273E+00
 -1      8151 3.97242E+01 7.79631E+01 8.18182E+00
 -1      8152 3.97242E+01 7.79631E+01 9.09091E+00
 -1      8153 2.70390E+01 8.32174E+01 9.09091E-01
 -1      8154 2.70390E+01 8.32174E+01 1.81818E+00
 -1      8155 2.70390E+01 8.32174E+01 2.72727E+00
 -1      8156 2.70390E+01 8.32174E+01 3.63636E+00
 -1      8157 2.70390E+01 8.32174E+01 4.54545E+00
 -1      8158 2.70390E+01 8.32174E+01 5.45455E+00
 -1      8159 2.70390E+01 8.32174E+01 6.36364E+00
 -1      8160 2.70390E+01 8.32174E+01 7.27273E+00
 -1      8161 2.70390E+01 8.32174E+01 8.18182E+00
 -1      8162 2.70390E+01 8.32174E+01 9.09091E+00
 -1      8163 1.36880E+01 8.64227E+01 9.09091E-01
 -1      8164 1.36880E+01 8.64227E+01 1.81818E+00
 -1      8165 1.36880E+01 8.64227E+01 2.72727E+00
 -1      8166 1.36880E+01 8.64227E+01 3.63636E+00
 -1      8167 1.36880E+01 8.64227E+01 4.54545E+00
 -1      8168 1.36880E+01 8.64227E+01 5.45455E+00
 -1      8169 1.36880E+01 8.64227E+01 6.36364E+00
 -1      8170 1.36880E+01 8.64227E+01 7.27273E+00
 -1      8171 1.36880E+01 8.64227E+01 8.18182E+00
 -1      8172 1.36880E+01 8.64227E+01 9.09091E+00
 -1      8173 8.88920E+01 1.40791E+01 9.09091E-01
 -1      8174 8.88920E+01 1.40791E+01 1.81818E+00
 -1      8175 8.88920E+01 1.40791E+01 2.72727E+00
 -1      8176 8.88920E+01 1.40791E+01 3.63636E+00
 -1      8177 8.88920E+01 1.40791E+01 4.54545E+00
 -1      8178 8.88920E+01 1.40791E+01 5.45455E+00
 -1      8179 8.88920E+01 1.40791E+01 6.36364E+00
 -1      8180 8.88920E+01 1.40791E+01 7.27273E+00
 -1      8181 8.88920E+01 1.40791E+01 8.18182E+00
 -1      8182 8.88920E+01 1.40791E+01 9.09091E+00
 -1      8183 8.55951E+01 2.78115E+01 9.09091E-01
 -1      8184 8.55951E+01 2.78115E+01 1.81818E+00
 -1      8185 8.55951E+01 2.78115E+01 2.72727E+00
 -1      8186 8.55951E+01 2.78115E+01 3.63636E+00
 -1      8187 8.55951E+01 2.78115E+01 4.54545E+00
 -1      8188 8.55951E+01 2.78115E+01 5.45455E+00
 -1      8189 8.55951E+01 2.78115E+01 6.36364E+00
 -1      8190 8.55951E+01 2.78115E+01 7.27273E+00
 -1      8191 8.55951E+01 2.78115E+01 8.18182E+00
 -1      8192 8.55951E+01 2.78115E+01 9.09091E+00
 -1      8193 8.01906E+01 4.08591E+01 9.09091E-01
 -1      8194 8.01906E+01 4.08591E+01 1.81818E+00
 -1      8195 8.01906E+01 4.08591E+01 2.72727E+00
 -1      8196 8.01906E+01 4.08591E+01 3.63636E+00
 -1      8197 8.01906E+01 4.08591E+01 4.54545E+00
 -1      8198 8.01906E+01 4.08591E+01 5.45455E+00
 -1      8199 8.01906E+01 4.08591E+01 6.36364E+00
 -1      8200 8.01906E+01 4.08591E+01 7.27273E+00
 -1      8201 8.01906E+01 4.08591E+01 8.18182E+00
 -1      8202 8.01906E+01 4.08591E+01 9.09091E+00
 -1      8203 7.28115E+01 5.29007E+01 9.09091E-01
 -1      8204 7.28115E+01 5.29007E+01 1.81818E+00
 -1      8205 7.28115E+01 5.29007E+01 2.72727E+00
 -1      8206 7.28115E+01 5.29007E+01 3.63636E+00
 -1      8207 7.28115E+01 5.29007E+01 4.54545E+00
 -1      8208 7.28115E+01 5.29007E+01 5.45455E+00
 -1      8209 7.28115E+01 5.29007E+01 6.36364E+00
 -1      8210 7.28115E+01 5.29007E+01 7.27273E+00
 -1      8211 7.28115E+01 5.29007E+01 8.18182E+00
 -1      8212 7.28115E+01 5.29007E+01 9.09091E+00
 -1      8213 6.36396E+01 6.36396E+01 9.09091E-01
 -1      8214 6.36396E+01 6.36396E+01 1.81818E+00
 -1      8215 6.36396E+01 6.36396E+01 2.72727E+00
 -1      8216 6.36396E+01 6.36396E+01 3.63636E+00
 -1      8217 6.36396E+01 6.36396E+01 4.54545E+00
 -1      8218 6.36396E+01 6.36396E+01 5.45455E+00
 -1      8219 6.36396E+01 6.36396E+01 6.36364E+00
 -1      8220 6.36396E+01 6.36396E+01 7.27273E+00
 -1      8221 6.36396E+01 6.36396E+01 8.18182E+00
 -1      8222 6.36396E+01 6.36396E+01 9.09091E+00
 -1      8223 5.29007E+01 7.28115E+01 9.09091E-01
 -1      8224 5.29007E+01 7.28115E+01 1.81818E+00
 -1      8225 5.29007E+01 7.28115E+01 2.72727E+00
 -1      8226 5.29007E+01 7.28115E+01 3.63636E+00
 -1      8227 5.29007E+01 7.28115E+01 4.54545E+00
 -1      8228 5.29007E+01 7.28115E+01 5.45455E+00
 -1      8229 5.29007E+01 7.28115E+01 6.36364E+00
 -1      8230 5.29007E+01 7.28115E+01 7.27273E+00
 -1      8231 5.29007E+01 7.28115E+01 8.18182E+00
 -1      8232 5.29007E+01 7.28115E+01 9.09091E+00
 -1      8233 4.08591E+01 8.01906E+01 9.09091E-01
 -1      8234 4.08591E+01 8.01906E+01 1.81818E+00
 -1      8235 4.08591E+01 8.01906E+01 2.72727E+00
 -1      8236 4.08591E+01 8.01906E+01 3.63636E+00
 -1      8237 4.08591E+01 8.01906E+01 4.54545E+00
 -1      8238 4.08591E+01 8.01906E+01 5.45455E+00
 -1      8239 4.08591E+01 8.01906E+01 6.36364E+00
 -1      8240 4.08591E+01 8.01906E+01 7.27273E+00
 -1      8241 4.08591E+01 8.01906E+01 8.18182E+00
 -1      8242 4.08591E+01 8.01906E+01 9.09091E+00
 -1      8243 2.78115E+01 8.55951E+01 9.09091E-01
 -1      8244 2.78115E+01 8.55951E+01 1.81818E+00
 -1      8245 2.78115E+01 8.55951E+01 2.72727E+00
 -1      8246 2.78115E+01 8.55951E+01 3.63636E+00
 -1      8247 2.78115E+01 8.55951E+01 4.54545E+00
 -1      8248 2.78115E+01 8.55951E+01 5.45455E+00
 -1      8249 2.78115E+01 8.55951E+01 6.36364E+00
 -1      8250 2.78115E+01 8.55951E+01 7.27273E+00
 -1      8251 2.78115E+01 8.55951E+01 8.18182E+00
 -1      8252 2.78115E+01 8.55951E+01 9.09091E+00
 -1      8253 1.40791E+01 8.88920E+01 9.09091E-01
 -1      8254 1.40791E+01 8.88920E+01 1.81818E+00
 -1      8255 1.40791E+01 8.88920E+01 2.72727E+00
 -1      8256 1.40791E+01 8.88920E+01 3.63636E+00
 -1      8257 1.40791E+01 8.88920E+01 4.54545E+00
 -1      8258 1.40791E+01 8.88920E+01 5.45455E+00
 -1      8259 1.40791E+01 8.88920E+01 6.36364E+00
 -1      8260 1.40791E+01 8.88920E+01 7.27273E+00
 -1      8261 1.40791E+01 8.88920E+01 8.18182E+00
 -1      8262 1.40791E+01 8.88920E+01 9.09091E+00
 -1      8263 9.13612E+01 1.44702E+01 9.09091E-01
 -1      8264 9.13612E+01 1.44702E+01 1.81818E+00
 -1      8265 9.13612E+01 1.44702E+01 2.72727E+00
 -1      8266 9.13612E+01 1.44702E+01 3.63636E+00
 -1      8267 9.13612E+01 1.44702E+01 4.54545E+00
 -1      8268 9.13612E+01 1.44702E+01 5.45455E+00
 -1      8269 9.13612E+01 1.44702E+01 6.36364E+00
 -1      8270 9.13612E+01 1.44702E+01 7.27273E+00
 -1      8271 9.13612E+01 1.44702E+01 8.18182E+00
 -1      8272 9.13612E+01 1.44702E+01 9.09091E+00
 -1      8273 8.79727E+01 2.85841E+01 9.09091E-01
 -1      8274 8.79727E+01 2.85841E+01 1.81818E+00
 -1      8275 8.79727E+01 2.85841E+01 2.72727E+00
 -1      8276 8.79727E+01 2.85841E+01 3.63636E+00
 -1      8277 8.79727E+01 2.85841E+01 4.54545E+00
 -1      8278 8.79727E+01 2.85841E+01 5.45455E+00
 -1      8279 8.79727E+01 2.85841E+01 6.36364E+00
 -1      8280 8.79727E+01 2.85841E+01 7.27273E+00
 -1      8281 8.79727E+01 2.85841E+01 8.18182E+00
 -1      8282 8.79727E+01 2.85841E+01 9.09091E+00
 -1      8283 8.24181E+01 4.19941E+01 9.09091E-01
 -1      8284 8.24181E+01 4.19941E+01 1.81818E+00
 -1      8285 8.24181E+01 4.19941E+01 2.72727E+00
 -1      8286 8.24181E+01 4.19941E+01 3.63636E+00
 -1      8287 8.24181E+01 4.19941E+01 4.54545E+00
 -1      8288 8.24181E+01 4.19941E+01 5.45455E+00
 -1      8289 8.24181E+01 4.19941E+01 6.36364E+00
 -1      8290 8.24181E+01 4.19941E+01 7.27273E+00
 -1      8291 8.24181E+01 4.19941E+01 8.18182E+00
 -1      8292 8.24181E+01 4.19941E+01 9.09091E+00
 -1      8293 7.48341E+01 5.43701E+01 9.09091E-01
 -1      8294 7.48341E+01 5.43701E+01 1.81818E+00
 -1      8295 7.48341E+01 5.43701E+01 2.72727E+00
 -1      8296 7.48341E+01 5.43701E+01 3.63636E+00
 -1      8297 7.48341E+01 5.43701E+01 4.54545E+00
 -1      8298 7.48341E+01 5.43701E+01 5.45455E+00
 -1      8299 7.48341E+01 5.43701E+01 6.36364E+00
 -1      8300 7.48341E+01 5.43701E+01 7.27273E+00
 -1      8301 7.48341E+01 5.43701E+01 8.18182E+00
 -1      8302 7.48341E+01 5.43701E+01 9.09091E+00
 -1      8303 6.54074E+01 6.54074E+01 9.09091E-01
 -1      8304 6.54074E+01 6.54074E+01 1.81818E+00
 -1      8305 6.54074E+01 6.54074E+01 2.72727E+00
 -1      8306 6.54074E+01 6.54074E+01 3.63636E+00
 -1      8307 6.54074E+01 6.54074E+01 4.54545E+00
 -1      8308 6.54074E+01 6.54074E+01 5.45455E+00
 -1      8309 6.54074E+01 6.54074E+01 6.36364E+00
 -1      8310 6.54074E+01 6.54074E+01 7.27273E+00
 -1      8311 6.54074E+01 6.54074E+01 8.18182E+00
 -1      8312 6.54074E+01 6.54074E+01 9.09091E+00
 -1      8313 5.43701E+01 7.48341E+01 9.09091E-01
 -1      8314 5.43701E+01 7.48341E+01 1.81818E+00
 -1      8315 5.43701E+01 7.48341E+01 2.72727E+00
 -1      8316 5.43701E+01 7.48341E+01 3.63636E+00
 -1      8317 5.43701E+01 7.48341E+01 4.54545E+00
 -1      8318 5.43701E+01 7.48341E+01 5.45455E+00
 -1      8319 5.43701E+01 7.48341E+01 6.36364E+00
 -1      8320 5.43701E+01 7.48341E+01 7.27273E+00
 -1      8321 5.43701E+01 7.48341E+01 8.18182E+00
 -1      8322 5.43701E+01 7.48341E+01 9.09091E+00
 -1      8323 4.19941E+01 8.24181E+01 9.09091E-01
 -1      8324 4.19941E+01 8.24181E+01 1.81818E+00
 -1      8325 4.19941E+01 8.24181E+01 2.72727E+00
 -1      8326 4.19941E+01 8.24181E+01 3.63636E+00
 -1      8327 4.19941E+01 8.24181E+01 4.54545E+00
 -1      8328 4.19941E+01 8.24181E+01 5.45455E+00
 -1      8329 4.19941E+01 8.24181E+01 6.36364E+00
 -1      8330 4.19941E+01 8.24181E+01 7.27273E+00
 -1      8331 4.19941E+01 8.24181E+01 8.18182E+00
 -1      8332 4.19941E+01 8.24181E+01 9.09091E+00
 -1      8333 2.85841E+01 8.79727E+01 9.09091E-01
 -1      8334 2.85841E+01 8.79727E+01 1.81818E+00
 -1      8335 2.85841E+01 8.79727E+01 2.72727E+00
 -1      8336 2.85841E+01 8.79727E+01 3.63636E+00
 -1      8337 2.85841E+01 8.79727E+01 4.54545E+00
 -1      8338 2.85841E+01 8.79727E+01 5.45455E+00
 -1      8339 2.85841E+01 8.79727E+01 6.36364E+00
 -1      8340 2.85841E+01 8.79727E+01 7.27273E+00
 -1      8341 2.85841E+01 8.79727E+01 8.18182E+00
 -1      8342 2.85841E+01 8.79727E+01 9.09091E+00
 -1      8343 1.44702E+01 9.13612E+01 9.09091E-01
 -1      8344 1.44702E+01 9.13612E+01 1.81818E+00
 -1      8345 1.44702E+01 9.13612E+01 2.72727E+00
 -1      8346 1.44702E+01 9.13612E+01 3.63636E+00
 -1      8347 1.44702E+01 9.13612E+01 4.54545E+00
 -1      8348 1.44702E+01 9.13612E+01 5.45455E+00
 -1      8349 1.44702E+01 9.13612E+01 6.36364E+00
 -1      8350 1.44702E+01 9.13612E+01 7.27273E+00
 -1      8351 1.44702E+01 9.13612E+01 8.18182E+00
 -1      8352 1.44702E+01 9.13612E+01 9.09091E+00
 -1      8353 9.38304E+01 1.48613E+01 9.09091E-01
 -1      8354 9.38304E+01 1.48613E+01 1.81818E+00
 -1      8355 9.38304E+01 1.48613E+01 2.72727E+00
 -1      8356 9.38304E+01 1.48613E+01 3.63636E+00
 -1      8357 9.38304E+01 1.48613E+01 4.54545E+00
 -1      8358 9.38304E+01 1.48613E+01 5.45455E+00
 -1      8359 9.38304E+01 1.48613E+01 6.36364E+00
 -1      8360 9.38304E+01 1.48613E+01 7.27273E+00
 -1      8361 9.38304E+01 1.48613E+01 8.18182E+00
 -1      8362 9.38304E+01 1.48613E+01 9.09091E+00
 -1      8363 9.03504E+01 2.93566E+01 9.09091E-01
 -1      8364 9.03504E+01 2.93566E+01 1.81818E+00
 -1      8365 9.03504E+01 2.93566E+01 2.72727E+00
 -1      8366 9.03504E+01 2.93566E+01 3.63636E+00
 -1      8367 9.03504E+01 2.93566E+01 4.54545E+00
 -1      8368 9.03504E+01 2.93566E+01 5.45455E+00
 -1      8369 9.03504E+01 2.93566E+01 6.36364E+00
 -1      8370 9.03504E+01 2.93566E+01 7.27273E+00
 -1      8371 9.03504E+01 2.93566E+01 8.18182E+00
 -1      8372 9.03504E+01 2.93566E+01 9.09091E+00
 -1      8373 8.46456E+01 4.31291E+01 9.09091E-01
 -1      8374 8.46456E+01 4.31291E+01 1.81818E+00
 -1      8375 8.46456E+01 4.31291E+01 2.72727E+00
 -1      8376 8.46456E+01 4.31291E+01 3.63636E+00
 -1      8377 8.46456E+01 4.31291E+01 4.54545E+00
 -1      8378 8.46456E+01 4.31291E+01 5.45455E+00
 -1      8379 8.46456E+01 4.31291E+01 6.36364E+00
 -1      8380 8.46456E+01 4.31291E+01 7.27273E+00
 -1      8381 8.46456E+01 4.31291E+01 8.18182E+00
 -1      8382 8.46456E+01 4.31291E+01 9.09091E+00
 -1      8383 7.68566E+01 5.58396E+01 9.09091E-01
 -1      8384 7.68566E+01 5.58396E+01 1.81818E+00
 -1      8385 7.68566E+01 5.58396E+01 2.72727E+00
 -1      8386 7.68566E+01 5.58396E+01 3.63636E+00
 -1      8387 7.68566E+01 5.58396E+01 4.54545E+00
 -1      8388 7.68566E+01 5.58396E+01 5.45455E+00
 -1      8389 7.68566E+01 5.58396E+01 6.36364E+00
 -1      8390 7.68566E+01 5.58396E+01 7.27273E+00
 -1      8391 7.68566E+01 5.58396E+01 8.18182E+00
 -1      8392 7.68566E+01 5.58396E+01 9.09091E+00
 -1      8393 6.71751E+01 6.71751E+01 9.09091E-01
 -1      8394 6.71751E+01 6.71751E+01 1.81818E+00
 -1      8395 6.71751E+01 6.71751E+01 2.72727E+00
 -1      8396 6.71751E+01 6.71751E+01 3.63636E+00
 -1      8397 6.71751E+01 6.71751E+01 4.54545E+00
 -1      8398 6.71751E+01 6.71751E+01 5.45455E+00
 -1      8399 6.71751E+01 6.71751E+01 6.36364E+00
 -1      8400 6.71751E+01 6.71751E+01 7.27273E+00
 -1      8401 6.71751E+01 6.71751E+01 8.18182E+00
 -1      8402 6.71751E+01 6.71751E+01 9.09091E+00
 -1      8403 5.58396E+01 7.68566E+01 9.09091E-01
 -1      8404 5.58396E+01 7.68566E+01 1.81818E+00
 -1      8405 5.58396E+01 7.68566E+01 2.72727E+00
 -1      8406 5.58396E+01 7.68566E+01 3.63636E+00
 -1      8407 5.58396E+01 7.68566E+01 4.54545E+00
 -1      8408 5.58396E+01 7.68566E+01 5.45455E+00
 -1      8409 5.58396E+01 7.68566E+01 6.36364E+00
 -1      8410 5.58396E+01 7.68566E+01 7.27273E+00
 -1      8411 5.58396E+01 7.68566E+01 8.18182E+00
 -1      8412 5.58396E+01 7.68566E+01 9.09091E+00
 -1      8413 4.31291E+01 8.46456E+01 9.09091E-01
 -1      8414 4.31291E+01 8.46456E+01 1.81818E+00
 -1      8415 4.31291E+01 8.46456E+01 2.72727E+00
 -1      8416 4.31291E+01 8.46456E+01 3.63636E+00
 -1      8417 4.31291E+01 8.46456E+01 4.54545E+00
 -1      8418 4.31291E+01 8.46456E+01 5.45455E+00
 -1      8419 4.31291E+01 8.46456E+01 6.36364E+00
 -1      8420 4.31291E+01 8.46456E+01 7.27273E+00
 -1      8421 4.31291E+01 8.46456E+01 8.18182E+00
 -1      8422 4.31291E+01 8.46456E+01 9.09091E+00
 -1      8423 2.93566E+01 9.03504E+01 9.09091E-01
 -1      8424 2.93566E+01 9.03504E+01 1.81818E+00
 -1      8425 2.93566E+01 9.03504E+01 2.72727E+00
 -1      8426 2.93566E+01 9.03504E+01 3.63636E+00
 -1      8427 2.93566E+01 9.03504E+01 4.54545E+00
 -1      8428 2.93566E+01 9.03504E+01 5.45455E+00
 -1      8429 2.93566E+01 9.03504E+01 6.36364E+00
 -1      8430 2.93566E+01 9.03504E+01 7.27273E+00
 -1      8431 2.93566E+01 9.03504E+01 8.18182E+00
 -1      8432 2.93566E+01 9.03504E+01 9.09091E+00
 -1      8433 1.48613E+01 9.38304E+01 9.09091E-01
 -1      8434 1.48613E+01 9.38304E+01 1.81818E+00
 -1      8435 1.48613E+01 9.38304E+01 2.72727E+00
 -1      8436 1.48613E+01 9.38304E+01 3.63636E+00
 -1      8437 1.48613E+01 9.38304E+01 4.54545E+00
 -1      8438 1.48613E+01 9.38304E+01 5.45455E+00
 -1      8439 1.48613E+01 9.38304E+01 6.36364E+00
 -1      8440 1.48613E+01 9.38304E+01 7.27273E+00
 -1      8441 1.48613E+01 9.38304E+01 8.18182E+00
 -1      8442 1.48613E+01 9.38304E+01 9.09091E+00
 -1      8443 9.62996E+01 1.52524E+01 9.09091E-01
 -1      8444 9.62996E+01 1.52524E+01 1.81818E+00
 -1      8445 9.62996E+01 1.52524E+01 2.72727E+00
 -1      8446 9.62996E+01 1.52524E+01 3.63636E+00
 -1      8447 9.62996E+01 1.52524E+01 4.54545E+00
 -1      8448 9.62996E+01 1.52524E+01 5.45455E+00
 -1      8449 9.62996E+01 1.52524E+01 6.36364E+00
 -1      8450 9.62996E+01 1.52524E+01 7.27273E+00
 -1      8451 9.62996E+01 1.52524E+01 8.18182E+00
 -1      8452 9.62996E+01 1.52524E+01 9.09091E+00
 -1      8453 9.27280E+01 3.01292E+01 9.09091E-01
 -1      8454 9.27280E+01 3.01292E+01 1.81818E+00
 -1      8455 9.27280E+01 3.01292E+01 2.72727E+00
 -1      8456 9.27280E+01 3.01292E+01 3.63636E+00
 -1      8457 9.27280E+01 3.01292E+01 4.54545E+00
 -1      8458 9.27280E+01 3.01292E+01 5.45455E+00
 -1      8459 9.27280E+01 3.01292E+01 6.36364E+00
 -1      8460 9.27280E+01 3.01292E+01 7.27273E+00
 -1      8461 9.27280E+01 3.01292E+01 8.18182E+00
 -1      8462 9.27280E+01 3.01292E+01 9.09091E+00
 -1      8463 8.68731E+01 4.42641E+01 9.09091E-01
 -1      8464 8.68731E+01 4.42641E+01 1.81818E+00
 -1      8465 8.68731E+01 4.42641E+01 2.72727E+00
 -1      8466 8.68731E+01 4.42641E+01 3.63636E+00
 -1      8467 8.68731E+01 4.42641E+01 4.54545E+00
 -1      8468 8.68731E+01 4.42641E+01 5.45455E+00
 -1      8469 8.68731E+01 4.42641E+01 6.36364E+00
 -1      8470 8.68731E+01 4.42641E+01 7.27273E+00
 -1      8471 8.68731E+01 4.42641E+01 8.18182E+00
 -1      8472 8.68731E+01 4.42641E+01 9.09091E+00
 -1      8473 7.88792E+01 5.73091E+01 9.09091E-01
 -1      8474 7.88792E+01 5.73091E+01 1.81818E+00
 -1      8475 7.88792E+01 5.73091E+01 2.72727E+00
 -1      8476 7.88792E+01 5.73091E+01 3.63636E+00
 -1      8477 7.88792E+01 5.73091E+01 4.54545E+00
 -1      8478 7.88792E+01 5.73091E+01 5.45455E+00
 -1      8479 7.88792E+01 5.73091E+01 6.36364E+00
 -1      8480 7.88792E+01 5.73091E+01 7.27273E+00
 -1      8481 7.88792E+01 5.73091E+01 8.18182E+00
 -1      8482 7.88792E+01 5.73091E+01 9.09091E+00
 -1      8483 6.89429E+01 6.89429E+01 9.09091E-01
 -1      8484 6.89429E+01 6.89429E+01 1.81818E+00
 -1      8485 6.89429E+01 6.89429E+01 2.72727E+00
 -1      8486 6.89429E+01 6.89429E+01 3.63636E+00
 -1      8487 6.89429E+01 6.89429E+01 4.54545E+00
 -1      8488 6.89429E+01 6.89429E+01 5.45455E+00
 -1      8489 6.89429E+01 6.89429E+01 6.36364E+00
 -1      8490 6.89429E+01 6.89429E+01 7.27273E+00
 -1      8491 6.89429E+01 6.89429E+01 8.18182E+00
 -1      8492 6.89429E+01 6.89429E+01 9.09091E+00
 -1      8493 5.73091E+01 7.88792E+01 9.09091E-01
 -1      8494 5.73091E+01 7.88792E+01 1.81818E+00
 -1      8495 5.73091E+01 7.88792E+01 2.72727E+00
 -1      8496 5.73091E+01 7.88792E+01 3.63636E+00
 -1      8497 5.73091E+01 7.88792E+01 4.54545E+00
 -1      8498 5.73091E+01 7.88792E+01 5.45455E+00
 -1      8499 5.73091E+01 7.88792E+01 6.36364E+00
 -1      8500 5.73091E+01 7.88792E+01 7.27273E+00
 -1      8501 5.73091E+01 7.88792E+01 8.18182E+00
 -1      8502 5.73091E+01 7.88792E+01 9.09091E+00
 -1      8503 4.42641E+01 8.68731E+01 9.09091E-01
 -1      8504 4.42641E+01 8.68731E+01 1.81818E+00
 -1      8505 4.42641E+01 8.68731E+01 2.72727E+00
 -1      8506 4.42641E+01 8.68731E+01 3.63636E+00
 -1      8507 4.42641E+01 8.68731E+01 4.54545E+00
 -1      8508 4.42641E+01 8.68731E+01 5.45455E+00
 -1      8509 4.42641E+01 8.68731E+01 6.36364E+00
 -1      8510 4.42641E+01 8.68731E+01 7.27273E+00
 -1      8511 4.42641E+01 8.68731E+01 8.18182E+00
 -1      8512 4.42641E+01 8.68731E+01 9.09091E+00
 -1      8513 3.01292E+01 9.27280E+01 9.09091E-01
 -1      8514 3.01292E+01 9.27280E+01 1.81818E+00
 -1      8515 3.01292E+01 9.27280E+01 2.72727E+00
 -1      8516 3.01292E+01 9.27280E+01 3.63636E+00
 -1      8517 3.01292E+01 9.27280E+01 4.54545E+00
 -1      8518 3.01292E+01 9.27280E+01 5.45455E+00
 -1      8519 3.01292E+01 9.27280E+01 6.36364E+00
 -1      8520 3.01292E+01 9.27280E+01 7.27273E+00
 -1      8521 3.01292E+01 9.27280E+01 8.18182E+00
 -1      8522 3.01292E+01 9.27280E+01 9.09091E+00
 -1      8523 1.52524E+01 9.62996E+01 9.09091E-01
 -1      8524 1.52524E+01 9.62996E+01 1.81818E+00
 -1      8525 1.52524E+01 9.62996E+01 2.72727E+00
 -1      8526 1.52524E+01 9.62996E+01 3.63636E+00
 -1      8527 1.52524E+01 9.62996E+01 4.54545E+00
 -1      8528 1.52524E+01 9.62996E+01 5.45455E+00
 -1      8529 1.52524E+01 9.62996E+01 6.36364E+00
 -1      8530 1.52524E+01 9.62996E+01 7.27273E+00
 -1      8531 1.52524E+01 9.62996E+01 8.18182E+00
 -1      8532 1.52524E+01 9.62996E+01 9.09091E+00
 -1      8533 2.71614E+01 4.30195E+00 4.54545E-01
 -1      8534 2.73307E+01 2.15097E+00 9.09091E-01
 -1      8535 2.59268E+01 4.10640E+00 9.09091E-01
 -1      8540 2.71614E+01 4.30195E+00 1.36364E+00
 -1      8541 2.73307E+01 2.15097E+00 1.81818E+00
 -1      8542 2.59268E+01 4.10640E+00 1.81818E+00
 -1      8547 2.71614E+01 4.30195E+00 2.27273E+00
 -1      8548 2.73307E+01 2.15097E+00 2.72727E+00
 -1      8549 2.59268E+01 4.10640E+00 2.72727E+00
 -1      8554 2.71614E+01 4.30195E+00 3.18182E+00
 -1      8555 2.73307E+01 2.15097E+00 3.63636E+00
 -1      8556 2.59268E+01 4.10640E+00 3.63636E+00
 -1      8561 2.71614E+01 4.30195E+00 4.09091E+00
 -1      8562 2.73307E+01 2.15097E+00 4.54545E+00
 -1      8563 2.59268E+01 4.10640E+00 4.54545E+00
 -1      8568 2.71614E+01 4.30195E+00 5.00000E+00
 -1      8569 2.73307E+01 2.15097E+00 5.45455E+00
 -1      8570 2.59268E+01 4.10640E+00 5.45455E+00
 -1      8575 2.71614E+01 4.30195E+00 5.90909E+00
 -1      8576 2.73307E+01 2.15097E+00 6.36364E+00
 -1      8577 2.59268E+01 4.10640E+00 6.36364E+00
 -1      8582 2.71614E+01 4.30195E+00 6.81818E+00
 -1      8583 2.73307E+01 2.15097E+00 7.27273E+00
 -1      8584 2.59268E+01 4.10640E+00 7.27273E+00
 -1      8589 2.71614E+01 4.30195E+00 7.72727E+00
 -1      8590 2.73307E+01 2.15097E+00 8.18182E+00
 -1      8591 2.59268E+01 4.10640E+00 8.18182E+00
 -1      8596 2.71614E+01 4.30195E+00 8.63636E+00
 -1      8597 2.73307E+01 2.15097E+00 9.09091E+00
 -1      8598 2.59268E+01 4.10640E+00 9.09091E+00
 -1      8603 2.71614E+01 4.30195E+00 9.54545E+00
 -1      8607 2.61541E+01 8.49797E+00 4.54545E-01
 -1      8608 2.66577E+01 6.39996E+00 9.09091E-01
 -1      8609 2.49652E+01 8.11170E+00 9.09091E-01
 -1      8614 2.61541E+01 8.49797E+00 1.36364E+00
 -1      8615 2.66577E+01 6.39996E+00 1.81818E+00
 -1      8616 2.49652E+01 8.11170E+00 1.81818E+00
 -1      8621 2.61541E+01 8.49797E+00 2.27273E+00
 -1      8622 2.66577E+01 6.39996E+00 2.72727E+00
 -1      8623 2.49652E+01 8.11170E+00 2.72727E+00
 -1      8628 2.61541E+01 8.49797E+00 3.18182E+00
 -1      8629 2.66577E+01 6.39996E+00 3.63636E+00
 -1      8630 2.49652E+01 8.11170E+00 3.63636E+00
 -1      8635 2.61541E+01 8.49797E+00 4.09091E+00
 -1      8636 2.66577E+01 6.39996E+00 4.54545E+00
 -1      8637 2.49652E+01 8.11170E+00 4.54545E+00
 -1      8642 2.61541E+01 8.49797E+00 5.00000E+00
 -1      8643 2.66577E+01 6.39996E+00 5.45455E+00
 -1      8644 2.49652E+01 8.11170E+00 5.45455E+00
 -1      8649 2.61541E+01 8.49797E+00 5.90909E+00
 -1      8650 2.66577E+01 6.39996E+00 6.36364E+00
 -1      8651 2.49652E+01 8.11170E+00 6.36364E+00
 -1      8656 2.61541E+01 8.49797E+00 6.81818E+00
 -1      8657 2.66577E+01 6.39996E+00 7.27273E+00
 -1      8658 2.49652E+01 8.11170E+00 7.27273E+00
 -1      8663 2.61541E+01 8.49797E+00 7.72727E+00
 -1      8664 2.66577E+01 6.39996E+00 8.18182E+00
 -1      8665 2.49652E+01 8.11170E+00 8.18182E+00
 -1      8670 2.61541E+01 8.49797E+00 8.63636E+00
 -1      8671 2.66577E+01 6.39996E+00 9.09091E+00
 -1      8672 2.49652E+01 8.11170E+00 9.09091E+00
 -1      8677 2.61541E+01 8.49797E+00 9.54545E+00
 -1      8681 2.45027E+01 1.24847E+01 4.54545E-01
 -1      8682 2.53284E+01 1.04914E+01 9.09091E-01
 -1      8683 2.33889E+01 1.19173E+01 9.09091E-01
 -1      8688 2.45027E+01 1.24847E+01 1.36364E+00
 -1      8689 2.53284E+01 1.04914E+01 1.81818E+00
 -1      8690 2.33889E+01 1.19173E+01 1.81818E+00
 -1      8695 2.45027E+01 1.24847E+01 2.27273E+00
 -1      8696 2.53284E+01 1.04914E+01 2.72727E+00
 -1      8697 2.33889E+01 1.19173E+01 2.72727E+00
 -1      8702 2.45027E+01 1.24847E+01 3.18182E+00
 -1      8703 2.53284E+01 1.04914E+01 3.63636E+00
 -1      8704 2.33889E+01 1.19173E+01 3.63636E+00
 -1      8709 2.45027E+01 1.24847E+01 4.09091E+00
 -1      8710 2.53284E+01 1.04914E+01 4.54545E+00
 -1      8711 2.33889E+01 1.19173E+01 4.54545E+00
 -1      8716 2.45027E+01 1.24847E+01 5.00000E+00
 -1      8717 2.53284E+01 1.04914E+01 5.45455E+00
 -1      8718 2.33889E+01 1.19173E+01 5.45455E+00
 -1      8723 2.45027E+01 1.24847E+01 5.90909E+00
 -1      8724 2.53284E+01 1.04914E+01 6.36364E+00
 -1      8725 2.33889E+01 1.19173E+01 6.36364E+00
 -1      8730 2.45027E+01 1.24847E+01 6.81818E+00
 -1      8731 2.53284E+01 1.04914E+01 7.27273E+00
 -1      8732 2.33889E+01 1.19173E+01 7.27273E+00
 -1      8737 2.45027E+01 1.24847E+01 7.72727E+00
 -1      8738 2.53284E+01 1.04914E+01 8.18182E+00
 -1      8739 2.33889E+01 1.19173E+01 8.18182E+00
 -1      8744 2.45027E+01 1.24847E+01 8.63636E+00
 -1      8745 2.53284E+01 1.04914E+01 9.09091E+00
 -1      8746 2.33889E+01 1.19173E+01 9.09091E+00
 -1      8751 2.45027E+01 1.24847E+01 9.54545E+00
 -1      8755 2.22480E+01 1.61641E+01 4.54545E-01
 -1      8756 2.33753E+01 1.43244E+01 9.09091E-01
 -1      8757 2.12367E+01 1.54294E+01 9.09091E-01
 -1      8762 2.22480E+01 1.61641E+01 1.36364E+00
 -1      8763 2.33753E+01 1.43244E+01 1.81818E+00
 -1      8764 2.12367E+01 1.54294E+01 1.81818E+00
 -1      8769 2.22480E+01 1.61641E+01 2.27273E+00
 -1      8770 2.33753E+01 1.43244E+01 2.72727E+00
 -1      8771 2.12367E+01 1.54294E+01 2.72727E+00
 -1      8776 2.22480E+01 1.61641E+01 3.18182E+00
 -1      8777 2.33753E+01 1.43244E+01 3.63636E+00
 -1      8778 2.12367E+01 1.54294E+01 3.63636E+00
 -1      8783 2.22480E+01 1.61641E+01 4.09091E+00
 -1      8784 2.33753E+01 1.43244E+01 4.54545E+00
 -1      8785 2.12367E+01 1.54294E+01 4.54545E+00
 -1      8790 2.22480E+01 1.61641E+01 5.00000E+00
 -1      8791 2.33753E+01 1.43244E+01 5.45455E+00
 -1      8792 2.12367E+01 1.54294E+01 5.45455E+00
 -1      8797 2.22480E+01 1.61641E+01 5.90909E+00
 -1      8798 2.33753E+01 1.43244E+01 6.36364E+00
 -1      8799 2.12367E+01 1.54294E+01 6.36364E+00
 -1      8804 2.22480E+01 1.61641E+01 6.81818E+00
 -1      8805 2.33753E+01 1.43244E+01 7.27273E+00
 -1      8806 2.12367E+01 1.54294E+01 7.27273E+00
 -1      8811 2.22480E+01 1.61641E+01 7.72727E+00
 -1      8812 2.33753E+01 1.43244E+01 8.18182E+00
 -1      8813 2.12367E+01 1.54294E+01 8.18182E+00
 -1      8818 2.22480E+01 1.61641E+01 8.63636E+00
 -1      8819 2.33753E+01 1.43244E+01 9.09091E+00
 -1      8820 2.12367E+01 1.54294E+01 9.09091E+00
 -1      8825 2.22480E+01 1.61641E+01 9.54545E+00
 -1      8829 1.94454E+01 1.94454E+01 4.54545E-01
 -1      8830 2.08467E+01 1.78048E+01 9.09091E-01
 -1      8831 1.85616E+01 1.85616E+01 9.09091E-01
 -1      8836 1.94454E+01 1.94454E+01 1.36364E+00
 -1      8837 2.08467E+01 1.78048E+01 1.81818E+00
 -1      8838 1.85616E+01 1.85616E+01 1.81818E+00
 -1      8843 1.94454E+01 1.94454E+01 2.27273E+00
 -1      8844 2.08467E+01 1.78048E+01 2.72727E+00
 -1      8845 1.85616E+01 1.85616E+01 2.72727E+00
 -1      8850 1.94454E+01 1.94454E+01 3.18182E+00
 -1      8851 2.08467E+01 1.78048E+01 3.63636E+00
 -1      8852 1.85616E+01 1.85616E+01 3.63636E+00
 -1      8857 1.94454E+01 1.94454E+01 4.09091E+00
 -1      8858 2.08467E+01 1.78048E+01 4.54545E+00
 -1      8859 1.85616E+01 1.85616E+01 4.54545E+00
 -1      8864 1.94454E+01 1.94454E+01 5.00000E+00
 -1      8865 2.08467E+01 1.78048E+01 5.45455E+00
 -1      8866 1.85616E+01 1.85616E+01 5.45455E+00
 -1      8871 1.94454E+01 1.94454E+01 5.90909E+00
 -1      8872 2.08467E+01 1.78048E+01 6.36364E+00
 -1      8873 1.85616E+01 1.85616E+01 6.36364E+00
 -1      8878 1.94454E+01 1.94454E+01 6.81818E+00
 -1      8879 2.08467E+01 1.78048E+01 7.27273E+00
 -1      8880 1.85616E+01 1.85616E+01 7.27273E+00
 -1      8885 1.94454E+01 1.94454E+01 7.72727E+00
 -1      8886 2.08467E+01 1.78048E+01 8.18182E+00
 -1      8887 1.85616E+01 1.85616E+01 8.18182E+00
 -1      8892 1.94454E+01 1.94454E+01 8.63636E+00
 -1      8893 2.08467E+01 1.78048E+01 9.09091E+00
 -1      8894 1.85616E+01 1.85616E+01 9.09091E+00
 -1      8899 1.94454E+01 1.94454E+01 9.54545E+00
 -1      8903 1.61641E+01 2.22480E+01 4.54545E-01
 -1      8904 1.78048E+01 2.08467E+01 9.09091E-01
 -1      8905 1.54294E+01 2.12367E+01 9.09091E-01
 -1      8910 1.61641E+01 2.22480E+01 1.36364E+00
 -1      8911 1.78048E+01 2.08467E+01 1.81818E+00
 -1      8912 1.54294E+01 2.12367E+01 1.81818E+00
 -1      8917 1.61641E+01 2.22480E+01 2.27273E+00
 -1      8918 1.78048E+01 2.08467E+01 2.72727E+00
 -1      8919 1.54294E+01 2.12367E+01 2.72727E+00
 -1      8924 1.61641E+01 2.22480E+01 3.18182E+00
 -1      8925 1.78048E+01 2.08467E+01 3.63636E+00
 -1      8926 1.54294E+01 2.12367E+01 3.63636E+00
 -1      8931 1.61641E+01 2.22480E+01 4.09091E+00
 -1      8932 1.78048E+01 2.08467E+01 4.54545E+00
 -1      8933 1.54294E+01 2.12367E+01 4.54545E+00
 -1      8938 1.61641E+01 2.22480E+01 5.00000E+00
 -1      8939 1.78048E+01 2.08467E+01 5.45455E+00
 -1      8940 1.54294E+01 2.12367E+01 5.45455E+00
 -1      8945 1.61641E+01 2.22480E+01 5.90909E+00
 -1      8946 1.78048E+01 2.08467E+01 6.36364E+00
 -1      8947 1.54294E+01 2.12367E+01 6.36364E+00
 -1      8952 1.61641E+01 2.22480E+01 6.81818E+00
 -1      8953 1.78048E+01 2.08467E+01 7.27273E+00
 -1      8954 1.54294E+01 2.12367E+01 7.27273E+00
 -1      8959 1.61641E+01 2.22480E+01 7.72727E+00
 -1      8960 1.78048E+01 2.08467E+01 8.18182E+00
 -1      8961 1.54294E+01 2.12367E+01 8.18182E+00
 -1      8966 1.61641E+01 2.22480E+01 8.63636E+00
 -1      8967 1.78048E+01 2.08467E+01 9.09091E+00
 -1      8968 1.54294E+01 2.12367E+01 9.09091E+00
 -1      8973 1.61641E+01 2.22480E+01 9.54545E+00
 -1      8977 1.24847E+01 2.45027E+01 4.54545E-01
 -1      8978 1.43244E+01 2.33753E+01 9.09091E-01
 -1      8979 1.19173E+01 2.33889E+01 9.09091E-01
 -1      8984 1.24847E+01 2.45027E+01 1.36364E+00
 -1      8985 1.43244E+01 2.33753E+01 1.81818E+00
 -1      8986 1.19173E+01 2.33889E+01 1.81818E+00
 -1      8991 1.24847E+01 2.45027E+01 2.27273E+00
 -1      8992 1.43244E+01 2.33753E+01 2.72727E+00
 -1      8993 1.19173E+01 2.33889E+01 2.72727E+00
 -1      8998 1.24847E+01 2.45027E+01 3.18182E+00
 -1      8999 1.43244E+01 2.33753E+01 3.63636E+00
 -1      9000 1.19173E+01 2.33889E+01 3.63636E+00
 -1      9005 1.24847E+01 2.45027E+01 4.09091E+00
 -1      9006 1.43244E+01 2.33753E+01 4.54545E+00
 -1      9007 1.19173E+01 2.33889E+01 4.54545E+00
 -1      9012 1.24847E+01 2.45027E+01 5.00000E+00
 -1      9013 1.43244E+01 2.33753E+01 5.45455E+00
 -1      9014 1.19173E+01 2.33889E+01 5.45455E+00
 -1      9019 1.24847E+01 2.45027E+01 5.90909E+00
 -1      9020 1.43244E+01 2.33753E+01 6.36364E+00
 -1      9021 1.19173E+01 2.33889E+01 6.36364E+00
 -1      9026 1.24847E+01 2.45027E+01 6.81818E+00
 -1      9027 1.43244E+01 2.33753E+01 7.27273E+00
 -1      9028 1.19173E+01 2.33889E+01 7.27273E+00
 -1      9033 1.24847E+01 2.45027E+01 7.72727E+00
 -1      9034 1.43244E+01 2.33753E+01 8.18182E+00
 -1      9035 1.19173E+01 2.33889E+01 8.18182E+00
 -1      9040 1.24847E+01 2.45027E+01 8.63636E+00
 -1      9041 1.43244E+01 2.33753E+01 9.09091E+00
 -1      9042 1.19173E+01 2.33889E+01 9.09091E+00
 -1      9047 1.24847E+01 2.45027E+01 9.54545E+00
 -1      9051 8.49797E+00 2.61541E+01 4.54545E-01
 -1      9052 1.04914E+01 2.53284E+01 9.09091E-01
 -1      9053 8.11170E+00 2.49652E+01 9.09091E-01
 -1      9058 8.49797E+00 2.61541E+01 1.36364E+00
 -1      9059 1.04914E+01 2.53284E+01 1.81818E+00
 -1      9060 8.11170E+00 2.49652E+01 1.81818E+00
 -1      9065 8.49797E+00 2.61541E+01 2.27273E+00
 -1      9066 1.04914E+01 2.53284E+01 2.72727E+00
 -1      9067 8.11170E+00 2.49652E+01 2.72727E+00
 -1      9072 8.49797E+00 2.61541E+01 3.18182E+00
 -1      9073 1.04914E+01 2.53284E+01 3.63636E+00
 -1      9074 8.11170E+00 2.49652E+01 3.63636E+00
 -1      9079 8.49797E+00 2.61541E+01 4.09091E+00
 -1      9080 1.04914E+01 2.53284E+01 4.54545E+00
 -1      9081 8.11170E+00 2.49652E+01 4.54545E+00
 -1      9086 8.49797E+00 2.61541E+01 5.00000E+00
 -1      9087 1.04914E+01 2.53284E+01 5.45455E+00
 -1      9088 8.11170E+00 2.49652E+01 5.45455E+00
 -1      9093 8.49797E+00 2.61541E+01 5.90909E+00
 -1      9094 1.04914E+01 2.53284E+01 6.36364E+00
 -1      9095 8.11170E+00 2.49652E+01 6.36364E+00
 -1      9100 8.49797E+00 2.61541E+01 6.81818E+00
 -1      9101 1.04914E+01 2.53284E+01 7.27273E+00
 -1      9102 8.11170E+00 2.49652E+01 7.27273E+00
 -1      9107 8.49797E+00 2.61541E+01 7.72727E+00
 -1      9108 1.04914E+01 2.53284E+01 8.18182E+00
 -1      9109 8.11170E+00 2.49652E+01 8.18182E+00
 -1      9114 8.49797E+00 2.61541E+01 8.63636E+00
 -1      9115 1.04914E+01 2.53284E+01 9.09091E+00
 -1      9116 8.11170E+00 2.49652E+01 9.09091E+00
 -1      9121 8.49797E+00 2.61541E+01 9.54545E+00
 -1      9125 4.30195E+00 2.71614E+01 4.54545E-01
 -1      9126 6.39996E+00 2.66577E+01 9.09091E-01
 -1      9127 4.10640E+00 2.59268E+01 9.09091E-01
 -1      9132 4.30195E+00 2.71614E+01 1.36364E+00
 -1      9133 6.39996E+00 2.66577E+01 1.81818E+00
 -1      9134 4.10640E+00 2.59268E+01 1.81818E+00
 -1      9139 4.30195E+00 2.71614E+01 2.27273E+00
 -1      9140 6.39996E+00 2.66577E+01 2.72727E+00
 -1      9141 4.10640E+00 2.59268E+01 2.72727E+00
 -1      9146 4.30195E+00 2.71614E+01 3.18182E+00
 -1      9147 6.39996E+00 2.66577E+01 3.63636E+00
 -1      9148 4.10640E+00 2.59268E+01 3.63636E+00
 -1      9153 4.30195E+00 2.71614E+01 4.09091E+00
 -1      9154 6.39996E+00 2.66577E+01 4.54545E+00
 -1      9155 4.10640E+00 2.59268E+01 4.54545E+00
 -1      9160 4.30195E+00 2.71614E+01 5.00000E+00
 -1      9161 6.39996E+00 2.66577E+01 5.45455E+00
 -1      9162 4.10640E+00 2.59268E+01 5.45455E+00
 -1      9167 4.30195E+00 2.71614E+01 5.90909E+00
 -1      9168 6.39996E+00 2.66577E+01 6.36364E+00
 -1      9169 4.10640E+00 2.59268E+01 6.36364E+00
 -1      9174 4.30195E+00 2.71614E+01 6.81818E+00
 -1      9175 6.39996E+00 2.66577E+01 7.27273E+00
 -1      9176 4.10640E+00 2.59268E+01 7.27273E+00
 -1      9181 4.30195E+00 2.71614E+01 7.72727E+00
 -1      9182 6.39996E+00 2.66577E+01 8.18182E+00
 -1      9183 4.10640E+00 2.59268E+01 8.18182E+00
 -1      9188 4.30195E+00 2.71614E+01 8.63636E+00
 -1      9189 6.39996E+00 2.66577E+01 9.09091E+00
 -1      9190 4.10640E+00 2.59268E+01 9.09091E+00
 -1      9195 4.30195E+00 2.71614E+01 9.54545E+00
 -1      9199 2.15097E+00 2.73307E+01 9.09091E-01
 -1      9203 2.15097E+00 2.73307E+01 1.81818E+00
 -1      9207 2.15097E+00 2.73307E+01 2.72727E+00
 -1      9211 2.15097E+00 2.73307E+01 3.63636E+00
 -1      9215 2.15097E+00 2.73307E+01 4.54545E+00
 -1      9219 2.15097E+00 2.73307E+01 5.45455E+00
 -1      9223 2.15097E+00 2.73307E+01 6.36364E+00
 -1      9227 2.15097E+00 2.73307E+01 7.27273E+00
 -1      9231 2.15097E+00 2.73307E+01 8.18182E+00
 -1      9235 2.15097E+00 2.73307E+01 9.09091E+00
 -1      9241 2.96306E+01 4.69303E+00 4.54545E-01
 -1      9242 2.98153E+01 2.34652E+00 9.09091E-01
 -1      9243 2.83960E+01 4.49749E+00 9.09091E-01
 -1      9248 2.96306E+01 4.69303E+00 1.36364E+00
 -1      9249 2.98153E+01 2.34652E+00 1.81818E+00
 -1      9250 2.83960E+01 4.49749E+00 1.81818E+00
 -1      9255 2.96306E+01 4.69303E+00 2.27273E+00
 -1      9256 2.98153E+01 2.34652E+00 2.72727E+00
 -1      9257 2.83960E+01 4.49749E+00 2.72727E+00
 -1      9262 2.96306E+01 4.69303E+00 3.18182E+00
 -1      9263 2.98153E+01 2.34652E+00 3.63636E+00
 -1      9264 2.83960E+01 4.49749E+00 3.63636E+00
 -1      9269 2.96306E+01 4.69303E+00 4.09091E+00
 -1      9270 2.98153E+01 2.34652E+00 4.54545E+00
 -1      9271 2.83960E+01 4.49749E+00 4.54545E+00
 -1      9276 2.96306E+01 4.69303E+00 5.00000E+00
 -1      9277 2.98153E+01 2.34652E+00 5.45455E+00
 -1      9278 2.83960E+01 4.49749E+00 5.45455E+00
 -1      9283 2.96306E+01 4.69303E+00 5.90909E+00
 -1      9284 2.98153E+01 2.34652E+00 6.36364E+00
 -1      9285 2.83960E+01 4.49749E+00 6.36364E+00
 -1      9290 2.96306E+01 4.69303E+00 6.81818E+00
 -1      9291 2.98153E+01 2.34652E+00 7.27273E+00
 -1      9292 2.83960E+01 4.49749E+00 7.27273E+00
 -1      9297 2.96306E+01 4.69303E+00 7.72727E+00
 -1      9298 2.98153E+01 2.34652E+00 8.18182E+00
 -1      9299 2.83960E+01 4.49749E+00 8.18182E+00
 -1      9304 2.96306E+01 4.69303E+00 8.63636E+00
 -1      9305 2.98153E+01 2.34652E+00 9.09091E+00
 -1      9306 2.83960E+01 4.49749E+00 9.09091E+00
 -1      9311 2.96306E+01 4.69303E+00 9.54545E+00
 -1      9315 2.85317E+01 9.27051E+00 4.54545E-01
 -1      9316 2.90812E+01 6.98177E+00 9.09091E-01
 -1      9317 2.73429E+01 8.88424E+00 9.09091E-01
 -1      9322 2.85317E+01 9.27051E+00 1.36364E+00
 -1      9323 2.90812E+01 6.98177E+00 1.81818E+00
 -1      9324 2.73429E+01 8.88424E+00 1.81818E+00
 -1      9329 2.85317E+01 9.27051E+00 2.27273E+00
 -1      9330 2.90812E+01 6.98177E+00 2.72727E+00
 -1      9331 2.73429E+01 8.88424E+00 2.72727E+00
 -1      9336 2.85317E+01 9.27051E+00 3.18182E+00
 -1      9337 2.90812E+01 6.98177E+00 3.63636E+00
 -1      9338 2.73429E+01 8.88424E+00 3.63636E+00
 -1      9343 2.85317E+01 9.27051E+00 4.09091E+00
 -1      9344 2.90812E+01 6.98177E+00 4.54545E+00
 -1      9345 2.73429E+01 8.88424E+00 4.54545E+00
 -1      9350 2.85317E+01 9.27051E+00 5.00000E+00
 -1      9351 2.90812E+01 6.98177E+00 5.45455E+00
 -1      9352 2.73429E+01 8.88424E+00 5.45455E+00
 -1      9357 2.85317E+01 9.27051E+00 5.90909E+00
 -1      9358 2.90812E+01 6.98177E+00 6.36364E+00
 -1      9359 2.73429E+01 8.88424E+00 6.36364E+00
 -1      9364 2.85317E+01 9.27051E+00 6.81818E+00
 -1      9365 2.90812E+01 6.98177E+00 7.27273E+00
 -1      9366 2.73429E+01 8.88424E+00 7.27273E+00
 -1      9371 2.85317E+01 9.27051E+00 7.72727E+00
 -1      9372 2.90812E+01 6.98177E+00 8.18182E+00
 -1      9373 2.73429E+01 8.88424E+00 8.18182E+00
 -1      9378 2.85317E+01 9.27051E+00 8.63636E+00
 -1      9379 2.90812E+01 6.98177E+00 9.09091E+00
 -1      9380 2.73429E+01 8.88424E+00 9.09091E+00
 -1      9385 2.85317E+01 9.27051E+00 9.54545E+00
 -1      9389 2.67302E+01 1.36197E+01 4.54545E-01
 -1      9390 2.76309E+01 1.14451E+01 9.09091E-01
 -1      9391 2.56164E+01 1.30522E+01 9.09091E-01
 -1      9396 2.67302E+01 1.36197E+01 1.36364E+00
 -1      9397 2.76309E+01 1.14451E+01 1.81818E+00
 -1      9398 2.56164E+01 1.30522E+01 1.81818E+00
 -1      9403 2.67302E+01 1.36197E+01 2.27273E+00
 -1      9404 2.76309E+01 1.14451E+01 2.72727E+00
 -1      9405 2.56164E+01 1.30522E+01 2.72727E+00
 -1      9410 2.67302E+01 1.36197E+01 3.18182E+00
 -1      9411 2.76309E+01 1.14451E+01 3.63636E+00
 -1      9412 2.56164E+01 1.30522E+01 3.63636E+00
 -1      9417 2.67302E+01 1.36197E+01 4.09091E+00
 -1      9418 2.76309E+01 1.14451E+01 4.54545E+00
 -1      9419 2.56164E+01 1.30522E+01 4.54545E+00
 -1      9424 2.67302E+01 1.36197E+01 5.00000E+00
 -1      9425 2.76309E+01 1.14451E+01 5.45455E+00
 -1      9426 2.56164E+01 1.30522E+01 5.45455E+00
 -1      9431 2.67302E+01 1.36197E+01 5.90909E+00
 -1      9432 2.76309E+01 1.14451E+01 6.36364E+00
 -1      9433 2.56164E+01 1.30522E+01 6.36364E+00
 -1      9438 2.67302E+01 1.36197E+01 6.81818E+00
 -1      9439 2.76309E+01 1.14451E+01 7.27273E+00
 -1      9440 2.56164E+01 1.30522E+01 7.27273E+00
 -1      9445 2.67302E+01 1.36197E+01 7.72727E+00
 -1      9446 2.76309E+01 1.14451E+01 8.18182E+00
 -1      9447 2.56164E+01 1.30522E+01 8.18182E+00
 -1      9452 2.67302E+01 1.36197E+01 8.63636E+00
 -1      9453 2.76309E+01 1.14451E+01 9.09091E+00
 -1      9454 2.56164E+01 1.30522E+01 9.09091E+00
 -1      9459 2.67302E+01 1.36197E+01 9.54545E+00
 -1      9463 2.42705E+01 1.76336E+01 4.54545E-01
 -1      9464 2.55004E+01 1.56266E+01 9.09091E-01
 -1      9465 2.32592E+01 1.68988E+01 9.09091E-01
 -1      9470 2.42705E+01 1.76336E+01 1.36364E+00
 -1      9471 2.55004E+01 1.56266E+01 1.81818E+00
 -1      9472 2.32592E+01 1.68988E+01 1.81818E+00
 -1      9477 2.42705E+01 1.76336E+01 2.27273E+00
 -1      9478 2.55004E+01 1.56266E+01 2.72727E+00
 -1      9479 2.32592E+01 1.68988E+01 2.72727E+00
 -1      9484 2.42705E+01 1.76336E+01 3.18182E+00
 -1      9485 2.55004E+01 1.56266E+01 3.63636E+00
 -1      9486 2.32592E+01 1.68988E+01 3.63636E+00
 -1      9491 2.42705E+01 1.76336E+01 4.09091E+00
 -1      9492 2.55004E+01 1.56266E+01 4.54545E+00
 -1      9493 2.32592E+01 1.68988E+01 4.54545E+00
 -1      9498 2.42705E+01 1.76336E+01 5.00000E+00
 -1      9499 2.55004E+01 1.56266E+01 5.45455E+00
 -1      9500 2.32592E+01 1.68988E+01 5.45455E+00
 -1      9505 2.42705E+01 1.76336E+01 5.90909E+00
 -1      9506 2.55004E+01 1.56266E+01 6.36364E+00
 -1      9507 2.32592E+01 1.68988E+01 6.36364E+00
 -1      9512 2.42705E+01 1.76336E+01 6.81818E+00
 -1      9513 2.55004E+01 1.56266E+01 7.27273E+00
 -1      9514 2.32592E+01 1.68988E+01 7.27273E+00
 -1      9519 2.42705E+01 1.76336E+01 7.72727E+00
 -1      9520 2.55004E+01 1.56266E+01 8.18182E+00
 -1      9521 2.32592E+01 1.68988E+01 8.18182E+00
 -1      9526 2.42705E+01 1.76336E+01 8.63636E+00
 -1      9527 2.55004E+01 1.56266E+01 9.09091E+00
 -1      9528 2.32592E+01 1.68988E+01 9.09091E+00
 -1      9533 2.42705E+01 1.76336E+01 9.54545E+00
 -1      9537 2.12132E+01 2.12132E+01 4.54545E-01
 -1      9538 2.27419E+01 1.94234E+01 9.09091E-01
 -1      9539 2.03293E+01 2.03293E+01 9.09091E-01
 -1      9544 2.12132E+01 2.12132E+01 1.36364E+00
 -1      9545 2.27419E+01 1.94234E+01 1.81818E+00
 -1      9546 2.03293E+01 2.03293E+01 1.81818E+00
 -1      9551 2.12132E+01 2.12132E+01 2.27273E+00
 -1      9552 2.27419E+01 1.94234E+01 2.72727E+00
 -1      9553 2.03293E+01 2.03293E+01 2.72727E+00
 -1      9558 2.12132E+01 2.12132E+01 3.18182E+00
 -1      9559 2.27419E+01 1.94234E+01 3.63636E+00
 -1      9560 2.03293E+01 2.03293E+01 3.63636E+00
 -1      9565 2.12132E+01 2.12132E+01 4.09091E+00
 -1      9566 2.27419E+01 1.94234E+01 4.54545E+00
 -1      9567 2.03293E+01 2.03293E+01 4.54545E+00
 -1      9572 2.12132E+01 2.12132E+01 5.00000E+00
 -1      9573 2.27419E+01 1.94234E+01 5.45455E+00
 -1      9574 2.03293E+01 2.03293E+01 5.45455E+00
 -1      9579 2.12132E+01 2.12132E+01 5.90909E+00
 -1      9580 2.27419E+01 1.94234E+01 6.36364E+00
 -1      9581 2.03293E+01 2.03293E+01 6.36364E+00
 -1      9586 2.12132E+01 2.12132E+01 6.81818E+00
 -1      9587 2.27419E+01 1.94234E+01 7.27273E+00
 -1      9588 2.03293E+01 2.03293E+01 7.27273E+00
 -1      9593 2.12132E+01 2.12132E+01 7.72727E+00
 -1      9594 2.27419E+01 1.94234E+01 8.18182E+00
 -1      9595 2.03293E+01 2.03293E+01 8.18182E+00
 -1      9600 2.12132E+01 2.12132E+01 8.63636E+00
 -1      9601 2.27419E+01 1.94234E+01 9.09091E+00
 -1      9602 2.03293E+01 2.03293E+01 9.09091E+00
 -1      9607 2.12132E+01 2.12132E+01 9.54545E+00
 -1      9611 1.76336E+01 2.42705E+01 4.54545E-01
 -1      9612 1.94234E+01 2.27419E+01 9.09091E-01
 -1      9613 1.68988E+01 2.32592E+01 9.09091E-01
 -1      9618 1.76336E+01 2.42705E+01 1.36364E+00
 -1      9619 1.94234E+01 2.27419E+01 1.81818E+00
 -1      9620 1.68988E+01 2.32592E+01 1.81818E+00
 -1      9625 1.76336E+01 2.42705E+01 2.27273E+00
 -1      9626 1.94234E+01 2.27419E+01 2.72727E+00
 -1      9627 1.68988E+01 2.32592E+01 2.72727E+00
 -1      9632 1.76336E+01 2.42705E+01 3.18182E+00
 -1      9633 1.94234E+01 2.27419E+01 3.63636E+00
 -1      9634 1.68988E+01 2.32592E+01 3.63636E+00
 -1      9639 1.76336E+01 2.42705E+01 4.09091E+00
 -1      9640 1.94234E+01 2.27419E+01 4.54545E+00
 -1      9641 1.68988E+01 2.32592E+01 4.54545E+00
 -1      9646 1.76336E+01 2.42705E+01 5.00000E+00
 -1      9647 1.94234E+01 2.27419E+01 5.45455E+00
 -1      9648 1.68988E+01 2.32592E+01 5.45455E+00
 -1      9653 1.76336E+01 2.42705E+01 5.90909E+00
 -1      9654 1.94234E+01 2.27419E+01 6.36364E+00
 -1      9655 1.68988E+01 2.32592E+01 6.36364E+00
 -1      9660 1.76336E+01 2.42705E+01 6.81818E+00
 -1      9661 1.94234E+01 2.27419E+01 7.27273E+00
 -1      9662 1.68988E+01 2.32592E+01 7.27273E+00
 -1      9667 1.76336E+01 2.42705E+01 7.72727E+00
 -1      9668 1.94234E+01 2.27419E+01 8.18182E+00
 -1      9669 1.68988E+01 2.32592E+01 8.18182E+00
 -1      9674 1.76336E+01 2.42705E+01 8.63636E+00
 -1      9675 1.94234E+01 2.27419E+01 9.09091E+00
 -1      9676 1.68988E+01 2.32592E+01 9.09091E+00
 -1      9681 1.76336E+01 2.42705E+01 9.54545E+00
 -1      9685 1.36197E+01 2.67302E+01 4.54545E-01
 -1      9686 1.56266E+01 2.55004E+01 9.09091E-01
 -1      9687 1.30522E+01 2.56164E+01 9.09091E-01
 -1      9692 1.36197E+01 2.67302E+01 1.36364E+00
 -1      9693 1.56266E+01 2.55004E+01 1.81818E+00
 -1      9694 1.30522E+01 2.56164E+01 1.81818E+00
 -1      9699 1.36197E+01 2.67302E+01 2.27273E+00
 -1      9700 1.56266E+01 2.55004E+01 2.72727E+00
 -1      9701 1.30522E+01 2.56164E+01 2.72727E+00
 -1      9706 1.36197E+01 2.67302E+01 3.18182E+00
 -1      9707 1.56266E+01 2.55004E+01 3.63636E+00
 -1      9708 1.30522E+01 2.56164E+01 3.63636E+00
 -1      9713 1.36197E+01 2.67302E+01 4.09091E+00
 -1      9714 1.56266E+01 2.55004E+01 4.54545E+00
 -1      9715 1.30522E+01 2.56164E+01 4.54545E+00
 -1      9720 1.36197E+01 2.67302E+01 5.00000E+00
 -1      9721 1.56266E+01 2.55004E+01 5.45455E+00
 -1      9722 1.30522E+01 2.56164E+01 5.45455E+00
 -1      9727 1.36197E+01 2.67302E+01 5.90909E+00
 -1      9728 1.56266E+01 2.55004E+01 6.36364E+00
 -1      9729 1.30522E+01 2.56164E+01 6.36364E+00
 -1      9734 1.36197E+01 2.67302E+01 6.81818E+00
 -1      9735 1.56266E+01 2.55004E+01 7.27273E+00
 -1      9736 1.30522E+01 2.56164E+01 7.27273E+00
 -1      9741 1.36197E+01 2.67302E+01 7.72727E+00
 -1      9742 1.56266E+01 2.55004E+01 8.18182E+00
 -1      9743 1.30522E+01 2.56164E+01 8.18182E+00
 -1      9748 1.36197E+01 2.67302E+01 8.63636E+00
 -1      9749 1.56266E+01 2.55004E+01 9.09091E+00
 -1      9750 1.30522E+01 2.56164E+01 9.09091E+00
 -1      9755 1.36197E+01 2.67302E+01 9.54545E+00
 -1      9759 9.27051E+00 2.85317E+01 4.54545E-01
 -1      9760 1.14451E+01 2.76309E+01 9.09091E-01
 -1      9761 8.88424E+00 2.73429E+01 9.09091E-01
 -1      9766 9.27051E+00 2.85317E+01 1.36364E+00
 -1      9767 1.14451E+01 2.76309E+01 1.81818E+00
 -1      9768 8.88424E+00 2.73429E+01 1.81818E+00
 -1      9773 9.27051E+00 2.85317E+01 2.27273E+00
 -1      9774 1.14451E+01 2.76309E+01 2.72727E+00
 -1      9775 8.88424E+00 2.73429E+01 2.72727E+00
 -1      9780 9.27051E+00 2.85317E+01 3.18182E+00
 -1      9781 1.14451E+01 2.76309E+01 3.63636E+00
 -1      9782 8.88424E+00 2.73429E+01 3.63636E+00
 -1      9787 9.27051E+00 2.85317E+01 4.09091E+00
 -1      9788 1.14451E+01 2.76309E+01 4.54545E+00
 -1      9789 8.88424E+00 2.73429E+01 4.54545E+00
 -1      9794 9.27051E+00 2.85317E+01 5.00000E+00
 -1      9795 1.14451E+01 2.76309E+01 5.45455E+00
 -1      9796 8.88424E+00 2.73429E+01 5.45455E+00
 -1      9801 9.27051E+00 2.85317E+01 5.90909E+00
 -1      9802 1.14451E+01 2.76309E+01 6.36364E+00
 -1      9803 8.88424E+00 2.73429E+01 6.36364E+00
 -1      9808 9.27051E+00 2.85317E+01 6.81818E+00
 -1      9809 1.14451E+01 2.76309E+01 7.27273E+00
 -1      9810 8.88424E+00 2.73429E+01 7.27273E+00
 -1      9815 9.27051E+00 2.85317E+01 7.72727E+00
 -1      9816 1.14451E+01 2.76309E+01 8.18182E+00
 -1      9817 8.88424E+00 2.73429E+01 8.18182E+00
 -1      9822 9.27051E+00 2.85317E+01 8.63636E+00
 -1      9823 1.14451E+01 2.76309E+01 9.09091E+00
 -1      9824 8.88424E+00 2.73429E+01 9.09091E+00
 -1      9829 9.27051E+00 2.85317E+01 9.54545E+00
 -1      9833 4.69303E+00 2.96306E+01 4.54545E-01
 -1      9834 6.98177E+00 2.90812E+01 9.09091E-01
 -1      9835 4.49749E+00 2.83960E+01 9.09091E-01
 -1      9840 4.69303E+00 2.96306E+01 1.36364E+00
 -1      9841 6.98177E+00 2.90812E+01 1.81818E+00
 -1      9842 4.49749E+00 2.83960E+01 1.81818E+00
 -1      9847 4.69303E+00 2.96306E+01 2.27273E+00
 -1      9848 6.98177E+00 2.90812E+01 2.72727E+00
 -1      9849 4.49749E+00 2.83960E+01 2.72727E+00
 -1      9854 4.69303E+00 2.96306E+01 3.18182E+00
 -1      9855 6.98177E+00 2.90812E+01 3.63636E+00
 -1      9856 4.49749E+00 2.83960E+01 3.63636E+00
 -1      9861 4.69303E+00 2.96306E+01 4.09091E+00
 -1      9862 6.98177E+00 2.90812E+01 4.54545E+00
 -1      9863 4.49749E+00 2.83960E+01 4.54545E+00
 -1      9868 4.69303E+00 2.96306E+01 5.00000E+00
 -1      9869 6.98177E+00 2.90812E+01 5.45455E+00
 -1      9870 4.49749E+00 2.83960E+01 5.45455E+00
 -1      9875 4.69303E+00 2.96306E+01 5.90909E+00
 -1      9876 6.98177E+00 2.90812E+01 6.36364E+00
 -1      9877 4.49749E+00 2.83960E+01 6.36364E+00
 -1      9882 4.69303E+00 2.96306E+01 6.81818E+00
 -1      9883 6.98177E+00 2.90812E+01 7.27273E+00
 -1      9884 4.49749E+00 2.83960E+01 7.27273E+00
 -1      9889 4.69303E+00 2.96306E+01 7.72727E+00
 -1      9890 6.98177E+00 2.90812E+01 8.18182E+00
 -1      9891 4.49749E+00 2.83960E+01 8.18182E+00
 -1      9896 4.69303E+00 2.96306E+01 8.63636E+00
 -1      9897 6.98177E+00 2.90812E+01 9.09091E+00
 -1      9898 4.49749E+00 2.83960E+01 9.09091E+00
 -1      9903 4.69303E+00 2.96306E+01 9.54545E+00
 -1      9907 2.34652E+00 2.98153E+01 9.09091E-01
 -1      9911 2.34652E+00 2.98153E+01 1.81818E+00
 -1      9915 2.34652E+00 2.98153E+01 2.72727E+00
 -1      9919 2.34652E+00 2.98153E+01 3.63636E+00
 -1      9923 2.34652E+00 2.98153E+01 4.54545E+00
 -1      9927 2.34652E+00 2.98153E+01 5.45455E+00
 -1      9931 2.34652E+00 2.98153E+01 6.36364E+00
 -1      9935 2.34652E+00 2.98153E+01 7.27273E+00
 -1      9939 2.34652E+00 2.98153E+01 8.18182E+00
 -1      9943 2.34652E+00 2.98153E+01 9.09091E+00
 -1      9949 3.20999E+01 5.08412E+00 4.54545E-01
 -1      9950 3.22999E+01 2.54206E+00 9.09091E-01
 -1      9951 3.08653E+01 4.88858E+00 9.09091E-01
 -1      9956 3.20999E+01 5.08412E+00 1.36364E+00
 -1      9957 3.22999E+01 2.54206E+00 1.81818E+00
 -1      9958 3.08653E+01 4.88858E+00 1.81818E+00
 -1      9963 3.20999E+01 5.08412E+00 2.27273E+00
 -1      9964 3.22999E+01 2.54206E+00 2.72727E+00
 -1      9965 3.08653E+01 4.88858E+00 2.72727E+00
 -1      9970 3.20999E+01 5.08412E+00 3.18182E+00
 -1      9971 3.22999E+01 2.54206E+00 3.63636E+00
 -1      9972 3.08653E+01 4.88858E+00 3.63636E+00
 -1      9977 3.20999E+01 5.08412E+00 4.09091E+00
 -1      9978 3.22999E+01 2.54206E+00 4.54545E+00
 -1      9979 3.08653E+01 4.88858E+00 4.54545E+00
 -1      9984 3.20999E+01 5.08412E+00 5.00000E+00
 -1      9985 3.22999E+01 2.54206E+00 5.45455E+00
 -1      9986 3.08653E+01 4.88858E+00 5.45455E+00
 -1      9991 3.20999E+01 5.08412E+00 5.90909E+00
 -1      9992 3.22999E+01 2.54206E+00 6.36364E+00
 -1      9993 3.08653E+01 4.88858E+00 6.36364E+00
 -1      9998 3.20999E+01 5.08412E+00 6.81818E+00
 -1      9999 3.22999E+01 2.54206E+00 7.27273E+00
 -1     10000 3.08653E+01 4.88858E+00 7.27273E+00
 -1     10005 3.20999E+01 5.08412E+00 7.72727E+00
 -1     10006 3.22999E+01 2.54206E+00 8.18182E+00
 -1     10007 3.08653E+01 4.88858E+00 8.18182E+00
 -1     10012 3.20999E+01 5.08412E+00 8.63636E+00
 -1     10013 3.22999E+01 2.54206E+00 9.09091E+00
 -1     10014 3.08653E+01 4.88858E+00 9.09091E+00
 -1     10019 3.20999E+01 5.08412E+00 9.54545E+00
 -1     10023 3.09093E+01 1.00431E+01 4.54545E-01
 -1     10024 3.15046E+01 7.56359E+00 9.09091E-01
 -1     10025 2.97205E+01 9.65678E+00 9.09091E-01
 -1     10030 3.09093E+01 1.00431E+01 1.36364E+00
 -1     10031 3.15046E+01 7.56359E+00 1.81818E+00
 -1     10032 2.97205E+01 9.65678E+00 1.81818E+00
 -1     10037 3.09093E+01 1.00431E+01 2.27273E+00
 -1     10038 3.15046E+01 7.56359E+00 2.72727E+00
 -1     10039 2.97205E+01 9.65678E+00 2.72727E+00
 -1     10044 3.09093E+01 1.00431E+01 3.18182E+00
 -1     10045 3.15046E+01 7.56359E+00 3.63636E+00
 -1     10046 2.97205E+01 9.65678E+00 3.63636E+00
 -1     10051 3.09093E+01 1.00431E+01 4.09091E+00
 -1     10052 3.15046E+01 7.56359E+00 4.54545E+00
 -1     10053 2.97205E+01 9.65678E+00 4.54545E+00
 -1     10058 3.09093E+01 1.00431E+01 5.00000E+00
 -1     10059 3.15046E+01 7.56359E+00 5.45455E+00
 -1     10060 2.97205E+01 9.65678E+00 5.45455E+00
 -1     10065 3.09093E+01 1.00431E+01 5.90909E+00
 -1     10066 3.15046E+01 7.56359E+00 6.36364E+00
 -1     10067 2.97205E+01 9.65678E+00 6.36364E+00
 -1     10072 3.09093E+01 1.00431E+01 6.81818E+00
 -1     10073 3.15046E+01 7.56359E+00 7.27273E+00
 -1     10074 2.97205E+01 9.65678E+00 7.27273E+00
 -1     10079 3.09093E+01 1.00431E+01 7.72727E+00
 -1     10080 3.15046E+01 7.56359E+00 8.18182E+00
 -1     10081 2.97205E+01 9.65678E+00 8.18182E+00
 -1     10086 3.09093E+01 1.00431E+01 8.63636E+00
 -1     10087 3.15046E+01 7.56359E+00 9.09091E+00
 -1     10088 2.97205E+01 9.65678E+00 9.09091E+00
 -1     10093 3.09093E+01 1.00431E+01 9.54545E+00
 -1     10097 2.89577E+01 1.47547E+01 4.54545E-01
 -1     10098 2.99335E+01 1.23989E+01 9.09091E-01
 -1     10099 2.78440E+01 1.41872E+01 9.09091E-01
 -1     10104 2.89577E+01 1.47547E+01 1.36364E+00
 -1     10105 2.99335E+01 1.23989E+01 1.81818E+00
 -1     10106 2.78440E+01 1.41872E+01 1.81818E+00
 -1     10111 2.89577E+01 1.47547E+01 2.27273E+00
 -1     10112 2.99335E+01 1.23989E+01 2.72727E+00
 -1     10113 2.78440E+01 1.41872E+01 2.72727E+00
 -1     10118 2.89577E+01 1.47547E+01 3.18182E+00
 -1     10119 2.99335E+01 1.23989E+01 3.63636E+00
 -1     10120 2.78440E+01 1.41872E+01 3.63636E+00
 -1     10125 2.89577E+01 1.47547E+01 4.09091E+00
 -1     10126 2.99335E+01 1.23989E+01 4.54545E+00
 -1     10127 2.78440E+01 1.41872E+01 4.54545E+00
 -1     10132 2.89577E+01 1.47547E+01 5.00000E+00
 -1     10133 2.99335E+01 1.23989E+01 5.45455E+00
 -1     10134 2.78440E+01 1.41872E+01 5.45455E+00
 -1     10139 2.89577E+01 1.47547E+01 5.90909E+00
 -1     10140 2.99335E+01 1.23989E+01 6.36364E+00
 -1     10141 2.78440E+01 1.41872E+01 6.36364E+00
 -1     10146 2.89577E+01 1.47547E+01 6.81818E+00
 -1     10147 2.99335E+01 1.23989E+01 7.27273E+00
 -1     10148 2.78440E+01 1.41872E+01 7.27273E+00
 -1     10153 2.89577E+01 1.47547E+01 7.72727E+00
 -1     10154 2.99335E+01 1.23989E+01 8.18182E+00
 -1     10155 2.78440E+01 1.41872E+01 8.18182E+00
 -1     10160 2.89577E+01 1.47547E+01 8.63636E+00
 -1     10161 2.99335E+01 1.23989E+01 9.09091E+00
 -1     10162 2.78440E+01 1.41872E+01 9.09091E+00
 -1     10167 2.89577E+01 1.47547E+01 9.54545E+00
 -1     10171 2.62931E+01 1.91030E+01 4.54545E-01
 -1     10172 2.76254E+01 1.69289E+01 9.09091E-01
 -1     10173 2.52818E+01 1.83683E+01 9.09091E-01
 -1     10178 2.62931E+01 1.91030E+01 1.36364E+00
 -1     10179 2.76254E+01 1.69289E+01 1.81818E+00
 -1     10180 2.52818E+01 1.83683E+01 1.81818E+00
 -1     10185 2.62931E+01 1.91030E+01 2.27273E+00
 -1     10186 2.76254E+01 1.69289E+01 2.72727E+00
 -1     10187 2.52818E+01 1.83683E+01 2.72727E+00
 -1     10192 2.62931E+01 1.91030E+01 3.18182E+00
 -1     10193 2.76254E+01 1.69289E+01 3.63636E+00
 -1     10194 2.52818E+01 1.83683E+01 3.63636E+00
 -1     10199 2.62931E+01 1.91030E+01 4.09091E+00
 -1     10200 2.76254E+01 1.69289E+01 4.54545E+00
 -1     10201 2.52818E+01 1.83683E+01 4.54545E+00
 -1     10206 2.62931E+01 1.91030E+01 5.00000E+00
 -1     10207 2.76254E+01 1.69289E+01 5.45455E+00
 -1     10208 2.52818E+01 1.83683E+01 5.45455E+00
 -1     10213 2.62931E+01 1.91030E+01 5.90909E+00
 -1     10214 2.76254E+01 1.69289E+01 6.36364E+00
 -1     10215 2.52818E+01 1.83683E+01 6.36364E+00
 -1     10220 2.62931E+01 1.91030E+01 6.81818E+00
 -1     10221 2.76254E+01 1.69289E+01 7.27273E+00
 -1     10222 2.52818E+01 1.83683E+01 7.27273E+00
 -1     10227 2.62931E+01 1.91030E+01 7.72727E+00
 -1     10228 2.76254E+01 1.69289E+01 8.18182E+00
 -1     10229 2.52818E+01 1.83683E+01 8.18182E+00
 -1     10234 2.62931E+01 1.91030E+01 8.63636E+00
 -1     10235 2.76254E+01 1.69289E+01 9.09091E+00
 -1     10236 2.52818E+01 1.83683E+01 9.09091E+00
 -1     10241 2.62931E+01 1.91030E+01 9.54545E+00
 -1     10245 2.29810E+01 2.29810E+01 4.54545E-01
 -1     10246 2.46370E+01 2.10420E+01 9.09091E-01
 -1     10247 2.20971E+01 2.20971E+01 9.09091E-01
 -1     10252 2.29810E+01 2.29810E+01 1.36364E+00
 -1     10253 2.46370E+01 2.10420E+01 1.81818E+00
 -1     10254 2.20971E+01 2.20971E+01 1.81818E+00
 -1     10259 2.29810E+01 2.29810E+01 2.27273E+00
 -1     10260 2.46370E+01 2.10420E+01 2.72727E+00
 -1     10261 2.20971E+01 2.20971E+01 2.72727E+00
 -1     10266 2.29810E+01 2.29810E+01 3.18182E+00
 -1     10267 2.46370E+01 2.10420E+01 3.63636E+00
 -1     10268 2.20971E+01 2.20971E+01 3.63636E+00
 -1     10273 2.29810E+01 2.29810E+01 4.09091E+00
 -1     10274 2.46370E+01 2.10420E+01 4.54545E+00
 -1     10275 2.20971E+01 2.20971E+01 4.54545E+00
 -1     10280 2.29810E+01 2.29810E+01 5.00000E+00
 -1     10281 2.46370E+01 2.10420E+01 5.45455E+00
 -1     10282 2.20971E+01 2.20971E+01 5.45455E+00
 -1     10287 2.29810E+01 2.29810E+01 5.90909E+00
 -1     10288 2.46370E+01 2.10420E+01 6.36364E+00
 -1     10289 2.20971E+01 2.20971E+01 6.36364E+00
 -1     10294 2.29810E+01 2.29810E+01 6.81818E+00
 -1     10295 2.46370E+01 2.10420E+01 7.27273E+00
 -1     10296 2.20971E+01 2.20971E+01 7.27273E+00
 -1     10301 2.29810E+01 2.29810E+01 7.72727E+00
 -1     10302 2.46370E+01 2.10420E+01 8.18182E+00
 -1     10303 2.20971E+01 2.20971E+01 8.18182E+00
 -1     10308 2.29810E+01 2.29810E+01 8.63636E+00
 -1     10309 2.46370E+01 2.10420E+01 9.09091E+00
 -1     10310 2.20971E+01 2.20971E+01 9.09091E+00
 -1     10315 2.29810E+01 2.29810E+01 9.54545E+00
 -1     10319 1.91030E+01 2.62931E+01 4.54545E-01
 -1     10320 2.10420E+01 2.46370E+01 9.09091E-01
 -1     10321 1.83683E+01 2.52818E+01 9.09091E-01
 -1     10326 1.91030E+01 2.62931E+01 1.36364E+00
 -1     10327 2.10420E+01 2.46370E+01 1.81818E+00
 -1     10328 1.83683E+01 2.52818E+01 1.81818E+00
 -1     10333 1.91030E+01 2.62931E+01 2.27273E+00
 -1     10334 2.10420E+01 2.46370E+01 2.72727E+00
 -1     10335 1.83683E+01 2.52818E+01 2.72727E+00
 -1     10340 1.91030E+01 2.62931E+01 3.18182E+00
 -1     10341 2.10420E+01 2.46370E+01 3.63636E+00
 -1     10342 1.83683E+01 2.52818E+01 3.63636E+00
 -1     10347 1.91030E+01 2.62931E+01 4.09091E+00
 -1     10348 2.10420E+01 2.46370E+01 4.54545E+00
 -1     10349 1.83683E+01 2.52818E+01 4.54545E+00
 -1     10354 1.91030E+01 2.62931E+01 5.00000E+00
 -1     10355 2.10420E+01 2.46370E+01 5.45455E+00
 -1     10356 1.83683E+01 2.52818E+01 5.45455E+00
 -1     10361 1.91030E+01 2.62931E+01 5.90909E+00
 -1     10362 2.10420E+01 2.46370E+01 6.36364E+00
 -1     10363 1.83683E+01 2.52818E+01 6.36364E+00
 -1     10368 1.91030E+01 2.62931E+01 6.81818E+00
 -1     10369 2.10420E+01 2.46370E+01 7.27273E+00
 -1     10370 1.83683E+01 2.52818E+01 7.27273E+00
 -1     10375 1.91030E+01 2.62931E+01 7.72727E+00
 -1     10376 2.10420E+01 2.46370E+01 8.18182E+00
 -1     10377 1.83683E+01 2.52818E+01 8.18182E+00
 -1     10382 1.91030E+01 2.62931E+01 8.63636E+00
 -1     10383 2.10420E+01 2.46370E+01 9.09091E+00
 -1     10384 1.83683E+01 2.52818E+01 9.09091E+00
 -1     10389 1.91030E+01 2.62931E+01 9.54545E+00
 -1     10393 1.47547E+01 2.89577E+01 4.54545E-01
 -1     10394 1.69289E+01 2.76254E+01 9.09091E-01
 -1     10395 1.41872E+01 2.78440E+01 9.09091E-01
 -1     10400 1.47547E+01 2.89577E+01 1.36364E+00
 -1     10401 1.69289E+01 2.76254E+01 1.81818E+00
 -1     10402 1.41872E+01 2.78440E+01 1.81818E+00
 -1     10407 1.47547E+01 2.89577E+01 2.27273E+00
 -1     10408 1.69289E+01 2.76254E+01 2.72727E+00
 -1     10409 1.41872E+01 2.78440E+01 2.72727E+00
 -1     10414 1.47547E+01 2.89577E+01 3.18182E+00
 -1     10415 1.69289E+01 2.76254E+01 3.63636E+00
 -1     10416 1.41872E+01 2.78440E+01 3.63636E+00
 -1     10421 1.47547E+01 2.89577E+01 4.09091E+00
 -1     10422 1.69289E+01 2.76254E+01 4.54545E+00
 -1     10423 1.41872E+01 2.78440E+01 4.54545E+00
 -1     10428 1.47547E+01 2.89577E+01 5.00000E+00
 -1     10429 1.69289E+01 2.76254E+01 5.45455E+00
 -1     10430 1.41872E+01 2.78440E+01 5.45455E+00
 -1     10435 1.47547E+01 2.89577E+01 5.90909E+00
 -1     10436 1.69289E+01 2.76254E+01 6.36364E+00
 -1     10437 1.41872E+01 2.78440E+01 6.36364E+00
 -1     10442 1.47547E+01 2.89577E+01 6.81818E+00
 -1     10443 1.69289E+01 2.76254E+01 7.27273E+00
 -1     10444 1.41872E+01 2.78440E+01 7.27273E+00
 -1     10449 1.47547E+01 2.89577E+01 7.72727E+00
 -1     10450 1.69289E+01 2.76254E+01 8.18182E+00
 -1     10451 1.41872E+01 2.78440E+01 8.18182E+00
 -1     10456 1.47547E+01 2.89577E+01 8.63636E+00
 -1     10457 1.69289E+01 2.76254E+01 9.09091E+00
 -1     10458 1.41872E+01 2.78440E+01 9.09091E+00
 -1     10463 1.47547E+01 2.89577E+01 9.54545E+00
 -1     10467 1.00431E+01 3.09093E+01 4.54545E-01
 -1     10468 1.23989E+01 2.99335E+01 9.09091E-01
 -1     10469 9.65678E+00 2.97205E+01 9.09091E-01
 -1     10474 1.00431E+01 3.09093E+01 1.36364E+00
 -1     10475 1.23989E+01 2.99335E+01 1.81818E+00
 -1     10476 9.65678E+00 2.97205E+01 1.81818E+00
 -1     10481 1.00431E+01 3.09093E+01 2.27273E+00
 -1     10482 1.23989E+01 2.99335E+01 2.72727E+00
 -1     10483 9.65678E+00 2.97205E+01 2.72727E+00
 -1     10488 1.00431E+01 3.09093E+01 3.18182E+00
 -1     10489 1.23989E+01 2.99335E+01 3.63636E+00
 -1     10490 9.65678E+00 2.97205E+01 3.63636E+00
 -1     10495 1.00431E+01 3.09093E+01 4.09091E+00
 -1     10496 1.23989E+01 2.99335E+01 4.54545E+00
 -1     10497 9.65678E+00 2.97205E+01 4.54545E+00
 -1     10502 1.00431E+01 3.09093E+01 5.00000E+00
 -1     10503 1.23989E+01 2.99335E+01 5.45455E+00
 -1     10504 9.65678E+00 2.97205E+01 5.45455E+00
 -1     10509 1.00431E+01 3.09093E+01 5.90909E+00
 -1     10510 1.23989E+01 2.99335E+01 6.36364E+00
 -1     10511 9.65678E+00 2.97205E+01 6.36364E+00
 -1     10516 1.00431E+01 3.09093E+01 6.81818E+00
 -1     10517 1.23989E+01 2.99335E+01 7.27273E+00
 -1     10518 9.65678E+00 2.97205E+01 7.27273E+00
 -1     10523 1.00431E+01 3.09093E+01 7.72727E+00
 -1     10524 1.23989E+01 2.99335E+01 8.18182E+00
 -1     10525 9.65678E+00 2.97205E+01 8.18182E+00
 -1     10530 1.00431E+01 3.09093E+01 8.63636E+00
 -1     10531 1.23989E+01 2.99335E+01 9.09091E+00
 -1     10532 9.65678E+00 2.97205E+01 9.09091E+00
 -1     10537 1.00431E+01 3.09093E+01 9.54545E+00
 -1     10541 5.08412E+00 3.20999E+01 4.54545E-01
 -1     10542 7.56359E+00 3.15046E+01 9.09091E-01
 -1     10543 4.88858E+00 3.08653E+01 9.09091E-01
 -1     10548 5.08412E+00 3.20999E+01 1.36364E+00
 -1     10549 7.56359E+00 3.15046E+01 1.81818E+00
 -1     10550 4.88858E+00 3.08653E+01 1.81818E+00
 -1     10555 5.08412E+00 3.20999E+01 2.27273E+00
 -1     10556 7.56359E+00 3.15046E+01 2.72727E+00
 -1     10557 4.88858E+00 3.08653E+01 2.72727E+00
 -1     10562 5.08412E+00 3.20999E+01 3.18182E+00
 -1     10563 7.56359E+00 3.15046E+01 3.63636E+00
 -1     10564 4.88858E+00 3.08653E+01 3.63636E+00
 -1     10569 5.08412E+00 3.20999E+01 4.09091E+00
 -1     10570 7.56359E+00 3.15046E+01 4.54545E+00
 -1     10571 4.88858E+00 3.08653E+01 4.54545E+00
 -1     10576 5.08412E+00 3.20999E+01 5.00000E+00
 -1     10577 7.56359E+00 3.15046E+01 5.45455E+00
 -1     10578 4.88858E+00 3.08653E+01 5.45455E+00
 -1     10583 5.08412E+00 3.20999E+01 5.90909E+00
 -1     10584 7.56359E+00 3.15046E+01 6.36364E+00
 -1     10585 4.88858E+00 3.08653E+01 6.36364E+00
 -1     10590 5.08412E+00 3.20999E+01 6.81818E+00
 -1     10591 7.56359E+00 3.15046E+01 7.27273E+00
 -1     10592 4.88858E+00 3.08653E+01 7.27273E+00
 -1     10597 5.08412E+00 3.20999E+01 7.72727E+00
 -1     10598 7.56359E+00 3.15046E+01 8.18182E+00
 -1     10599 4.88858E+00 3.08653E+01 8.18182E+00
 -1     10604 5.08412E+00 3.20999E+01 8.63636E+00
 -1     10605 7.56359E+00 3.15046E+01 9.09091E+00
 -1     10606 4.88858E+00 3.08653E+01 9.09091E+00
 -1     10611 5.08412E+00 3.20999E+01 9.54545E+00
 -1     10615 2.54206E+00 3.22999E+01 9.09091E-01
 -1     10619 2.54206E+00 3.22999E+01 1.81818E+00
 -1     10623 2.54206E+00 3.22999E+01 2.72727E+00
 -1     10627 2.54206E+00 3.22999E+01 3.63636E+00
 -1     10631 2.54206E+00 3.22999E+01 4.54545E+00
 -1     10635 2.54206E+00 3.22999E+01 5.45455E+00
 -1     10639 2.54206E+00 3.22999E+01 6.36364E+00
 -1     10643 2.54206E+00 3.22999E+01 7.27273E+00
 -1     10647 2.54206E+00 3.22999E+01 8.18182E+00
 -1     10651 2.54206E+00 3.22999E+01 9.09091E+00
 -1     10657 3.45691E+01 5.47521E+00 4.54545E-01
 -1     10658 3.47845E+01 2.73760E+00 9.09091E-01
 -1     10659 3.33345E+01 5.27966E+00 9.09091E-01
 -1     10664 3.45691E+01 5.47521E+00 1.36364E+00
 -1     10665 3.47845E+01 2.73760E+00 1.81818E+00
 -1     10666 3.33345E+01 5.27966E+00 1.81818E+00
 -1     10671 3.45691E+01 5.47521E+00 2.27273E+00
 -1     10672 3.47845E+01 2.73760E+00 2.72727E+00
 -1     10673 3.33345E+01 5.27966E+00 2.72727E+00
 -1     10678 3.45691E+01 5.47521E+00 3.18182E+00
 -1     10679 3.47845E+01 2.73760E+00 3.63636E+00
 -1     10680 3.33345E+01 5.27966E+00 3.63636E+00
 -1     10685 3.45691E+01 5.47521E+00 4.09091E+00
 -1     10686 3.47845E+01 2.73760E+00 4.54545E+00
 -1     10687 3.33345E+01 5.27966E+00 4.54545E+00
 -1     10692 3.45691E+01 5.47521E+00 5.00000E+00
 -1     10693 3.47845E+01 2.73760E+00 5.45455E+00
 -1     10694 3.33345E+01 5.27966E+00 5.45455E+00
 -1     10699 3.45691E+01 5.47521E+00 5.90909E+00
 -1     10700 3.47845E+01 2.73760E+00 6.36364E+00
 -1     10701 3.33345E+01 5.27966E+00 6.36364E+00
 -1     10706 3.45691E+01 5.47521E+00 6.81818E+00
 -1     10707 3.47845E+01 2.73760E+00 7.27273E+00
 -1     10708 3.33345E+01 5.27966E+00 7.27273E+00
 -1     10713 3.45691E+01 5.47521E+00 7.72727E+00
 -1     10714 3.47845E+01 2.73760E+00 8.18182E+00
 -1     10715 3.33345E+01 5.27966E+00 8.18182E+00
 -1     10720 3.45691E+01 5.47521E+00 8.63636E+00
 -1     10721 3.47845E+01 2.73760E+00 9.09091E+00
 -1     10722 3.33345E+01 5.27966E+00 9.09091E+00
 -1     10727 3.45691E+01 5.47521E+00 9.54545E+00
 -1     10731 3.32870E+01 1.08156E+01 4.54545E-01
 -1     10732 3.39280E+01 8.14540E+00 9.09091E-01
 -1     10733 3.20982E+01 1.04293E+01 9.09091E-01
 -1     10738 3.32870E+01 1.08156E+01 1.36364E+00
 -1     10739 3.39280E+01 8.14540E+00 1.81818E+00
 -1     10740 3.20982E+01 1.04293E+01 1.81818E+00
 -1     10745 3.32870E+01 1.08156E+01 2.27273E+00
 -1     10746 3.39280E+01 8.14540E+00 2.72727E+00
 -1     10747 3.20982E+01 1.04293E+01 2.72727E+00
 -1     10752 3.32870E+01 1.08156E+01 3.18182E+00
 -1     10753 3.39280E+01 8.14540E+00 3.63636E+00
 -1     10754 3.20982E+01 1.04293E+01 3.63636E+00
 -1     10759 3.32870E+01 1.08156E+01 4.09091E+00
 -1     10760 3.39280E+01 8.14540E+00 4.54545E+00
 -1     10761 3.20982E+01 1.04293E+01 4.54545E+00
 -1     10766 3.32870E+01 1.08156E+01 5.00000E+00
 -1     10767 3.39280E+01 8.14540E+00 5.45455E+00
 -1     10768 3.20982E+01 1.04293E+01 5.45455E+00
 -1     10773 3.32870E+01 1.08156E+01 5.90909E+00
 -1     10774 3.39280E+01 8.14540E+00 6.36364E+00
 -1     10775 3.20982E+01 1.04293E+01 6.36364E+00
 -1     10780 3.32870E+01 1.08156E+01 6.81818E+00
 -1     10781 3.39280E+01 8.14540E+00 7.27273E+00
 -1     10782 3.20982E+01 1.04293E+01 7.27273E+00
 -1     10787 3.32870E+01 1.08156E+01 7.72727E+00
 -1     10788 3.39280E+01 8.14540E+00 8.18182E+00
 -1     10789 3.20982E+01 1.04293E+01 8.18182E+00
 -1     10794 3.32870E+01 1.08156E+01 8.63636E+00
 -1     10795 3.39280E+01 8.14540E+00 9.09091E+00
 -1     10796 3.20982E+01 1.04293E+01 9.09091E+00
 -1     10801 3.32870E+01 1.08156E+01 9.54545E+00
 -1     10805 3.11852E+01 1.58897E+01 4.54545E-01
 -1     10806 3.22361E+01 1.33526E+01 9.09091E-01
 -1     10807 3.00715E+01 1.53222E+01 9.09091E-01
 -1     10812 3.11852E+01 1.58897E+01 1.36364E+00
 -1     10813 3.22361E+01 1.33526E+01 1.81818E+00
 -1     10814 3.00715E+01 1.53222E+01 1.81818E+00
 -1     10819 3.11852E+01 1.58897E+01 2.27273E+00
 -1     10820 3.22361E+01 1.33526E+01 2.72727E+00
 -1     10821 3.00715E+01 1.53222E+01 2.72727E+00
 -1     10826 3.11852E+01 1.58897E+01 3.18182E+00
 -1     10827 3.22361E+01 1.33526E+01 3.63636E+00
 -1     10828 3.00715E+01 1.53222E+01 3.63636E+00
 -1     10833 3.11852E+01 1.58897E+01 4.09091E+00
 -1     10834 3.22361E+01 1.33526E+01 4.54545E+00
 -1     10835 3.00715E+01 1.53222E+01 4.54545E+00
 -1     10840 3.11852E+01 1.58897E+01 5.00000E+00
 -1     10841 3.22361E+01 1.33526E+01 5.45455E+00
 -1     10842 3.00715E+01 1.53222E+01 5.45455E+00
 -1     10847 3.11852E+01 1.58897E+01 5.90909E+00
 -1     10848 3.22361E+01 1.33526E+01 6.36364E+00
 -1     10849 3.00715E+01 1.53222E+01 6.36364E+00
 -1     10854 3.11852E+01 1.58897E+01 6.81818E+00
 -1     10855 3.22361E+01 1.33526E+01 7.27273E+00
 -1     10856 3.00715E+01 1.53222E+01 7.27273E+00
 -1     10861 3.11852E+01 1.58897E+01 7.72727E+00
 -1     10862 3.22361E+01 1.33526E+01 8.18182E+00
 -1     10863 3.00715E+01 1.53222E+01 8.18182E+00
 -1     10868 3.11852E+01 1.58897E+01 8.63636E+00
 -1     10869 3.22361E+01 1.33526E+01 9.09091E+00
 -1     10870 3.00715E+01 1.53222E+01 9.09091E+00
 -1     10875 3.11852E+01 1.58897E+01 9.54545E+00
 -1     10879 2.83156E+01 2.05725E+01 4.54545E-01
 -1     10880 2.97504E+01 1.82311E+01 9.09091E-01
 -1     10881 2.73043E+01 1.98378E+01 9.09091E-01
 -1     10886 2.83156E+01 2.05725E+01 1.36364E+00
 -1     10887 2.97504E+01 1.82311E+01 1.81818E+00
 -1     10888 2.73043E+01 1.98378E+01 1.81818E+00
 -1     10893 2.83156E+01 2.05725E+01 2.27273E+00
 -1     10894 2.97504E+01 1.82311E+01 2.72727E+00
 -1     10895 2.73043E+01 1.98378E+01 2.72727E+00
 -1     10900 2.83156E+01 2.05725E+01 3.18182E+00
 -1     10901 2.97504E+01 1.82311E+01 3.63636E+00
 -1     10902 2.73043E+01 1.98378E+01 3.63636E+00
 -1     10907 2.83156E+01 2.05725E+01 4.09091E+00
 -1     10908 2.97504E+01 1.82311E+01 4.54545E+00
 -1     10909 2.73043E+01 1.98378E+01 4.54545E+00
 -1     10914 2.83156E+01 2.05725E+01 5.00000E+00
 -1     10915 2.97504E+01 1.82311E+01 5.45455E+00
 -1     10916 2.73043E+01 1.98378E+01 5.45455E+00
 -1     10921 2.83156E+01 2.05725E+01 5.90909E+00
 -1     10922 2.97504E+01 1.82311E+01 6.36364E+00
 -1     10923 2.73043E+01 1.98378E+01 6.36364E+00
 -1     10928 2.83156E+01 2.05725E+01 6.81818E+00
 -1     10929 2.97504E+01 1.82311E+01 7.27273E+00
 -1     10930 2.73043E+01 1.98378E+01 7.27273E+00
 -1     10935 2.83156E+01 2.05725E+01 7.72727E+00
 -1     10936 2.97504E+01 1.82311E+01 8.18182E+00
 -1     10937 2.73043E+01 1.98378E+01 8.18182E+00
 -1     10942 2.83156E+01 2.05725E+01 8.63636E+00
 -1     10943 2.97504E+01 1.82311E+01 9.09091E+00
 -1     10944 2.73043E+01 1.98378E+01 9.09091E+00
 -1     10949 2.83156E+01 2.05725E+01 9.54545E+00
 -1     10953 2.47487E+01 2.47487E+01 4.54545E-01
 -1     10954 2.65322E+01 2.26606E+01 9.09091E-01
 -1     10955 2.38649E+01 2.38649E+01 9.09091E-01
 -1     10960 2.47487E+01 2.47487E+01 1.36364E+00
 -1     10961 2.65322E+01 2.26606E+01 1.81818E+00
 -1     10962 2.38649E+01 2.38649E+01 1.81818E+00
 -1     10967 2.47487E+01 2.47487E+01 2.27273E+00
 -1     10968 2.65322E+01 2.26606E+01 2.72727E+00
 -1     10969 2.38649E+01 2.38649E+01 2.72727E+00
 -1     10974 2.47487E+01 2.47487E+01 3.18182E+00
 -1     10975 2.65322E+01 2.26606E+01 3.63636E+00
 -1     10976 2.38649E+01 2.38649E+01 3.63636E+00
 -1     10981 2.47487E+01 2.47487E+01 4.09091E+00
 -1     10982 2.65322E+01 2.26606E+01 4.54545E+00
 -1     10983 2.38649E+01 2.38649E+01 4.54545E+00
 -1     10988 2.47487E+01 2.47487E+01 5.00000E+00
 -1     10989 2.65322E+01 2.26606E+01 5.45455E+00
 -1     10990 2.38649E+01 2.38649E+01 5.45455E+00
 -1     10995 2.47487E+01 2.47487E+01 5.90909E+00
 -1     10996 2.65322E+01 2.26606E+01 6.36364E+00
 -1     10997 2.38649E+01 2.38649E+01 6.36364E+00
 -1     11002 2.47487E+01 2.47487E+01 6.81818E+00
 -1     11003 2.65322E+01 2.26606E+01 7.27273E+00
 -1     11004 2.38649E+01 2.38649E+01 7.27273E+00
 -1     11009 2.47487E+01 2.47487E+01 7.72727E+00
 -1     11010 2.65322E+01 2.26606E+01 8.18182E+00
 -1     11011 2.38649E+01 2.38649E+01 8.18182E+00
 -1     11016 2.47487E+01 2.47487E+01 8.63636E+00
 -1     11017 2.65322E+01 2.26606E+01 9.09091E+00
 -1     11018 2.38649E+01 2.38649E+01 9.09091E+00
 -1     11023 2.47487E+01 2.47487E+01 9.54545E+00
 -1     11027 2.05725E+01 2.83156E+01 4.54545E-01
 -1     11028 2.26606E+01 2.65322E+01 9.09091E-01
 -1     11029 1.98378E+01 2.73043E+01 9.09091E-01
 -1     11034 2.05725E+01 2.83156E+01 1.36364E+00
 -1     11035 2.26606E+01 2.65322E+01 1.81818E+00
 -1     11036 1.98378E+01 2.73043E+01 1.81818E+00
 -1     11041 2.05725E+01 2.83156E+01 2.27273E+00
 -1     11042 2.26606E+01 2.65322E+01 2.72727E+00
 -1     11043 1.98378E+01 2.73043E+01 2.72727E+00
 -1     11048 2.05725E+01 2.83156E+01 3.18182E+00
 -1     11049 2.26606E+01 2.65322E+01 3.63636E+00
 -1     11050 1.98378E+01 2.73043E+01 3.63636E+00
 -1     11055 2.05725E+01 2.83156E+01 4.09091E+00
 -1     11056 2.26606E+01 2.65322E+01 4.54545E+00
 -1     11057 1.98378E+01 2.73043E+01 4.54545E+00
 -1     11062 2.05725E+01 2.83156E+01 5.00000E+00
 -1     11063 2.26606E+01 2.65322E+01 5.45455E+00
 -1     11064 1.98378E+01 2.73043E+01 5.45455E+00
 -1     11069 2.05725E+01 2.83156E+01 5.90909E+00
 -1     11070 2.26606E+01 2.65322E+01 6.36364E+00
 -1     11071 1.98378E+01 2.73043E+01 6.36364E+00
 -1     11076 2.05725E+01 2.83156E+01 6.81818E+00
 -1     11077 2.26606E+01 2.65322E+01 7.27273E+00
 -1     11078 1.98378E+01 2.73043E+01 7.27273E+00
 -1     11083 2.05725E+01 2.83156E+01 7.72727E+00
 -1     11084 2.26606E+01 2.65322E+01 8.18182E+00
 -1     11085 1.98378E+01 2.73043E+01 8.18182E+00
 -1     11090 2.05725E+01 2.83156E+01 8.63636E+00
 -1     11091 2.26606E+01 2.65322E+01 9.09091E+00
 -1     11092 1.98378E+01 2.73043E+01 9.09091E+00
 -1     11097 2.05725E+01 2.83156E+01 9.54545E+00
 -1     11101 1.58897E+01 3.11852E+01 4.54545E-01
 -1     11102 1.82311E+01 2.97504E+01 9.09091E-01
 -1     11103 1.53222E+01 3.00715E+01 9.09091E-01
 -1     11108 1.58897E+01 3.11852E+01 1.36364E+00
 -1     11109 1.82311E+01 2.97504E+01 1.81818E+00
 -1     11110 1.53222E+01 3.00715E+01 1.81818E+00
 -1     11115 1.58897E+01 3.11852E+01 2.27273E+00
 -1     11116 1.82311E+01 2.97504E+01 2.72727E+00
 -1     11117 1.53222E+01 3.00715E+01 2.72727E+00
 -1     11122 1.58897E+01 3.11852E+01 3.18182E+00
 -1     11123 1.82311E+01 2.97504E+01 3.63636E+00
 -1     11124 1.53222E+01 3.00715E+01 3.63636E+00
 -1     11129 1.58897E+01 3.11852E+01 4.09091E+00
 -1     11130 1.82311E+01 2.97504E+01 4.54545E+00
 -1     11131 1.53222E+01 3.00715E+01 4.54545E+00
 -1     11136 1.58897E+01 3.11852E+01 5.00000E+00
 -1     11137 1.82311E+01 2.97504E+01 5.45455E+00
 -1     11138 1.53222E+01 3.00715E+01 5.45455E+00
 -1     11143 1.58897E+01 3.11852E+01 5.90909E+00
 -1     11144 1.82311E+01 2.97504E+01 6.36364E+00
 -1     11145 1.53222E+01 3.00715E+01 6.36364E+00
 -1     11150 1.58897E+01 3.11852E+01 6.81818E+00
 -1     11151 1.82311E+01 2.97504E+01 7.27273E+00
 -1     11152 1.53222E+01 3.00715E+01 7.27273E+00
 -1     11157 1.58897E+01 3.11852E+01 7.72727E+00
 -1     11158 1.82311E+01 2.97504E+01 8.18182E+00
 -1     11159 1.53222E+01 3.00715E+01 8.18182E+00
 -1     11164 1.58897E+01 3.11852E+01 8.63636E+00
 -1     11165 1.82311E+01 2.97504E+01 9.09091E+00
 -1     11166 1.53222E+01 3.00715E+01 9.09091E+00
 -1     11171 1.58897E+01 3.11852E+01 9.54545E+00
 -1     11175 1.08156E+01 3.32870E+01 4.54545E-01
 -1     11176 1.33526E+01 3.22361E+01 9.09091E-01
 -1     11177 1.04293E+01 3.20982E+01 9.09091E-01
 -1     11182 1.08156E+01 3.32870E+01 1.36364E+00
 -1     11183 1.33526E+01 3.22361E+01 1.81818E+00
 -1     11184 1.04293E+01 3.20982E+01 1.81818E+00
 -1     11189 1.08156E+01 3.32870E+01 2.27273E+00
 -1     11190 1.33526E+01 3.22361E+01 2.72727E+00
 -1     11191 1.04293E+01 3.20982E+01 2.72727E+00
 -1     11196 1.08156E+01 3.32870E+01 3.18182E+00
 -1     11197 1.33526E+01 3.22361E+01 3.63636E+00
 -1     11198 1.04293E+01 3.20982E+01 3.63636E+00
 -1     11203 1.08156E+01 3.32870E+01 4.09091E+00
 -1     11204 1.33526E+01 3.22361E+01 4.54545E+00
 -1     11205 1.04293E+01 3.20982E+01 4.54545E+00
 -1     11210 1.08156E+01 3.32870E+01 5.00000E+00
 -1     11211 1.33526E+01 3.22361E+01 5.45455E+00
 -1     11212 1.04293E+01 3.20982E+01 5.45455E+00
 -1     11217 1.08156E+01 3.32870E+01 5.90909E+00
 -1     11218 1.33526E+01 3.22361E+01 6.36364E+00
 -1     11219 1.04293E+01 3.20982E+01 6.36364E+00
 -1     11224 1.08156E+01 3.32870E+01 6.81818E+00
 -1     11225 1.33526E+01 3.22361E+01 7.27273E+00
 -1     11226 1.04293E+01 3.20982E+01 7.27273E+00
 -1     11231 1.08156E+01 3.32870E+01 7.72727E+00
 -1     11232 1.33526E+01 3.22361E+01 8.18182E+00
 -1     11233 1.04293E+01 3.20982E+01 8.18182E+00
 -1     11238 1.08156E+01 3.32870E+01 8.63636E+00
 -1     11239 1.33526E+01 3.22361E+01 9.09091E+00
 -1     11240 1.04293E+01 3.20982E+01 9.09091E+00
 -1     11245 1.08156E+01 3.32870E+01 9.54545E+00
 -1     11249 5.47521E+00 3.45691E+01 4.54545E-01
 -1     11250 8.14540E+00 3.39280E+01 9.09091E-01
 -1     11251 5.27966E+00 3.33345E+01 9.09091E-01
 -1     11256 5.47521E+00 3.45691E+01 1.36364E+00
 -1     11257 8.14540E+00 3.39280E+01 1.81818E+00
 -1     11258 5.27966E+00 3.33345E+01 1.81818E+00
 -1     11263 5.47521E+00 3.45691E+01 2.27273E+00
 -1     11264 8.14540E+00 3.39280E+01 2.72727E+00
 -1     11265 5.27966E+00 3.33345E+01 2.72727E+00
 -1     11270 5.47521E+00 3.45691E+01 3.18182E+00
 -1     11271 8.14540E+00 3.39280E+01 3.63636E+00
 -1     11272 5.27966E+00 3.33345E+01 3.63636E+00
 -1     11277 5.47521E+00 3.45691E+01 4.09091E+00
 -1     11278 8.14540E+00 3.39280E+01 4.54545E+00
 -1     11279 5.27966E+00 3.33345E+01 4.54545E+00
 -1     11284 5.47521E+00 3.45691E+01 5.00000E+00
 -1     11285 8.14540E+00 3.39280E+01 5.45455E+00
 -1     11286 5.27966E+00 3.33345E+01 5.45455E+00
 -1     11291 5.47521E+00 3.45691E+01 5.90909E+00
 -1     11292 8.14540E+00 3.39280E+01 6.36364E+00
 -1     11293 5.27966E+00 3.33345E+01 6.36364E+00
 -1     11298 5.47521E+00 3.45691E+01 6.81818E+00
 -1     11299 8.14540E+00 3.39280E+01 7.27273E+00
 -1     11300 5.27966E+00 3.33345E+01 7.27273E+00
 -1     11305 5.47521E+00 3.45691E+01 7.72727E+00
 -1     11306 8.14540E+00 3.39280E+01 8.18182E+00
 -1     11307 5.27966E+00 3.33345E+01 8.18182E+00
 -1     11312 5.47521E+00 3.45691E+01 8.63636E+00
 -1     11313 8.14540E+00 3.39280E+01 9.09091E+00
 -1     11314 5.27966E+00 3.33345E+01 9.09091E+00
 -1     11319 5.47521E+00 3.45691E+01 9.54545E+00
 -1     11323 2.73760E+00 3.47845E+01 9.09091E-01
 -1     11327 2.73760E+00 3.47845E+01 1.81818E+00
 -1     11331 2.73760E+00 3.47845E+01 2.72727E+00
 -1     11335 2.73760E+00 3.47845E+01 3.63636E+00
 -1     11339 2.73760E+00 3.47845E+01 4.54545E+00
 -1     11343 2.73760E+00 3.47845E+01 5.45455E+00
 -1     11347 2.73760E+00 3.47845E+01 6.36364E+00
 -1     11351 2.73760E+00 3.47845E+01 7.27273E+00
 -1     11355 2.73760E+00 3.47845E+01 8.18182E+00
 -1     11359 2.73760E+00 3.47845E+01 9.09091E+00
 -1     11365 3.70383E+01 5.86629E+00 4.54545E-01
 -1     11366 3.72692E+01 2.93315E+00 9.09091E-01
 -1     11367 3.58037E+01 5.67075E+00 9.09091E-01
 -1     11372 3.70383E+01 5.86629E+00 1.36364E+00
 -1     11373 3.72692E+01 2.93315E+00 1.81818E+00
 -1     11374 3.58037E+01 5.67075E+00 1.81818E+00
 -1     11379 3.70383E+01 5.86629E+00 2.27273E+00
 -1     11380 3.72692E+01 2.93315E+00 2.72727E+00
 -1     11381 3.58037E+01 5.67075E+00 2.72727E+00
 -1     11386 3.70383E+01 5.86629E+00 3.18182E+00
 -1     11387 3.72692E+01 2.93315E+00 3.63636E+00
 -1     11388 3.58037E+01 5.67075E+00 3.63636E+00
 -1     11393 3.70383E+01 5.86629E+00 4.09091E+00
 -1     11394 3.72692E+01 2.93315E+00 4.54545E+00
 -1     11395 3.58037E+01 5.67075E+00 4.54545E+00
 -1     11400 3.70383E+01 5.86629E+00 5.00000E+00
 -1     11401 3.72692E+01 2.93315E+00 5.45455E+00
 -1     11402 3.58037E+01 5.67075E+00 5.45455E+00
 -1     11407 3.70383E+01 5.86629E+00 5.90909E+00
 -1     11408 3.72692E+01 2.93315E+00 6.36364E+00
 -1     11409 3.58037E+01 5.67075E+00 6.36364E+00
 -1     11414 3.70383E+01 5.86629E+00 6.81818E+00
 -1     11415 3.72692E+01 2.93315E+00 7.27273E+00
 -1     11416 3.58037E+01 5.67075E+00 7.27273E+00
 -1     11421 3.70383E+01 5.86629E+00 7.72727E+00
 -1     11422 3.72692E+01 2.93315E+00 8.18182E+00
 -1     11423 3.58037E+01 5.67075E+00 8.18182E+00
 -1     11428 3.70383E+01 5.86629E+00 8.63636E+00
 -1     11429 3.72692E+01 2.93315E+00 9.09091E+00
 -1     11430 3.58037E+01 5.67075E+00 9.09091E+00
 -1     11435 3.70383E+01 5.86629E+00 9.54545E+00
 -1     11439 3.56646E+01 1.15881E+01 4.54545E-01
 -1     11440 3.63515E+01 8.72721E+00 9.09091E-01
 -1     11441 3.44758E+01 1.12019E+01 9.09091E-01
 -1     11446 3.56646E+01 1.15881E+01 1.36364E+00
 -1     11447 3.63515E+01 8.72721E+00 1.81818E+00
 -1     11448 3.44758E+01 1.12019E+01 1.81818E+00
 -1     11453 3.56646E+01 1.15881E+01 2.27273E+00
 -1     11454 3.63515E+01 8.72721E+00 2.72727E+00
 -1     11455 3.44758E+01 1.12019E+01 2.72727E+00
 -1     11460 3.56646E+01 1.15881E+01 3.18182E+00
 -1     11461 3.63515E+01 8.72721E+00 3.63636E+00
 -1     11462 3.44758E+01 1.12019E+01 3.63636E+00
 -1     11467 3.56646E+01 1.15881E+01 4.09091E+00
 -1     11468 3.63515E+01 8.72721E+00 4.54545E+00
 -1     11469 3.44758E+01 1.12019E+01 4.54545E+00
 -1     11474 3.56646E+01 1.15881E+01 5.00000E+00
 -1     11475 3.63515E+01 8.72721E+00 5.45455E+00
 -1     11476 3.44758E+01 1.12019E+01 5.45455E+00
 -1     11481 3.56646E+01 1.15881E+01 5.90909E+00
 -1     11482 3.63515E+01 8.72721E+00 6.36364E+00
 -1     11483 3.44758E+01 1.12019E+01 6.36364E+00
 -1     11488 3.56646E+01 1.15881E+01 6.81818E+00
 -1     11489 3.63515E+01 8.72721E+00 7.27273E+00
 -1     11490 3.44758E+01 1.12019E+01 7.27273E+00
 -1     11495 3.56646E+01 1.15881E+01 7.72727E+00
 -1     11496 3.63515E+01 8.72721E+00 8.18182E+00
 -1     11497 3.44758E+01 1.12019E+01 8.18182E+00
 -1     11502 3.56646E+01 1.15881E+01 8.63636E+00
 -1     11503 3.63515E+01 8.72721E+00 9.09091E+00
 -1     11504 3.44758E+01 1.12019E+01 9.09091E+00
 -1     11509 3.56646E+01 1.15881E+01 9.54545E+00
 -1     11513 3.34127E+01 1.70246E+01 4.54545E-01
 -1     11514 3.45387E+01 1.43064E+01 9.09091E-01
 -1     11515 3.22990E+01 1.64572E+01 9.09091E-01
 -1     11520 3.34127E+01 1.70246E+01 1.36364E+00
 -1     11521 3.45387E+01 1.43064E+01 1.81818E+00
 -1     11522 3.22990E+01 1.64572E+01 1.81818E+00
 -1     11527 3.34127E+01 1.70246E+01 2.27273E+00
 -1     11528 3.45387E+01 1.43064E+01 2.72727E+00
 -1     11529 3.22990E+01 1.64572E+01 2.72727E+00
 -1     11534 3.34127E+01 1.70246E+01 3.18182E+00
 -1     11535 3.45387E+01 1.43064E+01 3.63636E+00
 -1     11536 3.22990E+01 1.64572E+01 3.63636E+00
 -1     11541 3.34127E+01 1.70246E+01 4.09091E+00
 -1     11542 3.45387E+01 1.43064E+01 4.54545E+00
 -1     11543 3.22990E+01 1.64572E+01 4.54545E+00
 -1     11548 3.34127E+01 1.70246E+01 5.00000E+00
 -1     11549 3.45387E+01 1.43064E+01 5.45455E+00
 -1     11550 3.22990E+01 1.64572E+01 5.45455E+00
 -1     11555 3.34127E+01 1.70246E+01 5.90909E+00
 -1     11556 3.45387E+01 1.43064E+01 6.36364E+00
 -1     11557 3.22990E+01 1.64572E+01 6.36364E+00
 -1     11562 3.34127E+01 1.70246E+01 6.81818E+00
 -1     11563 3.45387E+01 1.43064E+01 7.27273E+00
 -1     11564 3.22990E+01 1.64572E+01 7.27273E+00
 -1     11569 3.34127E+01 1.70246E+01 7.72727E+00
 -1     11570 3.45387E+01 1.43064E+01 8.18182E+00
 -1     11571 3.22990E+01 1.64572E+01 8.18182E+00
 -1     11576 3.34127E+01 1.70246E+01 8.63636E+00
 -1     11577 3.45387E+01 1.43064E+01 9.09091E+00
 -1     11578 3.22990E+01 1.64572E+01 9.09091E+00
 -1     11583 3.34127E+01 1.70246E+01 9.54545E+00
 -1     11587 3.03381E+01 2.20419E+01 4.54545E-01
 -1     11588 3.18754E+01 1.95333E+01 9.09091E-01
 -1     11589 2.93269E+01 2.13072E+01 9.09091E-01
 -1     11594 3.03381E+01 2.20419E+01 1.36364E+00
 -1     11595 3.18754E+01 1.95333E+01 1.81818E+00
 -1     11596 2.93269E+01 2.13072E+01 1.81818E+00
 -1     11601 3.03381E+01 2.20419E+01 2.27273E+00
 -1     11602 3.18754E+01 1.95333E+01 2.72727E+00
 -1     11603 2.93269E+01 2.13072E+01 2.72727E+00
 -1     11608 3.03381E+01 2.20419E+01 3.18182E+00
 -1     11609 3.18754E+01 1.95333E+01 3.63636E+00
 -1     11610 2.93269E+01 2.13072E+01 3.63636E+00
 -1     11615 3.03381E+01 2.20419E+01 4.09091E+00
 -1     11616 3.18754E+01 1.95333E+01 4.54545E+00
 -1     11617 2.93269E+01 2.13072E+01 4.54545E+00
 -1     11622 3.03381E+01 2.20419E+01 5.00000E+00
 -1     11623 3.18754E+01 1.95333E+01 5.45455E+00
 -1     11624 2.93269E+01 2.13072E+01 5.45455E+00
 -1     11629 3.03381E+01 2.20419E+01 5.90909E+00
 -1     11630 3.18754E+01 1.95333E+01 6.36364E+00
 -1     11631 2.93269E+01 2.13072E+01 6.36364E+00
 -1     11636 3.03381E+01 2.20419E+01 6.81818E+00
 -1     11637 3.18754E+01 1.95333E+01 7.27273E+00
 -1     11638 2.93269E+01 2.13072E+01 7.27273E+00
 -1     11643 3.03381E+01 2.20419E+01 7.72727E+00
 -1     11644 3.18754E+01 1.95333E+01 8.18182E+00
 -1     11645 2.93269E+01 2.13072E+01 8.18182E+00
 -1     11650 3.03381E+01 2.20419E+01 8.63636E+00
 -1     11651 3.18754E+01 1.95333E+01 9.09091E+00
 -1     11652 2.93269E+01 2.13072E+01 9.09091E+00
 -1     11657 3.03381E+01 2.20419E+01 9.54545E+00
 -1     11661 2.65165E+01 2.65165E+01 4.54545E-01
 -1     11662 2.84273E+01 2.42792E+01 9.09091E-01
 -1     11663 2.56326E+01 2.56326E+01 9.09091E-01
 -1     11668 2.65165E+01 2.65165E+01 1.36364E+00
 -1     11669 2.84273E+01 2.42792E+01 1.81818E+00
 -1     11670 2.56326E+01 2.56326E+01 1.81818E+00
 -1     11675 2.65165E+01 2.65165E+01 2.27273E+00
 -1     11676 2.84273E+01 2.42792E+01 2.72727E+00
 -1     11677 2.56326E+01 2.56326E+01 2.72727E+00
 -1     11682 2.65165E+01 2.65165E+01 3.18182E+00
 -1     11683 2.84273E+01 2.42792E+01 3.63636E+00
 -1     11684 2.56326E+01 2.56326E+01 3.63636E+00
 -1     11689 2.65165E+01 2.65165E+01 4.09091E+00
 -1     11690 2.84273E+01 2.42792E+01 4.54545E+00
 -1     11691 2.56326E+01 2.56326E+01 4.54545E+00
 -1     11696 2.65165E+01 2.65165E+01 5.00000E+00
 -1     11697 2.84273E+01 2.42792E+01 5.45455E+00
 -1     11698 2.56326E+01 2.56326E+01 5.45455E+00
 -1     11703 2.65165E+01 2.65165E+01 5.90909E+00
 -1     11704 2.84273E+01 2.42792E+01 6.36364E+00
 -1     11705 2.56326E+01 2.56326E+01 6.36364E+00
 -1     11710 2.65165E+01 2.65165E+01 6.81818E+00
 -1     11711 2.84273E+01 2.42792E+01 7.27273E+00
 -1     11712 2.56326E+01 2.56326E+01 7.27273E+00
 -1     11717 2.65165E+01 2.65165E+01 7.72727E+00
 -1     11718 2.84273E+01 2.42792E+01 8.18182E+00
 -1     11719 2.56326E+01 2.56326E+01 8.18182E+00
 -1     11724 2.65165E+01 2.65165E+01 8.63636E+00
 -1     11725 2.84273E+01 2.42792E+01 9.09091E+00
 -1     11726 2.56326E+01 2.56326E+01 9.09091E+00
 -1     11731 2.65165E+01 2.65165E+01 9.54545E+00
 -1     11735 2.20419E+01 3.03381E+01 4.54545E-01
 -1     11736 2.42792E+01 2.84273E+01 9.09091E-01
 -1     11737 2.13072E+01 2.93269E+01 9.09091E-01
 -1     11742 2.20419E+01 3.03381E+01 1.36364E+00
 -1     11743 2.42792E+01 2.84273E+01 1.81818E+00
 -1     11744 2.13072E+01 2.93269E+01 1.81818E+00
 -1     11749 2.20419E+01 3.03381E+01 2.27273E+00
 -1     11750 2.42792E+01 2.84273E+01 2.72727E+00
 -1     11751 2.13072E+01 2.93269E+01 2.72727E+00
 -1     11756 2.20419E+01 3.03381E+01 3.18182E+00
 -1     11757 2.42792E+01 2.84273E+01 3.63636E+00
 -1     11758 2.13072E+01 2.93269E+01 3.63636E+00
 -1     11763 2.20419E+01 3.03381E+01 4.09091E+00
 -1     11764 2.42792E+01 2.84273E+01 4.54545E+00
 -1     11765 2.13072E+01 2.93269E+01 4.54545E+00
 -1     11770 2.20419E+01 3.03381E+01 5.00000E+00
 -1     11771 2.42792E+01 2.84273E+01 5.45455E+00
 -1     11772 2.13072E+01 2.93269E+01 5.45455E+00
 -1     11777 2.20419E+01 3.03381E+01 5.90909E+00
 -1     11778 2.42792E+01 2.84273E+01 6.36364E+00
 -1     11779 2.13072E+01 2.93269E+01 6.36364E+00
 -1     11784 2.20419E+01 3.03381E+01 6.81818E+00
 -1     11785 2.42792E+01 2.84273E+01 7.27273E+00
 -1     11786 2.13072E+01 2.93269E+01 7.27273E+00
 -1     11791 2.20419E+01 3.03381E+01 7.72727E+00
 -1     11792 2.42792E+01 2.84273E+01 8.18182E+00
 -1     11793 2.13072E+01 2.93269E+01 8.18182E+00
 -1     11798 2.20419E+01 3.03381E+01 8.63636E+00
 -1     11799 2.42792E+01 2.84273E+01 9.09091E+00
 -1     11800 2.13072E+01 2.93269E+01 9.09091E+00
 -1     11805 2.20419E+01 3.03381E+01 9.54545E+00
 -1     11809 1.70246E+01 3.34127E+01 4.54545E-01
 -1     11810 1.95333E+01 3.18754E+01 9.09091E-01
 -1     11811 1.64572E+01 3.22990E+01 9.09091E-01
 -1     11816 1.70246E+01 3.34127E+01 1.36364E+00
 -1     11817 1.95333E+01 3.18754E+01 1.81818E+00
 -1     11818 1.64572E+01 3.22990E+01 1.81818E+00
 -1     11823 1.70246E+01 3.34127E+01 2.27273E+00
 -1     11824 1.95333E+01 3.18754E+01 2.72727E+00
 -1     11825 1.64572E+01 3.22990E+01 2.72727E+00
 -1     11830 1.70246E+01 3.34127E+01 3.18182E+00
 -1     11831 1.95333E+01 3.18754E+01 3.63636E+00
 -1     11832 1.64572E+01 3.22990E+01 3.63636E+00
 -1     11837 1.70246E+01 3.34127E+01 4.09091E+00
 -1     11838 1.95333E+01 3.18754E+01 4.54545E+00
 -1     11839 1.64572E+01 3.22990E+01 4.54545E+00
 -1     11844 1.70246E+01 3.34127E+01 5.00000E+00
 -1     11845 1.95333E+01 3.18754E+01 5.45455E+00
 -1     11846 1.64572E+01 3.22990E+01 5.45455E+00
 -1     11851 1.70246E+01 3.34127E+01 5.90909E+00
 -1     11852 1.95333E+01 3.18754E+01 6.36364E+00
 -1     11853 1.64572E+01 3.22990E+01 6.36364E+00
 -1     11858 1.70246E+01 3.34127E+01 6.81818E+00
 -1     11859 1.95333E+01 3.18754E+01 7.27273E+00
 -1     11860 1.64572E+01 3.22990E+01 7.27273E+00
 -1     11865 1.70246E+01 3.34127E+01 7.72727E+00
 -1     11866 1.95333E+01 3.18754E+01 8.18182E+00
 -1     11867 1.64572E+01 3.22990E+01 8.18182E+00
 -1     11872 1.70246E+01 3.34127E+01 8.63636E+00
 -1     11873 1.95333E+01 3.18754E+01 9.09091E+00
 -1     11874 1.64572E+01 3.22990E+01 9.09091E+00
 -1     11879 1.70246E+01 3.34127E+01 9.54545E+00
 -1     11883 1.15881E+01 3.56646E+01 4.54545E-01
 -1     11884 1.43064E+01 3.45387E+01 9.09091E-01
 -1     11885 1.12019E+01 3.44758E+01 9.09091E-01
 -1     11890 1.15881E+01 3.56646E+01 1.36364E+00
 -1     11891 1.43064E+01 3.45387E+01 1.81818E+00
 -1     11892 1.12019E+01 3.44758E+01 1.81818E+00
 -1     11897 1.15881E+01 3.56646E+01 2.27273E+00
 -1     11898 1.43064E+01 3.45387E+01 2.72727E+00
 -1     11899 1.12019E+01 3.44758E+01 2.72727E+00
 -1     11904 1.15881E+01 3.56646E+01 3.18182E+00
 -1     11905 1.43064E+01 3.45387E+01 3.63636E+00
 -1     11906 1.12019E+01 3.44758E+01 3.63636E+00
 -1     11911 1.15881E+01 3.56646E+01 4.09091E+00
 -1     11912 1.43064E+01 3.45387E+01 4.54545E+00
 -1     11913 1.12019E+01 3.44758E+01 4.54545E+00
 -1     11918 1.15881E+01 3.56646E+01 5.00000E+00
 -1     11919 1.43064E+01 3.45387E+01 5.45455E+00
 -1     11920 1.12019E+01 3.44758E+01 5.45455E+00
 -1     11925 1.15881E+01 3.56646E+01 5.90909E+00
 -1     11926 1.43064E+01 3.45387E+01 6.36364E+00
 -1     11927 1.12019E+01 3.44758E+01 6.36364E+00
 -1     11932 1.15881E+01 3.56646E+01 6.81818E+00
 -1     11933 1.43064E+01 3.45387E+01 7.27273E+00
 -1     11934 1.12019E+01 3.44758E+01 7.27273E+00
 -1     11939 1.15881E+01 3.56646E+01 7.72727E+00
 -1     11940 1.43064E+01 3.45387E+01 8.18182E+00
 -1     11941 1.12019E+01 3.44758E+01 8.18182E+00
 -1     11946 1.15881E+01 3.56646E+01 8.63636E+00
 -1     11947 1.43064E+01 3.45387E+01 9.09091E+00
 -1     11948 1.12019E+01 3.44758E+01 9.09091E+00
 -1     11953 1.15881E+01 3.56646E+01 9.54545E+00
 -1     11957 5.86629E+00 3.70383E+01 4.54545E-01
 -1     11958 8.72721E+00 3.63515E+01 9.09091E-01
 -1     11959 5.67075E+00 3.58037E+01 9.09091E-01
 -1     11964 5.86629E+00 3.70383E+01 1.36364E+00
 -1     11965 8.72721E+00 3.63515E+01 1.81818E+00
 -1     11966 5.67075E+00 3.58037E+01 1.81818E+00
 -1     11971 5.86629E+00 3.70383E+01 2.27273E+00
 -1     11972 8.72721E+00 3.63515E+01 2.72727E+00
 -1     11973 5.67075E+00 3.58037E+01 2.72727E+00
 -1     11978 5.86629E+00 3.70383E+01 3.18182E+00
 -1     11979 8.72721E+00 3.63515E+01 3.63636E+00
 -1     11980 5.67075E+00 3.58037E+01 3.63636E+00
 -1     11985 5.86629E+00 3.70383E+01 4.09091E+00
 -1     11986 8.72721E+00 3.63515E+01 4.54545E+00
 -1     11987 5.67075E+00 3.58037E+01 4.54545E+00
 -1     11992 5.86629E+00 3.70383E+01 5.00000E+00
 -1     11993 8.72721E+00 3.63515E+01 5.45455E+00
 -1     11994 5.67075E+00 3.58037E+01 5.45455E+00
 -1     11999 5.86629E+00 3.70383E+01 5.90909E+00
 -1     12000 8.72721E+00 3.63515E+01 6.36364E+00
 -1     12001 5.67075E+00 3.58037E+01 6.36364E+00
 -1     12006 5.86629E+00 3.70383E+01 6.81818E+00
 -1     12007 8.72721E+00 3.63515E+01 7.27273E+00
 -1     12008 5.67075E+00 3.58037E+01 7.27273E+00
 -1     12013 5.86629E+00 3.70383E+01 7.72727E+00
 -1     12014 8.72721E+00 3.63515E+01 8.18182E+00
 -1     12015 5.67075E+00 3.58037E+01 8.18182E+00
 -1     12020 5.86629E+00 3.70383E+01 8.63636E+00
 -1     12021 8.72721E+00 3.63515E+01 9.09091E+00
 -1     12022 5.67075E+00 3.58037E+01 9.09091E+00
 -1     12027 5.86629E+00 3.70383E+01 9.54545E+00
 -1     12031 2.93315E+00 3.72692E+01 9.09091E-01
 -1     12035 2.93315E+00 3.72692E+01 1.81818E+00
 -1     12039 2.93315E+00 3.72692E+01 2.72727E+00
 -1     12043 2.93315E+00 3.72692E+01 3.63636E+00
 -1     12047 2.93315E+00 3.72692E+01 4.54545E+00
 -1     12051 2.93315E+00 3.72692E+01 5.45455E+00
 -1     12055 2.93315E+00 3.72692E+01 6.36364E+00
 -1     12059 2.93315E+00 3.72692E+01 7.27273E+00
 -1     12063 2.93315E+00 3.72692E+01 8.18182E+00
 -1     12067 2.93315E+00 3.72692E+01 9.09091E+00
 -1     12073 3.95075E+01 6.25738E+00 4.54545E-01
 -1     12074 3.97538E+01 3.12869E+00 9.09091E-01
 -1     12075 3.82729E+01 6.06184E+00 9.09091E-01
 -1     12080 3.95075E+01 6.25738E+00 1.36364E+00
 -1     12081 3.97538E+01 3.12869E+00 1.81818E+00
 -1     12082 3.82729E+01 6.06184E+00 1.81818E+00
 -1     12087 3.95075E+01 6.25738E+00 2.27273E+00
 -1     12088 3.97538E+01 3.12869E+00 2.72727E+00
 -1     12089 3.82729E+01 6.06184E+00 2.72727E+00
 -1     12094 3.95075E+01 6.25738E+00 3.18182E+00
 -1     12095 3.97538E+01 3.12869E+00 3.63636E+00
 -1     12096 3.82729E+01 6.06184E+00 3.63636E+00
 -1     12101 3.95075E+01 6.25738E+00 4.09091E+00
 -1     12102 3.97538E+01 3.12869E+00 4.54545E+00
 -1     12103 3.82729E+01 6.06184E+00 4.54545E+00
 -1     12108 3.95075E+01 6.25738E+00 5.00000E+00
 -1     12109 3.97538E+01 3.12869E+00 5.45455E+00
 -1     12110 3.82729E+01 6.06184E+00 5.45455E+00
 -1     12115 3.95075E+01 6.25738E+00 5.90909E+00
 -1     12116 3.97538E+01 3.12869E+00 6.36364E+00
 -1     12117 3.82729E+01 6.06184E+00 6.36364E+00
 -1     12122 3.95075E+01 6.25738E+00 6.81818E+00
 -1     12123 3.97538E+01 3.12869E+00 7.27273E+00
 -1     12124 3.82729E+01 6.06184E+00 7.27273E+00
 -1     12129 3.95075E+01 6.25738E+00 7.72727E+00
 -1     12130 3.97538E+01 3.12869E+00 8.18182E+00
 -1     12131 3.82729E+01 6.06184E+00 8.18182E+00
 -1     12136 3.95075E+01 6.25738E+00 8.63636E+00
 -1     12137 3.97538E+01 3.12869E+00 9.09091E+00
 -1     12138 3.82729E+01 6.06184E+00 9.09091E+00
 -1     12143 3.95075E+01 6.25738E+00 9.54545E+00
 -1     12147 3.80423E+01 1.23607E+01 4.54545E-01
 -1     12148 3.87749E+01 9.30903E+00 9.09091E-01
 -1     12149 3.68534E+01 1.19744E+01 9.09091E-01
 -1     12154 3.80423E+01 1.23607E+01 1.36364E+00
 -1     12155 3.87749E+01 9.30903E+00 1.81818E+00
 -1     12156 3.68534E+01 1.19744E+01 1.81818E+00
 -1     12161 3.80423E+01 1.23607E+01 2.27273E+00
 -1     12162 3.87749E+01 9.30903E+00 2.72727E+00
 -1     12163 3.68534E+01 1.19744E+01 2.72727E+00
 -1     12168 3.80423E+01 1.23607E+01 3.18182E+00
 -1     12169 3.87749E+01 9.30903E+00 3.63636E+00
 -1     12170 3.68534E+01 1.19744E+01 3.63636E+00
 -1     12175 3.80423E+01 1.23607E+01 4.09091E+00
 -1     12176 3.87749E+01 9.30903E+00 4.54545E+00
 -1     12177 3.68534E+01 1.19744E+01 4.54545E+00
 -1     12182 3.80423E+01 1.23607E+01 5.00000E+00
 -1     12183 3.87749E+01 9.30903E+00 5.45455E+00
 -1     12184 3.68534E+01 1.19744E+01 5.45455E+00
 -1     12189 3.80423E+01 1.23607E+01 5.90909E+00
 -1     12190 3.87749E+01 9.30903E+00 6.36364E+00
 -1     12191 3.68534E+01 1.19744E+01 6.36364E+00
 -1     12196 3.80423E+01 1.23607E+01 6.81818E+00
 -1     12197 3.87749E+01 9.30903E+00 7.27273E+00
 -1     12198 3.68534E+01 1.19744E+01 7.27273E+00
 -1     12203 3.80423E+01 1.23607E+01 7.72727E+00
 -1     12204 3.87749E+01 9.30903E+00 8.18182E+00
 -1     12205 3.68534E+01 1.19744E+01 8.18182E+00
 -1     12210 3.80423E+01 1.23607E+01 8.63636E+00
 -1     12211 3.87749E+01 9.30903E+00 9.09091E+00
 -1     12212 3.68534E+01 1.19744E+01 9.09091E+00
 -1     12217 3.80423E+01 1.23607E+01 9.54545E+00
 -1     12221 3.56403E+01 1.81596E+01 4.54545E-01
 -1     12222 3.68413E+01 1.52601E+01 9.09091E-01
 -1     12223 3.45265E+01 1.75921E+01 9.09091E-01
 -1     12228 3.56403E+01 1.81596E+01 1.36364E+00
 -1     12229 3.68413E+01 1.52601E+01 1.81818E+00
 -1     12230 3.45265E+01 1.75921E+01 1.81818E+00
 -1     12235 3.56403E+01 1.81596E+01 2.27273E+00
 -1     12236 3.68413E+01 1.52601E+01 2.72727E+00
 -1     12237 3.45265E+01 1.75921E+01 2.72727E+00
 -1     12242 3.56403E+01 1.81596E+01 3.18182E+00
 -1     12243 3.68413E+01 1.52601E+01 3.63636E+00
 -1     12244 3.45265E+01 1.75921E+01 3.63636E+00
 -1     12249 3.56403E+01 1.81596E+01 4.09091E+00
 -1     12250 3.68413E+01 1.52601E+01 4.54545E+00
 -1     12251 3.45265E+01 1.75921E+01 4.54545E+00
 -1     12256 3.56403E+01 1.81596E+01 5.00000E+00
 -1     12257 3.68413E+01 1.52601E+01 5.45455E+00
 -1     12258 3.45265E+01 1.75921E+01 5.45455E+00
 -1     12263 3.56403E+01 1.81596E+01 5.90909E+00
 -1     12264 3.68413E+01 1.52601E+01 6.36364E+00
 -1     12265 3.45265E+01 1.75921E+01 6.36364E+00
 -1     12270 3.56403E+01 1.81596E+01 6.81818E+00
 -1     12271 3.68413E+01 1.52601E+01 7.27273E+00
 -1     12272 3.45265E+01 1.75921E+01 7.27273E+00
 -1     12277 3.56403E+01 1.81596E+01 7.72727E+00
 -1     12278 3.68413E+01 1.52601E+01 8.18182E+00
 -1     12279 3.45265E+01 1.75921E+01 8.18182E+00
 -1     12284 3.56403E+01 1.81596E+01 8.63636E+00
 -1     12285 3.68413E+01 1.52601E+01 9.09091E+00
 -1     12286 3.45265E+01 1.75921E+01 9.09091E+00
 -1     12291 3.56403E+01 1.81596E+01 9.54545E+00
 -1     12295 3.23607E+01 2.35114E+01 4.54545E-01
 -1     12296 3.40005E+01 2.08355E+01 9.09091E-01
 -1     12297 3.13494E+01 2.27767E+01 9.09091E-01
 -1     12302 3.23607E+01 2.35114E+01 1.36364E+00
 -1     12303 3.40005E+01 2.08355E+01 1.81818E+00
 -1     12304 3.13494E+01 2.27767E+01 1.81818E+00
 -1     12309 3.23607E+01 2.35114E+01 2.27273E+00
 -1     12310 3.40005E+01 2.08355E+01 2.72727E+00
 -1     12311 3.13494E+01 2.27767E+01 2.72727E+00
 -1     12316 3.23607E+01 2.35114E+01 3.18182E+00
 -1     12317 3.40005E+01 2.08355E+01 3.63636E+00
 -1     12318 3.13494E+01 2.27767E+01 3.63636E+00
 -1     12323 3.23607E+01 2.35114E+01 4.09091E+00
 -1     12324 3.40005E+01 2.08355E+01 4.54545E+00
 -1     12325 3.13494E+01 2.27767E+01 4.54545E+00
 -1     12330 3.23607E+01 2.35114E+01 5.00000E+00
 -1     12331 3.40005E+01 2.08355E+01 5.45455E+00
 -1     12332 3.13494E+01 2.27767E+01 5.45455E+00
 -1     12337 3.23607E+01 2.35114E+01 5.90909E+00
 -1     12338 3.40005E+01 2.08355E+01 6.36364E+00
 -1     12339 3.13494E+01 2.27767E+01 6.36364E+00
 -1     12344 3.23607E+01 2.35114E+01 6.81818E+00
 -1     12345 3.40005E+01 2.08355E+01 7.27273E+00
 -1     12346 3.13494E+01 2.27767E+01 7.27273E+00
 -1     12351 3.23607E+01 2.35114E+01 7.72727E+00
 -1     12352 3.40005E+01 2.08355E+01 8.18182E+00
 -1     12353 3.13494E+01 2.27767E+01 8.18182E+00
 -1     12358 3.23607E+01 2.35114E+01 8.63636E+00
 -1     12359 3.40005E+01 2.08355E+01 9.09091E+00
 -1     12360 3.13494E+01 2.27767E+01 9.09091E+00
 -1     12365 3.23607E+01 2.35114E+01 9.54545E+00
 -1     12369 2.82843E+01 2.82843E+01 4.54545E-01
 -1     12370 3.03225E+01 2.58978E+01 9.09091E-01
 -1     12371 2.74004E+01 2.74004E+01 9.09091E-01
 -1     12376 2.82843E+01 2.82843E+01 1.36364E+00
 -1     12377 3.03225E+01 2.58978E+01 1.81818E+00
 -1     12378 2.74004E+01 2.74004E+01 1.81818E+00
 -1     12383 2.82843E+01 2.82843E+01 2.27273E+00
 -1     12384 3.03225E+01 2.58978E+01 2.72727E+00
 -1     12385 2.74004E+01 2.74004E+01 2.72727E+00
 -1     12390 2.82843E+01 2.82843E+01 3.18182E+00
 -1     12391 3.03225E+01 2.58978E+01 3.63636E+00
 -1     12392 2.74004E+01 2.74004E+01 3.63636E+00
 -1     12397 2.82843E+01 2.82843E+01 4.09091E+00
 -1     12398 3.03225E+01 2.58978E+01 4.54545E+00
 -1     12399 2.74004E+01 2.74004E+01 4.54545E+00
 -1     12404 2.82843E+01 2.82843E+01 5.00000E+00
 -1     12405 3.03225E+01 2.58978E+01 5.45455E+00
 -1     12406 2.74004E+01 2.74004E+01 5.45455E+00
 -1     12411 2.82843E+01 2.82843E+01 5.90909E+00
 -1     12412 3.03225E+01 2.58978E+01 6.36364E+00
 -1     12413 2.74004E+01 2.74004E+01 6.36364E+00
 -1     12418 2.82843E+01 2.82843E+01 6.81818E+00
 -1     12419 3.03225E+01 2.58978E+01 7.27273E+00
 -1     12420 2.74004E+01 2.74004E+01 7.27273E+00
 -1     12425 2.82843E+01 2.82843E+01 7.72727E+00
 -1     12426 3.03225E+01 2.58978E+01 8.18182E+00
 -1     12427 2.74004E+01 2.74004E+01 8.18182E+00
 -1     12432 2.82843E+01 2.82843E+01 8.63636E+00
 -1     12433 3.03225E+01 2.58978E+01 9.09091E+00
 -1     12434 2.74004E+01 2.74004E+01 9.09091E+00
 -1     12439 2.82843E+01 2.82843E+01 9.54545E+00
 -1     12443 2.35114E+01 3.23607E+01 4.54545E-01
 -1     12444 2.58978E+01 3.03225E+01 9.09091E-01
 -1     12445 2.27767E+01 3.13494E+01 9.09091E-01
 -1     12450 2.35114E+01 3.23607E+01 1.36364E+00
 -1     12451 2.58978E+01 3.03225E+01 1.81818E+00
 -1     12452 2.27767E+01 3.13494E+01 1.81818E+00
 -1     12457 2.35114E+01 3.23607E+01 2.27273E+00
 -1     12458 2.58978E+01 3.03225E+01 2.72727E+00
 -1     12459 2.27767E+01 3.13494E+01 2.72727E+00
 -1     12464 2.35114E+01 3.23607E+01 3.18182E+00
 -1     12465 2.58978E+01 3.03225E+01 3.63636E+00
 -1     12466 2.27767E+01 3.13494E+01 3.63636E+00
 -1     12471 2.35114E+01 3.23607E+01 4.09091E+00
 -1     12472 2.58978E+01 3.03225E+01 4.54545E+00
 -1     12473 2.27767E+01 3.13494E+01 4.54545E+00
 -1     12478 2.35114E+01 3.23607E+01 5.00000E+00
 -1     12479 2.58978E+01 3.03225E+01 5.45455E+00
 -1     12480 2.27767E+01 3.13494E+01 5.45455E+00
 -1     12485 2.35114E+01 3.23607E+01 5.90909E+00
 -1     12486 2.58978E+01 3.03225E+01 6.36364E+00
 -1     12487 2.27767E+01 3.13494E+01 6.36364E+00
 -1     12492 2.35114E+01 3.23607E+01 6.81818E+00
 -1     12493 2.58978E+01 3.03225E+01 7.27273E+00
 -1     12494 2.27767E+01 3.13494E+01 7.27273E+00
 -1     12499 2.35114E+01 3.23607E+01 7.72727E+00
 -1     12500 2.58978E+01 3.03225E+01 8.18182E+00
 -1     12501 2.27767E+01 3.13494E+01 8.18182E+00
 -1     12506 2.35114E+01 3.23607E+01 8.63636E+00
 -1     12507 2.58978E+01 3.03225E+01 9.09091E+00
 -1     12508 2.27767E+01 3.13494E+01 9.09091E+00
 -1     12513 2.35114E+01 3.23607E+01 9.54545E+00
 -1     12517 1.81596E+01 3.56403E+01 4.54545E-01
 -1     12518 2.08355E+01 3.40005E+01 9.09091E-01
 -1     12519 1.75921E+01 3.45265E+01 9.09091E-01
 -1     12524 1.81596E+01 3.56403E+01 1.36364E+00
 -1     12525 2.08355E+01 3.40005E+01 1.81818E+00
 -1     12526 1.75921E+01 3.45265E+01 1.81818E+00
 -1     12531 1.81596E+01 3.56403E+01 2.27273E+00
 -1     12532 2.08355E+01 3.40005E+01 2.72727E+00
 -1     12533 1.75921E+01 3.45265E+01 2.72727E+00
 -1     12538 1.81596E+01 3.56403E+01 3.18182E+00
 -1     12539 2.08355E+01 3.40005E+01 3.63636E+00
 -1     12540 1.75921E+01 3.45265E+01 3.63636E+00
 -1     12545 1.81596E+01 3.56403E+01 4.09091E+00
 -1     12546 2.08355E+01 3.40005E+01 4.54545E+00
 -1     12547 1.75921E+01 3.45265E+01 4.54545E+00
 -1     12552 1.81596E+01 3.56403E+01 5.00000E+00
 -1     12553 2.08355E+01 3.40005E+01 5.45455E+00
 -1     12554 1.75921E+01 3.45265E+01 5.45455E+00
 -1     12559 1.81596E+01 3.56403E+01 5.90909E+00
 -1     12560 2.08355E+01 3.40005E+01 6.36364E+00
 -1     12561 1.75921E+01 3.45265E+01 6.36364E+00
 -1     12566 1.81596E+01 3.56403E+01 6.81818E+00
 -1     12567 2.08355E+01 3.40005E+01 7.27273E+00
 -1     12568 1.75921E+01 3.45265E+01 7.27273E+00
 -1     12573 1.81596E+01 3.56403E+01 7.72727E+00
 -1     12574 2.08355E+01 3.40005E+01 8.18182E+00
 -1     12575 1.75921E+01 3.45265E+01 8.18182E+00
 -1     12580 1.81596E+01 3.56403E+01 8.63636E+00
 -1     12581 2.08355E+01 3.40005E+01 9.09091E+00
 -1     12582 1.75921E+01 3.45265E+01 9.09091E+00
 -1     12587 1.81596E+01 3.56403E+01 9.54545E+00
 -1     12591 1.23607E+01 3.80423E+01 4.54545E-01
 -1     12592 1.52601E+01 3.68413E+01 9.09091E-01
 -1     12593 1.19744E+01 3.68534E+01 9.09091E-01
 -1     12598 1.23607E+01 3.80423E+01 1.36364E+00
 -1     12599 1.52601E+01 3.68413E+01 1.81818E+00
 -1     12600 1.19744E+01 3.68534E+01 1.81818E+00
 -1     12605 1.23607E+01 3.80423E+01 2.27273E+00
 -1     12606 1.52601E+01 3.68413E+01 2.72727E+00
 -1     12607 1.19744E+01 3.68534E+01 2.72727E+00
 -1     12612 1.23607E+01 3.80423E+01 3.18182E+00
 -1     12613 1.52601E+01 3.68413E+01 3.63636E+00
 -1     12614 1.19744E+01 3.68534E+01 3.63636E+00
 -1     12619 1.23607E+01 3.80423E+01 4.09091E+00
 -1     12620 1.52601E+01 3.68413E+01 4.54545E+00
 -1     12621 1.19744E+01 3.68534E+01 4.54545E+00
 -1     12626 1.23607E+01 3.80423E+01 5.00000E+00
 -1     12627 1.52601E+01 3.68413E+01 5.45455E+00
 -1     12628 1.19744E+01 3.68534E+01 5.45455E+00
 -1     12633 1.23607E+01 3.80423E+01 5.90909E+00
 -1     12634 1.52601E+01 3.68413E+01 6.36364E+00
 -1     12635 1.19744E+01 3.68534E+01 6.36364E+00
 -1     12640 1.23607E+01 3.80423E+01 6.81818E+00
 -1     12641 1.52601E+01 3.68413E+01 7.27273E+00
 -1     12642 1.19744E+01 3.68534E+01 7.27273E+00
 -1     12647 1.23607E+01 3.80423E+01 7.72727E+00
 -1     12648 1.52601E+01 3.68413E+01 8.18182E+00
 -1     12649 1.19744E+01 3.68534E+01 8.18182E+00
 -1     12654 1.23607E+01 3.80423E+01 8.63636E+00
 -1     12655 1.52601E+01 3.68413E+01 9.09091E+00
 -1     12656 1.19744E+01 3.68534E+01 9.09091E+00
 -1     12661 1.23607E+01 3.80423E+01 9.54545E+00
 -1     12665 6.25738E+00 3.95075E+01 4.54545E-01
 -1     12666 9.30903E+00 3.87749E+01 9.09091E-01
 -1     12667 6.06184E+00 3.82729E+01 9.09091E-01
 -1     12672 6.25738E+00 3.95075E+01 1.36364E+00
 -1     12673 9.30903E+00 3.87749E+01 1.81818E+00
 -1     12674 6.06184E+00 3.82729E+01 1.81818E+00
 -1     12679 6.25738E+00 3.95075E+01 2.27273E+00
 -1     12680 9.30903E+00 3.87749E+01 2.72727E+00
 -1     12681 6.06184E+00 3.82729E+01 2.72727E+00
 -1     12686 6.25738E+00 3.95075E+01 3.18182E+00
 -1     12687 9.30903E+00 3.87749E+01 3.63636E+00
 -1     12688 6.06184E+00 3.82729E+01 3.63636E+00
 -1     12693 6.25738E+00 3.95075E+01 4.09091E+00
 -1     12694 9.30903E+00 3.87749E+01 4.54545E+00
 -1     12695 6.06184E+00 3.82729E+01 4.54545E+00
 -1     12700 6.25738E+00 3.95075E+01 5.00000E+00
 -1     12701 9.30903E+00 3.87749E+01 5.45455E+00
 -1     12702 6.06184E+00 3.82729E+01 5.45455E+00
 -1     12707 6.25738E+00 3.95075E+01 5.90909E+00
 -1     12708 9.30903E+00 3.87749E+01 6.36364E+00
 -1     12709 6.06184E+00 3.82729E+01 6.36364E+00
 -1     12714 6.25738E+00 3.95075E+01 6.81818E+00
 -1     12715 9.30903E+00 3.87749E+01 7.27273E+00
 -1     12716 6.06184E+00 3.82729E+01 7.27273E+00
 -1     12721 6.25738E+00 3.95075E+01 7.72727E+00
 -1     12722 9.30903E+00 3.87749E+01 8.18182E+00
 -1     12723 6.06184E+00 3.82729E+01 8.18182E+00
 -1     12728 6.25738E+00 3.95075E+01 8.63636E+00
 -1     12729 9.30903E+00 3.87749E+01 9.09091E+00
 -1     12730 6.06184E+00 3.82729E+01 9.09091E+00
 -1     12735 6.25738E+00 3.95075E+01 9.54545E+00
 -1     12739 3.12869E+00 3.97538E+01 9.09091E-01
 -1     12743 3.12869E+00 3.97538E+01 1.81818E+00
 -1     12747 3.12869E+00 3.97538E+01 2.72727E+00
 -1     12751 3.12869E+00 3.97538E+01 3.63636E+00
 -1     12755 3.12869E+00 3.97538E+01 4.54545E+00
 -1     12759 3.12869E+00 3.97538E+01 5.45455E+00
 -1     12763 3.12869E+00 3.97538E+01 6.36364E+00
 -1     12767 3.12869E+00 3.97538E+01 7.27273E+00
 -1     12771 3.12869E+00 3.97538E+01 8.18182E+00
 -1     12775 3.12869E+00 3.97538E+01 9.09091E+00
 -1     12781 4.19768E+01 6.64846E+00 4.54545E-01
 -1     12782 4.22384E+01 3.32423E+00 9.09091E-01
 -1     12783 4.07421E+01 6.45292E+00 9.09091E-01
 -1     12788 4.19768E+01 6.64846E+00 1.36364E+00
 -1     12789 4.22384E+01 3.32423E+00 1.81818E+00
 -1     12790 4.07421E+01 6.45292E+00 1.81818E+00
 -1     12795 4.19768E+01 6.64846E+00 2.27273E+00
 -1     12796 4.22384E+01 3.32423E+00 2.72727E+00
 -1     12797 4.07421E+01 6.45292E+00 2.72727E+00
 -1     12802 4.19768E+01 6.64846E+00 3.18182E+00
 -1     12803 4.22384E+01 3.32423E+00 3.63636E+00
 -1     12804 4.07421E+01 6.45292E+00 3.63636E+00
 -1     12809 4.19768E+01 6.64846E+00 4.09091E+00
 -1     12810 4.22384E+01 3.32423E+00 4.54545E+00
 -1     12811 4.07421E+01 6.45292E+00 4.54545E+00
 -1     12816 4.19768E+01 6.64846E+00 5.00000E+00
 -1     12817 4.22384E+01 3.32423E+00 5.45455E+00
 -1     12818 4.07421E+01 6.45292E+00 5.45455E+00
 -1     12823 4.19768E+01 6.64846E+00 5.90909E+00
 -1     12824 4.22384E+01 3.32423E+00 6.36364E+00
 -1     12825 4.07421E+01 6.45292E+00 6.36364E+00
 -1     12830 4.19768E+01 6.64846E+00 6.81818E+00
 -1     12831 4.22384E+01 3.32423E+00 7.27273E+00
 -1     12832 4.07421E+01 6.45292E+00 7.27273E+00
 -1     12837 4.19768E+01 6.64846E+00 7.72727E+00
 -1     12838 4.22384E+01 3.32423E+00 8.18182E+00
 -1     12839 4.07421E+01 6.45292E+00 8.18182E+00
 -1     12844 4.19768E+01 6.64846E+00 8.63636E+00
 -1     12845 4.22384E+01 3.32423E+00 9.09091E+00
 -1     12846 4.07421E+01 6.45292E+00 9.09091E+00
 -1     12851 4.19768E+01 6.64846E+00 9.54545E+00
 -1     12855 4.04199E+01 1.31332E+01 4.54545E-01
 -1     12856 4.11983E+01 9.89084E+00 9.09091E-01
 -1     12857 3.92311E+01 1.27470E+01 9.09091E-01
 -1     12862 4.04199E+01 1.31332E+01 1.36364E+00
 -1     12863 4.11983E+01 9.89084E+00 1.81818E+00
 -1     12864 3.92311E+01 1.27470E+01 1.81818E+00
 -1     12869 4.04199E+01 1.31332E+01 2.27273E+00
 -1     12870 4.11983E+01 9.89084E+00 2.72727E+00
 -1     12871 3.92311E+01 1.27470E+01 2.72727E+00
 -1     12876 4.04199E+01 1.31332E+01 3.18182E+00
 -1     12877 4.11983E+01 9.89084E+00 3.63636E+00
 -1     12878 3.92311E+01 1.27470E+01 3.63636E+00
 -1     12883 4.04199E+01 1.31332E+01 4.09091E+00
 -1     12884 4.11983E+01 9.89084E+00 4.54545E+00
 -1     12885 3.92311E+01 1.27470E+01 4.54545E+00
 -1     12890 4.04199E+01 1.31332E+01 5.00000E+00
 -1     12891 4.11983E+01 9.89084E+00 5.45455E+00
 -1     12892 3.92311E+01 1.27470E+01 5.45455E+00
 -1     12897 4.04199E+01 1.31332E+01 5.90909E+00
 -1     12898 4.11983E+01 9.89084E+00 6.36364E+00
 -1     12899 3.92311E+01 1.27470E+01 6.36364E+00
 -1     12904 4.04199E+01 1.31332E+01 6.81818E+00
 -1     12905 4.11983E+01 9.89084E+00 7.27273E+00
 -1     12906 3.92311E+01 1.27470E+01 7.27273E+00
 -1     12911 4.04199E+01 1.31332E+01 7.72727E+00
 -1     12912 4.11983E+01 9.89084E+00 8.18182E+00
 -1     12913 3.92311E+01 1.27470E+01 8.18182E+00
 -1     12918 4.04199E+01 1.31332E+01 8.63636E+00
 -1     12919 4.11983E+01 9.89084E+00 9.09091E+00
 -1     12920 3.92311E+01 1.27470E+01 9.09091E+00
 -1     12925 4.04199E+01 1.31332E+01 9.54545E+00
 -1     12929 3.78678E+01 1.92946E+01 4.54545E-01
 -1     12930 3.91438E+01 1.62139E+01 9.09091E-01
 -1     12931 3.67540E+01 1.87271E+01 9.09091E-01
 -1     12936 3.78678E+01 1.92946E+01 1.36364E+00
 -1     12937 3.91438E+01 1.62139E+01 1.81818E+00
 -1     12938 3.67540E+01 1.87271E+01 1.81818E+00
 -1     12943 3.78678E+01 1.92946E+01 2.27273E+00
 -1     12944 3.91438E+01 1.62139E+01 2.72727E+00
 -1     12945 3.67540E+01 1.87271E+01 2.72727E+00
 -1     12950 3.78678E+01 1.92946E+01 3.18182E+00
 -1     12951 3.91438E+01 1.62139E+01 3.63636E+00
 -1     12952 3.67540E+01 1.87271E+01 3.63636E+00
 -1     12957 3.78678E+01 1.92946E+01 4.09091E+00
 -1     12958 3.91438E+01 1.62139E+01 4.54545E+00
 -1     12959 3.67540E+01 1.87271E+01 4.54545E+00
 -1     12964 3.78678E+01 1.92946E+01 5.00000E+00
 -1     12965 3.91438E+01 1.62139E+01 5.45455E+00
 -1     12966 3.67540E+01 1.87271E+01 5.45455E+00
 -1     12971 3.78678E+01 1.92946E+01 5.90909E+00
 -1     12972 3.91438E+01 1.62139E+01 6.36364E+00
 -1     12973 3.67540E+01 1.87271E+01 6.36364E+00
 -1     12978 3.78678E+01 1.92946E+01 6.81818E+00
 -1     12979 3.91438E+01 1.62139E+01 7.27273E+00
 -1     12980 3.67540E+01 1.87271E+01 7.27273E+00
 -1     12985 3.78678E+01 1.92946E+01 7.72727E+00
 -1     12986 3.91438E+01 1.62139E+01 8.18182E+00
 -1     12987 3.67540E+01 1.87271E+01 8.18182E+00
 -1     12992 3.78678E+01 1.92946E+01 8.63636E+00
 -1     12993 3.91438E+01 1.62139E+01 9.09091E+00
 -1     12994 3.67540E+01 1.87271E+01 9.09091E+00
 -1     12999 3.78678E+01 1.92946E+01 9.54545E+00
 -1     13003 3.43832E+01 2.49809E+01 4.54545E-01
 -1     13004 3.61255E+01 2.21377E+01 9.09091E-01
 -1     13005 3.33720E+01 2.42461E+01 9.09091E-01
 -1     13010 3.43832E+01 2.49809E+01 1.36364E+00
 -1     13011 3.61255E+01 2.21377E+01 1.81818E+00
 -1     13012 3.33720E+01 2.42461E+01 1.81818E+00
 -1     13017 3.43832E+01 2.49809E+01 2.27273E+00
 -1     13018 3.61255E+01 2.21377E+01 2.72727E+00
 -1     13019 3.33720E+01 2.42461E+01 2.72727E+00
 -1     13024 3.43832E+01 2.49809E+01 3.18182E+00
 -1     13025 3.61255E+01 2.21377E+01 3.63636E+00
 -1     13026 3.33720E+01 2.42461E+01 3.63636E+00
 -1     13031 3.43832E+01 2.49809E+01 4.09091E+00
 -1     13032 3.61255E+01 2.21377E+01 4.54545E+00
 -1     13033 3.33720E+01 2.42461E+01 4.54545E+00
 -1     13038 3.43832E+01 2.49809E+01 5.00000E+00
 -1     13039 3.61255E+01 2.21377E+01 5.45455E+00
 -1     13040 3.33720E+01 2.42461E+01 5.45455E+00
 -1     13045 3.43832E+01 2.49809E+01 5.90909E+00
 -1     13046 3.61255E+01 2.21377E+01 6.36364E+00
 -1     13047 3.33720E+01 2.42461E+01 6.36364E+00
 -1     13052 3.43832E+01 2.49809E+01 6.81818E+00
 -1     13053 3.61255E+01 2.21377E+01 7.27273E+00
 -1     13054 3.33720E+01 2.42461E+01 7.27273E+00
 -1     13059 3.43832E+01 2.49809E+01 7.72727E+00
 -1     13060 3.61255E+01 2.21377E+01 8.18182E+00
 -1     13061 3.33720E+01 2.42461E+01 8.18182E+00
 -1     13066 3.43832E+01 2.49809E+01 8.63636E+00
 -1     13067 3.61255E+01 2.21377E+01 9.09091E+00
 -1     13068 3.33720E+01 2.42461E+01 9.09091E+00
 -1     13073 3.43832E+01 2.49809E+01 9.54545E+00
 -1     13077 3.00520E+01 3.00520E+01 4.54545E-01
 -1     13078 3.22176E+01 2.75165E+01 9.09091E-01
 -1     13079 2.91682E+01 2.91682E+01 9.09091E-01
 -1     13084 3.00520E+01 3.00520E+01 1.36364E+00
 -1     13085 3.22176E+01 2.75165E+01 1.81818E+00
 -1     13086 2.91682E+01 2.91682E+01 1.81818E+00
 -1     13091 3.00520E+01 3.00520E+01 2.27273E+00
 -1     13092 3.22176E+01 2.75165E+01 2.72727E+00
 -1     13093 2.91682E+01 2.91682E+01 2.72727E+00
 -1     13098 3.00520E+01 3.00520E+01 3.18182E+00
 -1     13099 3.22176E+01 2.75165E+01 3.63636E+00
 -1     13100 2.91682E+01 2.91682E+01 3.63636E+00
 -1     13105 3.00520E+01 3.00520E+01 4.09091E+00
 -1     13106 3.22176E+01 2.75165E+01 4.54545E+00
 -1     13107 2.91682E+01 2.91682E+01 4.54545E+00
 -1     13112 3.00520E+01 3.00520E+01 5.00000E+00
 -1     13113 3.22176E+01 2.75165E+01 5.45455E+00
 -1     13114 2.91682E+01 2.91682E+01 5.45455E+00
 -1     13119 3.00520E+01 3.00520E+01 5.90909E+00
 -1     13120 3.22176E+01 2.75165E+01 6.36364E+00
 -1     13121 2.91682E+01 2.91682E+01 6.36364E+00
 -1     13126 3.00520E+01 3.00520E+01 6.81818E+00
 -1     13127 3.22176E+01 2.75165E+01 7.27273E+00
 -1     13128 2.91682E+01 2.91682E+01 7.27273E+00
 -1     13133 3.00520E+01 3.00520E+01 7.72727E+00
 -1     13134 3.22176E+01 2.75165E+01 8.18182E+00
 -1     13135 2.91682E+01 2.91682E+01 8.18182E+00
 -1     13140 3.00520E+01 3.00520E+01 8.63636E+00
 -1     13141 3.22176E+01 2.75165E+01 9.09091E+00
 -1     13142 2.91682E+01 2.91682E+01 9.09091E+00
 -1     13147 3.00520E+01 3.00520E+01 9.54545E+00
 -1     13151 2.49809E+01 3.43832E+01 4.54545E-01
 -1     13152 2.75165E+01 3.22176E+01 9.09091E-01
 -1     13153 2.42461E+01 3.33720E+01 9.09091E-01
 -1     13158 2.49809E+01 3.43832E+01 1.36364E+00
 -1     13159 2.75165E+01 3.22176E+01 1.81818E+00
 -1     13160 2.42461E+01 3.33720E+01 1.81818E+00
 -1     13165 2.49809E+01 3.43832E+01 2.27273E+00
 -1     13166 2.75165E+01 3.22176E+01 2.72727E+00
 -1     13167 2.42461E+01 3.33720E+01 2.72727E+00
 -1     13172 2.49809E+01 3.43832E+01 3.18182E+00
 -1     13173 2.75165E+01 3.22176E+01 3.63636E+00
 -1     13174 2.42461E+01 3.33720E+01 3.63636E+00
 -1     13179 2.49809E+01 3.43832E+01 4.09091E+00
 -1     13180 2.75165E+01 3.22176E+01 4.54545E+00
 -1     13181 2.42461E+01 3.33720E+01 4.54545E+00
 -1     13186 2.49809E+01 3.43832E+01 5.00000E+00
 -1     13187 2.75165E+01 3.22176E+01 5.45455E+00
 -1     13188 2.42461E+01 3.33720E+01 5.45455E+00
 -1     13193 2.49809E+01 3.43832E+01 5.90909E+00
 -1     13194 2.75165E+01 3.22176E+01 6.36364E+00
 -1     13195 2.42461E+01 3.33720E+01 6.36364E+00
 -1     13200 2.49809E+01 3.43832E+01 6.81818E+00
 -1     13201 2.75165E+01 3.22176E+01 7.27273E+00
 -1     13202 2.42461E+01 3.33720E+01 7.27273E+00
 -1     13207 2.49809E+01 3.43832E+01 7.72727E+00
 -1     13208 2.75165E+01 3.22176E+01 8.18182E+00
 -1     13209 2.42461E+01 3.33720E+01 8.18182E+00
 -1     13214 2.49809E+01 3.43832E+01 8.63636E+00
 -1     13215 2.75165E+01 3.22176E+01 9.09091E+00
 -1     13216 2.42461E+01 3.33720E+01 9.09091E+00
 -1     13221 2.49809E+01 3.43832E+01 9.54545E+00
 -1     13225 1.92946E+01 3.78678E+01 4.54545E-01
 -1     13226 2.21377E+01 3.61255E+01 9.09091E-01
 -1     13227 1.87271E+01 3.67540E+01 9.09091E-01
 -1     13232 1.92946E+01 3.78678E+01 1.36364E+00
 -1     13233 2.21377E+01 3.61255E+01 1.81818E+00
 -1     13234 1.87271E+01 3.67540E+01 1.81818E+00
 -1     13239 1.92946E+01 3.78678E+01 2.27273E+00
 -1     13240 2.21377E+01 3.61255E+01 2.72727E+00
 -1     13241 1.87271E+01 3.67540E+01 2.72727E+00
 -1     13246 1.92946E+01 3.78678E+01 3.18182E+00
 -1     13247 2.21377E+01 3.61255E+01 3.63636E+00
 -1     13248 1.87271E+01 3.67540E+01 3.63636E+00
 -1     13253 1.92946E+01 3.78678E+01 4.09091E+00
 -1     13254 2.21377E+01 3.61255E+01 4.54545E+00
 -1     13255 1.87271E+01 3.67540E+01 4.54545E+00
 -1     13260 1.92946E+01 3.78678E+01 5.00000E+00
 -1     13261 2.21377E+01 3.61255E+01 5.45455E+00
 -1     13262 1.87271E+01 3.67540E+01 5.45455E+00
 -1     13267 1.92946E+01 3.78678E+01 5.90909E+00
 -1     13268 2.21377E+01 3.61255E+01 6.36364E+00
 -1     13269 1.87271E+01 3.67540E+01 6.36364E+00
 -1     13274 1.92946E+01 3.78678E+01 6.81818E+00
 -1     13275 2.21377E+01 3.61255E+01 7.27273E+00
 -1     13276 1.87271E+01 3.67540E+01 7.27273E+00
 -1     13281 1.92946E+01 3.78678E+01 7.72727E+00
 -1     13282 2.21377E+01 3.61255E+01 8.18182E+00
 -1     13283 1.87271E+01 3.67540E+01 8.18182E+00
 -1     13288 1.92946E+01 3.78678E+01 8.63636E+00
 -1     13289 2.21377E+01 3.61255E+01 9.09091E+00
 -1     13290 1.87271E+01 3.67540E+01 9.09091E+00
 -1     13295 1.92946E+01 3.78678E+01 9.54545E+00
 -1     13299 1.31332E+01 4.04199E+01 4.54545E-01
 -1     13300 1.62139E+01 3.91438E+01 9.09091E-01
 -1     13301 1.27470E+01 3.92311E+01 9.09091E-01
 -1     13306 1.31332E+01 4.04199E+01 1.36364E+00
 -1     13307 1.62139E+01 3.91438E+01 1.81818E+00
 -1     13308 1.27470E+01 3.92311E+01 1.81818E+00
 -1     13313 1.31332E+01 4.04199E+01 2.27273E+00
 -1     13314 1.62139E+01 3.91438E+01 2.72727E+00
 -1     13315 1.27470E+01 3.92311E+01 2.72727E+00
 -1     13320 1.31332E+01 4.04199E+01 3.18182E+00
 -1     13321 1.62139E+01 3.91438E+01 3.63636E+00
 -1     13322 1.27470E+01 3.92311E+01 3.63636E+00
 -1     13327 1.31332E+01 4.04199E+01 4.09091E+00
 -1     13328 1.62139E+01 3.91438E+01 4.54545E+00
 -1     13329 1.27470E+01 3.92311E+01 4.54545E+00
 -1     13334 1.31332E+01 4.04199E+01 5.00000E+00
 -1     13335 1.62139E+01 3.91438E+01 5.45455E+00
 -1     13336 1.27470E+01 3.92311E+01 5.45455E+00
 -1     13341 1.31332E+01 4.04199E+01 5.90909E+00
 -1     13342 1.62139E+01 3.91438E+01 6.36364E+00
 -1     13343 1.27470E+01 3.92311E+01 6.36364E+00
 -1     13348 1.31332E+01 4.04199E+01 6.81818E+00
 -1     13349 1.62139E+01 3.91438E+01 7.27273E+00
 -1     13350 1.27470E+01 3.92311E+01 7.27273E+00
 -1     13355 1.31332E+01 4.04199E+01 7.72727E+00
 -1     13356 1.62139E+01 3.91438E+01 8.18182E+00
 -1     13357 1.27470E+01 3.92311E+01 8.18182E+00
 -1     13362 1.31332E+01 4.04199E+01 8.63636E+00
 -1     13363 1.62139E+01 3.91438E+01 9.09091E+00
 -1     13364 1.27470E+01 3.92311E+01 9.09091E+00
 -1     13369 1.31332E+01 4.04199E+01 9.54545E+00
 -1     13373 6.64846E+00 4.19768E+01 4.54545E-01
 -1     13374 9.89084E+00 4.11983E+01 9.09091E-01
 -1     13375 6.45292E+00 4.07421E+01 9.09091E-01
 -1     13380 6.64846E+00 4.19768E+01 1.36364E+00
 -1     13381 9.89084E+00 4.11983E+01 1.81818E+00
 -1     13382 6.45292E+00 4.07421E+01 1.81818E+00
 -1     13387 6.64846E+00 4.19768E+01 2.27273E+00
 -1     13388 9.89084E+00 4.11983E+01 2.72727E+00
 -1     13389 6.45292E+00 4.07421E+01 2.72727E+00
 -1     13394 6.64846E+00 4.19768E+01 3.18182E+00
 -1     13395 9.89084E+00 4.11983E+01 3.63636E+00
 -1     13396 6.45292E+00 4.07421E+01 3.63636E+00
 -1     13401 6.64846E+00 4.19768E+01 4.09091E+00
 -1     13402 9.89084E+00 4.11983E+01 4.54545E+00
 -1     13403 6.45292E+00 4.07421E+01 4.54545E+00
 -1     13408 6.64846E+00 4.19768E+01 5.00000E+00
 -1     13409 9.89084E+00 4.11983E+01 5.45455E+00
 -1     13410 6.45292E+00 4.07421E+01 5.45455E+00
 -1     13415 6.64846E+00 4.19768E+01 5.90909E+00
 -1     13416 9.89084E+00 4.11983E+01 6.36364E+00
 -1     13417 6.45292E+00 4.07421E+01 6.36364E+00
 -1     13422 6.64846E+00 4.19768E+01 6.81818E+00
 -1     13423 9.89084E+00 4.11983E+01 7.27273E+00
 -1     13424 6.45292E+00 4.07421E+01 7.27273E+00
 -1     13429 6.64846E+00 4.19768E+01 7.72727E+00
 -1     13430 9.89084E+00 4.11983E+01 8.18182E+00
 -1     13431 6.45292E+00 4.07421E+01 8.18182E+00
 -1     13436 6.64846E+00 4.19768E+01 8.63636E+00
 -1     13437 9.89084E+00 4.11983E+01 9.09091E+00
 -1     13438 6.45292E+00 4.07421E+01 9.09091E+00
 -1     13443 6.64846E+00 4.19768E+01 9.54545E+00
 -1     13447 3.32423E+00 4.22384E+01 9.09091E-01
 -1     13451 3.32423E+00 4.22384E+01 1.81818E+00
 -1     13455 3.32423E+00 4.22384E+01 2.72727E+00
 -1     13459 3.32423E+00 4.22384E+01 3.63636E+00
 -1     13463 3.32423E+00 4.22384E+01 4.54545E+00
 -1     13467 3.32423E+00 4.22384E+01 5.45455E+00
 -1     13471 3.32423E+00 4.22384E+01 6.36364E+00
 -1     13475 3.32423E+00 4.22384E+01 7.27273E+00
 -1     13479 3.32423E+00 4.22384E+01 8.18182E+00
 -1     13483 3.32423E+00 4.22384E+01 9.09091E+00
 -1     13489 4.44460E+01 7.03955E+00 4.54545E-01
 -1     13490 4.47230E+01 3.51978E+00 9.09091E-01
 -1     13491 4.32114E+01 6.84401E+00 9.09091E-01
 -1     13496 4.44460E+01 7.03955E+00 1.36364E+00
 -1     13497 4.47230E+01 3.51978E+00 1.81818E+00
 -1     13498 4.32114E+01 6.84401E+00 1.81818E+00
 -1     13503 4.44460E+01 7.03955E+00 2.27273E+00
 -1     13504 4.47230E+01 3.51978E+00 2.72727E+00
 -1     13505 4.32114E+01 6.84401E+00 2.72727E+00
 -1     13510 4.44460E+01 7.03955E+00 3.18182E+00
 -1     13511 4.47230E+01 3.51978E+00 3.63636E+00
 -1     13512 4.32114E+01 6.84401E+00 3.63636E+00
 -1     13517 4.44460E+01 7.03955E+00 4.09091E+00
 -1     13518 4.47230E+01 3.51978E+00 4.54545E+00
 -1     13519 4.32114E+01 6.84401E+00 4.54545E+00
 -1     13524 4.44460E+01 7.03955E+00 5.00000E+00
 -1     13525 4.47230E+01 3.51978E+00 5.45455E+00
 -1     13526 4.32114E+01 6.84401E+00 5.45455E+00
 -1     13531 4.44460E+01 7.03955E+00 5.90909E+00
 -1     13532 4.47230E+01 3.51978E+00 6.36364E+00
 -1     13533 4.32114E+01 6.84401E+00 6.36364E+00
 -1     13538 4.44460E+01 7.03955E+00 6.81818E+00
 -1     13539 4.47230E+01 3.51978E+00 7.27273E+00
 -1     13540 4.32114E+01 6.84401E+00 7.27273E+00
 -1     13545 4.44460E+01 7.03955E+00 7.72727E+00
 -1     13546 4.47230E+01 3.51978E+00 8.18182E+00
 -1     13547 4.32114E+01 6.84401E+00 8.18182E+00
 -1     13552 4.44460E+01 7.03955E+00 8.63636E+00
 -1     13553 4.47230E+01 3.51978E+00 9.09091E+00
 -1     13554 4.32114E+01 6.84401E+00 9.09091E+00
 -1     13559 4.44460E+01 7.03955E+00 9.54545E+00
 -1     13563 4.27975E+01 1.39058E+01 4.54545E-01
 -1     13564 4.36218E+01 1.04727E+01 9.09091E-01
 -1     13565 4.16087E+01 1.35195E+01 9.09091E-01
 -1     13570 4.27975E+01 1.39058E+01 1.36364E+00
 -1     13571 4.36218E+01 1.04727E+01 1.81818E+00
 -1     13572 4.16087E+01 1.35195E+01 1.81818E+00
 -1     13577 4.27975E+01 1.39058E+01 2.27273E+00
 -1     13578 4.36218E+01 1.04727E+01 2.72727E+00
 -1     13579 4.16087E+01 1.35195E+01 2.72727E+00
 -1     13584 4.27975E+01 1.39058E+01 3.18182E+00
 -1     13585 4.36218E+01 1.04727E+01 3.63636E+00
 -1     13586 4.16087E+01 1.35195E+01 3.63636E+00
 -1     13591 4.27975E+01 1.39058E+01 4.09091E+00
 -1     13592 4.36218E+01 1.04727E+01 4.54545E+00
 -1     13593 4.16087E+01 1.35195E+01 4.54545E+00
 -1     13598 4.27975E+01 1.39058E+01 5.00000E+00
 -1     13599 4.36218E+01 1.04727E+01 5.45455E+00
 -1     13600 4.16087E+01 1.35195E+01 5.45455E+00
 -1     13605 4.27975E+01 1.39058E+01 5.90909E+00
 -1     13606 4.36218E+01 1.04727E+01 6.36364E+00
 -1     13607 4.16087E+01 1.35195E+01 6.36364E+00
 -1     13612 4.27975E+01 1.39058E+01 6.81818E+00
 -1     13613 4.36218E+01 1.04727E+01 7.27273E+00
 -1     13614 4.16087E+01 1.35195E+01 7.27273E+00
 -1     13619 4.27975E+01 1.39058E+01 7.72727E+00
 -1     13620 4.36218E+01 1.04727E+01 8.18182E+00
 -1     13621 4.16087E+01 1.35195E+01 8.18182E+00
 -1     13626 4.27975E+01 1.39058E+01 8.63636E+00
 -1     13627 4.36218E+01 1.04727E+01 9.09091E+00
 -1     13628 4.16087E+01 1.35195E+01 9.09091E+00
 -1     13633 4.27975E+01 1.39058E+01 9.54545E+00
 -1     13637 4.00953E+01 2.04296E+01 4.54545E-01
 -1     13638 4.14464E+01 1.71677E+01 9.09091E-01
 -1     13639 3.89815E+01 1.98621E+01 9.09091E-01
 -1     13644 4.00953E+01 2.04296E+01 1.36364E+00
 -1     13645 4.14464E+01 1.71677E+01 1.81818E+00
 -1     13646 3.89815E+01 1.98621E+01 1.81818E+00
 -1     13651 4.00953E+01 2.04296E+01 2.27273E+00
 -1     13652 4.14464E+01 1.71677E+01 2.72727E+00
 -1     13653 3.89815E+01 1.98621E+01 2.72727E+00
 -1     13658 4.00953E+01 2.04296E+01 3.18182E+00
 -1     13659 4.14464E+01 1.71677E+01 3.63636E+00
 -1     13660 3.89815E+01 1.98621E+01 3.63636E+00
 -1     13665 4.00953E+01 2.04296E+01 4.09091E+00
 -1     13666 4.14464E+01 1.71677E+01 4.54545E+00
 -1     13667 3.89815E+01 1.98621E+01 4.54545E+00
 -1     13672 4.00953E+01 2.04296E+01 5.00000E+00
 -1     13673 4.14464E+01 1.71677E+01 5.45455E+00
 -1     13674 3.89815E+01 1.98621E+01 5.45455E+00
 -1     13679 4.00953E+01 2.04296E+01 5.90909E+00
 -1     13680 4.14464E+01 1.71677E+01 6.36364E+00
 -1     13681 3.89815E+01 1.98621E+01 6.36364E+00
 -1     13686 4.00953E+01 2.04296E+01 6.81818E+00
 -1     13687 4.14464E+01 1.71677E+01 7.27273E+00
 -1     13688 3.89815E+01 1.98621E+01 7.27273E+00
 -1     13693 4.00953E+01 2.04296E+01 7.72727E+00
 -1     13694 4.14464E+01 1.71677E+01 8.18182E+00
 -1     13695 3.89815E+01 1.98621E+01 8.18182E+00
 -1     13700 4.00953E+01 2.04296E+01 8.63636E+00
 -1     13701 4.14464E+01 1.71677E+01 9.09091E+00
 -1     13702 3.89815E+01 1.98621E+01 9.09091E+00
 -1     13707 4.00953E+01 2.04296E+01 9.54545E+00
 -1     13711 3.64058E+01 2.64503E+01 4.54545E-01
 -1     13712 3.82505E+01 2.34400E+01 9.09091E-01
 -1     13713 3.53945E+01 2.57156E+01 9.09091E-01
 -1     13718 3.64058E+01 2.64503E+01 1.36364E+00
 -1     13719 3.82505E+01 2.34400E+01 1.81818E+00
 -1     13720 3.53945E+01 2.57156E+01 1.81818E+00
 -1     13725 3.64058E+01 2.64503E+01 2.27273E+00
 -1     13726 3.82505E+01 2.34400E+01 2.72727E+00
 -1     13727 3.53945E+01 2.57156E+01 2.72727E+00
 -1     13732 3.64058E+01 2.64503E+01 3.18182E+00
 -1     13733 3.82505E+01 2.34400E+01 3.63636E+00
 -1     13734 3.53945E+01 2.57156E+01 3.63636E+00
 -1     13739 3.64058E+01 2.64503E+01 4.09091E+00
 -1     13740 3.82505E+01 2.34400E+01 4.54545E+00
 -1     13741 3.53945E+01 2.57156E+01 4.54545E+00
 -1     13746 3.64058E+01 2.64503E+01 5.00000E+00
 -1     13747 3.82505E+01 2.34400E+01 5.45455E+00
 -1     13748 3.53945E+01 2.57156E+01 5.45455E+00
 -1     13753 3.64058E+01 2.64503E+01 5.90909E+00
 -1     13754 3.82505E+01 2.34400E+01 6.36364E+00
 -1     13755 3.53945E+01 2.57156E+01 6.36364E+00
 -1     13760 3.64058E+01 2.64503E+01 6.81818E+00
 -1     13761 3.82505E+01 2.34400E+01 7.27273E+00
 -1     13762 3.53945E+01 2.57156E+01 7.27273E+00
 -1     13767 3.64058E+01 2.64503E+01 7.72727E+00
 -1     13768 3.82505E+01 2.34400E+01 8.18182E+00
 -1     13769 3.53945E+01 2.57156E+01 8.18182E+00
 -1     13774 3.64058E+01 2.64503E+01 8.63636E+00
 -1     13775 3.82505E+01 2.34400E+01 9.09091E+00
 -1     13776 3.53945E+01 2.57156E+01 9.09091E+00
 -1     13781 3.64058E+01 2.64503E+01 9.54545E+00
 -1     13785 3.18198E+01 3.18198E+01 4.54545E-01
 -1     13786 3.41128E+01 2.91351E+01 9.09091E-01
 -1     13787 3.09359E+01 3.09359E+01 9.09091E-01
 -1     13792 3.18198E+01 3.18198E+01 1.36364E+00
 -1     13793 3.41128E+01 2.91351E+01 1.81818E+00
 -1     13794 3.09359E+01 3.09359E+01 1.81818E+00
 -1     13799 3.18198E+01 3.18198E+01 2.27273E+00
 -1     13800 3.41128E+01 2.91351E+01 2.72727E+00
 -1     13801 3.09359E+01 3.09359E+01 2.72727E+00
 -1     13806 3.18198E+01 3.18198E+01 3.18182E+00
 -1     13807 3.41128E+01 2.91351E+01 3.63636E+00
 -1     13808 3.09359E+01 3.09359E+01 3.63636E+00
 -1     13813 3.18198E+01 3.18198E+01 4.09091E+00
 -1     13814 3.41128E+01 2.91351E+01 4.54545E+00
 -1     13815 3.09359E+01 3.09359E+01 4.54545E+00
 -1     13820 3.18198E+01 3.18198E+01 5.00000E+00
 -1     13821 3.41128E+01 2.91351E+01 5.45455E+00
 -1     13822 3.09359E+01 3.09359E+01 5.45455E+00
 -1     13827 3.18198E+01 3.18198E+01 5.90909E+00
 -1     13828 3.41128E+01 2.91351E+01 6.36364E+00
 -1     13829 3.09359E+01 3.09359E+01 6.36364E+00
 -1     13834 3.18198E+01 3.18198E+01 6.81818E+00
 -1     13835 3.41128E+01 2.91351E+01 7.27273E+00
 -1     13836 3.09359E+01 3.09359E+01 7.27273E+00
 -1     13841 3.18198E+01 3.18198E+01 7.72727E+00
 -1     13842 3.41128E+01 2.91351E+01 8.18182E+00
 -1     13843 3.09359E+01 3.09359E+01 8.18182E+00
 -1     13848 3.18198E+01 3.18198E+01 8.63636E+00
 -1     13849 3.41128E+01 2.91351E+01 9.09091E+00
 -1     13850 3.09359E+01 3.09359E+01 9.09091E+00
 -1     13855 3.18198E+01 3.18198E+01 9.54545E+00
 -1     13859 2.64503E+01 3.64058E+01 4.54545E-01
 -1     13860 2.91351E+01 3.41128E+01 9.09091E-01
 -1     13861 2.57156E+01 3.53945E+01 9.09091E-01
 -1     13866 2.64503E+01 3.64058E+01 1.36364E+00
 -1     13867 2.91351E+01 3.41128E+01 1.81818E+00
 -1     13868 2.57156E+01 3.53945E+01 1.81818E+00
 -1     13873 2.64503E+01 3.64058E+01 2.27273E+00
 -1     13874 2.91351E+01 3.41128E+01 2.72727E+00
 -1     13875 2.57156E+01 3.53945E+01 2.72727E+00
 -1     13880 2.64503E+01 3.64058E+01 3.18182E+00
 -1     13881 2.91351E+01 3.41128E+01 3.63636E+00
 -1     13882 2.57156E+01 3.53945E+01 3.63636E+00
 -1     13887 2.64503E+01 3.64058E+01 4.09091E+00
 -1     13888 2.91351E+01 3.41128E+01 4.54545E+00
 -1     13889 2.57156E+01 3.53945E+01 4.54545E+00
 -1     13894 2.64503E+01 3.64058E+01 5.00000E+00
 -1     13895 2.91351E+01 3.41128E+01 5.45455E+00
 -1     13896 2.57156E+01 3.53945E+01 5.45455E+00
 -1     13901 2.64503E+01 3.64058E+01 5.90909E+00
 -1     13902 2.91351E+01 3.41128E+01 6.36364E+00
 -1     13903 2.57156E+01 3.53945E+01 6.36364E+00
 -1     13908 2.64503E+01 3.64058E+01 6.81818E+00
 -1     13909 2.91351E+01 3.41128E+01 7.27273E+00
 -1     13910 2.57156E+01 3.53945E+01 7.27273E+00
 -1     13915 2.64503E+01 3.64058E+01 7.72727E+00
 -1     13916 2.91351E+01 3.41128E+01 8.18182E+00
 -1     13917 2.57156E+01 3.53945E+01 8.18182E+00
 -1     13922 2.64503E+01 3.64058E+01 8.63636E+00
 -1     13923 2.91351E+01 3.41128E+01 9.09091E+00
 -1     13924 2.57156E+01 3.53945E+01 9.09091E+00
 -1     13929 2.64503E+01 3.64058E+01 9.54545E+00
 -1     13933 2.04296E+01 4.00953E+01 4.54545E-01
 -1     13934 2.34400E+01 3.82505E+01 9.09091E-01
 -1     13935 1.98621E+01 3.89815E+01 9.09091E-01
 -1     13940 2.04296E+01 4.00953E+01 1.36364E+00
 -1     13941 2.34400E+01 3.82505E+01 1.81818E+00
 -1     13942 1.98621E+01 3.89815E+01 1.81818E+00
 -1     13947 2.04296E+01 4.00953E+01 2.27273E+00
 -1     13948 2.34400E+01 3.82505E+01 2.72727E+00
 -1     13949 1.98621E+01 3.89815E+01 2.72727E+00
 -1     13954 2.04296E+01 4.00953E+01 3.18182E+00
 -1     13955 2.34400E+01 3.82505E+01 3.63636E+00
 -1     13956 1.98621E+01 3.89815E+01 3.63636E+00
 -1     13961 2.04296E+01 4.00953E+01 4.09091E+00
 -1     13962 2.34400E+01 3.82505E+01 4.54545E+00
 -1     13963 1.98621E+01 3.89815E+01 4.54545E+00
 -1     13968 2.04296E+01 4.00953E+01 5.00000E+00
 -1     13969 2.34400E+01 3.82505E+01 5.45455E+00
 -1     13970 1.98621E+01 3.89815E+01 5.45455E+00
 -1     13975 2.04296E+01 4.00953E+01 5.90909E+00
 -1     13976 2.34400E+01 3.82505E+01 6.36364E+00
 -1     13977 1.98621E+01 3.89815E+01 6.36364E+00
 -1     13982 2.04296E+01 4.00953E+01 6.81818E+00
 -1     13983 2.34400E+01 3.82505E+01 7.27273E+00
 -1     13984 1.98621E+01 3.89815E+01 7.27273E+00
 -1     13989 2.04296E+01 4.00953E+01 7.72727E+00
 -1     13990 2.34400E+01 3.82505E+01 8.18182E+00
 -1     13991 1.98621E+01 3.89815E+01 8.18182E+00
 -1     13996 2.04296E+01 4.00953E+01 8.63636E+00
 -1     13997 2.34400E+01 3.82505E+01 9.09091E+00
 -1     13998 1.98621E+01 3.89815E+01 9.09091E+00
 -1     14003 2.04296E+01 4.00953E+01 9.54545E+00
 -1     14007 1.39058E+01 4.27975E+01 4.54545E-01
 -1     14008 1.71677E+01 4.14464E+01 9.09091E-01
 -1     14009 1.35195E+01 4.16087E+01 9.09091E-01
 -1     14014 1.39058E+01 4.27975E+01 1.36364E+00
 -1     14015 1.71677E+01 4.14464E+01 1.81818E+00
 -1     14016 1.35195E+01 4.16087E+01 1.81818E+00
 -1     14021 1.39058E+01 4.27975E+01 2.27273E+00
 -1     14022 1.71677E+01 4.14464E+01 2.72727E+00
 -1     14023 1.35195E+01 4.16087E+01 2.72727E+00
 -1     14028 1.39058E+01 4.27975E+01 3.18182E+00
 -1     14029 1.71677E+01 4.14464E+01 3.63636E+00
 -1     14030 1.35195E+01 4.16087E+01 3.63636E+00
 -1     14035 1.39058E+01 4.27975E+01 4.09091E+00
 -1     14036 1.71677E+01 4.14464E+01 4.54545E+00
 -1     14037 1.35195E+01 4.16087E+01 4.54545E+00
 -1     14042 1.39058E+01 4.27975E+01 5.00000E+00
 -1     14043 1.71677E+01 4.14464E+01 5.45455E+00
 -1     14044 1.35195E+01 4.16087E+01 5.45455E+00
 -1     14049 1.39058E+01 4.27975E+01 5.90909E+00
 -1     14050 1.71677E+01 4.14464E+01 6.36364E+00
 -1     14051 1.35195E+01 4.16087E+01 6.36364E+00
 -1     14056 1.39058E+01 4.27975E+01 6.81818E+00
 -1     14057 1.71677E+01 4.14464E+01 7.27273E+00
 -1     14058 1.35195E+01 4.16087E+01 7.27273E+00
 -1     14063 1.39058E+01 4.27975E+01 7.72727E+00
 -1     14064 1.71677E+01 4.14464E+01 8.18182E+00
 -1     14065 1.35195E+01 4.16087E+01 8.18182E+00
 -1     14070 1.39058E+01 4.27975E+01 8.63636E+00
 -1     14071 1.71677E+01 4.14464E+01 9.09091E+00
 -1     14072 1.35195E+01 4.16087E+01 9.09091E+00
 -1     14077 1.39058E+01 4.27975E+01 9.54545E+00
 -1     14081 7.03955E+00 4.44460E+01 4.54545E-01
 -1     14082 1.04727E+01 4.36218E+01 9.09091E-01
 -1     14083 6.84401E+00 4.32114E+01 9.09091E-01
 -1     14088 7.03955E+00 4.44460E+01 1.36364E+00
 -1     14089 1.04727E+01 4.36218E+01 1.81818E+00
 -1     14090 6.84401E+00 4.32114E+01 1.81818E+00
 -1     14095 7.03955E+00 4.44460E+01 2.27273E+00
 -1     14096 1.04727E+01 4.36218E+01 2.72727E+00
 -1     14097 6.84401E+00 4.32114E+01 2.72727E+00
 -1     14102 7.03955E+00 4.44460E+01 3.18182E+00
 -1     14103 1.04727E+01 4.36218E+01 3.63636E+00
 -1     14104 6.84401E+00 4.32114E+01 3.63636E+00
 -1     14109 7.03955E+00 4.44460E+01 4.09091E+00
 -1     14110 1.04727E+01 4.36218E+01 4.54545E+00
 -1     14111 6.84401E+00 4.32114E+01 4.54545E+00
 -1     14116 7.03955E+00 4.44460E+01 5.00000E+00
 -1     14117 1.04727E+01 4.36218E+01 5.45455E+00
 -1     14118 6.84401E+00 4.32114E+01 5.45455E+00
 -1     14123 7.03955E+00 4.44460E+01 5.90909E+00
 -1     14124 1.04727E+01 4.36218E+01 6.36364E+00
 -1     14125 6.84401E+00 4.32114E+01 6.36364E+00
 -1     14130 7.03955E+00 4.44460E+01 6.81818E+00
 -1     14131 1.04727E+01 4.36218E+01 7.27273E+00
 -1     14132 6.84401E+00 4.32114E+01 7.27273E+00
 -1     14137 7.03955E+00 4.44460E+01 7.72727E+00
 -1     14138 1.04727E+01 4.36218E+01 8.18182E+00
 -1     14139 6.84401E+00 4.32114E+01 8.18182E+00
 -1     14144 7.03955E+00 4.44460E+01 8.63636E+00
 -1     14145 1.04727E+01 4.36218E+01 9.09091E+00
 -1     14146 6.84401E+00 4.32114E+01 9.09091E+00
 -1     14151 7.03955E+00 4.44460E+01 9.54545E+00
 -1     14155 3.51978E+00 4.47230E+01 9.09091E-01
 -1     14159 3.51978E+00 4.47230E+01 1.81818E+00
 -1     14163 3.51978E+00 4.47230E+01 2.72727E+00
 -1     14167 3.51978E+00 4.47230E+01 3.63636E+00
 -1     14171 3.51978E+00 4.47230E+01 4.54545E+00
 -1     14175 3.51978E+00 4.47230E+01 5.45455E+00
 -1     14179 3.51978E+00 4.47230E+01 6.36364E+00
 -1     14183 3.51978E+00 4.47230E+01 7.27273E+00
 -1     14187 3.51978E+00 4.47230E+01 8.18182E+00
 -1     14191 3.51978E+00 4.47230E+01 9.09091E+00
 -1     14197 4.69152E+01 7.43064E+00 4.54545E-01
 -1     14198 4.72076E+01 3.71532E+00 9.09091E-01
 -1     14199 4.56806E+01 7.23509E+00 9.09091E-01
 -1     14204 4.69152E+01 7.43064E+00 1.36364E+00
 -1     14205 4.72076E+01 3.71532E+00 1.81818E+00
 -1     14206 4.56806E+01 7.23509E+00 1.81818E+00
 -1     14211 4.69152E+01 7.43064E+00 2.27273E+00
 -1     14212 4.72076E+01 3.71532E+00 2.72727E+00
 -1     14213 4.56806E+01 7.23509E+00 2.72727E+00
 -1     14218 4.69152E+01 7.43064E+00 3.18182E+00
 -1     14219 4.72076E+01 3.71532E+00 3.63636E+00
 -1     14220 4.56806E+01 7.23509E+00 3.63636E+00
 -1     14225 4.69152E+01 7.43064E+00 4.09091E+00
 -1     14226 4.72076E+01 3.71532E+00 4.54545E+00
 -1     14227 4.56806E+01 7.23509E+00 4.54545E+00
 -1     14232 4.69152E+01 7.43064E+00 5.00000E+00
 -1     14233 4.72076E+01 3.71532E+00 5.45455E+00
 -1     14234 4.56806E+01 7.23509E+00 5.45455E+00
 -1     14239 4.69152E+01 7.43064E+00 5.90909E+00
 -1     14240 4.72076E+01 3.71532E+00 6.36364E+00
 -1     14241 4.56806E+01 7.23509E+00 6.36364E+00
 -1     14246 4.69152E+01 7.43064E+00 6.81818E+00
 -1     14247 4.72076E+01 3.71532E+00 7.27273E+00
 -1     14248 4.56806E+01 7.23509E+00 7.27273E+00
 -1     14253 4.69152E+01 7.43064E+00 7.72727E+00
 -1     14254 4.72076E+01 3.71532E+00 8.18182E+00
 -1     14255 4.56806E+01 7.23509E+00 8.18182E+00
 -1     14260 4.69152E+01 7.43064E+00 8.63636E+00
 -1     14261 4.72076E+01 3.71532E+00 9.09091E+00
 -1     14262 4.56806E+01 7.23509E+00 9.09091E+00
 -1     14267 4.69152E+01 7.43064E+00 9.54545E+00
 -1     14271 4.51752E+01 1.46783E+01 4.54545E-01
 -1     14272 4.60452E+01 1.10545E+01 9.09091E-01
 -1     14273 4.39864E+01 1.42920E+01 9.09091E-01
 -1     14278 4.51752E+01 1.46783E+01 1.36364E+00
 -1     14279 4.60452E+01 1.10545E+01 1.81818E+00
 -1     14280 4.39864E+01 1.42920E+01 1.81818E+00
 -1     14285 4.51752E+01 1.46783E+01 2.27273E+00
 -1     14286 4.60452E+01 1.10545E+01 2.72727E+00
 -1     14287 4.39864E+01 1.42920E+01 2.72727E+00
 -1     14292 4.51752E+01 1.46783E+01 3.18182E+00
 -1     14293 4.60452E+01 1.10545E+01 3.63636E+00
 -1     14294 4.39864E+01 1.42920E+01 3.63636E+00
 -1     14299 4.51752E+01 1.46783E+01 4.09091E+00
 -1     14300 4.60452E+01 1.10545E+01 4.54545E+00
 -1     14301 4.39864E+01 1.42920E+01 4.54545E+00
 -1     14306 4.51752E+01 1.46783E+01 5.00000E+00
 -1     14307 4.60452E+01 1.10545E+01 5.45455E+00
 -1     14308 4.39864E+01 1.42920E+01 5.45455E+00
 -1     14313 4.51752E+01 1.46783E+01 5.90909E+00
 -1     14314 4.60452E+01 1.10545E+01 6.36364E+00
 -1     14315 4.39864E+01 1.42920E+01 6.36364E+00
 -1     14320 4.51752E+01 1.46783E+01 6.81818E+00
 -1     14321 4.60452E+01 1.10545E+01 7.27273E+00
 -1     14322 4.39864E+01 1.42920E+01 7.27273E+00
 -1     14327 4.51752E+01 1.46783E+01 7.72727E+00
 -1     14328 4.60452E+01 1.10545E+01 8.18182E+00
 -1     14329 4.39864E+01 1.42920E+01 8.18182E+00
 -1     14334 4.51752E+01 1.46783E+01 8.63636E+00
 -1     14335 4.60452E+01 1.10545E+01 9.09091E+00
 -1     14336 4.39864E+01 1.42920E+01 9.09091E+00
 -1     14341 4.51752E+01 1.46783E+01 9.54545E+00
 -1     14345 4.23228E+01 2.15645E+01 4.54545E-01
 -1     14346 4.37490E+01 1.81214E+01 9.09091E-01
 -1     14347 4.12091E+01 2.09971E+01 9.09091E-01
 -1     14352 4.23228E+01 2.15645E+01 1.36364E+00
 -1     14353 4.37490E+01 1.81214E+01 1.81818E+00
 -1     14354 4.12091E+01 2.09971E+01 1.81818E+00
 -1     14359 4.23228E+01 2.15645E+01 2.27273E+00
 -1     14360 4.37490E+01 1.81214E+01 2.72727E+00
 -1     14361 4.12091E+01 2.09971E+01 2.72727E+00
 -1     14366 4.23228E+01 2.15645E+01 3.18182E+00
 -1     14367 4.37490E+01 1.81214E+01 3.63636E+00
 -1     14368 4.12091E+01 2.09971E+01 3.63636E+00
 -1     14373 4.23228E+01 2.15645E+01 4.09091E+00
 -1     14374 4.37490E+01 1.81214E+01 4.54545E+00
 -1     14375 4.12091E+01 2.09971E+01 4.54545E+00
 -1     14380 4.23228E+01 2.15645E+01 5.00000E+00
 -1     14381 4.37490E+01 1.81214E+01 5.45455E+00
 -1     14382 4.12091E+01 2.09971E+01 5.45455E+00
 -1     14387 4.23228E+01 2.15645E+01 5.90909E+00
 -1     14388 4.37490E+01 1.81214E+01 6.36364E+00
 -1     14389 4.12091E+01 2.09971E+01 6.36364E+00
 -1     14394 4.23228E+01 2.15645E+01 6.81818E+00
 -1     14395 4.37490E+01 1.81214E+01 7.27273E+00
 -1     14396 4.12091E+01 2.09971E+01 7.27273E+00
 -1     14401 4.23228E+01 2.15645E+01 7.72727E+00
 -1     14402 4.37490E+01 1.81214E+01 8.18182E+00
 -1     14403 4.12091E+01 2.09971E+01 8.18182E+00
 -1     14408 4.23228E+01 2.15645E+01 8.63636E+00
 -1     14409 4.37490E+01 1.81214E+01 9.09091E+00
 -1     14410 4.12091E+01 2.09971E+01 9.09091E+00
 -1     14415 4.23228E+01 2.15645E+01 9.54545E+00
 -1     14419 3.84283E+01 2.79198E+01 4.54545E-01
 -1     14420 4.03756E+01 2.47422E+01 9.09091E-01
 -1     14421 3.74170E+01 2.71851E+01 9.09091E-01
 -1     14426 3.84283E+01 2.79198E+01 1.36364E+00
 -1     14427 4.03756E+01 2.47422E+01 1.81818E+00
 -1     14428 3.74170E+01 2.71851E+01 1.81818E+00
 -1     14433 3.84283E+01 2.79198E+01 2.27273E+00
 -1     14434 4.03756E+01 2.47422E+01 2.72727E+00
 -1     14435 3.74170E+01 2.71851E+01 2.72727E+00
 -1     14440 3.84283E+01 2.79198E+01 3.18182E+00
 -1     14441 4.03756E+01 2.47422E+01 3.63636E+00
 -1     14442 3.74170E+01 2.71851E+01 3.63636E+00
 -1     14447 3.84283E+01 2.79198E+01 4.09091E+00
 -1     14448 4.03756E+01 2.47422E+01 4.54545E+00
 -1     14449 3.74170E+01 2.71851E+01 4.54545E+00
 -1     14454 3.84283E+01 2.79198E+01 5.00000E+00
 -1     14455 4.03756E+01 2.47422E+01 5.45455E+00
 -1     14456 3.74170E+01 2.71851E+01 5.45455E+00
 -1     14461 3.84283E+01 2.79198E+01 5.90909E+00
 -1     14462 4.03756E+01 2.47422E+01 6.36364E+00
 -1     14463 3.74170E+01 2.71851E+01 6.36364E+00
 -1     14468 3.84283E+01 2.79198E+01 6.81818E+00
 -1     14469 4.03756E+01 2.47422E+01 7.27273E+00
 -1     14470 3.74170E+01 2.71851E+01 7.27273E+00
 -1     14475 3.84283E+01 2.79198E+01 7.72727E+00
 -1     14476 4.03756E+01 2.47422E+01 8.18182E+00
 -1     14477 3.74170E+01 2.71851E+01 8.18182E+00
 -1     14482 3.84283E+01 2.79198E+01 8.63636E+00
 -1     14483 4.03756E+01 2.47422E+01 9.09091E+00
 -1     14484 3.74170E+01 2.71851E+01 9.09091E+00
 -1     14489 3.84283E+01 2.79198E+01 9.54545E+00
 -1     14493 3.35876E+01 3.35876E+01 4.54545E-01
 -1     14494 3.60079E+01 3.07537E+01 9.09091E-01
 -1     14495 3.27037E+01 3.27037E+01 9.09091E-01
 -1     14500 3.35876E+01 3.35876E+01 1.36364E+00
 -1     14501 3.60079E+01 3.07537E+01 1.81818E+00
 -1     14502 3.27037E+01 3.27037E+01 1.81818E+00
 -1     14507 3.35876E+01 3.35876E+01 2.27273E+00
 -1     14508 3.60079E+01 3.07537E+01 2.72727E+00
 -1     14509 3.27037E+01 3.27037E+01 2.72727E+00
 -1     14514 3.35876E+01 3.35876E+01 3.18182E+00
 -1     14515 3.60079E+01 3.07537E+01 3.63636E+00
 -1     14516 3.27037E+01 3.27037E+01 3.63636E+00
 -1     14521 3.35876E+01 3.35876E+01 4.09091E+00
 -1     14522 3.60079E+01 3.07537E+01 4.54545E+00
 -1     14523 3.27037E+01 3.27037E+01 4.54545E+00
 -1     14528 3.35876E+01 3.35876E+01 5.00000E+00
 -1     14529 3.60079E+01 3.07537E+01 5.45455E+00
 -1     14530 3.27037E+01 3.27037E+01 5.45455E+00
 -1     14535 3.35876E+01 3.35876E+01 5.90909E+00
 -1     14536 3.60079E+01 3.07537E+01 6.36364E+00
 -1     14537 3.27037E+01 3.27037E+01 6.36364E+00
 -1     14542 3.35876E+01 3.35876E+01 6.81818E+00
 -1     14543 3.60079E+01 3.07537E+01 7.27273E+00
 -1     14544 3.27037E+01 3.27037E+01 7.27273E+00
 -1     14549 3.35876E+01 3.35876E+01 7.72727E+00
 -1     14550 3.60079E+01 3.07537E+01 8.18182E+00
 -1     14551 3.27037E+01 3.27037E+01 8.18182E+00
 -1     14556 3.35876E+01 3.35876E+01 8.63636E+00
 -1     14557 3.60079E+01 3.07537E+01 9.09091E+00
 -1     14558 3.27037E+01 3.27037E+01 9.09091E+00
 -1     14563 3.35876E+01 3.35876E+01 9.54545E+00
 -1     14567 2.79198E+01 3.84283E+01 4.54545E-01
 -1     14568 3.07537E+01 3.60079E+01 9.09091E-01
 -1     14569 2.71851E+01 3.74170E+01 9.09091E-01
 -1     14574 2.79198E+01 3.84283E+01 1.36364E+00
 -1     14575 3.07537E+01 3.60079E+01 1.81818E+00
 -1     14576 2.71851E+01 3.74170E+01 1.81818E+00
 -1     14581 2.79198E+01 3.84283E+01 2.27273E+00
 -1     14582 3.07537E+01 3.60079E+01 2.72727E+00
 -1     14583 2.71851E+01 3.74170E+01 2.72727E+00
 -1     14588 2.79198E+01 3.84283E+01 3.18182E+00
 -1     14589 3.07537E+01 3.60079E+01 3.63636E+00
 -1     14590 2.71851E+01 3.74170E+01 3.63636E+00
 -1     14595 2.79198E+01 3.84283E+01 4.09091E+00
 -1     14596 3.07537E+01 3.60079E+01 4.54545E+00
 -1     14597 2.71851E+01 3.74170E+01 4.54545E+00
 -1     14602 2.79198E+01 3.84283E+01 5.00000E+00
 -1     14603 3.07537E+01 3.60079E+01 5.45455E+00
 -1     14604 2.71851E+01 3.74170E+01 5.45455E+00
 -1     14609 2.79198E+01 3.84283E+01 5.90909E+00
 -1     14610 3.07537E+01 3.60079E+01 6.36364E+00
 -1     14611 2.71851E+01 3.74170E+01 6.36364E+00
 -1     14616 2.79198E+01 3.84283E+01 6.81818E+00
 -1     14617 3.07537E+01 3.60079E+01 7.27273E+00
 -1     14618 2.71851E+01 3.74170E+01 7.27273E+00
 -1     14623 2.79198E+01 3.84283E+01 7.72727E+00
 -1     14624 3.07537E+01 3.60079E+01 8.18182E+00
 -1     14625 2.71851E+01 3.74170E+01 8.18182E+00
 -1     14630 2.79198E+01 3.84283E+01 8.63636E+00
 -1     14631 3.07537E+01 3.60079E+01 9.09091E+00
 -1     14632 2.71851E+01 3.74170E+01 9.09091E+00
 -1     14637 2.79198E+01 3.84283E+01 9.54545E+00
 -1     14641 2.15645E+01 4.23228E+01 4.54545E-01
 -1     14642 2.47422E+01 4.03756E+01 9.09091E-01
 -1     14643 2.09971E+01 4.12091E+01 9.09091E-01
 -1     14648 2.15645E+01 4.23228E+01 1.36364E+00
 -1     14649 2.47422E+01 4.03756E+01 1.81818E+00
 -1     14650 2.09971E+01 4.12091E+01 1.81818E+00
 -1     14655 2.15645E+01 4.23228E+01 2.27273E+00
 -1     14656 2.47422E+01 4.03756E+01 2.72727E+00
 -1     14657 2.09971E+01 4.12091E+01 2.72727E+00
 -1     14662 2.15645E+01 4.23228E+01 3.18182E+00
 -1     14663 2.47422E+01 4.03756E+01 3.63636E+00
 -1     14664 2.09971E+01 4.12091E+01 3.63636E+00
 -1     14669 2.15645E+01 4.23228E+01 4.09091E+00
 -1     14670 2.47422E+01 4.03756E+01 4.54545E+00
 -1     14671 2.09971E+01 4.12091E+01 4.54545E+00
 -1     14676 2.15645E+01 4.23228E+01 5.00000E+00
 -1     14677 2.47422E+01 4.03756E+01 5.45455E+00
 -1     14678 2.09971E+01 4.12091E+01 5.45455E+00
 -1     14683 2.15645E+01 4.23228E+01 5.90909E+00
 -1     14684 2.47422E+01 4.03756E+01 6.36364E+00
 -1     14685 2.09971E+01 4.12091E+01 6.36364E+00
 -1     14690 2.15645E+01 4.23228E+01 6.81818E+00
 -1     14691 2.47422E+01 4.03756E+01 7.27273E+00
 -1     14692 2.09971E+01 4.12091E+01 7.27273E+00
 -1     14697 2.15645E+01 4.23228E+01 7.72727E+00
 -1     14698 2.47422E+01 4.03756E+01 8.18182E+00
 -1     14699 2.09971E+01 4.12091E+01 8.18182E+00
 -1     14704 2.15645E+01 4.23228E+01 8.63636E+00
 -1     14705 2.47422E+01 4.03756E+01 9.09091E+00
 -1     14706 2.09971E+01 4.12091E+01 9.09091E+00
 -1     14711 2.15645E+01 4.23228E+01 9.54545E+00
 -1     14715 1.46783E+01 4.51752E+01 4.54545E-01
 -1     14716 1.81214E+01 4.37490E+01 9.09091E-01
 -1     14717 1.42920E+01 4.39864E+01 9.09091E-01
 -1     14722 1.46783E+01 4.51752E+01 1.36364E+00
 -1     14723 1.81214E+01 4.37490E+01 1.81818E+00
 -1     14724 1.42920E+01 4.39864E+01 1.81818E+00
 -1     14729 1.46783E+01 4.51752E+01 2.27273E+00
 -1     14730 1.81214E+01 4.37490E+01 2.72727E+00
 -1     14731 1.42920E+01 4.39864E+01 2.72727E+00
 -1     14736 1.46783E+01 4.51752E+01 3.18182E+00
 -1     14737 1.81214E+01 4.37490E+01 3.63636E+00
 -1     14738 1.42920E+01 4.39864E+01 3.63636E+00
 -1     14743 1.46783E+01 4.51752E+01 4.09091E+00
 -1     14744 1.81214E+01 4.37490E+01 4.54545E+00
 -1     14745 1.42920E+01 4.39864E+01 4.54545E+00
 -1     14750 1.46783E+01 4.51752E+01 5.00000E+00
 -1     14751 1.81214E+01 4.37490E+01 5.45455E+00
 -1     14752 1.42920E+01 4.39864E+01 5.45455E+00
 -1     14757 1.46783E+01 4.51752E+01 5.90909E+00
 -1     14758 1.81214E+01 4.37490E+01 6.36364E+00
 -1     14759 1.42920E+01 4.39864E+01 6.36364E+00
 -1     14764 1.46783E+01 4.51752E+01 6.81818E+00
 -1     14765 1.81214E+01 4.37490E+01 7.27273E+00
 -1     14766 1.42920E+01 4.39864E+01 7.27273E+00
 -1     14771 1.46783E+01 4.51752E+01 7.72727E+00
 -1     14772 1.81214E+01 4.37490E+01 8.18182E+00
 -1     14773 1.42920E+01 4.39864E+01 8.18182E+00
 -1     14778 1.46783E+01 4.51752E+01 8.63636E+00
 -1     14779 1.81214E+01 4.37490E+01 9.09091E+00
 -1     14780 1.42920E+01 4.39864E+01 9.09091E+00
 -1     14785 1.46783E+01 4.51752E+01 9.54545E+00
 -1     14789 7.43064E+00 4.69152E+01 4.54545E-01
 -1     14790 1.10545E+01 4.60452E+01 9.09091E-01
 -1     14791 7.23509E+00 4.56806E+01 9.09091E-01
 -1     14796 7.43064E+00 4.69152E+01 1.36364E+00
 -1     14797 1.10545E+01 4.60452E+01 1.81818E+00
 -1     14798 7.23509E+00 4.56806E+01 1.81818E+00
 -1     14803 7.43064E+00 4.69152E+01 2.27273E+00
 -1     14804 1.10545E+01 4.60452E+01 2.72727E+00
 -1     14805 7.23509E+00 4.56806E+01 2.72727E+00
 -1     14810 7.43064E+00 4.69152E+01 3.18182E+00
 -1     14811 1.10545E+01 4.60452E+01 3.63636E+00
 -1     14812 7.23509E+00 4.56806E+01 3.63636E+00
 -1     14817 7.43064E+00 4.69152E+01 4.09091E+00
 -1     14818 1.10545E+01 4.60452E+01 4.54545E+00
 -1     14819 7.23509E+00 4.56806E+01 4.54545E+00
 -1     14824 7.43064E+00 4.69152E+01 5.00000E+00
 -1     14825 1.10545E+01 4.60452E+01 5.45455E+00
 -1     14826 7.23509E+00 4.56806E+01 5.45455E+00
 -1     14831 7.43064E+00 4.69152E+01 5.90909E+00
 -1     14832 1.10545E+01 4.60452E+01 6.36364E+00
 -1     14833 7.23509E+00 4.56806E+01 6.36364E+00
 -1     14838 7.43064E+00 4.69152E+01 6.81818E+00
 -1     14839 1.10545E+01 4.60452E+01 7.27273E+00
 -1     14840 7.23509E+00 4.56806E+01 7.27273E+00
 -1     14845 7.43064E+00 4.69152E+01 7.72727E+00
 -1     14846 1.10545E+01 4.60452E+01 8.18182E+00
 -1     14847 7.23509E+00 4.56806E+01 8.18182E+00
 -1     14852 7.43064E+00 4.69152E+01 8.63636E+00
 -1     14853 1.10545E+01 4.60452E+01 9.09091E+00
 -1     14854 7.23509E+00 4.56806E+01 9.09091E+00
 -1     14859 7.43064E+00 4.69152E+01 9.54545E+00
 -1     14863 3.71532E+00 4.72076E+01 9.09091E-01
 -1     14867 3.71532E+00 4.72076E+01 1.81818E+00
 -1     14871 3.71532E+00 4.72076E+01 2.72727E+00
 -1     14875 3.71532E+00 4.72076E+01 3.63636E+00
 -1     14879 3.71532E+00 4.72076E+01 4.54545E+00
 -1     14883 3.71532E+00 4.72076E+01 5.45455E+00
 -1     14887 3.71532E+00 4.72076E+01 6.36364E+00
 -1     14891 3.71532E+00 4.72076E+01 7.27273E+00
 -1     14895 3.71532E+00 4.72076E+01 8.18182E+00
 -1     14899 3.71532E+00 4.72076E+01 9.09091E+00
 -1     14905 4.93844E+01 7.82172E+00 4.54545E-01
 -1     14906 4.96922E+01 3.91086E+00 9.09091E-01
 -1     14907 4.81498E+01 7.62618E+00 9.09091E-01
 -1     14912 4.93844E+01 7.82172E+00 1.36364E+00
 -1     14913 4.96922E+01 3.91086E+00 1.81818E+00
 -1     14914 4.81498E+01 7.62618E+00 1.81818E+00
 -1     14919 4.93844E+01 7.82172E+00 2.27273E+00
 -1     14920 4.96922E+01 3.91086E+00 2.72727E+00
 -1     14921 4.81498E+01 7.62618E+00 2.72727E+00
 -1     14926 4.93844E+01 7.82172E+00 3.18182E+00
 -1     14927 4.96922E+01 3.91086E+00 3.63636E+00
 -1     14928 4.81498E+01 7.62618E+00 3.63636E+00
 -1     14933 4.93844E+01 7.82172E+00 4.09091E+00
 -1     14934 4.96922E+01 3.91086E+00 4.54545E+00
 -1     14935 4.81498E+01 7.62618E+00 4.54545E+00
 -1     14940 4.93844E+01 7.82172E+00 5.00000E+00
 -1     14941 4.96922E+01 3.91086E+00 5.45455E+00
 -1     14942 4.81498E+01 7.62618E+00 5.45455E+00
 -1     14947 4.93844E+01 7.82172E+00 5.90909E+00
 -1     14948 4.96922E+01 3.91086E+00 6.36364E+00
 -1     14949 4.81498E+01 7.62618E+00 6.36364E+00
 -1     14954 4.93844E+01 7.82172E+00 6.81818E+00
 -1     14955 4.96922E+01 3.91086E+00 7.27273E+00
 -1     14956 4.81498E+01 7.62618E+00 7.27273E+00
 -1     14961 4.93844E+01 7.82172E+00 7.72727E+00
 -1     14962 4.96922E+01 3.91086E+00 8.18182E+00
 -1     14963 4.81498E+01 7.62618E+00 8.18182E+00
 -1     14968 4.93844E+01 7.82172E+00 8.63636E+00
 -1     14969 4.96922E+01 3.91086E+00 9.09091E+00
 -1     14970 4.81498E+01 7.62618E+00 9.09091E+00
 -1     14975 4.93844E+01 7.82172E+00 9.54545E+00
 -1     14979 4.75528E+01 1.54508E+01 4.54545E-01
 -1     14980 4.84686E+01 1.16363E+01 9.09091E-01
 -1     14981 4.63640E+01 1.50646E+01 9.09091E-01
 -1     14986 4.75528E+01 1.54508E+01 1.36364E+00
 -1     14987 4.84686E+01 1.16363E+01 1.81818E+00
 -1     14988 4.63640E+01 1.50646E+01 1.81818E+00
 -1     14993 4.75528E+01 1.54508E+01 2.27273E+00
 -1     14994 4.84686E+01 1.16363E+01 2.72727E+00
 -1     14995 4.63640E+01 1.50646E+01 2.72727E+00
 -1     15000 4.75528E+01 1.54508E+01 3.18182E+00
 -1     15001 4.84686E+01 1.16363E+01 3.63636E+00
 -1     15002 4.63640E+01 1.50646E+01 3.63636E+00
 -1     15007 4.75528E+01 1.54508E+01 4.09091E+00
 -1     15008 4.84686E+01 1.16363E+01 4.54545E+00
 -1     15009 4.63640E+01 1.50646E+01 4.54545E+00
 -1     15014 4.75528E+01 1.54508E+01 5.00000E+00
 -1     15015 4.84686E+01 1.16363E+01 5.45455E+00
 -1     15016 4.63640E+01 1.50646E+01 5.45455E+00
 -1     15021 4.75528E+01 1.54508E+01 5.90909E+00
 -1     15022 4.84686E+01 1.16363E+01 6.36364E+00
 -1     15023 4.63640E+01 1.50646E+01 6.36364E+00
 -1     15028 4.75528E+01 1.54508E+01 6.81818E+00
 -1     15029 4.84686E+01 1.16363E+01 7.27273E+00
 -1     15030 4.63640E+01 1.50646E+01 7.27273E+00
 -1     15035 4.75528E+01 1.54508E+01 7.72727E+00
 -1     15036 4.84686E+01 1.16363E+01 8.18182E+00
 -1     15037 4.63640E+01 1.50646E+01 8.18182E+00
 -1     15042 4.75528E+01 1.54508E+01 8.63636E+00
 -1     15043 4.84686E+01 1.16363E+01 9.09091E+00
 -1     15044 4.63640E+01 1.50646E+01 9.09091E+00
 -1     15049 4.75528E+01 1.54508E+01 9.54545E+00
 -1     15053 4.45503E+01 2.26995E+01 4.54545E-01
 -1     15054 4.60516E+01 1.90752E+01 9.09091E-01
 -1     15055 4.34366E+01 2.21320E+01 9.09091E-01
 -1     15060 4.45503E+01 2.26995E+01 1.36364E+00
 -1     15061 4.60516E+01 1.90752E+01 1.81818E+00
 -1     15062 4.34366E+01 2.21320E+01 1.81818E+00
 -1     15067 4.45503E+01 2.26995E+01 2.27273E+00
 -1     15068 4.60516E+01 1.90752E+01 2.72727E+00
 -1     15069 4.34366E+01 2.21320E+01 2.72727E+00
 -1     15074 4.45503E+01 2.26995E+01 3.18182E+00
 -1     15075 4.60516E+01 1.90752E+01 3.63636E+00
 -1     15076 4.34366E+01 2.21320E+01 3.63636E+00
 -1     15081 4.45503E+01 2.26995E+01 4.09091E+00
 -1     15082 4.60516E+01 1.90752E+01 4.54545E+00
 -1     15083 4.34366E+01 2.21320E+01 4.54545E+00
 -1     15088 4.45503E+01 2.26995E+01 5.00000E+00
 -1     15089 4.60516E+01 1.90752E+01 5.45455E+00
 -1     15090 4.34366E+01 2.21320E+01 5.45455E+00
 -1     15095 4.45503E+01 2.26995E+01 5.90909E+00
 -1     15096 4.60516E+01 1.90752E+01 6.36364E+00
 -1     15097 4.34366E+01 2.21320E+01 6.36364E+00
 -1     15102 4.45503E+01 2.26995E+01 6.81818E+00
 -1     15103 4.60516E+01 1.90752E+01 7.27273E+00
 -1     15104 4.34366E+01 2.21320E+01 7.27273E+00
 -1     15109 4.45503E+01 2.26995E+01 7.72727E+00
 -1     15110 4.60516E+01 1.90752E+01 8.18182E+00
 -1     15111 4.34366E+01 2.21320E+01 8.18182E+00
 -1     15116 4.45503E+01 2.26995E+01 8.63636E+00
 -1     15117 4.60516E+01 1.90752E+01 9.09091E+00
 -1     15118 4.34366E+01 2.21320E+01 9.09091E+00
 -1     15123 4.45503E+01 2.26995E+01 9.54545E+00
 -1     15127 4.04509E+01 2.93893E+01 4.54545E-01
 -1     15128 4.25006E+01 2.60444E+01 9.09091E-01
 -1     15129 3.94396E+01 2.86545E+01 9.09091E-01
 -1     15134 4.04509E+01 2.93893E+01 1.36364E+00
 -1     15135 4.25006E+01 2.60444E+01 1.81818E+00
 -1     15136 3.94396E+01 2.86545E+01 1.81818E+00
 -1     15141 4.04509E+01 2.93893E+01 2.27273E+00
 -1     15142 4.25006E+01 2.60444E+01 2.72727E+00
 -1     15143 3.94396E+01 2.86545E+01 2.72727E+00
 -1     15148 4.04509E+01 2.93893E+01 3.18182E+00
 -1     15149 4.25006E+01 2.60444E+01 3.63636E+00
 -1     15150 3.94396E+01 2.86545E+01 3.63636E+00
 -1     15155 4.04509E+01 2.93893E+01 4.09091E+00
 -1     15156 4.25006E+01 2.60444E+01 4.54545E+00
 -1     15157 3.94396E+01 2.86545E+01 4.54545E+00
 -1     15162 4.04509E+01 2.93893E+01 5.00000E+00
 -1     15163 4.25006E+01 2.60444E+01 5.45455E+00
 -1     15164 3.94396E+01 2.86545E+01 5.45455E+00
 -1     15169 4.04509E+01 2.93893E+01 5.90909E+00
 -1     15170 4.25006E+01 2.60444E+01 6.36364E+00
 -1     15171 3.94396E+01 2.86545E+01 6.36364E+00
 -1     15176 4.04509E+01 2.93893E+01 6.81818E+00
 -1     15177 4.25006E+01 2.60444E+01 7.27273E+00
 -1     15178 3.94396E+01 2.86545E+01 7.27273E+00
 -1     15183 4.04509E+01 2.93893E+01 7.72727E+00
 -1     15184 4.25006E+01 2.60444E+01 8.18182E+00
 -1     15185 3.94396E+01 2.86545E+01 8.18182E+00
 -1     15190 4.04509E+01 2.93893E+01 8.63636E+00
 -1     15191 4.25006E+01 2.60444E+01 9.09091E+00
 -1     15192 3.94396E+01 2.86545E+01 9.09091E+00
 -1     15197 4.04509E+01 2.93893E+01 9.54545E+00
 -1     15201 3.53553E+01 3.53553E+01 4.54545E-01
 -1     15202 3.79031E+01 3.23723E+01 9.09091E-01
 -1     15203 3.44715E+01 3.44715E+01 9.09091E-01
 -1     15208 3.53553E+01 3.53553E+01 1.36364E+00
 -1     15209 3.79031E+01 3.23723E+01 1.81818E+00
 -1     15210 3.44715E+01 3.44715E+01 1.81818E+00
 -1     15215 3.53553E+01 3.53553E+01 2.27273E+00
 -1     15216 3.79031E+01 3.23723E+01 2.72727E+00
 -1     15217 3.44715E+01 3.44715E+01 2.72727E+00
 -1     15222 3.53553E+01 3.53553E+01 3.18182E+00
 -1     15223 3.79031E+01 3.23723E+01 3.63636E+00
 -1     15224 3.44715E+01 3.44715E+01 3.63636E+00
 -1     15229 3.53553E+01 3.53553E+01 4.09091E+00
 -1     15230 3.79031E+01 3.23723E+01 4.54545E+00
 -1     15231 3.44715E+01 3.44715E+01 4.54545E+00
 -1     15236 3.53553E+01 3.53553E+01 5.00000E+00
 -1     15237 3.79031E+01 3.23723E+01 5.45455E+00
 -1     15238 3.44715E+01 3.44715E+01 5.45455E+00
 -1     15243 3.53553E+01 3.53553E+01 5.90909E+00
 -1     15244 3.79031E+01 3.23723E+01 6.36364E+00
 -1     15245 3.44715E+01 3.44715E+01 6.36364E+00
 -1     15250 3.53553E+01 3.53553E+01 6.81818E+00
 -1     15251 3.79031E+01 3.23723E+01 7.27273E+00
 -1     15252 3.44715E+01 3.44715E+01 7.27273E+00
 -1     15257 3.53553E+01 3.53553E+01 7.72727E+00
 -1     15258 3.79031E+01 3.23723E+01 8.18182E+00
 -1     15259 3.44715E+01 3.44715E+01 8.18182E+00
 -1     15264 3.53553E+01 3.53553E+01 8.63636E+00
 -1     15265 3.79031E+01 3.23723E+01 9.09091E+00
 -1     15266 3.44715E+01 3.44715E+01 9.09091E+00
 -1     15271 3.53553E+01 3.53553E+01 9.54545E+00
 -1     15275 2.93893E+01 4.04509E+01 4.54545E-01
 -1     15276 3.23723E+01 3.79031E+01 9.09091E-01
 -1     15277 2.86545E+01 3.94396E+01 9.09091E-01
 -1     15282 2.93893E+01 4.04509E+01 1.36364E+00
 -1     15283 3.23723E+01 3.79031E+01 1.81818E+00
 -1     15284 2.86545E+01 3.94396E+01 1.81818E+00
 -1     15289 2.93893E+01 4.04509E+01 2.27273E+00
 -1     15290 3.23723E+01 3.79031E+01 2.72727E+00
 -1     15291 2.86545E+01 3.94396E+01 2.72727E+00
 -1     15296 2.93893E+01 4.04509E+01 3.18182E+00
 -1     15297 3.23723E+01 3.79031E+01 3.63636E+00
 -1     15298 2.86545E+01 3.94396E+01 3.63636E+00
 -1     15303 2.93893E+01 4.04509E+01 4.09091E+00
 -1     15304 3.23723E+01 3.79031E+01 4.54545E+00
 -1     15305 2.86545E+01 3.94396E+01 4.54545E+00
 -1     15310 2.93893E+01 4.04509E+01 5.00000E+00
 -1     15311 3.23723E+01 3.79031E+01 5.45455E+00
 -1     15312 2.86545E+01 3.94396E+01 5.45455E+00
 -1     15317 2.93893E+01 4.04509E+01 5.90909E+00
 -1     15318 3.23723E+01 3.79031E+01 6.36364E+00
 -1     15319 2.86545E+01 3.94396E+01 6.36364E+00
 -1     15324 2.93893E+01 4.04509E+01 6.81818E+00
 -1     15325 3.23723E+01 3.79031E+01 7.27273E+00
 -1     15326 2.86545E+01 3.94396E+01 7.27273E+00
 -1     15331 2.93893E+01 4.04509E+01 7.72727E+00
 -1     15332 3.23723E+01 3.79031E+01 8.18182E+00
 -1     15333 2.86545E+01 3.94396E+01 8.18182E+00
 -1     15338 2.93893E+01 4.04509E+01 8.63636E+00
 -1     15339 3.23723E+01 3.79031E+01 9.09091E+00
 -1     15340 2.86545E+01 3.94396E+01 9.09091E+00
 -1     15345 2.93893E+01 4.04509E+01 9.54545E+00
 -1     15349 2.26995E+01 4.45503E+01 4.54545E-01
 -1     15350 2.60444E+01 4.25006E+01 9.09091E-01
 -1     15351 2.21320E+01 4.34366E+01 9.09091E-01
 -1     15356 2.26995E+01 4.45503E+01 1.36364E+00
 -1     15357 2.60444E+01 4.25006E+01 1.81818E+00
 -1     15358 2.21320E+01 4.34366E+01 1.81818E+00
 -1     15363 2.26995E+01 4.45503E+01 2.27273E+00
 -1     15364 2.60444E+01 4.25006E+01 2.72727E+00
 -1     15365 2.21320E+01 4.34366E+01 2.72727E+00
 -1     15370 2.26995E+01 4.45503E+01 3.18182E+00
 -1     15371 2.60444E+01 4.25006E+01 3.63636E+00
 -1     15372 2.21320E+01 4.34366E+01 3.63636E+00
 -1     15377 2.26995E+01 4.45503E+01 4.09091E+00
 -1     15378 2.60444E+01 4.25006E+01 4.54545E+00
 -1     15379 2.21320E+01 4.34366E+01 4.54545E+00
 -1     15384 2.26995E+01 4.45503E+01 5.00000E+00
 -1     15385 2.60444E+01 4.25006E+01 5.45455E+00
 -1     15386 2.21320E+01 4.34366E+01 5.45455E+00
 -1     15391 2.26995E+01 4.45503E+01 5.90909E+00
 -1     15392 2.60444E+01 4.25006E+01 6.36364E+00
 -1     15393 2.21320E+01 4.34366E+01 6.36364E+00
 -1     15398 2.26995E+01 4.45503E+01 6.81818E+00
 -1     15399 2.60444E+01 4.25006E+01 7.27273E+00
 -1     15400 2.21320E+01 4.34366E+01 7.27273E+00
 -1     15405 2.26995E+01 4.45503E+01 7.72727E+00
 -1     15406 2.60444E+01 4.25006E+01 8.18182E+00
 -1     15407 2.21320E+01 4.34366E+01 8.18182E+00
 -1     15412 2.26995E+01 4.45503E+01 8.63636E+00
 -1     15413 2.60444E+01 4.25006E+01 9.09091E+00
 -1     15414 2.21320E+01 4.34366E+01 9.09091E+00
 -1     15419 2.26995E+01 4.45503E+01 9.54545E+00
 -1     15423 1.54508E+01 4.75528E+01 4.54545E-01
 -1     15424 1.90752E+01 4.60516E+01 9.09091E-01
 -1     15425 1.50646E+01 4.63640E+01 9.09091E-01
 -1     15430 1.54508E+01 4.75528E+01 1.36364E+00
 -1     15431 1.90752E+01 4.60516E+01 1.81818E+00
 -1     15432 1.50646E+01 4.63640E+01 1.81818E+00
 -1     15437 1.54508E+01 4.75528E+01 2.27273E+00
 -1     15438 1.90752E+01 4.60516E+01 2.72727E+00
 -1     15439 1.50646E+01 4.63640E+01 2.72727E+00
 -1     15444 1.54508E+01 4.75528E+01 3.18182E+00
 -1     15445 1.90752E+01 4.60516E+01 3.63636E+00
 -1     15446 1.50646E+01 4.63640E+01 3.63636E+00
 -1     15451 1.54508E+01 4.75528E+01 4.09091E+00
 -1     15452 1.90752E+01 4.60516E+01 4.54545E+00
 -1     15453 1.50646E+01 4.63640E+01 4.54545E+00
 -1     15458 1.54508E+01 4.75528E+01 5.00000E+00
 -1     15459 1.90752E+01 4.60516E+01 5.45455E+00
 -1     15460 1.50646E+01 4.63640E+01 5.45455E+00
 -1     15465 1.54508E+01 4.75528E+01 5.90909E+00
 -1     15466 1.90752E+01 4.60516E+01 6.36364E+00
 -1     15467 1.50646E+01 4.63640E+01 6.36364E+00
 -1     15472 1.54508E+01 4.75528E+01 6.81818E+00
 -1     15473 1.90752E+01 4.60516E+01 7.27273E+00
 -1     15474 1.50646E+01 4.63640E+01 7.27273E+00
 -1     15479 1.54508E+01 4.75528E+01 7.72727E+00
 -1     15480 1.90752E+01 4.60516E+01 8.18182E+00
 -1     15481 1.50646E+01 4.63640E+01 8.18182E+00
 -1     15486 1.54508E+01 4.75528E+01 8.63636E+00
 -1     15487 1.90752E+01 4.60516E+01 9.09091E+00
 -1     15488 1.50646E+01 4.63640E+01 9.09091E+00
 -1     15493 1.54508E+01 4.75528E+01 9.54545E+00
 -1     15497 7.82172E+00 4.93844E+01 4.54545E-01
 -1     15498 1.16363E+01 4.84686E+01 9.09091E-01
 -1     15499 7.62618E+00 4.81498E+01 9.09091E-01
 -1     15504 7.82172E+00 4.93844E+01 1.36364E+00
 -1     15505 1.16363E+01 4.84686E+01 1.81818E+00
 -1     15506 7.62618E+00 4.81498E+01 1.81818E+00
 -1     15511 7.82172E+00 4.93844E+01 2.27273E+00
 -1     15512 1.16363E+01 4.84686E+01 2.72727E+00
 -1     15513 7.62618E+00 4.81498E+01 2.72727E+00
 -1     15518 7.82172E+00 4.93844E+01 3.18182E+00
 -1     15519 1.16363E+01 4.84686E+01 3.63636E+00
 -1     15520 7.62618E+00 4.81498E+01 3.63636E+00
 -1     15525 7.82172E+00 4.93844E+01 4.09091E+00
 -1     15526 1.16363E+01 4.84686E+01 4.54545E+00
 -1     15527 7.62618E+00 4.81498E+01 4.54545E+00
 -1     15532 7.82172E+00 4.93844E+01 5.00000E+00
 -1     15533 1.16363E+01 4.84686E+01 5.45455E+00
 -1     15534 7.62618E+00 4.81498E+01 5.45455E+00
 -1     15539 7.82172E+00 4.93844E+01 5.90909E+00
 -1     15540 1.16363E+01 4.84686E+01 6.36364E+00
 -1     15541 7.62618E+00 4.81498E+01 6.36364E+00
 -1     15546 7.82172E+00 4.93844E+01 6.81818E+00
 -1     15547 1.16363E+01 4.84686E+01 7.27273E+00
 -1     15548 7.62618E+00 4.81498E+01 7.27273E+00
 -1     15553 7.82172E+00 4.93844E+01 7.72727E+00
 -1     15554 1.16363E+01 4.84686E+01 8.18182E+00
 -1     15555 7.62618E+00 4.81498E+01 8.18182E+00
 -1     15560 7.82172E+00 4.93844E+01 8.63636E+00
 -1     15561 1.16363E+01 4.84686E+01 9.09091E+00
 -1     15562 7.62618E+00 4.81498E+01 9.09091E+00
 -1     15567 7.82172E+00 4.93844E+01 9.54545E+00
 -1     15571 3.91086E+00 4.96922E+01 9.09091E-01
 -1     15575 3.91086E+00 4.96922E+01 1.81818E+00
 -1     15579 3.91086E+00 4.96922E+01 2.72727E+00
 -1     15583 3.91086E+00 4.96922E+01 3.63636E+00
 -1     15587 3.91086E+00 4.96922E+01 4.54545E+00
 -1     15591 3.91086E+00 4.96922E+01 5.45455E+00
 -1     15595 3.91086E+00 4.96922E+01 6.36364E+00
 -1     15599 3.91086E+00 4.96922E+01 7.27273E+00
 -1     15603 3.91086E+00 4.96922E+01 8.18182E+00
 -1     15607 3.91086E+00 4.96922E+01 9.09091E+00
 -1     15613 5.18536E+01 8.21281E+00 4.54545E-01
 -1     15614 5.21768E+01 4.10640E+00 9.09091E-01
 -1     15615 5.06190E+01 8.01727E+00 9.09091E-01
 -1     15620 5.18536E+01 8.21281E+00 1.36364E+00
 -1     15621 5.21768E+01 4.10640E+00 1.81818E+00
 -1     15622 5.06190E+01 8.01727E+00 1.81818E+00
 -1     15627 5.18536E+01 8.21281E+00 2.27273E+00
 -1     15628 5.21768E+01 4.10640E+00 2.72727E+00
 -1     15629 5.06190E+01 8.01727E+00 2.72727E+00
 -1     15634 5.18536E+01 8.21281E+00 3.18182E+00
 -1     15635 5.21768E+01 4.10640E+00 3.63636E+00
 -1     15636 5.06190E+01 8.01727E+00 3.63636E+00
 -1     15641 5.18536E+01 8.21281E+00 4.09091E+00
 -1     15642 5.21768E+01 4.10640E+00 4.54545E+00
 -1     15643 5.06190E+01 8.01727E+00 4.54545E+00
 -1     15648 5.18536E+01 8.21281E+00 5.00000E+00
 -1     15649 5.21768E+01 4.10640E+00 5.45455E+00
 -1     15650 5.06190E+01 8.01727E+00 5.45455E+00
 -1     15655 5.18536E+01 8.21281E+00 5.90909E+00
 -1     15656 5.21768E+01 4.10640E+00 6.36364E+00
 -1     15657 5.06190E+01 8.01727E+00 6.36364E+00
 -1     15662 5.18536E+01 8.21281E+00 6.81818E+00
 -1     15663 5.21768E+01 4.10640E+00 7.27273E+00
 -1     15664 5.06190E+01 8.01727E+00 7.27273E+00
 -1     15669 5.18536E+01 8.21281E+00 7.72727E+00
 -1     15670 5.21768E+01 4.10640E+00 8.18182E+00
 -1     15671 5.06190E+01 8.01727E+00 8.18182E+00
 -1     15676 5.18536E+01 8.21281E+00 8.63636E+00
 -1     15677 5.21768E+01 4.10640E+00 9.09091E+00
 -1     15678 5.06190E+01 8.01727E+00 9.09091E+00
 -1     15683 5.18536E+01 8.21281E+00 9.54545E+00
 -1     15687 4.99305E+01 1.62234E+01 4.54545E-01
 -1     15688 5.08921E+01 1.22181E+01 9.09091E-01
 -1     15689 4.87416E+01 1.58371E+01 9.09091E-01
 -1     15694 4.99305E+01 1.62234E+01 1.36364E+00
 -1     15695 5.08921E+01 1.22181E+01 1.81818E+00
 -1     15696 4.87416E+01 1.58371E+01 1.81818E+00
 -1     15701 4.99305E+01 1.62234E+01 2.27273E+00
 -1     15702 5.08921E+01 1.22181E+01 2.72727E+00
 -1     15703 4.87416E+01 1.58371E+01 2.72727E+00
 -1     15708 4.99305E+01 1.62234E+01 3.18182E+00
 -1     15709 5.08921E+01 1.22181E+01 3.63636E+00
 -1     15710 4.87416E+01 1.58371E+01 3.63636E+00
 -1     15715 4.99305E+01 1.62234E+01 4.09091E+00
 -1     15716 5.08921E+01 1.22181E+01 4.54545E+00
 -1     15717 4.87416E+01 1.58371E+01 4.54545E+00
 -1     15722 4.99305E+01 1.62234E+01 5.00000E+00
 -1     15723 5.08921E+01 1.22181E+01 5.45455E+00
 -1     15724 4.87416E+01 1.58371E+01 5.45455E+00
 -1     15729 4.99305E+01 1.62234E+01 5.90909E+00
 -1     15730 5.08921E+01 1.22181E+01 6.36364E+00
 -1     15731 4.87416E+01 1.58371E+01 6.36364E+00
 -1     15736 4.99305E+01 1.62234E+01 6.81818E+00
 -1     15737 5.08921E+01 1.22181E+01 7.27273E+00
 -1     15738 4.87416E+01 1.58371E+01 7.27273E+00
 -1     15743 4.99305E+01 1.62234E+01 7.72727E+00
 -1     15744 5.08921E+01 1.22181E+01 8.18182E+00
 -1     15745 4.87416E+01 1.58371E+01 8.18182E+00
 -1     15750 4.99305E+01 1.62234E+01 8.63636E+00
 -1     15751 5.08921E+01 1.22181E+01 9.09091E+00
 -1     15752 4.87416E+01 1.58371E+01 9.09091E+00
 -1     15757 4.99305E+01 1.62234E+01 9.54545E+00
 -1     15761 4.67778E+01 2.38345E+01 4.54545E-01
 -1     15762 4.83542E+01 2.00289E+01 9.09091E-01
 -1     15763 4.56641E+01 2.32670E+01 9.09091E-01
 -1     15768 4.67778E+01 2.38345E+01 1.36364E+00
 -1     15769 4.83542E+01 2.00289E+01 1.81818E+00
 -1     15770 4.56641E+01 2.32670E+01 1.81818E+00
 -1     15775 4.67778E+01 2.38345E+01 2.27273E+00
 -1     15776 4.83542E+01 2.00289E+01 2.72727E+00
 -1     15777 4.56641E+01 2.32670E+01 2.72727E+00
 -1     15782 4.67778E+01 2.38345E+01 3.18182E+00
 -1     15783 4.83542E+01 2.00289E+01 3.63636E+00
 -1     15784 4.56641E+01 2.32670E+01 3.63636E+00
 -1     15789 4.67778E+01 2.38345E+01 4.09091E+00
 -1     15790 4.83542E+01 2.00289E+01 4.54545E+00
 -1     15791 4.56641E+01 2.32670E+01 4.54545E+00
 -1     15796 4.67778E+01 2.38345E+01 5.00000E+00
 -1     15797 4.83542E+01 2.00289E+01 5.45455E+00
 -1     15798 4.56641E+01 2.32670E+01 5.45455E+00
 -1     15803 4.67778E+01 2.38345E+01 5.90909E+00
 -1     15804 4.83542E+01 2.00289E+01 6.36364E+00
 -1     15805 4.56641E+01 2.32670E+01 6.36364E+00
 -1     15810 4.67778E+01 2.38345E+01 6.81818E+00
 -1     15811 4.83542E+01 2.00289E+01 7.27273E+00
 -1     15812 4.56641E+01 2.32670E+01 7.27273E+00
 -1     15817 4.67778E+01 2.38345E+01 7.72727E+00
 -1     15818 4.83542E+01 2.00289E+01 8.18182E+00
 -1     15819 4.56641E+01 2.32670E+01 8.18182E+00
 -1     15824 4.67778E+01 2.38345E+01 8.63636E+00
 -1     15825 4.83542E+01 2.00289E+01 9.09091E+00
 -1     15826 4.56641E+01 2.32670E+01 9.09091E+00
 -1     15831 4.67778E+01 2.38345E+01 9.54545E+00
 -1     15835 4.24734E+01 3.08587E+01 4.54545E-01
 -1     15836 4.46256E+01 2.73466E+01 9.09091E-01
 -1     15837 4.14621E+01 3.01240E+01 9.09091E-01
 -1     15842 4.24734E+01 3.08587E+01 1.36364E+00
 -1     15843 4.46256E+01 2.73466E+01 1.81818E+00
 -1     15844 4.14621E+01 3.01240E+01 1.81818E+00
 -1     15849 4.24734E+01 3.08587E+01 2.27273E+00
 -1     15850 4.46256E+01 2.73466E+01 2.72727E+00
 -1     15851 4.14621E+01 3.01240E+01 2.72727E+00
 -1     15856 4.24734E+01 3.08587E+01 3.18182E+00
 -1     15857 4.46256E+01 2.73466E+01 3.63636E+00
 -1     15858 4.14621E+01 3.01240E+01 3.63636E+00
 -1     15863 4.24734E+01 3.08587E+01 4.09091E+00
 -1     15864 4.46256E+01 2.73466E+01 4.54545E+00
 -1     15865 4.14621E+01 3.01240E+01 4.54545E+00
 -1     15870 4.24734E+01 3.08587E+01 5.00000E+00
 -1     15871 4.46256E+01 2.73466E+01 5.45455E+00
 -1     15872 4.14621E+01 3.01240E+01 5.45455E+00
 -1     15877 4.24734E+01 3.08587E+01 5.90909E+00
 -1     15878 4.46256E+01 2.73466E+01 6.36364E+00
 -1     15879 4.14621E+01 3.01240E+01 6.36364E+00
 -1     15884 4.24734E+01 3.08587E+01 6.81818E+00
 -1     15885 4.46256E+01 2.73466E+01 7.27273E+00
 -1     15886 4.14621E+01 3.01240E+01 7.27273E+00
 -1     15891 4.24734E+01 3.08587E+01 7.72727E+00
 -1     15892 4.46256E+01 2.73466E+01 8.18182E+00
 -1     15893 4.14621E+01 3.01240E+01 8.18182E+00
 -1     15898 4.24734E+01 3.08587E+01 8.63636E+00
 -1     15899 4.46256E+01 2.73466E+01 9.09091E+00
 -1     15900 4.14621E+01 3.01240E+01 9.09091E+00
 -1     15905 4.24734E+01 3.08587E+01 9.54545E+00
 -1     15909 3.71231E+01 3.71231E+01 4.54545E-01
 -1     15910 3.97982E+01 3.39909E+01 9.09091E-01
 -1     15911 3.62392E+01 3.62392E+01 9.09091E-01
 -1     15916 3.71231E+01 3.71231E+01 1.36364E+00
 -1     15917 3.97982E+01 3.39909E+01 1.81818E+00
 -1     15918 3.62392E+01 3.62392E+01 1.81818E+00
 -1     15923 3.71231E+01 3.71231E+01 2.27273E+00
 -1     15924 3.97982E+01 3.39909E+01 2.72727E+00
 -1     15925 3.62392E+01 3.62392E+01 2.72727E+00
 -1     15930 3.71231E+01 3.71231E+01 3.18182E+00
 -1     15931 3.97982E+01 3.39909E+01 3.63636E+00
 -1     15932 3.62392E+01 3.62392E+01 3.63636E+00
 -1     15937 3.71231E+01 3.71231E+01 4.09091E+00
 -1     15938 3.97982E+01 3.39909E+01 4.54545E+00
 -1     15939 3.62392E+01 3.62392E+01 4.54545E+00
 -1     15944 3.71231E+01 3.71231E+01 5.00000E+00
 -1     15945 3.97982E+01 3.39909E+01 5.45455E+00
 -1     15946 3.62392E+01 3.62392E+01 5.45455E+00
 -1     15951 3.71231E+01 3.71231E+01 5.90909E+00
 -1     15952 3.97982E+01 3.39909E+01 6.36364E+00
 -1     15953 3.62392E+01 3.62392E+01 6.36364E+00
 -1     15958 3.71231E+01 3.71231E+01 6.81818E+00
 -1     15959 3.97982E+01 3.39909E+01 7.27273E+00
 -1     15960 3.62392E+01 3.62392E+01 7.27273E+00
 -1     15965 3.71231E+01 3.71231E+01 7.72727E+00
 -1     15966 3.97982E+01 3.39909E+01 8.18182E+00
 -1     15967 3.62392E+01 3.62392E+01 8.18182E+00
 -1     15972 3.71231E+01 3.71231E+01 8.63636E+00
 -1     15973 3.97982E+01 3.39909E+01 9.09091E+00
 -1     15974 3.62392E+01 3.62392E+01 9.09091E+00
 -1     15979 3.71231E+01 3.71231E+01 9.54545E+00
 -1     15983 3.08587E+01 4.24734E+01 4.54545E-01
 -1     15984 3.39909E+01 3.97982E+01 9.09091E-01
 -1     15985 3.01240E+01 4.14621E+01 9.09091E-01
 -1     15990 3.08587E+01 4.24734E+01 1.36364E+00
 -1     15991 3.39909E+01 3.97982E+01 1.81818E+00
 -1     15992 3.01240E+01 4.14621E+01 1.81818E+00
 -1     15997 3.08587E+01 4.24734E+01 2.27273E+00
 -1     15998 3.39909E+01 3.97982E+01 2.72727E+00
 -1     15999 3.01240E+01 4.14621E+01 2.72727E+00
 -1     16004 3.08587E+01 4.24734E+01 3.18182E+00
 -1     16005 3.39909E+01 3.97982E+01 3.63636E+00
 -1     16006 3.01240E+01 4.14621E+01 3.63636E+00
 -1     16011 3.08587E+01 4.24734E+01 4.09091E+00
 -1     16012 3.39909E+01 3.97982E+01 4.54545E+00
 -1     16013 3.01240E+01 4.14621E+01 4.54545E+00
 -1     16018 3.08587E+01 4.24734E+01 5.00000E+00
 -1     16019 3.39909E+01 3.97982E+01 5.45455E+00
 -1     16020 3.01240E+01 4.14621E+01 5.45455E+00
 -1     16025 3.08587E+01 4.24734E+01 5.90909E+00
 -1     16026 3.39909E+01 3.97982E+01 6.36364E+00
 -1     16027 3.01240E+01 4.14621E+01 6.36364E+00
 -1     16032 3.08587E+01 4.24734E+01 6.81818E+00
 -1     16033 3.39909E+01 3.97982E+01 7.27273E+00
 -1     16034 3.01240E+01 4.14621E+01 7.27273E+00
 -1     16039 3.08587E+01 4.24734E+01 7.72727E+00
 -1     16040 3.39909E+01 3.97982E+01 8.18182E+00
 -1     16041 3.01240E+01 4.14621E+01 8.18182E+00
 -1     16046 3.08587E+01 4.24734E+01 8.63636E+00
 -1     16047 3.39909E+01 3.97982E+01 9.09091E+00
 -1     16048 3.01240E+01 4.14621E+01 9.09091E+00
 -1     16053 3.08587E+01 4.24734E+01 9.54545E+00
 -1     16057 2.38345E+01 4.67778E+01 4.54545E-01
 -1     16058 2.73466E+01 4.46256E+01 9.09091E-01
 -1     16059 2.32670E+01 4.56641E+01 9.09091E-01
 -1     16064 2.38345E+01 4.67778E+01 1.36364E+00
 -1     16065 2.73466E+01 4.46256E+01 1.81818E+00
 -1     16066 2.32670E+01 4.56641E+01 1.81818E+00
 -1     16071 2.38345E+01 4.67778E+01 2.27273E+00
 -1     16072 2.73466E+01 4.46256E+01 2.72727E+00
 -1     16073 2.32670E+01 4.56641E+01 2.72727E+00
 -1     16078 2.38345E+01 4.67778E+01 3.18182E+00
 -1     16079 2.73466E+01 4.46256E+01 3.63636E+00
 -1     16080 2.32670E+01 4.56641E+01 3.63636E+00
 -1     16085 2.38345E+01 4.67778E+01 4.09091E+00
 -1     16086 2.73466E+01 4.46256E+01 4.54545E+00
 -1     16087 2.32670E+01 4.56641E+01 4.54545E+00
 -1     16092 2.38345E+01 4.67778E+01 5.00000E+00
 -1     16093 2.73466E+01 4.46256E+01 5.45455E+00
 -1     16094 2.32670E+01 4.56641E+01 5.45455E+00
 -1     16099 2.38345E+01 4.67778E+01 5.90909E+00
 -1     16100 2.73466E+01 4.46256E+01 6.36364E+00
 -1     16101 2.32670E+01 4.56641E+01 6.36364E+00
 -1     16106 2.38345E+01 4.67778E+01 6.81818E+00
 -1     16107 2.73466E+01 4.46256E+01 7.27273E+00
 -1     16108 2.32670E+01 4.56641E+01 7.27273E+00
 -1     16113 2.38345E+01 4.67778E+01 7.72727E+00
 -1     16114 2.73466E+01 4.46256E+01 8.18182E+00
 -1     16115 2.32670E+01 4.56641E+01 8.18182E+00
 -1     16120 2.38345E+01 4.67778E+01 8.63636E+00
 -1     16121 2.73466E+01 4.46256E+01 9.09091E+00
 -1     16122 2.32670E+01 4.56641E+01 9.09091E+00
 -1     16127 2.38345E+01 4.67778E+01 9.54545E+00
 -1     16131 1.62234E+01 4.99305E+01 4.54545E-01
 -1     16132 2.00289E+01 4.83542E+01 9.09091E-01
 -1     16133 1.58371E+01 4.87416E+01 9.09091E-01
 -1     16138 1.62234E+01 4.99305E+01 1.36364E+00
 -1     16139 2.00289E+01 4.83542E+01 1.81818E+00
 -1     16140 1.58371E+01 4.87416E+01 1.81818E+00
 -1     16145 1.62234E+01 4.99305E+01 2.27273E+00
 -1     16146 2.00289E+01 4.83542E+01 2.72727E+00
 -1     16147 1.58371E+01 4.87416E+01 2.72727E+00
 -1     16152 1.62234E+01 4.99305E+01 3.18182E+00
 -1     16153 2.00289E+01 4.83542E+01 3.63636E+00
 -1     16154 1.58371E+01 4.87416E+01 3.63636E+00
 -1     16159 1.62234E+01 4.99305E+01 4.09091E+00
 -1     16160 2.00289E+01 4.83542E+01 4.54545E+00
 -1     16161 1.58371E+01 4.87416E+01 4.54545E+00
 -1     16166 1.62234E+01 4.99305E+01 5.00000E+00
 -1     16167 2.00289E+01 4.83542E+01 5.45455E+00
 -1     16168 1.58371E+01 4.87416E+01 5.45455E+00
 -1     16173 1.62234E+01 4.99305E+01 5.90909E+00
 -1     16174 2.00289E+01 4.83542E+01 6.36364E+00
 -1     16175 1.58371E+01 4.87416E+01 6.36364E+00
 -1     16180 1.62234E+01 4.99305E+01 6.81818E+00
 -1     16181 2.00289E+01 4.83542E+01 7.27273E+00
 -1     16182 1.58371E+01 4.87416E+01 7.27273E+00
 -1     16187 1.62234E+01 4.99305E+01 7.72727E+00
 -1     16188 2.00289E+01 4.83542E+01 8.18182E+00
 -1     16189 1.58371E+01 4.87416E+01 8.18182E+00
 -1     16194 1.62234E+01 4.99305E+01 8.63636E+00
 -1     16195 2.00289E+01 4.83542E+01 9.09091E+00
 -1     16196 1.58371E+01 4.87416E+01 9.09091E+00
 -1     16201 1.62234E+01 4.99305E+01 9.54545E+00
 -1     16205 8.21281E+00 5.18536E+01 4.54545E-01
 -1     16206 1.22181E+01 5.08921E+01 9.09091E-01
 -1     16207 8.01727E+00 5.06190E+01 9.09091E-01
 -1     16212 8.21281E+00 5.18536E+01 1.36364E+00
 -1     16213 1.22181E+01 5.08921E+01 1.81818E+00
 -1     16214 8.01727E+00 5.06190E+01 1.81818E+00
 -1     16219 8.21281E+00 5.18536E+01 2.27273E+00
 -1     16220 1.22181E+01 5.08921E+01 2.72727E+00
 -1     16221 8.01727E+00 5.06190E+01 2.72727E+00
 -1     16226 8.21281E+00 5.18536E+01 3.18182E+00
 -1     16227 1.22181E+01 5.08921E+01 3.63636E+00
 -1     16228 8.01727E+00 5.06190E+01 3.63636E+00
 -1     16233 8.21281E+00 5.18536E+01 4.09091E+00
 -1     16234 1.22181E+01 5.08921E+01 4.54545E+00
 -1     16235 8.01727E+00 5.06190E+01 4.54545E+00
 -1     16240 8.21281E+00 5.18536E+01 5.00000E+00
 -1     16241 1.22181E+01 5.08921E+01 5.45455E+00
 -1     16242 8.01727E+00 5.06190E+01 5.45455E+00
 -1     16247 8.21281E+00 5.18536E+01 5.90909E+00
 -1     16248 1.22181E+01 5.08921E+01 6.36364E+00
 -1     16249 8.01727E+00 5.06190E+01 6.36364E+00
 -1     16254 8.21281E+00 5.18536E+01 6.81818E+00
 -1     16255 1.22181E+01 5.08921E+01 7.27273E+00
 -1     16256 8.01727E+00 5.06190E+01 7.27273E+00
 -1     16261 8.21281E+00 5.18536E+01 7.72727E+00
 -1     16262 1.22181E+01 5.08921E+01 8.18182E+00
 -1     16263 8.01727E+00 5.06190E+01 8.18182E+00
 -1     16268 8.21281E+00 5.18536E+01 8.63636E+00
 -1     16269 1.22181E+01 5.08921E+01 9.09091E+00
 -1     16270 8.01727E+00 5.06190E+01 9.09091E+00
 -1     16275 8.21281E+00 5.18536E+01 9.54545E+00
 -1     16279 4.10640E+00 5.21768E+01 9.09091E-01
 -1     16283 4.10640E+00 5.21768E+01 1.81818E+00
 -1     16287 4.10640E+00 5.21768E+01 2.72727E+00
 -1     16291 4.10640E+00 5.21768E+01 3.63636E+00
 -1     16295 4.10640E+00 5.21768E+01 4.54545E+00
 -1     16299 4.10640E+00 5.21768E+01 5.45455E+00
 -1     16303 4.10640E+00 5.21768E+01 6.36364E+00
 -1     16307 4.10640E+00 5.21768E+01 7.27273E+00
 -1     16311 4.10640E+00 5.21768E+01 8.18182E+00
 -1     16315 4.10640E+00 5.21768E+01 9.09091E+00
 -1     16321 5.43229E+01 8.60390E+00 4.54545E-01
 -1     16322 5.46614E+01 4.30195E+00 9.09091E-01
 -1     16323 5.30882E+01 8.40835E+00 9.09091E-01
 -1     16328 5.43229E+01 8.60390E+00 1.36364E+00
 -1     16329 5.46614E+01 4.30195E+00 1.81818E+00
 -1     16330 5.30882E+01 8.40835E+00 1.81818E+00
 -1     16335 5.43229E+01 8.60390E+00 2.27273E+00
 -1     16336 5.46614E+01 4.30195E+00 2.72727E+00
 -1     16337 5.30882E+01 8.40835E+00 2.72727E+00
 -1     16342 5.43229E+01 8.60390E+00 3.18182E+00
 -1     16343 5.46614E+01 4.30195E+00 3.63636E+00
 -1     16344 5.30882E+01 8.40835E+00 3.63636E+00
 -1     16349 5.43229E+01 8.60390E+00 4.09091E+00
 -1     16350 5.46614E+01 4.30195E+00 4.54545E+00
 -1     16351 5.30882E+01 8.40835E+00 4.54545E+00
 -1     16356 5.43229E+01 8.60390E+00 5.00000E+00
 -1     16357 5.46614E+01 4.30195E+00 5.45455E+00
 -1     16358 5.30882E+01 8.40835E+00 5.45455E+00
 -1     16363 5.43229E+01 8.60390E+00 5.90909E+00
 -1     16364 5.46614E+01 4.30195E+00 6.36364E+00
 -1     16365 5.30882E+01 8.40835E+00 6.36364E+00
 -1     16370 5.43229E+01 8.60390E+00 6.81818E+00
 -1     16371 5.46614E+01 4.30195E+00 7.27273E+00
 -1     16372 5.30882E+01 8.40835E+00 7.27273E+00
 -1     16377 5.43229E+01 8.60390E+00 7.72727E+00
 -1     16378 5.46614E+01 4.30195E+00 8.18182E+00
 -1     16379 5.30882E+01 8.40835E+00 8.18182E+00
 -1     16384 5.43229E+01 8.60390E+00 8.63636E+00
 -1     16385 5.46614E+01 4.30195E+00 9.09091E+00
 -1     16386 5.30882E+01 8.40835E+00 9.09091E+00
 -1     16391 5.43229E+01 8.60390E+00 9.54545E+00
 -1     16395 5.23081E+01 1.69959E+01 4.54545E-01
 -1     16396 5.33155E+01 1.27999E+01 9.09091E-01
 -1     16397 5.11193E+01 1.66097E+01 9.09091E-01
 -1     16402 5.23081E+01 1.69959E+01 1.36364E+00
 -1     16403 5.33155E+01 1.27999E+01 1.81818E+00
 -1     16404 5.11193E+01 1.66097E+01 1.81818E+00
 -1     16409 5.23081E+01 1.69959E+01 2.27273E+00
 -1     16410 5.33155E+01 1.27999E+01 2.72727E+00
 -1     16411 5.11193E+01 1.66097E+01 2.72727E+00
 -1     16416 5.23081E+01 1.69959E+01 3.18182E+00
 -1     16417 5.33155E+01 1.27999E+01 3.63636E+00
 -1     16418 5.11193E+01 1.66097E+01 3.63636E+00
 -1     16423 5.23081E+01 1.69959E+01 4.09091E+00
 -1     16424 5.33155E+01 1.27999E+01 4.54545E+00
 -1     16425 5.11193E+01 1.66097E+01 4.54545E+00
 -1     16430 5.23081E+01 1.69959E+01 5.00000E+00
 -1     16431 5.33155E+01 1.27999E+01 5.45455E+00
 -1     16432 5.11193E+01 1.66097E+01 5.45455E+00
 -1     16437 5.23081E+01 1.69959E+01 5.90909E+00
 -1     16438 5.33155E+01 1.27999E+01 6.36364E+00
 -1     16439 5.11193E+01 1.66097E+01 6.36364E+00
 -1     16444 5.23081E+01 1.69959E+01 6.81818E+00
 -1     16445 5.33155E+01 1.27999E+01 7.27273E+00
 -1     16446 5.11193E+01 1.66097E+01 7.27273E+00
 -1     16451 5.23081E+01 1.69959E+01 7.72727E+00
 -1     16452 5.33155E+01 1.27999E+01 8.18182E+00
 -1     16453 5.11193E+01 1.66097E+01 8.18182E+00
 -1     16458 5.23081E+01 1.69959E+01 8.63636E+00
 -1     16459 5.33155E+01 1.27999E+01 9.09091E+00
 -1     16460 5.11193E+01 1.66097E+01 9.09091E+00
 -1     16465 5.23081E+01 1.69959E+01 9.54545E+00
 -1     16469 4.90054E+01 2.49695E+01 4.54545E-01
 -1     16470 5.06567E+01 2.09827E+01 9.09091E-01
 -1     16471 4.78916E+01 2.44020E+01 9.09091E-01
 -1     16476 4.90054E+01 2.49695E+01 1.36364E+00
 -1     16477 5.06567E+01 2.09827E+01 1.81818E+00
 -1     16478 4.78916E+01 2.44020E+01 1.81818E+00
 -1     16483 4.90054E+01 2.49695E+01 2.27273E+00
 -1     16484 5.06567E+01 2.09827E+01 2.72727E+00
 -1     16485 4.78916E+01 2.44020E+01 2.72727E+00
 -1     16490 4.90054E+01 2.49695E+01 3.18182E+00
 -1     16491 5.06567E+01 2.09827E+01 3.63636E+00
 -1     16492 4.78916E+01 2.44020E+01 3.63636E+00
 -1     16497 4.90054E+01 2.49695E+01 4.09091E+00
 -1     16498 5.06567E+01 2.09827E+01 4.54545E+00
 -1     16499 4.78916E+01 2.44020E+01 4.54545E+00
 -1     16504 4.90054E+01 2.49695E+01 5.00000E+00
 -1     16505 5.06567E+01 2.09827E+01 5.45455E+00
 -1     16506 4.78916E+01 2.44020E+01 5.45455E+00
 -1     16511 4.90054E+01 2.49695E+01 5.90909E+00
 -1     16512 5.06567E+01 2.09827E+01 6.36364E+00
 -1     16513 4.78916E+01 2.44020E+01 6.36364E+00
 -1     16518 4.90054E+01 2.49695E+01 6.81818E+00
 -1     16519 5.06567E+01 2.09827E+01 7.27273E+00
 -1     16520 4.78916E+01 2.44020E+01 7.27273E+00
 -1     16525 4.90054E+01 2.49695E+01 7.72727E+00
 -1     16526 5.06567E+01 2.09827E+01 8.18182E+00
 -1     16527 4.78916E+01 2.44020E+01 8.18182E+00
 -1     16532 4.90054E+01 2.49695E+01 8.63636E+00
 -1     16533 5.06567E+01 2.09827E+01 9.09091E+00
 -1     16534 4.78916E+01 2.44020E+01 9.09091E+00
 -1     16539 4.90054E+01 2.49695E+01 9.54545E+00
 -1     16543 4.44959E+01 3.23282E+01 4.54545E-01
 -1     16544 4.67506E+01 2.86488E+01 9.09091E-01
 -1     16545 4.34847E+01 3.15935E+01 9.09091E-01
 -1     16550 4.44959E+01 3.23282E+01 1.36364E+00
 -1     16551 4.67506E+01 2.86488E+01 1.81818E+00
 -1     16552 4.34847E+01 3.15935E+01 1.81818E+00
 -1     16557 4.44959E+01 3.23282E+01 2.27273E+00
 -1     16558 4.67506E+01 2.86488E+01 2.72727E+00
 -1     16559 4.34847E+01 3.15935E+01 2.72727E+00
 -1     16564 4.44959E+01 3.23282E+01 3.18182E+00
 -1     16565 4.67506E+01 2.86488E+01 3.63636E+00
 -1     16566 4.34847E+01 3.15935E+01 3.63636E+00
 -1     16571 4.44959E+01 3.23282E+01 4.09091E+00
 -1     16572 4.67506E+01 2.86488E+01 4.54545E+00
 -1     16573 4.34847E+01 3.15935E+01 4.54545E+00
 -1     16578 4.44959E+01 3.23282E+01 5.00000E+00
 -1     16579 4.67506E+01 2.86488E+01 5.45455E+00
 -1     16580 4.34847E+01 3.15935E+01 5.45455E+00
 -1     16585 4.44959E+01 3.23282E+01 5.90909E+00
 -1     16586 4.67506E+01 2.86488E+01 6.36364E+00
 -1     16587 4.34847E+01 3.15935E+01 6.36364E+00
 -1     16592 4.44959E+01 3.23282E+01 6.81818E+00
 -1     16593 4.67506E+01 2.86488E+01 7.27273E+00
 -1     16594 4.34847E+01 3.15935E+01 7.27273E+00
 -1     16599 4.44959E+01 3.23282E+01 7.72727E+00
 -1     16600 4.67506E+01 2.86488E+01 8.18182E+00
 -1     16601 4.34847E+01 3.15935E+01 8.18182E+00
 -1     16606 4.44959E+01 3.23282E+01 8.63636E+00
 -1     16607 4.67506E+01 2.86488E+01 9.09091E+00
 -1     16608 4.34847E+01 3.15935E+01 9.09091E+00
 -1     16613 4.44959E+01 3.23282E+01 9.54545E+00
 -1     16617 3.88909E+01 3.88909E+01 4.54545E-01
 -1     16618 4.16934E+01 3.56095E+01 9.09091E-01
 -1     16619 3.80070E+01 3.80070E+01 9.09091E-01
 -1     16624 3.88909E+01 3.88909E+01 1.36364E+00
 -1     16625 4.16934E+01 3.56095E+01 1.81818E+00
 -1     16626 3.80070E+01 3.80070E+01 1.81818E+00
 -1     16631 3.88909E+01 3.88909E+01 2.27273E+00
 -1     16632 4.16934E+01 3.56095E+01 2.72727E+00
 -1     16633 3.80070E+01 3.80070E+01 2.72727E+00
 -1     16638 3.88909E+01 3.88909E+01 3.18182E+00
 -1     16639 4.16934E+01 3.56095E+01 3.63636E+00
 -1     16640 3.80070E+01 3.80070E+01 3.63636E+00
 -1     16645 3.88909E+01 3.88909E+01 4.09091E+00
 -1     16646 4.16934E+01 3.56095E+01 4.54545E+00
 -1     16647 3.80070E+01 3.80070E+01 4.54545E+00
 -1     16652 3.88909E+01 3.88909E+01 5.00000E+00
 -1     16653 4.16934E+01 3.56095E+01 5.45455E+00
 -1     16654 3.80070E+01 3.80070E+01 5.45455E+00
 -1     16659 3.88909E+01 3.88909E+01 5.90909E+00
 -1     16660 4.16934E+01 3.56095E+01 6.36364E+00
 -1     16661 3.80070E+01 3.80070E+01 6.36364E+00
 -1     16666 3.88909E+01 3.88909E+01 6.81818E+00
 -1     16667 4.16934E+01 3.56095E+01 7.27273E+00
 -1     16668 3.80070E+01 3.80070E+01 7.27273E+00
 -1     16673 3.88909E+01 3.88909E+01 7.72727E+00
 -1     16674 4.16934E+01 3.56095E+01 8.18182E+00
 -1     16675 3.80070E+01 3.80070E+01 8.18182E+00
 -1     16680 3.88909E+01 3.88909E+01 8.63636E+00
 -1     16681 4.16934E+01 3.56095E+01 9.09091E+00
 -1     16682 3.80070E+01 3.80070E+01 9.09091E+00
 -1     16687 3.88909E+01 3.88909E+01 9.54545E+00
 -1     16691 3.23282E+01 4.44959E+01 4.54545E-01
 -1     16692 3.56095E+01 4.16934E+01 9.09091E-01
 -1     16693 3.15935E+01 4.34847E+01 9.09091E-01
 -1     16698 3.23282E+01 4.44959E+01 1.36364E+00
 -1     16699 3.56095E+01 4.16934E+01 1.81818E+00
 -1     16700 3.15935E+01 4.34847E+01 1.81818E+00
 -1     16705 3.23282E+01 4.44959E+01 2.27273E+00
 -1     16706 3.56095E+01 4.16934E+01 2.72727E+00
 -1     16707 3.15935E+01 4.34847E+01 2.72727E+00
 -1     16712 3.23282E+01 4.44959E+01 3.18182E+00
 -1     16713 3.56095E+01 4.16934E+01 3.63636E+00
 -1     16714 3.15935E+01 4.34847E+01 3.63636E+00
 -1     16719 3.23282E+01 4.44959E+01 4.09091E+00
 -1     16720 3.56095E+01 4.16934E+01 4.54545E+00
 -1     16721 3.15935E+01 4.34847E+01 4.54545E+00
 -1     16726 3.23282E+01 4.44959E+01 5.00000E+00
 -1     16727 3.56095E+01 4.16934E+01 5.45455E+00
 -1     16728 3.15935E+01 4.34847E+01 5.45455E+00
 -1     16733 3.23282E+01 4.44959E+01 5.90909E+00
 -1     16734 3.56095E+01 4.16934E+01 6.36364E+00
 -1     16735 3.15935E+01 4.34847E+01 6.36364E+00
 -1     16740 3.23282E+01 4.44959E+01 6.81818E+00
 -1     16741 3.56095E+01 4.16934E+01 7.27273E+00
 -1     16742 3.15935E+01 4.34847E+01 7.27273E+00
 -1     16747 3.23282E+01 4.44959E+01 7.72727E+00
 -1     16748 3.56095E+01 4.16934E+01 8.18182E+00
 -1     16749 3.15935E+01 4.34847E+01 8.18182E+00
 -1     16754 3.23282E+01 4.44959E+01 8.63636E+00
 -1     16755 3.56095E+01 4.16934E+01 9.09091E+00
 -1     16756 3.15935E+01 4.34847E+01 9.09091E+00
 -1     16761 3.23282E+01 4.44959E+01 9.54545E+00
 -1     16765 2.49695E+01 4.90054E+01 4.54545E-01
 -1     16766 2.86488E+01 4.67506E+01 9.09091E-01
 -1     16767 2.44020E+01 4.78916E+01 9.09091E-01
 -1     16772 2.49695E+01 4.90054E+01 1.36364E+00
 -1     16773 2.86488E+01 4.67506E+01 1.81818E+00
 -1     16774 2.44020E+01 4.78916E+01 1.81818E+00
 -1     16779 2.49695E+01 4.90054E+01 2.27273E+00
 -1     16780 2.86488E+01 4.67506E+01 2.72727E+00
 -1     16781 2.44020E+01 4.78916E+01 2.72727E+00
 -1     16786 2.49695E+01 4.90054E+01 3.18182E+00
 -1     16787 2.86488E+01 4.67506E+01 3.63636E+00
 -1     16788 2.44020E+01 4.78916E+01 3.63636E+00
 -1     16793 2.49695E+01 4.90054E+01 4.09091E+00
 -1     16794 2.86488E+01 4.67506E+01 4.54545E+00
 -1     16795 2.44020E+01 4.78916E+01 4.54545E+00
 -1     16800 2.49695E+01 4.90054E+01 5.00000E+00
 -1     16801 2.86488E+01 4.67506E+01 5.45455E+00
 -1     16802 2.44020E+01 4.78916E+01 5.45455E+00
 -1     16807 2.49695E+01 4.90054E+01 5.90909E+00
 -1     16808 2.86488E+01 4.67506E+01 6.36364E+00
 -1     16809 2.44020E+01 4.78916E+01 6.36364E+00
 -1     16814 2.49695E+01 4.90054E+01 6.81818E+00
 -1     16815 2.86488E+01 4.67506E+01 7.27273E+00
 -1     16816 2.44020E+01 4.78916E+01 7.27273E+00
 -1     16821 2.49695E+01 4.90054E+01 7.72727E+00
 -1     16822 2.86488E+01 4.67506E+01 8.18182E+00
 -1     16823 2.44020E+01 4.78916E+01 8.18182E+00
 -1     16828 2.49695E+01 4.90054E+01 8.63636E+00
 -1     16829 2.86488E+01 4.67506E+01 9.09091E+00
 -1     16830 2.44020E+01 4.78916E+01 9.09091E+00
 -1     16835 2.49695E+01 4.90054E+01 9.54545E+00
 -1     16839 1.69959E+01 5.23081E+01 4.54545E-01
 -1     16840 2.09827E+01 5.06567E+01 9.09091E-01
 -1     16841 1.66097E+01 5.11193E+01 9.09091E-01
 -1     16846 1.69959E+01 5.23081E+01 1.36364E+00
 -1     16847 2.09827E+01 5.06567E+01 1.81818E+00
 -1     16848 1.66097E+01 5.11193E+01 1.81818E+00
 -1     16853 1.69959E+01 5.23081E+01 2.27273E+00
 -1     16854 2.09827E+01 5.06567E+01 2.72727E+00
 -1     16855 1.66097E+01 5.11193E+01 2.72727E+00
 -1     16860 1.69959E+01 5.23081E+01 3.18182E+00
 -1     16861 2.09827E+01 5.06567E+01 3.63636E+00
 -1     16862 1.66097E+01 5.11193E+01 3.63636E+00
 -1     16867 1.69959E+01 5.23081E+01 4.09091E+00
 -1     16868 2.09827E+01 5.06567E+01 4.54545E+00
 -1     16869 1.66097E+01 5.11193E+01 4.54545E+00
 -1     16874 1.69959E+01 5.23081E+01 5.00000E+00
 -1     16875 2.09827E+01 5.06567E+01 5.45455E+00
 -1     16876 1.66097E+01 5.11193E+01 5.45455E+00
 -1     16881 1.69959E+01 5.23081E+01 5.90909E+00
 -1     16882 2.09827E+01 5.06567E+01 6.36364E+00
 -1     16883 1.66097E+01 5.11193E+01 6.36364E+00
 -1     16888 1.69959E+01 5.23081E+01 6.81818E+00
 -1     16889 2.09827E+01 5.06567E+01 7.27273E+00
 -1     16890 1.66097E+01 5.11193E+01 7.27273E+00
 -1     16895 1.69959E+01 5.23081E+01 7.72727E+00
 -1     16896 2.09827E+01 5.06567E+01 8.18182E+00
 -1     16897 1.66097E+01 5.11193E+01 8.18182E+00
 -1     16902 1.69959E+01 5.23081E+01 8.63636E+00
 -1     16903 2.09827E+01 5.06567E+01 9.09091E+00
 -1     16904 1.66097E+01 5.11193E+01 9.09091E+00
 -1     16909 1.69959E+01 5.23081E+01 9.54545E+00
 -1     16913 8.60390E+00 5.43229E+01 4.54545E-01
 -1     16914 1.27999E+01 5.33155E+01 9.09091E-01
 -1     16915 8.40835E+00 5.30882E+01 9.09091E-01
 -1     16920 8.60390E+00 5.43229E+01 1.36364E+00
 -1     16921 1.27999E+01 5.33155E+01 1.81818E+00
 -1     16922 8.40835E+00 5.30882E+01 1.81818E+00
 -1     16927 8.60390E+00 5.43229E+01 2.27273E+00
 -1     16928 1.27999E+01 5.33155E+01 2.72727E+00
 -1     16929 8.40835E+00 5.30882E+01 2.72727E+00
 -1     16934 8.60390E+00 5.43229E+01 3.18182E+00
 -1     16935 1.27999E+01 5.33155E+01 3.63636E+00
 -1     16936 8.40835E+00 5.30882E+01 3.63636E+00
 -1     16941 8.60390E+00 5.43229E+01 4.09091E+00
 -1     16942 1.27999E+01 5.33155E+01 4.54545E+00
 -1     16943 8.40835E+00 5.30882E+01 4.54545E+00
 -1     16948 8.60390E+00 5.43229E+01 5.00000E+00
 -1     16949 1.27999E+01 5.33155E+01 5.45455E+00
 -1     16950 8.40835E+00 5.30882E+01 5.45455E+00
 -1     16955 8.60390E+00 5.43229E+01 5.90909E+00
 -1     16956 1.27999E+01 5.33155E+01 6.36364E+00
 -1     16957 8.40835E+00 5.30882E+01 6.36364E+00
 -1     16962 8.60390E+00 5.43229E+01 6.81818E+00
 -1     16963 1.27999E+01 5.33155E+01 7.27273E+00
 -1     16964 8.40835E+00 5.30882E+01 7.27273E+00
 -1     16969 8.60390E+00 5.43229E+01 7.72727E+00
 -1     16970 1.27999E+01 5.33155E+01 8.18182E+00
 -1     16971 8.40835E+00 5.30882E+01 8.18182E+00
 -1     16976 8.60390E+00 5.43229E+01 8.63636E+00
 -1     16977 1.27999E+01 5.33155E+01 9.09091E+00
 -1     16978 8.40835E+00 5.30882E+01 9.09091E+00
 -1     16983 8.60390E+00 5.43229E+01 9.54545E+00
 -1     16987 4.30195E+00 5.46614E+01 9.09091E-01
 -1     16991 4.30195E+00 5.46614E+01 1.81818E+00
 -1     16995 4.30195E+00 5.46614E+01 2.72727E+00
 -1     16999 4.30195E+00 5.46614E+01 3.63636E+00
 -1     17003 4.30195E+00 5.46614E+01 4.54545E+00
 -1     17007 4.30195E+00 5.46614E+01 5.45455E+00
 -1     17011 4.30195E+00 5.46614E+01 6.36364E+00
 -1     17015 4.30195E+00 5.46614E+01 7.27273E+00
 -1     17019 4.30195E+00 5.46614E+01 8.18182E+00
 -1     17023 4.30195E+00 5.46614E+01 9.09091E+00
 -1     17029 5.67921E+01 8.99498E+00 4.54545E-01
 -1     17030 5.71460E+01 4.49749E+00 9.09091E-01
 -1     17031 5.55575E+01 8.79944E+00 9.09091E-01
 -1     17036 5.67921E+01 8.99498E+00 1.36364E+00
 -1     17037 5.71460E+01 4.49749E+00 1.81818E+00
 -1     17038 5.55575E+01 8.79944E+00 1.81818E+00
 -1     17043 5.67921E+01 8.99498E+00 2.27273E+00
 -1     17044 5.71460E+01 4.49749E+00 2.72727E+00
 -1     17045 5.55575E+01 8.79944E+00 2.72727E+00
 -1     17050 5.67921E+01 8.99498E+00 3.18182E+00
 -1     17051 5.71460E+01 4.49749E+00 3.63636E+00
 -1     17052 5.55575E+01 8.79944E+00 3.63636E+00
 -1     17057 5.67921E+01 8.99498E+00 4.09091E+00
 -1     17058 5.71460E+01 4.49749E+00 4.54545E+00
 -1     17059 5.55575E+01 8.79944E+00 4.54545E+00
 -1     17064 5.67921E+01 8.99498E+00 5.00000E+00
 -1     17065 5.71460E+01 4.49749E+00 5.45455E+00
 -1     17066 5.55575E+01 8.79944E+00 5.45455E+00
 -1     17071 5.67921E+01 8.99498E+00 5.90909E+00
 -1     17072 5.71460E+01 4.49749E+00 6.36364E+00
 -1     17073 5.55575E+01 8.79944E+00 6.36364E+00
 -1     17078 5.67921E+01 8.99498E+00 6.81818E+00
 -1     17079 5.71460E+01 4.49749E+00 7.27273E+00
 -1     17080 5.55575E+01 8.79944E+00 7.27273E+00
 -1     17085 5.67921E+01 8.99498E+00 7.72727E+00
 -1     17086 5.71460E+01 4.49749E+00 8.18182E+00
 -1     17087 5.55575E+01 8.79944E+00 8.18182E+00
 -1     17092 5.67921E+01 8.99498E+00 8.63636E+00
 -1     17093 5.71460E+01 4.49749E+00 9.09091E+00
 -1     17094 5.55575E+01 8.79944E+00 9.09091E+00
 -1     17099 5.67921E+01 8.99498E+00 9.54545E+00
 -1     17103 5.46857E+01 1.77685E+01 4.54545E-01
 -1     17104 5.57389E+01 1.33817E+01 9.09091E-01
 -1     17105 5.34969E+01 1.73822E+01 9.09091E-01
 -1     17110 5.46857E+01 1.77685E+01 1.36364E+00
 -1     17111 5.57389E+01 1.33817E+01 1.81818E+00
 -1     17112 5.34969E+01 1.73822E+01 1.81818E+00
 -1     17117 5.46857E+01 1.77685E+01 2.27273E+00
 -1     17118 5.57389E+01 1.33817E+01 2.72727E+00
 -1     17119 5.34969E+01 1.73822E+01 2.72727E+00
 -1     17124 5.46857E+01 1.77685E+01 3.18182E+00
 -1     17125 5.57389E+01 1.33817E+01 3.63636E+00
 -1     17126 5.34969E+01 1.73822E+01 3.63636E+00
 -1     17131 5.46857E+01 1.77685E+01 4.09091E+00
 -1     17132 5.57389E+01 1.33817E+01 4.54545E+00
 -1     17133 5.34969E+01 1.73822E+01 4.54545E+00
 -1     17138 5.46857E+01 1.77685E+01 5.00000E+00
 -1     17139 5.57389E+01 1.33817E+01 5.45455E+00
 -1     17140 5.34969E+01 1.73822E+01 5.45455E+00
 -1     17145 5.46857E+01 1.77685E+01 5.90909E+00
 -1     17146 5.57389E+01 1.33817E+01 6.36364E+00
 -1     17147 5.34969E+01 1.73822E+01 6.36364E+00
 -1     17152 5.46857E+01 1.77685E+01 6.81818E+00
 -1     17153 5.57389E+01 1.33817E+01 7.27273E+00
 -1     17154 5.34969E+01 1.73822E+01 7.27273E+00
 -1     17159 5.46857E+01 1.77685E+01 7.72727E+00
 -1     17160 5.57389E+01 1.33817E+01 8.18182E+00
 -1     17161 5.34969E+01 1.73822E+01 8.18182E+00
 -1     17166 5.46857E+01 1.77685E+01 8.63636E+00
 -1     17167 5.57389E+01 1.33817E+01 9.09091E+00
 -1     17168 5.34969E+01 1.73822E+01 9.09091E+00
 -1     17173 5.46857E+01 1.77685E+01 9.54545E+00
 -1     17177 5.12329E+01 2.61045E+01 4.54545E-01
 -1     17178 5.29593E+01 2.19365E+01 9.09091E-01
 -1     17179 5.01191E+01 2.55370E+01 9.09091E-01
 -1     17184 5.12329E+01 2.61045E+01 1.36364E+00
 -1     17185 5.29593E+01 2.19365E+01 1.81818E+00
 -1     17186 5.01191E+01 2.55370E+01 1.81818E+00
 -1     17191 5.12329E+01 2.61045E+01 2.27273E+00
 -1     17192 5.29593E+01 2.19365E+01 2.72727E+00
 -1     17193 5.01191E+01 2.55370E+01 2.72727E+00
 -1     17198 5.12329E+01 2.61045E+01 3.18182E+00
 -1     17199 5.29593E+01 2.19365E+01 3.63636E+00
 -1     17200 5.01191E+01 2.55370E+01 3.63636E+00
 -1     17205 5.12329E+01 2.61045E+01 4.09091E+00
 -1     17206 5.29593E+01 2.19365E+01 4.54545E+00
 -1     17207 5.01191E+01 2.55370E+01 4.54545E+00
 -1     17212 5.12329E+01 2.61045E+01 5.00000E+00
 -1     17213 5.29593E+01 2.19365E+01 5.45455E+00
 -1     17214 5.01191E+01 2.55370E+01 5.45455E+00
 -1     17219 5.12329E+01 2.61045E+01 5.90909E+00
 -1     17220 5.29593E+01 2.19365E+01 6.36364E+00
 -1     17221 5.01191E+01 2.55370E+01 6.36364E+00
 -1     17226 5.12329E+01 2.61045E+01 6.81818E+00
 -1     17227 5.29593E+01 2.19365E+01 7.27273E+00
 -1     17228 5.01191E+01 2.55370E+01 7.27273E+00
 -1     17233 5.12329E+01 2.61045E+01 7.72727E+00
 -1     17234 5.29593E+01 2.19365E+01 8.18182E+00
 -1     17235 5.01191E+01 2.55370E+01 8.18182E+00
 -1     17240 5.12329E+01 2.61045E+01 8.63636E+00
 -1     17241 5.29593E+01 2.19365E+01 9.09091E+00
 -1     17242 5.01191E+01 2.55370E+01 9.09091E+00
 -1     17247 5.12329E+01 2.61045E+01 9.54545E+00
 -1     17251 4.65185E+01 3.37977E+01 4.54545E-01
 -1     17252 4.88757E+01 2.99511E+01 9.09091E-01
 -1     17253 4.55072E+01 3.30629E+01 9.09091E-01
 -1     17258 4.65185E+01 3.37977E+01 1.36364E+00
 -1     17259 4.88757E+01 2.99511E+01 1.81818E+00
 -1     17260 4.55072E+01 3.30629E+01 1.81818E+00
 -1     17265 4.65185E+01 3.37977E+01 2.27273E+00
 -1     17266 4.88757E+01 2.99511E+01 2.72727E+00
 -1     17267 4.55072E+01 3.30629E+01 2.72727E+00
 -1     17272 4.65185E+01 3.37977E+01 3.18182E+00
 -1     17273 4.88757E+01 2.99511E+01 3.63636E+00
 -1     17274 4.55072E+01 3.30629E+01 3.63636E+00
 -1     17279 4.65185E+01 3.37977E+01 4.09091E+00
 -1     17280 4.88757E+01 2.99511E+01 4.54545E+00
 -1     17281 4.55072E+01 3.30629E+01 4.54545E+00
 -1     17286 4.65185E+01 3.37977E+01 5.00000E+00
 -1     17287 4.88757E+01 2.99511E+01 5.45455E+00
 -1     17288 4.55072E+01 3.30629E+01 5.45455E+00
 -1     17293 4.65185E+01 3.37977E+01 5.90909E+00
 -1     17294 4.88757E+01 2.99511E+01 6.36364E+00
 -1     17295 4.55072E+01 3.30629E+01 6.36364E+00
 -1     17300 4.65185E+01 3.37977E+01 6.81818E+00
 -1     17301 4.88757E+01 2.99511E+01 7.27273E+00
 -1     17302 4.55072E+01 3.30629E+01 7.27273E+00
 -1     17307 4.65185E+01 3.37977E+01 7.72727E+00
 -1     17308 4.88757E+01 2.99511E+01 8.18182E+00
 -1     17309 4.55072E+01 3.30629E+01 8.18182E+00
 -1     17314 4.65185E+01 3.37977E+01 8.63636E+00
 -1     17315 4.88757E+01 2.99511E+01 9.09091E+00
 -1     17316 4.55072E+01 3.30629E+01 9.09091E+00
 -1     17321 4.65185E+01 3.37977E+01 9.54545E+00
 -1     17325 4.06586E+01 4.06586E+01 4.54545E-01
 -1     17326 4.35886E+01 3.72281E+01 9.09091E-01
 -1     17327 3.97748E+01 3.97748E+01 9.09091E-01
 -1     17332 4.06586E+01 4.06586E+01 1.36364E+00
 -1     17333 4.35886E+01 3.72281E+01 1.81818E+00
 -1     17334 3.97748E+01 3.97748E+01 1.81818E+00
 -1     17339 4.06586E+01 4.06586E+01 2.27273E+00
 -1     17340 4.35886E+01 3.72281E+01 2.72727E+00
 -1     17341 3.97748E+01 3.97748E+01 2.72727E+00
 -1     17346 4.06586E+01 4.06586E+01 3.18182E+00
 -1     17347 4.35886E+01 3.72281E+01 3.63636E+00
 -1     17348 3.97748E+01 3.97748E+01 3.63636E+00
 -1     17353 4.06586E+01 4.06586E+01 4.09091E+00
 -1     17354 4.35886E+01 3.72281E+01 4.54545E+00
 -1     17355 3.97748E+01 3.97748E+01 4.54545E+00
 -1     17360 4.06586E+01 4.06586E+01 5.00000E+00
 -1     17361 4.35886E+01 3.72281E+01 5.45455E+00
 -1     17362 3.97748E+01 3.97748E+01 5.45455E+00
 -1     17367 4.06586E+01 4.06586E+01 5.90909E+00
 -1     17368 4.35886E+01 3.72281E+01 6.36364E+00
 -1     17369 3.97748E+01 3.97748E+01 6.36364E+00
 -1     17374 4.06586E+01 4.06586E+01 6.81818E+00
 -1     17375 4.35886E+01 3.72281E+01 7.27273E+00
 -1     17376 3.97748E+01 3.97748E+01 7.27273E+00
 -1     17381 4.06586E+01 4.06586E+01 7.72727E+00
 -1     17382 4.35886E+01 3.72281E+01 8.18182E+00
 -1     17383 3.97748E+01 3.97748E+01 8.18182E+00
 -1     17388 4.06586E+01 4.06586E+01 8.63636E+00
 -1     17389 4.35886E+01 3.72281E+01 9.09091E+00
 -1     17390 3.97748E+01 3.97748E+01 9.09091E+00
 -1     17395 4.06586E+01 4.06586E+01 9.54545E+00
 -1     17399 3.37977E+01 4.65185E+01 4.54545E-01
 -1     17400 3.72281E+01 4.35886E+01 9.09091E-01
 -1     17401 3.30629E+01 4.55072E+01 9.09091E-01
 -1     17406 3.37977E+01 4.65185E+01 1.36364E+00
 -1     17407 3.72281E+01 4.35886E+01 1.81818E+00
 -1     17408 3.30629E+01 4.55072E+01 1.81818E+00
 -1     17413 3.37977E+01 4.65185E+01 2.27273E+00
 -1     17414 3.72281E+01 4.35886E+01 2.72727E+00
 -1     17415 3.30629E+01 4.55072E+01 2.72727E+00
 -1     17420 3.37977E+01 4.65185E+01 3.18182E+00
 -1     17421 3.72281E+01 4.35886E+01 3.63636E+00
 -1     17422 3.30629E+01 4.55072E+01 3.63636E+00
 -1     17427 3.37977E+01 4.65185E+01 4.09091E+00
 -1     17428 3.72281E+01 4.35886E+01 4.54545E+00
 -1     17429 3.30629E+01 4.55072E+01 4.54545E+00
 -1     17434 3.37977E+01 4.65185E+01 5.00000E+00
 -1     17435 3.72281E+01 4.35886E+01 5.45455E+00
 -1     17436 3.30629E+01 4.55072E+01 5.45455E+00
 -1     17441 3.37977E+01 4.65185E+01 5.90909E+00
 -1     17442 3.72281E+01 4.35886E+01 6.36364E+00
 -1     17443 3.30629E+01 4.55072E+01 6.36364E+00
 -1     17448 3.37977E+01 4.65185E+01 6.81818E+00
 -1     17449 3.72281E+01 4.35886E+01 7.27273E+00
 -1     17450 3.30629E+01 4.55072E+01 7.27273E+00
 -1     17455 3.37977E+01 4.65185E+01 7.72727E+00
 -1     17456 3.72281E+01 4.35886E+01 8.18182E+00
 -1     17457 3.30629E+01 4.55072E+01 8.18182E+00
 -1     17462 3.37977E+01 4.65185E+01 8.63636E+00
 -1     17463 3.72281E+01 4.35886E+01 9.09091E+00
 -1     17464 3.30629E+01 4.55072E+01 9.09091E+00
 -1     17469 3.37977E+01 4.65185E+01 9.54545E+00
 -1     17473 2.61045E+01 5.12329E+01 4.54545E-01
 -1     17474 2.99511E+01 4.88757E+01 9.09091E-01
 -1     17475 2.55370E+01 5.01191E+01 9.09091E-01
 -1     17480 2.61045E+01 5.12329E+01 1.36364E+00
 -1     17481 2.99511E+01 4.88757E+01 1.81818E+00
 -1     17482 2.55370E+01 5.01191E+01 1.81818E+00
 -1     17487 2.61045E+01 5.12329E+01 2.27273E+00
 -1     17488 2.99511E+01 4.88757E+01 2.72727E+00
 -1     17489 2.55370E+01 5.01191E+01 2.72727E+00
 -1     17494 2.61045E+01 5.12329E+01 3.18182E+00
 -1     17495 2.99511E+01 4.88757E+01 3.63636E+00
 -1     17496 2.55370E+01 5.01191E+01 3.63636E+00
 -1     17501 2.61045E+01 5.12329E+01 4.09091E+00
 -1     17502 2.99511E+01 4.88757E+01 4.54545E+00
 -1     17503 2.55370E+01 5.01191E+01 4.54545E+00
 -1     17508 2.61045E+01 5.12329E+01 5.00000E+00
 -1     17509 2.99511E+01 4.88757E+01 5.45455E+00
 -1     17510 2.55370E+01 5.01191E+01 5.45455E+00
 -1     17515 2.61045E+01 5.12329E+01 5.90909E+00
 -1     17516 2.99511E+01 4.88757E+01 6.36364E+00
 -1     17517 2.55370E+01 5.01191E+01 6.36364E+00
 -1     17522 2.61045E+01 5.12329E+01 6.81818E+00
 -1     17523 2.99511E+01 4.88757E+01 7.27273E+00
 -1     17524 2.55370E+01 5.01191E+01 7.27273E+00
 -1     17529 2.61045E+01 5.12329E+01 7.72727E+00
 -1     17530 2.99511E+01 4.88757E+01 8.18182E+00
 -1     17531 2.55370E+01 5.01191E+01 8.18182E+00
 -1     17536 2.61045E+01 5.12329E+01 8.63636E+00
 -1     17537 2.99511E+01 4.88757E+01 9.09091E+00
 -1     17538 2.55370E+01 5.01191E+01 9.09091E+00
 -1     17543 2.61045E+01 5.12329E+01 9.54545E+00
 -1     17547 1.77685E+01 5.46857E+01 4.54545E-01
 -1     17548 2.19365E+01 5.29593E+01 9.09091E-01
 -1     17549 1.73822E+01 5.34969E+01 9.09091E-01
 -1     17554 1.77685E+01 5.46857E+01 1.36364E+00
 -1     17555 2.19365E+01 5.29593E+01 1.81818E+00
 -1     17556 1.73822E+01 5.34969E+01 1.81818E+00
 -1     17561 1.77685E+01 5.46857E+01 2.27273E+00
 -1     17562 2.19365E+01 5.29593E+01 2.72727E+00
 -1     17563 1.73822E+01 5.34969E+01 2.72727E+00
 -1     17568 1.77685E+01 5.46857E+01 3.18182E+00
 -1     17569 2.19365E+01 5.29593E+01 3.63636E+00
 -1     17570 1.73822E+01 5.34969E+01 3.63636E+00
 -1     17575 1.77685E+01 5.46857E+01 4.09091E+00
 -1     17576 2.19365E+01 5.29593E+01 4.54545E+00
 -1     17577 1.73822E+01 5.34969E+01 4.54545E+00
 -1     17582 1.77685E+01 5.46857E+01 5.00000E+00
 -1     17583 2.19365E+01 5.29593E+01 5.45455E+00
 -1     17584 1.73822E+01 5.34969E+01 5.45455E+00
 -1     17589 1.77685E+01 5.46857E+01 5.90909E+00
 -1     17590 2.19365E+01 5.29593E+01 6.36364E+00
 -1     17591 1.73822E+01 5.34969E+01 6.36364E+00
 -1     17596 1.77685E+01 5.46857E+01 6.81818E+00
 -1     17597 2.19365E+01 5.29593E+01 7.27273E+00
 -1     17598 1.73822E+01 5.34969E+01 7.27273E+00
 -1     17603 1.77685E+01 5.46857E+01 7.72727E+00
 -1     17604 2.19365E+01 5.29593E+01 8.18182E+00
 -1     17605 1.73822E+01 5.34969E+01 8.18182E+00
 -1     17610 1.77685E+01 5.46857E+01 8.63636E+00
 -1     17611 2.19365E+01 5.29593E+01 9.09091E+00
 -1     17612 1.73822E+01 5.34969E+01 9.09091E+00
 -1     17617 1.77685E+01 5.46857E+01 9.54545E+00
 -1     17621 8.99498E+00 5.67921E+01 4.54545E-01
 -1     17622 1.33817E+01 5.57389E+01 9.09091E-01
 -1     17623 8.79944E+00 5.55575E+01 9.09091E-01
 -1     17628 8.99498E+00 5.67921E+01 1.36364E+00
 -1     17629 1.33817E+01 5.57389E+01 1.81818E+00
 -1     17630 8.79944E+00 5.55575E+01 1.81818E+00
 -1     17635 8.99498E+00 5.67921E+01 2.27273E+00
 -1     17636 1.33817E+01 5.57389E+01 2.72727E+00
 -1     17637 8.79944E+00 5.55575E+01 2.72727E+00
 -1     17642 8.99498E+00 5.67921E+01 3.18182E+00
 -1     17643 1.33817E+01 5.57389E+01 3.63636E+00
 -1     17644 8.79944E+00 5.55575E+01 3.63636E+00
 -1     17649 8.99498E+00 5.67921E+01 4.09091E+00
 -1     17650 1.33817E+01 5.57389E+01 4.54545E+00
 -1     17651 8.79944E+00 5.55575E+01 4.54545E+00
 -1     17656 8.99498E+00 5.67921E+01 5.00000E+00
 -1     17657 1.33817E+01 5.57389E+01 5.45455E+00
 -1     17658 8.79944E+00 5.55575E+01 5.45455E+00
 -1     17663 8.99498E+00 5.67921E+01 5.90909E+00
 -1     17664 1.33817E+01 5.57389E+01 6.36364E+00
 -1     17665 8.79944E+00 5.55575E+01 6.36364E+00
 -1     17670 8.99498E+00 5.67921E+01 6.81818E+00
 -1     17671 1.33817E+01 5.57389E+01 7.27273E+00
 -1     17672 8.79944E+00 5.55575E+01 7.27273E+00
 -1     17677 8.99498E+00 5.67921E+01 7.72727E+00
 -1     17678 1.33817E+01 5.57389E+01 8.18182E+00
 -1     17679 8.79944E+00 5.55575E+01 8.18182E+00
 -1     17684 8.99498E+00 5.67921E+01 8.63636E+00
 -1     17685 1.33817E+01 5.57389E+01 9.09091E+00
 -1     17686 8.79944E+00 5.55575E+01 9.09091E+00
 -1     17691 8.99498E+00 5.67921E+01 9.54545E+00
 -1     17695 4.49749E+00 5.71460E+01 9.09091E-01
 -1     17699 4.49749E+00 5.71460E+01 1.81818E+00
 -1     17703 4.49749E+00 5.71460E+01 2.72727E+00
 -1     17707 4.49749E+00 5.71460E+01 3.63636E+00
 -1     17711 4.49749E+00 5.71460E+01 4.54545E+00
 -1     17715 4.49749E+00 5.71460E+01 5.45455E+00
 -1     17719 4.49749E+00 5.71460E+01 6.36364E+00
 -1     17723 4.49749E+00 5.71460E+01 7.27273E+00
 -1     17727 4.49749E+00 5.71460E+01 8.18182E+00
 -1     17731 4.49749E+00 5.71460E+01 9.09091E+00
 -1     17737 5.92613E+01 9.38607E+00 4.54545E-01
 -1     17738 5.96306E+01 4.69303E+00 9.09091E-01
 -1     17739 5.80267E+01 9.19053E+00 9.09091E-01
 -1     17744 5.92613E+01 9.38607E+00 1.36364E+00
 -1     17745 5.96306E+01 4.69303E+00 1.81818E+00
 -1     17746 5.80267E+01 9.19053E+00 1.81818E+00
 -1     17751 5.92613E+01 9.38607E+00 2.27273E+00
 -1     17752 5.96306E+01 4.69303E+00 2.72727E+00
 -1     17753 5.80267E+01 9.19053E+00 2.72727E+00
 -1     17758 5.92613E+01 9.38607E+00 3.18182E+00
 -1     17759 5.96306E+01 4.69303E+00 3.63636E+00
 -1     17760 5.80267E+01 9.19053E+00 3.63636E+00
 -1     17765 5.92613E+01 9.38607E+00 4.09091E+00
 -1     17766 5.96306E+01 4.69303E+00 4.54545E+00
 -1     17767 5.80267E+01 9.19053E+00 4.54545E+00
 -1     17772 5.92613E+01 9.38607E+00 5.00000E+00
 -1     17773 5.96306E+01 4.69303E+00 5.45455E+00
 -1     17774 5.80267E+01 9.19053E+00 5.45455E+00
 -1     17779 5.92613E+01 9.38607E+00 5.90909E+00
 -1     17780 5.96306E+01 4.69303E+00 6.36364E+00
 -1     17781 5.80267E+01 9.19053E+00 6.36364E+00
 -1     17786 5.92613E+01 9.38607E+00 6.81818E+00
 -1     17787 5.96306E+01 4.69303E+00 7.27273E+00
 -1     17788 5.80267E+01 9.19053E+00 7.27273E+00
 -1     17793 5.92613E+01 9.38607E+00 7.72727E+00
 -1     17794 5.96306E+01 4.69303E+00 8.18182E+00
 -1     17795 5.80267E+01 9.19053E+00 8.18182E+00
 -1     17800 5.92613E+01 9.38607E+00 8.63636E+00
 -1     17801 5.96306E+01 4.69303E+00 9.09091E+00
 -1     17802 5.80267E+01 9.19053E+00 9.09091E+00
 -1     17807 5.92613E+01 9.38607E+00 9.54545E+00
 -1     17811 5.70634E+01 1.85410E+01 4.54545E-01
 -1     17812 5.81623E+01 1.39635E+01 9.09091E-01
 -1     17813 5.58746E+01 1.81547E+01 9.09091E-01
 -1     17818 5.70634E+01 1.85410E+01 1.36364E+00
 -1     17819 5.81623E+01 1.39635E+01 1.81818E+00
 -1     17820 5.58746E+01 1.81547E+01 1.81818E+00
 -1     17825 5.70634E+01 1.85410E+01 2.27273E+00
 -1     17826 5.81623E+01 1.39635E+01 2.72727E+00
 -1     17827 5.58746E+01 1.81547E+01 2.72727E+00
 -1     17832 5.70634E+01 1.85410E+01 3.18182E+00
 -1     17833 5.81623E+01 1.39635E+01 3.63636E+00
 -1     17834 5.58746E+01 1.81547E+01 3.63636E+00
 -1     17839 5.70634E+01 1.85410E+01 4.09091E+00
 -1     17840 5.81623E+01 1.39635E+01 4.54545E+00
 -1     17841 5.58746E+01 1.81547E+01 4.54545E+00
 -1     17846 5.70634E+01 1.85410E+01 5.00000E+00
 -1     17847 5.81623E+01 1.39635E+01 5.45455E+00
 -1     17848 5.58746E+01 1.81547E+01 5.45455E+00
 -1     17853 5.70634E+01 1.85410E+01 5.90909E+00
 -1     17854 5.81623E+01 1.39635E+01 6.36364E+00
 -1     17855 5.58746E+01 1.81547E+01 6.36364E+00
 -1     17860 5.70634E+01 1.85410E+01 6.81818E+00
 -1     17861 5.81623E+01 1.39635E+01 7.27273E+00
 -1     17862 5.58746E+01 1.81547E+01 7.27273E+00
 -1     17867 5.70634E+01 1.85410E+01 7.72727E+00
 -1     17868 5.81623E+01 1.39635E+01 8.18182E+00
 -1     17869 5.58746E+01 1.81547E+01 8.18182E+00
 -1     17874 5.70634E+01 1.85410E+01 8.63636E+00
 -1     17875 5.81623E+01 1.39635E+01 9.09091E+00
 -1     17876 5.58746E+01 1.81547E+01 9.09091E+00
 -1     17881 5.70634E+01 1.85410E+01 9.54545E+00
 -1     17885 5.34604E+01 2.72394E+01 4.54545E-01
 -1     17886 5.52619E+01 2.28902E+01 9.09091E-01
 -1     17887 5.23466E+01 2.66719E+01 9.09091E-01
 -1     17892 5.34604E+01 2.72394E+01 1.36364E+00
 -1     17893 5.52619E+01 2.28902E+01 1.81818E+00
 -1     17894 5.23466E+01 2.66719E+01 1.81818E+00
 -1     17899 5.34604E+01 2.72394E+01 2.27273E+00
 -1     17900 5.52619E+01 2.28902E+01 2.72727E+00
 -1     17901 5.23466E+01 2.66719E+01 2.72727E+00
 -1     17906 5.34604E+01 2.72394E+01 3.18182E+00
 -1     17907 5.52619E+01 2.28902E+01 3.63636E+00
 -1     17908 5.23466E+01 2.66719E+01 3.63636E+00
 -1     17913 5.34604E+01 2.72394E+01 4.09091E+00
 -1     17914 5.52619E+01 2.28902E+01 4.54545E+00
 -1     17915 5.23466E+01 2.66719E+01 4.54545E+00
 -1     17920 5.34604E+01 2.72394E+01 5.00000E+00
 -1     17921 5.52619E+01 2.28902E+01 5.45455E+00
 -1     17922 5.23466E+01 2.66719E+01 5.45455E+00
 -1     17927 5.34604E+01 2.72394E+01 5.90909E+00
 -1     17928 5.52619E+01 2.28902E+01 6.36364E+00
 -1     17929 5.23466E+01 2.66719E+01 6.36364E+00
 -1     17934 5.34604E+01 2.72394E+01 6.81818E+00
 -1     17935 5.52619E+01 2.28902E+01 7.27273E+00
 -1     17936 5.23466E+01 2.66719E+01 7.27273E+00
 -1     17941 5.34604E+01 2.72394E+01 7.72727E+00
 -1     17942 5.52619E+01 2.28902E+01 8.18182E+00
 -1     17943 5.23466E+01 2.66719E+01 8.18182E+00
 -1     17948 5.34604E+01 2.72394E+01 8.63636E+00
 -1     17949 5.52619E+01 2.28902E+01 9.09091E+00
 -1     17950 5.23466E+01 2.66719E+01 9.09091E+00
 -1     17955 5.34604E+01 2.72394E+01 9.54545E+00
 -1     17959 4.85410E+01 3.52671E+01 4.54545E-01
 -1     17960 5.10007E+01 3.12533E+01 9.09091E-01
 -1     17961 4.75297E+01 3.45324E+01 9.09091E-01
 -1     17966 4.85410E+01 3.52671E+01 1.36364E+00
 -1     17967 5.10007E+01 3.12533E+01 1.81818E+00
 -1     17968 4.75297E+01 3.45324E+01 1.81818E+00
 -1     17973 4.85410E+01 3.52671E+01 2.27273E+00
 -1     17974 5.10007E+01 3.12533E+01 2.72727E+00
 -1     17975 4.75297E+01 3.45324E+01 2.72727E+00
 -1     17980 4.85410E+01 3.52671E+01 3.18182E+00
 -1     17981 5.10007E+01 3.12533E+01 3.63636E+00
 -1     17982 4.75297E+01 3.45324E+01 3.63636E+00
 -1     17987 4.85410E+01 3.52671E+01 4.09091E+00
 -1     17988 5.10007E+01 3.12533E+01 4.54545E+00
 -1     17989 4.75297E+01 3.45324E+01 4.54545E+00
 -1     17994 4.85410E+01 3.52671E+01 5.00000E+00
 -1     17995 5.10007E+01 3.12533E+01 5.45455E+00
 -1     17996 4.75297E+01 3.45324E+01 5.45455E+00
 -1     18001 4.85410E+01 3.52671E+01 5.90909E+00
 -1     18002 5.10007E+01 3.12533E+01 6.36364E+00
 -1     18003 4.75297E+01 3.45324E+01 6.36364E+00
 -1     18008 4.85410E+01 3.52671E+01 6.81818E+00
 -1     18009 5.10007E+01 3.12533E+01 7.27273E+00
 -1     18010 4.75297E+01 3.45324E+01 7.27273E+00
 -1     18015 4.85410E+01 3.52671E+01 7.72727E+00
 -1     18016 5.10007E+01 3.12533E+01 8.18182E+00
 -1     18017 4.75297E+01 3.45324E+01 8.18182E+00
 -1     18022 4.85410E+01 3.52671E+01 8.63636E+00
 -1     18023 5.10007E+01 3.12533E+01 9.09091E+00
 -1     18024 4.75297E+01 3.45324E+01 9.09091E+00
 -1     18029 4.85410E+01 3.52671E+01 9.54545E+00
 -1     18033 4.24264E+01 4.24264E+01 4.54545E-01
 -1     18034 4.54837E+01 3.88468E+01 9.09091E-01
 -1     18035 4.15425E+01 4.15425E+01 9.09091E-01
 -1     18040 4.24264E+01 4.24264E+01 1.36364E+00
 -1     18041 4.54837E+01 3.88468E+01 1.81818E+00
 -1     18042 4.15425E+01 4.15425E+01 1.81818E+00
 -1     18047 4.24264E+01 4.24264E+01 2.27273E+00
 -1     18048 4.54837E+01 3.88468E+01 2.72727E+00
 -1     18049 4.15425E+01 4.15425E+01 2.72727E+00
 -1     18054 4.24264E+01 4.24264E+01 3.18182E+00
 -1     18055 4.54837E+01 3.88468E+01 3.63636E+00
 -1     18056 4.15425E+01 4.15425E+01 3.63636E+00
 -1     18061 4.24264E+01 4.24264E+01 4.09091E+00
 -1     18062 4.54837E+01 3.88468E+01 4.54545E+00
 -1     18063 4.15425E+01 4.15425E+01 4.54545E+00
 -1     18068 4.24264E+01 4.24264E+01 5.00000E+00
 -1     18069 4.54837E+01 3.88468E+01 5.45455E+00
 -1     18070 4.15425E+01 4.15425E+01 5.45455E+00
 -1     18075 4.24264E+01 4.24264E+01 5.90909E+00
 -1     18076 4.54837E+01 3.88468E+01 6.36364E+00
 -1     18077 4.15425E+01 4.15425E+01 6.36364E+00
 -1     18082 4.24264E+01 4.24264E+01 6.81818E+00
 -1     18083 4.54837E+01 3.88468E+01 7.27273E+00
 -1     18084 4.15425E+01 4.15425E+01 7.27273E+00
 -1     18089 4.24264E+01 4.24264E+01 7.72727E+00
 -1     18090 4.54837E+01 3.88468E+01 8.18182E+00
 -1     18091 4.15425E+01 4.15425E+01 8.18182E+00
 -1     18096 4.24264E+01 4.24264E+01 8.63636E+00
 -1     18097 4.54837E+01 3.88468E+01 9.09091E+00
 -1     18098 4.15425E+01 4.15425E+01 9.09091E+00
 -1     18103 4.24264E+01 4.24264E+01 9.54545E+00
 -1     18107 3.52671E+01 4.85410E+01 4.54545E-01
 -1     18108 3.88468E+01 4.54837E+01 9.09091E-01
 -1     18109 3.45324E+01 4.75297E+01 9.09091E-01
 -1     18114 3.52671E+01 4.85410E+01 1.36364E+00
 -1     18115 3.88468E+01 4.54837E+01 1.81818E+00
 -1     18116 3.45324E+01 4.75297E+01 1.81818E+00
 -1     18121 3.52671E+01 4.85410E+01 2.27273E+00
 -1     18122 3.88468E+01 4.54837E+01 2.72727E+00
 -1     18123 3.45324E+01 4.75297E+01 2.72727E+00
 -1     18128 3.52671E+01 4.85410E+01 3.18182E+00
 -1     18129 3.88468E+01 4.54837E+01 3.63636E+00
 -1     18130 3.45324E+01 4.75297E+01 3.63636E+00
 -1     18135 3.52671E+01 4.85410E+01 4.09091E+00
 -1     18136 3.88468E+01 4.54837E+01 4.54545E+00
 -1     18137 3.45324E+01 4.75297E+01 4.54545E+00
 -1     18142 3.52671E+01 4.85410E+01 5.00000E+00
 -1     18143 3.88468E+01 4.54837E+01 5.45455E+00
 -1     18144 3.45324E+01 4.75297E+01 5.45455E+00
 -1     18149 3.52671E+01 4.85410E+01 5.90909E+00
 -1     18150 3.88468E+01 4.54837E+01 6.36364E+00
 -1     18151 3.45324E+01 4.75297E+01 6.36364E+00
 -1     18156 3.52671E+01 4.85410E+01 6.81818E+00
 -1     18157 3.88468E+01 4.54837E+01 7.27273E+00
 -1     18158 3.45324E+01 4.75297E+01 7.27273E+00
 -1     18163 3.52671E+01 4.85410E+01 7.72727E+00
 -1     18164 3.88468E+01 4.54837E+01 8.18182E+00
 -1     18165 3.45324E+01 4.75297E+01 8.18182E+00
 -1     18170 3.52671E+01 4.85410E+01 8.63636E+00
 -1     18171 3.88468E+01 4.54837E+01 9.09091E+00
 -1     18172 3.45324E+01 4.75297E+01 9.09091E+00
 -1     18177 3.52671E+01 4.85410E+01 9.54545E+00
 -1     18181 2.72394E+01 5.34604E+01 4.54545E-01
 -1     18182 3.12533E+01 5.10007E+01 9.09091E-01
 -1     18183 2.66719E+01 5.23466E+01 9.09091E-01
 -1     18188 2.72394E+01 5.34604E+01 1.36364E+00
 -1     18189 3.12533E+01 5.10007E+01 1.81818E+00
 -1     18190 2.66719E+01 5.23466E+01 1.81818E+00
 -1     18195 2.72394E+01 5.34604E+01 2.27273E+00
 -1     18196 3.12533E+01 5.10007E+01 2.72727E+00
 -1     18197 2.66719E+01 5.23466E+01 2.72727E+00
 -1     18202 2.72394E+01 5.34604E+01 3.18182E+00
 -1     18203 3.12533E+01 5.10007E+01 3.63636E+00
 -1     18204 2.66719E+01 5.23466E+01 3.63636E+00
 -1     18209 2.72394E+01 5.34604E+01 4.09091E+00
 -1     18210 3.12533E+01 5.10007E+01 4.54545E+00
 -1     18211 2.66719E+01 5.23466E+01 4.54545E+00
 -1     18216 2.72394E+01 5.34604E+01 5.00000E+00
 -1     18217 3.12533E+01 5.10007E+01 5.45455E+00
 -1     18218 2.66719E+01 5.23466E+01 5.45455E+00
 -1     18223 2.72394E+01 5.34604E+01 5.90909E+00
 -1     18224 3.12533E+01 5.10007E+01 6.36364E+00
 -1     18225 2.66719E+01 5.23466E+01 6.36364E+00
 -1     18230 2.72394E+01 5.34604E+01 6.81818E+00
 -1     18231 3.12533E+01 5.10007E+01 7.27273E+00
 -1     18232 2.66719E+01 5.23466E+01 7.27273E+00
 -1     18237 2.72394E+01 5.34604E+01 7.72727E+00
 -1     18238 3.12533E+01 5.10007E+01 8.18182E+00
 -1     18239 2.66719E+01 5.23466E+01 8.18182E+00
 -1     18244 2.72394E+01 5.34604E+01 8.63636E+00
 -1     18245 3.12533E+01 5.10007E+01 9.09091E+00
 -1     18246 2.66719E+01 5.23466E+01 9.09091E+00
 -1     18251 2.72394E+01 5.34604E+01 9.54545E+00
 -1     18255 1.85410E+01 5.70634E+01 4.54545E-01
 -1     18256 2.28902E+01 5.52619E+01 9.09091E-01
 -1     18257 1.81547E+01 5.58746E+01 9.09091E-01
 -1     18262 1.85410E+01 5.70634E+01 1.36364E+00
 -1     18263 2.28902E+01 5.52619E+01 1.81818E+00
 -1     18264 1.81547E+01 5.58746E+01 1.81818E+00
 -1     18269 1.85410E+01 5.70634E+01 2.27273E+00
 -1     18270 2.28902E+01 5.52619E+01 2.72727E+00
 -1     18271 1.81547E+01 5.58746E+01 2.72727E+00
 -1     18276 1.85410E+01 5.70634E+01 3.18182E+00
 -1     18277 2.28902E+01 5.52619E+01 3.63636E+00
 -1     18278 1.81547E+01 5.58746E+01 3.63636E+00
 -1     18283 1.85410E+01 5.70634E+01 4.09091E+00
 -1     18284 2.28902E+01 5.52619E+01 4.54545E+00
 -1     18285 1.81547E+01 5.58746E+01 4.54545E+00
 -1     18290 1.85410E+01 5.70634E+01 5.00000E+00
 -1     18291 2.28902E+01 5.52619E+01 5.45455E+00
 -1     18292 1.81547E+01 5.58746E+01 5.45455E+00
 -1     18297 1.85410E+01 5.70634E+01 5.90909E+00
 -1     18298 2.28902E+01 5.52619E+01 6.36364E+00
 -1     18299 1.81547E+01 5.58746E+01 6.36364E+00
 -1     18304 1.85410E+01 5.70634E+01 6.81818E+00
 -1     18305 2.28902E+01 5.52619E+01 7.27273E+00
 -1     18306 1.81547E+01 5.58746E+01 7.27273E+00
 -1     18311 1.85410E+01 5.70634E+01 7.72727E+00
 -1     18312 2.28902E+01 5.52619E+01 8.18182E+00
 -1     18313 1.81547E+01 5.58746E+01 8.18182E+00
 -1     18318 1.85410E+01 5.70634E+01 8.63636E+00
 -1     18319 2.28902E+01 5.52619E+01 9.09091E+00
 -1     18320 1.81547E+01 5.58746E+01 9.09091E+00
 -1     18325 1.85410E+01 5.70634E+01 9.54545E+00
 -1     18329 9.38607E+00 5.92613E+01 4.54545E-01
 -1     18330 1.39635E+01 5.81623E+01 9.09091E-01
 -1     18331 9.19053E+00 5.80267E+01 9.09091E-01
 -1     18336 9.38607E+00 5.92613E+01 1.36364E+00
 -1     18337 1.39635E+01 5.81623E+01 1.81818E+00
 -1     18338 9.19053E+00 5.80267E+01 1.81818E+00
 -1     18343 9.38607E+00 5.92613E+01 2.27273E+00
 -1     18344 1.39635E+01 5.81623E+01 2.72727E+00
 -1     18345 9.19053E+00 5.80267E+01 2.72727E+00
 -1     18350 9.38607E+00 5.92613E+01 3.18182E+00
 -1     18351 1.39635E+01 5.81623E+01 3.63636E+00
 -1     18352 9.19053E+00 5.80267E+01 3.63636E+00
 -1     18357 9.38607E+00 5.92613E+01 4.09091E+00
 -1     18358 1.39635E+01 5.81623E+01 4.54545E+00
 -1     18359 9.19053E+00 5.80267E+01 4.54545E+00
 -1     18364 9.38607E+00 5.92613E+01 5.00000E+00
 -1     18365 1.39635E+01 5.81623E+01 5.45455E+00
 -1     18366 9.19053E+00 5.80267E+01 5.45455E+00
 -1     18371 9.38607E+00 5.92613E+01 5.90909E+00
 -1     18372 1.39635E+01 5.81623E+01 6.36364E+00
 -1     18373 9.19053E+00 5.80267E+01 6.36364E+00
 -1     18378 9.38607E+00 5.92613E+01 6.81818E+00
 -1     18379 1.39635E+01 5.81623E+01 7.27273E+00
 -1     18380 9.19053E+00 5.80267E+01 7.27273E+00
 -1     18385 9.38607E+00 5.92613E+01 7.72727E+00
 -1     18386 1.39635E+01 5.81623E+01 8.18182E+00
 -1     18387 9.19053E+00 5.80267E+01 8.18182E+00
 -1     18392 9.38607E+00 5.92613E+01 8.63636E+00
 -1     18393 1.39635E+01 5.81623E+01 9.09091E+00
 -1     18394 9.19053E+00 5.80267E+01 9.09091E+00
 -1     18399 9.38607E+00 5.92613E+01 9.54545E+00
 -1     18403 4.69303E+00 5.96306E+01 9.09091E-01
 -1     18407 4.69303E+00 5.96306E+01 1.81818E+00
 -1     18411 4.69303E+00 5.96306E+01 2.72727E+00
 -1     18415 4.69303E+00 5.96306E+01 3.63636E+00
 -1     18419 4.69303E+00 5.96306E+01 4.54545E+00
 -1     18423 4.69303E+00 5.96306E+01 5.45455E+00
 -1     18427 4.69303E+00 5.96306E+01 6.36364E+00
 -1     18431 4.69303E+00 5.96306E+01 7.27273E+00
 -1     18435 4.69303E+00 5.96306E+01 8.18182E+00
 -1     18439 4.69303E+00 5.96306E+01 9.09091E+00
 -1     18445 6.17305E+01 9.77715E+00 4.54545E-01
 -1     18446 6.21153E+01 4.88858E+00 9.09091E-01
 -1     18447 6.04959E+01 9.58161E+00 9.09091E-01
 -1     18452 6.17305E+01 9.77715E+00 1.36364E+00
 -1     18453 6.21153E+01 4.88858E+00 1.81818E+00
 -1     18454 6.04959E+01 9.58161E+00 1.81818E+00
 -1     18459 6.17305E+01 9.77715E+00 2.27273E+00
 -1     18460 6.21153E+01 4.88858E+00 2.72727E+00
 -1     18461 6.04959E+01 9.58161E+00 2.72727E+00
 -1     18466 6.17305E+01 9.77715E+00 3.18182E+00
 -1     18467 6.21153E+01 4.88858E+00 3.63636E+00
 -1     18468 6.04959E+01 9.58161E+00 3.63636E+00
 -1     18473 6.17305E+01 9.77715E+00 4.09091E+00
 -1     18474 6.21153E+01 4.88858E+00 4.54545E+00
 -1     18475 6.04959E+01 9.58161E+00 4.54545E+00
 -1     18480 6.17305E+01 9.77715E+00 5.00000E+00
 -1     18481 6.21153E+01 4.88858E+00 5.45455E+00
 -1     18482 6.04959E+01 9.58161E+00 5.45455E+00
 -1     18487 6.17305E+01 9.77715E+00 5.90909E+00
 -1     18488 6.21153E+01 4.88858E+00 6.36364E+00
 -1     18489 6.04959E+01 9.58161E+00 6.36364E+00
 -1     18494 6.17305E+01 9.77715E+00 6.81818E+00
 -1     18495 6.21153E+01 4.88858E+00 7.27273E+00
 -1     18496 6.04959E+01 9.58161E+00 7.27273E+00
 -1     18501 6.17305E+01 9.77715E+00 7.72727E+00
 -1     18502 6.21153E+01 4.88858E+00 8.18182E+00
 -1     18503 6.04959E+01 9.58161E+00 8.18182E+00
 -1     18508 6.17305E+01 9.77715E+00 8.63636E+00
 -1     18509 6.21153E+01 4.88858E+00 9.09091E+00
 -1     18510 6.04959E+01 9.58161E+00 9.09091E+00
 -1     18515 6.17305E+01 9.77715E+00 9.54545E+00
 -1     18519 5.94410E+01 1.93136E+01 4.54545E-01
 -1     18520 6.05858E+01 1.45454E+01 9.09091E-01
 -1     18521 5.82522E+01 1.89273E+01 9.09091E-01
 -1     18526 5.94410E+01 1.93136E+01 1.36364E+00
 -1     18527 6.05858E+01 1.45454E+01 1.81818E+00
 -1     18528 5.82522E+01 1.89273E+01 1.81818E+00
 -1     18533 5.94410E+01 1.93136E+01 2.27273E+00
 -1     18534 6.05858E+01 1.45454E+01 2.72727E+00
 -1     18535 5.82522E+01 1.89273E+01 2.72727E+00
 -1     18540 5.94410E+01 1.93136E+01 3.18182E+00
 -1     18541 6.05858E+01 1.45454E+01 3.63636E+00
 -1     18542 5.82522E+01 1.89273E+01 3.63636E+00
 -1     18547 5.94410E+01 1.93136E+01 4.09091E+00
 -1     18548 6.05858E+01 1.45454E+01 4.54545E+00
 -1     18549 5.82522E+01 1.89273E+01 4.54545E+00
 -1     18554 5.94410E+01 1.93136E+01 5.00000E+00
 -1     18555 6.05858E+01 1.45454E+01 5.45455E+00
 -1     18556 5.82522E+01 1.89273E+01 5.45455E+00
 -1     18561 5.94410E+01 1.93136E+01 5.90909E+00
 -1     18562 6.05858E+01 1.45454E+01 6.36364E+00
 -1     18563 5.82522E+01 1.89273E+01 6.36364E+00
 -1     18568 5.94410E+01 1.93136E+01 6.81818E+00
 -1     18569 6.05858E+01 1.45454E+01 7.27273E+00
 -1     18570 5.82522E+01 1.89273E+01 7.27273E+00
 -1     18575 5.94410E+01 1.93136E+01 7.72727E+00
 -1     18576 6.05858E+01 1.45454E+01 8.18182E+00
 -1     18577 5.82522E+01 1.89273E+01 8.18182E+00
 -1     18582 5.94410E+01 1.93136E+01 8.63636E+00
 -1     18583 6.05858E+01 1.45454E+01 9.09091E+00
 -1     18584 5.82522E+01 1.89273E+01 9.09091E+00
 -1     18589 5.94410E+01 1.93136E+01 9.54545E+00
 -1     18593 5.56879E+01 2.83744E+01 4.54545E-01
 -1     18594 5.75645E+01 2.38440E+01 9.09091E-01
 -1     18595 5.45742E+01 2.78069E+01 9.09091E-01
 -1     18600 5.56879E+01 2.83744E+01 1.36364E+00
 -1     18601 5.75645E+01 2.38440E+01 1.81818E+00
 -1     18602 5.45742E+01 2.78069E+01 1.81818E+00
 -1     18607 5.56879E+01 2.83744E+01 2.27273E+00
 -1     18608 5.75645E+01 2.38440E+01 2.72727E+00
 -1     18609 5.45742E+01 2.78069E+01 2.72727E+00
 -1     18614 5.56879E+01 2.83744E+01 3.18182E+00
 -1     18615 5.75645E+01 2.38440E+01 3.63636E+00
 -1     18616 5.45742E+01 2.78069E+01 3.63636E+00
 -1     18621 5.56879E+01 2.83744E+01 4.09091E+00
 -1     18622 5.75645E+01 2.38440E+01 4.54545E+00
 -1     18623 5.45742E+01 2.78069E+01 4.54545E+00
 -1     18628 5.56879E+01 2.83744E+01 5.00000E+00
 -1     18629 5.75645E+01 2.38440E+01 5.45455E+00
 -1     18630 5.45742E+01 2.78069E+01 5.45455E+00
 -1     18635 5.56879E+01 2.83744E+01 5.90909E+00
 -1     18636 5.75645E+01 2.38440E+01 6.36364E+00
 -1     18637 5.45742E+01 2.78069E+01 6.36364E+00
 -1     18642 5.56879E+01 2.83744E+01 6.81818E+00
 -1     18643 5.75645E+01 2.38440E+01 7.27273E+00
 -1     18644 5.45742E+01 2.78069E+01 7.27273E+00
 -1     18649 5.56879E+01 2.83744E+01 7.72727E+00
 -1     18650 5.75645E+01 2.38440E+01 8.18182E+00
 -1     18651 5.45742E+01 2.78069E+01 8.18182E+00
 -1     18656 5.56879E+01 2.83744E+01 8.63636E+00
 -1     18657 5.75645E+01 2.38440E+01 9.09091E+00
 -1     18658 5.45742E+01 2.78069E+01 9.09091E+00
 -1     18663 5.56879E+01 2.83744E+01 9.54545E+00
 -1     18667 5.05636E+01 3.67366E+01 4.54545E-01
 -1     18668 5.31257E+01 3.25555E+01 9.09091E-01
 -1     18669 4.95523E+01 3.60018E+01 9.09091E-01
 -1     18674 5.05636E+01 3.67366E+01 1.36364E+00
 -1     18675 5.31257E+01 3.25555E+01 1.81818E+00
 -1     18676 4.95523E+01 3.60018E+01 1.81818E+00
 -1     18681 5.05636E+01 3.67366E+01 2.27273E+00
 -1     18682 5.31257E+01 3.25555E+01 2.72727E+00
 -1     18683 4.95523E+01 3.60018E+01 2.72727E+00
 -1     18688 5.05636E+01 3.67366E+01 3.18182E+00
 -1     18689 5.31257E+01 3.25555E+01 3.63636E+00
 -1     18690 4.95523E+01 3.60018E+01 3.63636E+00
 -1     18695 5.05636E+01 3.67366E+01 4.09091E+00
 -1     18696 5.31257E+01 3.25555E+01 4.54545E+00
 -1     18697 4.95523E+01 3.60018E+01 4.54545E+00
 -1     18702 5.05636E+01 3.67366E+01 5.00000E+00
 -1     18703 5.31257E+01 3.25555E+01 5.45455E+00
 -1     18704 4.95523E+01 3.60018E+01 5.45455E+00
 -1     18709 5.05636E+01 3.67366E+01 5.90909E+00
 -1     18710 5.31257E+01 3.25555E+01 6.36364E+00
 -1     18711 4.95523E+01 3.60018E+01 6.36364E+00
 -1     18716 5.05636E+01 3.67366E+01 6.81818E+00
 -1     18717 5.31257E+01 3.25555E+01 7.27273E+00
 -1     18718 4.95523E+01 3.60018E+01 7.27273E+00
 -1     18723 5.05636E+01 3.67366E+01 7.72727E+00
 -1     18724 5.31257E+01 3.25555E+01 8.18182E+00
 -1     18725 4.95523E+01 3.60018E+01 8.18182E+00
 -1     18730 5.05636E+01 3.67366E+01 8.63636E+00
 -1     18731 5.31257E+01 3.25555E+01 9.09091E+00
 -1     18732 4.95523E+01 3.60018E+01 9.09091E+00
 -1     18737 5.05636E+01 3.67366E+01 9.54545E+00
 -1     18741 4.41942E+01 4.41942E+01 4.54545E-01
 -1     18742 4.73789E+01 4.04654E+01 9.09091E-01
 -1     18743 4.33103E+01 4.33103E+01 9.09091E-01
 -1     18748 4.41942E+01 4.41942E+01 1.36364E+00
 -1     18749 4.73789E+01 4.04654E+01 1.81818E+00
 -1     18750 4.33103E+01 4.33103E+01 1.81818E+00
 -1     18755 4.41942E+01 4.41942E+01 2.27273E+00
 -1     18756 4.73789E+01 4.04654E+01 2.72727E+00
 -1     18757 4.33103E+01 4.33103E+01 2.72727E+00
 -1     18762 4.41942E+01 4.41942E+01 3.18182E+00
 -1     18763 4.73789E+01 4.04654E+01 3.63636E+00
 -1     18764 4.33103E+01 4.33103E+01 3.63636E+00
 -1     18769 4.41942E+01 4.41942E+01 4.09091E+00
 -1     18770 4.73789E+01 4.04654E+01 4.54545E+00
 -1     18771 4.33103E+01 4.33103E+01 4.54545E+00
 -1     18776 4.41942E+01 4.41942E+01 5.00000E+00
 -1     18777 4.73789E+01 4.04654E+01 5.45455E+00
 -1     18778 4.33103E+01 4.33103E+01 5.45455E+00
 -1     18783 4.41942E+01 4.41942E+01 5.90909E+00
 -1     18784 4.73789E+01 4.04654E+01 6.36364E+00
 -1     18785 4.33103E+01 4.33103E+01 6.36364E+00
 -1     18790 4.41942E+01 4.41942E+01 6.81818E+00
 -1     18791 4.73789E+01 4.04654E+01 7.27273E+00
 -1     18792 4.33103E+01 4.33103E+01 7.27273E+00
 -1     18797 4.41942E+01 4.41942E+01 7.72727E+00
 -1     18798 4.73789E+01 4.04654E+01 8.18182E+00
 -1     18799 4.33103E+01 4.33103E+01 8.18182E+00
 -1     18804 4.41942E+01 4.41942E+01 8.63636E+00
 -1     18805 4.73789E+01 4.04654E+01 9.09091E+00
 -1     18806 4.33103E+01 4.33103E+01 9.09091E+00
 -1     18811 4.41942E+01 4.41942E+01 9.54545E+00
 -1     18815 3.67366E+01 5.05636E+01 4.54545E-01
 -1     18816 4.04654E+01 4.73789E+01 9.09091E-01
 -1     18817 3.60018E+01 4.95523E+01 9.09091E-01
 -1     18822 3.67366E+01 5.05636E+01 1.36364E+00
 -1     18823 4.04654E+01 4.73789E+01 1.81818E+00
 -1     18824 3.60018E+01 4.95523E+01 1.81818E+00
 -1     18829 3.67366E+01 5.05636E+01 2.27273E+00
 -1     18830 4.04654E+01 4.73789E+01 2.72727E+00
 -1     18831 3.60018E+01 4.95523E+01 2.72727E+00
 -1     18836 3.67366E+01 5.05636E+01 3.18182E+00
 -1     18837 4.04654E+01 4.73789E+01 3.63636E+00
 -1     18838 3.60018E+01 4.95523E+01 3.63636E+00
 -1     18843 3.67366E+01 5.05636E+01 4.09091E+00
 -1     18844 4.04654E+01 4.73789E+01 4.54545E+00
 -1     18845 3.60018E+01 4.95523E+01 4.54545E+00
 -1     18850 3.67366E+01 5.05636E+01 5.00000E+00
 -1     18851 4.04654E+01 4.73789E+01 5.45455E+00
 -1     18852 3.60018E+01 4.95523E+01 5.45455E+00
 -1     18857 3.67366E+01 5.05636E+01 5.90909E+00
 -1     18858 4.04654E+01 4.73789E+01 6.36364E+00
 -1     18859 3.60018E+01 4.95523E+01 6.36364E+00
 -1     18864 3.67366E+01 5.05636E+01 6.81818E+00
 -1     18865 4.04654E+01 4.73789E+01 7.27273E+00
 -1     18866 3.60018E+01 4.95523E+01 7.27273E+00
 -1     18871 3.67366E+01 5.05636E+01 7.72727E+00
 -1     18872 4.04654E+01 4.73789E+01 8.18182E+00
 -1     18873 3.60018E+01 4.95523E+01 8.18182E+00
 -1     18878 3.67366E+01 5.05636E+01 8.63636E+00
 -1     18879 4.04654E+01 4.73789E+01 9.09091E+00
 -1     18880 3.60018E+01 4.95523E+01 9.09091E+00
 -1     18885 3.67366E+01 5.05636E+01 9.54545E+00
 -1     18889 2.83744E+01 5.56879E+01 4.54545E-01
 -1     18890 3.25555E+01 5.31257E+01 9.09091E-01
 -1     18891 2.78069E+01 5.45742E+01 9.09091E-01
 -1     18896 2.83744E+01 5.56879E+01 1.36364E+00
 -1     18897 3.25555E+01 5.31257E+01 1.81818E+00
 -1     18898 2.78069E+01 5.45742E+01 1.81818E+00
 -1     18903 2.83744E+01 5.56879E+01 2.27273E+00
 -1     18904 3.25555E+01 5.31257E+01 2.72727E+00
 -1     18905 2.78069E+01 5.45742E+01 2.72727E+00
 -1     18910 2.83744E+01 5.56879E+01 3.18182E+00
 -1     18911 3.25555E+01 5.31257E+01 3.63636E+00
 -1     18912 2.78069E+01 5.45742E+01 3.63636E+00
 -1     18917 2.83744E+01 5.56879E+01 4.09091E+00
 -1     18918 3.25555E+01 5.31257E+01 4.54545E+00
 -1     18919 2.78069E+01 5.45742E+01 4.54545E+00
 -1     18924 2.83744E+01 5.56879E+01 5.00000E+00
 -1     18925 3.25555E+01 5.31257E+01 5.45455E+00
 -1     18926 2.78069E+01 5.45742E+01 5.45455E+00
 -1     18931 2.83744E+01 5.56879E+01 5.90909E+00
 -1     18932 3.25555E+01 5.31257E+01 6.36364E+00
 -1     18933 2.78069E+01 5.45742E+01 6.36364E+00
 -1     18938 2.83744E+01 5.56879E+01 6.81818E+00
 -1     18939 3.25555E+01 5.31257E+01 7.27273E+00
 -1     18940 2.78069E+01 5.45742E+01 7.27273E+00
 -1     18945 2.83744E+01 5.56879E+01 7.72727E+00
 -1     18946 3.25555E+01 5.31257E+01 8.18182E+00
 -1     18947 2.78069E+01 5.45742E+01 8.18182E+00
 -1     18952 2.83744E+01 5.56879E+01 8.63636E+00
 -1     18953 3.25555E+01 5.31257E+01 9.09091E+00
 -1     18954 2.78069E+01 5.45742E+01 9.09091E+00
 -1     18959 2.83744E+01 5.56879E+01 9.54545E+00
 -1     18963 1.93136E+01 5.94410E+01 4.54545E-01
 -1     18964 2.38440E+01 5.75645E+01 9.09091E-01
 -1     18965 1.89273E+01 5.82522E+01 9.09091E-01
 -1     18970 1.93136E+01 5.94410E+01 1.36364E+00
 -1     18971 2.38440E+01 5.75645E+01 1.81818E+00
 -1     18972 1.89273E+01 5.82522E+01 1.81818E+00
 -1     18977 1.93136E+01 5.94410E+01 2.27273E+00
 -1     18978 2.38440E+01 5.75645E+01 2.72727E+00
 -1     18979 1.89273E+01 5.82522E+01 2.72727E+00
 -1     18984 1.93136E+01 5.94410E+01 3.18182E+00
 -1     18985 2.38440E+01 5.75645E+01 3.63636E+00
 -1     18986 1.89273E+01 5.82522E+01 3.63636E+00
 -1     18991 1.93136E+01 5.94410E+01 4.09091E+00
 -1     18992 2.38440E+01 5.75645E+01 4.54545E+00
 -1     18993 1.89273E+01 5.82522E+01 4.54545E+00
 -1     18998 1.93136E+01 5.94410E+01 5.00000E+00
 -1     18999 2.38440E+01 5.75645E+01 5.45455E+00
 -1     19000 1.89273E+01 5.82522E+01 5.45455E+00
 -1     19005 1.93136E+01 5.94410E+01 5.90909E+00
 -1     19006 2.38440E+01 5.75645E+01 6.36364E+00
 -1     19007 1.89273E+01 5.82522E+01 6.36364E+00
 -1     19012 1.93136E+01 5.94410E+01 6.81818E+00
 -1     19013 2.38440E+01 5.75645E+01 7.27273E+00
 -1     19014 1.89273E+01 5.82522E+01 7.27273E+00
 -1     19019 1.93136E+01 5.94410E+01 7.72727E+00
 -1     19020 2.38440E+01 5.75645E+01 8.18182E+00
 -1     19021 1.89273E+01 5.82522E+01 8.18182E+00
 -1     19026 1.93136E+01 5.94410E+01 8.63636E+00
 -1     19027 2.38440E+01 5.75645E+01 9.09091E+00
 -1     19028 1.89273E+01 5.82522E+01 9.09091E+00
 -1     19033 1.93136E+01 5.94410E+01 9.54545E+00
 -1     19037 9.77715E+00 6.17305E+01 4.54545E-01
 -1     19038 1.45454E+01 6.05858E+01 9.09091E-01
 -1     19039 9.58161E+00 6.04959E+01 9.09091E-01
 -1     19044 9.77715E+00 6.17305E+01 1.36364E+00
 -1     19045 1.45454E+01 6.05858E+01 1.81818E+00
 -1     19046 9.58161E+00 6.04959E+01 1.81818E+00
 -1     19051 9.77715E+00 6.17305E+01 2.27273E+00
 -1     19052 1.45454E+01 6.05858E+01 2.72727E+00
 -1     19053 9.58161E+00 6.04959E+01 2.72727E+00
 -1     19058 9.77715E+00 6.17305E+01 3.18182E+00
 -1     19059 1.45454E+01 6.05858E+01 3.63636E+00
 -1     19060 9.58161E+00 6.04959E+01 3.63636E+00
 -1     19065 9.77715E+00 6.17305E+01 4.09091E+00
 -1     19066 1.45454E+01 6.05858E+01 4.54545E+00
 -1     19067 9.58161E+00 6.04959E+01 4.54545E+00
 -1     19072 9.77715E+00 6.17305E+01 5.00000E+00
 -1     19073 1.45454E+01 6.05858E+01 5.45455E+00
 -1     19074 9.58161E+00 6.04959E+01 5.45455E+00
 -1     19079 9.77715E+00 6.17305E+01 5.90909E+00
 -1     19080 1.45454E+01 6.05858E+01 6.36364E+00
 -1     19081 9.58161E+00 6.04959E+01 6.36364E+00
 -1     19086 9.77715E+00 6.17305E+01 6.81818E+00
 -1     19087 1.45454E+01 6.05858E+01 7.27273E+00
 -1     19088 9.58161E+00 6.04959E+01 7.27273E+00
 -1     19093 9.77715E+00 6.17305E+01 7.72727E+00
 -1     19094 1.45454E+01 6.05858E+01 8.18182E+00
 -1     19095 9.58161E+00 6.04959E+01 8.18182E+00
 -1     19100 9.77715E+00 6.17305E+01 8.63636E+00
 -1     19101 1.45454E+01 6.05858E+01 9.09091E+00
 -1     19102 9.58161E+00 6.04959E+01 9.09091E+00
 -1     19107 9.77715E+00 6.17305E+01 9.54545E+00
 -1     19111 4.88858E+00 6.21153E+01 9.09091E-01
 -1     19115 4.88858E+00 6.21153E+01 1.81818E+00
 -1     19119 4.88858E+00 6.21153E+01 2.72727E+00
 -1     19123 4.88858E+00 6.21153E+01 3.63636E+00
 -1     19127 4.88858E+00 6.21153E+01 4.54545E+00
 -1     19131 4.88858E+00 6.21153E+01 5.45455E+00
 -1     19135 4.88858E+00 6.21153E+01 6.36364E+00
 -1     19139 4.88858E+00 6.21153E+01 7.27273E+00
 -1     19143 4.88858E+00 6.21153E+01 8.18182E+00
 -1     19147 4.88858E+00 6.21153E+01 9.09091E+00
 -1     19153 6.41997E+01 1.01682E+01 4.54545E-01
 -1     19154 6.45999E+01 5.08412E+00 9.09091E-01
 -1     19155 6.29651E+01 9.97270E+00 9.09091E-01
 -1     19160 6.41997E+01 1.01682E+01 1.36364E+00
 -1     19161 6.45999E+01 5.08412E+00 1.81818E+00
 -1     19162 6.29651E+01 9.97270E+00 1.81818E+00
 -1     19167 6.41997E+01 1.01682E+01 2.27273E+00
 -1     19168 6.45999E+01 5.08412E+00 2.72727E+00
 -1     19169 6.29651E+01 9.97270E+00 2.72727E+00
 -1     19174 6.41997E+01 1.01682E+01 3.18182E+00
 -1     19175 6.45999E+01 5.08412E+00 3.63636E+00
 -1     19176 6.29651E+01 9.97270E+00 3.63636E+00
 -1     19181 6.41997E+01 1.01682E+01 4.09091E+00
 -1     19182 6.45999E+01 5.08412E+00 4.54545E+00
 -1     19183 6.29651E+01 9.97270E+00 4.54545E+00
 -1     19188 6.41997E+01 1.01682E+01 5.00000E+00
 -1     19189 6.45999E+01 5.08412E+00 5.45455E+00
 -1     19190 6.29651E+01 9.97270E+00 5.45455E+00
 -1     19195 6.41997E+01 1.01682E+01 5.90909E+00
 -1     19196 6.45999E+01 5.08412E+00 6.36364E+00
 -1     19197 6.29651E+01 9.97270E+00 6.36364E+00
 -1     19202 6.41997E+01 1.01682E+01 6.81818E+00
 -1     19203 6.45999E+01 5.08412E+00 7.27273E+00
 -1     19204 6.29651E+01 9.97270E+00 7.27273E+00
 -1     19209 6.41997E+01 1.01682E+01 7.72727E+00
 -1     19210 6.45999E+01 5.08412E+00 8.18182E+00
 -1     19211 6.29651E+01 9.97270E+00 8.18182E+00
 -1     19216 6.41997E+01 1.01682E+01 8.63636E+00
 -1     19217 6.45999E+01 5.08412E+00 9.09091E+00
 -1     19218 6.29651E+01 9.97270E+00 9.09091E+00
 -1     19223 6.41997E+01 1.01682E+01 9.54545E+00
 -1     19227 6.18187E+01 2.00861E+01 4.54545E-01
 -1     19228 6.30092E+01 1.51272E+01 9.09091E-01
 -1     19229 6.06299E+01 1.96998E+01 9.09091E-01
 -1     19234 6.18187E+01 2.00861E+01 1.36364E+00
 -1     19235 6.30092E+01 1.51272E+01 1.81818E+00
 -1     19236 6.06299E+01 1.96998E+01 1.81818E+00
 -1     19241 6.18187E+01 2.00861E+01 2.27273E+00
 -1     19242 6.30092E+01 1.51272E+01 2.72727E+00
 -1     19243 6.06299E+01 1.96998E+01 2.72727E+00
 -1     19248 6.18187E+01 2.00861E+01 3.18182E+00
 -1     19249 6.30092E+01 1.51272E+01 3.63636E+00
 -1     19250 6.06299E+01 1.96998E+01 3.63636E+00
 -1     19255 6.18187E+01 2.00861E+01 4.09091E+00
 -1     19256 6.30092E+01 1.51272E+01 4.54545E+00
 -1     19257 6.06299E+01 1.96998E+01 4.54545E+00
 -1     19262 6.18187E+01 2.00861E+01 5.00000E+00
 -1     19263 6.30092E+01 1.51272E+01 5.45455E+00
 -1     19264 6.06299E+01 1.96998E+01 5.45455E+00
 -1     19269 6.18187E+01 2.00861E+01 5.90909E+00
 -1     19270 6.30092E+01 1.51272E+01 6.36364E+00
 -1     19271 6.06299E+01 1.96998E+01 6.36364E+00
 -1     19276 6.18187E+01 2.00861E+01 6.81818E+00
 -1     19277 6.30092E+01 1.51272E+01 7.27273E+00
 -1     19278 6.06299E+01 1.96998E+01 7.27273E+00
 -1     19283 6.18187E+01 2.00861E+01 7.72727E+00
 -1     19284 6.30092E+01 1.51272E+01 8.18182E+00
 -1     19285 6.06299E+01 1.96998E+01 8.18182E+00
 -1     19290 6.18187E+01 2.00861E+01 8.63636E+00
 -1     19291 6.30092E+01 1.51272E+01 9.09091E+00
 -1     19292 6.06299E+01 1.96998E+01 9.09091E+00
 -1     19297 6.18187E+01 2.00861E+01 9.54545E+00
 -1     19301 5.79154E+01 2.95094E+01 4.54545E-01
 -1     19302 5.98671E+01 2.47977E+01 9.09091E-01
 -1     19303 5.68017E+01 2.89419E+01 9.09091E-01
 -1     19308 5.79154E+01 2.95094E+01 1.36364E+00
 -1     19309 5.98671E+01 2.47977E+01 1.81818E+00
 -1     19310 5.68017E+01 2.89419E+01 1.81818E+00
 -1     19315 5.79154E+01 2.95094E+01 2.27273E+00
 -1     19316 5.98671E+01 2.47977E+01 2.72727E+00
 -1     19317 5.68017E+01 2.89419E+01 2.72727E+00
 -1     19322 5.79154E+01 2.95094E+01 3.18182E+00
 -1     19323 5.98671E+01 2.47977E+01 3.63636E+00
 -1     19324 5.68017E+01 2.89419E+01 3.63636E+00
 -1     19329 5.79154E+01 2.95094E+01 4.09091E+00
 -1     19330 5.98671E+01 2.47977E+01 4.54545E+00
 -1     19331 5.68017E+01 2.89419E+01 4.54545E+00
 -1     19336 5.79154E+01 2.95094E+01 5.00000E+00
 -1     19337 5.98671E+01 2.47977E+01 5.45455E+00
 -1     19338 5.68017E+01 2.89419E+01 5.45455E+00
 -1     19343 5.79154E+01 2.95094E+01 5.90909E+00
 -1     19344 5.98671E+01 2.47977E+01 6.36364E+00
 -1     19345 5.68017E+01 2.89419E+01 6.36364E+00
 -1     19350 5.79154E+01 2.95094E+01 6.81818E+00
 -1     19351 5.98671E+01 2.47977E+01 7.27273E+00
 -1     19352 5.68017E+01 2.89419E+01 7.27273E+00
 -1     19357 5.79154E+01 2.95094E+01 7.72727E+00
 -1     19358 5.98671E+01 2.47977E+01 8.18182E+00
 -1     19359 5.68017E+01 2.89419E+01 8.18182E+00
 -1     19364 5.79154E+01 2.95094E+01 8.63636E+00
 -1     19365 5.98671E+01 2.47977E+01 9.09091E+00
 -1     19366 5.68017E+01 2.89419E+01 9.09091E+00
 -1     19371 5.79154E+01 2.95094E+01 9.54545E+00
 -1     19375 5.25861E+01 3.82060E+01 4.54545E-01
 -1     19376 5.52508E+01 3.38577E+01 9.09091E-01
 -1     19377 5.15748E+01 3.74713E+01 9.09091E-01
 -1     19382 5.25861E+01 3.82060E+01 1.36364E+00
 -1     19383 5.52508E+01 3.38577E+01 1.81818E+00
 -1     19384 5.15748E+01 3.74713E+01 1.81818E+00
 -1     19389 5.25861E+01 3.82060E+01 2.27273E+00
 -1     19390 5.52508E+01 3.38577E+01 2.72727E+00
 -1     19391 5.15748E+01 3.74713E+01 2.72727E+00
 -1     19396 5.25861E+01 3.82060E+01 3.18182E+00
 -1     19397 5.52508E+01 3.38577E+01 3.63636E+00
 -1     19398 5.15748E+01 3.74713E+01 3.63636E+00
 -1     19403 5.25861E+01 3.82060E+01 4.09091E+00
 -1     19404 5.52508E+01 3.38577E+01 4.54545E+00
 -1     19405 5.15748E+01 3.74713E+01 4.54545E+00
 -1     19410 5.25861E+01 3.82060E+01 5.00000E+00
 -1     19411 5.52508E+01 3.38577E+01 5.45455E+00
 -1     19412 5.15748E+01 3.74713E+01 5.45455E+00
 -1     19417 5.25861E+01 3.82060E+01 5.90909E+00
 -1     19418 5.52508E+01 3.38577E+01 6.36364E+00
 -1     19419 5.15748E+01 3.74713E+01 6.36364E+00
 -1     19424 5.25861E+01 3.82060E+01 6.81818E+00
 -1     19425 5.52508E+01 3.38577E+01 7.27273E+00
 -1     19426 5.15748E+01 3.74713E+01 7.27273E+00
 -1     19431 5.25861E+01 3.82060E+01 7.72727E+00
 -1     19432 5.52508E+01 3.38577E+01 8.18182E+00
 -1     19433 5.15748E+01 3.74713E+01 8.18182E+00
 -1     19438 5.25861E+01 3.82060E+01 8.63636E+00
 -1     19439 5.52508E+01 3.38577E+01 9.09091E+00
 -1     19440 5.15748E+01 3.74713E+01 9.09091E+00
 -1     19445 5.25861E+01 3.82060E+01 9.54545E+00
 -1     19449 4.59619E+01 4.59619E+01 4.54545E-01
 -1     19450 4.92740E+01 4.20840E+01 9.09091E-01
 -1     19451 4.50781E+01 4.50781E+01 9.09091E-01
 -1     19456 4.59619E+01 4.59619E+01 1.36364E+00
 -1     19457 4.92740E+01 4.20840E+01 1.81818E+00
 -1     19458 4.50781E+01 4.50781E+01 1.81818E+00
 -1     19463 4.59619E+01 4.59619E+01 2.27273E+00
 -1     19464 4.92740E+01 4.20840E+01 2.72727E+00
 -1     19465 4.50781E+01 4.50781E+01 2.72727E+00
 -1     19470 4.59619E+01 4.59619E+01 3.18182E+00
 -1     19471 4.92740E+01 4.20840E+01 3.63636E+00
 -1     19472 4.50781E+01 4.50781E+01 3.63636E+00
 -1     19477 4.59619E+01 4.59619E+01 4.09091E+00
 -1     19478 4.92740E+01 4.20840E+01 4.54545E+00
 -1     19479 4.50781E+01 4.50781E+01 4.54545E+00
 -1     19484 4.59619E+01 4.59619E+01 5.00000E+00
 -1     19485 4.92740E+01 4.20840E+01 5.45455E+00
 -1     19486 4.50781E+01 4.50781E+01 5.45455E+00
 -1     19491 4.59619E+01 4.59619E+01 5.90909E+00
 -1     19492 4.92740E+01 4.20840E+01 6.36364E+00
 -1     19493 4.50781E+01 4.50781E+01 6.36364E+00
 -1     19498 4.59619E+01 4.59619E+01 6.81818E+00
 -1     19499 4.92740E+01 4.20840E+01 7.27273E+00
 -1     19500 4.50781E+01 4.50781E+01 7.27273E+00
 -1     19505 4.59619E+01 4.59619E+01 7.72727E+00
 -1     19506 4.92740E+01 4.20840E+01 8.18182E+00
 -1     19507 4.50781E+01 4.50781E+01 8.18182E+00
 -1     19512 4.59619E+01 4.59619E+01 8.63636E+00
 -1     19513 4.92740E+01 4.20840E+01 9.09091E+00
 -1     19514 4.50781E+01 4.50781E+01 9.09091E+00
 -1     19519 4.59619E+01 4.59619E+01 9.54545E+00
 -1     19523 3.82060E+01 5.25861E+01 4.54545E-01
 -1     19524 4.20840E+01 4.92740E+01 9.09091E-01
 -1     19525 3.74713E+01 5.15748E+01 9.09091E-01
 -1     19530 3.82060E+01 5.25861E+01 1.36364E+00
 -1     19531 4.20840E+01 4.92740E+01 1.81818E+00
 -1     19532 3.74713E+01 5.15748E+01 1.81818E+00
 -1     19537 3.82060E+01 5.25861E+01 2.27273E+00
 -1     19538 4.20840E+01 4.92740E+01 2.72727E+00
 -1     19539 3.74713E+01 5.15748E+01 2.72727E+00
 -1     19544 3.82060E+01 5.25861E+01 3.18182E+00
 -1     19545 4.20840E+01 4.92740E+01 3.63636E+00
 -1     19546 3.74713E+01 5.15748E+01 3.63636E+00
 -1     19551 3.82060E+01 5.25861E+01 4.09091E+00
 -1     19552 4.20840E+01 4.92740E+01 4.54545E+00
 -1     19553 3.74713E+01 5.15748E+01 4.54545E+00
 -1     19558 3.82060E+01 5.25861E+01 5.00000E+00
 -1     19559 4.20840E+01 4.92740E+01 5.45455E+00
 -1     19560 3.74713E+01 5.15748E+01 5.45455E+00
 -1     19565 3.82060E+01 5.25861E+01 5.90909E+00
 -1     19566 4.20840E+01 4.92740E+01 6.36364E+00
 -1     19567 3.74713E+01 5.15748E+01 6.36364E+00
 -1     19572 3.82060E+01 5.25861E+01 6.81818E+00
 -1     19573 4.20840E+01 4.92740E+01 7.27273E+00
 -1     19574 3.74713E+01 5.15748E+01 7.27273E+00
 -1     19579 3.82060E+01 5.25861E+01 7.72727E+00
 -1     19580 4.20840E+01 4.92740E+01 8.18182E+00
 -1     19581 3.74713E+01 5.15748E+01 8.18182E+00
 -1     19586 3.82060E+01 5.25861E+01 8.63636E+00
 -1     19587 4.20840E+01 4.92740E+01 9.09091E+00
 -1     19588 3.74713E+01 5.15748E+01 9.09091E+00
 -1     19593 3.82060E+01 5.25861E+01 9.54545E+00
 -1     19597 2.95094E+01 5.79154E+01 4.54545E-01
 -1     19598 3.38577E+01 5.52508E+01 9.09091E-01
 -1     19599 2.89419E+01 5.68017E+01 9.09091E-01
 -1     19604 2.95094E+01 5.79154E+01 1.36364E+00
 -1     19605 3.38577E+01 5.52508E+01 1.81818E+00
 -1     19606 2.89419E+01 5.68017E+01 1.81818E+00
 -1     19611 2.95094E+01 5.79154E+01 2.27273E+00
 -1     19612 3.38577E+01 5.52508E+01 2.72727E+00
 -1     19613 2.89419E+01 5.68017E+01 2.72727E+00
 -1     19618 2.95094E+01 5.79154E+01 3.18182E+00
 -1     19619 3.38577E+01 5.52508E+01 3.63636E+00
 -1     19620 2.89419E+01 5.68017E+01 3.63636E+00
 -1     19625 2.95094E+01 5.79154E+01 4.09091E+00
 -1     19626 3.38577E+01 5.52508E+01 4.54545E+00
 -1     19627 2.89419E+01 5.68017E+01 4.54545E+00
 -1     19632 2.95094E+01 5.79154E+01 5.00000E+00
 -1     19633 3.38577E+01 5.52508E+01 5.45455E+00
 -1     19634 2.89419E+01 5.68017E+01 5.45455E+00
 -1     19639 2.95094E+01 5.79154E+01 5.90909E+00
 -1     19640 3.38577E+01 5.52508E+01 6.36364E+00
 -1     19641 2.89419E+01 5.68017E+01 6.36364E+00
 -1     19646 2.95094E+01 5.79154E+01 6.81818E+00
 -1     19647 3.38577E+01 5.52508E+01 7.27273E+00
 -1     19648 2.89419E+01 5.68017E+01 7.27273E+00
 -1     19653 2.95094E+01 5.79154E+01 7.72727E+00
 -1     19654 3.38577E+01 5.52508E+01 8.18182E+00
 -1     19655 2.89419E+01 5.68017E+01 8.18182E+00
 -1     19660 2.95094E+01 5.79154E+01 8.63636E+00
 -1     19661 3.38577E+01 5.52508E+01 9.09091E+00
 -1     19662 2.89419E+01 5.68017E+01 9.09091E+00
 -1     19667 2.95094E+01 5.79154E+01 9.54545E+00
 -1     19671 2.00861E+01 6.18187E+01 4.54545E-01
 -1     19672 2.47977E+01 5.98671E+01 9.09091E-01
 -1     19673 1.96998E+01 6.06299E+01 9.09091E-01
 -1     19678 2.00861E+01 6.18187E+01 1.36364E+00
 -1     19679 2.47977E+01 5.98671E+01 1.81818E+00
 -1     19680 1.96998E+01 6.06299E+01 1.81818E+00
 -1     19685 2.00861E+01 6.18187E+01 2.27273E+00
 -1     19686 2.47977E+01 5.98671E+01 2.72727E+00
 -1     19687 1.96998E+01 6.06299E+01 2.72727E+00
 -1     19692 2.00861E+01 6.18187E+01 3.18182E+00
 -1     19693 2.47977E+01 5.98671E+01 3.63636E+00
 -1     19694 1.96998E+01 6.06299E+01 3.63636E+00
 -1     19699 2.00861E+01 6.18187E+01 4.09091E+00
 -1     19700 2.47977E+01 5.98671E+01 4.54545E+00
 -1     19701 1.96998E+01 6.06299E+01 4.54545E+00
 -1     19706 2.00861E+01 6.18187E+01 5.00000E+00
 -1     19707 2.47977E+01 5.98671E+01 5.45455E+00
 -1     19708 1.96998E+01 6.06299E+01 5.45455E+00
 -1     19713 2.00861E+01 6.18187E+01 5.90909E+00
 -1     19714 2.47977E+01 5.98671E+01 6.36364E+00
 -1     19715 1.96998E+01 6.06299E+01 6.36364E+00
 -1     19720 2.00861E+01 6.18187E+01 6.81818E+00
 -1     19721 2.47977E+01 5.98671E+01 7.27273E+00
 -1     19722 1.96998E+01 6.06299E+01 7.27273E+00
 -1     19727 2.00861E+01 6.18187E+01 7.72727E+00
 -1     19728 2.47977E+01 5.98671E+01 8.18182E+00
 -1     19729 1.96998E+01 6.06299E+01 8.18182E+00
 -1     19734 2.00861E+01 6.18187E+01 8.63636E+00
 -1     19735 2.47977E+01 5.98671E+01 9.09091E+00
 -1     19736 1.96998E+01 6.06299E+01 9.09091E+00
 -1     19741 2.00861E+01 6.18187E+01 9.54545E+00
 -1     19745 1.01682E+01 6.41997E+01 4.54545E-01
 -1     19746 1.51272E+01 6.30092E+01 9.09091E-01
 -1     19747 9.97270E+00 6.29651E+01 9.09091E-01
 -1     19752 1.01682E+01 6.41997E+01 1.36364E+00
 -1     19753 1.51272E+01 6.30092E+01 1.81818E+00
 -1     19754 9.97270E+00 6.29651E+01 1.81818E+00
 -1     19759 1.01682E+01 6.41997E+01 2.27273E+00
 -1     19760 1.51272E+01 6.30092E+01 2.72727E+00
 -1     19761 9.97270E+00 6.29651E+01 2.72727E+00
 -1     19766 1.01682E+01 6.41997E+01 3.18182E+00
 -1     19767 1.51272E+01 6.30092E+01 3.63636E+00
 -1     19768 9.97270E+00 6.29651E+01 3.63636E+00
 -1     19773 1.01682E+01 6.41997E+01 4.09091E+00
 -1     19774 1.51272E+01 6.30092E+01 4.54545E+00
 -1     19775 9.97270E+00 6.29651E+01 4.54545E+00
 -1     19780 1.01682E+01 6.41997E+01 5.00000E+00
 -1     19781 1.51272E+01 6.30092E+01 5.45455E+00
 -1     19782 9.97270E+00 6.29651E+01 5.45455E+00
 -1     19787 1.01682E+01 6.41997E+01 5.90909E+00
 -1     19788 1.51272E+01 6.30092E+01 6.36364E+00
 -1     19789 9.97270E+00 6.29651E+01 6.36364E+00
 -1     19794 1.01682E+01 6.41997E+01 6.81818E+00
 -1     19795 1.51272E+01 6.30092E+01 7.27273E+00
 -1     19796 9.97270E+00 6.29651E+01 7.27273E+00
 -1     19801 1.01682E+01 6.41997E+01 7.72727E+00
 -1     19802 1.51272E+01 6.30092E+01 8.18182E+00
 -1     19803 9.97270E+00 6.29651E+01 8.18182E+00
 -1     19808 1.01682E+01 6.41997E+01 8.63636E+00
 -1     19809 1.51272E+01 6.30092E+01 9.09091E+00
 -1     19810 9.97270E+00 6.29651E+01 9.09091E+00
 -1     19815 1.01682E+01 6.41997E+01 9.54545E+00
 -1     19819 5.08412E+00 6.45999E+01 9.09091E-01
 -1     19823 5.08412E+00 6.45999E+01 1.81818E+00
 -1     19827 5.08412E+00 6.45999E+01 2.72727E+00
 -1     19831 5.08412E+00 6.45999E+01 3.63636E+00
 -1     19835 5.08412E+00 6.45999E+01 4.54545E+00
 -1     19839 5.08412E+00 6.45999E+01 5.45455E+00
 -1     19843 5.08412E+00 6.45999E+01 6.36364E+00
 -1     19847 5.08412E+00 6.45999E+01 7.27273E+00
 -1     19851 5.08412E+00 6.45999E+01 8.18182E+00
 -1     19855 5.08412E+00 6.45999E+01 9.09091E+00
 -1     19861 6.66690E+01 1.05593E+01 4.54545E-01
 -1     19862 6.70845E+01 5.27966E+00 9.09091E-01
 -1     19863 6.54343E+01 1.03638E+01 9.09091E-01
 -1     19868 6.66690E+01 1.05593E+01 1.36364E+00
 -1     19869 6.70845E+01 5.27966E+00 1.81818E+00
 -1     19870 6.54343E+01 1.03638E+01 1.81818E+00
 -1     19875 6.66690E+01 1.05593E+01 2.27273E+00
 -1     19876 6.70845E+01 5.27966E+00 2.72727E+00
 -1     19877 6.54343E+01 1.03638E+01 2.72727E+00
 -1     19882 6.66690E+01 1.05593E+01 3.18182E+00
 -1     19883 6.70845E+01 5.27966E+00 3.63636E+00
 -1     19884 6.54343E+01 1.03638E+01 3.63636E+00
 -1     19889 6.66690E+01 1.05593E+01 4.09091E+00
 -1     19890 6.70845E+01 5.27966E+00 4.54545E+00
 -1     19891 6.54343E+01 1.03638E+01 4.54545E+00
 -1     19896 6.66690E+01 1.05593E+01 5.00000E+00
 -1     19897 6.70845E+01 5.27966E+00 5.45455E+00
 -1     19898 6.54343E+01 1.03638E+01 5.45455E+00
 -1     19903 6.66690E+01 1.05593E+01 5.90909E+00
 -1     19904 6.70845E+01 5.27966E+00 6.36364E+00
 -1     19905 6.54343E+01 1.03638E+01 6.36364E+00
 -1     19910 6.66690E+01 1.05593E+01 6.81818E+00
 -1     19911 6.70845E+01 5.27966E+00 7.27273E+00
 -1     19912 6.54343E+01 1.03638E+01 7.27273E+00
 -1     19917 6.66690E+01 1.05593E+01 7.72727E+00
 -1     19918 6.70845E+01 5.27966E+00 8.18182E+00
 -1     19919 6.54343E+01 1.03638E+01 8.18182E+00
 -1     19924 6.66690E+01 1.05593E+01 8.63636E+00
 -1     19925 6.70845E+01 5.27966E+00 9.09091E+00
 -1     19926 6.54343E+01 1.03638E+01 9.09091E+00
 -1     19931 6.66690E+01 1.05593E+01 9.54545E+00
 -1     19935 6.41963E+01 2.08586E+01 4.54545E-01
 -1     19936 6.54326E+01 1.57090E+01 9.09091E-01
 -1     19937 6.30075E+01 2.04724E+01 9.09091E-01
 -1     19942 6.41963E+01 2.08586E+01 1.36364E+00
 -1     19943 6.54326E+01 1.57090E+01 1.81818E+00
 -1     19944 6.30075E+01 2.04724E+01 1.81818E+00
 -1     19949 6.41963E+01 2.08586E+01 2.27273E+00
 -1     19950 6.54326E+01 1.57090E+01 2.72727E+00
 -1     19951 6.30075E+01 2.04724E+01 2.72727E+00
 -1     19956 6.41963E+01 2.08586E+01 3.18182E+00
 -1     19957 6.54326E+01 1.57090E+01 3.63636E+00
 -1     19958 6.30075E+01 2.04724E+01 3.63636E+00
 -1     19963 6.41963E+01 2.08586E+01 4.09091E+00
 -1     19964 6.54326E+01 1.57090E+01 4.54545E+00
 -1     19965 6.30075E+01 2.04724E+01 4.54545E+00
 -1     19970 6.41963E+01 2.08586E+01 5.00000E+00
 -1     19971 6.54326E+01 1.57090E+01 5.45455E+00
 -1     19972 6.30075E+01 2.04724E+01 5.45455E+00
 -1     19977 6.41963E+01 2.08586E+01 5.90909E+00
 -1     19978 6.54326E+01 1.57090E+01 6.36364E+00
 -1     19979 6.30075E+01 2.04724E+01 6.36364E+00
 -1     19984 6.41963E+01 2.08586E+01 6.81818E+00
 -1     19985 6.54326E+01 1.57090E+01 7.27273E+00
 -1     19986 6.30075E+01 2.04724E+01 7.27273E+00
 -1     19991 6.41963E+01 2.08586E+01 7.72727E+00
 -1     19992 6.54326E+01 1.57090E+01 8.18182E+00
 -1     19993 6.30075E+01 2.04724E+01 8.18182E+00
 -1     19998 6.41963E+01 2.08586E+01 8.63636E+00
 -1     19999 6.54326E+01 1.57090E+01 9.09091E+00
 -1     20000 6.30075E+01 2.04724E+01 9.09091E+00
 -1     20005 6.41963E+01 2.08586E+01 9.54545E+00
 -1     20009 6.01429E+01 3.06444E+01 4.54545E-01
 -1     20010 6.21696E+01 2.57515E+01 9.09091E-01
 -1     20011 5.90292E+01 3.00769E+01 9.09091E-01
 -1     20016 6.01429E+01 3.06444E+01 1.36364E+00
 -1     20017 6.21696E+01 2.57515E+01 1.81818E+00
 -1     20018 5.90292E+01 3.00769E+01 1.81818E+00
 -1     20023 6.01429E+01 3.06444E+01 2.27273E+00
 -1     20024 6.21696E+01 2.57515E+01 2.72727E+00
 -1     20025 5.90292E+01 3.00769E+01 2.72727E+00
 -1     20030 6.01429E+01 3.06444E+01 3.18182E+00
 -1     20031 6.21696E+01 2.57515E+01 3.63636E+00
 -1     20032 5.90292E+01 3.00769E+01 3.63636E+00
 -1     20037 6.01429E+01 3.06444E+01 4.09091E+00
 -1     20038 6.21696E+01 2.57515E+01 4.54545E+00
 -1     20039 5.90292E+01 3.00769E+01 4.54545E+00
 -1     20044 6.01429E+01 3.06444E+01 5.00000E+00
 -1     20045 6.21696E+01 2.57515E+01 5.45455E+00
 -1     20046 5.90292E+01 3.00769E+01 5.45455E+00
 -1     20051 6.01429E+01 3.06444E+01 5.90909E+00
 -1     20052 6.21696E+01 2.57515E+01 6.36364E+00
 -1     20053 5.90292E+01 3.00769E+01 6.36364E+00
 -1     20058 6.01429E+01 3.06444E+01 6.81818E+00
 -1     20059 6.21696E+01 2.57515E+01 7.27273E+00
 -1     20060 5.90292E+01 3.00769E+01 7.27273E+00
 -1     20065 6.01429E+01 3.06444E+01 7.72727E+00
 -1     20066 6.21696E+01 2.57515E+01 8.18182E+00
 -1     20067 5.90292E+01 3.00769E+01 8.18182E+00
 -1     20072 6.01429E+01 3.06444E+01 8.63636E+00
 -1     20073 6.21696E+01 2.57515E+01 9.09091E+00
 -1     20074 5.90292E+01 3.00769E+01 9.09091E+00
 -1     20079 6.01429E+01 3.06444E+01 9.54545E+00
 -1     20083 5.46086E+01 3.96755E+01 4.54545E-01
 -1     20084 5.73758E+01 3.51599E+01 9.09091E-01
 -1     20085 5.35974E+01 3.89408E+01 9.09091E-01
 -1     20090 5.46086E+01 3.96755E+01 1.36364E+00
 -1     20091 5.73758E+01 3.51599E+01 1.81818E+00
 -1     20092 5.35974E+01 3.89408E+01 1.81818E+00
 -1     20097 5.46086E+01 3.96755E+01 2.27273E+00
 -1     20098 5.73758E+01 3.51599E+01 2.72727E+00
 -1     20099 5.35974E+01 3.89408E+01 2.72727E+00
 -1     20104 5.46086E+01 3.96755E+01 3.18182E+00
 -1     20105 5.73758E+01 3.51599E+01 3.63636E+00
 -1     20106 5.35974E+01 3.89408E+01 3.63636E+00
 -1     20111 5.46086E+01 3.96755E+01 4.09091E+00
 -1     20112 5.73758E+01 3.51599E+01 4.54545E+00
 -1     20113 5.35974E+01 3.89408E+01 4.54545E+00
 -1     20118 5.46086E+01 3.96755E+01 5.00000E+00
 -1     20119 5.73758E+01 3.51599E+01 5.45455E+00
 -1     20120 5.35974E+01 3.89408E+01 5.45455E+00
 -1     20125 5.46086E+01 3.96755E+01 5.90909E+00
 -1     20126 5.73758E+01 3.51599E+01 6.36364E+00
 -1     20127 5.35974E+01 3.89408E+01 6.36364E+00
 -1     20132 5.46086E+01 3.96755E+01 6.81818E+00
 -1     20133 5.73758E+01 3.51599E+01 7.27273E+00
 -1     20134 5.35974E+01 3.89408E+01 7.27273E+00
 -1     20139 5.46086E+01 3.96755E+01 7.72727E+00
 -1     20140 5.73758E+01 3.51599E+01 8.18182E+00
 -1     20141 5.35974E+01 3.89408E+01 8.18182E+00
 -1     20146 5.46086E+01 3.96755E+01 8.63636E+00
 -1     20147 5.73758E+01 3.51599E+01 9.09091E+00
 -1     20148 5.35974E+01 3.89408E+01 9.09091E+00
 -1     20153 5.46086E+01 3.96755E+01 9.54545E+00
 -1     20157 4.77297E+01 4.77297E+01 4.54545E-01
 -1     20158 5.11692E+01 4.37026E+01 9.09091E-01
 -1     20159 4.68458E+01 4.68458E+01 9.09091E-01
 -1     20164 4.77297E+01 4.77297E+01 1.36364E+00
 -1     20165 5.11692E+01 4.37026E+01 1.81818E+00
 -1     20166 4.68458E+01 4.68458E+01 1.81818E+00
 -1     20171 4.77297E+01 4.77297E+01 2.27273E+00
 -1     20172 5.11692E+01 4.37026E+01 2.72727E+00
 -1     20173 4.68458E+01 4.68458E+01 2.72727E+00
 -1     20178 4.77297E+01 4.77297E+01 3.18182E+00
 -1     20179 5.11692E+01 4.37026E+01 3.63636E+00
 -1     20180 4.68458E+01 4.68458E+01 3.63636E+00
 -1     20185 4.77297E+01 4.77297E+01 4.09091E+00
 -1     20186 5.11692E+01 4.37026E+01 4.54545E+00
 -1     20187 4.68458E+01 4.68458E+01 4.54545E+00
 -1     20192 4.77297E+01 4.77297E+01 5.00000E+00
 -1     20193 5.11692E+01 4.37026E+01 5.45455E+00
 -1     20194 4.68458E+01 4.68458E+01 5.45455E+00
 -1     20199 4.77297E+01 4.77297E+01 5.90909E+00
 -1     20200 5.11692E+01 4.37026E+01 6.36364E+00
 -1     20201 4.68458E+01 4.68458E+01 6.36364E+00
 -1     20206 4.77297E+01 4.77297E+01 6.81818E+00
 -1     20207 5.11692E+01 4.37026E+01 7.27273E+00
 -1     20208 4.68458E+01 4.68458E+01 7.27273E+00
 -1     20213 4.77297E+01 4.77297E+01 7.72727E+00
 -1     20214 5.11692E+01 4.37026E+01 8.18182E+00
 -1     20215 4.68458E+01 4.68458E+01 8.18182E+00
 -1     20220 4.77297E+01 4.77297E+01 8.63636E+00
 -1     20221 5.11692E+01 4.37026E+01 9.09091E+00
 -1     20222 4.68458E+01 4.68458E+01 9.09091E+00
 -1     20227 4.77297E+01 4.77297E+01 9.54545E+00
 -1     20231 3.96755E+01 5.46086E+01 4.54545E-01
 -1     20232 4.37026E+01 5.11692E+01 9.09091E-01
 -1     20233 3.89408E+01 5.35974E+01 9.09091E-01
 -1     20238 3.96755E+01 5.46086E+01 1.36364E+00
 -1     20239 4.37026E+01 5.11692E+01 1.81818E+00
 -1     20240 3.89408E+01 5.35974E+01 1.81818E+00
 -1     20245 3.96755E+01 5.46086E+01 2.27273E+00
 -1     20246 4.37026E+01 5.11692E+01 2.72727E+00
 -1     20247 3.89408E+01 5.35974E+01 2.72727E+00
 -1     20252 3.96755E+01 5.46086E+01 3.18182E+00
 -1     20253 4.37026E+01 5.11692E+01 3.63636E+00
 -1     20254 3.89408E+01 5.35974E+01 3.63636E+00
 -1     20259 3.96755E+01 5.46086E+01 4.09091E+00
 -1     20260 4.37026E+01 5.11692E+01 4.54545E+00
 -1     20261 3.89408E+01 5.35974E+01 4.54545E+00
 -1     20266 3.96755E+01 5.46086E+01 5.00000E+00
 -1     20267 4.37026E+01 5.11692E+01 5.45455E+00
 -1     20268 3.89408E+01 5.35974E+01 5.45455E+00
 -1     20273 3.96755E+01 5.46086E+01 5.90909E+00
 -1     20274 4.37026E+01 5.11692E+01 6.36364E+00
 -1     20275 3.89408E+01 5.35974E+01 6.36364E+00
 -1     20280 3.96755E+01 5.46086E+01 6.81818E+00
 -1     20281 4.37026E+01 5.11692E+01 7.27273E+00
 -1     20282 3.89408E+01 5.35974E+01 7.27273E+00
 -1     20287 3.96755E+01 5.46086E+01 7.72727E+00
 -1     20288 4.37026E+01 5.11692E+01 8.18182E+00
 -1     20289 3.89408E+01 5.35974E+01 8.18182E+00
 -1     20294 3.96755E+01 5.46086E+01 8.63636E+00
 -1     20295 4.37026E+01 5.11692E+01 9.09091E+00
 -1     20296 3.89408E+01 5.35974E+01 9.09091E+00
 -1     20301 3.96755E+01 5.46086E+01 9.54545E+00
 -1     20305 3.06444E+01 6.01429E+01 4.54545E-01
 -1     20306 3.51599E+01 5.73758E+01 9.09091E-01
 -1     20307 3.00769E+01 5.90292E+01 9.09091E-01
 -1     20312 3.06444E+01 6.01429E+01 1.36364E+00
 -1     20313 3.51599E+01 5.73758E+01 1.81818E+00
 -1     20314 3.00769E+01 5.90292E+01 1.81818E+00
 -1     20319 3.06444E+01 6.01429E+01 2.27273E+00
 -1     20320 3.51599E+01 5.73758E+01 2.72727E+00
 -1     20321 3.00769E+01 5.90292E+01 2.72727E+00
 -1     20326 3.06444E+01 6.01429E+01 3.18182E+00
 -1     20327 3.51599E+01 5.73758E+01 3.63636E+00
 -1     20328 3.00769E+01 5.90292E+01 3.63636E+00
 -1     20333 3.06444E+01 6.01429E+01 4.09091E+00
 -1     20334 3.51599E+01 5.73758E+01 4.54545E+00
 -1     20335 3.00769E+01 5.90292E+01 4.54545E+00
 -1     20340 3.06444E+01 6.01429E+01 5.00000E+00
 -1     20341 3.51599E+01 5.73758E+01 5.45455E+00
 -1     20342 3.00769E+01 5.90292E+01 5.45455E+00
 -1     20347 3.06444E+01 6.01429E+01 5.90909E+00
 -1     20348 3.51599E+01 5.73758E+01 6.36364E+00
 -1     20349 3.00769E+01 5.90292E+01 6.36364E+00
 -1     20354 3.06444E+01 6.01429E+01 6.81818E+00
 -1     20355 3.51599E+01 5.73758E+01 7.27273E+00
 -1     20356 3.00769E+01 5.90292E+01 7.27273E+00
 -1     20361 3.06444E+01 6.01429E+01 7.72727E+00
 -1     20362 3.51599E+01 5.73758E+01 8.18182E+00
 -1     20363 3.00769E+01 5.90292E+01 8.18182E+00
 -1     20368 3.06444E+01 6.01429E+01 8.63636E+00
 -1     20369 3.51599E+01 5.73758E+01 9.09091E+00
 -1     20370 3.00769E+01 5.90292E+01 9.09091E+00
 -1     20375 3.06444E+01 6.01429E+01 9.54545E+00
 -1     20379 2.08586E+01 6.41963E+01 4.54545E-01
 -1     20380 2.57515E+01 6.21696E+01 9.09091E-01
 -1     20381 2.04724E+01 6.30075E+01 9.09091E-01
 -1     20386 2.08586E+01 6.41963E+01 1.36364E+00
 -1     20387 2.57515E+01 6.21696E+01 1.81818E+00
 -1     20388 2.04724E+01 6.30075E+01 1.81818E+00
 -1     20393 2.08586E+01 6.41963E+01 2.27273E+00
 -1     20394 2.57515E+01 6.21696E+01 2.72727E+00
 -1     20395 2.04724E+01 6.30075E+01 2.72727E+00
 -1     20400 2.08586E+01 6.41963E+01 3.18182E+00
 -1     20401 2.57515E+01 6.21696E+01 3.63636E+00
 -1     20402 2.04724E+01 6.30075E+01 3.63636E+00
 -1     20407 2.08586E+01 6.41963E+01 4.09091E+00
 -1     20408 2.57515E+01 6.21696E+01 4.54545E+00
 -1     20409 2.04724E+01 6.30075E+01 4.54545E+00
 -1     20414 2.08586E+01 6.41963E+01 5.00000E+00
 -1     20415 2.57515E+01 6.21696E+01 5.45455E+00
 -1     20416 2.04724E+01 6.30075E+01 5.45455E+00
 -1     20421 2.08586E+01 6.41963E+01 5.90909E+00
 -1     20422 2.57515E+01 6.21696E+01 6.36364E+00
 -1     20423 2.04724E+01 6.30075E+01 6.36364E+00
 -1     20428 2.08586E+01 6.41963E+01 6.81818E+00
 -1     20429 2.57515E+01 6.21696E+01 7.27273E+00
 -1     20430 2.04724E+01 6.30075E+01 7.27273E+00
 -1     20435 2.08586E+01 6.41963E+01 7.72727E+00
 -1     20436 2.57515E+01 6.21696E+01 8.18182E+00
 -1     20437 2.04724E+01 6.30075E+01 8.18182E+00
 -1     20442 2.08586E+01 6.41963E+01 8.63636E+00
 -1     20443 2.57515E+01 6.21696E+01 9.09091E+00
 -1     20444 2.04724E+01 6.30075E+01 9.09091E+00
 -1     20449 2.08586E+01 6.41963E+01 9.54545E+00
 -1     20453 1.05593E+01 6.66690E+01 4.54545E-01
 -1     20454 1.57090E+01 6.54326E+01 9.09091E-01
 -1     20455 1.03638E+01 6.54343E+01 9.09091E-01
 -1     20460 1.05593E+01 6.66690E+01 1.36364E+00
 -1     20461 1.57090E+01 6.54326E+01 1.81818E+00
 -1     20462 1.03638E+01 6.54343E+01 1.81818E+00
 -1     20467 1.05593E+01 6.66690E+01 2.27273E+00
 -1     20468 1.57090E+01 6.54326E+01 2.72727E+00
 -1     20469 1.03638E+01 6.54343E+01 2.72727E+00
 -1     20474 1.05593E+01 6.66690E+01 3.18182E+00
 -1     20475 1.57090E+01 6.54326E+01 3.63636E+00
 -1     20476 1.03638E+01 6.54343E+01 3.63636E+00
 -1     20481 1.05593E+01 6.66690E+01 4.09091E+00
 -1     20482 1.57090E+01 6.54326E+01 4.54545E+00
 -1     20483 1.03638E+01 6.54343E+01 4.54545E+00
 -1     20488 1.05593E+01 6.66690E+01 5.00000E+00
 -1     20489 1.57090E+01 6.54326E+01 5.45455E+00
 -1     20490 1.03638E+01 6.54343E+01 5.45455E+00
 -1     20495 1.05593E+01 6.66690E+01 5.90909E+00
 -1     20496 1.57090E+01 6.54326E+01 6.36364E+00
 -1     20497 1.03638E+01 6.54343E+01 6.36364E+00
 -1     20502 1.05593E+01 6.66690E+01 6.81818E+00
 -1     20503 1.57090E+01 6.54326E+01 7.27273E+00
 -1     20504 1.03638E+01 6.54343E+01 7.27273E+00
 -1     20509 1.05593E+01 6.66690E+01 7.72727E+00
 -1     20510 1.57090E+01 6.54326E+01 8.18182E+00
 -1     20511 1.03638E+01 6.54343E+01 8.18182E+00
 -1     20516 1.05593E+01 6.66690E+01 8.63636E+00
 -1     20517 1.57090E+01 6.54326E+01 9.09091E+00
 -1     20518 1.03638E+01 6.54343E+01 9.09091E+00
 -1     20523 1.05593E+01 6.66690E+01 9.54545E+00
 -1     20527 5.27966E+00 6.70845E+01 9.09091E-01
 -1     20531 5.27966E+00 6.70845E+01 1.81818E+00
 -1     20535 5.27966E+00 6.70845E+01 2.72727E+00
 -1     20539 5.27966E+00 6.70845E+01 3.63636E+00
 -1     20543 5.27966E+00 6.70845E+01 4.54545E+00
 -1     20547 5.27966E+00 6.70845E+01 5.45455E+00
 -1     20551 5.27966E+00 6.70845E+01 6.36364E+00
 -1     20555 5.27966E+00 6.70845E+01 7.27273E+00
 -1     20559 5.27966E+00 6.70845E+01 8.18182E+00
 -1     20563 5.27966E+00 6.70845E+01 9.09091E+00
 -1     20569 6.91382E+01 1.09504E+01 4.54545E-01
 -1     20570 6.95691E+01 5.47521E+00 9.09091E-01
 -1     20571 6.79036E+01 1.07549E+01 9.09091E-01
 -1     20576 6.91382E+01 1.09504E+01 1.36364E+00
 -1     20577 6.95691E+01 5.47521E+00 1.81818E+00
 -1     20578 6.79036E+01 1.07549E+01 1.81818E+00
 -1     20583 6.91382E+01 1.09504E+01 2.27273E+00
 -1     20584 6.95691E+01 5.47521E+00 2.72727E+00
 -1     20585 6.79036E+01 1.07549E+01 2.72727E+00
 -1     20590 6.91382E+01 1.09504E+01 3.18182E+00
 -1     20591 6.95691E+01 5.47521E+00 3.63636E+00
 -1     20592 6.79036E+01 1.07549E+01 3.63636E+00
 -1     20597 6.91382E+01 1.09504E+01 4.09091E+00
 -1     20598 6.95691E+01 5.47521E+00 4.54545E+00
 -1     20599 6.79036E+01 1.07549E+01 4.54545E+00
 -1     20604 6.91382E+01 1.09504E+01 5.00000E+00
 -1     20605 6.95691E+01 5.47521E+00 5.45455E+00
 -1     20606 6.79036E+01 1.07549E+01 5.45455E+00
 -1     20611 6.91382E+01 1.09504E+01 5.90909E+00
 -1     20612 6.95691E+01 5.47521E+00 6.36364E+00
 -1     20613 6.79036E+01 1.07549E+01 6.36364E+00
 -1     20618 6.91382E+01 1.09504E+01 6.81818E+00
 -1     20619 6.95691E+01 5.47521E+00 7.27273E+00
 -1     20620 6.79036E+01 1.07549E+01 7.27273E+00
 -1     20625 6.91382E+01 1.09504E+01 7.72727E+00
 -1     20626 6.95691E+01 5.47521E+00 8.18182E+00
 -1     20627 6.79036E+01 1.07549E+01 8.18182E+00
 -1     20632 6.91382E+01 1.09504E+01 8.63636E+00
 -1     20633 6.95691E+01 5.47521E+00 9.09091E+00
 -1     20634 6.79036E+01 1.07549E+01 9.09091E+00
 -1     20639 6.91382E+01 1.09504E+01 9.54545E+00
 -1     20643 6.65740E+01 2.16312E+01 4.54545E-01
 -1     20644 6.78561E+01 1.62908E+01 9.09091E-01
 -1     20645 6.53851E+01 2.12449E+01 9.09091E-01
 -1     20650 6.65740E+01 2.16312E+01 1.36364E+00
 -1     20651 6.78561E+01 1.62908E+01 1.81818E+00
 -1     20652 6.53851E+01 2.12449E+01 1.81818E+00
 -1     20657 6.65740E+01 2.16312E+01 2.27273E+00
 -1     20658 6.78561E+01 1.62908E+01 2.72727E+00
 -1     20659 6.53851E+01 2.12449E+01 2.72727E+00
 -1     20664 6.65740E+01 2.16312E+01 3.18182E+00
 -1     20665 6.78561E+01 1.62908E+01 3.63636E+00
 -1     20666 6.53851E+01 2.12449E+01 3.63636E+00
 -1     20671 6.65740E+01 2.16312E+01 4.09091E+00
 -1     20672 6.78561E+01 1.62908E+01 4.54545E+00
 -1     20673 6.53851E+01 2.12449E+01 4.54545E+00
 -1     20678 6.65740E+01 2.16312E+01 5.00000E+00
 -1     20679 6.78561E+01 1.62908E+01 5.45455E+00
 -1     20680 6.53851E+01 2.12449E+01 5.45455E+00
 -1     20685 6.65740E+01 2.16312E+01 5.90909E+00
 -1     20686 6.78561E+01 1.62908E+01 6.36364E+00
 -1     20687 6.53851E+01 2.12449E+01 6.36364E+00
 -1     20692 6.65740E+01 2.16312E+01 6.81818E+00
 -1     20693 6.78561E+01 1.62908E+01 7.27273E+00
 -1     20694 6.53851E+01 2.12449E+01 7.27273E+00
 -1     20699 6.65740E+01 2.16312E+01 7.72727E+00
 -1     20700 6.78561E+01 1.62908E+01 8.18182E+00
 -1     20701 6.53851E+01 2.12449E+01 8.18182E+00
 -1     20706 6.65740E+01 2.16312E+01 8.63636E+00
 -1     20707 6.78561E+01 1.62908E+01 9.09091E+00
 -1     20708 6.53851E+01 2.12449E+01 9.09091E+00
 -1     20713 6.65740E+01 2.16312E+01 9.54545E+00
 -1     20717 6.23705E+01 3.17793E+01 4.54545E-01
 -1     20718 6.44722E+01 2.67053E+01 9.09091E-01
 -1     20719 6.12567E+01 3.12118E+01 9.09091E-01
 -1     20724 6.23705E+01 3.17793E+01 1.36364E+00
 -1     20725 6.44722E+01 2.67053E+01 1.81818E+00
 -1     20726 6.12567E+01 3.12118E+01 1.81818E+00
 -1     20731 6.23705E+01 3.17793E+01 2.27273E+00
 -1     20732 6.44722E+01 2.67053E+01 2.72727E+00
 -1     20733 6.12567E+01 3.12118E+01 2.72727E+00
 -1     20738 6.23705E+01 3.17793E+01 3.18182E+00
 -1     20739 6.44722E+01 2.67053E+01 3.63636E+00
 -1     20740 6.12567E+01 3.12118E+01 3.63636E+00
 -1     20745 6.23705E+01 3.17793E+01 4.09091E+00
 -1     20746 6.44722E+01 2.67053E+01 4.54545E+00
 -1     20747 6.12567E+01 3.12118E+01 4.54545E+00
 -1     20752 6.23705E+01 3.17793E+01 5.00000E+00
 -1     20753 6.44722E+01 2.67053E+01 5.45455E+00
 -1     20754 6.12567E+01 3.12118E+01 5.45455E+00
 -1     20759 6.23705E+01 3.17793E+01 5.90909E+00
 -1     20760 6.44722E+01 2.67053E+01 6.36364E+00
 -1     20761 6.12567E+01 3.12118E+01 6.36364E+00
 -1     20766 6.23705E+01 3.17793E+01 6.81818E+00
 -1     20767 6.44722E+01 2.67053E+01 7.27273E+00
 -1     20768 6.12567E+01 3.12118E+01 7.27273E+00
 -1     20773 6.23705E+01 3.17793E+01 7.72727E+00
 -1     20774 6.44722E+01 2.67053E+01 8.18182E+00
 -1     20775 6.12567E+01 3.12118E+01 8.18182E+00
 -1     20780 6.23705E+01 3.17793E+01 8.63636E+00
 -1     20781 6.44722E+01 2.67053E+01 9.09091E+00
 -1     20782 6.12567E+01 3.12118E+01 9.09091E+00
 -1     20787 6.23705E+01 3.17793E+01 9.54545E+00
 -1     20791 5.66312E+01 4.11450E+01 4.54545E-01
 -1     20792 5.95008E+01 3.64622E+01 9.09091E-01
 -1     20793 5.56199E+01 4.04102E+01 9.09091E-01
 -1     20798 5.66312E+01 4.11450E+01 1.36364E+00
 -1     20799 5.95008E+01 3.64622E+01 1.81818E+00
 -1     20800 5.56199E+01 4.04102E+01 1.81818E+00
 -1     20805 5.66312E+01 4.11450E+01 2.27273E+00
 -1     20806 5.95008E+01 3.64622E+01 2.72727E+00
 -1     20807 5.56199E+01 4.04102E+01 2.72727E+00
 -1     20812 5.66312E+01 4.11450E+01 3.18182E+00
 -1     20813 5.95008E+01 3.64622E+01 3.63636E+00
 -1     20814 5.56199E+01 4.04102E+01 3.63636E+00
 -1     20819 5.66312E+01 4.11450E+01 4.09091E+00
 -1     20820 5.95008E+01 3.64622E+01 4.54545E+00
 -1     20821 5.56199E+01 4.04102E+01 4.54545E+00
 -1     20826 5.66312E+01 4.11450E+01 5.00000E+00
 -1     20827 5.95008E+01 3.64622E+01 5.45455E+00
 -1     20828 5.56199E+01 4.04102E+01 5.45455E+00
 -1     20833 5.66312E+01 4.11450E+01 5.90909E+00
 -1     20834 5.95008E+01 3.64622E+01 6.36364E+00
 -1     20835 5.56199E+01 4.04102E+01 6.36364E+00
 -1     20840 5.66312E+01 4.11450E+01 6.81818E+00
 -1     20841 5.95008E+01 3.64622E+01 7.27273E+00
 -1     20842 5.56199E+01 4.04102E+01 7.27273E+00
 -1     20847 5.66312E+01 4.11450E+01 7.72727E+00
 -1     20848 5.95008E+01 3.64622E+01 8.18182E+00
 -1     20849 5.56199E+01 4.04102E+01 8.18182E+00
 -1     20854 5.66312E+01 4.11450E+01 8.63636E+00
 -1     20855 5.95008E+01 3.64622E+01 9.09091E+00
 -1     20856 5.56199E+01 4.04102E+01 9.09091E+00
 -1     20861 5.66312E+01 4.11450E+01 9.54545E+00
 -1     20865 4.94975E+01 4.94975E+01 4.54545E-01
 -1     20866 5.30643E+01 4.53212E+01 9.09091E-01
 -1     20867 4.86136E+01 4.86136E+01 9.09091E-01
 -1     20872 4.94975E+01 4.94975E+01 1.36364E+00
 -1     20873 5.30643E+01 4.53212E+01 1.81818E+00
 -1     20874 4.86136E+01 4.86136E+01 1.81818E+00
 -1     20879 4.94975E+01 4.94975E+01 2.27273E+00
 -1     20880 5.30643E+01 4.53212E+01 2.72727E+00
 -1     20881 4.86136E+01 4.86136E+01 2.72727E+00
 -1     20886 4.94975E+01 4.94975E+01 3.18182E+00
 -1     20887 5.30643E+01 4.53212E+01 3.63636E+00
 -1     20888 4.86136E+01 4.86136E+01 3.63636E+00
 -1     20893 4.94975E+01 4.94975E+01 4.09091E+00
 -1     20894 5.30643E+01 4.53212E+01 4.54545E+00
 -1     20895 4.86136E+01 4.86136E+01 4.54545E+00
 -1     20900 4.94975E+01 4.94975E+01 5.00000E+00
 -1     20901 5.30643E+01 4.53212E+01 5.45455E+00
 -1     20902 4.86136E+01 4.86136E+01 5.45455E+00
 -1     20907 4.94975E+01 4.94975E+01 5.90909E+00
 -1     20908 5.30643E+01 4.53212E+01 6.36364E+00
 -1     20909 4.86136E+01 4.86136E+01 6.36364E+00
 -1     20914 4.94975E+01 4.94975E+01 6.81818E+00
 -1     20915 5.30643E+01 4.53212E+01 7.27273E+00
 -1     20916 4.86136E+01 4.86136E+01 7.27273E+00
 -1     20921 4.94975E+01 4.94975E+01 7.72727E+00
 -1     20922 5.30643E+01 4.53212E+01 8.18182E+00
 -1     20923 4.86136E+01 4.86136E+01 8.18182E+00
 -1     20928 4.94975E+01 4.94975E+01 8.63636E+00
 -1     20929 5.30643E+01 4.53212E+01 9.09091E+00
 -1     20930 4.86136E+01 4.86136E+01 9.09091E+00
 -1     20935 4.94975E+01 4.94975E+01 9.54545E+00
 -1     20939 4.11450E+01 5.66312E+01 4.54545E-01
 -1     20940 4.53212E+01 5.30643E+01 9.09091E-01
 -1     20941 4.04102E+01 5.56199E+01 9.09091E-01
 -1     20946 4.11450E+01 5.66312E+01 1.36364E+00
 -1     20947 4.53212E+01 5.30643E+01 1.81818E+00
 -1     20948 4.04102E+01 5.56199E+01 1.81818E+00
 -1     20953 4.11450E+01 5.66312E+01 2.27273E+00
 -1     20954 4.53212E+01 5.30643E+01 2.72727E+00
 -1     20955 4.04102E+01 5.56199E+01 2.72727E+00
 -1     20960 4.11450E+01 5.66312E+01 3.18182E+00
 -1     20961 4.53212E+01 5.30643E+01 3.63636E+00
 -1     20962 4.04102E+01 5.56199E+01 3.63636E+00
 -1     20967 4.11450E+01 5.66312E+01 4.09091E+00
 -1     20968 4.53212E+01 5.30643E+01 4.54545E+00
 -1     20969 4.04102E+01 5.56199E+01 4.54545E+00
 -1     20974 4.11450E+01 5.66312E+01 5.00000E+00
 -1     20975 4.53212E+01 5.30643E+01 5.45455E+00
 -1     20976 4.04102E+01 5.56199E+01 5.45455E+00
 -1     20981 4.11450E+01 5.66312E+01 5.90909E+00
 -1     20982 4.53212E+01 5.30643E+01 6.36364E+00
 -1     20983 4.04102E+01 5.56199E+01 6.36364E+00
 -1     20988 4.11450E+01 5.66312E+01 6.81818E+00
 -1     20989 4.53212E+01 5.30643E+01 7.27273E+00
 -1     20990 4.04102E+01 5.56199E+01 7.27273E+00
 -1     20995 4.11450E+01 5.66312E+01 7.72727E+00
 -1     20996 4.53212E+01 5.30643E+01 8.18182E+00
 -1     20997 4.04102E+01 5.56199E+01 8.18182E+00
 -1     21002 4.11450E+01 5.66312E+01 8.63636E+00
 -1     21003 4.53212E+01 5.30643E+01 9.09091E+00
 -1     21004 4.04102E+01 5.56199E+01 9.09091E+00
 -1     21009 4.11450E+01 5.66312E+01 9.54545E+00
 -1     21013 3.17793E+01 6.23705E+01 4.54545E-01
 -1     21014 3.64622E+01 5.95008E+01 9.09091E-01
 -1     21015 3.12118E+01 6.12567E+01 9.09091E-01
 -1     21020 3.17793E+01 6.23705E+01 1.36364E+00
 -1     21021 3.64622E+01 5.95008E+01 1.81818E+00
 -1     21022 3.12118E+01 6.12567E+01 1.81818E+00
 -1     21027 3.17793E+01 6.23705E+01 2.27273E+00
 -1     21028 3.64622E+01 5.95008E+01 2.72727E+00
 -1     21029 3.12118E+01 6.12567E+01 2.72727E+00
 -1     21034 3.17793E+01 6.23705E+01 3.18182E+00
 -1     21035 3.64622E+01 5.95008E+01 3.63636E+00
 -1     21036 3.12118E+01 6.12567E+01 3.63636E+00
 -1     21041 3.17793E+01 6.23705E+01 4.09091E+00
 -1     21042 3.64622E+01 5.95008E+01 4.54545E+00
 -1     21043 3.12118E+01 6.12567E+01 4.54545E+00
 -1     21048 3.17793E+01 6.23705E+01 5.00000E+00
 -1     21049 3.64622E+01 5.95008E+01 5.45455E+00
 -1     21050 3.12118E+01 6.12567E+01 5.45455E+00
 -1     21055 3.17793E+01 6.23705E+01 5.90909E+00
 -1     21056 3.64622E+01 5.95008E+01 6.36364E+00
 -1     21057 3.12118E+01 6.12567E+01 6.36364E+00
 -1     21062 3.17793E+01 6.23705E+01 6.81818E+00
 -1     21063 3.64622E+01 5.95008E+01 7.27273E+00
 -1     21064 3.12118E+01 6.12567E+01 7.27273E+00
 -1     21069 3.17793E+01 6.23705E+01 7.72727E+00
 -1     21070 3.64622E+01 5.95008E+01 8.18182E+00
 -1     21071 3.12118E+01 6.12567E+01 8.18182E+00
 -1     21076 3.17793E+01 6.23705E+01 8.63636E+00
 -1     21077 3.64622E+01 5.95008E+01 9.09091E+00
 -1     21078 3.12118E+01 6.12567E+01 9.09091E+00
 -1     21083 3.17793E+01 6.23705E+01 9.54545E+00
 -1     21087 2.16312E+01 6.65740E+01 4.54545E-01
 -1     21088 2.67053E+01 6.44722E+01 9.09091E-01
 -1     21089 2.12449E+01 6.53851E+01 9.09091E-01
 -1     21094 2.16312E+01 6.65740E+01 1.36364E+00
 -1     21095 2.67053E+01 6.44722E+01 1.81818E+00
 -1     21096 2.12449E+01 6.53851E+01 1.81818E+00
 -1     21101 2.16312E+01 6.65740E+01 2.27273E+00
 -1     21102 2.67053E+01 6.44722E+01 2.72727E+00
 -1     21103 2.12449E+01 6.53851E+01 2.72727E+00
 -1     21108 2.16312E+01 6.65740E+01 3.18182E+00
 -1     21109 2.67053E+01 6.44722E+01 3.63636E+00
 -1     21110 2.12449E+01 6.53851E+01 3.63636E+00
 -1     21115 2.16312E+01 6.65740E+01 4.09091E+00
 -1     21116 2.67053E+01 6.44722E+01 4.54545E+00
 -1     21117 2.12449E+01 6.53851E+01 4.54545E+00
 -1     21122 2.16312E+01 6.65740E+01 5.00000E+00
 -1     21123 2.67053E+01 6.44722E+01 5.45455E+00
 -1     21124 2.12449E+01 6.53851E+01 5.45455E+00
 -1     21129 2.16312E+01 6.65740E+01 5.90909E+00
 -1     21130 2.67053E+01 6.44722E+01 6.36364E+00
 -1     21131 2.12449E+01 6.53851E+01 6.36364E+00
 -1     21136 2.16312E+01 6.65740E+01 6.81818E+00
 -1     21137 2.67053E+01 6.44722E+01 7.27273E+00
 -1     21138 2.12449E+01 6.53851E+01 7.27273E+00
 -1     21143 2.16312E+01 6.65740E+01 7.72727E+00
 -1     21144 2.67053E+01 6.44722E+01 8.18182E+00
 -1     21145 2.12449E+01 6.53851E+01 8.18182E+00
 -1     21150 2.16312E+01 6.65740E+01 8.63636E+00
 -1     21151 2.67053E+01 6.44722E+01 9.09091E+00
 -1     21152 2.12449E+01 6.53851E+01 9.09091E+00
 -1     21157 2.16312E+01 6.65740E+01 9.54545E+00
 -1     21161 1.09504E+01 6.91382E+01 4.54545E-01
 -1     21162 1.62908E+01 6.78561E+01 9.09091E-01
 -1     21163 1.07549E+01 6.79036E+01 9.09091E-01
 -1     21168 1.09504E+01 6.91382E+01 1.36364E+00
 -1     21169 1.62908E+01 6.78561E+01 1.81818E+00
 -1     21170 1.07549E+01 6.79036E+01 1.81818E+00
 -1     21175 1.09504E+01 6.91382E+01 2.27273E+00
 -1     21176 1.62908E+01 6.78561E+01 2.72727E+00
 -1     21177 1.07549E+01 6.79036E+01 2.72727E+00
 -1     21182 1.09504E+01 6.91382E+01 3.18182E+00
 -1     21183 1.62908E+01 6.78561E+01 3.63636E+00
 -1     21184 1.07549E+01 6.79036E+01 3.63636E+00
 -1     21189 1.09504E+01 6.91382E+01 4.09091E+00
 -1     21190 1.62908E+01 6.78561E+01 4.54545E+00
 -1     21191 1.07549E+01 6.79036E+01 4.54545E+00
 -1     21196 1.09504E+01 6.91382E+01 5.00000E+00
 -1     21197 1.62908E+01 6.78561E+01 5.45455E+00
 -1     21198 1.07549E+01 6.79036E+01 5.45455E+00
 -1     21203 1.09504E+01 6.91382E+01 5.90909E+00
 -1     21204 1.62908E+01 6.78561E+01 6.36364E+00
 -1     21205 1.07549E+01 6.79036E+01 6.36364E+00
 -1     21210 1.09504E+01 6.91382E+01 6.81818E+00
 -1     21211 1.62908E+01 6.78561E+01 7.27273E+00
 -1     21212 1.07549E+01 6.79036E+01 7.27273E+00
 -1     21217 1.09504E+01 6.91382E+01 7.72727E+00
 -1     21218 1.62908E+01 6.78561E+01 8.18182E+00
 -1     21219 1.07549E+01 6.79036E+01 8.18182E+00
 -1     21224 1.09504E+01 6.91382E+01 8.63636E+00
 -1     21225 1.62908E+01 6.78561E+01 9.09091E+00
 -1     21226 1.07549E+01 6.79036E+01 9.09091E+00
 -1     21231 1.09504E+01 6.91382E+01 9.54545E+00
 -1     21235 5.47521E+00 6.95691E+01 9.09091E-01
 -1     21239 5.47521E+00 6.95691E+01 1.81818E+00
 -1     21243 5.47521E+00 6.95691E+01 2.72727E+00
 -1     21247 5.47521E+00 6.95691E+01 3.63636E+00
 -1     21251 5.47521E+00 6.95691E+01 4.54545E+00
 -1     21255 5.47521E+00 6.95691E+01 5.45455E+00
 -1     21259 5.47521E+00 6.95691E+01 6.36364E+00
 -1     21263 5.47521E+00 6.95691E+01 7.27273E+00
 -1     21267 5.47521E+00 6.95691E+01 8.18182E+00
 -1     21271 5.47521E+00 6.95691E+01 9.09091E+00
 -1     21277 7.16074E+01 1.13415E+01 4.54545E-01
 -1     21278 7.20537E+01 5.67075E+00 9.09091E-01
 -1     21279 7.03728E+01 1.11460E+01 9.09091E-01
 -1     21284 7.16074E+01 1.13415E+01 1.36364E+00
 -1     21285 7.20537E+01 5.67075E+00 1.81818E+00
 -1     21286 7.03728E+01 1.11460E+01 1.81818E+00
 -1     21291 7.16074E+01 1.13415E+01 2.27273E+00
 -1     21292 7.20537E+01 5.67075E+00 2.72727E+00
 -1     21293 7.03728E+01 1.11460E+01 2.72727E+00
 -1     21298 7.16074E+01 1.13415E+01 3.18182E+00
 -1     21299 7.20537E+01 5.67075E+00 3.63636E+00
 -1     21300 7.03728E+01 1.11460E+01 3.63636E+00
 -1     21305 7.16074E+01 1.13415E+01 4.09091E+00
 -1     21306 7.20537E+01 5.67075E+00 4.54545E+00
 -1     21307 7.03728E+01 1.11460E+01 4.54545E+00
 -1     21312 7.16074E+01 1.13415E+01 5.00000E+00
 -1     21313 7.20537E+01 5.67075E+00 5.45455E+00
 -1     21314 7.03728E+01 1.11460E+01 5.45455E+00
 -1     21319 7.16074E+01 1.13415E+01 5.90909E+00
 -1     21320 7.20537E+01 5.67075E+00 6.36364E+00
 -1     21321 7.03728E+01 1.11460E+01 6.36364E+00
 -1     21326 7.16074E+01 1.13415E+01 6.81818E+00
 -1     21327 7.20537E+01 5.67075E+00 7.27273E+00
 -1     21328 7.03728E+01 1.11460E+01 7.27273E+00
 -1     21333 7.16074E+01 1.13415E+01 7.72727E+00
 -1     21334 7.20537E+01 5.67075E+00 8.18182E+00
 -1     21335 7.03728E+01 1.11460E+01 8.18182E+00
 -1     21340 7.16074E+01 1.13415E+01 8.63636E+00
 -1     21341 7.20537E+01 5.67075E+00 9.09091E+00
 -1     21342 7.03728E+01 1.11460E+01 9.09091E+00
 -1     21347 7.16074E+01 1.13415E+01 9.54545E+00
 -1     21351 6.89516E+01 2.24037E+01 4.54545E-01
 -1     21352 7.02795E+01 1.68726E+01 9.09091E-01
 -1     21353 6.77628E+01 2.20175E+01 9.09091E-01
 -1     21358 6.89516E+01 2.24037E+01 1.36364E+00
 -1     21359 7.02795E+01 1.68726E+01 1.81818E+00
 -1     21360 6.77628E+01 2.20175E+01 1.81818E+00
 -1     21365 6.89516E+01 2.24037E+01 2.27273E+00
 -1     21366 7.02795E+01 1.68726E+01 2.72727E+00
 -1     21367 6.77628E+01 2.20175E+01 2.72727E+00
 -1     21372 6.89516E+01 2.24037E+01 3.18182E+00
 -1     21373 7.02795E+01 1.68726E+01 3.63636E+00
 -1     21374 6.77628E+01 2.20175E+01 3.63636E+00
 -1     21379 6.89516E+01 2.24037E+01 4.09091E+00
 -1     21380 7.02795E+01 1.68726E+01 4.54545E+00
 -1     21381 6.77628E+01 2.20175E+01 4.54545E+00
 -1     21386 6.89516E+01 2.24037E+01 5.00000E+00
 -1     21387 7.02795E+01 1.68726E+01 5.45455E+00
 -1     21388 6.77628E+01 2.20175E+01 5.45455E+00
 -1     21393 6.89516E+01 2.24037E+01 5.90909E+00
 -1     21394 7.02795E+01 1.68726E+01 6.36364E+00
 -1     21395 6.77628E+01 2.20175E+01 6.36364E+00
 -1     21400 6.89516E+01 2.24037E+01 6.81818E+00
 -1     21401 7.02795E+01 1.68726E+01 7.27273E+00
 -1     21402 6.77628E+01 2.20175E+01 7.27273E+00
 -1     21407 6.89516E+01 2.24037E+01 7.72727E+00
 -1     21408 7.02795E+01 1.68726E+01 8.18182E+00
 -1     21409 6.77628E+01 2.20175E+01 8.18182E+00
 -1     21414 6.89516E+01 2.24037E+01 8.63636E+00
 -1     21415 7.02795E+01 1.68726E+01 9.09091E+00
 -1     21416 6.77628E+01 2.20175E+01 9.09091E+00
 -1     21421 6.89516E+01 2.24037E+01 9.54545E+00
 -1     21425 6.45980E+01 3.29143E+01 4.54545E-01
 -1     21426 6.67748E+01 2.76590E+01 9.09091E-01
 -1     21427 6.34842E+01 3.23468E+01 9.09091E-01
 -1     21432 6.45980E+01 3.29143E+01 1.36364E+00
 -1     21433 6.67748E+01 2.76590E+01 1.81818E+00
 -1     21434 6.34842E+01 3.23468E+01 1.81818E+00
 -1     21439 6.45980E+01 3.29143E+01 2.27273E+00
 -1     21440 6.67748E+01 2.76590E+01 2.72727E+00
 -1     21441 6.34842E+01 3.23468E+01 2.72727E+00
 -1     21446 6.45980E+01 3.29143E+01 3.18182E+00
 -1     21447 6.67748E+01 2.76590E+01 3.63636E+00
 -1     21448 6.34842E+01 3.23468E+01 3.63636E+00
 -1     21453 6.45980E+01 3.29143E+01 4.09091E+00
 -1     21454 6.67748E+01 2.76590E+01 4.54545E+00
 -1     21455 6.34842E+01 3.23468E+01 4.54545E+00
 -1     21460 6.45980E+01 3.29143E+01 5.00000E+00
 -1     21461 6.67748E+01 2.76590E+01 5.45455E+00
 -1     21462 6.34842E+01 3.23468E+01 5.45455E+00
 -1     21467 6.45980E+01 3.29143E+01 5.90909E+00
 -1     21468 6.67748E+01 2.76590E+01 6.36364E+00
 -1     21469 6.34842E+01 3.23468E+01 6.36364E+00
 -1     21474 6.45980E+01 3.29143E+01 6.81818E+00
 -1     21475 6.67748E+01 2.76590E+01 7.27273E+00
 -1     21476 6.34842E+01 3.23468E+01 7.27273E+00
 -1     21481 6.45980E+01 3.29143E+01 7.72727E+00
 -1     21482 6.67748E+01 2.76590E+01 8.18182E+00
 -1     21483 6.34842E+01 3.23468E+01 8.18182E+00
 -1     21488 6.45980E+01 3.29143E+01 8.63636E+00
 -1     21489 6.67748E+01 2.76590E+01 9.09091E+00
 -1     21490 6.34842E+01 3.23468E+01 9.09091E+00
 -1     21495 6.45980E+01 3.29143E+01 9.54545E+00
 -1     21499 5.86537E+01 4.26144E+01 4.54545E-01
 -1     21500 6.16259E+01 3.77644E+01 9.09091E-01
 -1     21501 5.76425E+01 4.18797E+01 9.09091E-01
 -1     21506 5.86537E+01 4.26144E+01 1.36364E+00
 -1     21507 6.16259E+01 3.77644E+01 1.81818E+00
 -1     21508 5.76425E+01 4.18797E+01 1.81818E+00
 -1     21513 5.86537E+01 4.26144E+01 2.27273E+00
 -1     21514 6.16259E+01 3.77644E+01 2.72727E+00
 -1     21515 5.76425E+01 4.18797E+01 2.72727E+00
 -1     21520 5.86537E+01 4.26144E+01 3.18182E+00
 -1     21521 6.16259E+01 3.77644E+01 3.63636E+00
 -1     21522 5.76425E+01 4.18797E+01 3.63636E+00
 -1     21527 5.86537E+01 4.26144E+01 4.09091E+00
 -1     21528 6.16259E+01 3.77644E+01 4.54545E+00
 -1     21529 5.76425E+01 4.18797E+01 4.54545E+00
 -1     21534 5.86537E+01 4.26144E+01 5.00000E+00
 -1     21535 6.16259E+01 3.77644E+01 5.45455E+00
 -1     21536 5.76425E+01 4.18797E+01 5.45455E+00
 -1     21541 5.86537E+01 4.26144E+01 5.90909E+00
 -1     21542 6.16259E+01 3.77644E+01 6.36364E+00
 -1     21543 5.76425E+01 4.18797E+01 6.36364E+00
 -1     21548 5.86537E+01 4.26144E+01 6.81818E+00
 -1     21549 6.16259E+01 3.77644E+01 7.27273E+00
 -1     21550 5.76425E+01 4.18797E+01 7.27273E+00
 -1     21555 5.86537E+01 4.26144E+01 7.72727E+00
 -1     21556 6.16259E+01 3.77644E+01 8.18182E+00
 -1     21557 5.76425E+01 4.18797E+01 8.18182E+00
 -1     21562 5.86537E+01 4.26144E+01 8.63636E+00
 -1     21563 6.16259E+01 3.77644E+01 9.09091E+00
 -1     21564 5.76425E+01 4.18797E+01 9.09091E+00
 -1     21569 5.86537E+01 4.26144E+01 9.54545E+00
 -1     21573 5.12652E+01 5.12652E+01 4.54545E-01
 -1     21574 5.49595E+01 4.69398E+01 9.09091E-01
 -1     21575 5.03814E+01 5.03814E+01 9.09091E-01
 -1     21580 5.12652E+01 5.12652E+01 1.36364E+00
 -1     21581 5.49595E+01 4.69398E+01 1.81818E+00
 -1     21582 5.03814E+01 5.03814E+01 1.81818E+00
 -1     21587 5.12652E+01 5.12652E+01 2.27273E+00
 -1     21588 5.49595E+01 4.69398E+01 2.72727E+00
 -1     21589 5.03814E+01 5.03814E+01 2.72727E+00
 -1     21594 5.12652E+01 5.12652E+01 3.18182E+00
 -1     21595 5.49595E+01 4.69398E+01 3.63636E+00
 -1     21596 5.03814E+01 5.03814E+01 3.63636E+00
 -1     21601 5.12652E+01 5.12652E+01 4.09091E+00
 -1     21602 5.49595E+01 4.69398E+01 4.54545E+00
 -1     21603 5.03814E+01 5.03814E+01 4.54545E+00
 -1     21608 5.12652E+01 5.12652E+01 5.00000E+00
 -1     21609 5.49595E+01 4.69398E+01 5.45455E+00
 -1     21610 5.03814E+01 5.03814E+01 5.45455E+00
 -1     21615 5.12652E+01 5.12652E+01 5.90909E+00
 -1     21616 5.49595E+01 4.69398E+01 6.36364E+00
 -1     21617 5.03814E+01 5.03814E+01 6.36364E+00
 -1     21622 5.12652E+01 5.12652E+01 6.81818E+00
 -1     21623 5.49595E+01 4.69398E+01 7.27273E+00
 -1     21624 5.03814E+01 5.03814E+01 7.27273E+00
 -1     21629 5.12652E+01 5.12652E+01 7.72727E+00
 -1     21630 5.49595E+01 4.69398E+01 8.18182E+00
 -1     21631 5.03814E+01 5.03814E+01 8.18182E+00
 -1     21636 5.12652E+01 5.12652E+01 8.63636E+00
 -1     21637 5.49595E+01 4.69398E+01 9.09091E+00
 -1     21638 5.03814E+01 5.03814E+01 9.09091E+00
 -1     21643 5.12652E+01 5.12652E+01 9.54545E+00
 -1     21647 4.26144E+01 5.86537E+01 4.54545E-01
 -1     21648 4.69398E+01 5.49595E+01 9.09091E-01
 -1     21649 4.18797E+01 5.76425E+01 9.09091E-01
 -1     21654 4.26144E+01 5.86537E+01 1.36364E+00
 -1     21655 4.69398E+01 5.49595E+01 1.81818E+00
 -1     21656 4.18797E+01 5.76425E+01 1.81818E+00
 -1     21661 4.26144E+01 5.86537E+01 2.27273E+00
 -1     21662 4.69398E+01 5.49595E+01 2.72727E+00
 -1     21663 4.18797E+01 5.76425E+01 2.72727E+00
 -1     21668 4.26144E+01 5.86537E+01 3.18182E+00
 -1     21669 4.69398E+01 5.49595E+01 3.63636E+00
 -1     21670 4.18797E+01 5.76425E+01 3.63636E+00
 -1     21675 4.26144E+01 5.86537E+01 4.09091E+00
 -1     21676 4.69398E+01 5.49595E+01 4.54545E+00
 -1     21677 4.18797E+01 5.76425E+01 4.54545E+00
 -1     21682 4.26144E+01 5.86537E+01 5.00000E+00
 -1     21683 4.69398E+01 5.49595E+01 5.45455E+00
 -1     21684 4.18797E+01 5.76425E+01 5.45455E+00
 -1     21689 4.26144E+01 5.86537E+01 5.90909E+00
 -1     21690 4.69398E+01 5.49595E+01 6.36364E+00
 -1     21691 4.18797E+01 5.76425E+01 6.36364E+00
 -1     21696 4.26144E+01 5.86537E+01 6.81818E+00
 -1     21697 4.69398E+01 5.49595E+01 7.27273E+00
 -1     21698 4.18797E+01 5.76425E+01 7.27273E+00
 -1     21703 4.26144E+01 5.86537E+01 7.72727E+00
 -1     21704 4.69398E+01 5.49595E+01 8.18182E+00
 -1     21705 4.18797E+01 5.76425E+01 8.18182E+00
 -1     21710 4.26144E+01 5.86537E+01 8.63636E+00
 -1     21711 4.69398E+01 5.49595E+01 9.09091E+00
 -1     21712 4.18797E+01 5.76425E+01 9.09091E+00
 -1     21717 4.26144E+01 5.86537E+01 9.54545E+00
 -1     21721 3.29143E+01 6.45980E+01 4.54545E-01
 -1     21722 3.77644E+01 6.16259E+01 9.09091E-01
 -1     21723 3.23468E+01 6.34842E+01 9.09091E-01
 -1     21728 3.29143E+01 6.45980E+01 1.36364E+00
 -1     21729 3.77644E+01 6.16259E+01 1.81818E+00
 -1     21730 3.23468E+01 6.34842E+01 1.81818E+00
 -1     21735 3.29143E+01 6.45980E+01 2.27273E+00
 -1     21736 3.77644E+01 6.16259E+01 2.72727E+00
 -1     21737 3.23468E+01 6.34842E+01 2.72727E+00
 -1     21742 3.29143E+01 6.45980E+01 3.18182E+00
 -1     21743 3.77644E+01 6.16259E+01 3.63636E+00
 -1     21744 3.23468E+01 6.34842E+01 3.63636E+00
 -1     21749 3.29143E+01 6.45980E+01 4.09091E+00
 -1     21750 3.77644E+01 6.16259E+01 4.54545E+00
 -1     21751 3.23468E+01 6.34842E+01 4.54545E+00
 -1     21756 3.29143E+01 6.45980E+01 5.00000E+00
 -1     21757 3.77644E+01 6.16259E+01 5.45455E+00
 -1     21758 3.23468E+01 6.34842E+01 5.45455E+00
 -1     21763 3.29143E+01 6.45980E+01 5.90909E+00
 -1     21764 3.77644E+01 6.16259E+01 6.36364E+00
 -1     21765 3.23468E+01 6.34842E+01 6.36364E+00
 -1     21770 3.29143E+01 6.45980E+01 6.81818E+00
 -1     21771 3.77644E+01 6.16259E+01 7.27273E+00
 -1     21772 3.23468E+01 6.34842E+01 7.27273E+00
 -1     21777 3.29143E+01 6.45980E+01 7.72727E+00
 -1     21778 3.77644E+01 6.16259E+01 8.18182E+00
 -1     21779 3.23468E+01 6.34842E+01 8.18182E+00
 -1     21784 3.29143E+01 6.45980E+01 8.63636E+00
 -1     21785 3.77644E+01 6.16259E+01 9.09091E+00
 -1     21786 3.23468E+01 6.34842E+01 9.09091E+00
 -1     21791 3.29143E+01 6.45980E+01 9.54545E+00
 -1     21795 2.24037E+01 6.89516E+01 4.54545E-01
 -1     21796 2.76590E+01 6.67748E+01 9.09091E-01
 -1     21797 2.20175E+01 6.77628E+01 9.09091E-01
 -1     21802 2.24037E+01 6.89516E+01 1.36364E+00
 -1     21803 2.76590E+01 6.67748E+01 1.81818E+00
 -1     21804 2.20175E+01 6.77628E+01 1.81818E+00
 -1     21809 2.24037E+01 6.89516E+01 2.27273E+00
 -1     21810 2.76590E+01 6.67748E+01 2.72727E+00
 -1     21811 2.20175E+01 6.77628E+01 2.72727E+00
 -1     21816 2.24037E+01 6.89516E+01 3.18182E+00
 -1     21817 2.76590E+01 6.67748E+01 3.63636E+00
 -1     21818 2.20175E+01 6.77628E+01 3.63636E+00
 -1     21823 2.24037E+01 6.89516E+01 4.09091E+00
 -1     21824 2.76590E+01 6.67748E+01 4.54545E+00
 -1     21825 2.20175E+01 6.77628E+01 4.54545E+00
 -1     21830 2.24037E+01 6.89516E+01 5.00000E+00
 -1     21831 2.76590E+01 6.67748E+01 5.45455E+00
 -1     21832 2.20175E+01 6.77628E+01 5.45455E+00
 -1     21837 2.24037E+01 6.89516E+01 5.90909E+00
 -1     21838 2.76590E+01 6.67748E+01 6.36364E+00
 -1     21839 2.20175E+01 6.77628E+01 6.36364E+00
 -1     21844 2.24037E+01 6.89516E+01 6.81818E+00
 -1     21845 2.76590E+01 6.67748E+01 7.27273E+00
 -1     21846 2.20175E+01 6.77628E+01 7.27273E+00
 -1     21851 2.24037E+01 6.89516E+01 7.72727E+00
 -1     21852 2.76590E+01 6.67748E+01 8.18182E+00
 -1     21853 2.20175E+01 6.77628E+01 8.18182E+00
 -1     21858 2.24037E+01 6.89516E+01 8.63636E+00
 -1     21859 2.76590E+01 6.67748E+01 9.09091E+00
 -1     21860 2.20175E+01 6.77628E+01 9.09091E+00
 -1     21865 2.24037E+01 6.89516E+01 9.54545E+00
 -1     21869 1.13415E+01 7.16074E+01 4.54545E-01
 -1     21870 1.68726E+01 7.02795E+01 9.09091E-01
 -1     21871 1.11460E+01 7.03728E+01 9.09091E-01
 -1     21876 1.13415E+01 7.16074E+01 1.36364E+00
 -1     21877 1.68726E+01 7.02795E+01 1.81818E+00
 -1     21878 1.11460E+01 7.03728E+01 1.81818E+00
 -1     21883 1.13415E+01 7.16074E+01 2.27273E+00
 -1     21884 1.68726E+01 7.02795E+01 2.72727E+00
 -1     21885 1.11460E+01 7.03728E+01 2.72727E+00
 -1     21890 1.13415E+01 7.16074E+01 3.18182E+00
 -1     21891 1.68726E+01 7.02795E+01 3.63636E+00
 -1     21892 1.11460E+01 7.03728E+01 3.63636E+00
 -1     21897 1.13415E+01 7.16074E+01 4.09091E+00
 -1     21898 1.68726E+01 7.02795E+01 4.54545E+00
 -1     21899 1.11460E+01 7.03728E+01 4.54545E+00
 -1     21904 1.13415E+01 7.16074E+01 5.00000E+00
 -1     21905 1.68726E+01 7.02795E+01 5.45455E+00
 -1     21906 1.11460E+01 7.03728E+01 5.45455E+00
 -1     21911 1.13415E+01 7.16074E+01 5.90909E+00
 -1     21912 1.68726E+01 7.02795E+01 6.36364E+00
 -1     21913 1.11460E+01 7.03728E+01 6.36364E+00
 -1     21918 1.13415E+01 7.16074E+01 6.81818E+00
 -1     21919 1.68726E+01 7.02795E+01 7.27273E+00
 -1     21920 1.11460E+01 7.03728E+01 7.27273E+00
 -1     21925 1.13415E+01 7.16074E+01 7.72727E+00
 -1     21926 1.68726E+01 7.02795E+01 8.18182E+00
 -1     21927 1.11460E+01 7.03728E+01 8.18182E+00
 -1     21932 1.13415E+01 7.16074E+01 8.63636E+00
 -1     21933 1.68726E+01 7.02795E+01 9.09091E+00
 -1     21934 1.11460E+01 7.03728E+01 9.09091E+00
 -1     21939 1.13415E+01 7.16074E+01 9.54545E+00
 -1     21943 5.67075E+00 7.20537E+01 9.09091E-01
 -1     21947 5.67075E+00 7.20537E+01 1.81818E+00
 -1     21951 5.67075E+00 7.20537E+01 2.72727E+00
 -1     21955 5.67075E+00 7.20537E+01 3.63636E+00
 -1     21959 5.67075E+00 7.20537E+01 4.54545E+00
 -1     21963 5.67075E+00 7.20537E+01 5.45455E+00
 -1     21967 5.67075E+00 7.20537E+01 6.36364E+00
 -1     21971 5.67075E+00 7.20537E+01 7.27273E+00
 -1     21975 5.67075E+00 7.20537E+01 8.18182E+00
 -1     21979 5.67075E+00 7.20537E+01 9.09091E+00
 -1     21985 7.40766E+01 1.17326E+01 4.54545E-01
 -1     21986 7.45383E+01 5.86629E+00 9.09091E-01
 -1     21987 7.28420E+01 1.15370E+01 9.09091E-01
 -1     21992 7.40766E+01 1.17326E+01 1.36364E+00
 -1     21993 7.45383E+01 5.86629E+00 1.81818E+00
 -1     21994 7.28420E+01 1.15370E+01 1.81818E+00
 -1     21999 7.40766E+01 1.17326E+01 2.27273E+00
 -1     22000 7.45383E+01 5.86629E+00 2.72727E+00
 -1     22001 7.28420E+01 1.15370E+01 2.72727E+00
 -1     22006 7.40766E+01 1.17326E+01 3.18182E+00
 -1     22007 7.45383E+01 5.86629E+00 3.63636E+00
 -1     22008 7.28420E+01 1.15370E+01 3.63636E+00
 -1     22013 7.40766E+01 1.17326E+01 4.09091E+00
 -1     22014 7.45383E+01 5.86629E+00 4.54545E+00
 -1     22015 7.28420E+01 1.15370E+01 4.54545E+00
 -1     22020 7.40766E+01 1.17326E+01 5.00000E+00
 -1     22021 7.45383E+01 5.86629E+00 5.45455E+00
 -1     22022 7.28420E+01 1.15370E+01 5.45455E+00
 -1     22027 7.40766E+01 1.17326E+01 5.90909E+00
 -1     22028 7.45383E+01 5.86629E+00 6.36364E+00
 -1     22029 7.28420E+01 1.15370E+01 6.36364E+00
 -1     22034 7.40766E+01 1.17326E+01 6.81818E+00
 -1     22035 7.45383E+01 5.86629E+00 7.27273E+00
 -1     22036 7.28420E+01 1.15370E+01 7.27273E+00
 -1     22041 7.40766E+01 1.17326E+01 7.72727E+00
 -1     22042 7.45383E+01 5.86629E+00 8.18182E+00
 -1     22043 7.28420E+01 1.15370E+01 8.18182E+00
 -1     22048 7.40766E+01 1.17326E+01 8.63636E+00
 -1     22049 7.45383E+01 5.86629E+00 9.09091E+00
 -1     22050 7.28420E+01 1.15370E+01 9.09091E+00
 -1     22055 7.40766E+01 1.17326E+01 9.54545E+00
 -1     22059 7.13292E+01 2.31763E+01 4.54545E-01
 -1     22060 7.27029E+01 1.74544E+01 9.09091E-01
 -1     22061 7.01404E+01 2.27900E+01 9.09091E-01
 -1     22066 7.13292E+01 2.31763E+01 1.36364E+00
 -1     22067 7.27029E+01 1.74544E+01 1.81818E+00
 -1     22068 7.01404E+01 2.27900E+01 1.81818E+00
 -1     22073 7.13292E+01 2.31763E+01 2.27273E+00
 -1     22074 7.27029E+01 1.74544E+01 2.72727E+00
 -1     22075 7.01404E+01 2.27900E+01 2.72727E+00
 -1     22080 7.13292E+01 2.31763E+01 3.18182E+00
 -1     22081 7.27029E+01 1.74544E+01 3.63636E+00
 -1     22082 7.01404E+01 2.27900E+01 3.63636E+00
 -1     22087 7.13292E+01 2.31763E+01 4.09091E+00
 -1     22088 7.27029E+01 1.74544E+01 4.54545E+00
 -1     22089 7.01404E+01 2.27900E+01 4.54545E+00
 -1     22094 7.13292E+01 2.31763E+01 5.00000E+00
 -1     22095 7.27029E+01 1.74544E+01 5.45455E+00
 -1     22096 7.01404E+01 2.27900E+01 5.45455E+00
 -1     22101 7.13292E+01 2.31763E+01 5.90909E+00
 -1     22102 7.27029E+01 1.74544E+01 6.36364E+00
 -1     22103 7.01404E+01 2.27900E+01 6.36364E+00
 -1     22108 7.13292E+01 2.31763E+01 6.81818E+00
 -1     22109 7.27029E+01 1.74544E+01 7.27273E+00
 -1     22110 7.01404E+01 2.27900E+01 7.27273E+00
 -1     22115 7.13292E+01 2.31763E+01 7.72727E+00
 -1     22116 7.27029E+01 1.74544E+01 8.18182E+00
 -1     22117 7.01404E+01 2.27900E+01 8.18182E+00
 -1     22122 7.13292E+01 2.31763E+01 8.63636E+00
 -1     22123 7.27029E+01 1.74544E+01 9.09091E+00
 -1     22124 7.01404E+01 2.27900E+01 9.09091E+00
 -1     22129 7.13292E+01 2.31763E+01 9.54545E+00
 -1     22133 6.68255E+01 3.40493E+01 4.54545E-01
 -1     22134 6.90774E+01 2.86128E+01 9.09091E-01
 -1     22135 6.57117E+01 3.34818E+01 9.09091E-01
 -1     22140 6.68255E+01 3.40493E+01 1.36364E+00
 -1     22141 6.90774E+01 2.86128E+01 1.81818E+00
 -1     22142 6.57117E+01 3.34818E+01 1.81818E+00
 -1     22147 6.68255E+01 3.40493E+01 2.27273E+00
 -1     22148 6.90774E+01 2.86128E+01 2.72727E+00
 -1     22149 6.57117E+01 3.34818E+01 2.72727E+00
 -1     22154 6.68255E+01 3.40493E+01 3.18182E+00
 -1     22155 6.90774E+01 2.86128E+01 3.63636E+00
 -1     22156 6.57117E+01 3.34818E+01 3.63636E+00
 -1     22161 6.68255E+01 3.40493E+01 4.09091E+00
 -1     22162 6.90774E+01 2.86128E+01 4.54545E+00
 -1     22163 6.57117E+01 3.34818E+01 4.54545E+00
 -1     22168 6.68255E+01 3.40493E+01 5.00000E+00
 -1     22169 6.90774E+01 2.86128E+01 5.45455E+00
 -1     22170 6.57117E+01 3.34818E+01 5.45455E+00
 -1     22175 6.68255E+01 3.40493E+01 5.90909E+00
 -1     22176 6.90774E+01 2.86128E+01 6.36364E+00
 -1     22177 6.57117E+01 3.34818E+01 6.36364E+00
 -1     22182 6.68255E+01 3.40493E+01 6.81818E+00
 -1     22183 6.90774E+01 2.86128E+01 7.27273E+00
 -1     22184 6.57117E+01 3.34818E+01 7.27273E+00
 -1     22189 6.68255E+01 3.40493E+01 7.72727E+00
 -1     22190 6.90774E+01 2.86128E+01 8.18182E+00
 -1     22191 6.57117E+01 3.34818E+01 8.18182E+00
 -1     22196 6.68255E+01 3.40493E+01 8.63636E+00
 -1     22197 6.90774E+01 2.86128E+01 9.09091E+00
 -1     22198 6.57117E+01 3.34818E+01 9.09091E+00
 -1     22203 6.68255E+01 3.40493E+01 9.54545E+00
 -1     22207 6.06763E+01 4.40839E+01 4.54545E-01
 -1     22208 6.37509E+01 3.90666E+01 9.09091E-01
 -1     22209 5.96650E+01 4.33492E+01 9.09091E-01
 -1     22214 6.06763E+01 4.40839E+01 1.36364E+00
 -1     22215 6.37509E+01 3.90666E+01 1.81818E+00
 -1     22216 5.96650E+01 4.33492E+01 1.81818E+00
 -1     22221 6.06763E+01 4.40839E+01 2.27273E+00
 -1     22222 6.37509E+01 3.90666E+01 2.72727E+00
 -1     22223 5.96650E+01 4.33492E+01 2.72727E+00
 -1     22228 6.06763E+01 4.40839E+01 3.18182E+00
 -1     22229 6.37509E+01 3.90666E+01 3.63636E+00
 -1     22230 5.96650E+01 4.33492E+01 3.63636E+00
 -1     22235 6.06763E+01 4.40839E+01 4.09091E+00
 -1     22236 6.37509E+01 3.90666E+01 4.54545E+00
 -1     22237 5.96650E+01 4.33492E+01 4.54545E+00
 -1     22242 6.06763E+01 4.40839E+01 5.00000E+00
 -1     22243 6.37509E+01 3.90666E+01 5.45455E+00
 -1     22244 5.96650E+01 4.33492E+01 5.45455E+00
 -1     22249 6.06763E+01 4.40839E+01 5.90909E+00
 -1     22250 6.37509E+01 3.90666E+01 6.36364E+00
 -1     22251 5.96650E+01 4.33492E+01 6.36364E+00
 -1     22256 6.06763E+01 4.40839E+01 6.81818E+00
 -1     22257 6.37509E+01 3.90666E+01 7.27273E+00
 -1     22258 5.96650E+01 4.33492E+01 7.27273E+00
 -1     22263 6.06763E+01 4.40839E+01 7.72727E+00
 -1     22264 6.37509E+01 3.90666E+01 8.18182E+00
 -1     22265 5.96650E+01 4.33492E+01 8.18182E+00
 -1     22270 6.06763E+01 4.40839E+01 8.63636E+00
 -1     22271 6.37509E+01 3.90666E+01 9.09091E+00
 -1     22272 5.96650E+01 4.33492E+01 9.09091E+00
 -1     22277 6.06763E+01 4.40839E+01 9.54545E+00
 -1     22281 5.30330E+01 5.30330E+01 4.54545E-01
 -1     22282 5.68546E+01 4.85585E+01 9.09091E-01
 -1     22283 5.21491E+01 5.21491E+01 9.09091E-01
 -1     22288 5.30330E+01 5.30330E+01 1.36364E+00
 -1     22289 5.68546E+01 4.85585E+01 1.81818E+00
 -1     22290 5.21491E+01 5.21491E+01 1.81818E+00
 -1     22295 5.30330E+01 5.30330E+01 2.27273E+00
 -1     22296 5.68546E+01 4.85585E+01 2.72727E+00
 -1     22297 5.21491E+01 5.21491E+01 2.72727E+00
 -1     22302 5.30330E+01 5.30330E+01 3.18182E+00
 -1     22303 5.68546E+01 4.85585E+01 3.63636E+00
 -1     22304 5.21491E+01 5.21491E+01 3.63636E+00
 -1     22309 5.30330E+01 5.30330E+01 4.09091E+00
 -1     22310 5.68546E+01 4.85585E+01 4.54545E+00
 -1     22311 5.21491E+01 5.21491E+01 4.54545E+00
 -1     22316 5.30330E+01 5.30330E+01 5.00000E+00
 -1     22317 5.68546E+01 4.85585E+01 5.45455E+00
 -1     22318 5.21491E+01 5.21491E+01 5.45455E+00
 -1     22323 5.30330E+01 5.30330E+01 5.90909E+00
 -1     22324 5.68546E+01 4.85585E+01 6.36364E+00
 -1     22325 5.21491E+01 5.21491E+01 6.36364E+00
 -1     22330 5.30330E+01 5.30330E+01 6.81818E+00
 -1     22331 5.68546E+01 4.85585E+01 7.27273E+00
 -1     22332 5.21491E+01 5.21491E+01 7.27273E+00
 -1     22337 5.30330E+01 5.30330E+01 7.72727E+00
 -1     22338 5.68546E+01 4.85585E+01 8.18182E+00
 -1     22339 5.21491E+01 5.21491E+01 8.18182E+00
 -1     22344 5.30330E+01 5.30330E+01 8.63636E+00
 -1     22345 5.68546E+01 4.85585E+01 9.09091E+00
 -1     22346 5.21491E+01 5.21491E+01 9.09091E+00
 -1     22351 5.30330E+01 5.30330E+01 9.54545E+00
 -1     22355 4.40839E+01 6.06763E+01 4.54545E-01
 -1     22356 4.85585E+01 5.68546E+01 9.09091E-01
 -1     22357 4.33492E+01 5.96650E+01 9.09091E-01
 -1     22362 4.40839E+01 6.06763E+01 1.36364E+00
 -1     22363 4.85585E+01 5.68546E+01 1.81818E+00
 -1     22364 4.33492E+01 5.96650E+01 1.81818E+00
 -1     22369 4.40839E+01 6.06763E+01 2.27273E+00
 -1     22370 4.85585E+01 5.68546E+01 2.72727E+00
 -1     22371 4.33492E+01 5.96650E+01 2.72727E+00
 -1     22376 4.40839E+01 6.06763E+01 3.18182E+00
 -1     22377 4.85585E+01 5.68546E+01 3.63636E+00
 -1     22378 4.33492E+01 5.96650E+01 3.63636E+00
 -1     22383 4.40839E+01 6.06763E+01 4.09091E+00
 -1     22384 4.85585E+01 5.68546E+01 4.54545E+00
 -1     22385 4.33492E+01 5.96650E+01 4.54545E+00
 -1     22390 4.40839E+01 6.06763E+01 5.00000E+00
 -1     22391 4.85585E+01 5.68546E+01 5.45455E+00
 -1     22392 4.33492E+01 5.96650E+01 5.45455E+00
 -1     22397 4.40839E+01 6.06763E+01 5.90909E+00
 -1     22398 4.85585E+01 5.68546E+01 6.36364E+00
 -1     22399 4.33492E+01 5.96650E+01 6.36364E+00
 -1     22404 4.40839E+01 6.06763E+01 6.81818E+00
 -1     22405 4.85585E+01 5.68546E+01 7.27273E+00
 -1     22406 4.33492E+01 5.96650E+01 7.27273E+00
 -1     22411 4.40839E+01 6.06763E+01 7.72727E+00
 -1     22412 4.85585E+01 5.68546E+01 8.18182E+00
 -1     22413 4.33492E+01 5.96650E+01 8.18182E+00
 -1     22418 4.40839E+01 6.06763E+01 8.63636E+00
 -1     22419 4.85585E+01 5.68546E+01 9.09091E+00
 -1     22420 4.33492E+01 5.96650E+01 9.09091E+00
 -1     22425 4.40839E+01 6.06763E+01 9.54545E+00
 -1     22429 3.40493E+01 6.68255E+01 4.54545E-01
 -1     22430 3.90666E+01 6.37509E+01 9.09091E-01
 -1     22431 3.34818E+01 6.57117E+01 9.09091E-01
 -1     22436 3.40493E+01 6.68255E+01 1.36364E+00
 -1     22437 3.90666E+01 6.37509E+01 1.81818E+00
 -1     22438 3.34818E+01 6.57117E+01 1.81818E+00
 -1     22443 3.40493E+01 6.68255E+01 2.27273E+00
 -1     22444 3.90666E+01 6.37509E+01 2.72727E+00
 -1     22445 3.34818E+01 6.57117E+01 2.72727E+00
 -1     22450 3.40493E+01 6.68255E+01 3.18182E+00
 -1     22451 3.90666E+01 6.37509E+01 3.63636E+00
 -1     22452 3.34818E+01 6.57117E+01 3.63636E+00
 -1     22457 3.40493E+01 6.68255E+01 4.09091E+00
 -1     22458 3.90666E+01 6.37509E+01 4.54545E+00
 -1     22459 3.34818E+01 6.57117E+01 4.54545E+00
 -1     22464 3.40493E+01 6.68255E+01 5.00000E+00
 -1     22465 3.90666E+01 6.37509E+01 5.45455E+00
 -1     22466 3.34818E+01 6.57117E+01 5.45455E+00
 -1     22471 3.40493E+01 6.68255E+01 5.90909E+00
 -1     22472 3.90666E+01 6.37509E+01 6.36364E+00
 -1     22473 3.34818E+01 6.57117E+01 6.36364E+00
 -1     22478 3.40493E+01 6.68255E+01 6.81818E+00
 -1     22479 3.90666E+01 6.37509E+01 7.27273E+00
 -1     22480 3.34818E+01 6.57117E+01 7.27273E+00
 -1     22485 3.40493E+01 6.68255E+01 7.72727E+00
 -1     22486 3.90666E+01 6.37509E+01 8.18182E+00
 -1     22487 3.34818E+01 6.57117E+01 8.18182E+00
 -1     22492 3.40493E+01 6.68255E+01 8.63636E+00
 -1     22493 3.90666E+01 6.37509E+01 9.09091E+00
 -1     22494 3.34818E+01 6.57117E+01 9.09091E+00
 -1     22499 3.40493E+01 6.68255E+01 9.54545E+00
 -1     22503 2.31763E+01 7.13292E+01 4.54545E-01
 -1     22504 2.86128E+01 6.90774E+01 9.09091E-01
 -1     22505 2.27900E+01 7.01404E+01 9.09091E-01
 -1     22510 2.31763E+01 7.13292E+01 1.36364E+00
 -1     22511 2.86128E+01 6.90774E+01 1.81818E+00
 -1     22512 2.27900E+01 7.01404E+01 1.81818E+00
 -1     22517 2.31763E+01 7.13292E+01 2.27273E+00
 -1     22518 2.86128E+01 6.90774E+01 2.72727E+00
 -1     22519 2.27900E+01 7.01404E+01 2.72727E+00
 -1     22524 2.31763E+01 7.13292E+01 3.18182E+00
 -1     22525 2.86128E+01 6.90774E+01 3.63636E+00
 -1     22526 2.27900E+01 7.01404E+01 3.63636E+00
 -1     22531 2.31763E+01 7.13292E+01 4.09091E+00
 -1     22532 2.86128E+01 6.90774E+01 4.54545E+00
 -1     22533 2.27900E+01 7.01404E+01 4.54545E+00
 -1     22538 2.31763E+01 7.13292E+01 5.00000E+00
 -1     22539 2.86128E+01 6.90774E+01 5.45455E+00
 -1     22540 2.27900E+01 7.01404E+01 5.45455E+00
 -1     22545 2.31763E+01 7.13292E+01 5.90909E+00
 -1     22546 2.86128E+01 6.90774E+01 6.36364E+00
 -1     22547 2.27900E+01 7.01404E+01 6.36364E+00
 -1     22552 2.31763E+01 7.13292E+01 6.81818E+00
 -1     22553 2.86128E+01 6.90774E+01 7.27273E+00
 -1     22554 2.27900E+01 7.01404E+01 7.27273E+00
 -1     22559 2.31763E+01 7.13292E+01 7.72727E+00
 -1     22560 2.86128E+01 6.90774E+01 8.18182E+00
 -1     22561 2.27900E+01 7.01404E+01 8.18182E+00
 -1     22566 2.31763E+01 7.13292E+01 8.63636E+00
 -1     22567 2.86128E+01 6.90774E+01 9.09091E+00
 -1     22568 2.27900E+01 7.01404E+01 9.09091E+00
 -1     22573 2.31763E+01 7.13292E+01 9.54545E+00
 -1     22577 1.17326E+01 7.40766E+01 4.54545E-01
 -1     22578 1.74544E+01 7.27029E+01 9.09091E-01
 -1     22579 1.15370E+01 7.28420E+01 9.09091E-01
 -1     22584 1.17326E+01 7.40766E+01 1.36364E+00
 -1     22585 1.74544E+01 7.27029E+01 1.81818E+00
 -1     22586 1.15370E+01 7.28420E+01 1.81818E+00
 -1     22591 1.17326E+01 7.40766E+01 2.27273E+00
 -1     22592 1.74544E+01 7.27029E+01 2.72727E+00
 -1     22593 1.15370E+01 7.28420E+01 2.72727E+00
 -1     22598 1.17326E+01 7.40766E+01 3.18182E+00
 -1     22599 1.74544E+01 7.27029E+01 3.63636E+00
 -1     22600 1.15370E+01 7.28420E+01 3.63636E+00
 -1     22605 1.17326E+01 7.40766E+01 4.09091E+00
 -1     22606 1.74544E+01 7.27029E+01 4.54545E+00
 -1     22607 1.15370E+01 7.28420E+01 4.54545E+00
 -1     22612 1.17326E+01 7.40766E+01 5.00000E+00
 -1     22613 1.74544E+01 7.27029E+01 5.45455E+00
 -1     22614 1.15370E+01 7.28420E+01 5.45455E+00
 -1     22619 1.17326E+01 7.40766E+01 5.90909E+00
 -1     22620 1.74544E+01 7.27029E+01 6.36364E+00
 -1     22621 1.15370E+01 7.28420E+01 6.36364E+00
 -1     22626 1.17326E+01 7.40766E+01 6.81818E+00
 -1     22627 1.74544E+01 7.27029E+01 7.27273E+00
 -1     22628 1.15370E+01 7.28420E+01 7.27273E+00
 -1     22633 1.17326E+01 7.40766E+01 7.72727E+00
 -1     22634 1.74544E+01 7.27029E+01 8.18182E+00
 -1     22635 1.15370E+01 7.28420E+01 8.18182E+00
 -1     22640 1.17326E+01 7.40766E+01 8.63636E+00
 -1     22641 1.74544E+01 7.27029E+01 9.09091E+00
 -1     22642 1.15370E+01 7.28420E+01 9.09091E+00
 -1     22647 1.17326E+01 7.40766E+01 9.54545E+00
 -1     22651 5.86629E+00 7.45383E+01 9.09091E-01
 -1     22655 5.86629E+00 7.45383E+01 1.81818E+00
 -1     22659 5.86629E+00 7.45383E+01 2.72727E+00
 -1     22663 5.86629E+00 7.45383E+01 3.63636E+00
 -1     22667 5.86629E+00 7.45383E+01 4.54545E+00
 -1     22671 5.86629E+00 7.45383E+01 5.45455E+00
 -1     22675 5.86629E+00 7.45383E+01 6.36364E+00
 -1     22679 5.86629E+00 7.45383E+01 7.27273E+00
 -1     22683 5.86629E+00 7.45383E+01 8.18182E+00
 -1     22687 5.86629E+00 7.45383E+01 9.09091E+00
 -1     22693 7.65458E+01 1.21237E+01 4.54545E-01
 -1     22694 7.70229E+01 6.06184E+00 9.09091E-01
 -1     22695 7.53112E+01 1.19281E+01 9.09091E-01
 -1     22700 7.65458E+01 1.21237E+01 1.36364E+00
 -1     22701 7.70229E+01 6.06184E+00 1.81818E+00
 -1     22702 7.53112E+01 1.19281E+01 1.81818E+00
 -1     22707 7.65458E+01 1.21237E+01 2.27273E+00
 -1     22708 7.70229E+01 6.06184E+00 2.72727E+00
 -1     22709 7.53112E+01 1.19281E+01 2.72727E+00
 -1     22714 7.65458E+01 1.21237E+01 3.18182E+00
 -1     22715 7.70229E+01 6.06184E+00 3.63636E+00
 -1     22716 7.53112E+01 1.19281E+01 3.63636E+00
 -1     22721 7.65458E+01 1.21237E+01 4.09091E+00
 -1     22722 7.70229E+01 6.06184E+00 4.54545E+00
 -1     22723 7.53112E+01 1.19281E+01 4.54545E+00
 -1     22728 7.65458E+01 1.21237E+01 5.00000E+00
 -1     22729 7.70229E+01 6.06184E+00 5.45455E+00
 -1     22730 7.53112E+01 1.19281E+01 5.45455E+00
 -1     22735 7.65458E+01 1.21237E+01 5.90909E+00
 -1     22736 7.70229E+01 6.06184E+00 6.36364E+00
 -1     22737 7.53112E+01 1.19281E+01 6.36364E+00
 -1     22742 7.65458E+01 1.21237E+01 6.81818E+00
 -1     22743 7.70229E+01 6.06184E+00 7.27273E+00
 -1     22744 7.53112E+01 1.19281E+01 7.27273E+00
 -1     22749 7.65458E+01 1.21237E+01 7.72727E+00
 -1     22750 7.70229E+01 6.06184E+00 8.18182E+00
 -1     22751 7.53112E+01 1.19281E+01 8.18182E+00
 -1     22756 7.65458E+01 1.21237E+01 8.63636E+00
 -1     22757 7.70229E+01 6.06184E+00 9.09091E+00
 -1     22758 7.53112E+01 1.19281E+01 9.09091E+00
 -1     22763 7.65458E+01 1.21237E+01 9.54545E+00
 -1     22767 7.37069E+01 2.39488E+01 4.54545E-01
 -1     22768 7.51264E+01 1.80362E+01 9.09091E-01
 -1     22769 7.25181E+01 2.35625E+01 9.09091E-01
 -1     22774 7.37069E+01 2.39488E+01 1.36364E+00
 -1     22775 7.51264E+01 1.80362E+01 1.81818E+00
 -1     22776 7.25181E+01 2.35625E+01 1.81818E+00
 -1     22781 7.37069E+01 2.39488E+01 2.27273E+00
 -1     22782 7.51264E+01 1.80362E+01 2.72727E+00
 -1     22783 7.25181E+01 2.35625E+01 2.72727E+00
 -1     22788 7.37069E+01 2.39488E+01 3.18182E+00
 -1     22789 7.51264E+01 1.80362E+01 3.63636E+00
 -1     22790 7.25181E+01 2.35625E+01 3.63636E+00
 -1     22795 7.37069E+01 2.39488E+01 4.09091E+00
 -1     22796 7.51264E+01 1.80362E+01 4.54545E+00
 -1     22797 7.25181E+01 2.35625E+01 4.54545E+00
 -1     22802 7.37069E+01 2.39488E+01 5.00000E+00
 -1     22803 7.51264E+01 1.80362E+01 5.45455E+00
 -1     22804 7.25181E+01 2.35625E+01 5.45455E+00
 -1     22809 7.37069E+01 2.39488E+01 5.90909E+00
 -1     22810 7.51264E+01 1.80362E+01 6.36364E+00
 -1     22811 7.25181E+01 2.35625E+01 6.36364E+00
 -1     22816 7.37069E+01 2.39488E+01 6.81818E+00
 -1     22817 7.51264E+01 1.80362E+01 7.27273E+00
 -1     22818 7.25181E+01 2.35625E+01 7.27273E+00
 -1     22823 7.37069E+01 2.39488E+01 7.72727E+00
 -1     22824 7.51264E+01 1.80362E+01 8.18182E+00
 -1     22825 7.25181E+01 2.35625E+01 8.18182E+00
 -1     22830 7.37069E+01 2.39488E+01 8.63636E+00
 -1     22831 7.51264E+01 1.80362E+01 9.09091E+00
 -1     22832 7.25181E+01 2.35625E+01 9.09091E+00
 -1     22837 7.37069E+01 2.39488E+01 9.54545E+00
 -1     22841 6.90530E+01 3.51843E+01 4.54545E-01
 -1     22842 7.13799E+01 2.95665E+01 9.09091E-01
 -1     22843 6.79392E+01 3.46168E+01 9.09091E-01
 -1     22848 6.90530E+01 3.51843E+01 1.36364E+00
 -1     22849 7.13799E+01 2.95665E+01 1.81818E+00
 -1     22850 6.79392E+01 3.46168E+01 1.81818E+00
 -1     22855 6.90530E+01 3.51843E+01 2.27273E+00
 -1     22856 7.13799E+01 2.95665E+01 2.72727E+00
 -1     22857 6.79392E+01 3.46168E+01 2.72727E+00
 -1     22862 6.90530E+01 3.51843E+01 3.18182E+00
 -1     22863 7.13799E+01 2.95665E+01 3.63636E+00
 -1     22864 6.79392E+01 3.46168E+01 3.63636E+00
 -1     22869 6.90530E+01 3.51843E+01 4.09091E+00
 -1     22870 7.13799E+01 2.95665E+01 4.54545E+00
 -1     22871 6.79392E+01 3.46168E+01 4.54545E+00
 -1     22876 6.90530E+01 3.51843E+01 5.00000E+00
 -1     22877 7.13799E+01 2.95665E+01 5.45455E+00
 -1     22878 6.79392E+01 3.46168E+01 5.45455E+00
 -1     22883 6.90530E+01 3.51843E+01 5.90909E+00
 -1     22884 7.13799E+01 2.95665E+01 6.36364E+00
 -1     22885 6.79392E+01 3.46168E+01 6.36364E+00
 -1     22890 6.90530E+01 3.51843E+01 6.81818E+00
 -1     22891 7.13799E+01 2.95665E+01 7.27273E+00
 -1     22892 6.79392E+01 3.46168E+01 7.27273E+00
 -1     22897 6.90530E+01 3.51843E+01 7.72727E+00
 -1     22898 7.13799E+01 2.95665E+01 8.18182E+00
 -1     22899 6.79392E+01 3.46168E+01 8.18182E+00
 -1     22904 6.90530E+01 3.51843E+01 8.63636E+00
 -1     22905 7.13799E+01 2.95665E+01 9.09091E+00
 -1     22906 6.79392E+01 3.46168E+01 9.09091E+00
 -1     22911 6.90530E+01 3.51843E+01 9.54545E+00
 -1     22915 6.26988E+01 4.55534E+01 4.54545E-01
 -1     22916 6.58759E+01 4.03688E+01 9.09091E-01
 -1     22917 6.16875E+01 4.48186E+01 9.09091E-01
 -1     22922 6.26988E+01 4.55534E+01 1.36364E+00
 -1     22923 6.58759E+01 4.03688E+01 1.81818E+00
 -1     22924 6.16875E+01 4.48186E+01 1.81818E+00
 -1     22929 6.26988E+01 4.55534E+01 2.27273E+00
 -1     22930 6.58759E+01 4.03688E+01 2.72727E+00
 -1     22931 6.16875E+01 4.48186E+01 2.72727E+00
 -1     22936 6.26988E+01 4.55534E+01 3.18182E+00
 -1     22937 6.58759E+01 4.03688E+01 3.63636E+00
 -1     22938 6.16875E+01 4.48186E+01 3.63636E+00
 -1     22943 6.26988E+01 4.55534E+01 4.09091E+00
 -1     22944 6.58759E+01 4.03688E+01 4.54545E+00
 -1     22945 6.16875E+01 4.48186E+01 4.54545E+00
 -1     22950 6.26988E+01 4.55534E+01 5.00000E+00
 -1     22951 6.58759E+01 4.03688E+01 5.45455E+00
 -1     22952 6.16875E+01 4.48186E+01 5.45455E+00
 -1     22957 6.26988E+01 4.55534E+01 5.90909E+00
 -1     22958 6.58759E+01 4.03688E+01 6.36364E+00
 -1     22959 6.16875E+01 4.48186E+01 6.36364E+00
 -1     22964 6.26988E+01 4.55534E+01 6.81818E+00
 -1     22965 6.58759E+01 4.03688E+01 7.27273E+00
 -1     22966 6.16875E+01 4.48186E+01 7.27273E+00
 -1     22971 6.26988E+01 4.55534E+01 7.72727E+00
 -1     22972 6.58759E+01 4.03688E+01 8.18182E+00
 -1     22973 6.16875E+01 4.48186E+01 8.18182E+00
 -1     22978 6.26988E+01 4.55534E+01 8.63636E+00
 -1     22979 6.58759E+01 4.03688E+01 9.09091E+00
 -1     22980 6.16875E+01 4.48186E+01 9.09091E+00
 -1     22985 6.26988E+01 4.55534E+01 9.54545E+00
 -1     22989 5.48008E+01 5.48008E+01 4.54545E-01
 -1     22990 5.87498E+01 5.01771E+01 9.09091E-01
 -1     22991 5.39169E+01 5.39169E+01 9.09091E-01
 -1     22996 5.48008E+01 5.48008E+01 1.36364E+00
 -1     22997 5.87498E+01 5.01771E+01 1.81818E+00
 -1     22998 5.39169E+01 5.39169E+01 1.81818E+00
 -1     23003 5.48008E+01 5.48008E+01 2.27273E+00
 -1     23004 5.87498E+01 5.01771E+01 2.72727E+00
 -1     23005 5.39169E+01 5.39169E+01 2.72727E+00
 -1     23010 5.48008E+01 5.48008E+01 3.18182E+00
 -1     23011 5.87498E+01 5.01771E+01 3.63636E+00
 -1     23012 5.39169E+01 5.39169E+01 3.63636E+00
 -1     23017 5.48008E+01 5.48008E+01 4.09091E+00
 -1     23018 5.87498E+01 5.01771E+01 4.54545E+00
 -1     23019 5.39169E+01 5.39169E+01 4.54545E+00
 -1     23024 5.48008E+01 5.48008E+01 5.00000E+00
 -1     23025 5.87498E+01 5.01771E+01 5.45455E+00
 -1     23026 5.39169E+01 5.39169E+01 5.45455E+00
 -1     23031 5.48008E+01 5.48008E+01 5.90909E+00
 -1     23032 5.87498E+01 5.01771E+01 6.36364E+00
 -1     23033 5.39169E+01 5.39169E+01 6.36364E+00
 -1     23038 5.48008E+01 5.48008E+01 6.81818E+00
 -1     23039 5.87498E+01 5.01771E+01 7.27273E+00
 -1     23040 5.39169E+01 5.39169E+01 7.27273E+00
 -1     23045 5.48008E+01 5.48008E+01 7.72727E+00
 -1     23046 5.87498E+01 5.01771E+01 8.18182E+00
 -1     23047 5.39169E+01 5.39169E+01 8.18182E+00
 -1     23052 5.48008E+01 5.48008E+01 8.63636E+00
 -1     23053 5.87498E+01 5.01771E+01 9.09091E+00
 -1     23054 5.39169E+01 5.39169E+01 9.09091E+00
 -1     23059 5.48008E+01 5.48008E+01 9.54545E+00
 -1     23063 4.55534E+01 6.26988E+01 4.54545E-01
 -1     23064 5.01771E+01 5.87498E+01 9.09091E-01
 -1     23065 4.48186E+01 6.16875E+01 9.09091E-01
 -1     23070 4.55534E+01 6.26988E+01 1.36364E+00
 -1     23071 5.01771E+01 5.87498E+01 1.81818E+00
 -1     23072 4.48186E+01 6.16875E+01 1.81818E+00
 -1     23077 4.55534E+01 6.26988E+01 2.27273E+00
 -1     23078 5.01771E+01 5.87498E+01 2.72727E+00
 -1     23079 4.48186E+01 6.16875E+01 2.72727E+00
 -1     23084 4.55534E+01 6.26988E+01 3.18182E+00
 -1     23085 5.01771E+01 5.87498E+01 3.63636E+00
 -1     23086 4.48186E+01 6.16875E+01 3.63636E+00
 -1     23091 4.55534E+01 6.26988E+01 4.09091E+00
 -1     23092 5.01771E+01 5.87498E+01 4.54545E+00
 -1     23093 4.48186E+01 6.16875E+01 4.54545E+00
 -1     23098 4.55534E+01 6.26988E+01 5.00000E+00
 -1     23099 5.01771E+01 5.87498E+01 5.45455E+00
 -1     23100 4.48186E+01 6.16875E+01 5.45455E+00
 -1     23105 4.55534E+01 6.26988E+01 5.90909E+00
 -1     23106 5.01771E+01 5.87498E+01 6.36364E+00
 -1     23107 4.48186E+01 6.16875E+01 6.36364E+00
 -1     23112 4.55534E+01 6.26988E+01 6.81818E+00
 -1     23113 5.01771E+01 5.87498E+01 7.27273E+00
 -1     23114 4.48186E+01 6.16875E+01 7.27273E+00
 -1     23119 4.55534E+01 6.26988E+01 7.72727E+00
 -1     23120 5.01771E+01 5.87498E+01 8.18182E+00
 -1     23121 4.48186E+01 6.16875E+01 8.18182E+00
 -1     23126 4.55534E+01 6.26988E+01 8.63636E+00
 -1     23127 5.01771E+01 5.87498E+01 9.09091E+00
 -1     23128 4.48186E+01 6.16875E+01 9.09091E+00
 -1     23133 4.55534E+01 6.26988E+01 9.54545E+00
 -1     23137 3.51843E+01 6.90530E+01 4.54545E-01
 -1     23138 4.03688E+01 6.58759E+01 9.09091E-01
 -1     23139 3.46168E+01 6.79392E+01 9.09091E-01
 -1     23144 3.51843E+01 6.90530E+01 1.36364E+00
 -1     23145 4.03688E+01 6.58759E+01 1.81818E+00
 -1     23146 3.46168E+01 6.79392E+01 1.81818E+00
 -1     23151 3.51843E+01 6.90530E+01 2.27273E+00
 -1     23152 4.03688E+01 6.58759E+01 2.72727E+00
 -1     23153 3.46168E+01 6.79392E+01 2.72727E+00
 -1     23158 3.51843E+01 6.90530E+01 3.18182E+00
 -1     23159 4.03688E+01 6.58759E+01 3.63636E+00
 -1     23160 3.46168E+01 6.79392E+01 3.63636E+00
 -1     23165 3.51843E+01 6.90530E+01 4.09091E+00
 -1     23166 4.03688E+01 6.58759E+01 4.54545E+00
 -1     23167 3.46168E+01 6.79392E+01 4.54545E+00
 -1     23172 3.51843E+01 6.90530E+01 5.00000E+00
 -1     23173 4.03688E+01 6.58759E+01 5.45455E+00
 -1     23174 3.46168E+01 6.79392E+01 5.45455E+00
 -1     23179 3.51843E+01 6.90530E+01 5.90909E+00
 -1     23180 4.03688E+01 6.58759E+01 6.36364E+00
 -1     23181 3.46168E+01 6.79392E+01 6.36364E+00
 -1     23186 3.51843E+01 6.90530E+01 6.81818E+00
 -1     23187 4.03688E+01 6.58759E+01 7.27273E+00
 -1     23188 3.46168E+01 6.79392E+01 7.27273E+00
 -1     23193 3.51843E+01 6.90530E+01 7.72727E+00
 -1     23194 4.03688E+01 6.58759E+01 8.18182E+00
 -1     23195 3.46168E+01 6.79392E+01 8.18182E+00
 -1     23200 3.51843E+01 6.90530E+01 8.63636E+00
 -1     23201 4.03688E+01 6.58759E+01 9.09091E+00
 -1     23202 3.46168E+01 6.79392E+01 9.09091E+00
 -1     23207 3.51843E+01 6.90530E+01 9.54545E+00
 -1     23211 2.39488E+01 7.37069E+01 4.54545E-01
 -1     23212 2.95665E+01 7.13799E+01 9.09091E-01
 -1     23213 2.35625E+01 7.25181E+01 9.09091E-01
 -1     23218 2.39488E+01 7.37069E+01 1.36364E+00
 -1     23219 2.95665E+01 7.13799E+01 1.81818E+00
 -1     23220 2.35625E+01 7.25181E+01 1.81818E+00
 -1     23225 2.39488E+01 7.37069E+01 2.27273E+00
 -1     23226 2.95665E+01 7.13799E+01 2.72727E+00
 -1     23227 2.35625E+01 7.25181E+01 2.72727E+00
 -1     23232 2.39488E+01 7.37069E+01 3.18182E+00
 -1     23233 2.95665E+01 7.13799E+01 3.63636E+00
 -1     23234 2.35625E+01 7.25181E+01 3.63636E+00
 -1     23239 2.39488E+01 7.37069E+01 4.09091E+00
 -1     23240 2.95665E+01 7.13799E+01 4.54545E+00
 -1     23241 2.35625E+01 7.25181E+01 4.54545E+00
 -1     23246 2.39488E+01 7.37069E+01 5.00000E+00
 -1     23247 2.95665E+01 7.13799E+01 5.45455E+00
 -1     23248 2.35625E+01 7.25181E+01 5.45455E+00
 -1     23253 2.39488E+01 7.37069E+01 5.90909E+00
 -1     23254 2.95665E+01 7.13799E+01 6.36364E+00
 -1     23255 2.35625E+01 7.25181E+01 6.36364E+00
 -1     23260 2.39488E+01 7.37069E+01 6.81818E+00
 -1     23261 2.95665E+01 7.13799E+01 7.27273E+00
 -1     23262 2.35625E+01 7.25181E+01 7.27273E+00
 -1     23267 2.39488E+01 7.37069E+01 7.72727E+00
 -1     23268 2.95665E+01 7.13799E+01 8.18182E+00
 -1     23269 2.35625E+01 7.25181E+01 8.18182E+00
 -1     23274 2.39488E+01 7.37069E+01 8.63636E+00
 -1     23275 2.95665E+01 7.13799E+01 9.09091E+00
 -1     23276 2.35625E+01 7.25181E+01 9.09091E+00
 -1     23281 2.39488E+01 7.37069E+01 9.54545E+00
 -1     23285 1.21237E+01 7.65458E+01 4.54545E-01
 -1     23286 1.80362E+01 7.51264E+01 9.09091E-01
 -1     23287 1.19281E+01 7.53112E+01 9.09091E-01
 -1     23292 1.21237E+01 7.65458E+01 1.36364E+00
 -1     23293 1.80362E+01 7.51264E+01 1.81818E+00
 -1     23294 1.19281E+01 7.53112E+01 1.81818E+00
 -1     23299 1.21237E+01 7.65458E+01 2.27273E+00
 -1     23300 1.80362E+01 7.51264E+01 2.72727E+00
 -1     23301 1.19281E+01 7.53112E+01 2.72727E+00
 -1     23306 1.21237E+01 7.65458E+01 3.18182E+00
 -1     23307 1.80362E+01 7.51264E+01 3.63636E+00
 -1     23308 1.19281E+01 7.53112E+01 3.63636E+00
 -1     23313 1.21237E+01 7.65458E+01 4.09091E+00
 -1     23314 1.80362E+01 7.51264E+01 4.54545E+00
 -1     23315 1.19281E+01 7.53112E+01 4.54545E+00
 -1     23320 1.21237E+01 7.65458E+01 5.00000E+00
 -1     23321 1.80362E+01 7.51264E+01 5.45455E+00
 -1     23322 1.19281E+01 7.53112E+01 5.45455E+00
 -1     23327 1.21237E+01 7.65458E+01 5.90909E+00
 -1     23328 1.80362E+01 7.51264E+01 6.36364E+00
 -1     23329 1.19281E+01 7.53112E+01 6.36364E+00
 -1     23334 1.21237E+01 7.65458E+01 6.81818E+00
 -1     23335 1.80362E+01 7.51264E+01 7.27273E+00
 -1     23336 1.19281E+01 7.53112E+01 7.27273E+00
 -1     23341 1.21237E+01 7.65458E+01 7.72727E+00
 -1     23342 1.80362E+01 7.51264E+01 8.18182E+00
 -1     23343 1.19281E+01 7.53112E+01 8.18182E+00
 -1     23348 1.21237E+01 7.65458E+01 8.63636E+00
 -1     23349 1.80362E+01 7.51264E+01 9.09091E+00
 -1     23350 1.19281E+01 7.53112E+01 9.09091E+00
 -1     23355 1.21237E+01 7.65458E+01 9.54545E+00
 -1     23359 6.06184E+00 7.70229E+01 9.09091E-01
 -1     23363 6.06184E+00 7.70229E+01 1.81818E+00
 -1     23367 6.06184E+00 7.70229E+01 2.72727E+00
 -1     23371 6.06184E+00 7.70229E+01 3.63636E+00
 -1     23375 6.06184E+00 7.70229E+01 4.54545E+00
 -1     23379 6.06184E+00 7.70229E+01 5.45455E+00
 -1     23383 6.06184E+00 7.70229E+01 6.36364E+00
 -1     23387 6.06184E+00 7.70229E+01 7.27273E+00
 -1     23391 6.06184E+00 7.70229E+01 8.18182E+00
 -1     23395 6.06184E+00 7.70229E+01 9.09091E+00
 -1     23401 7.90151E+01 1.25148E+01 4.54545E-01
 -1     23402 7.95075E+01 6.25738E+00 9.09091E-01
 -1     23403 7.77805E+01 1.23192E+01 9.09091E-01
 -1     23408 7.90151E+01 1.25148E+01 1.36364E+00
 -1     23409 7.95075E+01 6.25738E+00 1.81818E+00
 -1     23410 7.77805E+01 1.23192E+01 1.81818E+00
 -1     23415 7.90151E+01 1.25148E+01 2.27273E+00
 -1     23416 7.95075E+01 6.25738E+00 2.72727E+00
 -1     23417 7.77805E+01 1.23192E+01 2.72727E+00
 -1     23422 7.90151E+01 1.25148E+01 3.18182E+00
 -1     23423 7.95075E+01 6.25738E+00 3.63636E+00
 -1     23424 7.77805E+01 1.23192E+01 3.63636E+00
 -1     23429 7.90151E+01 1.25148E+01 4.09091E+00
 -1     23430 7.95075E+01 6.25738E+00 4.54545E+00
 -1     23431 7.77805E+01 1.23192E+01 4.54545E+00
 -1     23436 7.90151E+01 1.25148E+01 5.00000E+00
 -1     23437 7.95075E+01 6.25738E+00 5.45455E+00
 -1     23438 7.77805E+01 1.23192E+01 5.45455E+00
 -1     23443 7.90151E+01 1.25148E+01 5.90909E+00
 -1     23444 7.95075E+01 6.25738E+00 6.36364E+00
 -1     23445 7.77805E+01 1.23192E+01 6.36364E+00
 -1     23450 7.90151E+01 1.25148E+01 6.81818E+00
 -1     23451 7.95075E+01 6.25738E+00 7.27273E+00
 -1     23452 7.77805E+01 1.23192E+01 7.27273E+00
 -1     23457 7.90151E+01 1.25148E+01 7.72727E+00
 -1     23458 7.95075E+01 6.25738E+00 8.18182E+00
 -1     23459 7.77805E+01 1.23192E+01 8.18182E+00
 -1     23464 7.90151E+01 1.25148E+01 8.63636E+00
 -1     23465 7.95075E+01 6.25738E+00 9.09091E+00
 -1     23466 7.77805E+01 1.23192E+01 9.09091E+00
 -1     23471 7.90151E+01 1.25148E+01 9.54545E+00
 -1     23475 7.60845E+01 2.47214E+01 4.54545E-01
 -1     23476 7.75498E+01 1.86181E+01 9.09091E-01
 -1     23477 7.48957E+01 2.43351E+01 9.09091E-01
 -1     23482 7.60845E+01 2.47214E+01 1.36364E+00
 -1     23483 7.75498E+01 1.86181E+01 1.81818E+00
 -1     23484 7.48957E+01 2.43351E+01 1.81818E+00
 -1     23489 7.60845E+01 2.47214E+01 2.27273E+00
 -1     23490 7.75498E+01 1.86181E+01 2.72727E+00
 -1     23491 7.48957E+01 2.43351E+01 2.72727E+00
 -1     23496 7.60845E+01 2.47214E+01 3.18182E+00
 -1     23497 7.75498E+01 1.86181E+01 3.63636E+00
 -1     23498 7.48957E+01 2.43351E+01 3.63636E+00
 -1     23503 7.60845E+01 2.47214E+01 4.09091E+00
 -1     23504 7.75498E+01 1.86181E+01 4.54545E+00
 -1     23505 7.48957E+01 2.43351E+01 4.54545E+00
 -1     23510 7.60845E+01 2.47214E+01 5.00000E+00
 -1     23511 7.75498E+01 1.86181E+01 5.45455E+00
 -1     23512 7.48957E+01 2.43351E+01 5.45455E+00
 -1     23517 7.60845E+01 2.47214E+01 5.90909E+00
 -1     23518 7.75498E+01 1.86181E+01 6.36364E+00
 -1     23519 7.48957E+01 2.43351E+01 6.36364E+00
 -1     23524 7.60845E+01 2.47214E+01 6.81818E+00
 -1     23525 7.75498E+01 1.86181E+01 7.27273E+00
 -1     23526 7.48957E+01 2.43351E+01 7.27273E+00
 -1     23531 7.60845E+01 2.47214E+01 7.72727E+00
 -1     23532 7.75498E+01 1.86181E+01 8.18182E+00
 -1     23533 7.48957E+01 2.43351E+01 8.18182E+00
 -1     23538 7.60845E+01 2.47214E+01 8.63636E+00
 -1     23539 7.75498E+01 1.86181E+01 9.09091E+00
 -1     23540 7.48957E+01 2.43351E+01 9.09091E+00
 -1     23545 7.60845E+01 2.47214E+01 9.54545E+00
 -1     23549 7.12805E+01 3.63192E+01 4.54545E-01
 -1     23550 7.36825E+01 3.05203E+01 9.09091E-01
 -1     23551 7.01668E+01 3.57518E+01 9.09091E-01
 -1     23556 7.12805E+01 3.63192E+01 1.36364E+00
 -1     23557 7.36825E+01 3.05203E+01 1.81818E+00
 -1     23558 7.01668E+01 3.57518E+01 1.81818E+00
 -1     23563 7.12805E+01 3.63192E+01 2.27273E+00
 -1     23564 7.36825E+01 3.05203E+01 2.72727E+00
 -1     23565 7.01668E+01 3.57518E+01 2.72727E+00
 -1     23570 7.12805E+01 3.63192E+01 3.18182E+00
 -1     23571 7.36825E+01 3.05203E+01 3.63636E+00
 -1     23572 7.01668E+01 3.57518E+01 3.63636E+00
 -1     23577 7.12805E+01 3.63192E+01 4.09091E+00
 -1     23578 7.36825E+01 3.05203E+01 4.54545E+00
 -1     23579 7.01668E+01 3.57518E+01 4.54545E+00
 -1     23584 7.12805E+01 3.63192E+01 5.00000E+00
 -1     23585 7.36825E+01 3.05203E+01 5.45455E+00
 -1     23586 7.01668E+01 3.57518E+01 5.45455E+00
 -1     23591 7.12805E+01 3.63192E+01 5.90909E+00
 -1     23592 7.36825E+01 3.05203E+01 6.36364E+00
 -1     23593 7.01668E+01 3.57518E+01 6.36364E+00
 -1     23598 7.12805E+01 3.63192E+01 6.81818E+00
 -1     23599 7.36825E+01 3.05203E+01 7.27273E+00
 -1     23600 7.01668E+01 3.57518E+01 7.27273E+00
 -1     23605 7.12805E+01 3.63192E+01 7.72727E+00
 -1     23606 7.36825E+01 3.05203E+01 8.18182E+00
 -1     23607 7.01668E+01 3.57518E+01 8.18182E+00
 -1     23612 7.12805E+01 3.63192E+01 8.63636E+00
 -1     23613 7.36825E+01 3.05203E+01 9.09091E+00
 -1     23614 7.01668E+01 3.57518E+01 9.09091E+00
 -1     23619 7.12805E+01 3.63192E+01 9.54545E+00
 -1     23623 6.47214E+01 4.70228E+01 4.54545E-01
 -1     23624 6.80009E+01 4.16710E+01 9.09091E-01
 -1     23625 6.37101E+01 4.62881E+01 9.09091E-01
 -1     23630 6.47214E+01 4.70228E+01 1.36364E+00
 -1     23631 6.80009E+01 4.16710E+01 1.81818E+00
 -1     23632 6.37101E+01 4.62881E+01 1.81818E+00
 -1     23637 6.47214E+01 4.70228E+01 2.27273E+00
 -1     23638 6.80009E+01 4.16710E+01 2.72727E+00
 -1     23639 6.37101E+01 4.62881E+01 2.72727E+00
 -1     23644 6.47214E+01 4.70228E+01 3.18182E+00
 -1     23645 6.80009E+01 4.16710E+01 3.63636E+00
 -1     23646 6.37101E+01 4.62881E+01 3.63636E+00
 -1     23651 6.47214E+01 4.70228E+01 4.09091E+00
 -1     23652 6.80009E+01 4.16710E+01 4.54545E+00
 -1     23653 6.37101E+01 4.62881E+01 4.54545E+00
 -1     23658 6.47214E+01 4.70228E+01 5.00000E+00
 -1     23659 6.80009E+01 4.16710E+01 5.45455E+00
 -1     23660 6.37101E+01 4.62881E+01 5.45455E+00
 -1     23665 6.47214E+01 4.70228E+01 5.90909E+00
 -1     23666 6.80009E+01 4.16710E+01 6.36364E+00
 -1     23667 6.37101E+01 4.62881E+01 6.36364E+00
 -1     23672 6.47214E+01 4.70228E+01 6.81818E+00
 -1     23673 6.80009E+01 4.16710E+01 7.27273E+00
 -1     23674 6.37101E+01 4.62881E+01 7.27273E+00
 -1     23679 6.47214E+01 4.70228E+01 7.72727E+00
 -1     23680 6.80009E+01 4.16710E+01 8.18182E+00
 -1     23681 6.37101E+01 4.62881E+01 8.18182E+00
 -1     23686 6.47214E+01 4.70228E+01 8.63636E+00
 -1     23687 6.80009E+01 4.16710E+01 9.09091E+00
 -1     23688 6.37101E+01 4.62881E+01 9.09091E+00
 -1     23693 6.47214E+01 4.70228E+01 9.54545E+00
 -1     23697 5.65685E+01 5.65685E+01 4.54545E-01
 -1     23698 6.06450E+01 5.17957E+01 9.09091E-01
 -1     23699 5.56847E+01 5.56847E+01 9.09091E-01
 -1     23704 5.65685E+01 5.65685E+01 1.36364E+00
 -1     23705 6.06450E+01 5.17957E+01 1.81818E+00
 -1     23706 5.56847E+01 5.56847E+01 1.81818E+00
 -1     23711 5.65685E+01 5.65685E+01 2.27273E+00
 -1     23712 6.06450E+01 5.17957E+01 2.72727E+00
 -1     23713 5.56847E+01 5.56847E+01 2.72727E+00
 -1     23718 5.65685E+01 5.65685E+01 3.18182E+00
 -1     23719 6.06450E+01 5.17957E+01 3.63636E+00
 -1     23720 5.56847E+01 5.56847E+01 3.63636E+00
 -1     23725 5.65685E+01 5.65685E+01 4.09091E+00
 -1     23726 6.06450E+01 5.17957E+01 4.54545E+00
 -1     23727 5.56847E+01 5.56847E+01 4.54545E+00
 -1     23732 5.65685E+01 5.65685E+01 5.00000E+00
 -1     23733 6.06450E+01 5.17957E+01 5.45455E+00
 -1     23734 5.56847E+01 5.56847E+01 5.45455E+00
 -1     23739 5.65685E+01 5.65685E+01 5.90909E+00
 -1     23740 6.06450E+01 5.17957E+01 6.36364E+00
 -1     23741 5.56847E+01 5.56847E+01 6.36364E+00
 -1     23746 5.65685E+01 5.65685E+01 6.81818E+00
 -1     23747 6.06450E+01 5.17957E+01 7.27273E+00
 -1     23748 5.56847E+01 5.56847E+01 7.27273E+00
 -1     23753 5.65685E+01 5.65685E+01 7.72727E+00
 -1     23754 6.06450E+01 5.17957E+01 8.18182E+00
 -1     23755 5.56847E+01 5.56847E+01 8.18182E+00
 -1     23760 5.65685E+01 5.65685E+01 8.63636E+00
 -1     23761 6.06450E+01 5.17957E+01 9.09091E+00
 -1     23762 5.56847E+01 5.56847E+01 9.09091E+00
 -1     23767 5.65685E+01 5.65685E+01 9.54545E+00
 -1     23771 4.70228E+01 6.47214E+01 4.54545E-01
 -1     23772 5.17957E+01 6.06450E+01 9.09091E-01
 -1     23773 4.62881E+01 6.37101E+01 9.09091E-01
 -1     23778 4.70228E+01 6.47214E+01 1.36364E+00
 -1     23779 5.17957E+01 6.06450E+01 1.81818E+00
 -1     23780 4.62881E+01 6.37101E+01 1.81818E+00
 -1     23785 4.70228E+01 6.47214E+01 2.27273E+00
 -1     23786 5.17957E+01 6.06450E+01 2.72727E+00
 -1     23787 4.62881E+01 6.37101E+01 2.72727E+00
 -1     23792 4.70228E+01 6.47214E+01 3.18182E+00
 -1     23793 5.17957E+01 6.06450E+01 3.63636E+00
 -1     23794 4.62881E+01 6.37101E+01 3.63636E+00
 -1     23799 4.70228E+01 6.47214E+01 4.09091E+00
 -1     23800 5.17957E+01 6.06450E+01 4.54545E+00
 -1     23801 4.62881E+01 6.37101E+01 4.54545E+00
 -1     23806 4.70228E+01 6.47214E+01 5.00000E+00
 -1     23807 5.17957E+01 6.06450E+01 5.45455E+00
 -1     23808 4.62881E+01 6.37101E+01 5.45455E+00
 -1     23813 4.70228E+01 6.47214E+01 5.90909E+00
 -1     23814 5.17957E+01 6.06450E+01 6.36364E+00
 -1     23815 4.62881E+01 6.37101E+01 6.36364E+00
 -1     23820 4.70228E+01 6.47214E+01 6.81818E+00
 -1     23821 5.17957E+01 6.06450E+01 7.27273E+00
 -1     23822 4.62881E+01 6.37101E+01 7.27273E+00
 -1     23827 4.70228E+01 6.47214E+01 7.72727E+00
 -1     23828 5.17957E+01 6.06450E+01 8.18182E+00
 -1     23829 4.62881E+01 6.37101E+01 8.18182E+00
 -1     23834 4.70228E+01 6.47214E+01 8.63636E+00
 -1     23835 5.17957E+01 6.06450E+01 9.09091E+00
 -1     23836 4.62881E+01 6.37101E+01 9.09091E+00
 -1     23841 4.70228E+01 6.47214E+01 9.54545E+00
 -1     23845 3.63192E+01 7.12805E+01 4.54545E-01
 -1     23846 4.16710E+01 6.80009E+01 9.09091E-01
 -1     23847 3.57518E+01 7.01668E+01 9.09091E-01
 -1     23852 3.63192E+01 7.12805E+01 1.36364E+00
 -1     23853 4.16710E+01 6.80009E+01 1.81818E+00
 -1     23854 3.57518E+01 7.01668E+01 1.81818E+00
 -1     23859 3.63192E+01 7.12805E+01 2.27273E+00
 -1     23860 4.16710E+01 6.80009E+01 2.72727E+00
 -1     23861 3.57518E+01 7.01668E+01 2.72727E+00
 -1     23866 3.63192E+01 7.12805E+01 3.18182E+00
 -1     23867 4.16710E+01 6.80009E+01 3.63636E+00
 -1     23868 3.57518E+01 7.01668E+01 3.63636E+00
 -1     23873 3.63192E+01 7.12805E+01 4.09091E+00
 -1     23874 4.16710E+01 6.80009E+01 4.54545E+00
 -1     23875 3.57518E+01 7.01668E+01 4.54545E+00
 -1     23880 3.63192E+01 7.12805E+01 5.00000E+00
 -1     23881 4.16710E+01 6.80009E+01 5.45455E+00
 -1     23882 3.57518E+01 7.01668E+01 5.45455E+00
 -1     23887 3.63192E+01 7.12805E+01 5.90909E+00
 -1     23888 4.16710E+01 6.80009E+01 6.36364E+00
 -1     23889 3.57518E+01 7.01668E+01 6.36364E+00
 -1     23894 3.63192E+01 7.12805E+01 6.81818E+00
 -1     23895 4.16710E+01 6.80009E+01 7.27273E+00
 -1     23896 3.57518E+01 7.01668E+01 7.27273E+00
 -1     23901 3.63192E+01 7.12805E+01 7.72727E+00
 -1     23902 4.16710E+01 6.80009E+01 8.18182E+00
 -1     23903 3.57518E+01 7.01668E+01 8.18182E+00
 -1     23908 3.63192E+01 7.12805E+01 8.63636E+00
 -1     23909 4.16710E+01 6.80009E+01 9.09091E+00
 -1     23910 3.57518E+01 7.01668E+01 9.09091E+00
 -1     23915 3.63192E+01 7.12805E+01 9.54545E+00
 -1     23919 2.47214E+01 7.60845E+01 4.54545E-01
 -1     23920 3.05203E+01 7.36825E+01 9.09091E-01
 -1     23921 2.43351E+01 7.48957E+01 9.09091E-01
 -1     23926 2.47214E+01 7.60845E+01 1.36364E+00
 -1     23927 3.05203E+01 7.36825E+01 1.81818E+00
 -1     23928 2.43351E+01 7.48957E+01 1.81818E+00
 -1     23933 2.47214E+01 7.60845E+01 2.27273E+00
 -1     23934 3.05203E+01 7.36825E+01 2.72727E+00
 -1     23935 2.43351E+01 7.48957E+01 2.72727E+00
 -1     23940 2.47214E+01 7.60845E+01 3.18182E+00
 -1     23941 3.05203E+01 7.36825E+01 3.63636E+00
 -1     23942 2.43351E+01 7.48957E+01 3.63636E+00
 -1     23947 2.47214E+01 7.60845E+01 4.09091E+00
 -1     23948 3.05203E+01 7.36825E+01 4.54545E+00
 -1     23949 2.43351E+01 7.48957E+01 4.54545E+00
 -1     23954 2.47214E+01 7.60845E+01 5.00000E+00
 -1     23955 3.05203E+01 7.36825E+01 5.45455E+00
 -1     23956 2.43351E+01 7.48957E+01 5.45455E+00
 -1     23961 2.47214E+01 7.60845E+01 5.90909E+00
 -1     23962 3.05203E+01 7.36825E+01 6.36364E+00
 -1     23963 2.43351E+01 7.48957E+01 6.36364E+00
 -1     23968 2.47214E+01 7.60845E+01 6.81818E+00
 -1     23969 3.05203E+01 7.36825E+01 7.27273E+00
 -1     23970 2.43351E+01 7.48957E+01 7.27273E+00
 -1     23975 2.47214E+01 7.60845E+01 7.72727E+00
 -1     23976 3.05203E+01 7.36825E+01 8.18182E+00
 -1     23977 2.43351E+01 7.48957E+01 8.18182E+00
 -1     23982 2.47214E+01 7.60845E+01 8.63636E+00
 -1     23983 3.05203E+01 7.36825E+01 9.09091E+00
 -1     23984 2.43351E+01 7.48957E+01 9.09091E+00
 -1     23989 2.47214E+01 7.60845E+01 9.54545E+00
 -1     23993 1.25148E+01 7.90151E+01 4.54545E-01
 -1     23994 1.86181E+01 7.75498E+01 9.09091E-01
 -1     23995 1.23192E+01 7.77805E+01 9.09091E-01
 -1     24000 1.25148E+01 7.90151E+01 1.36364E+00
 -1     24001 1.86181E+01 7.75498E+01 1.81818E+00
 -1     24002 1.23192E+01 7.77805E+01 1.81818E+00
 -1     24007 1.25148E+01 7.90151E+01 2.27273E+00
 -1     24008 1.86181E+01 7.75498E+01 2.72727E+00
 -1     24009 1.23192E+01 7.77805E+01 2.72727E+00
 -1     24014 1.25148E+01 7.90151E+01 3.18182E+00
 -1     24015 1.86181E+01 7.75498E+01 3.63636E+00
 -1     24016 1.23192E+01 7.77805E+01 3.63636E+00
 -1     24021 1.25148E+01 7.90151E+01 4.09091E+00
 -1     24022 1.86181E+01 7.75498E+01 4.54545E+00
 -1     24023 1.23192E+01 7.77805E+01 4.54545E+00
 -1     24028 1.25148E+01 7.90151E+01 5.00000E+00
 -1     24029 1.86181E+01 7.75498E+01 5.45455E+00
 -1     24030 1.23192E+01 7.77805E+01 5.45455E+00
 -1     24035 1.25148E+01 7.90151E+01 5.90909E+00
 -1     24036 1.86181E+01 7.75498E+01 6.36364E+00
 -1     24037 1.23192E+01 7.77805E+01 6.36364E+00
 -1     24042 1.25148E+01 7.90151E+01 6.81818E+00
 -1     24043 1.86181E+01 7.75498E+01 7.27273E+00
 -1     24044 1.23192E+01 7.77805E+01 7.27273E+00
 -1     24049 1.25148E+01 7.90151E+01 7.72727E+00
 -1     24050 1.86181E+01 7.75498E+01 8.18182E+00
 -1     24051 1.23192E+01 7.77805E+01 8.18182E+00
 -1     24056 1.25148E+01 7.90151E+01 8.63636E+00
 -1     24057 1.86181E+01 7.75498E+01 9.09091E+00
 -1     24058 1.23192E+01 7.77805E+01 9.09091E+00
 -1     24063 1.25148E+01 7.90151E+01 9.54545E+00
 -1     24067 6.25738E+00 7.95075E+01 9.09091E-01
 -1     24071 6.25738E+00 7.95075E+01 1.81818E+00
 -1     24075 6.25738E+00 7.95075E+01 2.72727E+00
 -1     24079 6.25738E+00 7.95075E+01 3.63636E+00
 -1     24083 6.25738E+00 7.95075E+01 4.54545E+00
 -1     24087 6.25738E+00 7.95075E+01 5.45455E+00
 -1     24091 6.25738E+00 7.95075E+01 6.36364E+00
 -1     24095 6.25738E+00 7.95075E+01 7.27273E+00
 -1     24099 6.25738E+00 7.95075E+01 8.18182E+00
 -1     24103 6.25738E+00 7.95075E+01 9.09091E+00
 -1     24109 8.14843E+01 1.29058E+01 4.54545E-01
 -1     24110 8.19921E+01 6.45292E+00 9.09091E-01
 -1     24111 8.02497E+01 1.27103E+01 9.09091E-01
 -1     24116 8.14843E+01 1.29058E+01 1.36364E+00
 -1     24117 8.19921E+01 6.45292E+00 1.81818E+00
 -1     24118 8.02497E+01 1.27103E+01 1.81818E+00
 -1     24123 8.14843E+01 1.29058E+01 2.27273E+00
 -1     24124 8.19921E+01 6.45292E+00 2.72727E+00
 -1     24125 8.02497E+01 1.27103E+01 2.72727E+00
 -1     24130 8.14843E+01 1.29058E+01 3.18182E+00
 -1     24131 8.19921E+01 6.45292E+00 3.63636E+00
 -1     24132 8.02497E+01 1.27103E+01 3.63636E+00
 -1     24137 8.14843E+01 1.29058E+01 4.09091E+00
 -1     24138 8.19921E+01 6.45292E+00 4.54545E+00
 -1     24139 8.02497E+01 1.27103E+01 4.54545E+00
 -1     24144 8.14843E+01 1.29058E+01 5.00000E+00
 -1     24145 8.19921E+01 6.45292E+00 5.45455E+00
 -1     24146 8.02497E+01 1.27103E+01 5.45455E+00
 -1     24151 8.14843E+01 1.29058E+01 5.90909E+00
 -1     24152 8.19921E+01 6.45292E+00 6.36364E+00
 -1     24153 8.02497E+01 1.27103E+01 6.36364E+00
 -1     24158 8.14843E+01 1.29058E+01 6.81818E+00
 -1     24159 8.19921E+01 6.45292E+00 7.27273E+00
 -1     24160 8.02497E+01 1.27103E+01 7.27273E+00
 -1     24165 8.14843E+01 1.29058E+01 7.72727E+00
 -1     24166 8.19921E+01 6.45292E+00 8.18182E+00
 -1     24167 8.02497E+01 1.27103E+01 8.18182E+00
 -1     24172 8.14843E+01 1.29058E+01 8.63636E+00
 -1     24173 8.19921E+01 6.45292E+00 9.09091E+00
 -1     24174 8.02497E+01 1.27103E+01 9.09091E+00
 -1     24179 8.14843E+01 1.29058E+01 9.54545E+00
 -1     24183 7.84622E+01 2.54939E+01 4.54545E-01
 -1     24184 7.99732E+01 1.91999E+01 9.09091E-01
 -1     24185 7.72733E+01 2.51076E+01 9.09091E-01
 -1     24190 7.84622E+01 2.54939E+01 1.36364E+00
 -1     24191 7.99732E+01 1.91999E+01 1.81818E+00
 -1     24192 7.72733E+01 2.51076E+01 1.81818E+00
 -1     24197 7.84622E+01 2.54939E+01 2.27273E+00
 -1     24198 7.99732E+01 1.91999E+01 2.72727E+00
 -1     24199 7.72733E+01 2.51076E+01 2.72727E+00
 -1     24204 7.84622E+01 2.54939E+01 3.18182E+00
 -1     24205 7.99732E+01 1.91999E+01 3.63636E+00
 -1     24206 7.72733E+01 2.51076E+01 3.63636E+00
 -1     24211 7.84622E+01 2.54939E+01 4.09091E+00
 -1     24212 7.99732E+01 1.91999E+01 4.54545E+00
 -1     24213 7.72733E+01 2.51076E+01 4.54545E+00
 -1     24218 7.84622E+01 2.54939E+01 5.00000E+00
 -1     24219 7.99732E+01 1.91999E+01 5.45455E+00
 -1     24220 7.72733E+01 2.51076E+01 5.45455E+00
 -1     24225 7.84622E+01 2.54939E+01 5.90909E+00
 -1     24226 7.99732E+01 1.91999E+01 6.36364E+00
 -1     24227 7.72733E+01 2.51076E+01 6.36364E+00
 -1     24232 7.84622E+01 2.54939E+01 6.81818E+00
 -1     24233 7.99732E+01 1.91999E+01 7.27273E+00
 -1     24234 7.72733E+01 2.51076E+01 7.27273E+00
 -1     24239 7.84622E+01 2.54939E+01 7.72727E+00
 -1     24240 7.99732E+01 1.91999E+01 8.18182E+00
 -1     24241 7.72733E+01 2.51076E+01 8.18182E+00
 -1     24246 7.84622E+01 2.54939E+01 8.63636E+00
 -1     24247 7.99732E+01 1.91999E+01 9.09091E+00
 -1     24248 7.72733E+01 2.51076E+01 9.09091E+00
 -1     24253 7.84622E+01 2.54939E+01 9.54545E+00
 -1     24257 7.35080E+01 3.74542E+01 4.54545E-01
 -1     24258 7.59851E+01 3.14741E+01 9.09091E-01
 -1     24259 7.23943E+01 3.68867E+01 9.09091E-01
 -1     24264 7.35080E+01 3.74542E+01 1.36364E+00
 -1     24265 7.59851E+01 3.14741E+01 1.81818E+00
 -1     24266 7.23943E+01 3.68867E+01 1.81818E+00
 -1     24271 7.35080E+01 3.74542E+01 2.27273E+00
 -1     24272 7.59851E+01 3.14741E+01 2.72727E+00
 -1     24273 7.23943E+01 3.68867E+01 2.72727E+00
 -1     24278 7.35080E+01 3.74542E+01 3.18182E+00
 -1     24279 7.59851E+01 3.14741E+01 3.63636E+00
 -1     24280 7.23943E+01 3.68867E+01 3.63636E+00
 -1     24285 7.35080E+01 3.74542E+01 4.09091E+00
 -1     24286 7.59851E+01 3.14741E+01 4.54545E+00
 -1     24287 7.23943E+01 3.68867E+01 4.54545E+00
 -1     24292 7.35080E+01 3.74542E+01 5.00000E+00
 -1     24293 7.59851E+01 3.14741E+01 5.45455E+00
 -1     24294 7.23943E+01 3.68867E+01 5.45455E+00
 -1     24299 7.35080E+01 3.74542E+01 5.90909E+00
 -1     24300 7.59851E+01 3.14741E+01 6.36364E+00
 -1     24301 7.23943E+01 3.68867E+01 6.36364E+00
 -1     24306 7.35080E+01 3.74542E+01 6.81818E+00
 -1     24307 7.59851E+01 3.14741E+01 7.27273E+00
 -1     24308 7.23943E+01 3.68867E+01 7.27273E+00
 -1     24313 7.35080E+01 3.74542E+01 7.72727E+00
 -1     24314 7.59851E+01 3.14741E+01 8.18182E+00
 -1     24315 7.23943E+01 3.68867E+01 8.18182E+00
 -1     24320 7.35080E+01 3.74542E+01 8.63636E+00
 -1     24321 7.59851E+01 3.14741E+01 9.09091E+00
 -1     24322 7.23943E+01 3.68867E+01 9.09091E+00
 -1     24327 7.35080E+01 3.74542E+01 9.54545E+00
 -1     24331 6.67439E+01 4.84923E+01 4.54545E-01
 -1     24332 7.01260E+01 4.29733E+01 9.09091E-01
 -1     24333 6.57326E+01 4.77576E+01 9.09091E-01
 -1     24338 6.67439E+01 4.84923E+01 1.36364E+00
 -1     24339 7.01260E+01 4.29733E+01 1.81818E+00
 -1     24340 6.57326E+01 4.77576E+01 1.81818E+00
 -1     24345 6.67439E+01 4.84923E+01 2.27273E+00
 -1     24346 7.01260E+01 4.29733E+01 2.72727E+00
 -1     24347 6.57326E+01 4.77576E+01 2.72727E+00
 -1     24352 6.67439E+01 4.84923E+01 3.18182E+00
 -1     24353 7.01260E+01 4.29733E+01 3.63636E+00
 -1     24354 6.57326E+01 4.77576E+01 3.63636E+00
 -1     24359 6.67439E+01 4.84923E+01 4.09091E+00
 -1     24360 7.01260E+01 4.29733E+01 4.54545E+00
 -1     24361 6.57326E+01 4.77576E+01 4.54545E+00
 -1     24366 6.67439E+01 4.84923E+01 5.00000E+00
 -1     24367 7.01260E+01 4.29733E+01 5.45455E+00
 -1     24368 6.57326E+01 4.77576E+01 5.45455E+00
 -1     24373 6.67439E+01 4.84923E+01 5.90909E+00
 -1     24374 7.01260E+01 4.29733E+01 6.36364E+00
 -1     24375 6.57326E+01 4.77576E+01 6.36364E+00
 -1     24380 6.67439E+01 4.84923E+01 6.81818E+00
 -1     24381 7.01260E+01 4.29733E+01 7.27273E+00
 -1     24382 6.57326E+01 4.77576E+01 7.27273E+00
 -1     24387 6.67439E+01 4.84923E+01 7.72727E+00
 -1     24388 7.01260E+01 4.29733E+01 8.18182E+00
 -1     24389 6.57326E+01 4.77576E+01 8.18182E+00
 -1     24394 6.67439E+01 4.84923E+01 8.63636E+00
 -1     24395 7.01260E+01 4.29733E+01 9.09091E+00
 -1     24396 6.57326E+01 4.77576E+01 9.09091E+00
 -1     24401 6.67439E+01 4.84923E+01 9.54545E+00
 -1     24405 5.83363E+01 5.83363E+01 4.54545E-01
 -1     24406 6.25401E+01 5.34143E+01 9.09091E-01
 -1     24407 5.74524E+01 5.74524E+01 9.09091E-01
 -1     24412 5.83363E+01 5.83363E+01 1.36364E+00
 -1     24413 6.25401E+01 5.34143E+01 1.81818E+00
 -1     24414 5.74524E+01 5.74524E+01 1.81818E+00
 -1     24419 5.83363E+01 5.83363E+01 2.27273E+00
 -1     24420 6.25401E+01 5.34143E+01 2.72727E+00
 -1     24421 5.74524E+01 5.74524E+01 2.72727E+00
 -1     24426 5.83363E+01 5.83363E+01 3.18182E+00
 -1     24427 6.25401E+01 5.34143E+01 3.63636E+00
 -1     24428 5.74524E+01 5.74524E+01 3.63636E+00
 -1     24433 5.83363E+01 5.83363E+01 4.09091E+00
 -1     24434 6.25401E+01 5.34143E+01 4.54545E+00
 -1     24435 5.74524E+01 5.74524E+01 4.54545E+00
 -1     24440 5.83363E+01 5.83363E+01 5.00000E+00
 -1     24441 6.25401E+01 5.34143E+01 5.45455E+00
 -1     24442 5.74524E+01 5.74524E+01 5.45455E+00
 -1     24447 5.83363E+01 5.83363E+01 5.90909E+00
 -1     24448 6.25401E+01 5.34143E+01 6.36364E+00
 -1     24449 5.74524E+01 5.74524E+01 6.36364E+00
 -1     24454 5.83363E+01 5.83363E+01 6.81818E+00
 -1     24455 6.25401E+01 5.34143E+01 7.27273E+00
 -1     24456 5.74524E+01 5.74524E+01 7.27273E+00
 -1     24461 5.83363E+01 5.83363E+01 7.72727E+00
 -1     24462 6.25401E+01 5.34143E+01 8.18182E+00
 -1     24463 5.74524E+01 5.74524E+01 8.18182E+00
 -1     24468 5.83363E+01 5.83363E+01 8.63636E+00
 -1     24469 6.25401E+01 5.34143E+01 9.09091E+00
 -1     24470 5.74524E+01 5.74524E+01 9.09091E+00
 -1     24475 5.83363E+01 5.83363E+01 9.54545E+00
 -1     24479 4.84923E+01 6.67439E+01 4.54545E-01
 -1     24480 5.34143E+01 6.25401E+01 9.09091E-01
 -1     24481 4.77576E+01 6.57326E+01 9.09091E-01
 -1     24486 4.84923E+01 6.67439E+01 1.36364E+00
 -1     24487 5.34143E+01 6.25401E+01 1.81818E+00
 -1     24488 4.77576E+01 6.57326E+01 1.81818E+00
 -1     24493 4.84923E+01 6.67439E+01 2.27273E+00
 -1     24494 5.34143E+01 6.25401E+01 2.72727E+00
 -1     24495 4.77576E+01 6.57326E+01 2.72727E+00
 -1     24500 4.84923E+01 6.67439E+01 3.18182E+00
 -1     24501 5.34143E+01 6.25401E+01 3.63636E+00
 -1     24502 4.77576E+01 6.57326E+01 3.63636E+00
 -1     24507 4.84923E+01 6.67439E+01 4.09091E+00
 -1     24508 5.34143E+01 6.25401E+01 4.54545E+00
 -1     24509 4.77576E+01 6.57326E+01 4.54545E+00
 -1     24514 4.84923E+01 6.67439E+01 5.00000E+00
 -1     24515 5.34143E+01 6.25401E+01 5.45455E+00
 -1     24516 4.77576E+01 6.57326E+01 5.45455E+00
 -1     24521 4.84923E+01 6.67439E+01 5.90909E+00
 -1     24522 5.34143E+01 6.25401E+01 6.36364E+00
 -1     24523 4.77576E+01 6.57326E+01 6.36364E+00
 -1     24528 4.84923E+01 6.67439E+01 6.81818E+00
 -1     24529 5.34143E+01 6.25401E+01 7.27273E+00
 -1     24530 4.77576E+01 6.57326E+01 7.27273E+00
 -1     24535 4.84923E+01 6.67439E+01 7.72727E+00
 -1     24536 5.34143E+01 6.25401E+01 8.18182E+00
 -1     24537 4.77576E+01 6.57326E+01 8.18182E+00
 -1     24542 4.84923E+01 6.67439E+01 8.63636E+00
 -1     24543 5.34143E+01 6.25401E+01 9.09091E+00
 -1     24544 4.77576E+01 6.57326E+01 9.09091E+00
 -1     24549 4.84923E+01 6.67439E+01 9.54545E+00
 -1     24553 3.74542E+01 7.35080E+01 4.54545E-01
 -1     24554 4.29733E+01 7.01260E+01 9.09091E-01
 -1     24555 3.68867E+01 7.23943E+01 9.09091E-01
 -1     24560 3.74542E+01 7.35080E+01 1.36364E+00
 -1     24561 4.29733E+01 7.01260E+01 1.81818E+00
 -1     24562 3.68867E+01 7.23943E+01 1.81818E+00
 -1     24567 3.74542E+01 7.35080E+01 2.27273E+00
 -1     24568 4.29733E+01 7.01260E+01 2.72727E+00
 -1     24569 3.68867E+01 7.23943E+01 2.72727E+00
 -1     24574 3.74542E+01 7.35080E+01 3.18182E+00
 -1     24575 4.29733E+01 7.01260E+01 3.63636E+00
 -1     24576 3.68867E+01 7.23943E+01 3.63636E+00
 -1     24581 3.74542E+01 7.35080E+01 4.09091E+00
 -1     24582 4.29733E+01 7.01260E+01 4.54545E+00
 -1     24583 3.68867E+01 7.23943E+01 4.54545E+00
 -1     24588 3.74542E+01 7.35080E+01 5.00000E+00
 -1     24589 4.29733E+01 7.01260E+01 5.45455E+00
 -1     24590 3.68867E+01 7.23943E+01 5.45455E+00
 -1     24595 3.74542E+01 7.35080E+01 5.90909E+00
 -1     24596 4.29733E+01 7.01260E+01 6.36364E+00
 -1     24597 3.68867E+01 7.23943E+01 6.36364E+00
 -1     24602 3.74542E+01 7.35080E+01 6.81818E+00
 -1     24603 4.29733E+01 7.01260E+01 7.27273E+00
 -1     24604 3.68867E+01 7.23943E+01 7.27273E+00
 -1     24609 3.74542E+01 7.35080E+01 7.72727E+00
 -1     24610 4.29733E+01 7.01260E+01 8.18182E+00
 -1     24611 3.68867E+01 7.23943E+01 8.18182E+00
 -1     24616 3.74542E+01 7.35080E+01 8.63636E+00
 -1     24617 4.29733E+01 7.01260E+01 9.09091E+00
 -1     24618 3.68867E+01 7.23943E+01 9.09091E+00
 -1     24623 3.74542E+01 7.35080E+01 9.54545E+00
 -1     24627 2.54939E+01 7.84622E+01 4.54545E-01
 -1     24628 3.14741E+01 7.59851E+01 9.09091E-01
 -1     24629 2.51076E+01 7.72733E+01 9.09091E-01
 -1     24634 2.54939E+01 7.84622E+01 1.36364E+00
 -1     24635 3.14741E+01 7.59851E+01 1.81818E+00
 -1     24636 2.51076E+01 7.72733E+01 1.81818E+00
 -1     24641 2.54939E+01 7.84622E+01 2.27273E+00
 -1     24642 3.14741E+01 7.59851E+01 2.72727E+00
 -1     24643 2.51076E+01 7.72733E+01 2.72727E+00
 -1     24648 2.54939E+01 7.84622E+01 3.18182E+00
 -1     24649 3.14741E+01 7.59851E+01 3.63636E+00
 -1     24650 2.51076E+01 7.72733E+01 3.63636E+00
 -1     24655 2.54939E+01 7.84622E+01 4.09091E+00
 -1     24656 3.14741E+01 7.59851E+01 4.54545E+00
 -1     24657 2.51076E+01 7.72733E+01 4.54545E+00
 -1     24662 2.54939E+01 7.84622E+01 5.00000E+00
 -1     24663 3.14741E+01 7.59851E+01 5.45455E+00
 -1     24664 2.51076E+01 7.72733E+01 5.45455E+00
 -1     24669 2.54939E+01 7.84622E+01 5.90909E+00
 -1     24670 3.14741E+01 7.59851E+01 6.36364E+00
 -1     24671 2.51076E+01 7.72733E+01 6.36364E+00
 -1     24676 2.54939E+01 7.84622E+01 6.81818E+00
 -1     24677 3.14741E+01 7.59851E+01 7.27273E+00
 -1     24678 2.51076E+01 7.72733E+01 7.27273E+00
 -1     24683 2.54939E+01 7.84622E+01 7.72727E+00
 -1     24684 3.14741E+01 7.59851E+01 8.18182E+00
 -1     24685 2.51076E+01 7.72733E+01 8.18182E+00
 -1     24690 2.54939E+01 7.84622E+01 8.63636E+00
 -1     24691 3.14741E+01 7.59851E+01 9.09091E+00
 -1     24692 2.51076E+01 7.72733E+01 9.09091E+00
 -1     24697 2.54939E+01 7.84622E+01 9.54545E+00
 -1     24701 1.29058E+01 8.14843E+01 4.54545E-01
 -1     24702 1.91999E+01 7.99732E+01 9.09091E-01
 -1     24703 1.27103E+01 8.02497E+01 9.09091E-01
 -1     24708 1.29058E+01 8.14843E+01 1.36364E+00
 -1     24709 1.91999E+01 7.99732E+01 1.81818E+00
 -1     24710 1.27103E+01 8.02497E+01 1.81818E+00
 -1     24715 1.29058E+01 8.14843E+01 2.27273E+00
 -1     24716 1.91999E+01 7.99732E+01 2.72727E+00
 -1     24717 1.27103E+01 8.02497E+01 2.72727E+00
 -1     24722 1.29058E+01 8.14843E+01 3.18182E+00
 -1     24723 1.91999E+01 7.99732E+01 3.63636E+00
 -1     24724 1.27103E+01 8.02497E+01 3.63636E+00
 -1     24729 1.29058E+01 8.14843E+01 4.09091E+00
 -1     24730 1.91999E+01 7.99732E+01 4.54545E+00
 -1     24731 1.27103E+01 8.02497E+01 4.54545E+00
 -1     24736 1.29058E+01 8.14843E+01 5.00000E+00
 -1     24737 1.91999E+01 7.99732E+01 5.45455E+00
 -1     24738 1.27103E+01 8.02497E+01 5.45455E+00
 -1     24743 1.29058E+01 8.14843E+01 5.90909E+00
 -1     24744 1.91999E+01 7.99732E+01 6.36364E+00
 -1     24745 1.27103E+01 8.02497E+01 6.36364E+00
 -1     24750 1.29058E+01 8.14843E+01 6.81818E+00
 -1     24751 1.91999E+01 7.99732E+01 7.27273E+00
 -1     24752 1.27103E+01 8.02497E+01 7.27273E+00
 -1     24757 1.29058E+01 8.14843E+01 7.72727E+00
 -1     24758 1.91999E+01 7.99732E+01 8.18182E+00
 -1     24759 1.27103E+01 8.02497E+01 8.18182E+00
 -1     24764 1.29058E+01 8.14843E+01 8.63636E+00
 -1     24765 1.91999E+01 7.99732E+01 9.09091E+00
 -1     24766 1.27103E+01 8.02497E+01 9.09091E+00
 -1     24771 1.29058E+01 8.14843E+01 9.54545E+00
 -1     24775 6.45292E+00 8.19921E+01 9.09091E-01
 -1     24779 6.45292E+00 8.19921E+01 1.81818E+00
 -1     24783 6.45292E+00 8.19921E+01 2.72727E+00
 -1     24787 6.45292E+00 8.19921E+01 3.63636E+00
 -1     24791 6.45292E+00 8.19921E+01 4.54545E+00
 -1     24795 6.45292E+00 8.19921E+01 5.45455E+00
 -1     24799 6.45292E+00 8.19921E+01 6.36364E+00
 -1     24803 6.45292E+00 8.19921E+01 7.27273E+00
 -1     24807 6.45292E+00 8.19921E+01 8.18182E+00
 -1     24811 6.45292E+00 8.19921E+01 9.09091E+00
 -1     24817 8.39535E+01 1.32969E+01 4.54545E-01
 -1     24818 8.44768E+01 6.64846E+00 9.09091E-01
 -1     24819 8.27189E+01 1.31014E+01 9.09091E-01
 -1     24824 8.39535E+01 1.32969E+01 1.36364E+00
 -1     24825 8.44768E+01 6.64846E+00 1.81818E+00
 -1     24826 8.27189E+01 1.31014E+01 1.81818E+00
 -1     24831 8.39535E+01 1.32969E+01 2.27273E+00
 -1     24832 8.44768E+01 6.64846E+00 2.72727E+00
 -1     24833 8.27189E+01 1.31014E+01 2.72727E+00
 -1     24838 8.39535E+01 1.32969E+01 3.18182E+00
 -1     24839 8.44768E+01 6.64846E+00 3.63636E+00
 -1     24840 8.27189E+01 1.31014E+01 3.63636E+00
 -1     24845 8.39535E+01 1.32969E+01 4.09091E+00
 -1     24846 8.44768E+01 6.64846E+00 4.54545E+00
 -1     24847 8.27189E+01 1.31014E+01 4.54545E+00
 -1     24852 8.39535E+01 1.32969E+01 5.00000E+00
 -1     24853 8.44768E+01 6.64846E+00 5.45455E+00
 -1     24854 8.27189E+01 1.31014E+01 5.45455E+00
 -1     24859 8.39535E+01 1.32969E+01 5.90909E+00
 -1     24860 8.44768E+01 6.64846E+00 6.36364E+00
 -1     24861 8.27189E+01 1.31014E+01 6.36364E+00
 -1     24866 8.39535E+01 1.32969E+01 6.81818E+00
 -1     24867 8.44768E+01 6.64846E+00 7.27273E+00
 -1     24868 8.27189E+01 1.31014E+01 7.27273E+00
 -1     24873 8.39535E+01 1.32969E+01 7.72727E+00
 -1     24874 8.44768E+01 6.64846E+00 8.18182E+00
 -1     24875 8.27189E+01 1.31014E+01 8.18182E+00
 -1     24880 8.39535E+01 1.32969E+01 8.63636E+00
 -1     24881 8.44768E+01 6.64846E+00 9.09091E+00
 -1     24882 8.27189E+01 1.31014E+01 9.09091E+00
 -1     24887 8.39535E+01 1.32969E+01 9.54545E+00
 -1     24891 8.08398E+01 2.62664E+01 4.54545E-01
 -1     24892 8.23967E+01 1.97817E+01 9.09091E-01
 -1     24893 7.96510E+01 2.58802E+01 9.09091E-01
 -1     24898 8.08398E+01 2.62664E+01 1.36364E+00
 -1     24899 8.23967E+01 1.97817E+01 1.81818E+00
 -1     24900 7.96510E+01 2.58802E+01 1.81818E+00
 -1     24905 8.08398E+01 2.62664E+01 2.27273E+00
 -1     24906 8.23967E+01 1.97817E+01 2.72727E+00
 -1     24907 7.96510E+01 2.58802E+01 2.72727E+00
 -1     24912 8.08398E+01 2.62664E+01 3.18182E+00
 -1     24913 8.23967E+01 1.97817E+01 3.63636E+00
 -1     24914 7.96510E+01 2.58802E+01 3.63636E+00
 -1     24919 8.08398E+01 2.62664E+01 4.09091E+00
 -1     24920 8.23967E+01 1.97817E+01 4.54545E+00
 -1     24921 7.96510E+01 2.58802E+01 4.54545E+00
 -1     24926 8.08398E+01 2.62664E+01 5.00000E+00
 -1     24927 8.23967E+01 1.97817E+01 5.45455E+00
 -1     24928 7.96510E+01 2.58802E+01 5.45455E+00
 -1     24933 8.08398E+01 2.62664E+01 5.90909E+00
 -1     24934 8.23967E+01 1.97817E+01 6.36364E+00
 -1     24935 7.96510E+01 2.58802E+01 6.36364E+00
 -1     24940 8.08398E+01 2.62664E+01 6.81818E+00
 -1     24941 8.23967E+01 1.97817E+01 7.27273E+00
 -1     24942 7.96510E+01 2.58802E+01 7.27273E+00
 -1     24947 8.08398E+01 2.62664E+01 7.72727E+00
 -1     24948 8.23967E+01 1.97817E+01 8.18182E+00
 -1     24949 7.96510E+01 2.58802E+01 8.18182E+00
 -1     24954 8.08398E+01 2.62664E+01 8.63636E+00
 -1     24955 8.23967E+01 1.97817E+01 9.09091E+00
 -1     24956 7.96510E+01 2.58802E+01 9.09091E+00
 -1     24961 8.08398E+01 2.62664E+01 9.54545E+00
 -1     24965 7.57356E+01 3.85892E+01 4.54545E-01
 -1     24966 7.82877E+01 3.24278E+01 9.09091E-01
 -1     24967 7.46218E+01 3.80217E+01 9.09091E-01
 -1     24972 7.57356E+01 3.85892E+01 1.36364E+00
 -1     24973 7.82877E+01 3.24278E+01 1.81818E+00
 -1     24974 7.46218E+01 3.80217E+01 1.81818E+00
 -1     24979 7.57356E+01 3.85892E+01 2.27273E+00
 -1     24980 7.82877E+01 3.24278E+01 2.72727E+00
 -1     24981 7.46218E+01 3.80217E+01 2.72727E+00
 -1     24986 7.57356E+01 3.85892E+01 3.18182E+00
 -1     24987 7.82877E+01 3.24278E+01 3.63636E+00
 -1     24988 7.46218E+01 3.80217E+01 3.63636E+00
 -1     24993 7.57356E+01 3.85892E+01 4.09091E+00
 -1     24994 7.82877E+01 3.24278E+01 4.54545E+00
 -1     24995 7.46218E+01 3.80217E+01 4.54545E+00
 -1     25000 7.57356E+01 3.85892E+01 5.00000E+00
 -1     25001 7.82877E+01 3.24278E+01 5.45455E+00
 -1     25002 7.46218E+01 3.80217E+01 5.45455E+00
 -1     25007 7.57356E+01 3.85892E+01 5.90909E+00
 -1     25008 7.82877E+01 3.24278E+01 6.36364E+00
 -1     25009 7.46218E+01 3.80217E+01 6.36364E+00
 -1     25014 7.57356E+01 3.85892E+01 6.81818E+00
 -1     25015 7.82877E+01 3.24278E+01 7.27273E+00
 -1     25016 7.46218E+01 3.80217E+01 7.27273E+00
 -1     25021 7.57356E+01 3.85892E+01 7.72727E+00
 -1     25022 7.82877E+01 3.24278E+01 8.18182E+00
 -1     25023 7.46218E+01 3.80217E+01 8.18182E+00
 -1     25028 7.57356E+01 3.85892E+01 8.63636E+00
 -1     25029 7.82877E+01 3.24278E+01 9.09091E+00
 -1     25030 7.46218E+01 3.80217E+01 9.09091E+00
 -1     25035 7.57356E+01 3.85892E+01 9.54545E+00
 -1     25039 6.87664E+01 4.99617E+01 4.54545E-01
 -1     25040 7.22510E+01 4.42755E+01 9.09091E-01
 -1     25041 6.77552E+01 4.92270E+01 9.09091E-01
 -1     25046 6.87664E+01 4.99617E+01 1.36364E+00
 -1     25047 7.22510E+01 4.42755E+01 1.81818E+00
 -1     25048 6.77552E+01 4.92270E+01 1.81818E+00
 -1     25053 6.87664E+01 4.99617E+01 2.27273E+00
 -1     25054 7.22510E+01 4.42755E+01 2.72727E+00
 -1     25055 6.77552E+01 4.92270E+01 2.72727E+00
 -1     25060 6.87664E+01 4.99617E+01 3.18182E+00
 -1     25061 7.22510E+01 4.42755E+01 3.63636E+00
 -1     25062 6.77552E+01 4.92270E+01 3.63636E+00
 -1     25067 6.87664E+01 4.99617E+01 4.09091E+00
 -1     25068 7.22510E+01 4.42755E+01 4.54545E+00
 -1     25069 6.77552E+01 4.92270E+01 4.54545E+00
 -1     25074 6.87664E+01 4.99617E+01 5.00000E+00
 -1     25075 7.22510E+01 4.42755E+01 5.45455E+00
 -1     25076 6.77552E+01 4.92270E+01 5.45455E+00
 -1     25081 6.87664E+01 4.99617E+01 5.90909E+00
 -1     25082 7.22510E+01 4.42755E+01 6.36364E+00
 -1     25083 6.77552E+01 4.92270E+01 6.36364E+00
 -1     25088 6.87664E+01 4.99617E+01 6.81818E+00
 -1     25089 7.22510E+01 4.42755E+01 7.27273E+00
 -1     25090 6.77552E+01 4.92270E+01 7.27273E+00
 -1     25095 6.87664E+01 4.99617E+01 7.72727E+00
 -1     25096 7.22510E+01 4.42755E+01 8.18182E+00
 -1     25097 6.77552E+01 4.92270E+01 8.18182E+00
 -1     25102 6.87664E+01 4.99617E+01 8.63636E+00
 -1     25103 7.22510E+01 4.42755E+01 9.09091E+00
 -1     25104 6.77552E+01 4.92270E+01 9.09091E+00
 -1     25109 6.87664E+01 4.99617E+01 9.54545E+00
 -1     25113 6.01041E+01 6.01041E+01 4.54545E-01
 -1     25114 6.44353E+01 5.50329E+01 9.09091E-01
 -1     25115 5.92202E+01 5.92202E+01 9.09091E-01
 -1     25120 6.01041E+01 6.01041E+01 1.36364E+00
 -1     25121 6.44353E+01 5.50329E+01 1.81818E+00
 -1     25122 5.92202E+01 5.92202E+01 1.81818E+00
 -1     25127 6.01041E+01 6.01041E+01 2.27273E+00
 -1     25128 6.44353E+01 5.50329E+01 2.72727E+00
 -1     25129 5.92202E+01 5.92202E+01 2.72727E+00
 -1     25134 6.01041E+01 6.01041E+01 3.18182E+00
 -1     25135 6.44353E+01 5.50329E+01 3.63636E+00
 -1     25136 5.92202E+01 5.92202E+01 3.63636E+00
 -1     25141 6.01041E+01 6.01041E+01 4.09091E+00
 -1     25142 6.44353E+01 5.50329E+01 4.54545E+00
 -1     25143 5.92202E+01 5.92202E+01 4.54545E+00
 -1     25148 6.01041E+01 6.01041E+01 5.00000E+00
 -1     25149 6.44353E+01 5.50329E+01 5.45455E+00
 -1     25150 5.92202E+01 5.92202E+01 5.45455E+00
 -1     25155 6.01041E+01 6.01041E+01 5.90909E+00
 -1     25156 6.44353E+01 5.50329E+01 6.36364E+00
 -1     25157 5.92202E+01 5.92202E+01 6.36364E+00
 -1     25162 6.01041E+01 6.01041E+01 6.81818E+00
 -1     25163 6.44353E+01 5.50329E+01 7.27273E+00
 -1     25164 5.92202E+01 5.92202E+01 7.27273E+00
 -1     25169 6.01041E+01 6.01041E+01 7.72727E+00
 -1     25170 6.44353E+01 5.50329E+01 8.18182E+00
 -1     25171 5.92202E+01 5.92202E+01 8.18182E+00
 -1     25176 6.01041E+01 6.01041E+01 8.63636E+00
 -1     25177 6.44353E+01 5.50329E+01 9.09091E+00
 -1     25178 5.92202E+01 5.92202E+01 9.09091E+00
 -1     25183 6.01041E+01 6.01041E+01 9.54545E+00
 -1     25187 4.99617E+01 6.87664E+01 4.54545E-01
 -1     25188 5.50329E+01 6.44353E+01 9.09091E-01
 -1     25189 4.92270E+01 6.77552E+01 9.09091E-01
 -1     25194 4.99617E+01 6.87664E+01 1.36364E+00
 -1     25195 5.50329E+01 6.44353E+01 1.81818E+00
 -1     25196 4.92270E+01 6.77552E+01 1.81818E+00
 -1     25201 4.99617E+01 6.87664E+01 2.27273E+00
 -1     25202 5.50329E+01 6.44353E+01 2.72727E+00
 -1     25203 4.92270E+01 6.77552E+01 2.72727E+00
 -1     25208 4.99617E+01 6.87664E+01 3.18182E+00
 -1     25209 5.50329E+01 6.44353E+01 3.63636E+00
 -1     25210 4.92270E+01 6.77552E+01 3.63636E+00
 -1     25215 4.99617E+01 6.87664E+01 4.09091E+00
 -1     25216 5.50329E+01 6.44353E+01 4.54545E+00
 -1     25217 4.92270E+01 6.77552E+01 4.54545E+00
 -1     25222 4.99617E+01 6.87664E+01 5.00000E+00
 -1     25223 5.50329E+01 6.44353E+01 5.45455E+00
 -1     25224 4.92270E+01 6.77552E+01 5.45455E+00
 -1     25229 4.99617E+01 6.87664E+01 5.90909E+00
 -1     25230 5.50329E+01 6.44353E+01 6.36364E+00
 -1     25231 4.92270E+01 6.77552E+01 6.36364E+00
 -1     25236 4.99617E+01 6.87664E+01 6.81818E+00
 -1     25237 5.50329E+01 6.44353E+01 7.27273E+00
 -1     25238 4.92270E+01 6.77552E+01 7.27273E+00
 -1     25243 4.99617E+01 6.87664E+01 7.72727E+00
 -1     25244 5.50329E+01 6.44353E+01 8.18182E+00
 -1     25245 4.92270E+01 6.77552E+01 8.18182E+00
 -1     25250 4.99617E+01 6.87664E+01 8.63636E+00
 -1     25251 5.50329E+01 6.44353E+01 9.09091E+00
 -1     25252 4.92270E+01 6.77552E+01 9.09091E+00
 -1     25257 4.99617E+01 6.87664E+01 9.54545E+00
 -1     25261 3.85892E+01 7.57356E+01 4.54545E-01
 -1     25262 4.42755E+01 7.22510E+01 9.09091E-01
 -1     25263 3.80217E+01 7.46218E+01 9.09091E-01
 -1     25268 3.85892E+01 7.57356E+01 1.36364E+00
 -1     25269 4.42755E+01 7.22510E+01 1.81818E+00
 -1     25270 3.80217E+01 7.46218E+01 1.81818E+00
 -1     25275 3.85892E+01 7.57356E+01 2.27273E+00
 -1     25276 4.42755E+01 7.22510E+01 2.72727E+00
 -1     25277 3.80217E+01 7.46218E+01 2.72727E+00
 -1     25282 3.85892E+01 7.57356E+01 3.18182E+00
 -1     25283 4.42755E+01 7.22510E+01 3.63636E+00
 -1     25284 3.80217E+01 7.46218E+01 3.63636E+00
 -1     25289 3.85892E+01 7.57356E+01 4.09091E+00
 -1     25290 4.42755E+01 7.22510E+01 4.54545E+00
 -1     25291 3.80217E+01 7.46218E+01 4.54545E+00
 -1     25296 3.85892E+01 7.57356E+01 5.00000E+00
 -1     25297 4.42755E+01 7.22510E+01 5.45455E+00
 -1     25298 3.80217E+01 7.46218E+01 5.45455E+00
 -1     25303 3.85892E+01 7.57356E+01 5.90909E+00
 -1     25304 4.42755E+01 7.22510E+01 6.36364E+00
 -1     25305 3.80217E+01 7.46218E+01 6.36364E+00
 -1     25310 3.85892E+01 7.57356E+01 6.81818E+00
 -1     25311 4.42755E+01 7.22510E+01 7.27273E+00
 -1     25312 3.80217E+01 7.46218E+01 7.27273E+00
 -1     25317 3.85892E+01 7.57356E+01 7.72727E+00
 -1     25318 4.42755E+01 7.22510E+01 8.18182E+00
 -1     25319 3.80217E+01 7.46218E+01 8.18182E+00
 -1     25324 3.85892E+01 7.57356E+01 8.63636E+00
 -1     25325 4.42755E+01 7.22510E+01 9.09091E+00
 -1     25326 3.80217E+01 7.46218E+01 9.09091E+00
 -1     25331 3.85892E+01 7.57356E+01 9.54545E+00
 -1     25335 2.62664E+01 8.08398E+01 4.54545E-01
 -1     25336 3.24278E+01 7.82877E+01 9.09091E-01
 -1     25337 2.58802E+01 7.96510E+01 9.09091E-01
 -1     25342 2.62664E+01 8.08398E+01 1.36364E+00
 -1     25343 3.24278E+01 7.82877E+01 1.81818E+00
 -1     25344 2.58802E+01 7.96510E+01 1.81818E+00
 -1     25349 2.62664E+01 8.08398E+01 2.27273E+00
 -1     25350 3.24278E+01 7.82877E+01 2.72727E+00
 -1     25351 2.58802E+01 7.96510E+01 2.72727E+00
 -1     25356 2.62664E+01 8.08398E+01 3.18182E+00
 -1     25357 3.24278E+01 7.82877E+01 3.63636E+00
 -1     25358 2.58802E+01 7.96510E+01 3.63636E+00
 -1     25363 2.62664E+01 8.08398E+01 4.09091E+00
 -1     25364 3.24278E+01 7.82877E+01 4.54545E+00
 -1     25365 2.58802E+01 7.96510E+01 4.54545E+00
 -1     25370 2.62664E+01 8.08398E+01 5.00000E+00
 -1     25371 3.24278E+01 7.82877E+01 5.45455E+00
 -1     25372 2.58802E+01 7.96510E+01 5.45455E+00
 -1     25377 2.62664E+01 8.08398E+01 5.90909E+00
 -1     25378 3.24278E+01 7.82877E+01 6.36364E+00
 -1     25379 2.58802E+01 7.96510E+01 6.36364E+00
 -1     25384 2.62664E+01 8.08398E+01 6.81818E+00
 -1     25385 3.24278E+01 7.82877E+01 7.27273E+00
 -1     25386 2.58802E+01 7.96510E+01 7.27273E+00
 -1     25391 2.62664E+01 8.08398E+01 7.72727E+00
 -1     25392 3.24278E+01 7.82877E+01 8.18182E+00
 -1     25393 2.58802E+01 7.96510E+01 8.18182E+00
 -1     25398 2.62664E+01 8.08398E+01 8.63636E+00
 -1     25399 3.24278E+01 7.82877E+01 9.09091E+00
 -1     25400 2.58802E+01 7.96510E+01 9.09091E+00
 -1     25405 2.62664E+01 8.08398E+01 9.54545E+00
 -1     25409 1.32969E+01 8.39535E+01 4.54545E-01
 -1     25410 1.97817E+01 8.23967E+01 9.09091E-01
 -1     25411 1.31014E+01 8.27189E+01 9.09091E-01
 -1     25416 1.32969E+01 8.39535E+01 1.36364E+00
 -1     25417 1.97817E+01 8.23967E+01 1.81818E+00
 -1     25418 1.31014E+01 8.27189E+01 1.81818E+00
 -1     25423 1.32969E+01 8.39535E+01 2.27273E+00
 -1     25424 1.97817E+01 8.23967E+01 2.72727E+00
 -1     25425 1.31014E+01 8.27189E+01 2.72727E+00
 -1     25430 1.32969E+01 8.39535E+01 3.18182E+00
 -1     25431 1.97817E+01 8.23967E+01 3.63636E+00
 -1     25432 1.31014E+01 8.27189E+01 3.63636E+00
 -1     25437 1.32969E+01 8.39535E+01 4.09091E+00
 -1     25438 1.97817E+01 8.23967E+01 4.54545E+00
 -1     25439 1.31014E+01 8.27189E+01 4.54545E+00
 -1     25444 1.32969E+01 8.39535E+01 5.00000E+00
 -1     25445 1.97817E+01 8.23967E+01 5.45455E+00
 -1     25446 1.31014E+01 8.27189E+01 5.45455E+00
 -1     25451 1.32969E+01 8.39535E+01 5.90909E+00
 -1     25452 1.97817E+01 8.23967E+01 6.36364E+00
 -1     25453 1.31014E+01 8.27189E+01 6.36364E+00
 -1     25458 1.32969E+01 8.39535E+01 6.81818E+00
 -1     25459 1.97817E+01 8.23967E+01 7.27273E+00
 -1     25460 1.31014E+01 8.27189E+01 7.27273E+00
 -1     25465 1.32969E+01 8.39535E+01 7.72727E+00
 -1     25466 1.97817E+01 8.23967E+01 8.18182E+00
 -1     25467 1.31014E+01 8.27189E+01 8.18182E+00
 -1     25472 1.32969E+01 8.39535E+01 8.63636E+00
 -1     25473 1.97817E+01 8.23967E+01 9.09091E+00
 -1     25474 1.31014E+01 8.27189E+01 9.09091E+00
 -1     25479 1.32969E+01 8.39535E+01 9.54545E+00
 -1     25483 6.64846E+00 8.44768E+01 9.09091E-01
 -1     25487 6.64846E+00 8.44768E+01 1.81818E+00
 -1     25491 6.64846E+00 8.44768E+01 2.72727E+00
 -1     25495 6.64846E+00 8.44768E+01 3.63636E+00
 -1     25499 6.64846E+00 8.44768E+01 4.54545E+00
 -1     25503 6.64846E+00 8.44768E+01 5.45455E+00
 -1     25507 6.64846E+00 8.44768E+01 6.36364E+00
 -1     25511 6.64846E+00 8.44768E+01 7.27273E+00
 -1     25515 6.64846E+00 8.44768E+01 8.18182E+00
 -1     25519 6.64846E+00 8.44768E+01 9.09091E+00
 -1     25525 8.64227E+01 1.36880E+01 4.54545E-01
 -1     25526 8.69614E+01 6.84401E+00 9.09091E-01
 -1     25527 8.51881E+01 1.34925E+01 9.09091E-01
 -1     25532 8.64227E+01 1.36880E+01 1.36364E+00
 -1     25533 8.69614E+01 6.84401E+00 1.81818E+00
 -1     25534 8.51881E+01 1.34925E+01 1.81818E+00
 -1     25539 8.64227E+01 1.36880E+01 2.27273E+00
 -1     25540 8.69614E+01 6.84401E+00 2.72727E+00
 -1     25541 8.51881E+01 1.34925E+01 2.72727E+00
 -1     25546 8.64227E+01 1.36880E+01 3.18182E+00
 -1     25547 8.69614E+01 6.84401E+00 3.63636E+00
 -1     25548 8.51881E+01 1.34925E+01 3.63636E+00
 -1     25553 8.64227E+01 1.36880E+01 4.09091E+00
 -1     25554 8.69614E+01 6.84401E+00 4.54545E+00
 -1     25555 8.51881E+01 1.34925E+01 4.54545E+00
 -1     25560 8.64227E+01 1.36880E+01 5.00000E+00
 -1     25561 8.69614E+01 6.84401E+00 5.45455E+00
 -1     25562 8.51881E+01 1.34925E+01 5.45455E+00
 -1     25567 8.64227E+01 1.36880E+01 5.90909E+00
 -1     25568 8.69614E+01 6.84401E+00 6.36364E+00
 -1     25569 8.51881E+01 1.34925E+01 6.36364E+00
 -1     25574 8.64227E+01 1.36880E+01 6.81818E+00
 -1     25575 8.69614E+01 6.84401E+00 7.27273E+00
 -1     25576 8.51881E+01 1.34925E+01 7.27273E+00
 -1     25581 8.64227E+01 1.36880E+01 7.72727E+00
 -1     25582 8.69614E+01 6.84401E+00 8.18182E+00
 -1     25583 8.51881E+01 1.34925E+01 8.18182E+00
 -1     25588 8.64227E+01 1.36880E+01 8.63636E+00
 -1     25589 8.69614E+01 6.84401E+00 9.09091E+00
 -1     25590 8.51881E+01 1.34925E+01 9.09091E+00
 -1     25595 8.64227E+01 1.36880E+01 9.54545E+00
 -1     25599 8.32174E+01 2.70390E+01 4.54545E-01
 -1     25600 8.48201E+01 2.03635E+01 9.09091E-01
 -1     25601 8.20286E+01 2.66527E+01 9.09091E-01
 -1     25606 8.32174E+01 2.70390E+01 1.36364E+00
 -1     25607 8.48201E+01 2.03635E+01 1.81818E+00
 -1     25608 8.20286E+01 2.66527E+01 1.81818E+00
 -1     25613 8.32174E+01 2.70390E+01 2.27273E+00
 -1     25614 8.48201E+01 2.03635E+01 2.72727E+00
 -1     25615 8.20286E+01 2.66527E+01 2.72727E+00
 -1     25620 8.32174E+01 2.70390E+01 3.18182E+00
 -1     25621 8.48201E+01 2.03635E+01 3.63636E+00
 -1     25622 8.20286E+01 2.66527E+01 3.63636E+00
 -1     25627 8.32174E+01 2.70390E+01 4.09091E+00
 -1     25628 8.48201E+01 2.03635E+01 4.54545E+00
 -1     25629 8.20286E+01 2.66527E+01 4.54545E+00
 -1     25634 8.32174E+01 2.70390E+01 5.00000E+00
 -1     25635 8.48201E+01 2.03635E+01 5.45455E+00
 -1     25636 8.20286E+01 2.66527E+01 5.45455E+00
 -1     25641 8.32174E+01 2.70390E+01 5.90909E+00
 -1     25642 8.48201E+01 2.03635E+01 6.36364E+00
 -1     25643 8.20286E+01 2.66527E+01 6.36364E+00
 -1     25648 8.32174E+01 2.70390E+01 6.81818E+00
 -1     25649 8.48201E+01 2.03635E+01 7.27273E+00
 -1     25650 8.20286E+01 2.66527E+01 7.27273E+00
 -1     25655 8.32174E+01 2.70390E+01 7.72727E+00
 -1     25656 8.48201E+01 2.03635E+01 8.18182E+00
 -1     25657 8.20286E+01 2.66527E+01 8.18182E+00
 -1     25662 8.32174E+01 2.70390E+01 8.63636E+00
 -1     25663 8.48201E+01 2.03635E+01 9.09091E+00
 -1     25664 8.20286E+01 2.66527E+01 9.09091E+00
 -1     25669 8.32174E+01 2.70390E+01 9.54545E+00
 -1     25673 7.79631E+01 3.97242E+01 4.54545E-01
 -1     25674 8.05903E+01 3.33816E+01 9.09091E-01
 -1     25675 7.68493E+01 3.91567E+01 9.09091E-01
 -1     25680 7.79631E+01 3.97242E+01 1.36364E+00
 -1     25681 8.05903E+01 3.33816E+01 1.81818E+00
 -1     25682 7.68493E+01 3.91567E+01 1.81818E+00
 -1     25687 7.79631E+01 3.97242E+01 2.27273E+00
 -1     25688 8.05903E+01 3.33816E+01 2.72727E+00
 -1     25689 7.68493E+01 3.91567E+01 2.72727E+00
 -1     25694 7.79631E+01 3.97242E+01 3.18182E+00
 -1     25695 8.05903E+01 3.33816E+01 3.63636E+00
 -1     25696 7.68493E+01 3.91567E+01 3.63636E+00
 -1     25701 7.79631E+01 3.97242E+01 4.09091E+00
 -1     25702 8.05903E+01 3.33816E+01 4.54545E+00
 -1     25703 7.68493E+01 3.91567E+01 4.54545E+00
 -1     25708 7.79631E+01 3.97242E+01 5.00000E+00
 -1     25709 8.05903E+01 3.33816E+01 5.45455E+00
 -1     25710 7.68493E+01 3.91567E+01 5.45455E+00
 -1     25715 7.79631E+01 3.97242E+01 5.90909E+00
 -1     25716 8.05903E+01 3.33816E+01 6.36364E+00
 -1     25717 7.68493E+01 3.91567E+01 6.36364E+00
 -1     25722 7.79631E+01 3.97242E+01 6.81818E+00
 -1     25723 8.05903E+01 3.33816E+01 7.27273E+00
 -1     25724 7.68493E+01 3.91567E+01 7.27273E+00
 -1     25729 7.79631E+01 3.97242E+01 7.72727E+00
 -1     25730 8.05903E+01 3.33816E+01 8.18182E+00
 -1     25731 7.68493E+01 3.91567E+01 8.18182E+00
 -1     25736 7.79631E+01 3.97242E+01 8.63636E+00
 -1     25737 8.05903E+01 3.33816E+01 9.09091E+00
 -1     25738 7.68493E+01 3.91567E+01 9.09091E+00
 -1     25743 7.79631E+01 3.97242E+01 9.54545E+00
 -1     25747 7.07890E+01 5.14312E+01 4.54545E-01
 -1     25748 7.43760E+01 4.55777E+01 9.09091E-01
 -1     25749 6.97777E+01 5.06965E+01 9.09091E-01
 -1     25754 7.07890E+01 5.14312E+01 1.36364E+00
 -1     25755 7.43760E+01 4.55777E+01 1.81818E+00
 -1     25756 6.97777E+01 5.06965E+01 1.81818E+00
 -1     25761 7.07890E+01 5.14312E+01 2.27273E+00
 -1     25762 7.43760E+01 4.55777E+01 2.72727E+00
 -1     25763 6.97777E+01 5.06965E+01 2.72727E+00
 -1     25768 7.07890E+01 5.14312E+01 3.18182E+00
 -1     25769 7.43760E+01 4.55777E+01 3.63636E+00
 -1     25770 6.97777E+01 5.06965E+01 3.63636E+00
 -1     25775 7.07890E+01 5.14312E+01 4.09091E+00
 -1     25776 7.43760E+01 4.55777E+01 4.54545E+00
 -1     25777 6.97777E+01 5.06965E+01 4.54545E+00
 -1     25782 7.07890E+01 5.14312E+01 5.00000E+00
 -1     25783 7.43760E+01 4.55777E+01 5.45455E+00
 -1     25784 6.97777E+01 5.06965E+01 5.45455E+00
 -1     25789 7.07890E+01 5.14312E+01 5.90909E+00
 -1     25790 7.43760E+01 4.55777E+01 6.36364E+00
 -1     25791 6.97777E+01 5.06965E+01 6.36364E+00
 -1     25796 7.07890E+01 5.14312E+01 6.81818E+00
 -1     25797 7.43760E+01 4.55777E+01 7.27273E+00
 -1     25798 6.97777E+01 5.06965E+01 7.27273E+00
 -1     25803 7.07890E+01 5.14312E+01 7.72727E+00
 -1     25804 7.43760E+01 4.55777E+01 8.18182E+00
 -1     25805 6.97777E+01 5.06965E+01 8.18182E+00
 -1     25810 7.07890E+01 5.14312E+01 8.63636E+00
 -1     25811 7.43760E+01 4.55777E+01 9.09091E+00
 -1     25812 6.97777E+01 5.06965E+01 9.09091E+00
 -1     25817 7.07890E+01 5.14312E+01 9.54545E+00
 -1     25821 6.18718E+01 6.18718E+01 4.54545E-01
 -1     25822 6.63304E+01 5.66515E+01 9.09091E-01
 -1     25823 6.09880E+01 6.09880E+01 9.09091E-01
 -1     25828 6.18718E+01 6.18718E+01 1.36364E+00
 -1     25829 6.63304E+01 5.66515E+01 1.81818E+00
 -1     25830 6.09880E+01 6.09880E+01 1.81818E+00
 -1     25835 6.18718E+01 6.18718E+01 2.27273E+00
 -1     25836 6.63304E+01 5.66515E+01 2.72727E+00
 -1     25837 6.09880E+01 6.09880E+01 2.72727E+00
 -1     25842 6.18718E+01 6.18718E+01 3.18182E+00
 -1     25843 6.63304E+01 5.66515E+01 3.63636E+00
 -1     25844 6.09880E+01 6.09880E+01 3.63636E+00
 -1     25849 6.18718E+01 6.18718E+01 4.09091E+00
 -1     25850 6.63304E+01 5.66515E+01 4.54545E+00
 -1     25851 6.09880E+01 6.09880E+01 4.54545E+00
 -1     25856 6.18718E+01 6.18718E+01 5.00000E+00
 -1     25857 6.63304E+01 5.66515E+01 5.45455E+00
 -1     25858 6.09880E+01 6.09880E+01 5.45455E+00
 -1     25863 6.18718E+01 6.18718E+01 5.90909E+00
 -1     25864 6.63304E+01 5.66515E+01 6.36364E+00
 -1     25865 6.09880E+01 6.09880E+01 6.36364E+00
 -1     25870 6.18718E+01 6.18718E+01 6.81818E+00
 -1     25871 6.63304E+01 5.66515E+01 7.27273E+00
 -1     25872 6.09880E+01 6.09880E+01 7.27273E+00
 -1     25877 6.18718E+01 6.18718E+01 7.72727E+00
 -1     25878 6.63304E+01 5.66515E+01 8.18182E+00
 -1     25879 6.09880E+01 6.09880E+01 8.18182E+00
 -1     25884 6.18718E+01 6.18718E+01 8.63636E+00
 -1     25885 6.63304E+01 5.66515E+01 9.09091E+00
 -1     25886 6.09880E+01 6.09880E+01 9.09091E+00
 -1     25891 6.18718E+01 6.18718E+01 9.54545E+00
 -1     25895 5.14312E+01 7.07890E+01 4.54545E-01
 -1     25896 5.66515E+01 6.63304E+01 9.09091E-01
 -1     25897 5.06965E+01 6.97777E+01 9.09091E-01
 -1     25902 5.14312E+01 7.07890E+01 1.36364E+00
 -1     25903 5.66515E+01 6.63304E+01 1.81818E+00
 -1     25904 5.06965E+01 6.97777E+01 1.81818E+00
 -1     25909 5.14312E+01 7.07890E+01 2.27273E+00
 -1     25910 5.66515E+01 6.63304E+01 2.72727E+00
 -1     25911 5.06965E+01 6.97777E+01 2.72727E+00
 -1     25916 5.14312E+01 7.07890E+01 3.18182E+00
 -1     25917 5.66515E+01 6.63304E+01 3.63636E+00
 -1     25918 5.06965E+01 6.97777E+01 3.63636E+00
 -1     25923 5.14312E+01 7.07890E+01 4.09091E+00
 -1     25924 5.66515E+01 6.63304E+01 4.54545E+00
 -1     25925 5.06965E+01 6.97777E+01 4.54545E+00
 -1     25930 5.14312E+01 7.07890E+01 5.00000E+00
 -1     25931 5.66515E+01 6.63304E+01 5.45455E+00
 -1     25932 5.06965E+01 6.97777E+01 5.45455E+00
 -1     25937 5.14312E+01 7.07890E+01 5.90909E+00
 -1     25938 5.66515E+01 6.63304E+01 6.36364E+00
 -1     25939 5.06965E+01 6.97777E+01 6.36364E+00
 -1     25944 5.14312E+01 7.07890E+01 6.81818E+00
 -1     25945 5.66515E+01 6.63304E+01 7.27273E+00
 -1     25946 5.06965E+01 6.97777E+01 7.27273E+00
 -1     25951 5.14312E+01 7.07890E+01 7.72727E+00
 -1     25952 5.66515E+01 6.63304E+01 8.18182E+00
 -1     25953 5.06965E+01 6.97777E+01 8.18182E+00
 -1     25958 5.14312E+01 7.07890E+01 8.63636E+00
 -1     25959 5.66515E+01 6.63304E+01 9.09091E+00
 -1     25960 5.06965E+01 6.97777E+01 9.09091E+00
 -1     25965 5.14312E+01 7.07890E+01 9.54545E+00
 -1     25969 3.97242E+01 7.79631E+01 4.54545E-01
 -1     25970 4.55777E+01 7.43760E+01 9.09091E-01
 -1     25971 3.91567E+01 7.68493E+01 9.09091E-01
 -1     25976 3.97242E+01 7.79631E+01 1.36364E+00
 -1     25977 4.55777E+01 7.43760E+01 1.81818E+00
 -1     25978 3.91567E+01 7.68493E+01 1.81818E+00
 -1     25983 3.97242E+01 7.79631E+01 2.27273E+00
 -1     25984 4.55777E+01 7.43760E+01 2.72727E+00
 -1     25985 3.91567E+01 7.68493E+01 2.72727E+00
 -1     25990 3.97242E+01 7.79631E+01 3.18182E+00
 -1     25991 4.55777E+01 7.43760E+01 3.63636E+00
 -1     25992 3.91567E+01 7.68493E+01 3.63636E+00
 -1     25997 3.97242E+01 7.79631E+01 4.09091E+00
 -1     25998 4.55777E+01 7.43760E+01 4.54545E+00
 -1     25999 3.91567E+01 7.68493E+01 4.54545E+00
 -1     26004 3.97242E+01 7.79631E+01 5.00000E+00
 -1     26005 4.55777E+01 7.43760E+01 5.45455E+00
 -1     26006 3.91567E+01 7.68493E+01 5.45455E+00
 -1     26011 3.97242E+01 7.79631E+01 5.90909E+00
 -1     26012 4.55777E+01 7.43760E+01 6.36364E+00
 -1     26013 3.91567E+01 7.68493E+01 6.36364E+00
 -1     26018 3.97242E+01 7.79631E+01 6.81818E+00
 -1     26019 4.55777E+01 7.43760E+01 7.27273E+00
 -1     26020 3.91567E+01 7.68493E+01 7.27273E+00
 -1     26025 3.97242E+01 7.79631E+01 7.72727E+00
 -1     26026 4.55777E+01 7.43760E+01 8.18182E+00
 -1     26027 3.91567E+01 7.68493E+01 8.18182E+00
 -1     26032 3.97242E+01 7.79631E+01 8.63636E+00
 -1     26033 4.55777E+01 7.43760E+01 9.09091E+00
 -1     26034 3.91567E+01 7.68493E+01 9.09091E+00
 -1     26039 3.97242E+01 7.79631E+01 9.54545E+00
 -1     26043 2.70390E+01 8.32174E+01 4.54545E-01
 -1     26044 3.33816E+01 8.05903E+01 9.09091E-01
 -1     26045 2.66527E+01 8.20286E+01 9.09091E-01
 -1     26050 2.70390E+01 8.32174E+01 1.36364E+00
 -1     26051 3.33816E+01 8.05903E+01 1.81818E+00
 -1     26052 2.66527E+01 8.20286E+01 1.81818E+00
 -1     26057 2.70390E+01 8.32174E+01 2.27273E+00
 -1     26058 3.33816E+01 8.05903E+01 2.72727E+00
 -1     26059 2.66527E+01 8.20286E+01 2.72727E+00
 -1     26064 2.70390E+01 8.32174E+01 3.18182E+00
 -1     26065 3.33816E+01 8.05903E+01 3.63636E+00
 -1     26066 2.66527E+01 8.20286E+01 3.63636E+00
 -1     26071 2.70390E+01 8.32174E+01 4.09091E+00
 -1     26072 3.33816E+01 8.05903E+01 4.54545E+00
 -1     26073 2.66527E+01 8.20286E+01 4.54545E+00
 -1     26078 2.70390E+01 8.32174E+01 5.00000E+00
 -1     26079 3.33816E+01 8.05903E+01 5.45455E+00
 -1     26080 2.66527E+01 8.20286E+01 5.45455E+00
 -1     26085 2.70390E+01 8.32174E+01 5.90909E+00
 -1     26086 3.33816E+01 8.05903E+01 6.36364E+00
 -1     26087 2.66527E+01 8.20286E+01 6.36364E+00
 -1     26092 2.70390E+01 8.32174E+01 6.81818E+00
 -1     26093 3.33816E+01 8.05903E+01 7.27273E+00
 -1     26094 2.66527E+01 8.20286E+01 7.27273E+00
 -1     26099 2.70390E+01 8.32174E+01 7.72727E+00
 -1     26100 3.33816E+01 8.05903E+01 8.18182E+00
 -1     26101 2.66527E+01 8.20286E+01 8.18182E+00
 -1     26106 2.70390E+01 8.32174E+01 8.63636E+00
 -1     26107 3.33816E+01 8.05903E+01 9.09091E+00
 -1     26108 2.66527E+01 8.20286E+01 9.09091E+00
 -1     26113 2.70390E+01 8.32174E+01 9.54545E+00
 -1     26117 1.36880E+01 8.64227E+01 4.54545E-01
 -1     26118 2.03635E+01 8.48201E+01 9.09091E-01
 -1     26119 1.34925E+01 8.51881E+01 9.09091E-01
 -1     26124 1.36880E+01 8.64227E+01 1.36364E+00
 -1     26125 2.03635E+01 8.48201E+01 1.81818E+00
 -1     26126 1.34925E+01 8.51881E+01 1.81818E+00
 -1     26131 1.36880E+01 8.64227E+01 2.27273E+00
 -1     26132 2.03635E+01 8.48201E+01 2.72727E+00
 -1     26133 1.34925E+01 8.51881E+01 2.72727E+00
 -1     26138 1.36880E+01 8.64227E+01 3.18182E+00
 -1     26139 2.03635E+01 8.48201E+01 3.63636E+00
 -1     26140 1.34925E+01 8.51881E+01 3.63636E+00
 -1     26145 1.36880E+01 8.64227E+01 4.09091E+00
 -1     26146 2.03635E+01 8.48201E+01 4.54545E+00
 -1     26147 1.34925E+01 8.51881E+01 4.54545E+00
 -1     26152 1.36880E+01 8.64227E+01 5.00000E+00
 -1     26153 2.03635E+01 8.48201E+01 5.45455E+00
 -1     26154 1.34925E+01 8.51881E+01 5.45455E+00
 -1     26159 1.36880E+01 8.64227E+01 5.90909E+00
 -1     26160 2.03635E+01 8.48201E+01 6.36364E+00
 -1     26161 1.34925E+01 8.51881E+01 6.36364E+00
 -1     26166 1.36880E+01 8.64227E+01 6.81818E+00
 -1     26167 2.03635E+01 8.48201E+01 7.27273E+00
 -1     26168 1.34925E+01 8.51881E+01 7.27273E+00
 -1     26173 1.36880E+01 8.64227E+01 7.72727E+00
 -1     26174 2.03635E+01 8.48201E+01 8.18182E+00
 -1     26175 1.34925E+01 8.51881E+01 8.18182E+00
 -1     26180 1.36880E+01 8.64227E+01 8.63636E+00
 -1     26181 2.03635E+01 8.48201E+01 9.09091E+00
 -1     26182 1.34925E+01 8.51881E+01 9.09091E+00
 -1     26187 1.36880E+01 8.64227E+01 9.54545E+00
 -1     26191 6.84401E+00 8.69614E+01 9.09091E-01
 -1     26195 6.84401E+00 8.69614E+01 1.81818E+00
 -1     26199 6.84401E+00 8.69614E+01 2.72727E+00
 -1     26203 6.84401E+00 8.69614E+01 3.63636E+00
 -1     26207 6.84401E+00 8.69614E+01 4.54545E+00
 -1     26211 6.84401E+00 8.69614E+01 5.45455E+00
 -1     26215 6.84401E+00 8.69614E+01 6.36364E+00
 -1     26219 6.84401E+00 8.69614E+01 7.27273E+00
 -1     26223 6.84401E+00 8.69614E+01 8.18182E+00
 -1     26227 6.84401E+00 8.69614E+01 9.09091E+00
 -1     26233 8.88920E+01 1.40791E+01 4.54545E-01
 -1     26234 8.94460E+01 7.03955E+00 9.09091E-01
 -1     26235 8.76573E+01 1.38836E+01 9.09091E-01
 -1     26240 8.88920E+01 1.40791E+01 1.36364E+00
 -1     26241 8.94460E+01 7.03955E+00 1.81818E+00
 -1     26242 8.76573E+01 1.38836E+01 1.81818E+00
 -1     26247 8.88920E+01 1.40791E+01 2.27273E+00
 -1     26248 8.94460E+01 7.03955E+00 2.72727E+00
 -1     26249 8.76573E+01 1.38836E+01 2.72727E+00
 -1     26254 8.88920E+01 1.40791E+01 3.18182E+00
 -1     26255 8.94460E+01 7.03955E+00 3.63636E+00
 -1     26256 8.76573E+01 1.38836E+01 3.63636E+00
 -1     26261 8.88920E+01 1.40791E+01 4.09091E+00
 -1     26262 8.94460E+01 7.03955E+00 4.54545E+00
 -1     26263 8.76573E+01 1.38836E+01 4.54545E+00
 -1     26268 8.88920E+01 1.40791E+01 5.00000E+00
 -1     26269 8.94460E+01 7.03955E+00 5.45455E+00
 -1     26270 8.76573E+01 1.38836E+01 5.45455E+00
 -1     26275 8.88920E+01 1.40791E+01 5.90909E+00
 -1     26276 8.94460E+01 7.03955E+00 6.36364E+00
 -1     26277 8.76573E+01 1.38836E+01 6.36364E+00
 -1     26282 8.88920E+01 1.40791E+01 6.81818E+00
 -1     26283 8.94460E+01 7.03955E+00 7.27273E+00
 -1     26284 8.76573E+01 1.38836E+01 7.27273E+00
 -1     26289 8.88920E+01 1.40791E+01 7.72727E+00
 -1     26290 8.94460E+01 7.03955E+00 8.18182E+00
 -1     26291 8.76573E+01 1.38836E+01 8.18182E+00
 -1     26296 8.88920E+01 1.40791E+01 8.63636E+00
 -1     26297 8.94460E+01 7.03955E+00 9.09091E+00
 -1     26298 8.76573E+01 1.38836E+01 9.09091E+00
 -1     26303 8.88920E+01 1.40791E+01 9.54545E+00
 -1     26307 8.55951E+01 2.78115E+01 4.54545E-01
 -1     26308 8.72435E+01 2.09453E+01 9.09091E-01
 -1     26309 8.44063E+01 2.74253E+01 9.09091E-01
 -1     26314 8.55951E+01 2.78115E+01 1.36364E+00
 -1     26315 8.72435E+01 2.09453E+01 1.81818E+00
 -1     26316 8.44063E+01 2.74253E+01 1.81818E+00
 -1     26321 8.55951E+01 2.78115E+01 2.27273E+00
 -1     26322 8.72435E+01 2.09453E+01 2.72727E+00
 -1     26323 8.44063E+01 2.74253E+01 2.72727E+00
 -1     26328 8.55951E+01 2.78115E+01 3.18182E+00
 -1     26329 8.72435E+01 2.09453E+01 3.63636E+00
 -1     26330 8.44063E+01 2.74253E+01 3.63636E+00
 -1     26335 8.55951E+01 2.78115E+01 4.09091E+00
 -1     26336 8.72435E+01 2.09453E+01 4.54545E+00
 -1     26337 8.44063E+01 2.74253E+01 4.54545E+00
 -1     26342 8.55951E+01 2.78115E+01 5.00000E+00
 -1     26343 8.72435E+01 2.09453E+01 5.45455E+00
 -1     26344 8.44063E+01 2.74253E+01 5.45455E+00
 -1     26349 8.55951E+01 2.78115E+01 5.90909E+00
 -1     26350 8.72435E+01 2.09453E+01 6.36364E+00
 -1     26351 8.44063E+01 2.74253E+01 6.36364E+00
 -1     26356 8.55951E+01 2.78115E+01 6.81818E+00
 -1     26357 8.72435E+01 2.09453E+01 7.27273E+00
 -1     26358 8.44063E+01 2.74253E+01 7.27273E+00
 -1     26363 8.55951E+01 2.78115E+01 7.72727E+00
 -1     26364 8.72435E+01 2.09453E+01 8.18182E+00
 -1     26365 8.44063E+01 2.74253E+01 8.18182E+00
 -1     26370 8.55951E+01 2.78115E+01 8.63636E+00
 -1     26371 8.72435E+01 2.09453E+01 9.09091E+00
 -1     26372 8.44063E+01 2.74253E+01 9.09091E+00
 -1     26377 8.55951E+01 2.78115E+01 9.54545E+00
 -1     26381 8.01906E+01 4.08591E+01 4.54545E-01
 -1     26382 8.28928E+01 3.43353E+01 9.09091E-01
 -1     26383 7.90768E+01 4.02917E+01 9.09091E-01
 -1     26388 8.01906E+01 4.08591E+01 1.36364E+00
 -1     26389 8.28928E+01 3.43353E+01 1.81818E+00
 -1     26390 7.90768E+01 4.02917E+01 1.81818E+00
 -1     26395 8.01906E+01 4.08591E+01 2.27273E+00
 -1     26396 8.28928E+01 3.43353E+01 2.72727E+00
 -1     26397 7.90768E+01 4.02917E+01 2.72727E+00
 -1     26402 8.01906E+01 4.08591E+01 3.18182E+00
 -1     26403 8.28928E+01 3.43353E+01 3.63636E+00
 -1     26404 7.90768E+01 4.02917E+01 3.63636E+00
 -1     26409 8.01906E+01 4.08591E+01 4.09091E+00
 -1     26410 8.28928E+01 3.43353E+01 4.54545E+00
 -1     26411 7.90768E+01 4.02917E+01 4.54545E+00
 -1     26416 8.01906E+01 4.08591E+01 5.00000E+00
 -1     26417 8.28928E+01 3.43353E+01 5.45455E+00
 -1     26418 7.90768E+01 4.02917E+01 5.45455E+00
 -1     26423 8.01906E+01 4.08591E+01 5.90909E+00
 -1     26424 8.28928E+01 3.43353E+01 6.36364E+00
 -1     26425 7.90768E+01 4.02917E+01 6.36364E+00
 -1     26430 8.01906E+01 4.08591E+01 6.81818E+00
 -1     26431 8.28928E+01 3.43353E+01 7.27273E+00
 -1     26432 7.90768E+01 4.02917E+01 7.27273E+00
 -1     26437 8.01906E+01 4.08591E+01 7.72727E+00
 -1     26438 8.28928E+01 3.43353E+01 8.18182E+00
 -1     26439 7.90768E+01 4.02917E+01 8.18182E+00
 -1     26444 8.01906E+01 4.08591E+01 8.63636E+00
 -1     26445 8.28928E+01 3.43353E+01 9.09091E+00
 -1     26446 7.90768E+01 4.02917E+01 9.09091E+00
 -1     26451 8.01906E+01 4.08591E+01 9.54545E+00
 -1     26455 7.28115E+01 5.29007E+01 4.54545E-01
 -1     26456 7.65011E+01 4.68799E+01 9.09091E-01
 -1     26457 7.18003E+01 5.21659E+01 9.09091E-01
 -1     26462 7.28115E+01 5.29007E+01 1.36364E+00
 -1     26463 7.65011E+01 4.68799E+01 1.81818E+00
 -1     26464 7.18003E+01 5.21659E+01 1.81818E+00
 -1     26469 7.28115E+01 5.29007E+01 2.27273E+00
 -1     26470 7.65011E+01 4.68799E+01 2.72727E+00
 -1     26471 7.18003E+01 5.21659E+01 2.72727E+00
 -1     26476 7.28115E+01 5.29007E+01 3.18182E+00
 -1     26477 7.65011E+01 4.68799E+01 3.63636E+00
 -1     26478 7.18003E+01 5.21659E+01 3.63636E+00
 -1     26483 7.28115E+01 5.29007E+01 4.09091E+00
 -1     26484 7.65011E+01 4.68799E+01 4.54545E+00
 -1     26485 7.18003E+01 5.21659E+01 4.54545E+00
 -1     26490 7.28115E+01 5.29007E+01 5.00000E+00
 -1     26491 7.65011E+01 4.68799E+01 5.45455E+00
 -1     26492 7.18003E+01 5.21659E+01 5.45455E+00
 -1     26497 7.28115E+01 5.29007E+01 5.90909E+00
 -1     26498 7.65011E+01 4.68799E+01 6.36364E+00
 -1     26499 7.18003E+01 5.21659E+01 6.36364E+00
 -1     26504 7.28115E+01 5.29007E+01 6.81818E+00
 -1     26505 7.65011E+01 4.68799E+01 7.27273E+00
 -1     26506 7.18003E+01 5.21659E+01 7.27273E+00
 -1     26511 7.28115E+01 5.29007E+01 7.72727E+00
 -1     26512 7.65011E+01 4.68799E+01 8.18182E+00
 -1     26513 7.18003E+01 5.21659E+01 8.18182E+00
 -1     26518 7.28115E+01 5.29007E+01 8.63636E+00
 -1     26519 7.65011E+01 4.68799E+01 9.09091E+00
 -1     26520 7.18003E+01 5.21659E+01 9.09091E+00
 -1     26525 7.28115E+01 5.29007E+01 9.54545E+00
 -1     26529 6.36396E+01 6.36396E+01 4.54545E-01
 -1     26530 6.82256E+01 5.82701E+01 9.09091E-01
 -1     26531 6.27557E+01 6.27557E+01 9.09091E-01
 -1     26536 6.36396E+01 6.36396E+01 1.36364E+00
 -1     26537 6.82256E+01 5.82701E+01 1.81818E+00
 -1     26538 6.27557E+01 6.27557E+01 1.81818E+00
 -1     26543 6.36396E+01 6.36396E+01 2.27273E+00
 -1     26544 6.82256E+01 5.82701E+01 2.72727E+00
 -1     26545 6.27557E+01 6.27557E+01 2.72727E+00
 -1     26550 6.36396E+01 6.36396E+01 3.18182E+00
 -1     26551 6.82256E+01 5.82701E+01 3.63636E+00
 -1     26552 6.27557E+01 6.27557E+01 3.63636E+00
 -1     26557 6.36396E+01 6.36396E+01 4.09091E+00
 -1     26558 6.82256E+01 5.82701E+01 4.54545E+00
 -1     26559 6.27557E+01 6.27557E+01 4.54545E+00
 -1     26564 6.36396E+01 6.36396E+01 5.00000E+00
 -1     26565 6.82256E+01 5.82701E+01 5.45455E+00
 -1     26566 6.27557E+01 6.27557E+01 5.45455E+00
 -1     26571 6.36396E+01 6.36396E+01 5.90909E+00
 -1     26572 6.82256E+01 5.82701E+01 6.36364E+00
 -1     26573 6.27557E+01 6.27557E+01 6.36364E+00
 -1     26578 6.36396E+01 6.36396E+01 6.81818E+00
 -1     26579 6.82256E+01 5.82701E+01 7.27273E+00
 -1     26580 6.27557E+01 6.27557E+01 7.27273E+00
 -1     26585 6.36396E+01 6.36396E+01 7.72727E+00
 -1     26586 6.82256E+01 5.82701E+01 8.18182E+00
 -1     26587 6.27557E+01 6.27557E+01 8.18182E+00
 -1     26592 6.36396E+01 6.36396E+01 8.63636E+00
 -1     26593 6.82256E+01 5.82701E+01 9.09091E+00
 -1     26594 6.27557E+01 6.27557E+01 9.09091E+00
 -1     26599 6.36396E+01 6.36396E+01 9.54545E+00
 -1     26603 5.29007E+01 7.28115E+01 4.54545E-01
 -1     26604 5.82701E+01 6.82256E+01 9.09091E-01
 -1     26605 5.21659E+01 7.18003E+01 9.09091E-01
 -1     26610 5.29007E+01 7.28115E+01 1.36364E+00
 -1     26611 5.82701E+01 6.82256E+01 1.81818E+00
 -1     26612 5.21659E+01 7.18003E+01 1.81818E+00
 -1     26617 5.29007E+01 7.28115E+01 2.27273E+00
 -1     26618 5.82701E+01 6.82256E+01 2.72727E+00
 -1     26619 5.21659E+01 7.18003E+01 2.72727E+00
 -1     26624 5.29007E+01 7.28115E+01 3.18182E+00
 -1     26625 5.82701E+01 6.82256E+01 3.63636E+00
 -1     26626 5.21659E+01 7.18003E+01 3.63636E+00
 -1     26631 5.29007E+01 7.28115E+01 4.09091E+00
 -1     26632 5.82701E+01 6.82256E+01 4.54545E+00
 -1     26633 5.21659E+01 7.18003E+01 4.54545E+00
 -1     26638 5.29007E+01 7.28115E+01 5.00000E+00
 -1     26639 5.82701E+01 6.82256E+01 5.45455E+00
 -1     26640 5.21659E+01 7.18003E+01 5.45455E+00
 -1     26645 5.29007E+01 7.28115E+01 5.90909E+00
 -1     26646 5.82701E+01 6.82256E+01 6.36364E+00
 -1     26647 5.21659E+01 7.18003E+01 6.36364E+00
 -1     26652 5.29007E+01 7.28115E+01 6.81818E+00
 -1     26653 5.82701E+01 6.82256E+01 7.27273E+00
 -1     26654 5.21659E+01 7.18003E+01 7.27273E+00
 -1     26659 5.29007E+01 7.28115E+01 7.72727E+00
 -1     26660 5.82701E+01 6.82256E+01 8.18182E+00
 -1     26661 5.21659E+01 7.18003E+01 8.18182E+00
 -1     26666 5.29007E+01 7.28115E+01 8.63636E+00
 -1     26667 5.82701E+01 6.82256E+01 9.09091E+00
 -1     26668 5.21659E+01 7.18003E+01 9.09091E+00
 -1     26673 5.29007E+01 7.28115E+01 9.54545E+00
 -1     26677 4.08591E+01 8.01906E+01 4.54545E-01
 -1     26678 4.68799E+01 7.65011E+01 9.09091E-01
 -1     26679 4.02917E+01 7.90768E+01 9.09091E-01
 -1     26684 4.08591E+01 8.01906E+01 1.36364E+00
 -1     26685 4.68799E+01 7.65011E+01 1.81818E+00
 -1     26686 4.02917E+01 7.90768E+01 1.81818E+00
 -1     26691 4.08591E+01 8.01906E+01 2.27273E+00
 -1     26692 4.68799E+01 7.65011E+01 2.72727E+00
 -1     26693 4.02917E+01 7.90768E+01 2.72727E+00
 -1     26698 4.08591E+01 8.01906E+01 3.18182E+00
 -1     26699 4.68799E+01 7.65011E+01 3.63636E+00
 -1     26700 4.02917E+01 7.90768E+01 3.63636E+00
 -1     26705 4.08591E+01 8.01906E+01 4.09091E+00
 -1     26706 4.68799E+01 7.65011E+01 4.54545E+00
 -1     26707 4.02917E+01 7.90768E+01 4.54545E+00
 -1     26712 4.08591E+01 8.01906E+01 5.00000E+00
 -1     26713 4.68799E+01 7.65011E+01 5.45455E+00
 -1     26714 4.02917E+01 7.90768E+01 5.45455E+00
 -1     26719 4.08591E+01 8.01906E+01 5.90909E+00
 -1     26720 4.68799E+01 7.65011E+01 6.36364E+00
 -1     26721 4.02917E+01 7.90768E+01 6.36364E+00
 -1     26726 4.08591E+01 8.01906E+01 6.81818E+00
 -1     26727 4.68799E+01 7.65011E+01 7.27273E+00
 -1     26728 4.02917E+01 7.90768E+01 7.27273E+00
 -1     26733 4.08591E+01 8.01906E+01 7.72727E+00
 -1     26734 4.68799E+01 7.65011E+01 8.18182E+00
 -1     26735 4.02917E+01 7.90768E+01 8.18182E+00
 -1     26740 4.08591E+01 8.01906E+01 8.63636E+00
 -1     26741 4.68799E+01 7.65011E+01 9.09091E+00
 -1     26742 4.02917E+01 7.90768E+01 9.09091E+00
 -1     26747 4.08591E+01 8.01906E+01 9.54545E+00
 -1     26751 2.78115E+01 8.55951E+01 4.54545E-01
 -1     26752 3.43353E+01 8.28928E+01 9.09091E-01
 -1     26753 2.74253E+01 8.44063E+01 9.09091E-01
 -1     26758 2.78115E+01 8.55951E+01 1.36364E+00
 -1     26759 3.43353E+01 8.28928E+01 1.81818E+00
 -1     26760 2.74253E+01 8.44063E+01 1.81818E+00
 -1     26765 2.78115E+01 8.55951E+01 2.27273E+00
 -1     26766 3.43353E+01 8.28928E+01 2.72727E+00
 -1     26767 2.74253E+01 8.44063E+01 2.72727E+00
 -1     26772 2.78115E+01 8.55951E+01 3.18182E+00
 -1     26773 3.43353E+01 8.28928E+01 3.63636E+00
 -1     26774 2.74253E+01 8.44063E+01 3.63636E+00
 -1     26779 2.78115E+01 8.55951E+01 4.09091E+00
 -1     26780 3.43353E+01 8.28928E+01 4.54545E+00
 -1     26781 2.74253E+01 8.44063E+01 4.54545E+00
 -1     26786 2.78115E+01 8.55951E+01 5.00000E+00
 -1     26787 3.43353E+01 8.28928E+01 5.45455E+00
 -1     26788 2.74253E+01 8.44063E+01 5.45455E+00
 -1     26793 2.78115E+01 8.55951E+01 5.90909E+00
 -1     26794 3.43353E+01 8.28928E+01 6.36364E+00
 -1     26795 2.74253E+01 8.44063E+01 6.36364E+00
 -1     26800 2.78115E+01 8.55951E+01 6.81818E+00
 -1     26801 3.43353E+01 8.28928E+01 7.27273E+00
 -1     26802 2.74253E+01 8.44063E+01 7.27273E+00
 -1     26807 2.78115E+01 8.55951E+01 7.72727E+00
 -1     26808 3.43353E+01 8.28928E+01 8.18182E+00
 -1     26809 2.74253E+01 8.44063E+01 8.18182E+00
 -1     26814 2.78115E+01 8.55951E+01 8.63636E+00
 -1     26815 3.43353E+01 8.28928E+01 9.09091E+00
 -1     26816 2.74253E+01 8.44063E+01 9.09091E+00
 -1     26821 2.78115E+01 8.55951E+01 9.54545E+00
 -1     26825 1.40791E+01 8.88920E+01 4.54545E-01
 -1     26826 2.09453E+01 8.72435E+01 9.09091E-01
 -1     26827 1.38836E+01 8.76573E+01 9.09091E-01
 -1     26832 1.40791E+01 8.88920E+01 1.36364E+00
 -1     26833 2.09453E+01 8.72435E+01 1.81818E+00
 -1     26834 1.38836E+01 8.76573E+01 1.81818E+00
 -1     26839 1.40791E+01 8.88920E+01 2.27273E+00
 -1     26840 2.09453E+01 8.72435E+01 2.72727E+00
 -1     26841 1.38836E+01 8.76573E+01 2.72727E+00
 -1     26846 1.40791E+01 8.88920E+01 3.18182E+00
 -1     26847 2.09453E+01 8.72435E+01 3.63636E+00
 -1     26848 1.38836E+01 8.76573E+01 3.63636E+00
 -1     26853 1.40791E+01 8.88920E+01 4.09091E+00
 -1     26854 2.09453E+01 8.72435E+01 4.54545E+00
 -1     26855 1.38836E+01 8.76573E+01 4.54545E+00
 -1     26860 1.40791E+01 8.88920E+01 5.00000E+00
 -1     26861 2.09453E+01 8.72435E+01 5.45455E+00
 -1     26862 1.38836E+01 8.76573E+01 5.45455E+00
 -1     26867 1.40791E+01 8.88920E+01 5.90909E+00
 -1     26868 2.09453E+01 8.72435E+01 6.36364E+00
 -1     26869 1.38836E+01 8.76573E+01 6.36364E+00
 -1     26874 1.40791E+01 8.88920E+01 6.81818E+00
 -1     26875 2.09453E+01 8.72435E+01 7.27273E+00
 -1     26876 1.38836E+01 8.76573E+01 7.27273E+00
 -1     26881 1.40791E+01 8.88920E+01 7.72727E+00
 -1     26882 2.09453E+01 8.72435E+01 8.18182E+00
 -1     26883 1.38836E+01 8.76573E+01 8.18182E+00
 -1     26888 1.40791E+01 8.88920E+01 8.63636E+00
 -1     26889 2.09453E+01 8.72435E+01 9.09091E+00
 -1     26890 1.38836E+01 8.76573E+01 9.09091E+00
 -1     26895 1.40791E+01 8.88920E+01 9.54545E+00
 -1     26899 7.03955E+00 8.94460E+01 9.09091E-01
 -1     26903 7.03955E+00 8.94460E+01 1.81818E+00
 -1     26907 7.03955E+00 8.94460E+01 2.72727E+00
 -1     26911 7.03955E+00 8.94460E+01 3.63636E+00
 -1     26915 7.03955E+00 8.94460E+01 4.54545E+00
 -1     26919 7.03955E+00 8.94460E+01 5.45455E+00
 -1     26923 7.03955E+00 8.94460E+01 6.36364E+00
 -1     26927 7.03955E+00 8.94460E+01 7.27273E+00
 -1     26931 7.03955E+00 8.94460E+01 8.18182E+00
 -1     26935 7.03955E+00 8.94460E+01 9.09091E+00
 -1     26941 9.13612E+01 1.44702E+01 4.54545E-01
 -1     26942 9.19306E+01 7.23509E+00 9.09091E-01
 -1     26943 9.01266E+01 1.42746E+01 9.09091E-01
 -1     26948 9.13612E+01 1.44702E+01 1.36364E+00
 -1     26949 9.19306E+01 7.23509E+00 1.81818E+00
 -1     26950 9.01266E+01 1.42746E+01 1.81818E+00
 -1     26955 9.13612E+01 1.44702E+01 2.27273E+00
 -1     26956 9.19306E+01 7.23509E+00 2.72727E+00
 -1     26957 9.01266E+01 1.42746E+01 2.72727E+00
 -1     26962 9.13612E+01 1.44702E+01 3.18182E+00
 -1     26963 9.19306E+01 7.23509E+00 3.63636E+00
 -1     26964 9.01266E+01 1.42746E+01 3.63636E+00
 -1     26969 9.13612E+01 1.44702E+01 4.09091E+00
 -1     26970 9.19306E+01 7.23509E+00 4.54545E+00
 -1     26971 9.01266E+01 1.42746E+01 4.54545E+00
 -1     26976 9.13612E+01 1.44702E+01 5.00000E+00
 -1     26977 9.19306E+01 7.23509E+00 5.45455E+00
 -1     26978 9.01266E+01 1.42746E+01 5.45455E+00
 -1     26983 9.13612E+01 1.44702E+01 5.90909E+00
 -1     26984 9.19306E+01 7.23509E+00 6.36364E+00
 -1     26985 9.01266E+01 1.42746E+01 6.36364E+00
 -1     26990 9.13612E+01 1.44702E+01 6.81818E+00
 -1     26991 9.19306E+01 7.23509E+00 7.27273E+00
 -1     26992 9.01266E+01 1.42746E+01 7.27273E+00
 -1     26997 9.13612E+01 1.44702E+01 7.72727E+00
 -1     26998 9.19306E+01 7.23509E+00 8.18182E+00
 -1     26999 9.01266E+01 1.42746E+01 8.18182E+00
 -1     27004 9.13612E+01 1.44702E+01 8.63636E+00
 -1     27005 9.19306E+01 7.23509E+00 9.09091E+00
 -1     27006 9.01266E+01 1.42746E+01 9.09091E+00
 -1     27011 9.13612E+01 1.44702E+01 9.54545E+00
 -1     27015 8.79727E+01 2.85841E+01 4.54545E-01
 -1     27016 8.96669E+01 2.15271E+01 9.09091E-01
 -1     27017 8.67839E+01 2.81978E+01 9.09091E-01
 -1     27022 8.79727E+01 2.85841E+01 1.36364E+00
 -1     27023 8.96669E+01 2.15271E+01 1.81818E+00
 -1     27024 8.67839E+01 2.81978E+01 1.81818E+00
 -1     27029 8.79727E+01 2.85841E+01 2.27273E+00
 -1     27030 8.96669E+01 2.15271E+01 2.72727E+00
 -1     27031 8.67839E+01 2.81978E+01 2.72727E+00
 -1     27036 8.79727E+01 2.85841E+01 3.18182E+00
 -1     27037 8.96669E+01 2.15271E+01 3.63636E+00
 -1     27038 8.67839E+01 2.81978E+01 3.63636E+00
 -1     27043 8.79727E+01 2.85841E+01 4.09091E+00
 -1     27044 8.96669E+01 2.15271E+01 4.54545E+00
 -1     27045 8.67839E+01 2.81978E+01 4.54545E+00
 -1     27050 8.79727E+01 2.85841E+01 5.00000E+00
 -1     27051 8.96669E+01 2.15271E+01 5.45455E+00
 -1     27052 8.67839E+01 2.81978E+01 5.45455E+00
 -1     27057 8.79727E+01 2.85841E+01 5.90909E+00
 -1     27058 8.96669E+01 2.15271E+01 6.36364E+00
 -1     27059 8.67839E+01 2.81978E+01 6.36364E+00
 -1     27064 8.79727E+01 2.85841E+01 6.81818E+00
 -1     27065 8.96669E+01 2.15271E+01 7.27273E+00
 -1     27066 8.67839E+01 2.81978E+01 7.27273E+00
 -1     27071 8.79727E+01 2.85841E+01 7.72727E+00
 -1     27072 8.96669E+01 2.15271E+01 8.18182E+00
 -1     27073 8.67839E+01 2.81978E+01 8.18182E+00
 -1     27078 8.79727E+01 2.85841E+01 8.63636E+00
 -1     27079 8.96669E+01 2.15271E+01 9.09091E+00
 -1     27080 8.67839E+01 2.81978E+01 9.09091E+00
 -1     27085 8.79727E+01 2.85841E+01 9.54545E+00
 -1     27089 8.24181E+01 4.19941E+01 4.54545E-01
 -1     27090 8.51954E+01 3.52891E+01 9.09091E-01
 -1     27091 8.13043E+01 4.14266E+01 9.09091E-01
 -1     27096 8.24181E+01 4.19941E+01 1.36364E+00
 -1     27097 8.51954E+01 3.52891E+01 1.81818E+00
 -1     27098 8.13043E+01 4.14266E+01 1.81818E+00
 -1     27103 8.24181E+01 4.19941E+01 2.27273E+00
 -1     27104 8.51954E+01 3.52891E+01 2.72727E+00
 -1     27105 8.13043E+01 4.14266E+01 2.72727E+00
 -1     27110 8.24181E+01 4.19941E+01 3.18182E+00
 -1     27111 8.51954E+01 3.52891E+01 3.63636E+00
 -1     27112 8.13043E+01 4.14266E+01 3.63636E+00
 -1     27117 8.24181E+01 4.19941E+01 4.09091E+00
 -1     27118 8.51954E+01 3.52891E+01 4.54545E+00
 -1     27119 8.13043E+01 4.14266E+01 4.54545E+00
 -1     27124 8.24181E+01 4.19941E+01 5.00000E+00
 -1     27125 8.51954E+01 3.52891E+01 5.45455E+00
 -1     27126 8.13043E+01 4.14266E+01 5.45455E+00
 -1     27131 8.24181E+01 4.19941E+01 5.90909E+00
 -1     27132 8.51954E+01 3.52891E+01 6.36364E+00
 -1     27133 8.13043E+01 4.14266E+01 6.36364E+00
 -1     27138 8.24181E+01 4.19941E+01 6.81818E+00
 -1     27139 8.51954E+01 3.52891E+01 7.27273E+00
 -1     27140 8.13043E+01 4.14266E+01 7.27273E+00
 -1     27145 8.24181E+01 4.19941E+01 7.72727E+00
 -1     27146 8.51954E+01 3.52891E+01 8.18182E+00
 -1     27147 8.13043E+01 4.14266E+01 8.18182E+00
 -1     27152 8.24181E+01 4.19941E+01 8.63636E+00
 -1     27153 8.51954E+01 3.52891E+01 9.09091E+00
 -1     27154 8.13043E+01 4.14266E+01 9.09091E+00
 -1     27159 8.24181E+01 4.19941E+01 9.54545E+00
 -1     27163 7.48341E+01 5.43701E+01 4.54545E-01
 -1     27164 7.86261E+01 4.81821E+01 9.09091E-01
 -1     27165 7.38228E+01 5.36354E+01 9.09091E-01
 -1     27170 7.48341E+01 5.43701E+01 1.36364E+00
 -1     27171 7.86261E+01 4.81821E+01 1.81818E+00
 -1     27172 7.38228E+01 5.36354E+01 1.81818E+00
 -1     27177 7.48341E+01 5.43701E+01 2.27273E+00
 -1     27178 7.86261E+01 4.81821E+01 2.72727E+00
 -1     27179 7.38228E+01 5.36354E+01 2.72727E+00
 -1     27184 7.48341E+01 5.43701E+01 3.18182E+00
 -1     27185 7.86261E+01 4.81821E+01 3.63636E+00
 -1     27186 7.38228E+01 5.36354E+01 3.63636E+00
 -1     27191 7.48341E+01 5.43701E+01 4.09091E+00
 -1     27192 7.86261E+01 4.81821E+01 4.54545E+00
 -1     27193 7.38228E+01 5.36354E+01 4.54545E+00
 -1     27198 7.48341E+01 5.43701E+01 5.00000E+00
 -1     27199 7.86261E+01 4.81821E+01 5.45455E+00
 -1     27200 7.38228E+01 5.36354E+01 5.45455E+00
 -1     27205 7.48341E+01 5.43701E+01 5.90909E+00
 -1     27206 7.86261E+01 4.81821E+01 6.36364E+00
 -1     27207 7.38228E+01 5.36354E+01 6.36364E+00
 -1     27212 7.48341E+01 5.43701E+01 6.81818E+00
 -1     27213 7.86261E+01 4.81821E+01 7.27273E+00
 -1     27214 7.38228E+01 5.36354E+01 7.27273E+00
 -1     27219 7.48341E+01 5.43701E+01 7.72727E+00
 -1     27220 7.86261E+01 4.81821E+01 8.18182E+00
 -1     27221 7.38228E+01 5.36354E+01 8.18182E+00
 -1     27226 7.48341E+01 5.43701E+01 8.63636E+00
 -1     27227 7.86261E+01 4.81821E+01 9.09091E+00
 -1     27228 7.38228E+01 5.36354E+01 9.09091E+00
 -1     27233 7.48341E+01 5.43701E+01 9.54545E+00
 -1     27237 6.54074E+01 6.54074E+01 4.54545E-01
 -1     27238 7.01207E+01 5.98888E+01 9.09091E-01
 -1     27239 6.45235E+01 6.45235E+01 9.09091E-01
 -1     27244 6.54074E+01 6.54074E+01 1.36364E+00
 -1     27245 7.01207E+01 5.98888E+01 1.81818E+00
 -1     27246 6.45235E+01 6.45235E+01 1.81818E+00
 -1     27251 6.54074E+01 6.54074E+01 2.27273E+00
 -1     27252 7.01207E+01 5.98888E+01 2.72727E+00
 -1     27253 6.45235E+01 6.45235E+01 2.72727E+00
 -1     27258 6.54074E+01 6.54074E+01 3.18182E+00
 -1     27259 7.01207E+01 5.98888E+01 3.63636E+00
 -1     27260 6.45235E+01 6.45235E+01 3.63636E+00
 -1     27265 6.54074E+01 6.54074E+01 4.09091E+00
 -1     27266 7.01207E+01 5.98888E+01 4.54545E+00
 -1     27267 6.45235E+01 6.45235E+01 4.54545E+00
 -1     27272 6.54074E+01 6.54074E+01 5.00000E+00
 -1     27273 7.01207E+01 5.98888E+01 5.45455E+00
 -1     27274 6.45235E+01 6.45235E+01 5.45455E+00
 -1     27279 6.54074E+01 6.54074E+01 5.90909E+00
 -1     27280 7.01207E+01 5.98888E+01 6.36364E+00
 -1     27281 6.45235E+01 6.45235E+01 6.36364E+00
 -1     27286 6.54074E+01 6.54074E+01 6.81818E+00
 -1     27287 7.01207E+01 5.98888E+01 7.27273E+00
 -1     27288 6.45235E+01 6.45235E+01 7.27273E+00
 -1     27293 6.54074E+01 6.54074E+01 7.72727E+00
 -1     27294 7.01207E+01 5.98888E+01 8.18182E+00
 -1     27295 6.45235E+01 6.45235E+01 8.18182E+00
 -1     27300 6.54074E+01 6.54074E+01 8.63636E+00
 -1     27301 7.01207E+01 5.98888E+01 9.09091E+00
 -1     27302 6.45235E+01 6.45235E+01 9.09091E+00
 -1     27307 6.54074E+01 6.54074E+01 9.54545E+00
 -1     27311 5.43701E+01 7.48341E+01 4.54545E-01
 -1     27312 5.98888E+01 7.01207E+01 9.09091E-01
 -1     27313 5.36354E+01 7.38228E+01 9.09091E-01
 -1     27318 5.43701E+01 7.48341E+01 1.36364E+00
 -1     27319 5.98888E+01 7.01207E+01 1.81818E+00
 -1     27320 5.36354E+01 7.38228E+01 1.81818E+00
 -1     27325 5.43701E+01 7.48341E+01 2.27273E+00
 -1     27326 5.98888E+01 7.01207E+01 2.72727E+00
 -1     27327 5.36354E+01 7.38228E+01 2.72727E+00
 -1     27332 5.43701E+01 7.48341E+01 3.18182E+00
 -1     27333 5.98888E+01 7.01207E+01 3.63636E+00
 -1     27334 5.36354E+01 7.38228E+01 3.63636E+00
 -1     27339 5.43701E+01 7.48341E+01 4.09091E+00
 -1     27340 5.98888E+01 7.01207E+01 4.54545E+00
 -1     27341 5.36354E+01 7.38228E+01 4.54545E+00
 -1     27346 5.43701E+01 7.48341E+01 5.00000E+00
 -1     27347 5.98888E+01 7.01207E+01 5.45455E+00
 -1     27348 5.36354E+01 7.38228E+01 5.45455E+00
 -1     27353 5.43701E+01 7.48341E+01 5.90909E+00
 -1     27354 5.98888E+01 7.01207E+01 6.36364E+00
 -1     27355 5.36354E+01 7.38228E+01 6.36364E+00
 -1     27360 5.43701E+01 7.48341E+01 6.81818E+00
 -1     27361 5.98888E+01 7.01207E+01 7.27273E+00
 -1     27362 5.36354E+01 7.38228E+01 7.27273E+00
 -1     27367 5.43701E+01 7.48341E+01 7.72727E+00
 -1     27368 5.98888E+01 7.01207E+01 8.18182E+00
 -1     27369 5.36354E+01 7.38228E+01 8.18182E+00
 -1     27374 5.43701E+01 7.48341E+01 8.63636E+00
 -1     27375 5.98888E+01 7.01207E+01 9.09091E+00
 -1     27376 5.36354E+01 7.38228E+01 9.09091E+00
 -1     27381 5.43701E+01 7.48341E+01 9.54545E+00
 -1     27385 4.19941E+01 8.24181E+01 4.54545E-01
 -1     27386 4.81821E+01 7.86261E+01 9.09091E-01
 -1     27387 4.14266E+01 8.13043E+01 9.09091E-01
 -1     27392 4.19941E+01 8.24181E+01 1.36364E+00
 -1     27393 4.81821E+01 7.86261E+01 1.81818E+00
 -1     27394 4.14266E+01 8.13043E+01 1.81818E+00
 -1     27399 4.19941E+01 8.24181E+01 2.27273E+00
 -1     27400 4.81821E+01 7.86261E+01 2.72727E+00
 -1     27401 4.14266E+01 8.13043E+01 2.72727E+00
 -1     27406 4.19941E+01 8.24181E+01 3.18182E+00
 -1     27407 4.81821E+01 7.86261E+01 3.63636E+00
 -1     27408 4.14266E+01 8.13043E+01 3.63636E+00
 -1     27413 4.19941E+01 8.24181E+01 4.09091E+00
 -1     27414 4.81821E+01 7.86261E+01 4.54545E+00
 -1     27415 4.14266E+01 8.13043E+01 4.54545E+00
 -1     27420 4.19941E+01 8.24181E+01 5.00000E+00
 -1     27421 4.81821E+01 7.86261E+01 5.45455E+00
 -1     27422 4.14266E+01 8.13043E+01 5.45455E+00
 -1     27427 4.19941E+01 8.24181E+01 5.90909E+00
 -1     27428 4.81821E+01 7.86261E+01 6.36364E+00
 -1     27429 4.14266E+01 8.13043E+01 6.36364E+00
 -1     27434 4.19941E+01 8.24181E+01 6.81818E+00
 -1     27435 4.81821E+01 7.86261E+01 7.27273E+00
 -1     27436 4.14266E+01 8.13043E+01 7.27273E+00
 -1     27441 4.19941E+01 8.24181E+01 7.72727E+00
 -1     27442 4.81821E+01 7.86261E+01 8.18182E+00
 -1     27443 4.14266E+01 8.13043E+01 8.18182E+00
 -1     27448 4.19941E+01 8.24181E+01 8.63636E+00
 -1     27449 4.81821E+01 7.86261E+01 9.09091E+00
 -1     27450 4.14266E+01 8.13043E+01 9.09091E+00
 -1     27455 4.19941E+01 8.24181E+01 9.54545E+00
 -1     27459 2.85841E+01 8.79727E+01 4.54545E-01
 -1     27460 3.52891E+01 8.51954E+01 9.09091E-01
 -1     27461 2.81978E+01 8.67839E+01 9.09091E-01
 -1     27466 2.85841E+01 8.79727E+01 1.36364E+00
 -1     27467 3.52891E+01 8.51954E+01 1.81818E+00
 -1     27468 2.81978E+01 8.67839E+01 1.81818E+00
 -1     27473 2.85841E+01 8.79727E+01 2.27273E+00
 -1     27474 3.52891E+01 8.51954E+01 2.72727E+00
 -1     27475 2.81978E+01 8.67839E+01 2.72727E+00
 -1     27480 2.85841E+01 8.79727E+01 3.18182E+00
 -1     27481 3.52891E+01 8.51954E+01 3.63636E+00
 -1     27482 2.81978E+01 8.67839E+01 3.63636E+00
 -1     27487 2.85841E+01 8.79727E+01 4.09091E+00
 -1     27488 3.52891E+01 8.51954E+01 4.54545E+00
 -1     27489 2.81978E+01 8.67839E+01 4.54545E+00
 -1     27494 2.85841E+01 8.79727E+01 5.00000E+00
 -1     27495 3.52891E+01 8.51954E+01 5.45455E+00
 -1     27496 2.81978E+01 8.67839E+01 5.45455E+00
 -1     27501 2.85841E+01 8.79727E+01 5.90909E+00
 -1     27502 3.52891E+01 8.51954E+01 6.36364E+00
 -1     27503 2.81978E+01 8.67839E+01 6.36364E+00
 -1     27508 2.85841E+01 8.79727E+01 6.81818E+00
 -1     27509 3.52891E+01 8.51954E+01 7.27273E+00
 -1     27510 2.81978E+01 8.67839E+01 7.27273E+00
 -1     27515 2.85841E+01 8.79727E+01 7.72727E+00
 -1     27516 3.52891E+01 8.51954E+01 8.18182E+00
 -1     27517 2.81978E+01 8.67839E+01 8.18182E+00
 -1     27522 2.85841E+01 8.79727E+01 8.63636E+00
 -1     27523 3.52891E+01 8.51954E+01 9.09091E+00
 -1     27524 2.81978E+01 8.67839E+01 9.09091E+00
 -1     27529 2.85841E+01 8.79727E+01 9.54545E+00
 -1     27533 1.44702E+01 9.13612E+01 4.54545E-01
 -1     27534 2.15271E+01 8.96669E+01 9.09091E-01
 -1     27535 1.42746E+01 9.01266E+01 9.09091E-01
 -1     27540 1.44702E+01 9.13612E+01 1.36364E+00
 -1     27541 2.15271E+01 8.96669E+01 1.81818E+00
 -1     27542 1.42746E+01 9.01266E+01 1.81818E+00
 -1     27547 1.44702E+01 9.13612E+01 2.27273E+00
 -1     27548 2.15271E+01 8.96669E+01 2.72727E+00
 -1     27549 1.42746E+01 9.01266E+01 2.72727E+00
 -1     27554 1.44702E+01 9.13612E+01 3.18182E+00
 -1     27555 2.15271E+01 8.96669E+01 3.63636E+00
 -1     27556 1.42746E+01 9.01266E+01 3.63636E+00
 -1     27561 1.44702E+01 9.13612E+01 4.09091E+00
 -1     27562 2.15271E+01 8.96669E+01 4.54545E+00
 -1     27563 1.42746E+01 9.01266E+01 4.54545E+00
 -1     27568 1.44702E+01 9.13612E+01 5.00000E+00
 -1     27569 2.15271E+01 8.96669E+01 5.45455E+00
 -1     27570 1.42746E+01 9.01266E+01 5.45455E+00
 -1     27575 1.44702E+01 9.13612E+01 5.90909E+00
 -1     27576 2.15271E+01 8.96669E+01 6.36364E+00
 -1     27577 1.42746E+01 9.01266E+01 6.36364E+00
 -1     27582 1.44702E+01 9.13612E+01 6.81818E+00
 -1     27583 2.15271E+01 8.96669E+01 7.27273E+00
 -1     27584 1.42746E+01 9.01266E+01 7.27273E+00
 -1     27589 1.44702E+01 9.13612E+01 7.72727E+00
 -1     27590 2.15271E+01 8.96669E+01 8.18182E+00
 -1     27591 1.42746E+01 9.01266E+01 8.18182E+00
 -1     27596 1.44702E+01 9.13612E+01 8.63636E+00
 -1     27597 2.15271E+01 8.96669E+01 9.09091E+00
 -1     27598 1.42746E+01 9.01266E+01 9.09091E+00
 -1     27603 1.44702E+01 9.13612E+01 9.54545E+00
 -1     27607 7.23509E+00 9.19306E+01 9.09091E-01
 -1     27611 7.23509E+00 9.19306E+01 1.81818E+00
 -1     27615 7.23509E+00 9.19306E+01 2.72727E+00
 -1     27619 7.23509E+00 9.19306E+01 3.63636E+00
 -1     27623 7.23509E+00 9.19306E+01 4.54545E+00
 -1     27627 7.23509E+00 9.19306E+01 5.45455E+00
 -1     27631 7.23509E+00 9.19306E+01 6.36364E+00
 -1     27635 7.23509E+00 9.19306E+01 7.27273E+00
 -1     27639 7.23509E+00 9.19306E+01 8.18182E+00
 -1     27643 7.23509E+00 9.19306E+01 9.09091E+00
 -1     27649 9.38304E+01 1.48613E+01 4.54545E-01
 -1     27650 9.44152E+01 7.43064E+00 9.09091E-01
 -1     27651 9.25958E+01 1.46657E+01 9.09091E-01
 -1     27656 9.38304E+01 1.48613E+01 1.36364E+00
 -1     27657 9.44152E+01 7.43064E+00 1.81818E+00
 -1     27658 9.25958E+01 1.46657E+01 1.81818E+00
 -1     27663 9.38304E+01 1.48613E+01 2.27273E+00
 -1     27664 9.44152E+01 7.43064E+00 2.72727E+00
 -1     27665 9.25958E+01 1.46657E+01 2.72727E+00
 -1     27670 9.38304E+01 1.48613E+01 3.18182E+00
 -1     27671 9.44152E+01 7.43064E+00 3.63636E+00
 -1     27672 9.25958E+01 1.46657E+01 3.63636E+00
 -1     27677 9.38304E+01 1.48613E+01 4.09091E+00
 -1     27678 9.44152E+01 7.43064E+00 4.54545E+00
 -1     27679 9.25958E+01 1.46657E+01 4.54545E+00
 -1     27684 9.38304E+01 1.48613E+01 5.00000E+00
 -1     27685 9.44152E+01 7.43064E+00 5.45455E+00
 -1     27686 9.25958E+01 1.46657E+01 5.45455E+00
 -1     27691 9.38304E+01 1.48613E+01 5.90909E+00
 -1     27692 9.44152E+01 7.43064E+00 6.36364E+00
 -1     27693 9.25958E+01 1.46657E+01 6.36364E+00
 -1     27698 9.38304E+01 1.48613E+01 6.81818E+00
 -1     27699 9.44152E+01 7.43064E+00 7.27273E+00
 -1     27700 9.25958E+01 1.46657E+01 7.27273E+00
 -1     27705 9.38304E+01 1.48613E+01 7.72727E+00
 -1     27706 9.44152E+01 7.43064E+00 8.18182E+00
 -1     27707 9.25958E+01 1.46657E+01 8.18182E+00
 -1     27712 9.38304E+01 1.48613E+01 8.63636E+00
 -1     27713 9.44152E+01 7.43064E+00 9.09091E+00
 -1     27714 9.25958E+01 1.46657E+01 9.09091E+00
 -1     27719 9.38304E+01 1.48613E+01 9.54545E+00
 -1     27723 9.03504E+01 2.93566E+01 4.54545E-01
 -1     27724 9.20904E+01 2.21089E+01 9.09091E-01
 -1     27725 8.91615E+01 2.89703E+01 9.09091E-01
 -1     27730 9.03504E+01 2.93566E+01 1.36364E+00
 -1     27731 9.20904E+01 2.21089E+01 1.81818E+00
 -1     27732 8.91615E+01 2.89703E+01 1.81818E+00
 -1     27737 9.03504E+01 2.93566E+01 2.27273E+00
 -1     27738 9.20904E+01 2.21089E+01 2.72727E+00
 -1     27739 8.91615E+01 2.89703E+01 2.72727E+00
 -1     27744 9.03504E+01 2.93566E+01 3.18182E+00
 -1     27745 9.20904E+01 2.21089E+01 3.63636E+00
 -1     27746 8.91615E+01 2.89703E+01 3.63636E+00
 -1     27751 9.03504E+01 2.93566E+01 4.09091E+00
 -1     27752 9.20904E+01 2.21089E+01 4.54545E+00
 -1     27753 8.91615E+01 2.89703E+01 4.54545E+00
 -1     27758 9.03504E+01 2.93566E+01 5.00000E+00
 -1     27759 9.20904E+01 2.21089E+01 5.45455E+00
 -1     27760 8.91615E+01 2.89703E+01 5.45455E+00
 -1     27765 9.03504E+01 2.93566E+01 5.90909E+00
 -1     27766 9.20904E+01 2.21089E+01 6.36364E+00
 -1     27767 8.91615E+01 2.89703E+01 6.36364E+00
 -1     27772 9.03504E+01 2.93566E+01 6.81818E+00
 -1     27773 9.20904E+01 2.21089E+01 7.27273E+00
 -1     27774 8.91615E+01 2.89703E+01 7.27273E+00
 -1     27779 9.03504E+01 2.93566E+01 7.72727E+00
 -1     27780 9.20904E+01 2.21089E+01 8.18182E+00
 -1     27781 8.91615E+01 2.89703E+01 8.18182E+00
 -1     27786 9.03504E+01 2.93566E+01 8.63636E+00
 -1     27787 9.20904E+01 2.21089E+01 9.09091E+00
 -1     27788 8.91615E+01 2.89703E+01 9.09091E+00
 -1     27793 9.03504E+01 2.93566E+01 9.54545E+00
 -1     27797 8.46456E+01 4.31291E+01 4.54545E-01
 -1     27798 8.74980E+01 3.62429E+01 9.09091E-01
 -1     27799 8.35319E+01 4.25616E+01 9.09091E-01
 -1     27804 8.46456E+01 4.31291E+01 1.36364E+00
 -1     27805 8.74980E+01 3.62429E+01 1.81818E+00
 -1     27806 8.35319E+01 4.25616E+01 1.81818E+00
 -1     27811 8.46456E+01 4.31291E+01 2.27273E+00
 -1     27812 8.74980E+01 3.62429E+01 2.72727E+00
 -1     27813 8.35319E+01 4.25616E+01 2.72727E+00
 -1     27818 8.46456E+01 4.31291E+01 3.18182E+00
 -1     27819 8.74980E+01 3.62429E+01 3.63636E+00
 -1     27820 8.35319E+01 4.25616E+01 3.63636E+00
 -1     27825 8.46456E+01 4.31291E+01 4.09091E+00
 -1     27826 8.74980E+01 3.62429E+01 4.54545E+00
 -1     27827 8.35319E+01 4.25616E+01 4.54545E+00
 -1     27832 8.46456E+01 4.31291E+01 5.00000E+00
 -1     27833 8.74980E+01 3.62429E+01 5.45455E+00
 -1     27834 8.35319E+01 4.25616E+01 5.45455E+00
 -1     27839 8.46456E+01 4.31291E+01 5.90909E+00
 -1     27840 8.74980E+01 3.62429E+01 6.36364E+00
 -1     27841 8.35319E+01 4.25616E+01 6.36364E+00
 -1     27846 8.46456E+01 4.31291E+01 6.81818E+00
 -1     27847 8.74980E+01 3.62429E+01 7.27273E+00
 -1     27848 8.35319E+01 4.25616E+01 7.27273E+00
 -1     27853 8.46456E+01 4.31291E+01 7.72727E+00
 -1     27854 8.74980E+01 3.62429E+01 8.18182E+00
 -1     27855 8.35319E+01 4.25616E+01 8.18182E+00
 -1     27860 8.46456E+01 4.31291E+01 8.63636E+00
 -1     27861 8.74980E+01 3.62429E+01 9.09091E+00
 -1     27862 8.35319E+01 4.25616E+01 9.09091E+00
 -1     27867 8.46456E+01 4.31291E+01 9.54545E+00
 -1     27871 7.68566E+01 5.58396E+01 4.54545E-01
 -1     27872 8.07511E+01 4.94843E+01 9.09091E-01
 -1     27873 7.58453E+01 5.51049E+01 9.09091E-01
 -1     27878 7.68566E+01 5.58396E+01 1.36364E+00
 -1     27879 8.07511E+01 4.94843E+01 1.81818E+00
 -1     27880 7.58453E+01 5.51049E+01 1.81818E+00
 -1     27885 7.68566E+01 5.58396E+01 2.27273E+00
 -1     27886 8.07511E+01 4.94843E+01 2.72727E+00
 -1     27887 7.58453E+01 5.51049E+01 2.72727E+00
 -1     27892 7.68566E+01 5.58396E+01 3.18182E+00
 -1     27893 8.07511E+01 4.94843E+01 3.63636E+00
 -1     27894 7.58453E+01 5.51049E+01 3.63636E+00
 -1     27899 7.68566E+01 5.58396E+01 4.09091E+00
 -1     27900 8.07511E+01 4.94843E+01 4.54545E+00
 -1     27901 7.58453E+01 5.51049E+01 4.54545E+00
 -1     27906 7.68566E+01 5.58396E+01 5.00000E+00
 -1     27907 8.07511E+01 4.94843E+01 5.45455E+00
 -1     27908 7.58453E+01 5.51049E+01 5.45455E+00
 -1     27913 7.68566E+01 5.58396E+01 5.90909E+00
 -1     27914 8.07511E+01 4.94843E+01 6.36364E+00
 -1     27915 7.58453E+01 5.51049E+01 6.36364E+00
 -1     27920 7.68566E+01 5.58396E+01 6.81818E+00
 -1     27921 8.07511E+01 4.94843E+01 7.27273E+00
 -1     27922 7.58453E+01 5.51049E+01 7.27273E+00
 -1     27927 7.68566E+01 5.58396E+01 7.72727E+00
 -1     27928 8.07511E+01 4.94843E+01 8.18182E+00
 -1     27929 7.58453E+01 5.51049E+01 8.18182E+00
 -1     27934 7.68566E+01 5.58396E+01 8.63636E+00
 -1     27935 8.07511E+01 4.94843E+01 9.09091E+00
 -1     27936 7.58453E+01 5.51049E+01 9.09091E+00
 -1     27941 7.68566E+01 5.58396E+01 9.54545E+00
 -1     27945 6.71751E+01 6.71751E+01 4.54545E-01
 -1     27946 7.20159E+01 6.15074E+01 9.09091E-01
 -1     27947 6.62913E+01 6.62913E+01 9.09091E-01
 -1     27952 6.71751E+01 6.71751E+01 1.36364E+00
 -1     27953 7.20159E+01 6.15074E+01 1.81818E+00
 -1     27954 6.62913E+01 6.62913E+01 1.81818E+00
 -1     27959 6.71751E+01 6.71751E+01 2.27273E+00
 -1     27960 7.20159E+01 6.15074E+01 2.72727E+00
 -1     27961 6.62913E+01 6.62913E+01 2.72727E+00
 -1     27966 6.71751E+01 6.71751E+01 3.18182E+00
 -1     27967 7.20159E+01 6.15074E+01 3.63636E+00
 -1     27968 6.62913E+01 6.62913E+01 3.63636E+00
 -1     27973 6.71751E+01 6.71751E+01 4.09091E+00
 -1     27974 7.20159E+01 6.15074E+01 4.54545E+00
 -1     27975 6.62913E+01 6.62913E+01 4.54545E+00
 -1     27980 6.71751E+01 6.71751E+01 5.00000E+00
 -1     27981 7.20159E+01 6.15074E+01 5.45455E+00
 -1     27982 6.62913E+01 6.62913E+01 5.45455E+00
 -1     27987 6.71751E+01 6.71751E+01 5.90909E+00
 -1     27988 7.20159E+01 6.15074E+01 6.36364E+00
 -1     27989 6.62913E+01 6.62913E+01 6.36364E+00
 -1     27994 6.71751E+01 6.71751E+01 6.81818E+00
 -1     27995 7.20159E+01 6.15074E+01 7.27273E+00
 -1     27996 6.62913E+01 6.62913E+01 7.27273E+00
 -1     28001 6.71751E+01 6.71751E+01 7.72727E+00
 -1     28002 7.20159E+01 6.15074E+01 8.18182E+00
 -1     28003 6.62913E+01 6.62913E+01 8.18182E+00
 -1     28008 6.71751E+01 6.71751E+01 8.63636E+00
 -1     28009 7.20159E+01 6.15074E+01 9.09091E+00
 -1     28010 6.62913E+01 6.62913E+01 9.09091E+00
 -1     28015 6.71751E+01 6.71751E+01 9.54545E+00
 -1     28019 5.58396E+01 7.68566E+01 4.54545E-01
 -1     28020 6.15074E+01 7.20159E+01 9.09091E-01
 -1     28021 5.51049E+01 7.58453E+01 9.09091E-01
 -1     28026 5.58396E+01 7.68566E+01 1.36364E+00
 -1     28027 6.15074E+01 7.20159E+01 1.81818E+00
 -1     28028 5.51049E+01 7.58453E+01 1.81818E+00
 -1     28033 5.58396E+01 7.68566E+01 2.27273E+00
 -1     28034 6.15074E+01 7.20159E+01 2.72727E+00
 -1     28035 5.51049E+01 7.58453E+01 2.72727E+00
 -1     28040 5.58396E+01 7.68566E+01 3.18182E+00
 -1     28041 6.15074E+01 7.20159E+01 3.63636E+00
 -1     28042 5.51049E+01 7.58453E+01 3.63636E+00
 -1     28047 5.58396E+01 7.68566E+01 4.09091E+00
 -1     28048 6.15074E+01 7.20159E+01 4.54545E+00
 -1     28049 5.51049E+01 7.58453E+01 4.54545E+00
 -1     28054 5.58396E+01 7.68566E+01 5.00000E+00
 -1     28055 6.15074E+01 7.20159E+01 5.45455E+00
 -1     28056 5.51049E+01 7.58453E+01 5.45455E+00
 -1     28061 5.58396E+01 7.68566E+01 5.90909E+00
 -1     28062 6.15074E+01 7.20159E+01 6.36364E+00
 -1     28063 5.51049E+01 7.58453E+01 6.36364E+00
 -1     28068 5.58396E+01 7.68566E+01 6.81818E+00
 -1     28069 6.15074E+01 7.20159E+01 7.27273E+00
 -1     28070 5.51049E+01 7.58453E+01 7.27273E+00
 -1     28075 5.58396E+01 7.68566E+01 7.72727E+00
 -1     28076 6.15074E+01 7.20159E+01 8.18182E+00
 -1     28077 5.51049E+01 7.58453E+01 8.18182E+00
 -1     28082 5.58396E+01 7.68566E+01 8.63636E+00
 -1     28083 6.15074E+01 7.20159E+01 9.09091E+00
 -1     28084 5.51049E+01 7.58453E+01 9.09091E+00
 -1     28089 5.58396E+01 7.68566E+01 9.54545E+00
 -1     28093 4.31291E+01 8.46456E+01 4.54545E-01
 -1     28094 4.94843E+01 8.07511E+01 9.09091E-01
 -1     28095 4.25616E+01 8.35319E+01 9.09091E-01
 -1     28100 4.31291E+01 8.46456E+01 1.36364E+00
 -1     28101 4.94843E+01 8.07511E+01 1.81818E+00
 -1     28102 4.25616E+01 8.35319E+01 1.81818E+00
 -1     28107 4.31291E+01 8.46456E+01 2.27273E+00
 -1     28108 4.94843E+01 8.07511E+01 2.72727E+00
 -1     28109 4.25616E+01 8.35319E+01 2.72727E+00
 -1     28114 4.31291E+01 8.46456E+01 3.18182E+00
 -1     28115 4.94843E+01 8.07511E+01 3.63636E+00
 -1     28116 4.25616E+01 8.35319E+01 3.63636E+00
 -1     28121 4.31291E+01 8.46456E+01 4.09091E+00
 -1     28122 4.94843E+01 8.07511E+01 4.54545E+00
 -1     28123 4.25616E+01 8.35319E+01 4.54545E+00
 -1     28128 4.31291E+01 8.46456E+01 5.00000E+00
 -1     28129 4.94843E+01 8.07511E+01 5.45455E+00
 -1     28130 4.25616E+01 8.35319E+01 5.45455E+00
 -1     28135 4.31291E+01 8.46456E+01 5.90909E+00
 -1     28136 4.94843E+01 8.07511E+01 6.36364E+00
 -1     28137 4.25616E+01 8.35319E+01 6.36364E+00
 -1     28142 4.31291E+01 8.46456E+01 6.81818E+00
 -1     28143 4.94843E+01 8.07511E+01 7.27273E+00
 -1     28144 4.25616E+01 8.35319E+01 7.27273E+00
 -1     28149 4.31291E+01 8.46456E+01 7.72727E+00
 -1     28150 4.94843E+01 8.07511E+01 8.18182E+00
 -1     28151 4.25616E+01 8.35319E+01 8.18182E+00
 -1     28156 4.31291E+01 8.46456E+01 8.63636E+00
 -1     28157 4.94843E+01 8.07511E+01 9.09091E+00
 -1     28158 4.25616E+01 8.35319E+01 9.09091E+00
 -1     28163 4.31291E+01 8.46456E+01 9.54545E+00
 -1     28167 2.93566E+01 9.03504E+01 4.54545E-01
 -1     28168 3.62429E+01 8.74980E+01 9.09091E-01
 -1     28169 2.89703E+01 8.91615E+01 9.09091E-01
 -1     28174 2.93566E+01 9.03504E+01 1.36364E+00
 -1     28175 3.62429E+01 8.74980E+01 1.81818E+00
 -1     28176 2.89703E+01 8.91615E+01 1.81818E+00
 -1     28181 2.93566E+01 9.03504E+01 2.27273E+00
 -1     28182 3.62429E+01 8.74980E+01 2.72727E+00
 -1     28183 2.89703E+01 8.91615E+01 2.72727E+00
 -1     28188 2.93566E+01 9.03504E+01 3.18182E+00
 -1     28189 3.62429E+01 8.74980E+01 3.63636E+00
 -1     28190 2.89703E+01 8.91615E+01 3.63636E+00
 -1     28195 2.93566E+01 9.03504E+01 4.09091E+00
 -1     28196 3.62429E+01 8.74980E+01 4.54545E+00
 -1     28197 2.89703E+01 8.91615E+01 4.54545E+00
 -1     28202 2.93566E+01 9.03504E+01 5.00000E+00
 -1     28203 3.62429E+01 8.74980E+01 5.45455E+00
 -1     28204 2.89703E+01 8.91615E+01 5.45455E+00
 -1     28209 2.93566E+01 9.03504E+01 5.90909E+00
 -1     28210 3.62429E+01 8.74980E+01 6.36364E+00
 -1     28211 2.89703E+01 8.91615E+01 6.36364E+00
 -1     28216 2.93566E+01 9.03504E+01 6.81818E+00
 -1     28217 3.62429E+01 8.74980E+01 7.27273E+00
 -1     28218 2.89703E+01 8.91615E+01 7.27273E+00
 -1     28223 2.93566E+01 9.03504E+01 7.72727E+00
 -1     28224 3.62429E+01 8.74980E+01 8.18182E+00
 -1     28225 2.89703E+01 8.91615E+01 8.18182E+00
 -1     28230 2.93566E+01 9.03504E+01 8.63636E+00
 -1     28231 3.62429E+01 8.74980E+01 9.09091E+00
 -1     28232 2.89703E+01 8.91615E+01 9.09091E+00
 -1     28237 2.93566E+01 9.03504E+01 9.54545E+00
 -1     28241 1.48613E+01 9.38304E+01 4.54545E-01
 -1     28242 2.21089E+01 9.20904E+01 9.09091E-01
 -1     28243 1.46657E+01 9.25958E+01 9.09091E-01
 -1     28248 1.48613E+01 9.38304E+01 1.36364E+00
 -1     28249 2.21089E+01 9.20904E+01 1.81818E+00
 -1     28250 1.46657E+01 9.25958E+01 1.81818E+00
 -1     28255 1.48613E+01 9.38304E+01 2.27273E+00
 -1     28256 2.21089E+01 9.20904E+01 2.72727E+00
 -1     28257 1.46657E+01 9.25958E+01 2.72727E+00
 -1     28262 1.48613E+01 9.38304E+01 3.18182E+00
 -1     28263 2.21089E+01 9.20904E+01 3.63636E+00
 -1     28264 1.46657E+01 9.25958E+01 3.63636E+00
 -1     28269 1.48613E+01 9.38304E+01 4.09091E+00
 -1     28270 2.21089E+01 9.20904E+01 4.54545E+00
 -1     28271 1.46657E+01 9.25958E+01 4.54545E+00
 -1     28276 1.48613E+01 9.38304E+01 5.00000E+00
 -1     28277 2.21089E+01 9.20904E+01 5.45455E+00
 -1     28278 1.46657E+01 9.25958E+01 5.45455E+00
 -1     28283 1.48613E+01 9.38304E+01 5.90909E+00
 -1     28284 2.21089E+01 9.20904E+01 6.36364E+00
 -1     28285 1.46657E+01 9.25958E+01 6.36364E+00
 -1     28290 1.48613E+01 9.38304E+01 6.81818E+00
 -1     28291 2.21089E+01 9.20904E+01 7.27273E+00
 -1     28292 1.46657E+01 9.25958E+01 7.27273E+00
 -1     28297 1.48613E+01 9.38304E+01 7.72727E+00
 -1     28298 2.21089E+01 9.20904E+01 8.18182E+00
 -1     28299 1.46657E+01 9.25958E+01 8.18182E+00
 -1     28304 1.48613E+01 9.38304E+01 8.63636E+00
 -1     28305 2.21089E+01 9.20904E+01 9.09091E+00
 -1     28306 1.46657E+01 9.25958E+01 9.09091E+00
 -1     28311 1.48613E+01 9.38304E+01 9.54545E+00
 -1     28315 7.43064E+00 9.44152E+01 9.09091E-01
 -1     28319 7.43064E+00 9.44152E+01 1.81818E+00
 -1     28323 7.43064E+00 9.44152E+01 2.72727E+00
 -1     28327 7.43064E+00 9.44152E+01 3.63636E+00
 -1     28331 7.43064E+00 9.44152E+01 4.54545E+00
 -1     28335 7.43064E+00 9.44152E+01 5.45455E+00
 -1     28339 7.43064E+00 9.44152E+01 6.36364E+00
 -1     28343 7.43064E+00 9.44152E+01 7.27273E+00
 -1     28347 7.43064E+00 9.44152E+01 8.18182E+00
 -1     28351 7.43064E+00 9.44152E+01 9.09091E+00
 -1     28357 9.62996E+01 1.52524E+01 4.54545E-01
 -1     28358 9.68998E+01 7.62618E+00 9.09091E-01
 -1     28359 9.50650E+01 1.50568E+01 9.09091E-01
 -1     28364 9.62996E+01 1.52524E+01 1.36364E+00
 -1     28365 9.68998E+01 7.62618E+00 1.81818E+00
 -1     28366 9.50650E+01 1.50568E+01 1.81818E+00
 -1     28371 9.62996E+01 1.52524E+01 2.27273E+00
 -1     28372 9.68998E+01 7.62618E+00 2.72727E+00
 -1     28373 9.50650E+01 1.50568E+01 2.72727E+00
 -1     28378 9.62996E+01 1.52524E+01 3.18182E+00
 -1     28379 9.68998E+01 7.62618E+00 3.63636E+00
 -1     28380 9.50650E+01 1.50568E+01 3.63636E+00
 -1     28385 9.62996E+01 1.52524E+01 4.09091E+00
 -1     28386 9.68998E+01 7.62618E+00 4.54545E+00
 -1     28387 9.50650E+01 1.50568E+01 4.54545E+00
 -1     28392 9.62996E+01 1.52524E+01 5.00000E+00
 -1     28393 9.68998E+01 7.62618E+00 5.45455E+00
 -1     28394 9.50650E+01 1.50568E+01 5.45455E+00
 -1     28399 9.62996E+01 1.52524E+01 5.90909E+00
 -1     28400 9.68998E+01 7.62618E+00 6.36364E+00
 -1     28401 9.50650E+01 1.50568E+01 6.36364E+00
 -1     28406 9.62996E+01 1.52524E+01 6.81818E+00
 -1     28407 9.68998E+01 7.62618E+00 7.27273E+00
 -1     28408 9.50650E+01 1.50568E+01 7.27273E+00
 -1     28413 9.62996E+01 1.52524E+01 7.72727E+00
 -1     28414 9.68998E+01 7.62618E+00 8.18182E+00
 -1     28415 9.50650E+01 1.50568E+01 8.18182E+00
 -1     28420 9.62996E+01 1.52524E+01 8.63636E+00
 -1     28421 9.68998E+01 7.62618E+00 9.09091E+00
 -1     28422 9.50650E+01 1.50568E+01 9.09091E+00
 -1     28427 9.62996E+01 1.52524E+01 9.54545E+00
 -1     28431 9.27280E+01 3.01292E+01 4.54545E-01
 -1     28432 9.45138E+01 2.26908E+01 9.09091E-01
 -1     28433 9.15392E+01 2.97429E+01 9.09091E-01
 -1     28438 9.27280E+01 3.01292E+01 1.36364E+00
 -1     28439 9.45138E+01 2.26908E+01 1.81818E+00
 -1     28440 9.15392E+01 2.97429E+01 1.81818E+00
 -1     28445 9.27280E+01 3.01292E+01 2.27273E+00
 -1     28446 9.45138E+01 2.26908E+01 2.72727E+00
 -1     28447 9.15392E+01 2.97429E+01 2.72727E+00
 -1     28452 9.27280E+01 3.01292E+01 3.18182E+00
 -1     28453 9.45138E+01 2.26908E+01 3.63636E+00
 -1     28454 9.15392E+01 2.97429E+01 3.63636E+00
 -1     28459 9.27280E+01 3.01292E+01 4.09091E+00
 -1     28460 9.45138E+01 2.26908E+01 4.54545E+00
 -1     28461 9.15392E+01 2.97429E+01 4.54545E+00
 -1     28466 9.27280E+01 3.01292E+01 5.00000E+00
 -1     28467 9.45138E+01 2.26908E+01 5.45455E+00
 -1     28468 9.15392E+01 2.97429E+01 5.45455E+00
 -1     28473 9.27280E+01 3.01292E+01 5.90909E+00
 -1     28474 9.45138E+01 2.26908E+01 6.36364E+00
 -1     28475 9.15392E+01 2.97429E+01 6.36364E+00
 -1     28480 9.27280E+01 3.01292E+01 6.81818E+00
 -1     28481 9.45138E+01 2.26908E+01 7.27273E+00
 -1     28482 9.15392E+01 2.97429E+01 7.27273E+00
 -1     28487 9.27280E+01 3.01292E+01 7.72727E+00
 -1     28488 9.45138E+01 2.26908E+01 8.18182E+00
 -1     28489 9.15392E+01 2.97429E+01 8.18182E+00
 -1     28494 9.27280E+01 3.01292E+01 8.63636E+00
 -1     28495 9.45138E+01 2.26908E+01 9.09091E+00
 -1     28496 9.15392E+01 2.97429E+01 9.09091E+00
 -1     28501 9.27280E+01 3.01292E+01 9.54545E+00
 -1     28505 8.68731E+01 4.42641E+01 4.54545E-01
 -1     28506 8.98006E+01 3.71966E+01 9.09091E-01
 -1     28507 8.57594E+01 4.36966E+01 9.09091E-01
 -1     28512 8.68731E+01 4.42641E+01 1.36364E+00
 -1     28513 8.98006E+01 3.71966E+01 1.81818E+00
 -1     28514 8.57594E+01 4.36966E+01 1.81818E+00
 -1     28519 8.68731E+01 4.42641E+01 2.27273E+00
 -1     28520 8.98006E+01 3.71966E+01 2.72727E+00
 -1     28521 8.57594E+01 4.36966E+01 2.72727E+00
 -1     28526 8.68731E+01 4.42641E+01 3.18182E+00
 -1     28527 8.98006E+01 3.71966E+01 3.63636E+00
 -1     28528 8.57594E+01 4.36966E+01 3.63636E+00
 -1     28533 8.68731E+01 4.42641E+01 4.09091E+00
 -1     28534 8.98006E+01 3.71966E+01 4.54545E+00
 -1     28535 8.57594E+01 4.36966E+01 4.54545E+00
 -1     28540 8.68731E+01 4.42641E+01 5.00000E+00
 -1     28541 8.98006E+01 3.71966E+01 5.45455E+00
 -1     28542 8.57594E+01 4.36966E+01 5.45455E+00
 -1     28547 8.68731E+01 4.42641E+01 5.90909E+00
 -1     28548 8.98006E+01 3.71966E+01 6.36364E+00
 -1     28549 8.57594E+01 4.36966E+01 6.36364E+00
 -1     28554 8.68731E+01 4.42641E+01 6.81818E+00
 -1     28555 8.98006E+01 3.71966E+01 7.27273E+00
 -1     28556 8.57594E+01 4.36966E+01 7.27273E+00
 -1     28561 8.68731E+01 4.42641E+01 7.72727E+00
 -1     28562 8.98006E+01 3.71966E+01 8.18182E+00
 -1     28563 8.57594E+01 4.36966E+01 8.18182E+00
 -1     28568 8.68731E+01 4.42641E+01 8.63636E+00
 -1     28569 8.98006E+01 3.71966E+01 9.09091E+00
 -1     28570 8.57594E+01 4.36966E+01 9.09091E+00
 -1     28575 8.68731E+01 4.42641E+01 9.54545E+00
 -1     28579 7.88792E+01 5.73091E+01 4.54545E-01
 -1     28580 8.28761E+01 5.07866E+01 9.09091E-01
 -1     28581 7.78679E+01 5.65743E+01 9.09091E-01
 -1     28586 7.88792E+01 5.73091E+01 1.36364E+00
 -1     28587 8.28761E+01 5.07866E+01 1.81818E+00
 -1     28588 7.78679E+01 5.65743E+01 1.81818E+00
 -1     28593 7.88792E+01 5.73091E+01 2.27273E+00
 -1     28594 8.28761E+01 5.07866E+01 2.72727E+00
 -1     28595 7.78679E+01 5.65743E+01 2.72727E+00
 -1     28600 7.88792E+01 5.73091E+01 3.18182E+00
 -1     28601 8.28761E+01 5.07866E+01 3.63636E+00
 -1     28602 7.78679E+01 5.65743E+01 3.63636E+00
 -1     28607 7.88792E+01 5.73091E+01 4.09091E+00
 -1     28608 8.28761E+01 5.07866E+01 4.54545E+00
 -1     28609 7.78679E+01 5.65743E+01 4.54545E+00
 -1     28614 7.88792E+01 5.73091E+01 5.00000E+00
 -1     28615 8.28761E+01 5.07866E+01 5.45455E+00
 -1     28616 7.78679E+01 5.65743E+01 5.45455E+00
 -1     28621 7.88792E+01 5.73091E+01 5.90909E+00
 -1     28622 8.28761E+01 5.07866E+01 6.36364E+00
 -1     28623 7.78679E+01 5.65743E+01 6.36364E+00
 -1     28628 7.88792E+01 5.73091E+01 6.81818E+00
 -1     28629 8.28761E+01 5.07866E+01 7.27273E+00
 -1     28630 7.78679E+01 5.65743E+01 7.27273E+00
 -1     28635 7.88792E+01 5.73091E+01 7.72727E+00
 -1     28636 8.28761E+01 5.07866E+01 8.18182E+00
 -1     28637 7.78679E+01 5.65743E+01 8.18182E+00
 -1     28642 7.88792E+01 5.73091E+01 8.63636E+00
 -1     28643 8.28761E+01 5.07866E+01 9.09091E+00
 -1     28644 7.78679E+01 5.65743E+01 9.09091E+00
 -1     28649 7.88792E+01 5.73091E+01 9.54545E+00
 -1     28653 6.89429E+01 6.89429E+01 4.54545E-01
 -1     28654 7.39110E+01 6.31260E+01 9.09091E-01
 -1     28655 6.80590E+01 6.80590E+01 9.09091E-01
 -1     28660 6.89429E+01 6.89429E+01 1.36364E+00
 -1     28661 7.39110E+01 6.31260E+01 1.81818E+00
 -1     28662 6.80590E+01 6.80590E+01 1.81818E+00
 -1     28667 6.89429E+01 6.89429E+01 2.27273E+00
 -1     28668 7.39110E+01 6.31260E+01 2.72727E+00
 -1     28669 6.80590E+01 6.80590E+01 2.72727E+00
 -1     28674 6.89429E+01 6.89429E+01 3.18182E+00
 -1     28675 7.39110E+01 6.31260E+01 3.63636E+00
 -1     28676 6.80590E+01 6.80590E+01 3.63636E+00
 -1     28681 6.89429E+01 6.89429E+01 4.09091E+00
 -1     28682 7.39110E+01 6.31260E+01 4.54545E+00
 -1     28683 6.80590E+01 6.80590E+01 4.54545E+00
 -1     28688 6.89429E+01 6.89429E+01 5.00000E+00
 -1     28689 7.39110E+01 6.31260E+01 5.45455E+00
 -1     28690 6.80590E+01 6.80590E+01 5.45455E+00
 -1     28695 6.89429E+01 6.89429E+01 5.90909E+00
 -1     28696 7.39110E+01 6.31260E+01 6.36364E+00
 -1     28697 6.80590E+01 6.80590E+01 6.36364E+00
 -1     28702 6.89429E+01 6.89429E+01 6.81818E+00
 -1     28703 7.39110E+01 6.31260E+01 7.27273E+00
 -1     28704 6.80590E+01 6.80590E+01 7.27273E+00
 -1     28709 6.89429E+01 6.89429E+01 7.72727E+00
 -1     28710 7.39110E+01 6.31260E+01 8.18182E+00
 -1     28711 6.80590E+01 6.80590E+01 8.18182E+00
 -1     28716 6.89429E+01 6.89429E+01 8.63636E+00
 -1     28717 7.39110E+01 6.31260E+01 9.09091E+00
 -1     28718 6.80590E+01 6.80590E+01 9.09091E+00
 -1     28723 6.89429E+01 6.89429E+01 9.54545E+00
 -1     28727 5.73091E+01 7.88792E+01 4.54545E-01
 -1     28728 6.31260E+01 7.39110E+01 9.09091E-01
 -1     28729 5.65743E+01 7.78679E+01 9.09091E-01
 -1     28734 5.73091E+01 7.88792E+01 1.36364E+00
 -1     28735 6.31260E+01 7.39110E+01 1.81818E+00
 -1     28736 5.65743E+01 7.78679E+01 1.81818E+00
 -1     28741 5.73091E+01 7.88792E+01 2.27273E+00
 -1     28742 6.31260E+01 7.39110E+01 2.72727E+00
 -1     28743 5.65743E+01 7.78679E+01 2.72727E+00
 -1     28748 5.73091E+01 7.88792E+01 3.18182E+00
 -1     28749 6.31260E+01 7.39110E+01 3.63636E+00
 -1     28750 5.65743E+01 7.78679E+01 3.63636E+00
 -1     28755 5.73091E+01 7.88792E+01 4.09091E+00
 -1     28756 6.31260E+01 7.39110E+01 4.54545E+00
 -1     28757 5.65743E+01 7.78679E+01 4.54545E+00
 -1     28762 5.73091E+01 7.88792E+01 5.00000E+00
 -1     28763 6.31260E+01 7.39110E+01 5.45455E+00
 -1     28764 5.65743E+01 7.78679E+01 5.45455E+00
 -1     28769 5.73091E+01 7.88792E+01 5.90909E+00
 -1     28770 6.31260E+01 7.39110E+01 6.36364E+00
 -1     28771 5.65743E+01 7.78679E+01 6.36364E+00
 -1     28776 5.73091E+01 7.88792E+01 6.81818E+00
 -1     28777 6.31260E+01 7.39110E+01 7.27273E+00
 -1     28778 5.65743E+01 7.78679E+01 7.27273E+00
 -1     28783 5.73091E+01 7.88792E+01 7.72727E+00
 -1     28784 6.31260E+01 7.39110E+01 8.18182E+00
 -1     28785 5.65743E+01 7.78679E+01 8.18182E+00
 -1     28790 5.73091E+01 7.88792E+01 8.63636E+00
 -1     28791 6.31260E+01 7.39110E+01 9.09091E+00
 -1     28792 5.65743E+01 7.78679E+01 9.09091E+00
 -1     28797 5.73091E+01 7.88792E+01 9.54545E+00
 -1     28801 4.42641E+01 8.68731E+01 4.54545E-01
 -1     28802 5.07866E+01 8.28761E+01 9.09091E-01
 -1     28803 4.36966E+01 8.57594E+01 9.09091E-01
 -1     28808 4.42641E+01 8.68731E+01 1.36364E+00
 -1     28809 5.07866E+01 8.28761E+01 1.81818E+00
 -1     28810 4.36966E+01 8.57594E+01 1.81818E+00
 -1     28815 4.42641E+01 8.68731E+01 2.27273E+00
 -1     28816 5.07866E+01 8.28761E+01 2.72727E+00
 -1     28817 4.36966E+01 8.57594E+01 2.72727E+00
 -1     28822 4.42641E+01 8.68731E+01 3.18182E+00
 -1     28823 5.07866E+01 8.28761E+01 3.63636E+00
 -1     28824 4.36966E+01 8.57594E+01 3.63636E+00
 -1     28829 4.42641E+01 8.68731E+01 4.09091E+00
 -1     28830 5.07866E+01 8.28761E+01 4.54545E+00
 -1     28831 4.36966E+01 8.57594E+01 4.54545E+00
 -1     28836 4.42641E+01 8.68731E+01 5.00000E+00
 -1     28837 5.07866E+01 8.28761E+01 5.45455E+00
 -1     28838 4.36966E+01 8.57594E+01 5.45455E+00
 -1     28843 4.42641E+01 8.68731E+01 5.90909E+00
 -1     28844 5.07866E+01 8.28761E+01 6.36364E+00
 -1     28845 4.36966E+01 8.57594E+01 6.36364E+00
 -1     28850 4.42641E+01 8.68731E+01 6.81818E+00
 -1     28851 5.07866E+01 8.28761E+01 7.27273E+00
 -1     28852 4.36966E+01 8.57594E+01 7.27273E+00
 -1     28857 4.42641E+01 8.68731E+01 7.72727E+00
 -1     28858 5.07866E+01 8.28761E+01 8.18182E+00
 -1     28859 4.36966E+01 8.57594E+01 8.18182E+00
 -1     28864 4.42641E+01 8.68731E+01 8.63636E+00
 -1     28865 5.07866E+01 8.28761E+01 9.09091E+00
 -1     28866 4.36966E+01 8.57594E+01 9.09091E+00
 -1     28871 4.42641E+01 8.68731E+01 9.54545E+00
 -1     28875 3.01292E+01 9.27280E+01 4.54545E-01
 -1     28876 3.71966E+01 8.98006E+01 9.09091E-01
 -1     28877 2.97429E+01 9.15392E+01 9.09091E-01
 -1     28882 3.01292E+01 9.27280E+01 1.36364E+00
 -1     28883 3.71966E+01 8.98006E+01 1.81818E+00
 -1     28884 2.97429E+01 9.15392E+01 1.81818E+00
 -1     28889 3.01292E+01 9.27280E+01 2.27273E+00
 -1     28890 3.71966E+01 8.98006E+01 2.72727E+00
 -1     28891 2.97429E+01 9.15392E+01 2.72727E+00
 -1     28896 3.01292E+01 9.27280E+01 3.18182E+00
 -1     28897 3.71966E+01 8.98006E+01 3.63636E+00
 -1     28898 2.97429E+01 9.15392E+01 3.63636E+00
 -1     28903 3.01292E+01 9.27280E+01 4.09091E+00
 -1     28904 3.71966E+01 8.98006E+01 4.54545E+00
 -1     28905 2.97429E+01 9.15392E+01 4.54545E+00
 -1     28910 3.01292E+01 9.27280E+01 5.00000E+00
 -1     28911 3.71966E+01 8.98006E+01 5.45455E+00
 -1     28912 2.97429E+01 9.15392E+01 5.45455E+00
 -1     28917 3.01292E+01 9.27280E+01 5.90909E+00
 -1     28918 3.71966E+01 8.98006E+01 6.36364E+00
 -1     28919 2.97429E+01 9.15392E+01 6.36364E+00
 -1     28924 3.01292E+01 9.27280E+01 6.81818E+00
 -1     28925 3.71966E+01 8.98006E+01 7.27273E+00
 -1     28926 2.97429E+01 9.15392E+01 7.27273E+00
 -1     28931 3.01292E+01 9.27280E+01 7.72727E+00
 -1     28932 3.71966E+01 8.98006E+01 8.18182E+00
 -1     28933 2.97429E+01 9.15392E+01 8.18182E+00
 -1     28938 3.01292E+01 9.27280E+01 8.63636E+00
 -1     28939 3.71966E+01 8.98006E+01 9.09091E+00
 -1     28940 2.97429E+01 9.15392E+01 9.09091E+00
 -1     28945 3.01292E+01 9.27280E+01 9.54545E+00
 -1     28949 1.52524E+01 9.62996E+01 4.54545E-01
 -1     28950 2.26908E+01 9.45138E+01 9.09091E-01
 -1     28951 1.50568E+01 9.50650E+01 9.09091E-01
 -1     28956 1.52524E+01 9.62996E+01 1.36364E+00
 -1     28957 2.26908E+01 9.45138E+01 1.81818E+00
 -1     28958 1.50568E+01 9.50650E+01 1.81818E+00
 -1     28963 1.52524E+01 9.62996E+01 2.27273E+00
 -1     28964 2.26908E+01 9.45138E+01 2.72727E+00
 -1     28965 1.50568E+01 9.50650E+01 2.72727E+00
 -1     28970 1.52524E+01 9.62996E+01 3.18182E+00
 -1     28971 2.26908E+01 9.45138E+01 3.63636E+00
 -1     28972 1.50568E+01 9.50650E+01 3.63636E+00
 -1     28977 1.52524E+01 9.62996E+01 4.09091E+00
 -1     28978 2.26908E+01 9.45138E+01 4.54545E+00
 -1     28979 1.50568E+01 9.50650E+01 4.54545E+00
 -1     28984 1.52524E+01 9.62996E+01 5.00000E+00
 -1     28985 2.26908E+01 9.45138E+01 5.45455E+00
 -1     28986 1.50568E+01 9.50650E+01 5.45455E+00
 -1     28991 1.52524E+01 9.62996E+01 5.90909E+00
 -1     28992 2.26908E+01 9.45138E+01 6.36364E+00
 -1     28993 1.50568E+01 9.50650E+01 6.36364E+00
 -1     28998 1.52524E+01 9.62996E+01 6.81818E+00
 -1     28999 2.26908E+01 9.45138E+01 7.27273E+00
 -1     29000 1.50568E+01 9.50650E+01 7.27273E+00
 -1     29005 1.52524E+01 9.62996E+01 7.72727E+00
 -1     29006 2.26908E+01 9.45138E+01 8.18182E+00
 -1     29007 1.50568E+01 9.50650E+01 8.18182E+00
 -1     29012 1.52524E+01 9.62996E+01 8.63636E+00
 -1     29013 2.26908E+01 9.45138E+01 9.09091E+00
 -1     29014 1.50568E+01 9.50650E+01 9.09091E+00
 -1     29019 1.52524E+01 9.62996E+01 9.54545E+00
 -1     29023 7.62618E+00 9.68998E+01 9.09091E-01
 -1     29027 7.62618E+00 9.68998E+01 1.81818E+00
 -1     29031 7.62618E+00 9.68998E+01 2.72727E+00
 -1     29035 7.62618E+00 9.68998E+01 3.63636E+00
 -1     29039 7.62618E+00 9.68998E+01 4.54545E+00
 -1     29043 7.62618E+00 9.68998E+01 5.45455E+00
 -1     29047 7.62618E+00 9.68998E+01 6.36364E+00
 -1     29051 7.62618E+00 9.68998E+01 7.27273E+00
 -1     29055 7.62618E+00 9.68998E+01 8.18182E+00
 -1     29059 7.62618E+00 9.68998E+01 9.09091E+00
 -1     29065 9.75342E+01 1.54479E+01 9.09091E-01
 -1     29069 9.75342E+01 1.54479E+01 1.81818E+00
 -1     29073 9.75342E+01 1.54479E+01 2.72727E+00
 -1     29077 9.75342E+01 1.54479E+01 3.63636E+00
 -1     29081 9.75342E+01 1.54479E+01 4.54545E+00
 -1     29085 9.75342E+01 1.54479E+01 5.45455E+00
 -1     29089 9.75342E+01 1.54479E+01 6.36364E+00
 -1     29093 9.75342E+01 1.54479E+01 7.27273E+00
 -1     29097 9.75342E+01 1.54479E+01 8.18182E+00
 -1     29101 9.75342E+01 1.54479E+01 9.09091E+00
 -1     29107 9.39168E+01 3.05154E+01 9.09091E-01
 -1     29111 9.39168E+01 3.05154E+01 1.81818E+00
 -1     29115 9.39168E+01 3.05154E+01 2.72727E+00
 -1     29119 9.39168E+01 3.05154E+01 3.63636E+00
 -1     29123 9.39168E+01 3.05154E+01 4.54545E+00
 -1     29127 9.39168E+01 3.05154E+01 5.45455E+00
 -1     29131 9.39168E+01 3.05154E+01 6.36364E+00
 -1     29135 9.39168E+01 3.05154E+01 7.27273E+00
 -1     29139 9.39168E+01 3.05154E+01 8.18182E+00
 -1     29143 9.39168E+01 3.05154E+01 9.09091E+00
 -1     29149 8.79869E+01 4.48316E+01 9.09091E-01
 -1     29153 8.79869E+01 4.48316E+01 1.81818E+00
 -1     29157 8.79869E+01 4.48316E+01 2.72727E+00
 -1     29161 8.79869E+01 4.48316E+01 3.63636E+00
 -1     29165 8.79869E+01 4.48316E+01 4.54545E+00
 -1     29169 8.79869E+01 4.48316E+01 5.45455E+00
 -1     29173 8.79869E+01 4.48316E+01 6.36364E+00
 -1     29177 8.79869E+01 4.48316E+01 7.27273E+00
 -1     29181 8.79869E+01 4.48316E+01 8.18182E+00
 -1     29185 8.79869E+01 4.48316E+01 9.09091E+00
 -1     29191 7.98904E+01 5.80438E+01 9.09091E-01
 -1     29195 7.98904E+01 5.80438E+01 1.81818E+00
 -1     29199 7.98904E+01 5.80438E+01 2.72727E+00
 -1     29203 7.98904E+01 5.80438E+01 3.63636E+00
 -1     29207 7.98904E+01 5.80438E+01 4.54545E+00
 -1     29211 7.98904E+01 5.80438E+01 5.45455E+00
 -1     29215 7.98904E+01 5.80438E+01 6.36364E+00
 -1     29219 7.98904E+01 5.80438E+01 7.27273E+00
 -1     29223 7.98904E+01 5.80438E+01 8.18182E+00
 -1     29227 7.98904E+01 5.80438E+01 9.09091E+00
 -1     29233 6.98268E+01 6.98268E+01 9.09091E-01
 -1     29237 6.98268E+01 6.98268E+01 1.81818E+00
 -1     29241 6.98268E+01 6.98268E+01 2.72727E+00
 -1     29245 6.98268E+01 6.98268E+01 3.63636E+00
 -1     29249 6.98268E+01 6.98268E+01 4.54545E+00
 -1     29253 6.98268E+01 6.98268E+01 5.45455E+00
 -1     29257 6.98268E+01 6.98268E+01 6.36364E+00
 -1     29261 6.98268E+01 6.98268E+01 7.27273E+00
 -1     29265 6.98268E+01 6.98268E+01 8.18182E+00
 -1     29269 6.98268E+01 6.98268E+01 9.09091E+00
 -1     29275 5.80438E+01 7.98904E+01 9.09091E-01
 -1     29279 5.80438E+01 7.98904E+01 1.81818E+00
 -1     29283 5.80438E+01 7.98904E+01 2.72727E+00
 -1     29287 5.80438E+01 7.98904E+01 3.63636E+00
 -1     29291 5.80438E+01 7.98904E+01 4.54545E+00
 -1     29295 5.80438E+01 7.98904E+01 5.45455E+00
 -1     29299 5.80438E+01 7.98904E+01 6.36364E+00
 -1     29303 5.80438E+01 7.98904E+01 7.27273E+00
 -1     29307 5.80438E+01 7.98904E+01 8.18182E+00
 -1     29311 5.80438E+01 7.98904E+01 9.09091E+00
 -1     29317 4.48316E+01 8.79869E+01 9.09091E-01
 -1     29321 4.48316E+01 8.79869E+01 1.81818E+00
 -1     29325 4.48316E+01 8.79869E+01 2.72727E+00
 -1     29329 4.48316E+01 8.79869E+01 3.63636E+00
 -1     29333 4.48316E+01 8.79869E+01 4.54545E+00
 -1     29337 4.48316E+01 8.79869E+01 5.45455E+00
 -1     29341 4.48316E+01 8.79869E+01 6.36364E+00
 -1     29345 4.48316E+01 8.79869E+01 7.27273E+00
 -1     29349 4.48316E+01 8.79869E+01 8.18182E+00
 -1     29353 4.48316E+01 8.79869E+01 9.09091E+00
 -1     29359 3.05154E+01 9.39168E+01 9.09091E-01
 -1     29363 3.05154E+01 9.39168E+01 1.81818E+00
 -1     29367 3.05154E+01 9.39168E+01 2.72727E+00
 -1     29371 3.05154E+01 9.39168E+01 3.63636E+00
 -1     29375 3.05154E+01 9.39168E+01 4.54545E+00
 -1     29379 3.05154E+01 9.39168E+01 5.45455E+00
 -1     29383 3.05154E+01 9.39168E+01 6.36364E+00
 -1     29387 3.05154E+01 9.39168E+01 7.27273E+00
 -1     29391 3.05154E+01 9.39168E+01 8.18182E+00
 -1     29395 3.05154E+01 9.39168E+01 9.09091E+00
 -1     29401 1.54479E+01 9.75342E+01 9.09091E-01
 -1     29405 1.54479E+01 9.75342E+01 1.81818E+00
 -1     29409 1.54479E+01 9.75342E+01 2.72727E+00
 -1     29413 1.54479E+01 9.75342E+01 3.63636E+00
 -1     29417 1.54479E+01 9.75342E+01 4.54545E+00
 -1     29421 1.54479E+01 9.75342E+01 5.45455E+00
 -1     29425 1.54479E+01 9.75342E+01 6.36364E+00
 -1     29429 1.54479E+01 9.75342E+01 7.27273E+00
 -1     29433 1.54479E+01 9.75342E+01 8.18182E+00
 -1     29437 1.54479E+01 9.75342E+01 9.09091E+00
 -3
    3C                          3300                                     1
 -1       771    4    0    1
 -2         1         9       405       154       321      1526      5923      4483        38       666
 -2       667       164       331      1816      8533      4749      1817      8534      8535      4781
 -1       772    4    0    1
 -2       321      1526      5923      4483       322      1527      5924      4484      1817      8534
 -2      8535      4781       332      1819      8540      4752      1820      8541      8542      4783
 -1       773    4    0    1
 -2       322      1527      5924      4484       323      1528      5925      4485      1820      8541
 -2      8542      4783       333      1822      8547      4755      1823      8548      8549      4785
 -1       774    4    0    1
 -2       323      1528      5925      4485       324      1529      5926      4486      1823      8548
 -2      8549      4785       334      1825      8554      4758      1826      8555      8556      4787
 -1       775    4    0    1
 -2       324      1529      5926      4486       325      1530      5927      4487      1826      8555
 -2      8556      4787       335      1828      8561      4761      1829      8562      8563      4789
 -1       776    4    0    1
 -2       325      1530      5927      4487       326      1531      5928      4488      1829      8562
 -2      8563      4789       336      1831      8568      4764      1832      8569      8570      4791
 -1       777    4    0    1
 -2       326      1531      5928      4488       327      1532      5929      4489      1832      8569
 -2      8570      4791       337      1834      8575      4767      1835      8576      8577      4793
 -1       778    4    0    1
 -2       327      1532      5929      4489       328      1533      5930      4490      1835      8576
 -2      8577      4793       338      1837      8582      4770      1838      8583      8584      4795
 -1       779    4    0    1
 -2       328      1533      5930      4490       329      1534      5931      4491      1838      8583
 -2      8584      4795       339      1840      8589      4773      1841      8590      8591      4797
 -1       780    4    0    1
 -2       329      1534      5931      4491       330      1535      5932      4492      1841      8590
 -2      8591      4797       340      1843      8596      4776      1844      8597      8598      4799
 -1       781    4    0    1
 -2       330      1535      5932      4492         5       165      4802       310      1844      8597
 -2      8598      4799       341      1846      8603      4779       194      5063      5064       320
 -1       782    4    0    1
 -2       154       405       406       153      4483      5923      5933      4473       667       669
 -2       670       163      4749      8533      8607      4717      8535      8608      8609      4750
 -1       783    4    0    1
 -2      4483      5923      5933      4473      4484      5924      5934      4474      8535      8608
 -2      8609      4750      4752      8540      8614      4720      8542      8615      8616      4753
 -1       784    4    0    1
 -2      4484      5924      5934      4474      4485      5925      5935      4475      8542      8615
 -2      8616      4753      4755      8547      8621      4723      8549      8622      8623      4756
 -1       785    4    0    1
 -2      4485      5925      5935      4475      4486      5926      5936      4476      8549      8622
 -2      8623      4756      4758      8554      8628      4726      8556      8629      8630      4759
 -1       786    4    0    1
 -2      4486      5926      5936      4476      4487      5927      5937      4477      8556      8629
 -2      8630      4759      4761      8561      8635      4729      8563      8636      8637      4762
 -1       787    4    0    1
 -2      4487      5927      5937      4477      4488      5928      5938      4478      8563      8636
 -2      8637      4762      4764      8568      8642      4732      8570      8643      8644      4765
 -1       788    4    0    1
 -2      4488      5928      5938      4478      4489      5929      5939      4479      8570      8643
 -2      8644      4765      4767      8575      8649      4735      8577      8650      8651      4768
 -1       789    4    0    1
 -2      4489      5929      5939      4479      4490      5930      5940      4480      8577      8650
 -2      8651      4768      4770      8582      8656      4738      8584      8657      8658      4771
 -1       790    4    0    1
 -2      4490      5930      5940      4480      4491      5931      5941      4481      8584      8657
 -2      8658      4771      4773      8589      8663      4741      8591      8664      8665      4774
 -1       791    4    0    1
 -2      4491      5931      5941      4481      4492      5932      5942      4482      8591      8664
 -2      8665      4774      4776      8596      8670      4744      8598      8671      8672      4777
 -1       792    4    0    1
 -2      4492      5932      5942      4482       310      4802      4803       309      8598      8671
 -2      8672      4777      4779      8603      8677      4747      5064      5066      5067       319
 -1       793    4    0    1
 -2       153       406       407       152      4473      5933      5943      4463       670       672
 -2       673       162      4717      8607      8681      4685      8609      8682      8683      4718
 -1       794    4    0    1
 -2      4473      5933      5943      4463      4474      5934      5944      4464      8609      8682
 -2      8683      4718      4720      8614      8688      4688      8616      8689      8690      4721
 -1       795    4    0    1
 -2      4474      5934      5944      4464      4475      5935      5945      4465      8616      8689
 -2      8690      4721      4723      8621      8695      4691      8623      8696      8697      4724
 -1       796    4    0    1
 -2      4475      5935      5945      4465      4476      5936      5946      4466      8623      8696
 -2      8697      4724      4726      8628      8702      4694      8630      8703      8704      4727
 -1       797    4    0    1
 -2      4476      5936      5946      4466      4477      5937      5947      4467      8630      8703
 -2      8704      4727      4729      8635      8709      4697      8637      8710      8711      4730
 -1       798    4    0    1
 -2      4477      5937      5947      4467      4478      5938      5948      4468      8637      8710
 -2      8711      4730      4732      8642      8716      4700      8644      8717      8718      4733
 -1       799    4    0    1
 -2      4478      5938      5948      4468      4479      5939      5949      4469      8644      8717
 -2      8718      4733      4735      8649      8723      4703      8651      8724      8725      4736
 -1       800    4    0    1
 -2      4479      5939      5949      4469      4480      5940      5950      4470      8651      8724
 -2      8725      4736      4738      8656      8730      4706      8658      8731      8732      4739
 -1       801    4    0    1
 -2      4480      5940      5950      4470      4481      5941      5951      4471      8658      8731
 -2      8732      4739      4741      8663      8737      4709      8665      8738      8739      4742
 -1       802    4    0    1
 -2      4481      5941      5951      4471      4482      5942      5952      4472      8665      8738
 -2      8739      4742      4744      8670      8744      4712      8672      8745      8746      4745
 -1       803    4    0    1
 -2      4482      5942      5952      4472       309      4803      4804       308      8672      8745
 -2      8746      4745      4747      8677      8751      4715      5067      5069      5070       318
 -1       804    4    0    1
 -2       152       407       408       151      4463      5943      5953      4453       673       675
 -2       676       161      4685      8681      8755      4653      8683      8756      8757      4686
 -1       805    4    0    1
 -2      4463      5943      5953      4453      4464      5944      5954      4454      8683      8756
 -2      8757      4686      4688      8688      8762      4656      8690      8763      8764      4689
 -1       806    4    0    1
 -2      4464      5944      5954      4454      4465      5945      5955      4455      8690      8763
 -2      8764      4689      4691      8695      8769      4659      8697      8770      8771      4692
 -1       807    4    0    1
 -2      4465      5945      5955      4455      4466      5946      5956      4456      8697      8770
 -2      8771      4692      4694      8702      8776      4662      8704      8777      8778      4695
 -1       808    4    0    1
 -2      4466      5946      5956      4456      4467      5947      5957      4457      8704      8777
 -2      8778      4695      4697      8709      8783      4665      8711      8784      8785      4698
 -1       809    4    0    1
 -2      4467      5947      5957      4457      4468      5948      5958      4458      8711      8784
 -2      8785      4698      4700      8716      8790      4668      8718      8791      8792      4701
 -1       810    4    0    1
 -2      4468      5948      5958      4458      4469      5949      5959      4459      8718      8791
 -2      8792      4701      4703      8723      8797      4671      8725      8798      8799      4704
 -1       811    4    0    1
 -2      4469      5949      5959      4459      4470      5950      5960      4460      8725      8798
 -2      8799      4704      4706      8730      8804      4674      8732      8805      8806      4707
 -1       812    4    0    1
 -2      4470      5950      5960      4460      4471      5951      5961      4461      8732      8805
 -2      8806      4707      4709      8737      8811      4677      8739      8812      8813      4710
 -1       813    4    0    1
 -2      4471      5951      5961      4461      4472      5952      5962      4462      8739      8812
 -2      8813      4710      4712      8744      8818      4680      8746      8819      8820      4713
 -1       814    4    0    1
 -2      4472      5952      5962      4462       308      4804      4805       307      8746      8819
 -2      8820      4713      4715      8751      8825      4683      5070      5072      5073       317
 -1       815    4    0    1
 -2       151       408       409       150      4453      5953      5963      4443       676       678
 -2       679       160      4653      8755      8829      4621      8757      8830      8831      4654
 -1       816    4    0    1
 -2      4453      5953      5963      4443      4454      5954      5964      4444      8757      8830
 -2      8831      4654      4656      8762      8836      4624      8764      8837      8838      4657
 -1       817    4    0    1
 -2      4454      5954      5964      4444      4455      5955      5965      4445      8764      8837
 -2      8838      4657      4659      8769      8843      4627      8771      8844      8845      4660
 -1       818    4    0    1
 -2      4455      5955      5965      4445      4456      5956      5966      4446      8771      8844
 -2      8845      4660      4662      8776      8850      4630      8778      8851      8852      4663
 -1       819    4    0    1
 -2      4456      5956      5966      4446      4457      5957      5967      4447      8778      8851
 -2      8852      4663      4665      8783      8857      4633      8785      8858      8859      4666
 -1       820    4    0    1
 -2      4457      5957      5967      4447      4458      5958      5968      4448      8785      8858
 -2      8859      4666      4668      8790      8864      4636      8792      8865      8866      4669
 -1       821    4    0    1
 -2      4458      5958      5968      4448      4459      5959      5969      4449      8792      8865
 -2      8866      4669      4671      8797      8871      4639      8799      8872      8873      4672
 -1       822    4    0    1
 -2      4459      5959      5969      4449      4460      5960      5970      4450      8799      8872
 -2      8873      4672      4674      8804      8878      4642      8806      8879      8880      4675
 -1       823    4    0    1
 -2      4460      5960      5970      4450      4461      5961      5971      4451      8806      8879
 -2      8880      4675      4677      8811      8885      4645      8813      8886      8887      4678
 -1       824    4    0    1
 -2      4461      5961      5971      4451      4462      5962      5972      4452      8813      8886
 -2      8887      4678      4680      8818      8892      4648      8820      8893      8894      4681
 -1       825    4    0    1
 -2      4462      5962      5972      4452       307      4805      4806       306      8820      8893
 -2      8894      4681      4683      8825      8899      4651      5073      5075      5076       316
 -1       826    4    0    1
 -2       150       409       410       149      4443      5963      5973      4433       679       681
 -2       682       159      4621      8829      8903      4589      8831      8904      8905      4622
 -1       827    4    0    1
 -2      4443      5963      5973      4433      4444      5964      5974      4434      8831      8904
 -2      8905      4622      4624      8836      8910      4592      8838      8911      8912      4625
 -1       828    4    0    1
 -2      4444      5964      5974      4434      4445      5965      5975      4435      8838      8911
 -2      8912      4625      4627      8843      8917      4595      8845      8918      8919      4628
 -1       829    4    0    1
 -2      4445      5965      5975      4435      4446      5966      5976      4436      8845      8918
 -2      8919      4628      4630      8850      8924      4598      8852      8925      8926      4631
 -1       830    4    0    1
 -2      4446      5966      5976      4436      4447      5967      5977      4437      8852      8925
 -2      8926      4631      4633      8857      8931      4601      8859      8932      8933      4634
 -1       831    4    0    1
 -2      4447      5967      5977      4437      4448      5968      5978      4438      8859      8932
 -2      8933      4634      4636      8864      8938      4604      8866      8939      8940      4637
 -1       832    4    0    1
 -2      4448      5968      5978      4438      4449      5969      5979      4439      8866      8939
 -2      8940      4637      4639      8871      8945      4607      8873      8946      8947      4640
 -1       833    4    0    1
 -2      4449      5969      5979      4439      4450      5970      5980      4440      8873      8946
 -2      8947      4640      4642      8878      8952      4610      8880      8953      8954      4643
 -1       834    4    0    1
 -2      4450      5970      5980      4440      4451      5971      5981      4441      8880      8953
 -2      8954      4643      4645      8885      8959      4613      8887      8960      8961      4646
 -1       835    4    0    1
 -2      4451      5971      5981      4441      4452      5972      5982      4442      8887      8960
 -2      8961      4646      4648      8892      8966      4616      8894      8967      8968      4649
 -1       836    4    0    1
 -2      4452      5972      5982      4442       306      4806      4807       305      8894      8967
 -2      8968      4649      4651      8899      8973      4619      5076      5078      5079       315
 -1       837    4    0    1
 -2       149       410       411       148      4433      5973      5983      4423       682       684
 -2       685       158      4589      8903      8977      4557      8905      8978      8979      4590
 -1       838    4    0    1
 -2      4433      5973      5983      4423      4434      5974      5984      4424      8905      8978
 -2      8979      4590      4592      8910      8984      4560      8912      8985      8986      4593
 -1       839    4    0    1
 -2      4434      5974      5984      4424      4435      5975      5985      4425      8912      8985
 -2      8986      4593      4595      8917      8991      4563      8919      8992      8993      4596
 -1       840    4    0    1
 -2      4435      5975      5985      4425      4436      5976      5986      4426      8919      8992
 -2      8993      4596      4598      8924      8998      4566      8926      8999      9000      4599
 -1       841    4    0    1
 -2      4436      5976      5986      4426      4437      5977      5987      4427      8926      8999
 -2      9000      4599      4601      8931      9005      4569      8933      9006      9007      4602
 -1       842    4    0    1
 -2      4437      5977      5987      4427      4438      5978      5988      4428      8933      9006
 -2      9007      4602      4604      8938      9012      4572      8940      9013      9014      4605
 -1       843    4    0    1
 -2      4438      5978      5988      4428      4439      5979      5989      4429      8940      9013
 -2      9014      4605      4607      8945      9019      4575      8947      9020      9021      4608
 -1       844    4    0    1
 -2      4439      5979      5989      4429      4440      5980      5990      4430      8947      9020
 -2      9021      4608      4610      8952      9026      4578      8954      9027      9028      4611
 -1       845    4    0    1
 -2      4440      5980      5990      4430      4441      5981      5991      4431      8954      9027
 -2      9028      4611      4613      8959      9033      4581      8961      9034      9035      4614
 -1       846    4    0    1
 -2      4441      5981      5991      4431      4442      5982      5992      4432      8961      9034
 -2      9035      4614      4616      8966      9040      4584      8968      9041      9042      4617
 -1       847    4    0    1
 -2      4442      5982      5992      4432       305      4807      4808       304      8968      9041
 -2      9042      4617      4619      8973      9047      4587      5079      5081      5082       314
 -1       848    4    0    1
 -2       148       411       412       147      4423      5983      5993      4413       685       687
 -2       688       157      4557      8977      9051      4525      8979      9052      9053      4558
 -1       849    4    0    1
 -2      4423      5983      5993      4413      4424      5984      5994      4414      8979      9052
 -2      9053      4558      4560      8984      9058      4528      8986      9059      9060      4561
 -1       850    4    0    1
 -2      4424      5984      5994      4414      4425      5985      5995      4415      8986      9059
 -2      9060      4561      4563      8991      9065      4531      8993      9066      9067      4564
 -1       851    4    0    1
 -2      4425      5985      5995      4415      4426      5986      5996      4416      8993      9066
 -2      9067      4564      4566      8998      9072      4534      9000      9073      9074      4567
 -1       852    4    0    1
 -2      4426      5986      5996      4416      4427      5987      5997      4417      9000      9073
 -2      9074      4567      4569      9005      9079      4537      9007      9080      9081      4570
 -1       853    4    0    1
 -2      4427      5987      5997      4417      4428      5988      5998      4418      9007      9080
 -2      9081      4570      4572      9012      9086      4540      9014      9087      9088      4573
 -1       854    4    0    1
 -2      4428      5988      5998      4418      4429      5989      5999      4419      9014      9087
 -2      9088      4573      4575      9019      9093      4543      9021      9094      9095      4576
 -1       855    4    0    1
 -2      4429      5989      5999      4419      4430      5990      6000      4420      9021      9094
 -2      9095      4576      4578      9026      9100      4546      9028      9101      9102      4579
 -1       856    4    0    1
 -2      4430      5990      6000      4420      4431      5991      6001      4421      9028      9101
 -2      9102      4579      4581      9033      9107      4549      9035      9108      9109      4582
 -1       857    4    0    1
 -2      4431      5991      6001      4421      4432      5992      6002      4422      9035      9108
 -2      9109      4582      4584      9040      9114      4552      9042      9115      9116      4585
 -1       858    4    0    1
 -2      4432      5992      6002      4422       304      4808      4809       303      9042      9115
 -2      9116      4585      4587      9047      9121      4555      5082      5084      5085       313
 -1       859    4    0    1
 -2       147       412       413       146      4413      5993      6003      4403       688       690
 -2       691       156      4525      9051      9125      4493      9053      9126      9127      4526
 -1       860    4    0    1
 -2      4413      5993      6003      4403      4414      5994      6004      4404      9053      9126
 -2      9127      4526      4528      9058      9132      4496      9060      9133      9134      4529
 -1       861    4    0    1
 -2      4414      5994      6004      4404      4415      5995      6005      4405      9060      9133
 -2      9134      4529      4531      9065      9139      4499      9067      9140      9141      4532
 -1       862    4    0    1
 -2      4415      5995      6005      4405      4416      5996      6006      4406      9067      9140
 -2      9141      4532      4534      9072      9146      4502      9074      9147      9148      4535
 -1       863    4    0    1
 -2      4416      5996      6006      4406      4417      5997      6007      4407      9074      9147
 -2      9148      4535      4537      9079      9153      4505      9081      9154      9155      4538
 -1       864    4    0    1
 -2      4417      5997      6007      4407      4418      5998      6008      4408      9081      9154
 -2      9155      4538      4540      9086      9160      4508      9088      9161      9162      4541
 -1       865    4    0    1
 -2      4418      5998      6008      4408      4419      5999      6009      4409      9088      9161
 -2      9162      4541      4543      9093      9167      4511      9095      9168      9169      4544
 -1       866    4    0    1
 -2      4419      5999      6009      4409      4420      6000      6010      4410      9095      9168
 -2      9169      4544      4546      9100      9174      4514      9102      9175      9176      4547
 -1       867    4    0    1
 -2      4420      6000      6010      4410      4421      6001      6011      4411      9102      9175
 -2      9176      4547      4549      9107      9181      4517      9109      9182      9183      4550
 -1       868    4    0    1
 -2      4421      6001      6011      4411      4422      6002      6012      4412      9109      9182
 -2      9183      4550      4552      9114      9188      4520      9116      9189      9190      4553
 -1       869    4    0    1
 -2      4422      6002      6012      4412       303      4809      4810       302      9116      9189
 -2      9190      4553      4555      9121      9195      4523      5085      5087      5088       312
 -1       870    4    0    1
 -2       146       413       115         4      4403      6003      3444       384       691       693
 -2       145       155      4493      9125      4350       394      9127      9199      4382      4494
 -1       871    4    0    1
 -2      4403      6003      3444       384      4404      6004      3445       385      9127      9199
 -2      4382      4494      4496      9132      4353       395      9134      9203      4384      4497
 -1       872    4    0    1
 -2      4404      6004      3445       385      4405      6005      3446       386      9134      9203
 -2      4384      4497      4499      9139      4356       396      9141      9207      4386      4500
 -1       873    4    0    1
 -2      4405      6005      3446       386      4406      6006      3447       387      9141      9207
 -2      4386      4500      4502      9146      4359       397      9148      9211      4388      4503
 -1       874    4    0    1
 -2      4406      6006      3447       387      4407      6007      3448       388      9148      9211
 -2      4388      4503      4505      9153      4362       398      9155      9215      4390      4506
 -1       875    4    0    1
 -2      4407      6007      3448       388      4408      6008      3449       389      9155      9215
 -2      4390      4506      4508      9160      4365       399      9162      9219      4392      4509
 -1       876    4    0    1
 -2      4408      6008      3449       389      4409      6009      3450       390      9162      9219
 -2      4392      4509      4511      9167      4368       400      9169      9223      4394      4512
 -1       877    4    0    1
 -2      4409      6009      3450       390      4410      6010      3451       391      9169      9223
 -2      4394      4512      4514      9174      4371       401      9176      9227      4396      4515
 -1       878    4    0    1
 -2      4410      6010      3451       391      4411      6011      3452       392      9176      9227
 -2      4396      4515      4517      9181      4374       402      9183      9231      4398      4518
 -1       879    4    0    1
 -2      4411      6011      3452       392      4412      6012      3453       393      9183      9231
 -2      4398      4518      4520      9188      4377       403      9190      9235      4400      4521
 -1       880    4    0    1
 -2      4412      6012      3453       393       302      4810       271         8      9190      9235
 -2      4400      4521      4523      9195      4380       404      5088      5090       301       311
 -1       881    4    0    1
 -2         9        10       414       405      1526      1536      6013      5923        39       695
 -2       696       666      1816      1848      9241      8533      1849      9242      9243      8534
 -1       882    4    0    1
 -2      1526      1536      6013      5923      1527      1537      6014      5924      1849      9242
 -2      9243      8534      1819      1851      9248      8540      1852      9249      9250      8541
 -1       883    4    0    1
 -2      1527      1537      6014      5924      1528      1538      6015      5925      1852      9249
 -2      9250      8541      1822      1854      9255      8547      1855      9256      9257      8548
 -1       884    4    0    1
 -2      1528      1538      6015      5925      1529      1539      6016      5926      1855      9256
 -2      9257      8548      1825      1857      9262      8554      1858      9263      9264      8555
 -1       885    4    0    1
 -2      1529      1539      6016      5926      1530      1540      6017      5927      1858      9263
 -2      9264      8555      1828      1860      9269      8561      1861      9270      9271      8562
 -1       886    4    0    1
 -2      1530      1540      6017      5927      1531      1541      6018      5928      1861      9270
 -2      9271      8562      1831      1863      9276      8568      1864      9277      9278      8569
 -1       887    4    0    1
 -2      1531      1541      6018      5928      1532      1542      6019      5929      1864      9277
 -2      9278      8569      1834      1866      9283      8575      1867      9284      9285      8576
 -1       888    4    0    1
 -2      1532      1542      6019      5929      1533      1543      6020      5930      1867      9284
 -2      9285      8576      1837      1869      9290      8582      1870      9291      9292      8583
 -1       889    4    0    1
 -2      1533      1543      6020      5930      1534      1544      6021      5931      1870      9291
 -2      9292      8583      1840      1872      9297      8589      1873      9298      9299      8590
 -1       890    4    0    1
 -2      1534      1544      6021      5931      1535      1545      6022      5932      1873      9298
 -2      9299      8590      1843      1875      9304      8596      1876      9305      9306      8597
 -1       891    4    0    1
 -2      1535      1545      6022      5932       165       166      4811      4802      1876      9305
 -2      9306      8597      1846      1878      9311      8603       195      5092      5093      5063
 -1       892    4    0    1
 -2       405       414       415       406      5923      6013      6023      5933       696       698
 -2       699       669      8533      9241      9315      8607      9243      9316      9317      8608
 -1       893    4    0    1
 -2      5923      6013      6023      5933      5924      6014      6024      5934      9243      9316
 -2      9317      8608      8540      9248      9322      8614      9250      9323      9324      8615
 -1       894    4    0    1
 -2      5924      6014      6024      5934      5925      6015      6025      5935      9250      9323
 -2      9324      8615      8547      9255      9329      8621      9257      9330      9331      8622
 -1       895    4    0    1
 -2      5925      6015      6025      5935      5926      6016      6026      5936      9257      9330
 -2      9331      8622      8554      9262      9336      8628      9264      9337      9338      8629
 -1       896    4    0    1
 -2      5926      6016      6026      5936      5927      6017      6027      5937      9264      9337
 -2      9338      8629      8561      9269      9343      8635      9271      9344      9345      8636
 -1       897    4    0    1
 -2      5927      6017      6027      5937      5928      6018      6028      5938      9271      9344
 -2      9345      8636      8568      9276      9350      8642      9278      9351      9352      8643
 -1       898    4    0    1
 -2      5928      6018      6028      5938      5929      6019      6029      5939      9278      9351
 -2      9352      8643      8575      9283      9357      8649      9285      9358      9359      8650
 -1       899    4    0    1
 -2      5929      6019      6029      5939      5930      6020      6030      5940      9285      9358
 -2      9359      8650      8582      9290      9364      8656      9292      9365      9366      8657
 -1       900    4    0    1
 -2      5930      6020      6030      5940      5931      6021      6031      5941      9292      9365
 -2      9366      8657      8589      9297      9371      8663      9299      9372      9373      8664
 -1       901    4    0    1
 -2      5931      6021      6031      5941      5932      6022      6032      5942      9299      9372
 -2      9373      8664      8596      9304      9378      8670      9306      9379      9380      8671
 -1       902    4    0    1
 -2      5932      6022      6032      5942      4802      4811      4812      4803      9306      9379
 -2      9380      8671      8603      9311      9385      8677      5093      5095      5096      5066
 -1       903    4    0    1
 -2       406       415       416       407      5933      6023      6033      5943       699       701
 -2       702       672      8607      9315      9389      8681      9317      9390      9391      8682
 -1       904    4    0    1
 -2      5933      6023      6033      5943      5934      6024      6034      5944      9317      9390
 -2      9391      8682      8614      9322      9396      8688      9324      9397      9398      8689
 -1       905    4    0    1
 -2      5934      6024      6034      5944      5935      6025      6035      5945      9324      9397
 -2      9398      8689      8621      9329      9403      8695      9331      9404      9405      8696
 -1       906    4    0    1
 -2      5935      6025      6035      5945      5936      6026      6036      5946      9331      9404
 -2      9405      8696      8628      9336      9410      8702      9338      9411      9412      8703
 -1       907    4    0    1
 -2      5936      6026      6036      5946      5937      6027      6037      5947      9338      9411
 -2      9412      8703      8635      9343      9417      8709      9345      9418      9419      8710
 -1       908    4    0    1
 -2      5937      6027      6037      5947      5938      6028      6038      5948      9345      9418
 -2      9419      8710      8642      9350      9424      8716      9352      9425      9426      8717
 -1       909    4    0    1
 -2      5938      6028      6038      5948      5939      6029      6039      5949      9352      9425
 -2      9426      8717      8649      9357      9431      8723      9359      9432      9433      8724
 -1       910    4    0    1
 -2      5939      6029      6039      5949      5940      6030      6040      5950      9359      9432
 -2      9433      8724      8656      9364      9438      8730      9366      9439      9440      8731
 -1       911    4    0    1
 -2      5940      6030      6040      5950      5941      6031      6041      5951      9366      9439
 -2      9440      8731      8663      9371      9445      8737      9373      9446      9447      8738
 -1       912    4    0    1
 -2      5941      6031      6041      5951      5942      6032      6042      5952      9373      9446
 -2      9447      8738      8670      9378      9452      8744      9380      9453      9454      8745
 -1       913    4    0    1
 -2      5942      6032      6042      5952      4803      4812      4813      4804      9380      9453
 -2      9454      8745      8677      9385      9459      8751      5096      5098      5099      5069
 -1       914    4    0    1
 -2       407       416       417       408      5943      6033      6043      5953       702       704
 -2       705       675      8681      9389      9463      8755      9391      9464      9465      8756
 -1       915    4    0    1
 -2      5943      6033      6043      5953      5944      6034      6044      5954      9391      9464
 -2      9465      8756      8688      9396      9470      8762      9398      9471      9472      8763
 -1       916    4    0    1
 -2      5944      6034      6044      5954      5945      6035      6045      5955      9398      9471
 -2      9472      8763      8695      9403      9477      8769      9405      9478      9479      8770
 -1       917    4    0    1
 -2      5945      6035      6045      5955      5946      6036      6046      5956      9405      9478
 -2      9479      8770      8702      9410      9484      8776      9412      9485      9486      8777
 -1       918    4    0    1
 -2      5946      6036      6046      5956      5947      6037      6047      5957      9412      9485
 -2      9486      8777      8709      9417      9491      8783      9419      9492      9493      8784
 -1       919    4    0    1
 -2      5947      6037      6047      5957      5948      6038      6048      5958      9419      9492
 -2      9493      8784      8716      9424      9498      8790      9426      9499      9500      8791
 -1       920    4    0    1
 -2      5948      6038      6048      5958      5949      6039      6049      5959      9426      9499
 -2      9500      8791      8723      9431      9505      8797      9433      9506      9507      8798
 -1       921    4    0    1
 -2      5949      6039      6049      5959      5950      6040      6050      5960      9433      9506
 -2      9507      8798      8730      9438      9512      8804      9440      9513      9514      8805
 -1       922    4    0    1
 -2      5950      6040      6050      5960      5951      6041      6051      5961      9440      9513
 -2      9514      8805      8737      9445      9519      8811      9447      9520      9521      8812
 -1       923    4    0    1
 -2      5951      6041      6051      5961      5952      6042      6052      5962      9447      9520
 -2      9521      8812      8744      9452      9526      8818      9454      9527      9528      8819
 -1       924    4    0    1
 -2      5952      6042      6052      5962      4804      4813      4814      4805      9454      9527
 -2      9528      8819      8751      9459      9533      8825      5099      5101      5102      5072
 -1       925    4    0    1
 -2       408       417       418       409      5953      6043      6053      5963       705       707
 -2       708       678      8755      9463      9537      8829      9465      9538      9539      8830
 -1       926    4    0    1
 -2      5953      6043      6053      5963      5954      6044      6054      5964      9465      9538
 -2      9539      8830      8762      9470      9544      8836      9472      9545      9546      8837
 -1       927    4    0    1
 -2      5954      6044      6054      5964      5955      6045      6055      5965      9472      9545
 -2      9546      8837      8769      9477      9551      8843      9479      9552      9553      8844
 -1       928    4    0    1
 -2      5955      6045      6055      5965      5956      6046      6056      5966      9479      9552
 -2      9553      8844      8776      9484      9558      8850      9486      9559      9560      8851
 -1       929    4    0    1
 -2      5956      6046      6056      5966      5957      6047      6057      5967      9486      9559
 -2      9560      8851      8783      9491      9565      8857      9493      9566      9567      8858
 -1       930    4    0    1
 -2      5957      6047      6057      5967      5958      6048      6058      5968      9493      9566
 -2      9567      8858      8790      9498      9572      8864      9500      9573      9574      8865
 -1       931    4    0    1
 -2      5958      6048      6058      5968      5959      6049      6059      5969      9500      9573
 -2      9574      8865      8797      9505      9579      8871      9507      9580      9581      8872
 -1       932    4    0    1
 -2      5959      6049      6059      5969      5960      6050      6060      5970      9507      9580
 -2      9581      8872      8804      9512      9586      8878      9514      9587      9588      8879
 -1       933    4    0    1
 -2      5960      6050      6060      5970      5961      6051      6061      5971      9514      9587
 -2      9588      8879      8811      9519      9593      8885      9521      9594      9595      8886
 -1       934    4    0    1
 -2      5961      6051      6061      5971      5962      6052      6062      5972      9521      9594
 -2      9595      8886      8818      9526      9600      8892      9528      9601      9602      8893
 -1       935    4    0    1
 -2      5962      6052      6062      5972      4805      4814      4815      4806      9528      9601
 -2      9602      8893      8825      9533      9607      8899      5102      5104      5105      5075
 -1       936    4    0    1
 -2       409       418       419       410      5963      6053      6063      5973       708       710
 -2       711       681      8829      9537      9611      8903      9539      9612      9613      8904
 -1       937    4    0    1
 -2      5963      6053      6063      5973      5964      6054      6064      5974      9539      9612
 -2      9613      8904      8836      9544      9618      8910      9546      9619      9620      8911
 -1       938    4    0    1
 -2      5964      6054      6064      5974      5965      6055      6065      5975      9546      9619
 -2      9620      8911      8843      9551      9625      8917      9553      9626      9627      8918
 -1       939    4    0    1
 -2      5965      6055      6065      5975      5966      6056      6066      5976      9553      9626
 -2      9627      8918      8850      9558      9632      8924      9560      9633      9634      8925
 -1       940    4    0    1
 -2      5966      6056      6066      5976      5967      6057      6067      5977      9560      9633
 -2      9634      8925      8857      9565      9639      8931      9567      9640      9641      8932
 -1       941    4    0    1
 -2      5967      6057      6067      5977      5968      6058      6068      5978      9567      9640
 -2      9641      8932      8864      9572      9646      8938      9574      9647      9648      8939
 -1       942    4    0    1
 -2      5968      6058      6068      5978      5969      6059      6069      5979      9574      9647
 -2      9648      8939      8871      9579      9653      8945      9581      9654      9655      8946
 -1       943    4    0    1
 -2      5969      6059      6069      5979      5970      6060      6070      5980      9581      9654
 -2      9655      8946      8878      9586      9660      8952      9588      9661      9662      8953
 -1       944    4    0    1
 -2      5970      6060      6070      5980      5971      6061      6071      5981      9588      9661
 -2      9662      8953      8885      9593      9667      8959      9595      9668      9669      8960
 -1       945    4    0    1
 -2      5971      6061      6071      5981      5972      6062      6072      5982      9595      9668
 -2      9669      8960      8892      9600      9674      8966      9602      9675      9676      8967
 -1       946    4    0    1
 -2      5972      6062      6072      5982      4806      4815      4816      4807      9602      9675
 -2      9676      8967      8899      9607      9681      8973      5105      5107      5108      5078
 -1       947    4    0    1
 -2       410       419       420       411      5973      6063      6073      5983       711       713
 -2       714       684      8903      9611      9685      8977      9613      9686      9687      8978
 -1       948    4    0    1
 -2      5973      6063      6073      5983      5974      6064      6074      5984      9613      9686
 -2      9687      8978      8910      9618      9692      8984      9620      9693      9694      8985
 -1       949    4    0    1
 -2      5974      6064      6074      5984      5975      6065      6075      5985      9620      9693
 -2      9694      8985      8917      9625      9699      8991      9627      9700      9701      8992
 -1       950    4    0    1
 -2      5975      6065      6075      5985      5976      6066      6076      5986      9627      9700
 -2      9701      8992      8924      9632      9706      8998      9634      9707      9708      8999
 -1       951    4    0    1
 -2      5976      6066      6076      5986      5977      6067      6077      5987      9634      9707
 -2      9708      8999      8931      9639      9713      9005      9641      9714      9715      9006
 -1       952    4    0    1
 -2      5977      6067      6077      5987      5978      6068      6078      5988      9641      9714
 -2      9715      9006      8938      9646      9720      9012      9648      9721      9722      9013
 -1       953    4    0    1
 -2      5978      6068      6078      5988      5979      6069      6079      5989      9648      9721
 -2      9722      9013      8945      9653      9727      9019      9655      9728      9729      9020
 -1       954    4    0    1
 -2      5979      6069      6079      5989      5980      6070      6080      5990      9655      9728
 -2      9729      9020      8952      9660      9734      9026      9662      9735      9736      9027
 -1       955    4    0    1
 -2      5980      6070      6080      5990      5981      6071      6081      5991      9662      9735
 -2      9736      9027      8959      9667      9741      9033      9669      9742      9743      9034
 -1       956    4    0    1
 -2      5981      6071      6081      5991      5982      6072      6082      5992      9669      9742
 -2      9743      9034      8966      9674      9748      9040      9676      9749      9750      9041
 -1       957    4    0    1
 -2      5982      6072      6082      5992      4807      4816      4817      4808      9676      9749
 -2      9750      9041      8973      9681      9755      9047      5108      5110      5111      5081
 -1       958    4    0    1
 -2       411       420       421       412      5983      6073      6083      5993       714       716
 -2       717       687      8977      9685      9759      9051      9687      9760      9761      9052
 -1       959    4    0    1
 -2      5983      6073      6083      5993      5984      6074      6084      5994      9687      9760
 -2      9761      9052      8984      9692      9766      9058      9694      9767      9768      9059
 -1       960    4    0    1
 -2      5984      6074      6084      5994      5985      6075      6085      5995      9694      9767
 -2      9768      9059      8991      9699      9773      9065      9701      9774      9775      9066
 -1       961    4    0    1
 -2      5985      6075      6085      5995      5986      6076      6086      5996      9701      9774
 -2      9775      9066      8998      9706      9780      9072      9708      9781      9782      9073
 -1       962    4    0    1
 -2      5986      6076      6086      5996      5987      6077      6087      5997      9708      9781
 -2      9782      9073      9005      9713      9787      9079      9715      9788      9789      9080
 -1       963    4    0    1
 -2      5987      6077      6087      5997      5988      6078      6088      5998      9715      9788
 -2      9789      9080      9012      9720      9794      9086      9722      9795      9796      9087
 -1       964    4    0    1
 -2      5988      6078      6088      5998      5989      6079      6089      5999      9722      9795
 -2      9796      9087      9019      9727      9801      9093      9729      9802      9803      9094
 -1       965    4    0    1
 -2      5989      6079      6089      5999      5990      6080      6090      6000      9729      9802
 -2      9803      9094      9026      9734      9808      9100      9736      9809      9810      9101
 -1       966    4    0    1
 -2      5990      6080      6090      6000      5991      6081      6091      6001      9736      9809
 -2      9810      9101      9033      9741      9815      9107      9743      9816      9817      9108
 -1       967    4    0    1
 -2      5991      6081      6091      6001      5992      6082      6092      6002      9743      9816
 -2      9817      9108      9040      9748      9822      9114      9750      9823      9824      9115
 -1       968    4    0    1
 -2      5992      6082      6092      6002      4808      4817      4818      4809      9750      9823
 -2      9824      9115      9047      9755      9829      9121      5111      5113      5114      5084
 -1       969    4    0    1
 -2       412       421       422       413      5993      6083      6093      6003       717       719
 -2       720       690      9051      9759      9833      9125      9761      9834      9835      9126
 -1       970    4    0    1
 -2      5993      6083      6093      6003      5994      6084      6094      6004      9761      9834
 -2      9835      9126      9058      9766      9840      9132      9768      9841      9842      9133
 -1       971    4    0    1
 -2      5994      6084      6094      6004      5995      6085      6095      6005      9768      9841
 -2      9842      9133      9065      9773      9847      9139      9775      9848      9849      9140
 -1       972    4    0    1
 -2      5995      6085      6095      6005      5996      6086      6096      6006      9775      9848
 -2      9849      9140      9072      9780      9854      9146      9782      9855      9856      9147
 -1       973    4    0    1
 -2      5996      6086      6096      6006      5997      6087      6097      6007      9782      9855
 -2      9856      9147      9079      9787      9861      9153      9789      9862      9863      9154
 -1       974    4    0    1
 -2      5997      6087      6097      6007      5998      6088      6098      6008      9789      9862
 -2      9863      9154      9086      9794      9868      9160      9796      9869      9870      9161
 -1       975    4    0    1
 -2      5998      6088      6098      6008      5999      6089      6099      6009      9796      9869
 -2      9870      9161      9093      9801      9875      9167      9803      9876      9877      9168
 -1       976    4    0    1
 -2      5999      6089      6099      6009      6000      6090      6100      6010      9803      9876
 -2      9877      9168      9100      9808      9882      9174      9810      9883      9884      9175
 -1       977    4    0    1
 -2      6000      6090      6100      6010      6001      6091      6101      6011      9810      9883
 -2      9884      9175      9107      9815      9889      9181      9817      9890      9891      9182
 -1       978    4    0    1
 -2      6001      6091      6101      6011      6002      6092      6102      6012      9817      9890
 -2      9891      9182      9114      9822      9896      9188      9824      9897      9898      9189
 -1       979    4    0    1
 -2      6002      6092      6102      6012      4809      4818      4819      4810      9824      9897
 -2      9898      9189      9121      9829      9903      9195      5114      5116      5117      5087
 -1       980    4    0    1
 -2       413       422       114       115      6003      6093      3434      3444       720       722
 -2       144       693      9125      9833      4318      4350      9835      9907      4351      9199
 -1       981    4    0    1
 -2      6003      6093      3434      3444      6004      6094      3435      3445      9835      9907
 -2      4351      9199      9132      9840      4321      4353      9842      9911      4354      9203
 -1       982    4    0    1
 -2      6004      6094      3435      3445      6005      6095      3436      3446      9842      9911
 -2      4354      9203      9139      9847      4324      4356      9849      9915      4357      9207
 -1       983    4    0    1
 -2      6005      6095      3436      3446      6006      6096      3437      3447      9849      9915
 -2      4357      9207      9146      9854      4327      4359      9856      9919      4360      9211
 -1       984    4    0    1
 -2      6006      6096      3437      3447      6007      6097      3438      3448      9856      9919
 -2      4360      9211      9153      9861      4330      4362      9863      9923      4363      9215
 -1       985    4    0    1
 -2      6007      6097      3438      3448      6008      6098      3439      3449      9863      9923
 -2      4363      9215      9160      9868      4333      4365      9870      9927      4366      9219
 -1       986    4    0    1
 -2      6008      6098      3439      3449      6009      6099      3440      3450      9870      9927
 -2      4366      9219      9167      9875      4336      4368      9877      9931      4369      9223
 -1       987    4    0    1
 -2      6009      6099      3440      3450      6010      6100      3441      3451      9877      9931
 -2      4369      9223      9174      9882      4339      4371      9884      9935      4372      9227
 -1       988    4    0    1
 -2      6010      6100      3441      3451      6011      6101      3442      3452      9884      9935
 -2      4372      9227      9181      9889      4342      4374      9891      9939      4375      9231
 -1       989    4    0    1
 -2      6011      6101      3442      3452      6012      6102      3443      3453      9891      9939
 -2      4375      9231      9188      9896      4345      4377      9898      9943      4378      9235
 -1       990    4    0    1
 -2      6012      6102      3443      3453      4810      4819       270       271      9898      9943
 -2      4378      9235      9195      9903      4348      4380      5117      5119       300      5090
 -1       991    4    0    1
 -2        10        11       423       414      1536      1546      6103      6013        40       724
 -2       725       695      1848      1880      9949      9241      1881      9950      9951      9242
 -1       992    4    0    1
 -2      1536      1546      6103      6013      1537      1547      6104      6014      1881      9950
 -2      9951      9242      1851      1883      9956      9248      1884      9957      9958      9249
 -1       993    4    0    1
 -2      1537      1547      6104      6014      1538      1548      6105      6015      1884      9957
 -2      9958      9249      1854      1886      9963      9255      1887      9964      9965      9256
 -1       994    4    0    1
 -2      1538      1548      6105      6015      1539      1549      6106      6016      1887      9964
 -2      9965      9256      1857      1889      9970      9262      1890      9971      9972      9263
 -1       995    4    0    1
 -2      1539      1549      6106      6016      1540      1550      6107      6017      1890      9971
 -2      9972      9263      1860      1892      9977      9269      1893      9978      9979      9270
 -1       996    4    0    1
 -2      1540      1550      6107      6017      1541      1551      6108      6018      1893      9978
 -2      9979      9270      1863      1895      9984      9276      1896      9985      9986      9277
 -1       997    4    0    1
 -2      1541      1551      6108      6018      1542      1552      6109      6019      1896      9985
 -2      9986      9277      1866      1898      9991      9283      1899      9992      9993      9284
 -1       998    4    0    1
 -2      1542      1552      6109      6019      1543      1553      6110      6020      1899      9992
 -2      9993      9284      1869      1901      9998      9290      1902      9999     10000      9291
 -1       999    4    0    1
 -2      1543      1553      6110      6020      1544      1554      6111      6021      1902      9999
 -2     10000      9291      1872      1904     10005      9297      1905     10006     10007      9298
 -1      1000    4    0    1
 -2      1544      1554      6111      6021      1545      1555      6112      6022      1905     10006
 -2     10007      9298      1875      1907     10012      9304      1908     10013     10014      9305
 -1      1001    4    0    1
 -2      1545      1555      6112      6022       166       167      4820      4811      1908     10013
 -2     10014      9305      1878      1910     10019      9311       196      5121      5122      5092
 -1      1002    4    0    1
 -2       414       423       424       415      6013      6103      6113      6023       725       727
 -2       728       698      9241      9949     10023      9315      9951     10024     10025      9316
 -1      1003    4    0    1
 -2      6013      6103      6113      6023      6014      6104      6114      6024      9951     10024
 -2     10025      9316      9248      9956     10030      9322      9958     10031     10032      9323
 -1      1004    4    0    1
 -2      6014      6104      6114      6024      6015      6105      6115      6025      9958     10031
 -2     10032      9323      9255      9963     10037      9329      9965     10038     10039      9330
 -1      1005    4    0    1
 -2      6015      6105      6115      6025      6016      6106      6116      6026      9965     10038
 -2     10039      9330      9262      9970     10044      9336      9972     10045     10046      9337
 -1      1006    4    0    1
 -2      6016      6106      6116      6026      6017      6107      6117      6027      9972     10045
 -2     10046      9337      9269      9977     10051      9343      9979     10052     10053      9344
 -1      1007    4    0    1
 -2      6017      6107      6117      6027      6018      6108      6118      6028      9979     10052
 -2     10053      9344      9276      9984     10058      9350      9986     10059     10060      9351
 -1      1008    4    0    1
 -2      6018      6108      6118      6028      6019      6109      6119      6029      9986     10059
 -2     10060      9351      9283      9991     10065      9357      9993     10066     10067      9358
 -1      1009    4    0    1
 -2      6019      6109      6119      6029      6020      6110      6120      6030      9993     10066
 -2     10067      9358      9290      9998     10072      9364     10000     10073     10074      9365
 -1      1010    4    0    1
 -2      6020      6110      6120      6030      6021      6111      6121      6031     10000     10073
 -2     10074      9365      9297     10005     10079      9371     10007     10080     10081      9372
 -1      1011    4    0    1
 -2      6021      6111      6121      6031      6022      6112      6122      6032     10007     10080
 -2     10081      9372      9304     10012     10086      9378     10014     10087     10088      9379
 -1      1012    4    0    1
 -2      6022      6112      6122      6032      4811      4820      4821      4812     10014     10087
 -2     10088      9379      9311     10019     10093      9385      5122      5124      5125      5095
 -1      1013    4    0    1
 -2       415       424       425       416      6023      6113      6123      6033       728       730
 -2       731       701      9315     10023     10097      9389     10025     10098     10099      9390
 -1      1014    4    0    1
 -2      6023      6113      6123      6033      6024      6114      6124      6034     10025     10098
 -2     10099      9390      9322     10030     10104      9396     10032     10105     10106      9397
 -1      1015    4    0    1
 -2      6024      6114      6124      6034      6025      6115      6125      6035     10032     10105
 -2     10106      9397      9329     10037     10111      9403     10039     10112     10113      9404
 -1      1016    4    0    1
 -2      6025      6115      6125      6035      6026      6116      6126      6036     10039     10112
 -2     10113      9404      9336     10044     10118      9410     10046     10119     10120      9411
 -1      1017    4    0    1
 -2      6026      6116      6126      6036      6027      6117      6127      6037     10046     10119
 -2     10120      9411      9343     10051     10125      9417     10053     10126     10127      9418
 -1      1018    4    0    1
 -2      6027      6117      6127      6037      6028      6118      6128      6038     10053     10126
 -2     10127      9418      9350     10058     10132      9424     10060     10133     10134      9425
 -1      1019    4    0    1
 -2      6028      6118      6128      6038      6029      6119      6129      6039     10060     10133
 -2     10134      9425      9357     10065     10139      9431     10067     10140     10141      9432
 -1      1020    4    0    1
 -2      6029      6119      6129      6039      6030      6120      6130      6040     10067     10140
 -2     10141      9432      9364     10072     10146      9438     10074     10147     10148      9439
 -1      1021    4    0    1
 -2      6030      6120      6130      6040      6031      6121      6131      6041     10074     10147
 -2     10148      9439      9371     10079     10153      9445     10081     10154     10155      9446
 -1      1022    4    0    1
 -2      6031      6121      6131      6041      6032      6122      6132      6042     10081     10154
 -2     10155      9446      9378     10086     10160      9452     10088     10161     10162      9453
 -1      1023    4    0    1
 -2      6032      6122      6132      6042      4812      4821      4822      4813     10088     10161
 -2     10162      9453      9385     10093     10167      9459      5125      5127      5128      5098
 -1      1024    4    0    1
 -2       416       425       426       417      6033      6123      6133      6043       731       733
 -2       734       704      9389     10097     10171      9463     10099     10172     10173      9464
 -1      1025    4    0    1
 -2      6033      6123      6133      6043      6034      6124      6134      6044     10099     10172
 -2     10173      9464      9396     10104     10178      9470     10106     10179     10180      9471
 -1      1026    4    0    1
 -2      6034      6124      6134      6044      6035      6125      6135      6045     10106     10179
 -2     10180      9471      9403     10111     10185      9477     10113     10186     10187      9478
 -1      1027    4    0    1
 -2      6035      6125      6135      6045      6036      6126      6136      6046     10113     10186
 -2     10187      9478      9410     10118     10192      9484     10120     10193     10194      9485
 -1      1028    4    0    1
 -2      6036      6126      6136      6046      6037      6127      6137      6047     10120     10193
 -2     10194      9485      9417     10125     10199      9491     10127     10200     10201      9492
 -1      1029    4    0    1
 -2      6037      6127      6137      6047      6038      6128      6138      6048     10127     10200
 -2     10201      9492      9424     10132     10206      9498     10134     10207     10208      9499
 -1      1030    4    0    1
 -2      6038      6128      6138      6048      6039      6129      6139      6049     10134     10207
 -2     10208      9499      9431     10139     10213      9505     10141     10214     10215      9506
 -1      1031    4    0    1
 -2      6039      6129      6139      6049      6040      6130      6140      6050     10141     10214
 -2     10215      9506      9438     10146     10220      9512     10148     10221     10222      9513
 -1      1032    4    0    1
 -2      6040      6130      6140      6050      6041      6131      6141      6051     10148     10221
 -2     10222      9513      9445     10153     10227      9519     10155     10228     10229      9520
 -1      1033    4    0    1
 -2      6041      6131      6141      6051      6042      6132      6142      6052     10155     10228
 -2     10229      9520      9452     10160     10234      9526     10162     10235     10236      9527
 -1      1034    4    0    1
 -2      6042      6132      6142      6052      4813      4822      4823      4814     10162     10235
 -2     10236      9527      9459     10167     10241      9533      5128      5130      5131      5101
 -1      1035    4    0    1
 -2       417       426       427       418      6043      6133      6143      6053       734       736
 -2       737       707      9463     10171     10245      9537     10173     10246     10247      9538
 -1      1036    4    0    1
 -2      6043      6133      6143      6053      6044      6134      6144      6054     10173     10246
 -2     10247      9538      9470     10178     10252      9544     10180     10253     10254      9545
 -1      1037    4    0    1
 -2      6044      6134      6144      6054      6045      6135      6145      6055     10180     10253
 -2     10254      9545      9477     10185     10259      9551     10187     10260     10261      9552
 -1      1038    4    0    1
 -2      6045      6135      6145      6055      6046      6136      6146      6056     10187     10260
 -2     10261      9552      9484     10192     10266      9558     10194     10267     10268      9559
 -1      1039    4    0    1
 -2      6046      6136      6146      6056      6047      6137      6147      6057     10194     10267
 -2     10268      9559      9491     10199     10273      9565     10201     10274     10275      9566
 -1      1040    4    0    1
 -2      6047      6137      6147      6057      6048      6138      6148      6058     10201     10274
 -2     10275      9566      9498     10206     10280      9572     10208     10281     10282      9573
 -1      1041    4    0    1
 -2      6048      6138      6148      6058      6049      6139      6149      6059     10208     10281
 -2     10282      9573      9505     10213     10287      9579     10215     10288     10289      9580
 -1      1042    4    0    1
 -2      6049      6139      6149      6059      6050      6140      6150      6060     10215     10288
 -2     10289      9580      9512     10220     10294      9586     10222     10295     10296      9587
 -1      1043    4    0    1
 -2      6050      6140      6150      6060      6051      6141      6151      6061     10222     10295
 -2     10296      9587      9519     10227     10301      9593     10229     10302     10303      9594
 -1      1044    4    0    1
 -2      6051      6141      6151      6061      6052      6142      6152      6062     10229     10302
 -2     10303      9594      9526     10234     10308      9600     10236     10309     10310      9601
 -1      1045    4    0    1
 -2      6052      6142      6152      6062      4814      4823      4824      4815     10236     10309
 -2     10310      9601      9533     10241     10315      9607      5131      5133      5134      5104
 -1      1046    4    0    1
 -2       418       427       428       419      6053      6143      6153      6063       737       739
 -2       740       710      9537     10245     10319      9611     10247     10320     10321      9612
 -1      1047    4    0    1
 -2      6053      6143      6153      6063      6054      6144      6154      6064     10247     10320
 -2     10321      9612      9544     10252     10326      9618     10254     10327     10328      9619
 -1      1048    4    0    1
 -2      6054      6144      6154      6064      6055      6145      6155      6065     10254     10327
 -2     10328      9619      9551     10259     10333      9625     10261     10334     10335      9626
 -1      1049    4    0    1
 -2      6055      6145      6155      6065      6056      6146      6156      6066     10261     10334
 -2     10335      9626      9558     10266     10340      9632     10268     10341     10342      9633
 -1      1050    4    0    1
 -2      6056      6146      6156      6066      6057      6147      6157      6067     10268     10341
 -2     10342      9633      9565     10273     10347      9639     10275     10348     10349      9640
 -1      1051    4    0    1
 -2      6057      6147      6157      6067      6058      6148      6158      6068     10275     10348
 -2     10349      9640      9572     10280     10354      9646     10282     10355     10356      9647
 -1      1052    4    0    1
 -2      6058      6148      6158      6068      6059      6149      6159      6069     10282     10355
 -2     10356      9647      9579     10287     10361      9653     10289     10362     10363      9654
 -1      1053    4    0    1
 -2      6059      6149      6159      6069      6060      6150      6160      6070     10289     10362
 -2     10363      9654      9586     10294     10368      9660     10296     10369     10370      9661
 -1      1054    4    0    1
 -2      6060      6150      6160      6070      6061      6151      6161      6071     10296     10369
 -2     10370      9661      9593     10301     10375      9667     10303     10376     10377      9668
 -1      1055    4    0    1
 -2      6061      6151      6161      6071      6062      6152      6162      6072     10303     10376
 -2     10377      9668      9600     10308     10382      9674     10310     10383     10384      9675
 -1      1056    4    0    1
 -2      6062      6152      6162      6072      4815      4824      4825      4816     10310     10383
 -2     10384      9675      9607     10315     10389      9681      5134      5136      5137      5107
 -1      1057    4    0    1
 -2       419       428       429       420      6063      6153      6163      6073       740       742
 -2       743       713      9611     10319     10393      9685     10321     10394     10395      9686
 -1      1058    4    0    1
 -2      6063      6153      6163      6073      6064      6154      6164      6074     10321     10394
 -2     10395      9686      9618     10326     10400      9692     10328     10401     10402      9693
 -1      1059    4    0    1
 -2      6064      6154      6164      6074      6065      6155      6165      6075     10328     10401
 -2     10402      9693      9625     10333     10407      9699     10335     10408     10409      9700
 -1      1060    4    0    1
 -2      6065      6155      6165      6075      6066      6156      6166      6076     10335     10408
 -2     10409      9700      9632     10340     10414      9706     10342     10415     10416      9707
 -1      1061    4    0    1
 -2      6066      6156      6166      6076      6067      6157      6167      6077     10342     10415
 -2     10416      9707      9639     10347     10421      9713     10349     10422     10423      9714
 -1      1062    4    0    1
 -2      6067      6157      6167      6077      6068      6158      6168      6078     10349     10422
 -2     10423      9714      9646     10354     10428      9720     10356     10429     10430      9721
 -1      1063    4    0    1
 -2      6068      6158      6168      6078      6069      6159      6169      6079     10356     10429
 -2     10430      9721      9653     10361     10435      9727     10363     10436     10437      9728
 -1      1064    4    0    1
 -2      6069      6159      6169      6079      6070      6160      6170      6080     10363     10436
 -2     10437      9728      9660     10368     10442      9734     10370     10443     10444      9735
 -1      1065    4    0    1
 -2      6070      6160      6170      6080      6071      6161      6171      6081     10370     10443
 -2     10444      9735      9667     10375     10449      9741     10377     10450     10451      9742
 -1      1066    4    0    1
 -2      6071      6161      6171      6081      6072      6162      6172      6082     10377     10450
 -2     10451      9742      9674     10382     10456      9748     10384     10457     10458      9749
 -1      1067    4    0    1
 -2      6072      6162      6172      6082      4816      4825      4826      4817     10384     10457
 -2     10458      9749      9681     10389     10463      9755      5137      5139      5140      5110
 -1      1068    4    0    1
 -2       420       429       430       421      6073      6163      6173      6083       743       745
 -2       746       716      9685     10393     10467      9759     10395     10468     10469      9760
 -1      1069    4    0    1
 -2      6073      6163      6173      6083      6074      6164      6174      6084     10395     10468
 -2     10469      9760      9692     10400     10474      9766     10402     10475     10476      9767
 -1      1070    4    0    1
 -2      6074      6164      6174      6084      6075      6165      6175      6085     10402     10475
 -2     10476      9767      9699     10407     10481      9773     10409     10482     10483      9774
 -1      1071    4    0    1
 -2      6075      6165      6175      6085      6076      6166      6176      6086     10409     10482
 -2     10483      9774      9706     10414     10488      9780     10416     10489     10490      9781
 -1      1072    4    0    1
 -2      6076      6166      6176      6086      6077      6167      6177      6087     10416     10489
 -2     10490      9781      9713     10421     10495      9787     10423     10496     10497      9788
 -1      1073    4    0    1
 -2      6077      6167      6177      6087      6078      6168      6178      6088     10423     10496
 -2     10497      9788      9720     10428     10502      9794     10430     10503     10504      9795
 -1      1074    4    0    1
 -2      6078      6168      6178      6088      6079      6169      6179      6089     10430     10503
 -2     10504      9795      9727     10435     10509      9801     10437     10510     10511      9802
 -1      1075    4    0    1
 -2      6079      6169      6179      6089      6080      6170      6180      6090     10437     10510
 -2     10511      9802      9734     10442     10516      9808     10444     10517     10518      9809
 -1      1076    4    0    1
 -2      6080      6170      6180      6090      6081      6171      6181      6091     10444     10517
 -2     10518      9809      9741     10449     10523      9815     10451     10524     10525      9816
 -1      1077    4    0    1
 -2      6081      6171      6181      6091      6082      6172      6182      6092     10451     10524
 -2     10525      9816      9748     10456     10530      9822     10458     10531     10532      9823
 -1      1078    4    0    1
 -2      6082      6172      6182      6092      4817      4826      4827      4818     10458     10531
 -2     10532      9823      9755     10463     10537      9829      5140      5142      5143      5113
 -1      1079    4    0    1
 -2       421       430       431       422      6083      6173      6183      6093       746       748
 -2       749       719      9759     10467     10541      9833     10469     10542     10543      9834
 -1      1080    4    0    1
 -2      6083      6173      6183      6093      6084      6174      6184      6094     10469     10542
 -2     10543      9834      9766     10474     10548      9840     10476     10549     10550      9841
 -1      1081    4    0    1
 -2      6084      6174      6184      6094      6085      6175      6185      6095     10476     10549
 -2     10550      9841      9773     10481     10555      9847     10483     10556     10557      9848
 -1      1082    4    0    1
 -2      6085      6175      6185      6095      6086      6176      6186      6096     10483     10556
 -2     10557      9848      9780     10488     10562      9854     10490     10563     10564      9855
 -1      1083    4    0    1
 -2      6086      6176      6186      6096      6087      6177      6187      6097     10490     10563
 -2     10564      9855      9787     10495     10569      9861     10497     10570     10571      9862
 -1      1084    4    0    1
 -2      6087      6177      6187      6097      6088      6178      6188      6098     10497     10570
 -2     10571      9862      9794     10502     10576      9868     10504     10577     10578      9869
 -1      1085    4    0    1
 -2      6088      6178      6188      6098      6089      6179      6189      6099     10504     10577
 -2     10578      9869      9801     10509     10583      9875     10511     10584     10585      9876
 -1      1086    4    0    1
 -2      6089      6179      6189      6099      6090      6180      6190      6100     10511     10584
 -2     10585      9876      9808     10516     10590      9882     10518     10591     10592      9883
 -1      1087    4    0    1
 -2      6090      6180      6190      6100      6091      6181      6191      6101     10518     10591
 -2     10592      9883      9815     10523     10597      9889     10525     10598     10599      9890
 -1      1088    4    0    1
 -2      6091      6181      6191      6101      6092      6182      6192      6102     10525     10598
 -2     10599      9890      9822     10530     10604      9896     10532     10605     10606      9897
 -1      1089    4    0    1
 -2      6092      6182      6192      6102      4818      4827      4828      4819     10532     10605
 -2     10606      9897      9829     10537     10611      9903      5143      5145      5146      5116
 -1      1090    4    0    1
 -2       422       431       113       114      6093      6183      3424      3434       749       751
 -2       143       722      9833     10541      4286      4318     10543     10615      4319      9907
 -1      1091    4    0    1
 -2      6093      6183      3424      3434      6094      6184      3425      3435     10543     10615
 -2      4319      9907      9840     10548      4289      4321     10550     10619      4322      9911
 -1      1092    4    0    1
 -2      6094      6184      3425      3435      6095      6185      3426      3436     10550     10619
 -2      4322      9911      9847     10555      4292      4324     10557     10623      4325      9915
 -1      1093    4    0    1
 -2      6095      6185      3426      3436      6096      6186      3427      3437     10557     10623
 -2      4325      9915      9854     10562      4295      4327     10564     10627      4328      9919
 -1      1094    4    0    1
 -2      6096      6186      3427      3437      6097      6187      3428      3438     10564     10627
 -2      4328      9919      9861     10569      4298      4330     10571     10631      4331      9923
 -1      1095    4    0    1
 -2      6097      6187      3428      3438      6098      6188      3429      3439     10571     10631
 -2      4331      9923      9868     10576      4301      4333     10578     10635      4334      9927
 -1      1096    4    0    1
 -2      6098      6188      3429      3439      6099      6189      3430      3440     10578     10635
 -2      4334      9927      9875     10583      4304      4336     10585     10639      4337      9931
 -1      1097    4    0    1
 -2      6099      6189      3430      3440      6100      6190      3431      3441     10585     10639
 -2      4337      9931      9882     10590      4307      4339     10592     10643      4340      9935
 -1      1098    4    0    1
 -2      6100      6190      3431      3441      6101      6191      3432      3442     10592     10643
 -2      4340      9935      9889     10597      4310      4342     10599     10647      4343      9939
 -1      1099    4    0    1
 -2      6101      6191      3432      3442      6102      6192      3433      3443     10599     10647
 -2      4343      9939      9896     10604      4313      4345     10606     10651      4346      9943
 -1      1100    4    0    1
 -2      6102      6192      3433      3443      4819      4828       269       270     10606     10651
 -2      4346      9943      9903     10611      4316      4348      5146      5148       299      5119
 -1      1101    4    0    1
 -2        11        12       432       423      1546      1556      6193      6103        41       753
 -2       754       724      1880      1912     10657      9949      1913     10658     10659      9950
 -1      1102    4    0    1
 -2      1546      1556      6193      6103      1547      1557      6194      6104      1913     10658
 -2     10659      9950      1883      1915     10664      9956      1916     10665     10666      9957
 -1      1103    4    0    1
 -2      1547      1557      6194      6104      1548      1558      6195      6105      1916     10665
 -2     10666      9957      1886      1918     10671      9963      1919     10672     10673      9964
 -1      1104    4    0    1
 -2      1548      1558      6195      6105      1549      1559      6196      6106      1919     10672
 -2     10673      9964      1889      1921     10678      9970      1922     10679     10680      9971
 -1      1105    4    0    1
 -2      1549      1559      6196      6106      1550      1560      6197      6107      1922     10679
 -2     10680      9971      1892      1924     10685      9977      1925     10686     10687      9978
 -1      1106    4    0    1
 -2      1550      1560      6197      6107      1551      1561      6198      6108      1925     10686
 -2     10687      9978      1895      1927     10692      9984      1928     10693     10694      9985
 -1      1107    4    0    1
 -2      1551      1561      6198      6108      1552      1562      6199      6109      1928     10693
 -2     10694      9985      1898      1930     10699      9991      1931     10700     10701      9992
 -1      1108    4    0    1
 -2      1552      1562      6199      6109      1553      1563      6200      6110      1931     10700
 -2     10701      9992      1901      1933     10706      9998      1934     10707     10708      9999
 -1      1109    4    0    1
 -2      1553      1563      6200      6110      1554      1564      6201      6111      1934     10707
 -2     10708      9999      1904      1936     10713     10005      1937     10714     10715     10006
 -1      1110    4    0    1
 -2      1554      1564      6201      6111      1555      1565      6202      6112      1937     10714
 -2     10715     10006      1907      1939     10720     10012      1940     10721     10722     10013
 -1      1111    4    0    1
 -2      1555      1565      6202      6112       167       168      4829      4820      1940     10721
 -2     10722     10013      1910      1942     10727     10019       197      5150      5151      5121
 -1      1112    4    0    1
 -2       423       432       433       424      6103      6193      6203      6113       754       756
 -2       757       727      9949     10657     10731     10023     10659     10732     10733     10024
 -1      1113    4    0    1
 -2      6103      6193      6203      6113      6104      6194      6204      6114     10659     10732
 -2     10733     10024      9956     10664     10738     10030     10666     10739     10740     10031
 -1      1114    4    0    1
 -2      6104      6194      6204      6114      6105      6195      6205      6115     10666     10739
 -2     10740     10031      9963     10671     10745     10037     10673     10746     10747     10038
 -1      1115    4    0    1
 -2      6105      6195      6205      6115      6106      6196      6206      6116     10673     10746
 -2     10747     10038      9970     10678     10752     10044     10680     10753     10754     10045
 -1      1116    4    0    1
 -2      6106      6196      6206      6116      6107      6197      6207      6117     10680     10753
 -2     10754     10045      9977     10685     10759     10051     10687     10760     10761     10052
 -1      1117    4    0    1
 -2      6107      6197      6207      6117      6108      6198      6208      6118     10687     10760
 -2     10761     10052      9984     10692     10766     10058     10694     10767     10768     10059
 -1      1118    4    0    1
 -2      6108      6198      6208      6118      6109      6199      6209      6119     10694     10767
 -2     10768     10059      9991     10699     10773     10065     10701     10774     10775     10066
 -1      1119    4    0    1
 -2      6109      6199      6209      6119      6110      6200      6210      6120     10701     10774
 -2     10775     10066      9998     10706     10780     10072     10708     10781     10782     10073
 -1      1120    4    0    1
 -2      6110      6200      6210      6120      6111      6201      6211      6121     10708     10781
 -2     10782     10073     10005     10713     10787     10079     10715     10788     10789     10080
 -1      1121    4    0    1
 -2      6111      6201      6211      6121      6112      6202      6212      6122     10715     10788
 -2     10789     10080     10012     10720     10794     10086     10722     10795     10796     10087
 -1      1122    4    0    1
 -2      6112      6202      6212      6122      4820      4829      4830      4821     10722     10795
 -2     10796     10087     10019     10727     10801     10093      5151      5153      5154      5124
 -1      1123    4    0    1
 -2       424       433       434       425      6113      6203      6213      6123       757       759
 -2       760       730     10023     10731     10805     10097     10733     10806     10807     10098
 -1      1124    4    0    1
 -2      6113      6203      6213      6123      6114      6204      6214      6124     10733     10806
 -2     10807     10098     10030     10738     10812     10104     10740     10813     10814     10105
 -1      1125    4    0    1
 -2      6114      6204      6214      6124      6115      6205      6215      6125     10740     10813
 -2     10814     10105     10037     10745     10819     10111     10747     10820     10821     10112
 -1      1126    4    0    1
 -2      6115      6205      6215      6125      6116      6206      6216      6126     10747     10820
 -2     10821     10112     10044     10752     10826     10118     10754     10827     10828     10119
 -1      1127    4    0    1
 -2      6116      6206      6216      6126      6117      6207      6217      6127     10754     10827
 -2     10828     10119     10051     10759     10833     10125     10761     10834     10835     10126
 -1      1128    4    0    1
 -2      6117      6207      6217      6127      6118      6208      6218      6128     10761     10834
 -2     10835     10126     10058     10766     10840     10132     10768     10841     10842     10133
 -1      1129    4    0    1
 -2      6118      6208      6218      6128      6119      6209      6219      6129     10768     10841
 -2     10842     10133     10065     10773     10847     10139     10775     10848     10849     10140
 -1      1130    4    0    1
 -2      6119      6209      6219      6129      6120      6210      6220      6130     10775     10848
 -2     10849     10140     10072     10780     10854     10146     10782     10855     10856     10147
 -1      1131    4    0    1
 -2      6120      6210      6220      6130      6121      6211      6221      6131     10782     10855
 -2     10856     10147     10079     10787     10861     10153     10789     10862     10863     10154
 -1      1132    4    0    1
 -2      6121      6211      6221      6131      6122      6212      6222      6132     10789     10862
 -2     10863     10154     10086     10794     10868     10160     10796     10869     10870     10161
 -1      1133    4    0    1
 -2      6122      6212      6222      6132      4821      4830      4831      4822     10796     10869
 -2     10870     10161     10093     10801     10875     10167      5154      5156      5157      5127
 -1      1134    4    0    1
 -2       425       434       435       426      6123      6213      6223      6133       760       762
 -2       763       733     10097     10805     10879     10171     10807     10880     10881     10172
 -1      1135    4    0    1
 -2      6123      6213      6223      6133      6124      6214      6224      6134     10807     10880
 -2     10881     10172     10104     10812     10886     10178     10814     10887     10888     10179
 -1      1136    4    0    1
 -2      6124      6214      6224      6134      6125      6215      6225      6135     10814     10887
 -2     10888     10179     10111     10819     10893     10185     10821     10894     10895     10186
 -1      1137    4    0    1
 -2      6125      6215      6225      6135      6126      6216      6226      6136     10821     10894
 -2     10895     10186     10118     10826     10900     10192     10828     10901     10902     10193
 -1      1138    4    0    1
 -2      6126      6216      6226      6136      6127      6217      6227      6137     10828     10901
 -2     10902     10193     10125     10833     10907     10199     10835     10908     10909     10200
 -1      1139    4    0    1
 -2      6127      6217      6227      6137      6128      6218      6228      6138     10835     10908
 -2     10909     10200     10132     10840     10914     10206     10842     10915     10916     10207
 -1      1140    4    0    1
 -2      6128      6218      6228      6138      6129      6219      6229      6139     10842     10915
 -2     10916     10207     10139     10847     10921     10213     10849     10922     10923     10214
 -1      1141    4    0    1
 -2      6129      6219      6229      6139      6130      6220      6230      6140     10849     10922
 -2     10923     10214     10146     10854     10928     10220     10856     10929     10930     10221
 -1      1142    4    0    1
 -2      6130      6220      6230      6140      6131      6221      6231      6141     10856     10929
 -2     10930     10221     10153     10861     10935     10227     10863     10936     10937     10228
 -1      1143    4    0    1
 -2      6131      6221      6231      6141      6132      6222      6232      6142     10863     10936
 -2     10937     10228     10160     10868     10942     10234     10870     10943     10944     10235
 -1      1144    4    0    1
 -2      6132      6222      6232      6142      4822      4831      4832      4823     10870     10943
 -2     10944     10235     10167     10875     10949     10241      5157      5159      5160      5130
 -1      1145    4    0    1
 -2       426       435       436       427      6133      6223      6233      6143       763       765
 -2       766       736     10171     10879     10953     10245     10881     10954     10955     10246
 -1      1146    4    0    1
 -2      6133      6223      6233      6143      6134      6224      6234      6144     10881     10954
 -2     10955     10246     10178     10886     10960     10252     10888     10961     10962     10253
 -1      1147    4    0    1
 -2      6134      6224      6234      6144      6135      6225      6235      6145     10888     10961
 -2     10962     10253     10185     10893     10967     10259     10895     10968     10969     10260
 -1      1148    4    0    1
 -2      6135      6225      6235      6145      6136      6226      6236      6146     10895     10968
 -2     10969     10260     10192     10900     10974     10266     10902     10975     10976     10267
 -1      1149    4    0    1
 -2      6136      6226      6236      6146      6137      6227      6237      6147     10902     10975
 -2     10976     10267     10199     10907     10981     10273     10909     10982     10983     10274
 -1      1150    4    0    1
 -2      6137      6227      6237      6147      6138      6228      6238      6148     10909     10982
 -2     10983     10274     10206     10914     10988     10280     10916     10989     10990     10281
 -1      1151    4    0    1
 -2      6138      6228      6238      6148      6139      6229      6239      6149     10916     10989
 -2     10990     10281     10213     10921     10995     10287     10923     10996     10997     10288
 -1      1152    4    0    1
 -2      6139      6229      6239      6149      6140      6230      6240      6150     10923     10996
 -2     10997     10288     10220     10928     11002     10294     10930     11003     11004     10295
 -1      1153    4    0    1
 -2      6140      6230      6240      6150      6141      6231      6241      6151     10930     11003
 -2     11004     10295     10227     10935     11009     10301     10937     11010     11011     10302
 -1      1154    4    0    1
 -2      6141      6231      6241      6151      6142      6232      6242      6152     10937     11010
 -2     11011     10302     10234     10942     11016     10308     10944     11017     11018     10309
 -1      1155    4    0    1
 -2      6142      6232      6242      6152      4823      4832      4833      4824     10944     11017
 -2     11018     10309     10241     10949     11023     10315      5160      5162      5163      5133
 -1      1156    4    0    1
 -2       427       436       437       428      6143      6233      6243      6153       766       768
 -2       769       739     10245     10953     11027     10319     10955     11028     11029     10320
 -1      1157    4    0    1
 -2      6143      6233      6243      6153      6144      6234      6244      6154     10955     11028
 -2     11029     10320     10252     10960     11034     10326     10962     11035     11036     10327
 -1      1158    4    0    1
 -2      6144      6234      6244      6154      6145      6235      6245      6155     10962     11035
 -2     11036     10327     10259     10967     11041     10333     10969     11042     11043     10334
 -1      1159    4    0    1
 -2      6145      6235      6245      6155      6146      6236      6246      6156     10969     11042
 -2     11043     10334     10266     10974     11048     10340     10976     11049     11050     10341
 -1      1160    4    0    1
 -2      6146      6236      6246      6156      6147      6237      6247      6157     10976     11049
 -2     11050     10341     10273     10981     11055     10347     10983     11056     11057     10348
 -1      1161    4    0    1
 -2      6147      6237      6247      6157      6148      6238      6248      6158     10983     11056
 -2     11057     10348     10280     10988     11062     10354     10990     11063     11064     10355
 -1      1162    4    0    1
 -2      6148      6238      6248      6158      6149      6239      6249      6159     10990     11063
 -2     11064     10355     10287     10995     11069     10361     10997     11070     11071     10362
 -1      1163    4    0    1
 -2      6149      6239      6249      6159      6150      6240      6250      6160     10997     11070
 -2     11071     10362     10294     11002     11076     10368     11004     11077     11078     10369
 -1      1164    4    0    1
 -2      6150      6240      6250      6160      6151      6241      6251      6161     11004     11077
 -2     11078     10369     10301     11009     11083     10375     11011     11084     11085     10376
 -1      1165    4    0    1
 -2      6151      6241      6251      6161      6152      6242      6252      6162     11011     11084
 -2     11085     10376     10308     11016     11090     10382     11018     11091     11092     10383
 -1      1166    4    0    1
 -2      6152      6242      6252      6162      4824      4833      4834      4825     11018     11091
 -2     11092     10383     10315     11023     11097     10389      5163      5165      5166      5136
 -1      1167    4    0    1
 -2       428       437       438       429      6153      6243      6253      6163       769       771
 -2       772       742     10319     11027     11101     10393     11029     11102     11103     10394
 -1      1168    4    0    1
 -2      6153      6243      6253      6163      6154      6244      6254      6164     11029     11102
 -2     11103     10394     10326     11034     11108     10400     11036     11109     11110     10401
 -1      1169    4    0    1
 -2      6154      6244      6254      6164      6155      6245      6255      6165     11036     11109
 -2     11110     10401     10333     11041     11115     10407     11043     11116     11117     10408
 -1      1170    4    0    1
 -2      6155      6245      6255      6165      6156      6246      6256      6166     11043     11116
 -2     11117     10408     10340     11048     11122     10414     11050     11123     11124     10415
 -1      1171    4    0    1
 -2      6156      6246      6256      6166      6157      6247      6257      6167     11050     11123
 -2     11124     10415     10347     11055     11129     10421     11057     11130     11131     10422
 -1      1172    4    0    1
 -2      6157      6247      6257      6167      6158      6248      6258      6168     11057     11130
 -2     11131     10422     10354     11062     11136     10428     11064     11137     11138     10429
 -1      1173    4    0    1
 -2      6158      6248      6258      6168      6159      6249      6259      6169     11064     11137
 -2     11138     10429     10361     11069     11143     10435     11071     11144     11145     10436
 -1      1174    4    0    1
 -2      6159      6249      6259      6169      6160      6250      6260      6170     11071     11144
 -2     11145     10436     10368     11076     11150     10442     11078     11151     11152     10443
 -1      1175    4    0    1
 -2      6160      6250      6260      6170      6161      6251      6261      6171     11078     11151
 -2     11152     10443     10375     11083     11157     10449     11085     11158     11159     10450
 -1      1176    4    0    1
 -2      6161      6251      6261      6171      6162      6252      6262      6172     11085     11158
 -2     11159     10450     10382     11090     11164     10456     11092     11165     11166     10457
 -1      1177    4    0    1
 -2      6162      6252      6262      6172      4825      4834      4835      4826     11092     11165
 -2     11166     10457     10389     11097     11171     10463      5166      5168      5169      5139
 -1      1178    4    0    1
 -2       429       438       439       430      6163      6253      6263      6173       772       774
 -2       775       745     10393     11101     11175     10467     11103     11176     11177     10468
 -1      1179    4    0    1
 -2      6163      6253      6263      6173      6164      6254      6264      6174     11103     11176
 -2     11177     10468     10400     11108     11182     10474     11110     11183     11184     10475
 -1      1180    4    0    1
 -2      6164      6254      6264      6174      6165      6255      6265      6175     11110     11183
 -2     11184     10475     10407     11115     11189     10481     11117     11190     11191     10482
 -1      1181    4    0    1
 -2      6165      6255      6265      6175      6166      6256      6266      6176     11117     11190
 -2     11191     10482     10414     11122     11196     10488     11124     11197     11198     10489
 -1      1182    4    0    1
 -2      6166      6256      6266      6176      6167      6257      6267      6177     11124     11197
 -2     11198     10489     10421     11129     11203     10495     11131     11204     11205     10496
 -1      1183    4    0    1
 -2      6167      6257      6267      6177      6168      6258      6268      6178     11131     11204
 -2     11205     10496     10428     11136     11210     10502     11138     11211     11212     10503
 -1      1184    4    0    1
 -2      6168      6258      6268      6178      6169      6259      6269      6179     11138     11211
 -2     11212     10503     10435     11143     11217     10509     11145     11218     11219     10510
 -1      1185    4    0    1
 -2      6169      6259      6269      6179      6170      6260      6270      6180     11145     11218
 -2     11219     10510     10442     11150     11224     10516     11152     11225     11226     10517
 -1      1186    4    0    1
 -2      6170      6260      6270      6180      6171      6261      6271      6181     11152     11225
 -2     11226     10517     10449     11157     11231     10523     11159     11232     11233     10524
 -1      1187    4    0    1
 -2      6171      6261      6271      6181      6172      6262      6272      6182     11159     11232
 -2     11233     10524     10456     11164     11238     10530     11166     11239     11240     10531
 -1      1188    4    0    1
 -2      6172      6262      6272      6182      4826      4835      4836      4827     11166     11239
 -2     11240     10531     10463     11171     11245     10537      5169      5171      5172      5142
 -1      1189    4    0    1
 -2       430       439       440       431      6173      6263      6273      6183       775       777
 -2       778       748     10467     11175     11249     10541     11177     11250     11251     10542
 -1      1190    4    0    1
 -2      6173      6263      6273      6183      6174      6264      6274      6184     11177     11250
 -2     11251     10542     10474     11182     11256     10548     11184     11257     11258     10549
 -1      1191    4    0    1
 -2      6174      6264      6274      6184      6175      6265      6275      6185     11184     11257
 -2     11258     10549     10481     11189     11263     10555     11191     11264     11265     10556
 -1      1192    4    0    1
 -2      6175      6265      6275      6185      6176      6266      6276      6186     11191     11264
 -2     11265     10556     10488     11196     11270     10562     11198     11271     11272     10563
 -1      1193    4    0    1
 -2      6176      6266      6276      6186      6177      6267      6277      6187     11198     11271
 -2     11272     10563     10495     11203     11277     10569     11205     11278     11279     10570
 -1      1194    4    0    1
 -2      6177      6267      6277      6187      6178      6268      6278      6188     11205     11278
 -2     11279     10570     10502     11210     11284     10576     11212     11285     11286     10577
 -1      1195    4    0    1
 -2      6178      6268      6278      6188      6179      6269      6279      6189     11212     11285
 -2     11286     10577     10509     11217     11291     10583     11219     11292     11293     10584
 -1      1196    4    0    1
 -2      6179      6269      6279      6189      6180      6270      6280      6190     11219     11292
 -2     11293     10584     10516     11224     11298     10590     11226     11299     11300     10591
 -1      1197    4    0    1
 -2      6180      6270      6280      6190      6181      6271      6281      6191     11226     11299
 -2     11300     10591     10523     11231     11305     10597     11233     11306     11307     10598
 -1      1198    4    0    1
 -2      6181      6271      6281      6191      6182      6272      6282      6192     11233     11306
 -2     11307     10598     10530     11238     11312     10604     11240     11313     11314     10605
 -1      1199    4    0    1
 -2      6182      6272      6282      6192      4827      4836      4837      4828     11240     11313
 -2     11314     10605     10537     11245     11319     10611      5172      5174      5175      5145
 -1      1200    4    0    1
 -2       431       440       112       113      6183      6273      3414      3424       778       780
 -2       142       751     10541     11249      4254      4286     11251     11323      4287     10615
 -1      1201    4    0    1
 -2      6183      6273      3414      3424      6184      6274      3415      3425     11251     11323
 -2      4287     10615     10548     11256      4257      4289     11258     11327      4290     10619
 -1      1202    4    0    1
 -2      6184      6274      3415      3425      6185      6275      3416      3426     11258     11327
 -2      4290     10619     10555     11263      4260      4292     11265     11331      4293     10623
 -1      1203    4    0    1
 -2      6185      6275      3416      3426      6186      6276      3417      3427     11265     11331
 -2      4293     10623     10562     11270      4263      4295     11272     11335      4296     10627
 -1      1204    4    0    1
 -2      6186      6276      3417      3427      6187      6277      3418      3428     11272     11335
 -2      4296     10627     10569     11277      4266      4298     11279     11339      4299     10631
 -1      1205    4    0    1
 -2      6187      6277      3418      3428      6188      6278      3419      3429     11279     11339
 -2      4299     10631     10576     11284      4269      4301     11286     11343      4302     10635
 -1      1206    4    0    1
 -2      6188      6278      3419      3429      6189      6279      3420      3430     11286     11343
 -2      4302     10635     10583     11291      4272      4304     11293     11347      4305     10639
 -1      1207    4    0    1
 -2      6189      6279      3420      3430      6190      6280      3421      3431     11293     11347
 -2      4305     10639     10590     11298      4275      4307     11300     11351      4308     10643
 -1      1208    4    0    1
 -2      6190      6280      3421      3431      6191      6281      3422      3432     11300     11351
 -2      4308     10643     10597     11305      4278      4310     11307     11355      4311     10647
 -1      1209    4    0    1
 -2      6191      6281      3422      3432      6192      6282      3423      3433     11307     11355
 -2      4311     10647     10604     11312      4281      4313     11314     11359      4314     10651
 -1      1210    4    0    1
 -2      6192      6282      3423      3433      4828      4837       268       269     11314     11359
 -2      4314     10651     10611     11319      4284      4316      5175      5177       298      5148
 -1      1211    4    0    1
 -2        12        13       441       432      1556      1566      6283      6193        42       782
 -2       783       753      1912      1944     11365     10657      1945     11366     11367     10658
 -1      1212    4    0    1
 -2      1556      1566      6283      6193      1557      1567      6284      6194      1945     11366
 -2     11367     10658      1915      1947     11372     10664      1948     11373     11374     10665
 -1      1213    4    0    1
 -2      1557      1567      6284      6194      1558      1568      6285      6195      1948     11373
 -2     11374     10665      1918      1950     11379     10671      1951     11380     11381     10672
 -1      1214    4    0    1
 -2      1558      1568      6285      6195      1559      1569      6286      6196      1951     11380
 -2     11381     10672      1921      1953     11386     10678      1954     11387     11388     10679
 -1      1215    4    0    1
 -2      1559      1569      6286      6196      1560      1570      6287      6197      1954     11387
 -2     11388     10679      1924      1956     11393     10685      1957     11394     11395     10686
 -1      1216    4    0    1
 -2      1560      1570      6287      6197      1561      1571      6288      6198      1957     11394
 -2     11395     10686      1927      1959     11400     10692      1960     11401     11402     10693
 -1      1217    4    0    1
 -2      1561      1571      6288      6198      1562      1572      6289      6199      1960     11401
 -2     11402     10693      1930      1962     11407     10699      1963     11408     11409     10700
 -1      1218    4    0    1
 -2      1562      1572      6289      6199      1563      1573      6290      6200      1963     11408
 -2     11409     10700      1933      1965     11414     10706      1966     11415     11416     10707
 -1      1219    4    0    1
 -2      1563      1573      6290      6200      1564      1574      6291      6201      1966     11415
 -2     11416     10707      1936      1968     11421     10713      1969     11422     11423     10714
 -1      1220    4    0    1
 -2      1564      1574      6291      6201      1565      1575      6292      6202      1969     11422
 -2     11423     10714      1939      1971     11428     10720      1972     11429     11430     10721
 -1      1221    4    0    1
 -2      1565      1575      6292      6202       168       169      4838      4829      1972     11429
 -2     11430     10721      1942      1974     11435     10727       198      5179      5180      5150
 -1      1222    4    0    1
 -2       432       441       442       433      6193      6283      6293      6203       783       785
 -2       786       756     10657     11365     11439     10731     11367     11440     11441     10732
 -1      1223    4    0    1
 -2      6193      6283      6293      6203      6194      6284      6294      6204     11367     11440
 -2     11441     10732     10664     11372     11446     10738     11374     11447     11448     10739
 -1      1224    4    0    1
 -2      6194      6284      6294      6204      6195      6285      6295      6205     11374     11447
 -2     11448     10739     10671     11379     11453     10745     11381     11454     11455     10746
 -1      1225    4    0    1
 -2      6195      6285      6295      6205      6196      6286      6296      6206     11381     11454
 -2     11455     10746     10678     11386     11460     10752     11388     11461     11462     10753
 -1      1226    4    0    1
 -2      6196      6286      6296      6206      6197      6287      6297      6207     11388     11461
 -2     11462     10753     10685     11393     11467     10759     11395     11468     11469     10760
 -1      1227    4    0    1
 -2      6197      6287      6297      6207      6198      6288      6298      6208     11395     11468
 -2     11469     10760     10692     11400     11474     10766     11402     11475     11476     10767
 -1      1228    4    0    1
 -2      6198      6288      6298      6208      6199      6289      6299      6209     11402     11475
 -2     11476     10767     10699     11407     11481     10773     11409     11482     11483     10774
 -1      1229    4    0    1
 -2      6199      6289      6299      6209      6200      6290      6300      6210     11409     11482
 -2     11483     10774     10706     11414     11488     10780     11416     11489     11490     10781
 -1      1230    4    0    1
 -2      6200      6290      6300      6210      6201      6291      6301      6211     11416     11489
 -2     11490     10781     10713     11421     11495     10787     11423     11496     11497     10788
 -1      1231    4    0    1
 -2      6201      6291      6301      6211      6202      6292      6302      6212     11423     11496
 -2     11497     10788     10720     11428     11502     10794     11430     11503     11504     10795
 -1      1232    4    0    1
 -2      6202      6292      6302      6212      4829      4838      4839      4830     11430     11503
 -2     11504     10795     10727     11435     11509     10801      5180      5182      5183      5153
 -1      1233    4    0    1
 -2       433       442       443       434      6203      6293      6303      6213       786       788
 -2       789       759     10731     11439     11513     10805     11441     11514     11515     10806
 -1      1234    4    0    1
 -2      6203      6293      6303      6213      6204      6294      6304      6214     11441     11514
 -2     11515     10806     10738     11446     11520     10812     11448     11521     11522     10813
 -1      1235    4    0    1
 -2      6204      6294      6304      6214      6205      6295      6305      6215     11448     11521
 -2     11522     10813     10745     11453     11527     10819     11455     11528     11529     10820
 -1      1236    4    0    1
 -2      6205      6295      6305      6215      6206      6296      6306      6216     11455     11528
 -2     11529     10820     10752     11460     11534     10826     11462     11535     11536     10827
 -1      1237    4    0    1
 -2      6206      6296      6306      6216      6207      6297      6307      6217     11462     11535
 -2     11536     10827     10759     11467     11541     10833     11469     11542     11543     10834
 -1      1238    4    0    1
 -2      6207      6297      6307      6217      6208      6298      6308      6218     11469     11542
 -2     11543     10834     10766     11474     11548     10840     11476     11549     11550     10841
 -1      1239    4    0    1
 -2      6208      6298      6308      6218      6209      6299      6309      6219     11476     11549
 -2     11550     10841     10773     11481     11555     10847     11483     11556     11557     10848
 -1      1240    4    0    1
 -2      6209      6299      6309      6219      6210      6300      6310      6220     11483     11556
 -2     11557     10848     10780     11488     11562     10854     11490     11563     11564     10855
 -1      1241    4    0    1
 -2      6210      6300      6310      6220      6211      6301      6311      6221     11490     11563
 -2     11564     10855     10787     11495     11569     10861     11497     11570     11571     10862
 -1      1242    4    0    1
 -2      6211      6301      6311      6221      6212      6302      6312      6222     11497     11570
 -2     11571     10862     10794     11502     11576     10868     11504     11577     11578     10869
 -1      1243    4    0    1
 -2      6212      6302      6312      6222      4830      4839      4840      4831     11504     11577
 -2     11578     10869     10801     11509     11583     10875      5183      5185      5186      5156
 -1      1244    4    0    1
 -2       434       443       444       435      6213      6303      6313      6223       789       791
 -2       792       762     10805     11513     11587     10879     11515     11588     11589     10880
 -1      1245    4    0    1
 -2      6213      6303      6313      6223      6214      6304      6314      6224     11515     11588
 -2     11589     10880     10812     11520     11594     10886     11522     11595     11596     10887
 -1      1246    4    0    1
 -2      6214      6304      6314      6224      6215      6305      6315      6225     11522     11595
 -2     11596     10887     10819     11527     11601     10893     11529     11602     11603     10894
 -1      1247    4    0    1
 -2      6215      6305      6315      6225      6216      6306      6316      6226     11529     11602
 -2     11603     10894     10826     11534     11608     10900     11536     11609     11610     10901
 -1      1248    4    0    1
 -2      6216      6306      6316      6226      6217      6307      6317      6227     11536     11609
 -2     11610     10901     10833     11541     11615     10907     11543     11616     11617     10908
 -1      1249    4    0    1
 -2      6217      6307      6317      6227      6218      6308      6318      6228     11543     11616
 -2     11617     10908     10840     11548     11622     10914     11550     11623     11624     10915
 -1      1250    4    0    1
 -2      6218      6308      6318      6228      6219      6309      6319      6229     11550     11623
 -2     11624     10915     10847     11555     11629     10921     11557     11630     11631     10922
 -1      1251    4    0    1
 -2      6219      6309      6319      6229      6220      6310      6320      6230     11557     11630
 -2     11631     10922     10854     11562     11636     10928     11564     11637     11638     10929
 -1      1252    4    0    1
 -2      6220      6310      6320      6230      6221      6311      6321      6231     11564     11637
 -2     11638     10929     10861     11569     11643     10935     11571     11644     11645     10936
 -1      1253    4    0    1
 -2      6221      6311      6321      6231      6222      6312      6322      6232     11571     11644
 -2     11645     10936     10868     11576     11650     10942     11578     11651     11652     10943
 -1      1254    4    0    1
 -2      6222      6312      6322      6232      4831      4840      4841      4832     11578     11651
 -2     11652     10943     10875     11583     11657     10949      5186      5188      5189      5159
 -1      1255    4    0    1
 -2       435       444       445       436      6223      6313      6323      6233       792       794
 -2       795       765     10879     11587     11661     10953     11589     11662     11663     10954
 -1      1256    4    0    1
 -2      6223      6313      6323      6233      6224      6314      6324      6234     11589     11662
 -2     11663     10954     10886     11594     11668     10960     11596     11669     11670     10961
 -1      1257    4    0    1
 -2      6224      6314      6324      6234      6225      6315      6325      6235     11596     11669
 -2     11670     10961     10893     11601     11675     10967     11603     11676     11677     10968
 -1      1258    4    0    1
 -2      6225      6315      6325      6235      6226      6316      6326      6236     11603     11676
 -2     11677     10968     10900     11608     11682     10974     11610     11683     11684     10975
 -1      1259    4    0    1
 -2      6226      6316      6326      6236      6227      6317      6327      6237     11610     11683
 -2     11684     10975     10907     11615     11689     10981     11617     11690     11691     10982
 -1      1260    4    0    1
 -2      6227      6317      6327      6237      6228      6318      6328      6238     11617     11690
 -2     11691     10982     10914     11622     11696     10988     11624     11697     11698     10989
 -1      1261    4    0    1
 -2      6228      6318      6328      6238      6229      6319      6329      6239     11624     11697
 -2     11698     10989     10921     11629     11703     10995     11631     11704     11705     10996
 -1      1262    4    0    1
 -2      6229      6319      6329      6239      6230      6320      6330      6240     11631     11704
 -2     11705     10996     10928     11636     11710     11002     11638     11711     11712     11003
 -1      1263    4    0    1
 -2      6230      6320      6330      6240      6231      6321      6331      6241     11638     11711
 -2     11712     11003     10935     11643     11717     11009     11645     11718     11719     11010
 -1      1264    4    0    1
 -2      6231      6321      6331      6241      6232      6322      6332      6242     11645     11718
 -2     11719     11010     10942     11650     11724     11016     11652     11725     11726     11017
 -1      1265    4    0    1
 -2      6232      6322      6332      6242      4832      4841      4842      4833     11652     11725
 -2     11726     11017     10949     11657     11731     11023      5189      5191      5192      5162
 -1      1266    4    0    1
 -2       436       445       446       437      6233      6323      6333      6243       795       797
 -2       798       768     10953     11661     11735     11027     11663     11736     11737     11028
 -1      1267    4    0    1
 -2      6233      6323      6333      6243      6234      6324      6334      6244     11663     11736
 -2     11737     11028     10960     11668     11742     11034     11670     11743     11744     11035
 -1      1268    4    0    1
 -2      6234      6324      6334      6244      6235      6325      6335      6245     11670     11743
 -2     11744     11035     10967     11675     11749     11041     11677     11750     11751     11042
 -1      1269    4    0    1
 -2      6235      6325      6335      6245      6236      6326      6336      6246     11677     11750
 -2     11751     11042     10974     11682     11756     11048     11684     11757     11758     11049
 -1      1270    4    0    1
 -2      6236      6326      6336      6246      6237      6327      6337      6247     11684     11757
 -2     11758     11049     10981     11689     11763     11055     11691     11764     11765     11056
 -1      1271    4    0    1
 -2      6237      6327      6337      6247      6238      6328      6338      6248     11691     11764
 -2     11765     11056     10988     11696     11770     11062     11698     11771     11772     11063
 -1      1272    4    0    1
 -2      6238      6328      6338      6248      6239      6329      6339      6249     11698     11771
 -2     11772     11063     10995     11703     11777     11069     11705     11778     11779     11070
 -1      1273    4    0    1
 -2      6239      6329      6339      6249      6240      6330      6340      6250     11705     11778
 -2     11779     11070     11002     11710     11784     11076     11712     11785     11786     11077
 -1      1274    4    0    1
 -2      6240      6330      6340      6250      6241      6331      6341      6251     11712     11785
 -2     11786     11077     11009     11717     11791     11083     11719     11792     11793     11084
 -1      1275    4    0    1
 -2      6241      6331      6341      6251      6242      6332      6342      6252     11719     11792
 -2     11793     11084     11016     11724     11798     11090     11726     11799     11800     11091
 -1      1276    4    0    1
 -2      6242      6332      6342      6252      4833      4842      4843      4834     11726     11799
 -2     11800     11091     11023     11731     11805     11097      5192      5194      5195      5165
 -1      1277    4    0    1
 -2       437       446       447       438      6243      6333      6343      6253       798       800
 -2       801       771     11027     11735     11809     11101     11737     11810     11811     11102
 -1      1278    4    0    1
 -2      6243      6333      6343      6253      6244      6334      6344      6254     11737     11810
 -2     11811     11102     11034     11742     11816     11108     11744     11817     11818     11109
 -1      1279    4    0    1
 -2      6244      6334      6344      6254      6245      6335      6345      6255     11744     11817
 -2     11818     11109     11041     11749     11823     11115     11751     11824     11825     11116
 -1      1280    4    0    1
 -2      6245      6335      6345      6255      6246      6336      6346      6256     11751     11824
 -2     11825     11116     11048     11756     11830     11122     11758     11831     11832     11123
 -1      1281    4    0    1
 -2      6246      6336      6346      6256      6247      6337      6347      6257     11758     11831
 -2     11832     11123     11055     11763     11837     11129     11765     11838     11839     11130
 -1      1282    4    0    1
 -2      6247      6337      6347      6257      6248      6338      6348      6258     11765     11838
 -2     11839     11130     11062     11770     11844     11136     11772     11845     11846     11137
 -1      1283    4    0    1
 -2      6248      6338      6348      6258      6249      6339      6349      6259     11772     11845
 -2     11846     11137     11069     11777     11851     11143     11779     11852     11853     11144
 -1      1284    4    0    1
 -2      6249      6339      6349      6259      6250      6340      6350      6260     11779     11852
 -2     11853     11144     11076     11784     11858     11150     11786     11859     11860     11151
 -1      1285    4    0    1
 -2      6250      6340      6350      6260      6251      6341      6351      6261     11786     11859
 -2     11860     11151     11083     11791     11865     11157     11793     11866     11867     11158
 -1      1286    4    0    1
 -2      6251      6341      6351      6261      6252      6342      6352      6262     11793     11866
 -2     11867     11158     11090     11798     11872     11164     11800     11873     11874     11165
 -1      1287    4    0    1
 -2      6252      6342      6352      6262      4834      4843      4844      4835     11800     11873
 -2     11874     11165     11097     11805     11879     11171      5195      5197      5198      5168
 -1      1288    4    0    1
 -2       438       447       448       439      6253      6343      6353      6263       801       803
 -2       804       774     11101     11809     11883     11175     11811     11884     11885     11176
 -1      1289    4    0    1
 -2      6253      6343      6353      6263      6254      6344      6354      6264     11811     11884
 -2     11885     11176     11108     11816     11890     11182     11818     11891     11892     11183
 -1      1290    4    0    1
 -2      6254      6344      6354      6264      6255      6345      6355      6265     11818     11891
 -2     11892     11183     11115     11823     11897     11189     11825     11898     11899     11190
 -1      1291    4    0    1
 -2      6255      6345      6355      6265      6256      6346      6356      6266     11825     11898
 -2     11899     11190     11122     11830     11904     11196     11832     11905     11906     11197
 -1      1292    4    0    1
 -2      6256      6346      6356      6266      6257      6347      6357      6267     11832     11905
 -2     11906     11197     11129     11837     11911     11203     11839     11912     11913     11204
 -1      1293    4    0    1
 -2      6257      6347      6357      6267      6258      6348      6358      6268     11839     11912
 -2     11913     11204     11136     11844     11918     11210     11846     11919     11920     11211
 -1      1294    4    0    1
 -2      6258      6348      6358      6268      6259      6349      6359      6269     11846     11919
 -2     11920     11211     11143     11851     11925     11217     11853     11926     11927     11218
 -1      1295    4    0    1
 -2      6259      6349      6359      6269      6260      6350      6360      6270     11853     11926
 -2     11927     11218     11150     11858     11932     11224     11860     11933     11934     11225
 -1      1296    4    0    1
 -2      6260      6350      6360      6270      6261      6351      6361      6271     11860     11933
 -2     11934     11225     11157     11865     11939     11231     11867     11940     11941     11232
 -1      1297    4    0    1
 -2      6261      6351      6361      6271      6262      6352      6362      6272     11867     11940
 -2     11941     11232     11164     11872     11946     11238     11874     11947     11948     11239
 -1      1298    4    0    1
 -2      6262      6352      6362      6272      4835      4844      4845      4836     11874     11947
 -2     11948     11239     11171     11879     11953     11245      5198      5200      5201      5171
 -1      1299    4    0    1
 -2       439       448       449       440      6263      6353      6363      6273       804       806
 -2       807       777     11175     11883     11957     11249     11885     11958     11959     11250
 -1      1300    4    0    1
 -2      6263      6353      6363      6273      6264      6354      6364      6274     11885     11958
 -2     11959     11250     11182     11890     11964     11256     11892     11965     11966     11257
 -1      1301    4    0    1
 -2      6264      6354      6364      6274      6265      6355      6365      6275     11892     11965
 -2     11966     11257     11189     11897     11971     11263     11899     11972     11973     11264
 -1      1302    4    0    1
 -2      6265      6355      6365      6275      6266      6356      6366      6276     11899     11972
 -2     11973     11264     11196     11904     11978     11270     11906     11979     11980     11271
 -1      1303    4    0    1
 -2      6266      6356      6366      6276      6267      6357      6367      6277     11906     11979
 -2     11980     11271     11203     11911     11985     11277     11913     11986     11987     11278
 -1      1304    4    0    1
 -2      6267      6357      6367      6277      6268      6358      6368      6278     11913     11986
 -2     11987     11278     11210     11918     11992     11284     11920     11993     11994     11285
 -1      1305    4    0    1
 -2      6268      6358      6368      6278      6269      6359      6369      6279     11920     11993
 -2     11994     11285     11217     11925     11999     11291     11927     12000     12001     11292
 -1      1306    4    0    1
 -2      6269      6359      6369      6279      6270      6360      6370      6280     11927     12000
 -2     12001     11292     11224     11932     12006     11298     11934     12007     12008     11299
 -1      1307    4    0    1
 -2      6270      6360      6370      6280      6271      6361      6371      6281     11934     12007
 -2     12008     11299     11231     11939     12013     11305     11941     12014     12015     11306
 -1      1308    4    0    1
 -2      6271      6361      6371      6281      6272      6362      6372      6282     11941     12014
 -2     12015     11306     11238     11946     12020     11312     11948     12021     12022     11313
 -1      1309    4    0    1
 -2      6272      6362      6372      6282      4836      4845      4846      4837     11948     12021
 -2     12022     11313     11245     11953     12027     11319      5201      5203      5204      5174
 -1      1310    4    0    1
 -2       440       449       111       112      6273      6363      3404      3414       807       809
 -2       141       780     11249     11957      4222      4254     11959     12031      4255     11323
 -1      1311    4    0    1
 -2      6273      6363      3404      3414      6274      6364      3405      3415     11959     12031
 -2      4255     11323     11256     11964      4225      4257     11966     12035      4258     11327
 -1      1312    4    0    1
 -2      6274      6364      3405      3415      6275      6365      3406      3416     11966     12035
 -2      4258     11327     11263     11971      4228      4260     11973     12039      4261     11331
 -1      1313    4    0    1
 -2      6275      6365      3406      3416      6276      6366      3407      3417     11973     12039
 -2      4261     11331     11270     11978      4231      4263     11980     12043      4264     11335
 -1      1314    4    0    1
 -2      6276      6366      3407      3417      6277      6367      3408      3418     11980     12043
 -2      4264     11335     11277     11985      4234      4266     11987     12047      4267     11339
 -1      1315    4    0    1
 -2      6277      6367      3408      3418      6278      6368      3409      3419     11987     12047
 -2      4267     11339     11284     11992      4237      4269     11994     12051      4270     11343
 -1      1316    4    0    1
 -2      6278      6368      3409      3419      6279      6369      3410      3420     11994     12051
 -2      4270     11343     11291     11999      4240      4272     12001     12055      4273     11347
 -1      1317    4    0    1
 -2      6279      6369      3410      3420      6280      6370      3411      3421     12001     12055
 -2      4273     11347     11298     12006      4243      4275     12008     12059      4276     11351
 -1      1318    4    0    1
 -2      6280      6370      3411      3421      6281      6371      3412      3422     12008     12059
 -2      4276     11351     11305     12013      4246      4278     12015     12063      4279     11355
 -1      1319    4    0    1
 -2      6281      6371      3412      3422      6282      6372      3413      3423     12015     12063
 -2      4279     11355     11312     12020      4249      4281     12022     12067      4282     11359
 -1      1320    4    0    1
 -2      6282      6372      3413      3423      4837      4846       267       268     12022     12067
 -2      4282     11359     11319     12027      4252      4284      5204      5206       297      5177
 -1      1321    4    0    1
 -2        13        14       450       441      1566      1576      6373      6283        43       811
 -2       812       782      1944      1976     12073     11365      1977     12074     12075     11366
 -1      1322    4    0    1
 -2      1566      1576      6373      6283      1567      1577      6374      6284      1977     12074
 -2     12075     11366      1947      1979     12080     11372      1980     12081     12082     11373
 -1      1323    4    0    1
 -2      1567      1577      6374      6284      1568      1578      6375      6285      1980     12081
 -2     12082     11373      1950      1982     12087     11379      1983     12088     12089     11380
 -1      1324    4    0    1
 -2      1568      1578      6375      6285      1569      1579      6376      6286      1983     12088
 -2     12089     11380      1953      1985     12094     11386      1986     12095     12096     11387
 -1      1325    4    0    1
 -2      1569      1579      6376      6286      1570      1580      6377      6287      1986     12095
 -2     12096     11387      1956      1988     12101     11393      1989     12102     12103     11394
 -1      1326    4    0    1
 -2      1570      1580      6377      6287      1571      1581      6378      6288      1989     12102
 -2     12103     11394      1959      1991     12108     11400      1992     12109     12110     11401
 -1      1327    4    0    1
 -2      1571      1581      6378      6288      1572      1582      6379      6289      1992     12109
 -2     12110     11401      1962      1994     12115     11407      1995     12116     12117     11408
 -1      1328    4    0    1
 -2      1572      1582      6379      6289      1573      1583      6380      6290      1995     12116
 -2     12117     11408      1965      1997     12122     11414      1998     12123     12124     11415
 -1      1329    4    0    1
 -2      1573      1583      6380      6290      1574      1584      6381      6291      1998     12123
 -2     12124     11415      1968      2000     12129     11421      2001     12130     12131     11422
 -1      1330    4    0    1
 -2      1574      1584      6381      6291      1575      1585      6382      6292      2001     12130
 -2     12131     11422      1971      2003     12136     11428      2004     12137     12138     11429
 -1      1331    4    0    1
 -2      1575      1585      6382      6292       169       170      4847      4838      2004     12137
 -2     12138     11429      1974      2006     12143     11435       199      5208      5209      5179
 -1      1332    4    0    1
 -2       441       450       451       442      6283      6373      6383      6293       812       814
 -2       815       785     11365     12073     12147     11439     12075     12148     12149     11440
 -1      1333    4    0    1
 -2      6283      6373      6383      6293      6284      6374      6384      6294     12075     12148
 -2     12149     11440     11372     12080     12154     11446     12082     12155     12156     11447
 -1      1334    4    0    1
 -2      6284      6374      6384      6294      6285      6375      6385      6295     12082     12155
 -2     12156     11447     11379     12087     12161     11453     12089     12162     12163     11454
 -1      1335    4    0    1
 -2      6285      6375      6385      6295      6286      6376      6386      6296     12089     12162
 -2     12163     11454     11386     12094     12168     11460     12096     12169     12170     11461
 -1      1336    4    0    1
 -2      6286      6376      6386      6296      6287      6377      6387      6297     12096     12169
 -2     12170     11461     11393     12101     12175     11467     12103     12176     12177     11468
 -1      1337    4    0    1
 -2      6287      6377      6387      6297      6288      6378      6388      6298     12103     12176
 -2     12177     11468     11400     12108     12182     11474     12110     12183     12184     11475
 -1      1338    4    0    1
 -2      6288      6378      6388      6298      6289      6379      6389      6299     12110     12183
 -2     12184     11475     11407     12115     12189     11481     12117     12190     12191     11482
 -1      1339    4    0    1
 -2      6289      6379      6389      6299      6290      6380      6390      6300     12117     12190
 -2     12191     11482     11414     12122     12196     11488     12124     12197     12198     11489
 -1      1340    4    0    1
 -2      6290      6380      6390      6300      6291      6381      6391      6301     12124     12197
 -2     12198     11489     11421     12129     12203     11495     12131     12204     12205     11496
 -1      1341    4    0    1
 -2      6291      6381      6391      6301      6292      6382      6392      6302     12131     12204
 -2     12205     11496     11428     12136     12210     11502     12138     12211     12212     11503
 -1      1342    4    0    1
 -2      6292      6382      6392      6302      4838      4847      4848      4839     12138     12211
 -2     12212     11503     11435     12143     12217     11509      5209      5211      5212      5182
 -1      1343    4    0    1
 -2       442       451       452       443      6293      6383      6393      6303       815       817
 -2       818       788     11439     12147     12221     11513     12149     12222     12223     11514
 -1      1344    4    0    1
 -2      6293      6383      6393      6303      6294      6384      6394      6304     12149     12222
 -2     12223     11514     11446     12154     12228     11520     12156     12229     12230     11521
 -1      1345    4    0    1
 -2      6294      6384      6394      6304      6295      6385      6395      6305     12156     12229
 -2     12230     11521     11453     12161     12235     11527     12163     12236     12237     11528
 -1      1346    4    0    1
 -2      6295      6385      6395      6305      6296      6386      6396      6306     12163     12236
 -2     12237     11528     11460     12168     12242     11534     12170     12243     12244     11535
 -1      1347    4    0    1
 -2      6296      6386      6396      6306      6297      6387      6397      6307     12170     12243
 -2     12244     11535     11467     12175     12249     11541     12177     12250     12251     11542
 -1      1348    4    0    1
 -2      6297      6387      6397      6307      6298      6388      6398      6308     12177     12250
 -2     12251     11542     11474     12182     12256     11548     12184     12257     12258     11549
 -1      1349    4    0    1
 -2      6298      6388      6398      6308      6299      6389      6399      6309     12184     12257
 -2     12258     11549     11481     12189     12263     11555     12191     12264     12265     11556
 -1      1350    4    0    1
 -2      6299      6389      6399      6309      6300      6390      6400      6310     12191     12264
 -2     12265     11556     11488     12196     12270     11562     12198     12271     12272     11563
 -1      1351    4    0    1
 -2      6300      6390      6400      6310      6301      6391      6401      6311     12198     12271
 -2     12272     11563     11495     12203     12277     11569     12205     12278     12279     11570
 -1      1352    4    0    1
 -2      6301      6391      6401      6311      6302      6392      6402      6312     12205     12278
 -2     12279     11570     11502     12210     12284     11576     12212     12285     12286     11577
 -1      1353    4    0    1
 -2      6302      6392      6402      6312      4839      4848      4849      4840     12212     12285
 -2     12286     11577     11509     12217     12291     11583      5212      5214      5215      5185
 -1      1354    4    0    1
 -2       443       452       453       444      6303      6393      6403      6313       818       820
 -2       821       791     11513     12221     12295     11587     12223     12296     12297     11588
 -1      1355    4    0    1
 -2      6303      6393      6403      6313      6304      6394      6404      6314     12223     12296
 -2     12297     11588     11520     12228     12302     11594     12230     12303     12304     11595
 -1      1356    4    0    1
 -2      6304      6394      6404      6314      6305      6395      6405      6315     12230     12303
 -2     12304     11595     11527     12235     12309     11601     12237     12310     12311     11602
 -1      1357    4    0    1
 -2      6305      6395      6405      6315      6306      6396      6406      6316     12237     12310
 -2     12311     11602     11534     12242     12316     11608     12244     12317     12318     11609
 -1      1358    4    0    1
 -2      6306      6396      6406      6316      6307      6397      6407      6317     12244     12317
 -2     12318     11609     11541     12249     12323     11615     12251     12324     12325     11616
 -1      1359    4    0    1
 -2      6307      6397      6407      6317      6308      6398      6408      6318     12251     12324
 -2     12325     11616     11548     12256     12330     11622     12258     12331     12332     11623
 -1      1360    4    0    1
 -2      6308      6398      6408      6318      6309      6399      6409      6319     12258     12331
 -2     12332     11623     11555     12263     12337     11629     12265     12338     12339     11630
 -1      1361    4    0    1
 -2      6309      6399      6409      6319      6310      6400      6410      6320     12265     12338
 -2     12339     11630     11562     12270     12344     11636     12272     12345     12346     11637
 -1      1362    4    0    1
 -2      6310      6400      6410      6320      6311      6401      6411      6321     12272     12345
 -2     12346     11637     11569     12277     12351     11643     12279     12352     12353     11644
 -1      1363    4    0    1
 -2      6311      6401      6411      6321      6312      6402      6412      6322     12279     12352
 -2     12353     11644     11576     12284     12358     11650     12286     12359     12360     11651
 -1      1364    4    0    1
 -2      6312      6402      6412      6322      4840      4849      4850      4841     12286     12359
 -2     12360     11651     11583     12291     12365     11657      5215      5217      5218      5188
 -1      1365    4    0    1
 -2       444       453       454       445      6313      6403      6413      6323       821       823
 -2       824       794     11587     12295     12369     11661     12297     12370     12371     11662
 -1      1366    4    0    1
 -2      6313      6403      6413      6323      6314      6404      6414      6324     12297     12370
 -2     12371     11662     11594     12302     12376     11668     12304     12377     12378     11669
 -1      1367    4    0    1
 -2      6314      6404      6414      6324      6315      6405      6415      6325     12304     12377
 -2     12378     11669     11601     12309     12383     11675     12311     12384     12385     11676
 -1      1368    4    0    1
 -2      6315      6405      6415      6325      6316      6406      6416      6326     12311     12384
 -2     12385     11676     11608     12316     12390     11682     12318     12391     12392     11683
 -1      1369    4    0    1
 -2      6316      6406      6416      6326      6317      6407      6417      6327     12318     12391
 -2     12392     11683     11615     12323     12397     11689     12325     12398     12399     11690
 -1      1370    4    0    1
 -2      6317      6407      6417      6327      6318      6408      6418      6328     12325     12398
 -2     12399     11690     11622     12330     12404     11696     12332     12405     12406     11697
 -1      1371    4    0    1
 -2      6318      6408      6418      6328      6319      6409      6419      6329     12332     12405
 -2     12406     11697     11629     12337     12411     11703     12339     12412     12413     11704
 -1      1372    4    0    1
 -2      6319      6409      6419      6329      6320      6410      6420      6330     12339     12412
 -2     12413     11704     11636     12344     12418     11710     12346     12419     12420     11711
 -1      1373    4    0    1
 -2      6320      6410      6420      6330      6321      6411      6421      6331     12346     12419
 -2     12420     11711     11643     12351     12425     11717     12353     12426     12427     11718
 -1      1374    4    0    1
 -2      6321      6411      6421      6331      6322      6412      6422      6332     12353     12426
 -2     12427     11718     11650     12358     12432     11724     12360     12433     12434     11725
 -1      1375    4    0    1
 -2      6322      6412      6422      6332      4841      4850      4851      4842     12360     12433
 -2     12434     11725     11657     12365     12439     11731      5218      5220      5221      5191
 -1      1376    4    0    1
 -2       445       454       455       446      6323      6413      6423      6333       824       826
 -2       827       797     11661     12369     12443     11735     12371     12444     12445     11736
 -1      1377    4    0    1
 -2      6323      6413      6423      6333      6324      6414      6424      6334     12371     12444
 -2     12445     11736     11668     12376     12450     11742     12378     12451     12452     11743
 -1      1378    4    0    1
 -2      6324      6414      6424      6334      6325      6415      6425      6335     12378     12451
 -2     12452     11743     11675     12383     12457     11749     12385     12458     12459     11750
 -1      1379    4    0    1
 -2      6325      6415      6425      6335      6326      6416      6426      6336     12385     12458
 -2     12459     11750     11682     12390     12464     11756     12392     12465     12466     11757
 -1      1380    4    0    1
 -2      6326      6416      6426      6336      6327      6417      6427      6337     12392     12465
 -2     12466     11757     11689     12397     12471     11763     12399     12472     12473     11764
 -1      1381    4    0    1
 -2      6327      6417      6427      6337      6328      6418      6428      6338     12399     12472
 -2     12473     11764     11696     12404     12478     11770     12406     12479     12480     11771
 -1      1382    4    0    1
 -2      6328      6418      6428      6338      6329      6419      6429      6339     12406     12479
 -2     12480     11771     11703     12411     12485     11777     12413     12486     12487     11778
 -1      1383    4    0    1
 -2      6329      6419      6429      6339      6330      6420      6430      6340     12413     12486
 -2     12487     11778     11710     12418     12492     11784     12420     12493     12494     11785
 -1      1384    4    0    1
 -2      6330      6420      6430      6340      6331      6421      6431      6341     12420     12493
 -2     12494     11785     11717     12425     12499     11791     12427     12500     12501     11792
 -1      1385    4    0    1
 -2      6331      6421      6431      6341      6332      6422      6432      6342     12427     12500
 -2     12501     11792     11724     12432     12506     11798     12434     12507     12508     11799
 -1      1386    4    0    1
 -2      6332      6422      6432      6342      4842      4851      4852      4843     12434     12507
 -2     12508     11799     11731     12439     12513     11805      5221      5223      5224      5194
 -1      1387    4    0    1
 -2       446       455       456       447      6333      6423      6433      6343       827       829
 -2       830       800     11735     12443     12517     11809     12445     12518     12519     11810
 -1      1388    4    0    1
 -2      6333      6423      6433      6343      6334      6424      6434      6344     12445     12518
 -2     12519     11810     11742     12450     12524     11816     12452     12525     12526     11817
 -1      1389    4    0    1
 -2      6334      6424      6434      6344      6335      6425      6435      6345     12452     12525
 -2     12526     11817     11749     12457     12531     11823     12459     12532     12533     11824
 -1      1390    4    0    1
 -2      6335      6425      6435      6345      6336      6426      6436      6346     12459     12532
 -2     12533     11824     11756     12464     12538     11830     12466     12539     12540     11831
 -1      1391    4    0    1
 -2      6336      6426      6436      6346      6337      6427      6437      6347     12466     12539
 -2     12540     11831     11763     12471     12545     11837     12473     12546     12547     11838
 -1      1392    4    0    1
 -2      6337      6427      6437      6347      6338      6428      6438      6348     12473     12546
 -2     12547     11838     11770     12478     12552     11844     12480     12553     12554     11845
 -1      1393    4    0    1
 -2      6338      6428      6438      6348      6339      6429      6439      6349     12480     12553
 -2     12554     11845     11777     12485     12559     11851     12487     12560     12561     11852
 -1      1394    4    0    1
 -2      6339      6429      6439      6349      6340      6430      6440      6350     12487     12560
 -2     12561     11852     11784     12492     12566     11858     12494     12567     12568     11859
 -1      1395    4    0    1
 -2      6340      6430      6440      6350      6341      6431      6441      6351     12494     12567
 -2     12568     11859     11791     12499     12573     11865     12501     12574     12575     11866
 -1      1396    4    0    1
 -2      6341      6431      6441      6351      6342      6432      6442      6352     12501     12574
 -2     12575     11866     11798     12506     12580     11872     12508     12581     12582     11873
 -1      1397    4    0    1
 -2      6342      6432      6442      6352      4843      4852      4853      4844     12508     12581
 -2     12582     11873     11805     12513     12587     11879      5224      5226      5227      5197
 -1      1398    4    0    1
 -2       447       456       457       448      6343      6433      6443      6353       830       832
 -2       833       803     11809     12517     12591     11883     12519     12592     12593     11884
 -1      1399    4    0    1
 -2      6343      6433      6443      6353      6344      6434      6444      6354     12519     12592
 -2     12593     11884     11816     12524     12598     11890     12526     12599     12600     11891
 -1      1400    4    0    1
 -2      6344      6434      6444      6354      6345      6435      6445      6355     12526     12599
 -2     12600     11891     11823     12531     12605     11897     12533     12606     12607     11898
 -1      1401    4    0    1
 -2      6345      6435      6445      6355      6346      6436      6446      6356     12533     12606
 -2     12607     11898     11830     12538     12612     11904     12540     12613     12614     11905
 -1      1402    4    0    1
 -2      6346      6436      6446      6356      6347      6437      6447      6357     12540     12613
 -2     12614     11905     11837     12545     12619     11911     12547     12620     12621     11912
 -1      1403    4    0    1
 -2      6347      6437      6447      6357      6348      6438      6448      6358     12547     12620
 -2     12621     11912     11844     12552     12626     11918     12554     12627     12628     11919
 -1      1404    4    0    1
 -2      6348      6438      6448      6358      6349      6439      6449      6359     12554     12627
 -2     12628     11919     11851     12559     12633     11925     12561     12634     12635     11926
 -1      1405    4    0    1
 -2      6349      6439      6449      6359      6350      6440      6450      6360     12561     12634
 -2     12635     11926     11858     12566     12640     11932     12568     12641     12642     11933
 -1      1406    4    0    1
 -2      6350      6440      6450      6360      6351      6441      6451      6361     12568     12641
 -2     12642     11933     11865     12573     12647     11939     12575     12648     12649     11940
 -1      1407    4    0    1
 -2      6351      6441      6451      6361      6352      6442      6452      6362     12575     12648
 -2     12649     11940     11872     12580     12654     11946     12582     12655     12656     11947
 -1      1408    4    0    1
 -2      6352      6442      6452      6362      4844      4853      4854      4845     12582     12655
 -2     12656     11947     11879     12587     12661     11953      5227      5229      5230      5200
 -1      1409    4    0    1
 -2       448       457       458       449      6353      6443      6453      6363       833       835
 -2       836       806     11883     12591     12665     11957     12593     12666     12667     11958
 -1      1410    4    0    1
 -2      6353      6443      6453      6363      6354      6444      6454      6364     12593     12666
 -2     12667     11958     11890     12598     12672     11964     12600     12673     12674     11965
 -1      1411    4    0    1
 -2      6354      6444      6454      6364      6355      6445      6455      6365     12600     12673
 -2     12674     11965     11897     12605     12679     11971     12607     12680     12681     11972
 -1      1412    4    0    1
 -2      6355      6445      6455      6365      6356      6446      6456      6366     12607     12680
 -2     12681     11972     11904     12612     12686     11978     12614     12687     12688     11979
 -1      1413    4    0    1
 -2      6356      6446      6456      6366      6357      6447      6457      6367     12614     12687
 -2     12688     11979     11911     12619     12693     11985     12621     12694     12695     11986
 -1      1414    4    0    1
 -2      6357      6447      6457      6367      6358      6448      6458      6368     12621     12694
 -2     12695     11986     11918     12626     12700     11992     12628     12701     12702     11993
 -1      1415    4    0    1
 -2      6358      6448      6458      6368      6359      6449      6459      6369     12628     12701
 -2     12702     11993     11925     12633     12707     11999     12635     12708     12709     12000
 -1      1416    4    0    1
 -2      6359      6449      6459      6369      6360      6450      6460      6370     12635     12708
 -2     12709     12000     11932     12640     12714     12006     12642     12715     12716     12007
 -1      1417    4    0    1
 -2      6360      6450      6460      6370      6361      6451      6461      6371     12642     12715
 -2     12716     12007     11939     12647     12721     12013     12649     12722     12723     12014
 -1      1418    4    0    1
 -2      6361      6451      6461      6371      6362      6452      6462      6372     12649     12722
 -2     12723     12014     11946     12654     12728     12020     12656     12729     12730     12021
 -1      1419    4    0    1
 -2      6362      6452      6462      6372      4845      4854      4855      4846     12656     12729
 -2     12730     12021     11953     12661     12735     12027      5230      5232      5233      5203
 -1      1420    4    0    1
 -2       449       458       110       111      6363      6453      3394      3404       836       838
 -2       140       809     11957     12665      4190      4222     12667     12739      4223     12031
 -1      1421    4    0    1
 -2      6363      6453      3394      3404      6364      6454      3395      3405     12667     12739
 -2      4223     12031     11964     12672      4193      4225     12674     12743      4226     12035
 -1      1422    4    0    1
 -2      6364      6454      3395      3405      6365      6455      3396      3406     12674     12743
 -2      4226     12035     11971     12679      4196      4228     12681     12747      4229     12039
 -1      1423    4    0    1
 -2      6365      6455      3396      3406      6366      6456      3397      3407     12681     12747
 -2      4229     12039     11978     12686      4199      4231     12688     12751      4232     12043
 -1      1424    4    0    1
 -2      6366      6456      3397      3407      6367      6457      3398      3408     12688     12751
 -2      4232     12043     11985     12693      4202      4234     12695     12755      4235     12047
 -1      1425    4    0    1
 -2      6367      6457      3398      3408      6368      6458      3399      3409     12695     12755
 -2      4235     12047     11992     12700      4205      4237     12702     12759      4238     12051
 -1      1426    4    0    1
 -2      6368      6458      3399      3409      6369      6459      3400      3410     12702     12759
 -2      4238     12051     11999     12707      4208      4240     12709     12763      4241     12055
 -1      1427    4    0    1
 -2      6369      6459      3400      3410      6370      6460      3401      3411     12709     12763
 -2      4241     12055     12006     12714      4211      4243     12716     12767      4244     12059
 -1      1428    4    0    1
 -2      6370      6460      3401      3411      6371      6461      3402      3412     12716     12767
 -2      4244     12059     12013     12721      4214      4246     12723     12771      4247     12063
 -1      1429    4    0    1
 -2      6371      6461      3402      3412      6372      6462      3403      3413     12723     12771
 -2      4247     12063     12020     12728      4217      4249     12730     12775      4250     12067
 -1      1430    4    0    1
 -2      6372      6462      3403      3413      4846      4855       266       267     12730     12775
 -2      4250     12067     12027     12735      4220      4252      5233      5235       296      5206
 -1      1431    4    0    1
 -2        14        15       459       450      1576      1586      6463      6373        44       840
 -2       841       811      1976      2008     12781     12073      2009     12782     12783     12074
 -1      1432    4    0    1
 -2      1576      1586      6463      6373      1577      1587      6464      6374      2009     12782
 -2     12783     12074      1979      2011     12788     12080      2012     12789     12790     12081
 -1      1433    4    0    1
 -2      1577      1587      6464      6374      1578      1588      6465      6375      2012     12789
 -2     12790     12081      1982      2014     12795     12087      2015     12796     12797     12088
 -1      1434    4    0    1
 -2      1578      1588      6465      6375      1579      1589      6466      6376      2015     12796
 -2     12797     12088      1985      2017     12802     12094      2018     12803     12804     12095
 -1      1435    4    0    1
 -2      1579      1589      6466      6376      1580      1590      6467      6377      2018     12803
 -2     12804     12095      1988      2020     12809     12101      2021     12810     12811     12102
 -1      1436    4    0    1
 -2      1580      1590      6467      6377      1581      1591      6468      6378      2021     12810
 -2     12811     12102      1991      2023     12816     12108      2024     12817     12818     12109
 -1      1437    4    0    1
 -2      1581      1591      6468      6378      1582      1592      6469      6379      2024     12817
 -2     12818     12109      1994      2026     12823     12115      2027     12824     12825     12116
 -1      1438    4    0    1
 -2      1582      1592      6469      6379      1583      1593      6470      6380      2027     12824
 -2     12825     12116      1997      2029     12830     12122      2030     12831     12832     12123
 -1      1439    4    0    1
 -2      1583      1593      6470      6380      1584      1594      6471      6381      2030     12831
 -2     12832     12123      2000      2032     12837     12129      2033     12838     12839     12130
 -1      1440    4    0    1
 -2      1584      1594      6471      6381      1585      1595      6472      6382      2033     12838
 -2     12839     12130      2003      2035     12844     12136      2036     12845     12846     12137
 -1      1441    4    0    1
 -2      1585      1595      6472      6382       170       171      4856      4847      2036     12845
 -2     12846     12137      2006      2038     12851     12143       200      5237      5238      5208
 -1      1442    4    0    1
 -2       450       459       460       451      6373      6463      6473      6383       841       843
 -2       844       814     12073     12781     12855     12147     12783     12856     12857     12148
 -1      1443    4    0    1
 -2      6373      6463      6473      6383      6374      6464      6474      6384     12783     12856
 -2     12857     12148     12080     12788     12862     12154     12790     12863     12864     12155
 -1      1444    4    0    1
 -2      6374      6464      6474      6384      6375      6465      6475      6385     12790     12863
 -2     12864     12155     12087     12795     12869     12161     12797     12870     12871     12162
 -1      1445    4    0    1
 -2      6375      6465      6475      6385      6376      6466      6476      6386     12797     12870
 -2     12871     12162     12094     12802     12876     12168     12804     12877     12878     12169
 -1      1446    4    0    1
 -2      6376      6466      6476      6386      6377      6467      6477      6387     12804     12877
 -2     12878     12169     12101     12809     12883     12175     12811     12884     12885     12176
 -1      1447    4    0    1
 -2      6377      6467      6477      6387      6378      6468      6478      6388     12811     12884
 -2     12885     12176     12108     12816     12890     12182     12818     12891     12892     12183
 -1      1448    4    0    1
 -2      6378      6468      6478      6388      6379      6469      6479      6389     12818     12891
 -2     12892     12183     12115     12823     12897     12189     12825     12898     12899     12190
 -1      1449    4    0    1
 -2      6379      6469      6479      6389      6380      6470      6480      6390     12825     12898
 -2     12899     12190     12122     12830     12904     12196     12832     12905     12906     12197
 -1      1450    4    0    1
 -2      6380      6470      6480      6390      6381      6471      6481      6391     12832     12905
 -2     12906     12197     12129     12837     12911     12203     12839     12912     12913     12204
 -1      1451    4    0    1
 -2      6381      6471      6481      6391      6382      6472      6482      6392     12839     12912
 -2     12913     12204     12136     12844     12918     12210     12846     12919     12920     12211
 -1      1452    4    0    1
 -2      6382      6472      6482      6392      4847      4856      4857      4848     12846     12919
 -2     12920     12211     12143     12851     12925     12217      5238      5240      5241      5211
 -1      1453    4    0    1
 -2       451       460       461       452      6383      6473      6483      6393       844       846
 -2       847       817     12147     12855     12929     12221     12857     12930     12931     12222
 -1      1454    4    0    1
 -2      6383      6473      6483      6393      6384      6474      6484      6394     12857     12930
 -2     12931     12222     12154     12862     12936     12228     12864     12937     12938     12229
 -1      1455    4    0    1
 -2      6384      6474      6484      6394      6385      6475      6485      6395     12864     12937
 -2     12938     12229     12161     12869     12943     12235     12871     12944     12945     12236
 -1      1456    4    0    1
 -2      6385      6475      6485      6395      6386      6476      6486      6396     12871     12944
 -2     12945     12236     12168     12876     12950     12242     12878     12951     12952     12243
 -1      1457    4    0    1
 -2      6386      6476      6486      6396      6387      6477      6487      6397     12878     12951
 -2     12952     12243     12175     12883     12957     12249     12885     12958     12959     12250
 -1      1458    4    0    1
 -2      6387      6477      6487      6397      6388      6478      6488      6398     12885     12958
 -2     12959     12250     12182     12890     12964     12256     12892     12965     12966     12257
 -1      1459    4    0    1
 -2      6388      6478      6488      6398      6389      6479      6489      6399     12892     12965
 -2     12966     12257     12189     12897     12971     12263     12899     12972     12973     12264
 -1      1460    4    0    1
 -2      6389      6479      6489      6399      6390      6480      6490      6400     12899     12972
 -2     12973     12264     12196     12904     12978     12270     12906     12979     12980     12271
 -1      1461    4    0    1
 -2      6390      6480      6490      6400      6391      6481      6491      6401     12906     12979
 -2     12980     12271     12203     12911     12985     12277     12913     12986     12987     12278
 -1      1462    4    0    1
 -2      6391      6481      6491      6401      6392      6482      6492      6402     12913     12986
 -2     12987     12278     12210     12918     12992     12284     12920     12993     12994     12285
 -1      1463    4    0    1
 -2      6392      6482      6492      6402      4848      4857      4858      4849     12920     12993
 -2     12994     12285     12217     12925     12999     12291      5241      5243      5244      5214
 -1      1464    4    0    1
 -2       452       461       462       453      6393      6483      6493      6403       847       849
 -2       850       820     12221     12929     13003     12295     12931     13004     13005     12296
 -1      1465    4    0    1
 -2      6393      6483      6493      6403      6394      6484      6494      6404     12931     13004
 -2     13005     12296     12228     12936     13010     12302     12938     13011     13012     12303
 -1      1466    4    0    1
 -2      6394      6484      6494      6404      6395      6485      6495      6405     12938     13011
 -2     13012     12303     12235     12943     13017     12309     12945     13018     13019     12310
 -1      1467    4    0    1
 -2      6395      6485      6495      6405      6396      6486      6496      6406     12945     13018
 -2     13019     12310     12242     12950     13024     12316     12952     13025     13026     12317
 -1      1468    4    0    1
 -2      6396      6486      6496      6406      6397      6487      6497      6407     12952     13025
 -2     13026     12317     12249     12957     13031     12323     12959     13032     13033     12324
 -1      1469    4    0    1
 -2      6397      6487      6497      6407      6398      6488      6498      6408     12959     13032
 -2     13033     12324     12256     12964     13038     12330     12966     13039     13040     12331
 -1      1470    4    0    1
 -2      6398      6488      6498      6408      6399      6489      6499      6409     12966     13039
 -2     13040     12331     12263     12971     13045     12337     12973     13046     13047     12338
 -1      1471    4    0    1
 -2      6399      6489      6499      6409      6400      6490      6500      6410     12973     13046
 -2     13047     12338     12270     12978     13052     12344     12980     13053     13054     12345
 -1      1472    4    0    1
 -2      6400      6490      6500      6410      6401      6491      6501      6411     12980     13053
 -2     13054     12345     12277     12985     13059     12351     12987     13060     13061     12352
 -1      1473    4    0    1
 -2      6401      6491      6501      6411      6402      6492      6502      6412     12987     13060
 -2     13061     12352     12284     12992     13066     12358     12994     13067     13068     12359
 -1      1474    4    0    1
 -2      6402      6492      6502      6412      4849      4858      4859      4850     12994     13067
 -2     13068     12359     12291     12999     13073     12365      5244      5246      5247      5217
 -1      1475    4    0    1
 -2       453       462       463       454      6403      6493      6503      6413       850       852
 -2       853       823     12295     13003     13077     12369     13005     13078     13079     12370
 -1      1476    4    0    1
 -2      6403      6493      6503      6413      6404      6494      6504      6414     13005     13078
 -2     13079     12370     12302     13010     13084     12376     13012     13085     13086     12377
 -1      1477    4    0    1
 -2      6404      6494      6504      6414      6405      6495      6505      6415     13012     13085
 -2     13086     12377     12309     13017     13091     12383     13019     13092     13093     12384
 -1      1478    4    0    1
 -2      6405      6495      6505      6415      6406      6496      6506      6416     13019     13092
 -2     13093     12384     12316     13024     13098     12390     13026     13099     13100     12391
 -1      1479    4    0    1
 -2      6406      6496      6506      6416      6407      6497      6507      6417     13026     13099
 -2     13100     12391     12323     13031     13105     12397     13033     13106     13107     12398
 -1      1480    4    0    1
 -2      6407      6497      6507      6417      6408      6498      6508      6418     13033     13106
 -2     13107     12398     12330     13038     13112     12404     13040     13113     13114     12405
 -1      1481    4    0    1
 -2      6408      6498      6508      6418      6409      6499      6509      6419     13040     13113
 -2     13114     12405     12337     13045     13119     12411     13047     13120     13121     12412
 -1      1482    4    0    1
 -2      6409      6499      6509      6419      6410      6500      6510      6420     13047     13120
 -2     13121     12412     12344     13052     13126     12418     13054     13127     13128     12419
 -1      1483    4    0    1
 -2      6410      6500      6510      6420      6411      6501      6511      6421     13054     13127
 -2     13128     12419     12351     13059     13133     12425     13061     13134     13135     12426
 -1      1484    4    0    1
 -2      6411      6501      6511      6421      6412      6502      6512      6422     13061     13134
 -2     13135     12426     12358     13066     13140     12432     13068     13141     13142     12433
 -1      1485    4    0    1
 -2      6412      6502      6512      6422      4850      4859      4860      4851     13068     13141
 -2     13142     12433     12365     13073     13147     12439      5247      5249      5250      5220
 -1      1486    4    0    1
 -2       454       463       464       455      6413      6503      6513      6423       853       855
 -2       856       826     12369     13077     13151     12443     13079     13152     13153     12444
 -1      1487    4    0    1
 -2      6413      6503      6513      6423      6414      6504      6514      6424     13079     13152
 -2     13153     12444     12376     13084     13158     12450     13086     13159     13160     12451
 -1      1488    4    0    1
 -2      6414      6504      6514      6424      6415      6505      6515      6425     13086     13159
 -2     13160     12451     12383     13091     13165     12457     13093     13166     13167     12458
 -1      1489    4    0    1
 -2      6415      6505      6515      6425      6416      6506      6516      6426     13093     13166
 -2     13167     12458     12390     13098     13172     12464     13100     13173     13174     12465
 -1      1490    4    0    1
 -2      6416      6506      6516      6426      6417      6507      6517      6427     13100     13173
 -2     13174     12465     12397     13105     13179     12471     13107     13180     13181     12472
 -1      1491    4    0    1
 -2      6417      6507      6517      6427      6418      6508      6518      6428     13107     13180
 -2     13181     12472     12404     13112     13186     12478     13114     13187     13188     12479
 -1      1492    4    0    1
 -2      6418      6508      6518      6428      6419      6509      6519      6429     13114     13187
 -2     13188     12479     12411     13119     13193     12485     13121     13194     13195     12486
 -1      1493    4    0    1
 -2      6419      6509      6519      6429      6420      6510      6520      6430     13121     13194
 -2     13195     12486     12418     13126     13200     12492     13128     13201     13202     12493
 -1      1494    4    0    1
 -2      6420      6510      6520      6430      6421      6511      6521      6431     13128     13201
 -2     13202     12493     12425     13133     13207     12499     13135     13208     13209     12500
 -1      1495    4    0    1
 -2      6421      6511      6521      6431      6422      6512      6522      6432     13135     13208
 -2     13209     12500     12432     13140     13214     12506     13142     13215     13216     12507
 -1      1496    4    0    1
 -2      6422      6512      6522      6432      4851      4860      4861      4852     13142     13215
 -2     13216     12507     12439     13147     13221     12513      5250      5252      5253      5223
 -1      1497    4    0    1
 -2       455       464       465       456      6423      6513      6523      6433       856       858
 -2       859       829     12443     13151     13225     12517     13153     13226     13227     12518
 -1      1498    4    0    1
 -2      6423      6513      6523      6433      6424      6514      6524      6434     13153     13226
 -2     13227     12518     12450     13158     13232     12524     13160     13233     13234     12525
 -1      1499    4    0    1
 -2      6424      6514      6524      6434      6425      6515      6525      6435     13160     13233
 -2     13234     12525     12457     13165     13239     12531     13167     13240     13241     12532
 -1      1500    4    0    1
 -2      6425      6515      6525      6435      6426      6516      6526      6436     13167     13240
 -2     13241     12532     12464     13172     13246     12538     13174     13247     13248     12539
 -1      1501    4    0    1
 -2      6426      6516      6526      6436      6427      6517      6527      6437     13174     13247
 -2     13248     12539     12471     13179     13253     12545     13181     13254     13255     12546
 -1      1502    4    0    1
 -2      6427      6517      6527      6437      6428      6518      6528      6438     13181     13254
 -2     13255     12546     12478     13186     13260     12552     13188     13261     13262     12553
 -1      1503    4    0    1
 -2      6428      6518      6528      6438      6429      6519      6529      6439     13188     13261
 -2     13262     12553     12485     13193     13267     12559     13195     13268     13269     12560
 -1      1504    4    0    1
 -2      6429      6519      6529      6439      6430      6520      6530      6440     13195     13268
 -2     13269     12560     12492     13200     13274     12566     13202     13275     13276     12567
 -1      1505    4    0    1
 -2      6430      6520      6530      6440      6431      6521      6531      6441     13202     13275
 -2     13276     12567     12499     13207     13281     12573     13209     13282     13283     12574
 -1      1506    4    0    1
 -2      6431      6521      6531      6441      6432      6522      6532      6442     13209     13282
 -2     13283     12574     12506     13214     13288     12580     13216     13289     13290     12581
 -1      1507    4    0    1
 -2      6432      6522      6532      6442      4852      4861      4862      4853     13216     13289
 -2     13290     12581     12513     13221     13295     12587      5253      5255      5256      5226
 -1      1508    4    0    1
 -2       456       465       466       457      6433      6523      6533      6443       859       861
 -2       862       832     12517     13225     13299     12591     13227     13300     13301     12592
 -1      1509    4    0    1
 -2      6433      6523      6533      6443      6434      6524      6534      6444     13227     13300
 -2     13301     12592     12524     13232     13306     12598     13234     13307     13308     12599
 -1      1510    4    0    1
 -2      6434      6524      6534      6444      6435      6525      6535      6445     13234     13307
 -2     13308     12599     12531     13239     13313     12605     13241     13314     13315     12606
 -1      1511    4    0    1
 -2      6435      6525      6535      6445      6436      6526      6536      6446     13241     13314
 -2     13315     12606     12538     13246     13320     12612     13248     13321     13322     12613
 -1      1512    4    0    1
 -2      6436      6526      6536      6446      6437      6527      6537      6447     13248     13321
 -2     13322     12613     12545     13253     13327     12619     13255     13328     13329     12620
 -1      1513    4    0    1
 -2      6437      6527      6537      6447      6438      6528      6538      6448     13255     13328
 -2     13329     12620     12552     13260     13334     12626     13262     13335     13336     12627
 -1      1514    4    0    1
 -2      6438      6528      6538      6448      6439      6529      6539      6449     13262     13335
 -2     13336     12627     12559     13267     13341     12633     13269     13342     13343     12634
 -1      1515    4    0    1
 -2      6439      6529      6539      6449      6440      6530      6540      6450     13269     13342
 -2     13343     12634     12566     13274     13348     12640     13276     13349     13350     12641
 -1      1516    4    0    1
 -2      6440      6530      6540      6450      6441      6531      6541      6451     13276     13349
 -2     13350     12641     12573     13281     13355     12647     13283     13356     13357     12648
 -1      1517    4    0    1
 -2      6441      6531      6541      6451      6442      6532      6542      6452     13283     13356
 -2     13357     12648     12580     13288     13362     12654     13290     13363     13364     12655
 -1      1518    4    0    1
 -2      6442      6532      6542      6452      4853      4862      4863      4854     13290     13363
 -2     13364     12655     12587     13295     13369     12661      5256      5258      5259      5229
 -1      1519    4    0    1
 -2       457       466       467       458      6443      6533      6543      6453       862       864
 -2       865       835     12591     13299     13373     12665     13301     13374     13375     12666
 -1      1520    4    0    1
 -2      6443      6533      6543      6453      6444      6534      6544      6454     13301     13374
 -2     13375     12666     12598     13306     13380     12672     13308     13381     13382     12673
 -1      1521    4    0    1
 -2      6444      6534      6544      6454      6445      6535      6545      6455     13308     13381
 -2     13382     12673     12605     13313     13387     12679     13315     13388     13389     12680
 -1      1522    4    0    1
 -2      6445      6535      6545      6455      6446      6536      6546      6456     13315     13388
 -2     13389     12680     12612     13320     13394     12686     13322     13395     13396     12687
 -1      1523    4    0    1
 -2      6446      6536      6546      6456      6447      6537      6547      6457     13322     13395
 -2     13396     12687     12619     13327     13401     12693     13329     13402     13403     12694
 -1      1524    4    0    1
 -2      6447      6537      6547      6457      6448      6538      6548      6458     13329     13402
 -2     13403     12694     12626     13334     13408     12700     13336     13409     13410     12701
 -1      1525    4    0    1
 -2      6448      6538      6548      6458      6449      6539      6549      6459     13336     13409
 -2     13410     12701     12633     13341     13415     12707     13343     13416     13417     12708
 -1      1526    4    0    1
 -2      6449      6539      6549      6459      6450      6540      6550      6460     13343     13416
 -2     13417     12708     12640     13348     13422     12714     13350     13423     13424     12715
 -1      1527    4    0    1
 -2      6450      6540      6550      6460      6451      6541      6551      6461     13350     13423
 -2     13424     12715     12647     13355     13429     12721     13357     13430     13431     12722
 -1      1528    4    0    1
 -2      6451      6541      6551      6461      6452      6542      6552      6462     13357     13430
 -2     13431     12722     12654     13362     13436     12728     13364     13437     13438     12729
 -1      1529    4    0    1
 -2      6452      6542      6552      6462      4854      4863      4864      4855     13364     13437
 -2     13438     12729     12661     13369     13443     12735      5259      5261      5262      5232
 -1      1530    4    0    1
 -2       458       467       109       110      6453      6543      3384      3394       865       867
 -2       139       838     12665     13373      4158      4190     13375     13447      4191     12739
 -1      1531    4    0    1
 -2      6453      6543      3384      3394      6454      6544      3385      3395     13375     13447
 -2      4191     12739     12672     13380      4161      4193     13382     13451      4194     12743
 -1      1532    4    0    1
 -2      6454      6544      3385      3395      6455      6545      3386      3396     13382     13451
 -2      4194     12743     12679     13387      4164      4196     13389     13455      4197     12747
 -1      1533    4    0    1
 -2      6455      6545      3386      3396      6456      6546      3387      3397     13389     13455
 -2      4197     12747     12686     13394      4167      4199     13396     13459      4200     12751
 -1      1534    4    0    1
 -2      6456      6546      3387      3397      6457      6547      3388      3398     13396     13459
 -2      4200     12751     12693     13401      4170      4202     13403     13463      4203     12755
 -1      1535    4    0    1
 -2      6457      6547      3388      3398      6458      6548      3389      3399     13403     13463
 -2      4203     12755     12700     13408      4173      4205     13410     13467      4206     12759
 -1      1536    4    0    1
 -2      6458      6548      3389      3399      6459      6549      3390      3400     13410     13467
 -2      4206     12759     12707     13415      4176      4208     13417     13471      4209     12763
 -1      1537    4    0    1
 -2      6459      6549      3390      3400      6460      6550      3391      3401     13417     13471
 -2      4209     12763     12714     13422      4179      4211     13424     13475      4212     12767
 -1      1538    4    0    1
 -2      6460      6550      3391      3401      6461      6551      3392      3402     13424     13475
 -2      4212     12767     12721     13429      4182      4214     13431     13479      4215     12771
 -1      1539    4    0    1
 -2      6461      6551      3392      3402      6462      6552      3393      3403     13431     13479
 -2      4215     12771     12728     13436      4185      4217     13438     13483      4218     12775
 -1      1540    4    0    1
 -2      6462      6552      3393      3403      4855      4864       265       266     13438     13483
 -2      4218     12775     12735     13443      4188      4220      5262      5264       295      5235
 -1      1541    4    0    1
 -2        15        16       468       459      1586      1596      6553      6463        45       869
 -2       870       840      2008      2040     13489     12781      2041     13490     13491     12782
 -1      1542    4    0    1
 -2      1586      1596      6553      6463      1587      1597      6554      6464      2041     13490
 -2     13491     12782      2011      2043     13496     12788      2044     13497     13498     12789
 -1      1543    4    0    1
 -2      1587      1597      6554      6464      1588      1598      6555      6465      2044     13497
 -2     13498     12789      2014      2046     13503     12795      2047     13504     13505     12796
 -1      1544    4    0    1
 -2      1588      1598      6555      6465      1589      1599      6556      6466      2047     13504
 -2     13505     12796      2017      2049     13510     12802      2050     13511     13512     12803
 -1      1545    4    0    1
 -2      1589      1599      6556      6466      1590      1600      6557      6467      2050     13511
 -2     13512     12803      2020      2052     13517     12809      2053     13518     13519     12810
 -1      1546    4    0    1
 -2      1590      1600      6557      6467      1591      1601      6558      6468      2053     13518
 -2     13519     12810      2023      2055     13524     12816      2056     13525     13526     12817
 -1      1547    4    0    1
 -2      1591      1601      6558      6468      1592      1602      6559      6469      2056     13525
 -2     13526     12817      2026      2058     13531     12823      2059     13532     13533     12824
 -1      1548    4    0    1
 -2      1592      1602      6559      6469      1593      1603      6560      6470      2059     13532
 -2     13533     12824      2029      2061     13538     12830      2062     13539     13540     12831
 -1      1549    4    0    1
 -2      1593      1603      6560      6470      1594      1604      6561      6471      2062     13539
 -2     13540     12831      2032      2064     13545     12837      2065     13546     13547     12838
 -1      1550    4    0    1
 -2      1594      1604      6561      6471      1595      1605      6562      6472      2065     13546
 -2     13547     12838      2035      2067     13552     12844      2068     13553     13554     12845
 -1      1551    4    0    1
 -2      1595      1605      6562      6472       171       172      4865      4856      2068     13553
 -2     13554     12845      2038      2070     13559     12851       201      5266      5267      5237
 -1      1552    4    0    1
 -2       459       468       469       460      6463      6553      6563      6473       870       872
 -2       873       843     12781     13489     13563     12855     13491     13564     13565     12856
 -1      1553    4    0    1
 -2      6463      6553      6563      6473      6464      6554      6564      6474     13491     13564
 -2     13565     12856     12788     13496     13570     12862     13498     13571     13572     12863
 -1      1554    4    0    1
 -2      6464      6554      6564      6474      6465      6555      6565      6475     13498     13571
 -2     13572     12863     12795     13503     13577     12869     13505     13578     13579     12870
 -1      1555    4    0    1
 -2      6465      6555      6565      6475      6466      6556      6566      6476     13505     13578
 -2     13579     12870     12802     13510     13584     12876     13512     13585     13586     12877
 -1      1556    4    0    1
 -2      6466      6556      6566      6476      6467      6557      6567      6477     13512     13585
 -2     13586     12877     12809     13517     13591     12883     13519     13592     13593     12884
 -1      1557    4    0    1
 -2      6467      6557      6567      6477      6468      6558      6568      6478     13519     13592
 -2     13593     12884     12816     13524     13598     12890     13526     13599     13600     12891
 -1      1558    4    0    1
 -2      6468      6558      6568      6478      6469      6559      6569      6479     13526     13599
 -2     13600     12891     12823     13531     13605     12897     13533     13606     13607     12898
 -1      1559    4    0    1
 -2      6469      6559      6569      6479      6470      6560      6570      6480     13533     13606
 -2     13607     12898     12830     13538     13612     12904     13540     13613     13614     12905
 -1      1560    4    0    1
 -2      6470      6560      6570      6480      6471      6561      6571      6481     13540     13613
 -2     13614     12905     12837     13545     13619     12911     13547     13620     13621     12912
 -1      1561    4    0    1
 -2      6471      6561      6571      6481      6472      6562      6572      6482     13547     13620
 -2     13621     12912     12844     13552     13626     12918     13554     13627     13628     12919
 -1      1562    4    0    1
 -2      6472      6562      6572      6482      4856      4865      4866      4857     13554     13627
 -2     13628     12919     12851     13559     13633     12925      5267      5269      5270      5240
 -1      1563    4    0    1
 -2       460       469       470       461      6473      6563      6573      6483       873       875
 -2       876       846     12855     13563     13637     12929     13565     13638     13639     12930
 -1      1564    4    0    1
 -2      6473      6563      6573      6483      6474      6564      6574      6484     13565     13638
 -2     13639     12930     12862     13570     13644     12936     13572     13645     13646     12937
 -1      1565    4    0    1
 -2      6474      6564      6574      6484      6475      6565      6575      6485     13572     13645
 -2     13646     12937     12869     13577     13651     12943     13579     13652     13653     12944
 -1      1566    4    0    1
 -2      6475      6565      6575      6485      6476      6566      6576      6486     13579     13652
 -2     13653     12944     12876     13584     13658     12950     13586     13659     13660     12951
 -1      1567    4    0    1
 -2      6476      6566      6576      6486      6477      6567      6577      6487     13586     13659
 -2     13660     12951     12883     13591     13665     12957     13593     13666     13667     12958
 -1      1568    4    0    1
 -2      6477      6567      6577      6487      6478      6568      6578      6488     13593     13666
 -2     13667     12958     12890     13598     13672     12964     13600     13673     13674     12965
 -1      1569    4    0    1
 -2      6478      6568      6578      6488      6479      6569      6579      6489     13600     13673
 -2     13674     12965     12897     13605     13679     12971     13607     13680     13681     12972
 -1      1570    4    0    1
 -2      6479      6569      6579      6489      6480      6570      6580      6490     13607     13680
 -2     13681     12972     12904     13612     13686     12978     13614     13687     13688     12979
 -1      1571    4    0    1
 -2      6480      6570      6580      6490      6481      6571      6581      6491     13614     13687
 -2     13688     12979     12911     13619     13693     12985     13621     13694     13695     12986
 -1      1572    4    0    1
 -2      6481      6571      6581      6491      6482      6572      6582      6492     13621     13694
 -2     13695     12986     12918     13626     13700     12992     13628     13701     13702     12993
 -1      1573    4    0    1
 -2      6482      6572      6582      6492      4857      4866      4867      4858     13628     13701
 -2     13702     12993     12925     13633     13707     12999      5270      5272      5273      5243
 -1      1574    4    0    1
 -2       461       470       471       462      6483      6573      6583      6493       876       878
 -2       879       849     12929     13637     13711     13003     13639     13712     13713     13004
 -1      1575    4    0    1
 -2      6483      6573      6583      6493      6484      6574      6584      6494     13639     13712
 -2     13713     13004     12936     13644     13718     13010     13646     13719     13720     13011
 -1      1576    4    0    1
 -2      6484      6574      6584      6494      6485      6575      6585      6495     13646     13719
 -2     13720     13011     12943     13651     13725     13017     13653     13726     13727     13018
 -1      1577    4    0    1
 -2      6485      6575      6585      6495      6486      6576      6586      6496     13653     13726
 -2     13727     13018     12950     13658     13732     13024     13660     13733     13734     13025
 -1      1578    4    0    1
 -2      6486      6576      6586      6496      6487      6577      6587      6497     13660     13733
 -2     13734     13025     12957     13665     13739     13031     13667     13740     13741     13032
 -1      1579    4    0    1
 -2      6487      6577      6587      6497      6488      6578      6588      6498     13667     13740
 -2     13741     13032     12964     13672     13746     13038     13674     13747     13748     13039
 -1      1580    4    0    1
 -2      6488      6578      6588      6498      6489      6579      6589      6499     13674     13747
 -2     13748     13039     12971     13679     13753     13045     13681     13754     13755     13046
 -1      1581    4    0    1
 -2      6489      6579      6589      6499      6490      6580      6590      6500     13681     13754
 -2     13755     13046     12978     13686     13760     13052     13688     13761     13762     13053
 -1      1582    4    0    1
 -2      6490      6580      6590      6500      6491      6581      6591      6501     13688     13761
 -2     13762     13053     12985     13693     13767     13059     13695     13768     13769     13060
 -1      1583    4    0    1
 -2      6491      6581      6591      6501      6492      6582      6592      6502     13695     13768
 -2     13769     13060     12992     13700     13774     13066     13702     13775     13776     13067
 -1      1584    4    0    1
 -2      6492      6582      6592      6502      4858      4867      4868      4859     13702     13775
 -2     13776     13067     12999     13707     13781     13073      5273      5275      5276      5246
 -1      1585    4    0    1
 -2       462       471       472       463      6493      6583      6593      6503       879       881
 -2       882       852     13003     13711     13785     13077     13713     13786     13787     13078
 -1      1586    4    0    1
 -2      6493      6583      6593      6503      6494      6584      6594      6504     13713     13786
 -2     13787     13078     13010     13718     13792     13084     13720     13793     13794     13085
 -1      1587    4    0    1
 -2      6494      6584      6594      6504      6495      6585      6595      6505     13720     13793
 -2     13794     13085     13017     13725     13799     13091     13727     13800     13801     13092
 -1      1588    4    0    1
 -2      6495      6585      6595      6505      6496      6586      6596      6506     13727     13800
 -2     13801     13092     13024     13732     13806     13098     13734     13807     13808     13099
 -1      1589    4    0    1
 -2      6496      6586      6596      6506      6497      6587      6597      6507     13734     13807
 -2     13808     13099     13031     13739     13813     13105     13741     13814     13815     13106
 -1      1590    4    0    1
 -2      6497      6587      6597      6507      6498      6588      6598      6508     13741     13814
 -2     13815     13106     13038     13746     13820     13112     13748     13821     13822     13113
 -1      1591    4    0    1
 -2      6498      6588      6598      6508      6499      6589      6599      6509     13748     13821
 -2     13822     13113     13045     13753     13827     13119     13755     13828     13829     13120
 -1      1592    4    0    1
 -2      6499      6589      6599      6509      6500      6590      6600      6510     13755     13828
 -2     13829     13120     13052     13760     13834     13126     13762     13835     13836     13127
 -1      1593    4    0    1
 -2      6500      6590      6600      6510      6501      6591      6601      6511     13762     13835
 -2     13836     13127     13059     13767     13841     13133     13769     13842     13843     13134
 -1      1594    4    0    1
 -2      6501      6591      6601      6511      6502      6592      6602      6512     13769     13842
 -2     13843     13134     13066     13774     13848     13140     13776     13849     13850     13141
 -1      1595    4    0    1
 -2      6502      6592      6602      6512      4859      4868      4869      4860     13776     13849
 -2     13850     13141     13073     13781     13855     13147      5276      5278      5279      5249
 -1      1596    4    0    1
 -2       463       472       473       464      6503      6593      6603      6513       882       884
 -2       885       855     13077     13785     13859     13151     13787     13860     13861     13152
 -1      1597    4    0    1
 -2      6503      6593      6603      6513      6504      6594      6604      6514     13787     13860
 -2     13861     13152     13084     13792     13866     13158     13794     13867     13868     13159
 -1      1598    4    0    1
 -2      6504      6594      6604      6514      6505      6595      6605      6515     13794     13867
 -2     13868     13159     13091     13799     13873     13165     13801     13874     13875     13166
 -1      1599    4    0    1
 -2      6505      6595      6605      6515      6506      6596      6606      6516     13801     13874
 -2     13875     13166     13098     13806     13880     13172     13808     13881     13882     13173
 -1      1600    4    0    1
 -2      6506      6596      6606      6516      6507      6597      6607      6517     13808     13881
 -2     13882     13173     13105     13813     13887     13179     13815     13888     13889     13180
 -1      1601    4    0    1
 -2      6507      6597      6607      6517      6508      6598      6608      6518     13815     13888
 -2     13889     13180     13112     13820     13894     13186     13822     13895     13896     13187
 -1      1602    4    0    1
 -2      6508      6598      6608      6518      6509      6599      6609      6519     13822     13895
 -2     13896     13187     13119     13827     13901     13193     13829     13902     13903     13194
 -1      1603    4    0    1
 -2      6509      6599      6609      6519      6510      6600      6610      6520     13829     13902
 -2     13903     13194     13126     13834     13908     13200     13836     13909     13910     13201
 -1      1604    4    0    1
 -2      6510      6600      6610      6520      6511      6601      6611      6521     13836     13909
 -2     13910     13201     13133     13841     13915     13207     13843     13916     13917     13208
 -1      1605    4    0    1
 -2      6511      6601      6611      6521      6512      6602      6612      6522     13843     13916
 -2     13917     13208     13140     13848     13922     13214     13850     13923     13924     13215
 -1      1606    4    0    1
 -2      6512      6602      6612      6522      4860      4869      4870      4861     13850     13923
 -2     13924     13215     13147     13855     13929     13221      5279      5281      5282      5252
 -1      1607    4    0    1
 -2       464       473       474       465      6513      6603      6613      6523       885       887
 -2       888       858     13151     13859     13933     13225     13861     13934     13935     13226
 -1      1608    4    0    1
 -2      6513      6603      6613      6523      6514      6604      6614      6524     13861     13934
 -2     13935     13226     13158     13866     13940     13232     13868     13941     13942     13233
 -1      1609    4    0    1
 -2      6514      6604      6614      6524      6515      6605      6615      6525     13868     13941
 -2     13942     13233     13165     13873     13947     13239     13875     13948     13949     13240
 -1      1610    4    0    1
 -2      6515      6605      6615      6525      6516      6606      6616      6526     13875     13948
 -2     13949     13240     13172     13880     13954     13246     13882     13955     13956     13247
 -1      1611    4    0    1
 -2      6516      6606      6616      6526      6517      6607      6617      6527     13882     13955
 -2     13956     13247     13179     13887     13961     13253     13889     13962     13963     13254
 -1      1612    4    0    1
 -2      6517      6607      6617      6527      6518      6608      6618      6528     13889     13962
 -2     13963     13254     13186     13894     13968     13260     13896     13969     13970     13261
 -1      1613    4    0    1
 -2      6518      6608      6618      6528      6519      6609      6619      6529     13896     13969
 -2     13970     13261     13193     13901     13975     13267     13903     13976     13977     13268
 -1      1614    4    0    1
 -2      6519      6609      6619      6529      6520      6610      6620      6530     13903     13976
 -2     13977     13268     13200     13908     13982     13274     13910     13983     13984     13275
 -1      1615    4    0    1
 -2      6520      6610      6620      6530      6521      6611      6621      6531     13910     13983
 -2     13984     13275     13207     13915     13989     13281     13917     13990     13991     13282
 -1      1616    4    0    1
 -2      6521      6611      6621      6531      6522      6612      6622      6532     13917     13990
 -2     13991     13282     13214     13922     13996     13288     13924     13997     13998     13289
 -1      1617    4    0    1
 -2      6522      6612      6622      6532      4861      4870      4871      4862     13924     13997
 -2     13998     13289     13221     13929     14003     13295      5282      5284      5285      5255
 -1      1618    4    0    1
 -2       465       474       475       466      6523      6613      6623      6533       888       890
 -2       891       861     13225     13933     14007     13299     13935     14008     14009     13300
 -1      1619    4    0    1
 -2      6523      6613      6623      6533      6524      6614      6624      6534     13935     14008
 -2     14009     13300     13232     13940     14014     13306     13942     14015     14016     13307
 -1      1620    4    0    1
 -2      6524      6614      6624      6534      6525      6615      6625      6535     13942     14015
 -2     14016     13307     13239     13947     14021     13313     13949     14022     14023     13314
 -1      1621    4    0    1
 -2      6525      6615      6625      6535      6526      6616      6626      6536     13949     14022
 -2     14023     13314     13246     13954     14028     13320     13956     14029     14030     13321
 -1      1622    4    0    1
 -2      6526      6616      6626      6536      6527      6617      6627      6537     13956     14029
 -2     14030     13321     13253     13961     14035     13327     13963     14036     14037     13328
 -1      1623    4    0    1
 -2      6527      6617      6627      6537      6528      6618      6628      6538     13963     14036
 -2     14037     13328     13260     13968     14042     13334     13970     14043     14044     13335
 -1      1624    4    0    1
 -2      6528      6618      6628      6538      6529      6619      6629      6539     13970     14043
 -2     14044     13335     13267     13975     14049     13341     13977     14050     14051     13342
 -1      1625    4    0    1
 -2      6529      6619      6629      6539      6530      6620      6630      6540     13977     14050
 -2     14051     13342     13274     13982     14056     13348     13984     14057     14058     13349
 -1      1626    4    0    1
 -2      6530      6620      6630      6540      6531      6621      6631      6541     13984     14057
 -2     14058     13349     13281     13989     14063     13355     13991     14064     14065     13356
 -1      1627    4    0    1
 -2      6531      6621      6631      6541      6532      6622      6632      6542     13991     14064
 -2     14065     13356     13288     13996     14070     13362     13998     14071     14072     13363
 -1      1628    4    0    1
 -2      6532      6622      6632      6542      4862      4871      4872      4863     13998     14071
 -2     14072     13363     13295     14003     14077     13369      5285      5287      5288      5258
 -1      1629    4    0    1
 -2       466       475       476       467      6533      6623      6633      6543       891       893
 -2       894       864     13299     14007     14081     13373     14009     14082     14083     13374
 -1      1630    4    0    1
 -2      6533      6623      6633      6543      6534      6624      6634      6544     14009     14082
 -2     14083     13374     13306     14014     14088     13380     14016     14089     14090     13381
 -1      1631    4    0    1
 -2      6534      6624      6634      6544      6535      6625      6635      6545     14016     14089
 -2     14090     13381     13313     14021     14095     13387     14023     14096     14097     13388
 -1      1632    4    0    1
 -2      6535      6625      6635      6545      6536      6626      6636      6546     14023     14096
 -2     14097     13388     13320     14028     14102     13394     14030     14103     14104     13395
 -1      1633    4    0    1
 -2      6536      6626      6636      6546      6537      6627      6637      6547     14030     14103
 -2     14104     13395     13327     14035     14109     13401     14037     14110     14111     13402
 -1      1634    4    0    1
 -2      6537      6627      6637      6547      6538      6628      6638      6548     14037     14110
 -2     14111     13402     13334     14042     14116     13408     14044     14117     14118     13409
 -1      1635    4    0    1
 -2      6538      6628      6638      6548      6539      6629      6639      6549     14044     14117
 -2     14118     13409     13341     14049     14123     13415     14051     14124     14125     13416
 -1      1636    4    0    1
 -2      6539      6629      6639      6549      6540      6630      6640      6550     14051     14124
 -2     14125     13416     13348     14056     14130     13422     14058     14131     14132     13423
 -1      1637    4    0    1
 -2      6540      6630      6640      6550      6541      6631      6641      6551     14058     14131
 -2     14132     13423     13355     14063     14137     13429     14065     14138     14139     13430
 -1      1638    4    0    1
 -2      6541      6631      6641      6551      6542      6632      6642      6552     14065     14138
 -2     14139     13430     13362     14070     14144     13436     14072     14145     14146     13437
 -1      1639    4    0    1
 -2      6542      6632      6642      6552      4863      4872      4873      4864     14072     14145
 -2     14146     13437     13369     14077     14151     13443      5288      5290      5291      5261
 -1      1640    4    0    1
 -2       467       476       108       109      6543      6633      3374      3384       894       896
 -2       138       867     13373     14081      4126      4158     14083     14155      4159     13447
 -1      1641    4    0    1
 -2      6543      6633      3374      3384      6544      6634      3375      3385     14083     14155
 -2      4159     13447     13380     14088      4129      4161     14090     14159      4162     13451
 -1      1642    4    0    1
 -2      6544      6634      3375      3385      6545      6635      3376      3386     14090     14159
 -2      4162     13451     13387     14095      4132      4164     14097     14163      4165     13455
 -1      1643    4    0    1
 -2      6545      6635      3376      3386      6546      6636      3377      3387     14097     14163
 -2      4165     13455     13394     14102      4135      4167     14104     14167      4168     13459
 -1      1644    4    0    1
 -2      6546      6636      3377      3387      6547      6637      3378      3388     14104     14167
 -2      4168     13459     13401     14109      4138      4170     14111     14171      4171     13463
 -1      1645    4    0    1
 -2      6547      6637      3378      3388      6548      6638      3379      3389     14111     14171
 -2      4171     13463     13408     14116      4141      4173     14118     14175      4174     13467
 -1      1646    4    0    1
 -2      6548      6638      3379      3389      6549      6639      3380      3390     14118     14175
 -2      4174     13467     13415     14123      4144      4176     14125     14179      4177     13471
 -1      1647    4    0    1
 -2      6549      6639      3380      3390      6550      6640      3381      3391     14125     14179
 -2      4177     13471     13422     14130      4147      4179     14132     14183      4180     13475
 -1      1648    4    0    1
 -2      6550      6640      3381      3391      6551      6641      3382      3392     14132     14183
 -2      4180     13475     13429     14137      4150      4182     14139     14187      4183     13479
 -1      1649    4    0    1
 -2      6551      6641      3382      3392      6552      6642      3383      3393     14139     14187
 -2      4183     13479     13436     14144      4153      4185     14146     14191      4186     13483
 -1      1650    4    0    1
 -2      6552      6642      3383      3393      4864      4873       264       265     14146     14191
 -2      4186     13483     13443     14151      4156      4188      5291      5293       294      5264
 -1      1651    4    0    1
 -2        16        17       477       468      1596      1606      6643      6553        46       898
 -2       899       869      2040      2072     14197     13489      2073     14198     14199     13490
 -1      1652    4    0    1
 -2      1596      1606      6643      6553      1597      1607      6644      6554      2073     14198
 -2     14199     13490      2043      2075     14204     13496      2076     14205     14206     13497
 -1      1653    4    0    1
 -2      1597      1607      6644      6554      1598      1608      6645      6555      2076     14205
 -2     14206     13497      2046      2078     14211     13503      2079     14212     14213     13504
 -1      1654    4    0    1
 -2      1598      1608      6645      6555      1599      1609      6646      6556      2079     14212
 -2     14213     13504      2049      2081     14218     13510      2082     14219     14220     13511
 -1      1655    4    0    1
 -2      1599      1609      6646      6556      1600      1610      6647      6557      2082     14219
 -2     14220     13511      2052      2084     14225     13517      2085     14226     14227     13518
 -1      1656    4    0    1
 -2      1600      1610      6647      6557      1601      1611      6648      6558      2085     14226
 -2     14227     13518      2055      2087     14232     13524      2088     14233     14234     13525
 -1      1657    4    0    1
 -2      1601      1611      6648      6558      1602      1612      6649      6559      2088     14233
 -2     14234     13525      2058      2090     14239     13531      2091     14240     14241     13532
 -1      1658    4    0    1
 -2      1602      1612      6649      6559      1603      1613      6650      6560      2091     14240
 -2     14241     13532      2061      2093     14246     13538      2094     14247     14248     13539
 -1      1659    4    0    1
 -2      1603      1613      6650      6560      1604      1614      6651      6561      2094     14247
 -2     14248     13539      2064      2096     14253     13545      2097     14254     14255     13546
 -1      1660    4    0    1
 -2      1604      1614      6651      6561      1605      1615      6652      6562      2097     14254
 -2     14255     13546      2067      2099     14260     13552      2100     14261     14262     13553
 -1      1661    4    0    1
 -2      1605      1615      6652      6562       172       173      4874      4865      2100     14261
 -2     14262     13553      2070      2102     14267     13559       202      5295      5296      5266
 -1      1662    4    0    1
 -2       468       477       478       469      6553      6643      6653      6563       899       901
 -2       902       872     13489     14197     14271     13563     14199     14272     14273     13564
 -1      1663    4    0    1
 -2      6553      6643      6653      6563      6554      6644      6654      6564     14199     14272
 -2     14273     13564     13496     14204     14278     13570     14206     14279     14280     13571
 -1      1664    4    0    1
 -2      6554      6644      6654      6564      6555      6645      6655      6565     14206     14279
 -2     14280     13571     13503     14211     14285     13577     14213     14286     14287     13578
 -1      1665    4    0    1
 -2      6555      6645      6655      6565      6556      6646      6656      6566     14213     14286
 -2     14287     13578     13510     14218     14292     13584     14220     14293     14294     13585
 -1      1666    4    0    1
 -2      6556      6646      6656      6566      6557      6647      6657      6567     14220     14293
 -2     14294     13585     13517     14225     14299     13591     14227     14300     14301     13592
 -1      1667    4    0    1
 -2      6557      6647      6657      6567      6558      6648      6658      6568     14227     14300
 -2     14301     13592     13524     14232     14306     13598     14234     14307     14308     13599
 -1      1668    4    0    1
 -2      6558      6648      6658      6568      6559      6649      6659      6569     14234     14307
 -2     14308     13599     13531     14239     14313     13605     14241     14314     14315     13606
 -1      1669    4    0    1
 -2      6559      6649      6659      6569      6560      6650      6660      6570     14241     14314
 -2     14315     13606     13538     14246     14320     13612     14248     14321     14322     13613
 -1      1670    4    0    1
 -2      6560      6650      6660      6570      6561      6651      6661      6571     14248     14321
 -2     14322     13613     13545     14253     14327     13619     14255     14328     14329     13620
 -1      1671    4    0    1
 -2      6561      6651      6661      6571      6562      6652      6662      6572     14255     14328
 -2     14329     13620     13552     14260     14334     13626     14262     14335     14336     13627
 -1      1672    4    0    1
 -2      6562      6652      6662      6572      4865      4874      4875      4866     14262     14335
 -2     14336     13627     13559     14267     14341     13633      5296      5298      5299      5269
 -1      1673    4    0    1
 -2       469       478       479       470      6563      6653      6663      6573       902       904
 -2       905       875     13563     14271     14345     13637     14273     14346     14347     13638
 -1      1674    4    0    1
 -2      6563      6653      6663      6573      6564      6654      6664      6574     14273     14346
 -2     14347     13638     13570     14278     14352     13644     14280     14353     14354     13645
 -1      1675    4    0    1
 -2      6564      6654      6664      6574      6565      6655      6665      6575     14280     14353
 -2     14354     13645     13577     14285     14359     13651     14287     14360     14361     13652
 -1      1676    4    0    1
 -2      6565      6655      6665      6575      6566      6656      6666      6576     14287     14360
 -2     14361     13652     13584     14292     14366     13658     14294     14367     14368     13659
 -1      1677    4    0    1
 -2      6566      6656      6666      6576      6567      6657      6667      6577     14294     14367
 -2     14368     13659     13591     14299     14373     13665     14301     14374     14375     13666
 -1      1678    4    0    1
 -2      6567      6657      6667      6577      6568      6658      6668      6578     14301     14374
 -2     14375     13666     13598     14306     14380     13672     14308     14381     14382     13673
 -1      1679    4    0    1
 -2      6568      6658      6668      6578      6569      6659      6669      6579     14308     14381
 -2     14382     13673     13605     14313     14387     13679     14315     14388     14389     13680
 -1      1680    4    0    1
 -2      6569      6659      6669      6579      6570      6660      6670      6580     14315     14388
 -2     14389     13680     13612     14320     14394     13686     14322     14395     14396     13687
 -1      1681    4    0    1
 -2      6570      6660      6670      6580      6571      6661      6671      6581     14322     14395
 -2     14396     13687     13619     14327     14401     13693     14329     14402     14403     13694
 -1      1682    4    0    1
 -2      6571      6661      6671      6581      6572      6662      6672      6582     14329     14402
 -2     14403     13694     13626     14334     14408     13700     14336     14409     14410     13701
 -1      1683    4    0    1
 -2      6572      6662      6672      6582      4866      4875      4876      4867     14336     14409
 -2     14410     13701     13633     14341     14415     13707      5299      5301      5302      5272
 -1      1684    4    0    1
 -2       470       479       480       471      6573      6663      6673      6583       905       907
 -2       908       878     13637     14345     14419     13711     14347     14420     14421     13712
 -1      1685    4    0    1
 -2      6573      6663      6673      6583      6574      6664      6674      6584     14347     14420
 -2     14421     13712     13644     14352     14426     13718     14354     14427     14428     13719
 -1      1686    4    0    1
 -2      6574      6664      6674      6584      6575      6665      6675      6585     14354     14427
 -2     14428     13719     13651     14359     14433     13725     14361     14434     14435     13726
 -1      1687    4    0    1
 -2      6575      6665      6675      6585      6576      6666      6676      6586     14361     14434
 -2     14435     13726     13658     14366     14440     13732     14368     14441     14442     13733
 -1      1688    4    0    1
 -2      6576      6666      6676      6586      6577      6667      6677      6587     14368     14441
 -2     14442     13733     13665     14373     14447     13739     14375     14448     14449     13740
 -1      1689    4    0    1
 -2      6577      6667      6677      6587      6578      6668      6678      6588     14375     14448
 -2     14449     13740     13672     14380     14454     13746     14382     14455     14456     13747
 -1      1690    4    0    1
 -2      6578      6668      6678      6588      6579      6669      6679      6589     14382     14455
 -2     14456     13747     13679     14387     14461     13753     14389     14462     14463     13754
 -1      1691    4    0    1
 -2      6579      6669      6679      6589      6580      6670      6680      6590     14389     14462
 -2     14463     13754     13686     14394     14468     13760     14396     14469     14470     13761
 -1      1692    4    0    1
 -2      6580      6670      6680      6590      6581      6671      6681      6591     14396     14469
 -2     14470     13761     13693     14401     14475     13767     14403     14476     14477     13768
 -1      1693    4    0    1
 -2      6581      6671      6681      6591      6582      6672      6682      6592     14403     14476
 -2     14477     13768     13700     14408     14482     13774     14410     14483     14484     13775
 -1      1694    4    0    1
 -2      6582      6672      6682      6592      4867      4876      4877      4868     14410     14483
 -2     14484     13775     13707     14415     14489     13781      5302      5304      5305      5275
 -1      1695    4    0    1
 -2       471       480       481       472      6583      6673      6683      6593       908       910
 -2       911       881     13711     14419     14493     13785     14421     14494     14495     13786
 -1      1696    4    0    1
 -2      6583      6673      6683      6593      6584      6674      6684      6594     14421     14494
 -2     14495     13786     13718     14426     14500     13792     14428     14501     14502     13793
 -1      1697    4    0    1
 -2      6584      6674      6684      6594      6585      6675      6685      6595     14428     14501
 -2     14502     13793     13725     14433     14507     13799     14435     14508     14509     13800
 -1      1698    4    0    1
 -2      6585      6675      6685      6595      6586      6676      6686      6596     14435     14508
 -2     14509     13800     13732     14440     14514     13806     14442     14515     14516     13807
 -1      1699    4    0    1
 -2      6586      6676      6686      6596      6587      6677      6687      6597     14442     14515
 -2     14516     13807     13739     14447     14521     13813     14449     14522     14523     13814
 -1      1700    4    0    1
 -2      6587      6677      6687      6597      6588      6678      6688      6598     14449     14522
 -2     14523     13814     13746     14454     14528     13820     14456     14529     14530     13821
 -1      1701    4    0    1
 -2      6588      6678      6688      6598      6589      6679      6689      6599     14456     14529
 -2     14530     13821     13753     14461     14535     13827     14463     14536     14537     13828
 -1      1702    4    0    1
 -2      6589      6679      6689      6599      6590      6680      6690      6600     14463     14536
 -2     14537     13828     13760     14468     14542     13834     14470     14543     14544     13835
 -1      1703    4    0    1
 -2      6590      6680      6690      6600      6591      6681      6691      6601     14470     14543
 -2     14544     13835     13767     14475     14549     13841     14477     14550     14551     13842
 -1      1704    4    0    1
 -2      6591      6681      6691      6601      6592      6682      6692      6602     14477     14550
 -2     14551     13842     13774     14482     14556     13848     14484     14557     14558     13849
 -1      1705    4    0    1
 -2      6592      6682      6692      6602      4868      4877      4878      4869     14484     14557
 -2     14558     13849     13781     14489     14563     13855      5305      5307      5308      5278
 -1      1706    4    0    1
 -2       472       481       482       473      6593      6683      6693      6603       911       913
 -2       914       884     13785     14493     14567     13859     14495     14568     14569     13860
 -1      1707    4    0    1
 -2      6593      6683      6693      6603      6594      6684      6694      6604     14495     14568
 -2     14569     13860     13792     14500     14574     13866     14502     14575     14576     13867
 -1      1708    4    0    1
 -2      6594      6684      6694      6604      6595      6685      6695      6605     14502     14575
 -2     14576     13867     13799     14507     14581     13873     14509     14582     14583     13874
 -1      1709    4    0    1
 -2      6595      6685      6695      6605      6596      6686      6696      6606     14509     14582
 -2     14583     13874     13806     14514     14588     13880     14516     14589     14590     13881
 -1      1710    4    0    1
 -2      6596      6686      6696      6606      6597      6687      6697      6607     14516     14589
 -2     14590     13881     13813     14521     14595     13887     14523     14596     14597     13888
 -1      1711    4    0    1
 -2      6597      6687      6697      6607      6598      6688      6698      6608     14523     14596
 -2     14597     13888     13820     14528     14602     13894     14530     14603     14604     13895
 -1      1712    4    0    1
 -2      6598      6688      6698      6608      6599      6689      6699      6609     14530     14603
 -2     14604     13895     13827     14535     14609     13901     14537     14610     14611     13902
 -1      1713    4    0    1
 -2      6599      6689      6699      6609      6600      6690      6700      6610     14537     14610
 -2     14611     13902     13834     14542     14616     13908     14544     14617     14618     13909
 -1      1714    4    0    1
 -2      6600      6690      6700      6610      6601      6691      6701      6611     14544     14617
 -2     14618     13909     13841     14549     14623     13915     14551     14624     14625     13916
 -1      1715    4    0    1
 -2      6601      6691      6701      6611      6602      6692      6702      6612     14551     14624
 -2     14625     13916     13848     14556     14630     13922     14558     14631     14632     13923
 -1      1716    4    0    1
 -2      6602      6692      6702      6612      4869      4878      4879      4870     14558     14631
 -2     14632     13923     13855     14563     14637     13929      5308      5310      5311      5281
 -1      1717    4    0    1
 -2       473       482       483       474      6603      6693      6703      6613       914       916
 -2       917       887     13859     14567     14641     13933     14569     14642     14643     13934
 -1      1718    4    0    1
 -2      6603      6693      6703      6613      6604      6694      6704      6614     14569     14642
 -2     14643     13934     13866     14574     14648     13940     14576     14649     14650     13941
 -1      1719    4    0    1
 -2      6604      6694      6704      6614      6605      6695      6705      6615     14576     14649
 -2     14650     13941     13873     14581     14655     13947     14583     14656     14657     13948
 -1      1720    4    0    1
 -2      6605      6695      6705      6615      6606      6696      6706      6616     14583     14656
 -2     14657     13948     13880     14588     14662     13954     14590     14663     14664     13955
 -1      1721    4    0    1
 -2      6606      6696      6706      6616      6607      6697      6707      6617     14590     14663
 -2     14664     13955     13887     14595     14669     13961     14597     14670     14671     13962
 -1      1722    4    0    1
 -2      6607      6697      6707      6617      6608      6698      6708      6618     14597     14670
 -2     14671     13962     13894     14602     14676     13968     14604     14677     14678     13969
 -1      1723    4    0    1
 -2      6608      6698      6708      6618      6609      6699      6709      6619     14604     14677
 -2     14678     13969     13901     14609     14683     13975     14611     14684     14685     13976
 -1      1724    4    0    1
 -2      6609      6699      6709      6619      6610      6700      6710      6620     14611     14684
 -2     14685     13976     13908     14616     14690     13982     14618     14691     14692     13983
 -1      1725    4    0    1
 -2      6610      6700      6710      6620      6611      6701      6711      6621     14618     14691
 -2     14692     13983     13915     14623     14697     13989     14625     14698     14699     13990
 -1      1726    4    0    1
 -2      6611      6701      6711      6621      6612      6702      6712      6622     14625     14698
 -2     14699     13990     13922     14630     14704     13996     14632     14705     14706     13997
 -1      1727    4    0    1
 -2      6612      6702      6712      6622      4870      4879      4880      4871     14632     14705
 -2     14706     13997     13929     14637     14711     14003      5311      5313      5314      5284
 -1      1728    4    0    1
 -2       474       483       484       475      6613      6703      6713      6623       917       919
 -2       920       890     13933     14641     14715     14007     14643     14716     14717     14008
 -1      1729    4    0    1
 -2      6613      6703      6713      6623      6614      6704      6714      6624     14643     14716
 -2     14717     14008     13940     14648     14722     14014     14650     14723     14724     14015
 -1      1730    4    0    1
 -2      6614      6704      6714      6624      6615      6705      6715      6625     14650     14723
 -2     14724     14015     13947     14655     14729     14021     14657     14730     14731     14022
 -1      1731    4    0    1
 -2      6615      6705      6715      6625      6616      6706      6716      6626     14657     14730
 -2     14731     14022     13954     14662     14736     14028     14664     14737     14738     14029
 -1      1732    4    0    1
 -2      6616      6706      6716      6626      6617      6707      6717      6627     14664     14737
 -2     14738     14029     13961     14669     14743     14035     14671     14744     14745     14036
 -1      1733    4    0    1
 -2      6617      6707      6717      6627      6618      6708      6718      6628     14671     14744
 -2     14745     14036     13968     14676     14750     14042     14678     14751     14752     14043
 -1      1734    4    0    1
 -2      6618      6708      6718      6628      6619      6709      6719      6629     14678     14751
 -2     14752     14043     13975     14683     14757     14049     14685     14758     14759     14050
 -1      1735    4    0    1
 -2      6619      6709      6719      6629      6620      6710      6720      6630     14685     14758
 -2     14759     14050     13982     14690     14764     14056     14692     14765     14766     14057
 -1      1736    4    0    1
 -2      6620      6710      6720      6630      6621      6711      6721      6631     14692     14765
 -2     14766     14057     13989     14697     14771     14063     14699     14772     14773     14064
 -1      1737    4    0    1
 -2      6621      6711      6721      6631      6622      6712      6722      6632     14699     14772
 -2     14773     14064     13996     14704     14778     14070     14706     14779     14780     14071
 -1      1738    4    0    1
 -2      6622      6712      6722      6632      4871      4880      4881      4872     14706     14779
 -2     14780     14071     14003     14711     14785     14077      5314      5316      5317      5287
 -1      1739    4    0    1
 -2       475       484       485       476      6623      6713      6723      6633       920       922
 -2       923       893     14007     14715     14789     14081     14717     14790     14791     14082
 -1      1740    4    0    1
 -2      6623      6713      6723      6633      6624      6714      6724      6634     14717     14790
 -2     14791     14082     14014     14722     14796     14088     14724     14797     14798     14089
 -1      1741    4    0    1
 -2      6624      6714      6724      6634      6625      6715      6725      6635     14724     14797
 -2     14798     14089     14021     14729     14803     14095     14731     14804     14805     14096
 -1      1742    4    0    1
 -2      6625      6715      6725      6635      6626      6716      6726      6636     14731     14804
 -2     14805     14096     14028     14736     14810     14102     14738     14811     14812     14103
 -1      1743    4    0    1
 -2      6626      6716      6726      6636      6627      6717      6727      6637     14738     14811
 -2     14812     14103     14035     14743     14817     14109     14745     14818     14819     14110
 -1      1744    4    0    1
 -2      6627      6717      6727      6637      6628      6718      6728      6638     14745     14818
 -2     14819     14110     14042     14750     14824     14116     14752     14825     14826     14117
 -1      1745    4    0    1
 -2      6628      6718      6728      6638      6629      6719      6729      6639     14752     14825
 -2     14826     14117     14049     14757     14831     14123     14759     14832     14833     14124
 -1      1746    4    0    1
 -2      6629      6719      6729      6639      6630      6720      6730      6640     14759     14832
 -2     14833     14124     14056     14764     14838     14130     14766     14839     14840     14131
 -1      1747    4    0    1
 -2      6630      6720      6730      6640      6631      6721      6731      6641     14766     14839
 -2     14840     14131     14063     14771     14845     14137     14773     14846     14847     14138
 -1      1748    4    0    1
 -2      6631      6721      6731      6641      6632      6722      6732      6642     14773     14846
 -2     14847     14138     14070     14778     14852     14144     14780     14853     14854     14145
 -1      1749    4    0    1
 -2      6632      6722      6732      6642      4872      4881      4882      4873     14780     14853
 -2     14854     14145     14077     14785     14859     14151      5317      5319      5320      5290
 -1      1750    4    0    1
 -2       476       485       107       108      6633      6723      3364      3374       923       925
 -2       137       896     14081     14789      4094      4126     14791     14863      4127     14155
 -1      1751    4    0    1
 -2      6633      6723      3364      3374      6634      6724      3365      3375     14791     14863
 -2      4127     14155     14088     14796      4097      4129     14798     14867      4130     14159
 -1      1752    4    0    1
 -2      6634      6724      3365      3375      6635      6725      3366      3376     14798     14867
 -2      4130     14159     14095     14803      4100      4132     14805     14871      4133     14163
 -1      1753    4    0    1
 -2      6635      6725      3366      3376      6636      6726      3367      3377     14805     14871
 -2      4133     14163     14102     14810      4103      4135     14812     14875      4136     14167
 -1      1754    4    0    1
 -2      6636      6726      3367      3377      6637      6727      3368      3378     14812     14875
 -2      4136     14167     14109     14817      4106      4138     14819     14879      4139     14171
 -1      1755    4    0    1
 -2      6637      6727      3368      3378      6638      6728      3369      3379     14819     14879
 -2      4139     14171     14116     14824      4109      4141     14826     14883      4142     14175
 -1      1756    4    0    1
 -2      6638      6728      3369      3379      6639      6729      3370      3380     14826     14883
 -2      4142     14175     14123     14831      4112      4144     14833     14887      4145     14179
 -1      1757    4    0    1
 -2      6639      6729      3370      3380      6640      6730      3371      3381     14833     14887
 -2      4145     14179     14130     14838      4115      4147     14840     14891      4148     14183
 -1      1758    4    0    1
 -2      6640      6730      3371      3381      6641      6731      3372      3382     14840     14891
 -2      4148     14183     14137     14845      4118      4150     14847     14895      4151     14187
 -1      1759    4    0    1
 -2      6641      6731      3372      3382      6642      6732      3373      3383     14847     14895
 -2      4151     14187     14144     14852      4121      4153     14854     14899      4154     14191
 -1      1760    4    0    1
 -2      6642      6732      3373      3383      4873      4882       263       264     14854     14899
 -2      4154     14191     14151     14859      4124      4156      5320      5322       293      5293
 -1      1761    4    0    1
 -2        17        18       486       477      1606      1616      6733      6643        47       927
 -2       928       898      2072      2104     14905     14197      2105     14906     14907     14198
 -1      1762    4    0    1
 -2      1606      1616      6733      6643      1607      1617      6734      6644      2105     14906
 -2     14907     14198      2075      2107     14912     14204      2108     14913     14914     14205
 -1      1763    4    0    1
 -2      1607      1617      6734      6644      1608      1618      6735      6645      2108     14913
 -2     14914     14205      2078      2110     14919     14211      2111     14920     14921     14212
 -1      1764    4    0    1
 -2      1608      1618      6735      6645      1609      1619      6736      6646      2111     14920
 -2     14921     14212      2081      2113     14926     14218      2114     14927     14928     14219
 -1      1765    4    0    1
 -2      1609      1619      6736      6646      1610      1620      6737      6647      2114     14927
 -2     14928     14219      2084      2116     14933     14225      2117     14934     14935     14226
 -1      1766    4    0    1
 -2      1610      1620      6737      6647      1611      1621      6738      6648      2117     14934
 -2     14935     14226      2087      2119     14940     14232      2120     14941     14942     14233
 -1      1767    4    0    1
 -2      1611      1621      6738      6648      1612      1622      6739      6649      2120     14941
 -2     14942     14233      2090      2122     14947     14239      2123     14948     14949     14240
 -1      1768    4    0    1
 -2      1612      1622      6739      6649      1613      1623      6740      6650      2123     14948
 -2     14949     14240      2093      2125     14954     14246      2126     14955     14956     14247
 -1      1769    4    0    1
 -2      1613      1623      6740      6650      1614      1624      6741      6651      2126     14955
 -2     14956     14247      2096      2128     14961     14253      2129     14962     14963     14254
 -1      1770    4    0    1
 -2      1614      1624      6741      6651      1615      1625      6742      6652      2129     14962
 -2     14963     14254      2099      2131     14968     14260      2132     14969     14970     14261
 -1      1771    4    0    1
 -2      1615      1625      6742      6652       173       174      4883      4874      2132     14969
 -2     14970     14261      2102      2134     14975     14267       203      5324      5325      5295
 -1      1772    4    0    1
 -2       477       486       487       478      6643      6733      6743      6653       928       930
 -2       931       901     14197     14905     14979     14271     14907     14980     14981     14272
 -1      1773    4    0    1
 -2      6643      6733      6743      6653      6644      6734      6744      6654     14907     14980
 -2     14981     14272     14204     14912     14986     14278     14914     14987     14988     14279
 -1      1774    4    0    1
 -2      6644      6734      6744      6654      6645      6735      6745      6655     14914     14987
 -2     14988     14279     14211     14919     14993     14285     14921     14994     14995     14286
 -1      1775    4    0    1
 -2      6645      6735      6745      6655      6646      6736      6746      6656     14921     14994
 -2     14995     14286     14218     14926     15000     14292     14928     15001     15002     14293
 -1      1776    4    0    1
 -2      6646      6736      6746      6656      6647      6737      6747      6657     14928     15001
 -2     15002     14293     14225     14933     15007     14299     14935     15008     15009     14300
 -1      1777    4    0    1
 -2      6647      6737      6747      6657      6648      6738      6748      6658     14935     15008
 -2     15009     14300     14232     14940     15014     14306     14942     15015     15016     14307
 -1      1778    4    0    1
 -2      6648      6738      6748      6658      6649      6739      6749      6659     14942     15015
 -2     15016     14307     14239     14947     15021     14313     14949     15022     15023     14314
 -1      1779    4    0    1
 -2      6649      6739      6749      6659      6650      6740      6750      6660     14949     15022
 -2     15023     14314     14246     14954     15028     14320     14956     15029     15030     14321
 -1      1780    4    0    1
 -2      6650      6740      6750      6660      6651      6741      6751      6661     14956     15029
 -2     15030     14321     14253     14961     15035     14327     14963     15036     15037     14328
 -1      1781    4    0    1
 -2      6651      6741      6751      6661      6652      6742      6752      6662     14963     15036
 -2     15037     14328     14260     14968     15042     14334     14970     15043     15044     14335
 -1      1782    4    0    1
 -2      6652      6742      6752      6662      4874      4883      4884      4875     14970     15043
 -2     15044     14335     14267     14975     15049     14341      5325      5327      5328      5298
 -1      1783    4    0    1
 -2       478       487       488       479      6653      6743      6753      6663       931       933
 -2       934       904     14271     14979     15053     14345     14981     15054     15055     14346
 -1      1784    4    0    1
 -2      6653      6743      6753      6663      6654      6744      6754      6664     14981     15054
 -2     15055     14346     14278     14986     15060     14352     14988     15061     15062     14353
 -1      1785    4    0    1
 -2      6654      6744      6754      6664      6655      6745      6755      6665     14988     15061
 -2     15062     14353     14285     14993     15067     14359     14995     15068     15069     14360
 -1      1786    4    0    1
 -2      6655      6745      6755      6665      6656      6746      6756      6666     14995     15068
 -2     15069     14360     14292     15000     15074     14366     15002     15075     15076     14367
 -1      1787    4    0    1
 -2      6656      6746      6756      6666      6657      6747      6757      6667     15002     15075
 -2     15076     14367     14299     15007     15081     14373     15009     15082     15083     14374
 -1      1788    4    0    1
 -2      6657      6747      6757      6667      6658      6748      6758      6668     15009     15082
 -2     15083     14374     14306     15014     15088     14380     15016     15089     15090     14381
 -1      1789    4    0    1
 -2      6658      6748      6758      6668      6659      6749      6759      6669     15016     15089
 -2     15090     14381     14313     15021     15095     14387     15023     15096     15097     14388
 -1      1790    4    0    1
 -2      6659      6749      6759      6669      6660      6750      6760      6670     15023     15096
 -2     15097     14388     14320     15028     15102     14394     15030     15103     15104     14395
 -1      1791    4    0    1
 -2      6660      6750      6760      6670      6661      6751      6761      6671     15030     15103
 -2     15104     14395     14327     15035     15109     14401     15037     15110     15111     14402
 -1      1792    4    0    1
 -2      6661      6751      6761      6671      6662      6752      6762      6672     15037     15110
 -2     15111     14402     14334     15042     15116     14408     15044     15117     15118     14409
 -1      1793    4    0    1
 -2      6662      6752      6762      6672      4875      4884      4885      4876     15044     15117
 -2     15118     14409     14341     15049     15123     14415      5328      5330      5331      5301
 -1      1794    4    0    1
 -2       479       488       489       480      6663      6753      6763      6673       934       936
 -2       937       907     14345     15053     15127     14419     15055     15128     15129     14420
 -1      1795    4    0    1
 -2      6663      6753      6763      6673      6664      6754      6764      6674     15055     15128
 -2     15129     14420     14352     15060     15134     14426     15062     15135     15136     14427
 -1      1796    4    0    1
 -2      6664      6754      6764      6674      6665      6755      6765      6675     15062     15135
 -2     15136     14427     14359     15067     15141     14433     15069     15142     15143     14434
 -1      1797    4    0    1
 -2      6665      6755      6765      6675      6666      6756      6766      6676     15069     15142
 -2     15143     14434     14366     15074     15148     14440     15076     15149     15150     14441
 -1      1798    4    0    1
 -2      6666      6756      6766      6676      6667      6757      6767      6677     15076     15149
 -2     15150     14441     14373     15081     15155     14447     15083     15156     15157     14448
 -1      1799    4    0    1
 -2      6667      6757      6767      6677      6668      6758      6768      6678     15083     15156
 -2     15157     14448     14380     15088     15162     14454     15090     15163     15164     14455
 -1      1800    4    0    1
 -2      6668      6758      6768      6678      6669      6759      6769      6679     15090     15163
 -2     15164     14455     14387     15095     15169     14461     15097     15170     15171     14462
 -1      1801    4    0    1
 -2      6669      6759      6769      6679      6670      6760      6770      6680     15097     15170
 -2     15171     14462     14394     15102     15176     14468     15104     15177     15178     14469
 -1      1802    4    0    1
 -2      6670      6760      6770      6680      6671      6761      6771      6681     15104     15177
 -2     15178     14469     14401     15109     15183     14475     15111     15184     15185     14476
 -1      1803    4    0    1
 -2      6671      6761      6771      6681      6672      6762      6772      6682     15111     15184
 -2     15185     14476     14408     15116     15190     14482     15118     15191     15192     14483
 -1      1804    4    0    1
 -2      6672      6762      6772      6682      4876      4885      4886      4877     15118     15191
 -2     15192     14483     14415     15123     15197     14489      5331      5333      5334      5304
 -1      1805    4    0    1
 -2       480       489       490       481      6673      6763      6773      6683       937       939
 -2       940       910     14419     15127     15201     14493     15129     15202     15203     14494
 -1      1806    4    0    1
 -2      6673      6763      6773      6683      6674      6764      6774      6684     15129     15202
 -2     15203     14494     14426     15134     15208     14500     15136     15209     15210     14501
 -1      1807    4    0    1
 -2      6674      6764      6774      6684      6675      6765      6775      6685     15136     15209
 -2     15210     14501     14433     15141     15215     14507     15143     15216     15217     14508
 -1      1808    4    0    1
 -2      6675      6765      6775      6685      6676      6766      6776      6686     15143     15216
 -2     15217     14508     14440     15148     15222     14514     15150     15223     15224     14515
 -1      1809    4    0    1
 -2      6676      6766      6776      6686      6677      6767      6777      6687     15150     15223
 -2     15224     14515     14447     15155     15229     14521     15157     15230     15231     14522
 -1      1810    4    0    1
 -2      6677      6767      6777      6687      6678      6768      6778      6688     15157     15230
 -2     15231     14522     14454     15162     15236     14528     15164     15237     15238     14529
 -1      1811    4    0    1
 -2      6678      6768      6778      6688      6679      6769      6779      6689     15164     15237
 -2     15238     14529     14461     15169     15243     14535     15171     15244     15245     14536
 -1      1812    4    0    1
 -2      6679      6769      6779      6689      6680      6770      6780      6690     15171     15244
 -2     15245     14536     14468     15176     15250     14542     15178     15251     15252     14543
 -1      1813    4    0    1
 -2      6680      6770      6780      6690      6681      6771      6781      6691     15178     15251
 -2     15252     14543     14475     15183     15257     14549     15185     15258     15259     14550
 -1      1814    4    0    1
 -2      6681      6771      6781      6691      6682      6772      6782      6692     15185     15258
 -2     15259     14550     14482     15190     15264     14556     15192     15265     15266     14557
 -1      1815    4    0    1
 -2      6682      6772      6782      6692      4877      4886      4887      4878     15192     15265
 -2     15266     14557     14489     15197     15271     14563      5334      5336      5337      5307
 -1      1816    4    0    1
 -2       481       490       491       482      6683      6773      6783      6693       940       942
 -2       943       913     14493     15201     15275     14567     15203     15276     15277     14568
 -1      1817    4    0    1
 -2      6683      6773      6783      6693      6684      6774      6784      6694     15203     15276
 -2     15277     14568     14500     15208     15282     14574     15210     15283     15284     14575
 -1      1818    4    0    1
 -2      6684      6774      6784      6694      6685      6775      6785      6695     15210     15283
 -2     15284     14575     14507     15215     15289     14581     15217     15290     15291     14582
 -1      1819    4    0    1
 -2      6685      6775      6785      6695      6686      6776      6786      6696     15217     15290
 -2     15291     14582     14514     15222     15296     14588     15224     15297     15298     14589
 -1      1820    4    0    1
 -2      6686      6776      6786      6696      6687      6777      6787      6697     15224     15297
 -2     15298     14589     14521     15229     15303     14595     15231     15304     15305     14596
 -1      1821    4    0    1
 -2      6687      6777      6787      6697      6688      6778      6788      6698     15231     15304
 -2     15305     14596     14528     15236     15310     14602     15238     15311     15312     14603
 -1      1822    4    0    1
 -2      6688      6778      6788      6698      6689      6779      6789      6699     15238     15311
 -2     15312     14603     14535     15243     15317     14609     15245     15318     15319     14610
 -1      1823    4    0    1
 -2      6689      6779      6789      6699      6690      6780      6790      6700     15245     15318
 -2     15319     14610     14542     15250     15324     14616     15252     15325     15326     14617
 -1      1824    4    0    1
 -2      6690      6780      6790      6700      6691      6781      6791      6701     15252     15325
 -2     15326     14617     14549     15257     15331     14623     15259     15332     15333     14624
 -1      1825    4    0    1
 -2      6691      6781      6791      6701      6692      6782      6792      6702     15259     15332
 -2     15333     14624     14556     15264     15338     14630     15266     15339     15340     14631
 -1      1826    4    0    1
 -2      6692      6782      6792      6702      4878      4887      4888      4879     15266     15339
 -2     15340     14631     14563     15271     15345     14637      5337      5339      5340      5310
 -1      1827    4    0    1
 -2       482       491       492       483      6693      6783      6793      6703       943       945
 -2       946       916     14567     15275     15349     14641     15277     15350     15351     14642
 -1      1828    4    0    1
 -2      6693      6783      6793      6703      6694      6784      6794      6704     15277     15350
 -2     15351     14642     14574     15282     15356     14648     15284     15357     15358     14649
 -1      1829    4    0    1
 -2      6694      6784      6794      6704      6695      6785      6795      6705     15284     15357
 -2     15358     14649     14581     15289     15363     14655     15291     15364     15365     14656
 -1      1830    4    0    1
 -2      6695      6785      6795      6705      6696      6786      6796      6706     15291     15364
 -2     15365     14656     14588     15296     15370     14662     15298     15371     15372     14663
 -1      1831    4    0    1
 -2      6696      6786      6796      6706      6697      6787      6797      6707     15298     15371
 -2     15372     14663     14595     15303     15377     14669     15305     15378     15379     14670
 -1      1832    4    0    1
 -2      6697      6787      6797      6707      6698      6788      6798      6708     15305     15378
 -2     15379     14670     14602     15310     15384     14676     15312     15385     15386     14677
 -1      1833    4    0    1
 -2      6698      6788      6798      6708      6699      6789      6799      6709     15312     15385
 -2     15386     14677     14609     15317     15391     14683     15319     15392     15393     14684
 -1      1834    4    0    1
 -2      6699      6789      6799      6709      6700      6790      6800      6710     15319     15392
 -2     15393     14684     14616     15324     15398     14690     15326     15399     15400     14691
 -1      1835    4    0    1
 -2      6700      6790      6800      6710      6701      6791      6801      6711     15326     15399
 -2     15400     14691     14623     15331     15405     14697     15333     15406     15407     14698
 -1      1836    4    0    1
 -2      6701      6791      6801      6711      6702      6792      6802      6712     15333     15406
 -2     15407     14698     14630     15338     15412     14704     15340     15413     15414     14705
 -1      1837    4    0    1
 -2      6702      6792      6802      6712      4879      4888      4889      4880     15340     15413
 -2     15414     14705     14637     15345     15419     14711      5340      5342      5343      5313
 -1      1838    4    0    1
 -2       483       492       493       484      6703      6793      6803      6713       946       948
 -2       949       919     14641     15349     15423     14715     15351     15424     15425     14716
 -1      1839    4    0    1
 -2      6703      6793      6803      6713      6704      6794      6804      6714     15351     15424
 -2     15425     14716     14648     15356     15430     14722     15358     15431     15432     14723
 -1      1840    4    0    1
 -2      6704      6794      6804      6714      6705      6795      6805      6715     15358     15431
 -2     15432     14723     14655     15363     15437     14729     15365     15438     15439     14730
 -1      1841    4    0    1
 -2      6705      6795      6805      6715      6706      6796      6806      6716     15365     15438
 -2     15439     14730     14662     15370     15444     14736     15372     15445     15446     14737
 -1      1842    4    0    1
 -2      6706      6796      6806      6716      6707      6797      6807      6717     15372     15445
 -2     15446     14737     14669     15377     15451     14743     15379     15452     15453     14744
 -1      1843    4    0    1
 -2      6707      6797      6807      6717      6708      6798      6808      6718     15379     15452
 -2     15453     14744     14676     15384     15458     14750     15386     15459     15460     14751
 -1      1844    4    0    1
 -2      6708      6798      6808      6718      6709      6799      6809      6719     15386     15459
 -2     15460     14751     14683     15391     15465     14757     15393     15466     15467     14758
 -1      1845    4    0    1
 -2      6709      6799      6809      6719      6710      6800      6810      6720     15393     15466
 -2     15467     14758     14690     15398     15472     14764     15400     15473     15474     14765
 -1      1846    4    0    1
 -2      6710      6800      6810      6720      6711      6801      6811      6721     15400     15473
 -2     15474     14765     14697     15405     15479     14771     15407     15480     15481     14772
 -1      1847    4    0    1
 -2      6711      6801      6811      6721      6712      6802      6812      6722     15407     15480
 -2     15481     14772     14704     15412     15486     14778     15414     15487     15488     14779
 -1      1848    4    0    1
 -2      6712      6802      6812      6722      4880      4889      4890      4881     15414     15487
 -2     15488     14779     14711     15419     15493     14785      5343      5345      5346      5316
 -1      1849    4    0    1
 -2       484       493       494       485      6713      6803      6813      6723       949       951
 -2       952       922     14715     15423     15497     14789     15425     15498     15499     14790
 -1      1850    4    0    1
 -2      6713      6803      6813      6723      6714      6804      6814      6724     15425     15498
 -2     15499     14790     14722     15430     15504     14796     15432     15505     15506     14797
 -1      1851    4    0    1
 -2      6714      6804      6814      6724      6715      6805      6815      6725     15432     15505
 -2     15506     14797     14729     15437     15511     14803     15439     15512     15513     14804
 -1      1852    4    0    1
 -2      6715      6805      6815      6725      6716      6806      6816      6726     15439     15512
 -2     15513     14804     14736     15444     15518     14810     15446     15519     15520     14811
 -1      1853    4    0    1
 -2      6716      6806      6816      6726      6717      6807      6817      6727     15446     15519
 -2     15520     14811     14743     15451     15525     14817     15453     15526     15527     14818
 -1      1854    4    0    1
 -2      6717      6807      6817      6727      6718      6808      6818      6728     15453     15526
 -2     15527     14818     14750     15458     15532     14824     15460     15533     15534     14825
 -1      1855    4    0    1
 -2      6718      6808      6818      6728      6719      6809      6819      6729     15460     15533
 -2     15534     14825     14757     15465     15539     14831     15467     15540     15541     14832
 -1      1856    4    0    1
 -2      6719      6809      6819      6729      6720      6810      6820      6730     15467     15540
 -2     15541     14832     14764     15472     15546     14838     15474     15547     15548     14839
 -1      1857    4    0    1
 -2      6720      6810      6820      6730      6721      6811      6821      6731     15474     15547
 -2     15548     14839     14771     15479     15553     14845     15481     15554     15555     14846
 -1      1858    4    0    1
 -2      6721      6811      6821      6731      6722      6812      6822      6732     15481     15554
 -2     15555     14846     14778     15486     15560     14852     15488     15561     15562     14853
 -1      1859    4    0    1
 -2      6722      6812      6822      6732      4881      4890      4891      4882     15488     15561
 -2     15562     14853     14785     15493     15567     14859      5346      5348      5349      5319
 -1      1860    4    0    1
 -2       485       494       106       107      6723      6813      3354      3364       952       954
 -2       136       925     14789     15497      4062      4094     15499     15571      4095     14863
 -1      1861    4    0    1
 -2      6723      6813      3354      3364      6724      6814      3355      3365     15499     15571
 -2      4095     14863     14796     15504      4065      4097     15506     15575      4098     14867
 -1      1862    4    0    1
 -2      6724      6814      3355      3365      6725      6815      3356      3366     15506     15575
 -2      4098     14867     14803     15511      4068      4100     15513     15579      4101     14871
 -1      1863    4    0    1
 -2      6725      6815      3356      3366      6726      6816      3357      3367     15513     15579
 -2      4101     14871     14810     15518      4071      4103     15520     15583      4104     14875
 -1      1864    4    0    1
 -2      6726      6816      3357      3367      6727      6817      3358      3368     15520     15583
 -2      4104     14875     14817     15525      4074      4106     15527     15587      4107     14879
 -1      1865    4    0    1
 -2      6727      6817      3358      3368      6728      6818      3359      3369     15527     15587
 -2      4107     14879     14824     15532      4077      4109     15534     15591      4110     14883
 -1      1866    4    0    1
 -2      6728      6818      3359      3369      6729      6819      3360      3370     15534     15591
 -2      4110     14883     14831     15539      4080      4112     15541     15595      4113     14887
 -1      1867    4    0    1
 -2      6729      6819      3360      3370      6730      6820      3361      3371     15541     15595
 -2      4113     14887     14838     15546      4083      4115     15548     15599      4116     14891
 -1      1868    4    0    1
 -2      6730      6820      3361      3371      6731      6821      3362      3372     15548     15599
 -2      4116     14891     14845     15553      4086      4118     15555     15603      4119     14895
 -1      1869    4    0    1
 -2      6731      6821      3362      3372      6732      6822      3363      3373     15555     15603
 -2      4119     14895     14852     15560      4089      4121     15562     15607      4122     14899
 -1      1870    4    0    1
 -2      6732      6822      3363      3373      4882      4891       262       263     15562     15607
 -2      4122     14899     14859     15567      4092      4124      5349      5351       292      5322
 -1      1871    4    0    1
 -2        18        19       495       486      1616      1626      6823      6733        48       956
 -2       957       927      2104      2136     15613     14905      2137     15614     15615     14906
 -1      1872    4    0    1
 -2      1616      1626      6823      6733      1617      1627      6824      6734      2137     15614
 -2     15615     14906      2107      2139     15620     14912      2140     15621     15622     14913
 -1      1873    4    0    1
 -2      1617      1627      6824      6734      1618      1628      6825      6735      2140     15621
 -2     15622     14913      2110      2142     15627     14919      2143     15628     15629     14920
 -1      1874    4    0    1
 -2      1618      1628      6825      6735      1619      1629      6826      6736      2143     15628
 -2     15629     14920      2113      2145     15634     14926      2146     15635     15636     14927
 -1      1875    4    0    1
 -2      1619      1629      6826      6736      1620      1630      6827      6737      2146     15635
 -2     15636     14927      2116      2148     15641     14933      2149     15642     15643     14934
 -1      1876    4    0    1
 -2      1620      1630      6827      6737      1621      1631      6828      6738      2149     15642
 -2     15643     14934      2119      2151     15648     14940      2152     15649     15650     14941
 -1      1877    4    0    1
 -2      1621      1631      6828      6738      1622      1632      6829      6739      2152     15649
 -2     15650     14941      2122      2154     15655     14947      2155     15656     15657     14948
 -1      1878    4    0    1
 -2      1622      1632      6829      6739      1623      1633      6830      6740      2155     15656
 -2     15657     14948      2125      2157     15662     14954      2158     15663     15664     14955
 -1      1879    4    0    1
 -2      1623      1633      6830      6740      1624      1634      6831      6741      2158     15663
 -2     15664     14955      2128      2160     15669     14961      2161     15670     15671     14962
 -1      1880    4    0    1
 -2      1624      1634      6831      6741      1625      1635      6832      6742      2161     15670
 -2     15671     14962      2131      2163     15676     14968      2164     15677     15678     14969
 -1      1881    4    0    1
 -2      1625      1635      6832      6742       174       175      4892      4883      2164     15677
 -2     15678     14969      2134      2166     15683     14975       204      5353      5354      5324
 -1      1882    4    0    1
 -2       486       495       496       487      6733      6823      6833      6743       957       959
 -2       960       930     14905     15613     15687     14979     15615     15688     15689     14980
 -1      1883    4    0    1
 -2      6733      6823      6833      6743      6734      6824      6834      6744     15615     15688
 -2     15689     14980     14912     15620     15694     14986     15622     15695     15696     14987
 -1      1884    4    0    1
 -2      6734      6824      6834      6744      6735      6825      6835      6745     15622     15695
 -2     15696     14987     14919     15627     15701     14993     15629     15702     15703     14994
 -1      1885    4    0    1
 -2      6735      6825      6835      6745      6736      6826      6836      6746     15629     15702
 -2     15703     14994     14926     15634     15708     15000     15636     15709     15710     15001
 -1      1886    4    0    1
 -2      6736      6826      6836      6746      6737      6827      6837      6747     15636     15709
 -2     15710     15001     14933     15641     15715     15007     15643     15716     15717     15008
 -1      1887    4    0    1
 -2      6737      6827      6837      6747      6738      6828      6838      6748     15643     15716
 -2     15717     15008     14940     15648     15722     15014     15650     15723     15724     15015
 -1      1888    4    0    1
 -2      6738      6828      6838      6748      6739      6829      6839      6749     15650     15723
 -2     15724     15015     14947     15655     15729     15021     15657     15730     15731     15022
 -1      1889    4    0    1
 -2      6739      6829      6839      6749      6740      6830      6840      6750     15657     15730
 -2     15731     15022     14954     15662     15736     15028     15664     15737     15738     15029
 -1      1890    4    0    1
 -2      6740      6830      6840      6750      6741      6831      6841      6751     15664     15737
 -2     15738     15029     14961     15669     15743     15035     15671     15744     15745     15036
 -1      1891    4    0    1
 -2      6741      6831      6841      6751      6742      6832      6842      6752     15671     15744
 -2     15745     15036     14968     15676     15750     15042     15678     15751     15752     15043
 -1      1892    4    0    1
 -2      6742      6832      6842      6752      4883      4892      4893      4884     15678     15751
 -2     15752     15043     14975     15683     15757     15049      5354      5356      5357      5327
 -1      1893    4    0    1
 -2       487       496       497       488      6743      6833      6843      6753       960       962
 -2       963       933     14979     15687     15761     15053     15689     15762     15763     15054
 -1      1894    4    0    1
 -2      6743      6833      6843      6753      6744      6834      6844      6754     15689     15762
 -2     15763     15054     14986     15694     15768     15060     15696     15769     15770     15061
 -1      1895    4    0    1
 -2      6744      6834      6844      6754      6745      6835      6845      6755     15696     15769
 -2     15770     15061     14993     15701     15775     15067     15703     15776     15777     15068
 -1      1896    4    0    1
 -2      6745      6835      6845      6755      6746      6836      6846      6756     15703     15776
 -2     15777     15068     15000     15708     15782     15074     15710     15783     15784     15075
 -1      1897    4    0    1
 -2      6746      6836      6846      6756      6747      6837      6847      6757     15710     15783
 -2     15784     15075     15007     15715     15789     15081     15717     15790     15791     15082
 -1      1898    4    0    1
 -2      6747      6837      6847      6757      6748      6838      6848      6758     15717     15790
 -2     15791     15082     15014     15722     15796     15088     15724     15797     15798     15089
 -1      1899    4    0    1
 -2      6748      6838      6848      6758      6749      6839      6849      6759     15724     15797
 -2     15798     15089     15021     15729     15803     15095     15731     15804     15805     15096
 -1      1900    4    0    1
 -2      6749      6839      6849      6759      6750      6840      6850      6760     15731     15804
 -2     15805     15096     15028     15736     15810     15102     15738     15811     15812     15103
 -1      1901    4    0    1
 -2      6750      6840      6850      6760      6751      6841      6851      6761     15738     15811
 -2     15812     15103     15035     15743     15817     15109     15745     15818     15819     15110
 -1      1902    4    0    1
 -2      6751      6841      6851      6761      6752      6842      6852      6762     15745     15818
 -2     15819     15110     15042     15750     15824     15116     15752     15825     15826     15117
 -1      1903    4    0    1
 -2      6752      6842      6852      6762      4884      4893      4894      4885     15752     15825
 -2     15826     15117     15049     15757     15831     15123      5357      5359      5360      5330
 -1      1904    4    0    1
 -2       488       497       498       489      6753      6843      6853      6763       963       965
 -2       966       936     15053     15761     15835     15127     15763     15836     15837     15128
 -1      1905    4    0    1
 -2      6753      6843      6853      6763      6754      6844      6854      6764     15763     15836
 -2     15837     15128     15060     15768     15842     15134     15770     15843     15844     15135
 -1      1906    4    0    1
 -2      6754      6844      6854      6764      6755      6845      6855      6765     15770     15843
 -2     15844     15135     15067     15775     15849     15141     15777     15850     15851     15142
 -1      1907    4    0    1
 -2      6755      6845      6855      6765      6756      6846      6856      6766     15777     15850
 -2     15851     15142     15074     15782     15856     15148     15784     15857     15858     15149
 -1      1908    4    0    1
 -2      6756      6846      6856      6766      6757      6847      6857      6767     15784     15857
 -2     15858     15149     15081     15789     15863     15155     15791     15864     15865     15156
 -1      1909    4    0    1
 -2      6757      6847      6857      6767      6758      6848      6858      6768     15791     15864
 -2     15865     15156     15088     15796     15870     15162     15798     15871     15872     15163
 -1      1910    4    0    1
 -2      6758      6848      6858      6768      6759      6849      6859      6769     15798     15871
 -2     15872     15163     15095     15803     15877     15169     15805     15878     15879     15170
 -1      1911    4    0    1
 -2      6759      6849      6859      6769      6760      6850      6860      6770     15805     15878
 -2     15879     15170     15102     15810     15884     15176     15812     15885     15886     15177
 -1      1912    4    0    1
 -2      6760      6850      6860      6770      6761      6851      6861      6771     15812     15885
 -2     15886     15177     15109     15817     15891     15183     15819     15892     15893     15184
 -1      1913    4    0    1
 -2      6761      6851      6861      6771      6762      6852      6862      6772     15819     15892
 -2     15893     15184     15116     15824     15898     15190     15826     15899     15900     15191
 -1      1914    4    0    1
 -2      6762      6852      6862      6772      4885      4894      4895      4886     15826     15899
 -2     15900     15191     15123     15831     15905     15197      5360      5362      5363      5333
 -1      1915    4    0    1
 -2       489       498       499       490      6763      6853      6863      6773       966       968
 -2       969       939     15127     15835     15909     15201     15837     15910     15911     15202
 -1      1916    4    0    1
 -2      6763      6853      6863      6773      6764      6854      6864      6774     15837     15910
 -2     15911     15202     15134     15842     15916     15208     15844     15917     15918     15209
 -1      1917    4    0    1
 -2      6764      6854      6864      6774      6765      6855      6865      6775     15844     15917
 -2     15918     15209     15141     15849     15923     15215     15851     15924     15925     15216
 -1      1918    4    0    1
 -2      6765      6855      6865      6775      6766      6856      6866      6776     15851     15924
 -2     15925     15216     15148     15856     15930     15222     15858     15931     15932     15223
 -1      1919    4    0    1
 -2      6766      6856      6866      6776      6767      6857      6867      6777     15858     15931
 -2     15932     15223     15155     15863     15937     15229     15865     15938     15939     15230
 -1      1920    4    0    1
 -2      6767      6857      6867      6777      6768      6858      6868      6778     15865     15938
 -2     15939     15230     15162     15870     15944     15236     15872     15945     15946     15237
 -1      1921    4    0    1
 -2      6768      6858      6868      6778      6769      6859      6869      6779     15872     15945
 -2     15946     15237     15169     15877     15951     15243     15879     15952     15953     15244
 -1      1922    4    0    1
 -2      6769      6859      6869      6779      6770      6860      6870      6780     15879     15952
 -2     15953     15244     15176     15884     15958     15250     15886     15959     15960     15251
 -1      1923    4    0    1
 -2      6770      6860      6870      6780      6771      6861      6871      6781     15886     15959
 -2     15960     15251     15183     15891     15965     15257     15893     15966     15967     15258
 -1      1924    4    0    1
 -2      6771      6861      6871      6781      6772      6862      6872      6782     15893     15966
 -2     15967     15258     15190     15898     15972     15264     15900     15973     15974     15265
 -1      1925    4    0    1
 -2      6772      6862      6872      6782      4886      4895      4896      4887     15900     15973
 -2     15974     15265     15197     15905     15979     15271      5363      5365      5366      5336
 -1      1926    4    0    1
 -2       490       499       500       491      6773      6863      6873      6783       969       971
 -2       972       942     15201     15909     15983     15275     15911     15984     15985     15276
 -1      1927    4    0    1
 -2      6773      6863      6873      6783      6774      6864      6874      6784     15911     15984
 -2     15985     15276     15208     15916     15990     15282     15918     15991     15992     15283
 -1      1928    4    0    1
 -2      6774      6864      6874      6784      6775      6865      6875      6785     15918     15991
 -2     15992     15283     15215     15923     15997     15289     15925     15998     15999     15290
 -1      1929    4    0    1
 -2      6775      6865      6875      6785      6776      6866      6876      6786     15925     15998
 -2     15999     15290     15222     15930     16004     15296     15932     16005     16006     15297
 -1      1930    4    0    1
 -2      6776      6866      6876      6786      6777      6867      6877      6787     15932     16005
 -2     16006     15297     15229     15937     16011     15303     15939     16012     16013     15304
 -1      1931    4    0    1
 -2      6777      6867      6877      6787      6778      6868      6878      6788     15939     16012
 -2     16013     15304     15236     15944     16018     15310     15946     16019     16020     15311
 -1      1932    4    0    1
 -2      6778      6868      6878      6788      6779      6869      6879      6789     15946     16019
 -2     16020     15311     15243     15951     16025     15317     15953     16026     16027     15318
 -1      1933    4    0    1
 -2      6779      6869      6879      6789      6780      6870      6880      6790     15953     16026
 -2     16027     15318     15250     15958     16032     15324     15960     16033     16034     15325
 -1      1934    4    0    1
 -2      6780      6870      6880      6790      6781      6871      6881      6791     15960     16033
 -2     16034     15325     15257     15965     16039     15331     15967     16040     16041     15332
 -1      1935    4    0    1
 -2      6781      6871      6881      6791      6782      6872      6882      6792     15967     16040
 -2     16041     15332     15264     15972     16046     15338     15974     16047     16048     15339
 -1      1936    4    0    1
 -2      6782      6872      6882      6792      4887      4896      4897      4888     15974     16047
 -2     16048     15339     15271     15979     16053     15345      5366      5368      5369      5339
 -1      1937    4    0    1
 -2       491       500       501       492      6783      6873      6883      6793       972       974
 -2       975       945     15275     15983     16057     15349     15985     16058     16059     15350
 -1      1938    4    0    1
 -2      6783      6873      6883      6793      6784      6874      6884      6794     15985     16058
 -2     16059     15350     15282     15990     16064     15356     15992     16065     16066     15357
 -1      1939    4    0    1
 -2      6784      6874      6884      6794      6785      6875      6885      6795     15992     16065
 -2     16066     15357     15289     15997     16071     15363     15999     16072     16073     15364
 -1      1940    4    0    1
 -2      6785      6875      6885      6795      6786      6876      6886      6796     15999     16072
 -2     16073     15364     15296     16004     16078     15370     16006     16079     16080     15371
 -1      1941    4    0    1
 -2      6786      6876      6886      6796      6787      6877      6887      6797     16006     16079
 -2     16080     15371     15303     16011     16085     15377     16013     16086     16087     15378
 -1      1942    4    0    1
 -2      6787      6877      6887      6797      6788      6878      6888      6798     16013     16086
 -2     16087     15378     15310     16018     16092     15384     16020     16093     16094     15385
 -1      1943    4    0    1
 -2      6788      6878      6888      6798      6789      6879      6889      6799     16020     16093
 -2     16094     15385     15317     16025     16099     15391     16027     16100     16101     15392
 -1      1944    4    0    1
 -2      6789      6879      6889      6799      6790      6880      6890      6800     16027     16100
 -2     16101     15392     15324     16032     16106     15398     16034     16107     16108     15399
 -1      1945    4    0    1
 -2      6790      6880      6890      6800      6791      6881      6891      6801     16034     16107
 -2     16108     15399     15331     16039     16113     15405     16041     16114     16115     15406
 -1      1946    4    0    1
 -2      6791      6881      6891      6801      6792      6882      6892      6802     16041     16114
 -2     16115     15406     15338     16046     16120     15412     16048     16121     16122     15413
 -1      1947    4    0    1
 -2      6792      6882      6892      6802      4888      4897      4898      4889     16048     16121
 -2     16122     15413     15345     16053     16127     15419      5369      5371      5372      5342
 -1      1948    4    0    1
 -2       492       501       502       493      6793      6883      6893      6803       975       977
 -2       978       948     15349     16057     16131     15423     16059     16132     16133     15424
 -1      1949    4    0    1
 -2      6793      6883      6893      6803      6794      6884      6894      6804     16059     16132
 -2     16133     15424     15356     16064     16138     15430     16066     16139     16140     15431
 -1      1950    4    0    1
 -2      6794      6884      6894      6804      6795      6885      6895      6805     16066     16139
 -2     16140     15431     15363     16071     16145     15437     16073     16146     16147     15438
 -1      1951    4    0    1
 -2      6795      6885      6895      6805      6796      6886      6896      6806     16073     16146
 -2     16147     15438     15370     16078     16152     15444     16080     16153     16154     15445
 -1      1952    4    0    1
 -2      6796      6886      6896      6806      6797      6887      6897      6807     16080     16153
 -2     16154     15445     15377     16085     16159     15451     16087     16160     16161     15452
 -1      1953    4    0    1
 -2      6797      6887      6897      6807      6798      6888      6898      6808     16087     16160
 -2     16161     15452     15384     16092     16166     15458     16094     16167     16168     15459
 -1      1954    4    0    1
 -2      6798      6888      6898      6808      6799      6889      6899      6809     16094     16167
 -2     16168     15459     15391     16099     16173     15465     16101     16174     16175     15466
 -1      1955    4    0    1
 -2      6799      6889      6899      6809      6800      6890      6900      6810     16101     16174
 -2     16175     15466     15398     16106     16180     15472     16108     16181     16182     15473
 -1      1956    4    0    1
 -2      6800      6890      6900      6810      6801      6891      6901      6811     16108     16181
 -2     16182     15473     15405     16113     16187     15479     16115     16188     16189     15480
 -1      1957    4    0    1
 -2      6801      6891      6901      6811      6802      6892      6902      6812     16115     16188
 -2     16189     15480     15412     16120     16194     15486     16122     16195     16196     15487
 -1      1958    4    0    1
 -2      6802      6892      6902      6812      4889      4898      4899      4890     16122     16195
 -2     16196     15487     15419     16127     16201     15493      5372      5374      5375      5345
 -1      1959    4    0    1
 -2       493       502       503       494      6803      6893      6903      6813       978       980
 -2       981       951     15423     16131     16205     15497     16133     16206     16207     15498
 -1      1960    4    0    1
 -2      6803      6893      6903      6813      6804      6894      6904      6814     16133     16206
 -2     16207     15498     15430     16138     16212     15504     16140     16213     16214     15505
 -1      1961    4    0    1
 -2      6804      6894      6904      6814      6805      6895      6905      6815     16140     16213
 -2     16214     15505     15437     16145     16219     15511     16147     16220     16221     15512
 -1      1962    4    0    1
 -2      6805      6895      6905      6815      6806      6896      6906      6816     16147     16220
 -2     16221     15512     15444     16152     16226     15518     16154     16227     16228     15519
 -1      1963    4    0    1
 -2      6806      6896      6906      6816      6807      6897      6907      6817     16154     16227
 -2     16228     15519     15451     16159     16233     15525     16161     16234     16235     15526
 -1      1964    4    0    1
 -2      6807      6897      6907      6817      6808      6898      6908      6818     16161     16234
 -2     16235     15526     15458     16166     16240     15532     16168     16241     16242     15533
 -1      1965    4    0    1
 -2      6808      6898      6908      6818      6809      6899      6909      6819     16168     16241
 -2     16242     15533     15465     16173     16247     15539     16175     16248     16249     15540
 -1      1966    4    0    1
 -2      6809      6899      6909      6819      6810      6900      6910      6820     16175     16248
 -2     16249     15540     15472     16180     16254     15546     16182     16255     16256     15547
 -1      1967    4    0    1
 -2      6810      6900      6910      6820      6811      6901      6911      6821     16182     16255
 -2     16256     15547     15479     16187     16261     15553     16189     16262     16263     15554
 -1      1968    4    0    1
 -2      6811      6901      6911      6821      6812      6902      6912      6822     16189     16262
 -2     16263     15554     15486     16194     16268     15560     16196     16269     16270     15561
 -1      1969    4    0    1
 -2      6812      6902      6912      6822      4890      4899      4900      4891     16196     16269
 -2     16270     15561     15493     16201     16275     15567      5375      5377      5378      5348
 -1      1970    4    0    1
 -2       494       503       105       106      6813      6903      3344      3354       981       983
 -2       135       954     15497     16205      4030      4062     16207     16279      4063     15571
 -1      1971    4    0    1
 -2      6813      6903      3344      3354      6814      6904      3345      3355     16207     16279
 -2      4063     15571     15504     16212      4033      4065     16214     16283      4066     15575
 -1      1972    4    0    1
 -2      6814      6904      3345      3355      6815      6905      3346      3356     16214     16283
 -2      4066     15575     15511     16219      4036      4068     16221     16287      4069     15579
 -1      1973    4    0    1
 -2      6815      6905      3346      3356      6816      6906      3347      3357     16221     16287
 -2      4069     15579     15518     16226      4039      4071     16228     16291      4072     15583
 -1      1974    4    0    1
 -2      6816      6906      3347      3357      6817      6907      3348      3358     16228     16291
 -2      4072     15583     15525     16233      4042      4074     16235     16295      4075     15587
 -1      1975    4    0    1
 -2      6817      6907      3348      3358      6818      6908      3349      3359     16235     16295
 -2      4075     15587     15532     16240      4045      4077     16242     16299      4078     15591
 -1      1976    4    0    1
 -2      6818      6908      3349      3359      6819      6909      3350      3360     16242     16299
 -2      4078     15591     15539     16247      4048      4080     16249     16303      4081     15595
 -1      1977    4    0    1
 -2      6819      6909      3350      3360      6820      6910      3351      3361     16249     16303
 -2      4081     15595     15546     16254      4051      4083     16256     16307      4084     15599
 -1      1978    4    0    1
 -2      6820      6910      3351      3361      6821      6911      3352      3362     16256     16307
 -2      4084     15599     15553     16261      4054      4086     16263     16311      4087     15603
 -1      1979    4    0    1
 -2      6821      6911      3352      3362      6822      6912      3353      3363     16263     16311
 -2      4087     15603     15560     16268      4057      4089     16270     16315      4090     15607
 -1      1980    4    0    1
 -2      6822      6912      3353      3363      4891      4900       261       262     16270     16315
 -2      4090     15607     15567     16275      4060      4092      5378      5380       291      5351
 -1      1981    4    0    1
 -2        19        20       504       495      1626      1636      6913      6823        49       985
 -2       986       956      2136      2168     16321     15613      2169     16322     16323     15614
 -1      1982    4    0    1
 -2      1626      1636      6913      6823      1627      1637      6914      6824      2169     16322
 -2     16323     15614      2139      2171     16328     15620      2172     16329     16330     15621
 -1      1983    4    0    1
 -2      1627      1637      6914      6824      1628      1638      6915      6825      2172     16329
 -2     16330     15621      2142      2174     16335     15627      2175     16336     16337     15628
 -1      1984    4    0    1
 -2      1628      1638      6915      6825      1629      1639      6916      6826      2175     16336
 -2     16337     15628      2145      2177     16342     15634      2178     16343     16344     15635
 -1      1985    4    0    1
 -2      1629      1639      6916      6826      1630      1640      6917      6827      2178     16343
 -2     16344     15635      2148      2180     16349     15641      2181     16350     16351     15642
 -1      1986    4    0    1
 -2      1630      1640      6917      6827      1631      1641      6918      6828      2181     16350
 -2     16351     15642      2151      2183     16356     15648      2184     16357     16358     15649
 -1      1987    4    0    1
 -2      1631      1641      6918      6828      1632      1642      6919      6829      2184     16357
 -2     16358     15649      2154      2186     16363     15655      2187     16364     16365     15656
 -1      1988    4    0    1
 -2      1632      1642      6919      6829      1633      1643      6920      6830      2187     16364
 -2     16365     15656      2157      2189     16370     15662      2190     16371     16372     15663
 -1      1989    4    0    1
 -2      1633      1643      6920      6830      1634      1644      6921      6831      2190     16371
 -2     16372     15663      2160      2192     16377     15669      2193     16378     16379     15670
 -1      1990    4    0    1
 -2      1634      1644      6921      6831      1635      1645      6922      6832      2193     16378
 -2     16379     15670      2163      2195     16384     15676      2196     16385     16386     15677
 -1      1991    4    0    1
 -2      1635      1645      6922      6832       175       176      4901      4892      2196     16385
 -2     16386     15677      2166      2198     16391     15683       205      5382      5383      5353
 -1      1992    4    0    1
 -2       495       504       505       496      6823      6913      6923      6833       986       988
 -2       989       959     15613     16321     16395     15687     16323     16396     16397     15688
 -1      1993    4    0    1
 -2      6823      6913      6923      6833      6824      6914      6924      6834     16323     16396
 -2     16397     15688     15620     16328     16402     15694     16330     16403     16404     15695
 -1      1994    4    0    1
 -2      6824      6914      6924      6834      6825      6915      6925      6835     16330     16403
 -2     16404     15695     15627     16335     16409     15701     16337     16410     16411     15702
 -1      1995    4    0    1
 -2      6825      6915      6925      6835      6826      6916      6926      6836     16337     16410
 -2     16411     15702     15634     16342     16416     15708     16344     16417     16418     15709
 -1      1996    4    0    1
 -2      6826      6916      6926      6836      6827      6917      6927      6837     16344     16417
 -2     16418     15709     15641     16349     16423     15715     16351     16424     16425     15716
 -1      1997    4    0    1
 -2      6827      6917      6927      6837      6828      6918      6928      6838     16351     16424
 -2     16425     15716     15648     16356     16430     15722     16358     16431     16432     15723
 -1      1998    4    0    1
 -2      6828      6918      6928      6838      6829      6919      6929      6839     16358     16431
 -2     16432     15723     15655     16363     16437     15729     16365     16438     16439     15730
 -1      1999    4    0    1
 -2      6829      6919      6929      6839      6830      6920      6930      6840     16365     16438
 -2     16439     15730     15662     16370     16444     15736     16372     16445     16446     15737
 -1      2000    4    0    1
 -2      6830      6920      6930      6840      6831      6921      6931      6841     16372     16445
 -2     16446     15737     15669     16377     16451     15743     16379     16452     16453     15744
 -1      2001    4    0    1
 -2      6831      6921      6931      6841      6832      6922      6932      6842     16379     16452
 -2     16453     15744     15676     16384     16458     15750     16386     16459     16460     15751
 -1      2002    4    0    1
 -2      6832      6922      6932      6842      4892      4901      4902      4893     16386     16459
 -2     16460     15751     15683     16391     16465     15757      5383      5385      5386      5356
 -1      2003    4    0    1
 -2       496       505       506       497      6833      6923      6933      6843       989       991
 -2       992       962     15687     16395     16469     15761     16397     16470     16471     15762
 -1      2004    4    0    1
 -2      6833      6923      6933      6843      6834      6924      6934      6844     16397     16470
 -2     16471     15762     15694     16402     16476     15768     16404     16477     16478     15769
 -1      2005    4    0    1
 -2      6834      6924      6934      6844      6835      6925      6935      6845     16404     16477
 -2     16478     15769     15701     16409     16483     15775     16411     16484     16485     15776
 -1      2006    4    0    1
 -2      6835      6925      6935      6845      6836      6926      6936      6846     16411     16484
 -2     16485     15776     15708     16416     16490     15782     16418     16491     16492     15783
 -1      2007    4    0    1
 -2      6836      6926      6936      6846      6837      6927      6937      6847     16418     16491
 -2     16492     15783     15715     16423     16497     15789     16425     16498     16499     15790
 -1      2008    4    0    1
 -2      6837      6927      6937      6847      6838      6928      6938      6848     16425     16498
 -2     16499     15790     15722     16430     16504     15796     16432     16505     16506     15797
 -1      2009    4    0    1
 -2      6838      6928      6938      6848      6839      6929      6939      6849     16432     16505
 -2     16506     15797     15729     16437     16511     15803     16439     16512     16513     15804
 -1      2010    4    0    1
 -2      6839      6929      6939      6849      6840      6930      6940      6850     16439     16512
 -2     16513     15804     15736     16444     16518     15810     16446     16519     16520     15811
 -1      2011    4    0    1
 -2      6840      6930      6940      6850      6841      6931      6941      6851     16446     16519
 -2     16520     15811     15743     16451     16525     15817     16453     16526     16527     15818
 -1      2012    4    0    1
 -2      6841      6931      6941      6851      6842      6932      6942      6852     16453     16526
 -2     16527     15818     15750     16458     16532     15824     16460     16533     16534     15825
 -1      2013    4    0    1
 -2      6842      6932      6942      6852      4893      4902      4903      4894     16460     16533
 -2     16534     15825     15757     16465     16539     15831      5386      5388      5389      5359
 -1      2014    4    0    1
 -2       497       506       507       498      6843      6933      6943      6853       992       994
 -2       995       965     15761     16469     16543     15835     16471     16544     16545     15836
 -1      2015    4    0    1
 -2      6843      6933      6943      6853      6844      6934      6944      6854     16471     16544
 -2     16545     15836     15768     16476     16550     15842     16478     16551     16552     15843
 -1      2016    4    0    1
 -2      6844      6934      6944      6854      6845      6935      6945      6855     16478     16551
 -2     16552     15843     15775     16483     16557     15849     16485     16558     16559     15850
 -1      2017    4    0    1
 -2      6845      6935      6945      6855      6846      6936      6946      6856     16485     16558
 -2     16559     15850     15782     16490     16564     15856     16492     16565     16566     15857
 -1      2018    4    0    1
 -2      6846      6936      6946      6856      6847      6937      6947      6857     16492     16565
 -2     16566     15857     15789     16497     16571     15863     16499     16572     16573     15864
 -1      2019    4    0    1
 -2      6847      6937      6947      6857      6848      6938      6948      6858     16499     16572
 -2     16573     15864     15796     16504     16578     15870     16506     16579     16580     15871
 -1      2020    4    0    1
 -2      6848      6938      6948      6858      6849      6939      6949      6859     16506     16579
 -2     16580     15871     15803     16511     16585     15877     16513     16586     16587     15878
 -1      2021    4    0    1
 -2      6849      6939      6949      6859      6850      6940      6950      6860     16513     16586
 -2     16587     15878     15810     16518     16592     15884     16520     16593     16594     15885
 -1      2022    4    0    1
 -2      6850      6940      6950      6860      6851      6941      6951      6861     16520     16593
 -2     16594     15885     15817     16525     16599     15891     16527     16600     16601     15892
 -1      2023    4    0    1
 -2      6851      6941      6951      6861      6852      6942      6952      6862     16527     16600
 -2     16601     15892     15824     16532     16606     15898     16534     16607     16608     15899
 -1      2024    4    0    1
 -2      6852      6942      6952      6862      4894      4903      4904      4895     16534     16607
 -2     16608     15899     15831     16539     16613     15905      5389      5391      5392      5362
 -1      2025    4    0    1
 -2       498       507       508       499      6853      6943      6953      6863       995       997
 -2       998       968     15835     16543     16617     15909     16545     16618     16619     15910
 -1      2026    4    0    1
 -2      6853      6943      6953      6863      6854      6944      6954      6864     16545     16618
 -2     16619     15910     15842     16550     16624     15916     16552     16625     16626     15917
 -1      2027    4    0    1
 -2      6854      6944      6954      6864      6855      6945      6955      6865     16552     16625
 -2     16626     15917     15849     16557     16631     15923     16559     16632     16633     15924
 -1      2028    4    0    1
 -2      6855      6945      6955      6865      6856      6946      6956      6866     16559     16632
 -2     16633     15924     15856     16564     16638     15930     16566     16639     16640     15931
 -1      2029    4    0    1
 -2      6856      6946      6956      6866      6857      6947      6957      6867     16566     16639
 -2     16640     15931     15863     16571     16645     15937     16573     16646     16647     15938
 -1      2030    4    0    1
 -2      6857      6947      6957      6867      6858      6948      6958      6868     16573     16646
 -2     16647     15938     15870     16578     16652     15944     16580     16653     16654     15945
 -1      2031    4    0    1
 -2      6858      6948      6958      6868      6859      6949      6959      6869     16580     16653
 -2     16654     15945     15877     16585     16659     15951     16587     16660     16661     15952
 -1      2032    4    0    1
 -2      6859      6949      6959      6869      6860      6950      6960      6870     16587     16660
 -2     16661     15952     15884     16592     16666     15958     16594     16667     16668     15959
 -1      2033    4    0    1
 -2      6860      6950      6960      6870      6861      6951      6961      6871     16594     16667
 -2     16668     15959     15891     16599     16673     15965     16601     16674     16675     15966
 -1      2034    4    0    1
 -2      6861      6951      6961      6871      6862      6952      6962      6872     16601     16674
 -2     16675     15966     15898     16606     16680     15972     16608     16681     16682     15973
 -1      2035    4    0    1
 -2      6862      6952      6962      6872      4895      4904      4905      4896     16608     16681
 -2     16682     15973     15905     16613     16687     15979      5392      5394      5395      5365
 -1      2036    4    0    1
 -2       499       508       509       500      6863      6953      6963      6873       998      1000
 -2      1001       971     15909     16617     16691     15983     16619     16692     16693     15984
 -1      2037    4    0    1
 -2      6863      6953      6963      6873      6864      6954      6964      6874     16619     16692
 -2     16693     15984     15916     16624     16698     15990     16626     16699     16700     15991
 -1      2038    4    0    1
 -2      6864      6954      6964      6874      6865      6955      6965      6875     16626     16699
 -2     16700     15991     15923     16631     16705     15997     16633     16706     16707     15998
 -1      2039    4    0    1
 -2      6865      6955      6965      6875      6866      6956      6966      6876     16633     16706
 -2     16707     15998     15930     16638     16712     16004     16640     16713     16714     16005
 -1      2040    4    0    1
 -2      6866      6956      6966      6876      6867      6957      6967      6877     16640     16713
 -2     16714     16005     15937     16645     16719     16011     16647     16720     16721     16012
 -1      2041    4    0    1
 -2      6867      6957      6967      6877      6868      6958      6968      6878     16647     16720
 -2     16721     16012     15944     16652     16726     16018     16654     16727     16728     16019
 -1      2042    4    0    1
 -2      6868      6958      6968      6878      6869      6959      6969      6879     16654     16727
 -2     16728     16019     15951     16659     16733     16025     16661     16734     16735     16026
 -1      2043    4    0    1
 -2      6869      6959      6969      6879      6870      6960      6970      6880     16661     16734
 -2     16735     16026     15958     16666     16740     16032     16668     16741     16742     16033
 -1      2044    4    0    1
 -2      6870      6960      6970      6880      6871      6961      6971      6881     16668     16741
 -2     16742     16033     15965     16673     16747     16039     16675     16748     16749     16040
 -1      2045    4    0    1
 -2      6871      6961      6971      6881      6872      6962      6972      6882     16675     16748
 -2     16749     16040     15972     16680     16754     16046     16682     16755     16756     16047
 -1      2046    4    0    1
 -2      6872      6962      6972      6882      4896      4905      4906      4897     16682     16755
 -2     16756     16047     15979     16687     16761     16053      5395      5397      5398      5368
 -1      2047    4    0    1
 -2       500       509       510       501      6873      6963      6973      6883      1001      1003
 -2      1004       974     15983     16691     16765     16057     16693     16766     16767     16058
 -1      2048    4    0    1
 -2      6873      6963      6973      6883      6874      6964      6974      6884     16693     16766
 -2     16767     16058     15990     16698     16772     16064     16700     16773     16774     16065
 -1      2049    4    0    1
 -2      6874      6964      6974      6884      6875      6965      6975      6885     16700     16773
 -2     16774     16065     15997     16705     16779     16071     16707     16780     16781     16072
 -1      2050    4    0    1
 -2      6875      6965      6975      6885      6876      6966      6976      6886     16707     16780
 -2     16781     16072     16004     16712     16786     16078     16714     16787     16788     16079
 -1      2051    4    0    1
 -2      6876      6966      6976      6886      6877      6967      6977      6887     16714     16787
 -2     16788     16079     16011     16719     16793     16085     16721     16794     16795     16086
 -1      2052    4    0    1
 -2      6877      6967      6977      6887      6878      6968      6978      6888     16721     16794
 -2     16795     16086     16018     16726     16800     16092     16728     16801     16802     16093
 -1      2053    4    0    1
 -2      6878      6968      6978      6888      6879      6969      6979      6889     16728     16801
 -2     16802     16093     16025     16733     16807     16099     16735     16808     16809     16100
 -1      2054    4    0    1
 -2      6879      6969      6979      6889      6880      6970      6980      6890     16735     16808
 -2     16809     16100     16032     16740     16814     16106     16742     16815     16816     16107
 -1      2055    4    0    1
 -2      6880      6970      6980      6890      6881      6971      6981      6891     16742     16815
 -2     16816     16107     16039     16747     16821     16113     16749     16822     16823     16114
 -1      2056    4    0    1
 -2      6881      6971      6981      6891      6882      6972      6982      6892     16749     16822
 -2     16823     16114     16046     16754     16828     16120     16756     16829     16830     16121
 -1      2057    4    0    1
 -2      6882      6972      6982      6892      4897      4906      4907      4898     16756     16829
 -2     16830     16121     16053     16761     16835     16127      5398      5400      5401      5371
 -1      2058    4    0    1
 -2       501       510       511       502      6883      6973      6983      6893      1004      1006
 -2      1007       977     16057     16765     16839     16131     16767     16840     16841     16132
 -1      2059    4    0    1
 -2      6883      6973      6983      6893      6884      6974      6984      6894     16767     16840
 -2     16841     16132     16064     16772     16846     16138     16774     16847     16848     16139
 -1      2060    4    0    1
 -2      6884      6974      6984      6894      6885      6975      6985      6895     16774     16847
 -2     16848     16139     16071     16779     16853     16145     16781     16854     16855     16146
 -1      2061    4    0    1
 -2      6885      6975      6985      6895      6886      6976      6986      6896     16781     16854
 -2     16855     16146     16078     16786     16860     16152     16788     16861     16862     16153
 -1      2062    4    0    1
 -2      6886      6976      6986      6896      6887      6977      6987      6897     16788     16861
 -2     16862     16153     16085     16793     16867     16159     16795     16868     16869     16160
 -1      2063    4    0    1
 -2      6887      6977      6987      6897      6888      6978      6988      6898     16795     16868
 -2     16869     16160     16092     16800     16874     16166     16802     16875     16876     16167
 -1      2064    4    0    1
 -2      6888      6978      6988      6898      6889      6979      6989      6899     16802     16875
 -2     16876     16167     16099     16807     16881     16173     16809     16882     16883     16174
 -1      2065    4    0    1
 -2      6889      6979      6989      6899      6890      6980      6990      6900     16809     16882
 -2     16883     16174     16106     16814     16888     16180     16816     16889     16890     16181
 -1      2066    4    0    1
 -2      6890      6980      6990      6900      6891      6981      6991      6901     16816     16889
 -2     16890     16181     16113     16821     16895     16187     16823     16896     16897     16188
 -1      2067    4    0    1
 -2      6891      6981      6991      6901      6892      6982      6992      6902     16823     16896
 -2     16897     16188     16120     16828     16902     16194     16830     16903     16904     16195
 -1      2068    4    0    1
 -2      6892      6982      6992      6902      4898      4907      4908      4899     16830     16903
 -2     16904     16195     16127     16835     16909     16201      5401      5403      5404      5374
 -1      2069    4    0    1
 -2       502       511       512       503      6893      6983      6993      6903      1007      1009
 -2      1010       980     16131     16839     16913     16205     16841     16914     16915     16206
 -1      2070    4    0    1
 -2      6893      6983      6993      6903      6894      6984      6994      6904     16841     16914
 -2     16915     16206     16138     16846     16920     16212     16848     16921     16922     16213
 -1      2071    4    0    1
 -2      6894      6984      6994      6904      6895      6985      6995      6905     16848     16921
 -2     16922     16213     16145     16853     16927     16219     16855     16928     16929     16220
 -1      2072    4    0    1
 -2      6895      6985      6995      6905      6896      6986      6996      6906     16855     16928
 -2     16929     16220     16152     16860     16934     16226     16862     16935     16936     16227
 -1      2073    4    0    1
 -2      6896      6986      6996      6906      6897      6987      6997      6907     16862     16935
 -2     16936     16227     16159     16867     16941     16233     16869     16942     16943     16234
 -1      2074    4    0    1
 -2      6897      6987      6997      6907      6898      6988      6998      6908     16869     16942
 -2     16943     16234     16166     16874     16948     16240     16876     16949     16950     16241
 -1      2075    4    0    1
 -2      6898      6988      6998      6908      6899      6989      6999      6909     16876     16949
 -2     16950     16241     16173     16881     16955     16247     16883     16956     16957     16248
 -1      2076    4    0    1
 -2      6899      6989      6999      6909      6900      6990      7000      6910     16883     16956
 -2     16957     16248     16180     16888     16962     16254     16890     16963     16964     16255
 -1      2077    4    0    1
 -2      6900      6990      7000      6910      6901      6991      7001      6911     16890     16963
 -2     16964     16255     16187     16895     16969     16261     16897     16970     16971     16262
 -1      2078    4    0    1
 -2      6901      6991      7001      6911      6902      6992      7002      6912     16897     16970
 -2     16971     16262     16194     16902     16976     16268     16904     16977     16978     16269
 -1      2079    4    0    1
 -2      6902      6992      7002      6912      4899      4908      4909      4900     16904     16977
 -2     16978     16269     16201     16909     16983     16275      5404      5406      5407      5377
 -1      2080    4    0    1
 -2       503       512       104       105      6903      6993      3334      3344      1010      1012
 -2       134       983     16205     16913      3998      4030     16915     16987      4031     16279
 -1      2081    4    0    1
 -2      6903      6993      3334      3344      6904      6994      3335      3345     16915     16987
 -2      4031     16279     16212     16920      4001      4033     16922     16991      4034     16283
 -1      2082    4    0    1
 -2      6904      6994      3335      3345      6905      6995      3336      3346     16922     16991
 -2      4034     16283     16219     16927      4004      4036     16929     16995      4037     16287
 -1      2083    4    0    1
 -2      6905      6995      3336      3346      6906      6996      3337      3347     16929     16995
 -2      4037     16287     16226     16934      4007      4039     16936     16999      4040     16291
 -1      2084    4    0    1
 -2      6906      6996      3337      3347      6907      6997      3338      3348     16936     16999
 -2      4040     16291     16233     16941      4010      4042     16943     17003      4043     16295
 -1      2085    4    0    1
 -2      6907      6997      3338      3348      6908      6998      3339      3349     16943     17003
 -2      4043     16295     16240     16948      4013      4045     16950     17007      4046     16299
 -1      2086    4    0    1
 -2      6908      6998      3339      3349      6909      6999      3340      3350     16950     17007
 -2      4046     16299     16247     16955      4016      4048     16957     17011      4049     16303
 -1      2087    4    0    1
 -2      6909      6999      3340      3350      6910      7000      3341      3351     16957     17011
 -2      4049     16303     16254     16962      4019      4051     16964     17015      4052     16307
 -1      2088    4    0    1
 -2      6910      7000      3341      3351      6911      7001      3342      3352     16964     17015
 -2      4052     16307     16261     16969      4022      4054     16971     17019      4055     16311
 -1      2089    4    0    1
 -2      6911      7001      3342      3352      6912      7002      3343      3353     16971     17019
 -2      4055     16311     16268     16976      4025      4057     16978     17023      4058     16315
 -1      2090    4    0    1
 -2      6912      7002      3343      3353      4900      4909       260       261     16978     17023
 -2      4058     16315     16275     16983      4028      4060      5407      5409       290      5380
 -1      2091    4    0    1
 -2        20        21       513       504      1636      1646      7003      6913        50      1014
 -2      1015       985      2168      2200     17029     16321      2201     17030     17031     16322
 -1      2092    4    0    1
 -2      1636      1646      7003      6913      1637      1647      7004      6914      2201     17030
 -2     17031     16322      2171      2203     17036     16328      2204     17037     17038     16329
 -1      2093    4    0    1
 -2      1637      1647      7004      6914      1638      1648      7005      6915      2204     17037
 -2     17038     16329      2174      2206     17043     16335      2207     17044     17045     16336
 -1      2094    4    0    1
 -2      1638      1648      7005      6915      1639      1649      7006      6916      2207     17044
 -2     17045     16336      2177      2209     17050     16342      2210     17051     17052     16343
 -1      2095    4    0    1
 -2      1639      1649      7006      6916      1640      1650      7007      6917      2210     17051
 -2     17052     16343      2180      2212     17057     16349      2213     17058     17059     16350
 -1      2096    4    0    1
 -2      1640      1650      7007      6917      1641      1651      7008      6918      2213     17058
 -2     17059     16350      2183      2215     17064     16356      2216     17065     17066     16357
 -1      2097    4    0    1
 -2      1641      1651      7008      6918      1642      1652      7009      6919      2216     17065
 -2     17066     16357      2186      2218     17071     16363      2219     17072     17073     16364
 -1      2098    4    0    1
 -2      1642      1652      7009      6919      1643      1653      7010      6920      2219     17072
 -2     17073     16364      2189      2221     17078     16370      2222     17079     17080     16371
 -1      2099    4    0    1
 -2      1643      1653      7010      6920      1644      1654      7011      6921      2222     17079
 -2     17080     16371      2192      2224     17085     16377      2225     17086     17087     16378
 -1      2100    4    0    1
 -2      1644      1654      7011      6921      1645      1655      7012      6922      2225     17086
 -2     17087     16378      2195      2227     17092     16384      2228     17093     17094     16385
 -1      2101    4    0    1
 -2      1645      1655      7012      6922       176       177      4910      4901      2228     17093
 -2     17094     16385      2198      2230     17099     16391       206      5411      5412      5382
 -1      2102    4    0    1
 -2       504       513       514       505      6913      7003      7013      6923      1015      1017
 -2      1018       988     16321     17029     17103     16395     17031     17104     17105     16396
 -1      2103    4    0    1
 -2      6913      7003      7013      6923      6914      7004      7014      6924     17031     17104
 -2     17105     16396     16328     17036     17110     16402     17038     17111     17112     16403
 -1      2104    4    0    1
 -2      6914      7004      7014      6924      6915      7005      7015      6925     17038     17111
 -2     17112     16403     16335     17043     17117     16409     17045     17118     17119     16410
 -1      2105    4    0    1
 -2      6915      7005      7015      6925      6916      7006      7016      6926     17045     17118
 -2     17119     16410     16342     17050     17124     16416     17052     17125     17126     16417
 -1      2106    4    0    1
 -2      6916      7006      7016      6926      6917      7007      7017      6927     17052     17125
 -2     17126     16417     16349     17057     17131     16423     17059     17132     17133     16424
 -1      2107    4    0    1
 -2      6917      7007      7017      6927      6918      7008      7018      6928     17059     17132
 -2     17133     16424     16356     17064     17138     16430     17066     17139     17140     16431
 -1      2108    4    0    1
 -2      6918      7008      7018      6928      6919      7009      7019      6929     17066     17139
 -2     17140     16431     16363     17071     17145     16437     17073     17146     17147     16438
 -1      2109    4    0    1
 -2      6919      7009      7019      6929      6920      7010      7020      6930     17073     17146
 -2     17147     16438     16370     17078     17152     16444     17080     17153     17154     16445
 -1      2110    4    0    1
 -2      6920      7010      7020      6930      6921      7011      7021      6931     17080     17153
 -2     17154     16445     16377     17085     17159     16451     17087     17160     17161     16452
 -1      2111    4    0    1
 -2      6921      7011      7021      6931      6922      7012      7022      6932     17087     17160
 -2     17161     16452     16384     17092     17166     16458     17094     17167     17168     16459
 -1      2112    4    0    1
 -2      6922      7012      7022      6932      4901      4910      4911      4902     17094     17167
 -2     17168     16459     16391     17099     17173     16465      5412      5414      5415      5385
 -1      2113    4    0    1
 -2       505       514       515       506      6923      7013      7023      6933      1018      1020
 -2      1021       991     16395     17103     17177     16469     17105     17178     17179     16470
 -1      2114    4    0    1
 -2      6923      7013      7023      6933      6924      7014      7024      6934     17105     17178
 -2     17179     16470     16402     17110     17184     16476     17112     17185     17186     16477
 -1      2115    4    0    1
 -2      6924      7014      7024      6934      6925      7015      7025      6935     17112     17185
 -2     17186     16477     16409     17117     17191     16483     17119     17192     17193     16484
 -1      2116    4    0    1
 -2      6925      7015      7025      6935      6926      7016      7026      6936     17119     17192
 -2     17193     16484     16416     17124     17198     16490     17126     17199     17200     16491
 -1      2117    4    0    1
 -2      6926      7016      7026      6936      6927      7017      7027      6937     17126     17199
 -2     17200     16491     16423     17131     17205     16497     17133     17206     17207     16498
 -1      2118    4    0    1
 -2      6927      7017      7027      6937      6928      7018      7028      6938     17133     17206
 -2     17207     16498     16430     17138     17212     16504     17140     17213     17214     16505
 -1      2119    4    0    1
 -2      6928      7018      7028      6938      6929      7019      7029      6939     17140     17213
 -2     17214     16505     16437     17145     17219     16511     17147     17220     17221     16512
 -1      2120    4    0    1
 -2      6929      7019      7029      6939      6930      7020      7030      6940     17147     17220
 -2     17221     16512     16444     17152     17226     16518     17154     17227     17228     16519
 -1      2121    4    0    1
 -2      6930      7020      7030      6940      6931      7021      7031      6941     17154     17227
 -2     17228     16519     16451     17159     17233     16525     17161     17234     17235     16526
 -1      2122    4    0    1
 -2      6931      7021      7031      6941      6932      7022      7032      6942     17161     17234
 -2     17235     16526     16458     17166     17240     16532     17168     17241     17242     16533
 -1      2123    4    0    1
 -2      6932      7022      7032      6942      4902      4911      4912      4903     17168     17241
 -2     17242     16533     16465     17173     17247     16539      5415      5417      5418      5388
 -1      2124    4    0    1
 -2       506       515       516       507      6933      7023      7033      6943      1021      1023
 -2      1024       994     16469     17177     17251     16543     17179     17252     17253     16544
 -1      2125    4    0    1
 -2      6933      7023      7033      6943      6934      7024      7034      6944     17179     17252
 -2     17253     16544     16476     17184     17258     16550     17186     17259     17260     16551
 -1      2126    4    0    1
 -2      6934      7024      7034      6944      6935      7025      7035      6945     17186     17259
 -2     17260     16551     16483     17191     17265     16557     17193     17266     17267     16558
 -1      2127    4    0    1
 -2      6935      7025      7035      6945      6936      7026      7036      6946     17193     17266
 -2     17267     16558     16490     17198     17272     16564     17200     17273     17274     16565
 -1      2128    4    0    1
 -2      6936      7026      7036      6946      6937      7027      7037      6947     17200     17273
 -2     17274     16565     16497     17205     17279     16571     17207     17280     17281     16572
 -1      2129    4    0    1
 -2      6937      7027      7037      6947      6938      7028      7038      6948     17207     17280
 -2     17281     16572     16504     17212     17286     16578     17214     17287     17288     16579
 -1      2130    4    0    1
 -2      6938      7028      7038      6948      6939      7029      7039      6949     17214     17287
 -2     17288     16579     16511     17219     17293     16585     17221     17294     17295     16586
 -1      2131    4    0    1
 -2      6939      7029      7039      6949      6940      7030      7040      6950     17221     17294
 -2     17295     16586     16518     17226     17300     16592     17228     17301     17302     16593
 -1      2132    4    0    1
 -2      6940      7030      7040      6950      6941      7031      7041      6951     17228     17301
 -2     17302     16593     16525     17233     17307     16599     17235     17308     17309     16600
 -1      2133    4    0    1
 -2      6941      7031      7041      6951      6942      7032      7042      6952     17235     17308
 -2     17309     16600     16532     17240     17314     16606     17242     17315     17316     16607
 -1      2134    4    0    1
 -2      6942      7032      7042      6952      4903      4912      4913      4904     17242     17315
 -2     17316     16607     16539     17247     17321     16613      5418      5420      5421      5391
 -1      2135    4    0    1
 -2       507       516       517       508      6943      7033      7043      6953      1024      1026
 -2      1027       997     16543     17251     17325     16617     17253     17326     17327     16618
 -1      2136    4    0    1
 -2      6943      7033      7043      6953      6944      7034      7044      6954     17253     17326
 -2     17327     16618     16550     17258     17332     16624     17260     17333     17334     16625
 -1      2137    4    0    1
 -2      6944      7034      7044      6954      6945      7035      7045      6955     17260     17333
 -2     17334     16625     16557     17265     17339     16631     17267     17340     17341     16632
 -1      2138    4    0    1
 -2      6945      7035      7045      6955      6946      7036      7046      6956     17267     17340
 -2     17341     16632     16564     17272     17346     16638     17274     17347     17348     16639
 -1      2139    4    0    1
 -2      6946      7036      7046      6956      6947      7037      7047      6957     17274     17347
 -2     17348     16639     16571     17279     17353     16645     17281     17354     17355     16646
 -1      2140    4    0    1
 -2      6947      7037      7047      6957      6948      7038      7048      6958     17281     17354
 -2     17355     16646     16578     17286     17360     16652     17288     17361     17362     16653
 -1      2141    4    0    1
 -2      6948      7038      7048      6958      6949      7039      7049      6959     17288     17361
 -2     17362     16653     16585     17293     17367     16659     17295     17368     17369     16660
 -1      2142    4    0    1
 -2      6949      7039      7049      6959      6950      7040      7050      6960     17295     17368
 -2     17369     16660     16592     17300     17374     16666     17302     17375     17376     16667
 -1      2143    4    0    1
 -2      6950      7040      7050      6960      6951      7041      7051      6961     17302     17375
 -2     17376     16667     16599     17307     17381     16673     17309     17382     17383     16674
 -1      2144    4    0    1
 -2      6951      7041      7051      6961      6952      7042      7052      6962     17309     17382
 -2     17383     16674     16606     17314     17388     16680     17316     17389     17390     16681
 -1      2145    4    0    1
 -2      6952      7042      7052      6962      4904      4913      4914      4905     17316     17389
 -2     17390     16681     16613     17321     17395     16687      5421      5423      5424      5394
 -1      2146    4    0    1
 -2       508       517       518       509      6953      7043      7053      6963      1027      1029
 -2      1030      1000     16617     17325     17399     16691     17327     17400     17401     16692
 -1      2147    4    0    1
 -2      6953      7043      7053      6963      6954      7044      7054      6964     17327     17400
 -2     17401     16692     16624     17332     17406     16698     17334     17407     17408     16699
 -1      2148    4    0    1
 -2      6954      7044      7054      6964      6955      7045      7055      6965     17334     17407
 -2     17408     16699     16631     17339     17413     16705     17341     17414     17415     16706
 -1      2149    4    0    1
 -2      6955      7045      7055      6965      6956      7046      7056      6966     17341     17414
 -2     17415     16706     16638     17346     17420     16712     17348     17421     17422     16713
 -1      2150    4    0    1
 -2      6956      7046      7056      6966      6957      7047      7057      6967     17348     17421
 -2     17422     16713     16645     17353     17427     16719     17355     17428     17429     16720
 -1      2151    4    0    1
 -2      6957      7047      7057      6967      6958      7048      7058      6968     17355     17428
 -2     17429     16720     16652     17360     17434     16726     17362     17435     17436     16727
 -1      2152    4    0    1
 -2      6958      7048      7058      6968      6959      7049      7059      6969     17362     17435
 -2     17436     16727     16659     17367     17441     16733     17369     17442     17443     16734
 -1      2153    4    0    1
 -2      6959      7049      7059      6969      6960      7050      7060      6970     17369     17442
 -2     17443     16734     16666     17374     17448     16740     17376     17449     17450     16741
 -1      2154    4    0    1
 -2      6960      7050      7060      6970      6961      7051      7061      6971     17376     17449
 -2     17450     16741     16673     17381     17455     16747     17383     17456     17457     16748
 -1      2155    4    0    1
 -2      6961      7051      7061      6971      6962      7052      7062      6972     17383     17456
 -2     17457     16748     16680     17388     17462     16754     17390     17463     17464     16755
 -1      2156    4    0    1
 -2      6962      7052      7062      6972      4905      4914      4915      4906     17390     17463
 -2     17464     16755     16687     17395     17469     16761      5424      5426      5427      5397
 -1      2157    4    0    1
 -2       509       518       519       510      6963      7053      7063      6973      1030      1032
 -2      1033      1003     16691     17399     17473     16765     17401     17474     17475     16766
 -1      2158    4    0    1
 -2      6963      7053      7063      6973      6964      7054      7064      6974     17401     17474
 -2     17475     16766     16698     17406     17480     16772     17408     17481     17482     16773
 -1      2159    4    0    1
 -2      6964      7054      7064      6974      6965      7055      7065      6975     17408     17481
 -2     17482     16773     16705     17413     17487     16779     17415     17488     17489     16780
 -1      2160    4    0    1
 -2      6965      7055      7065      6975      6966      7056      7066      6976     17415     17488
 -2     17489     16780     16712     17420     17494     16786     17422     17495     17496     16787
 -1      2161    4    0    1
 -2      6966      7056      7066      6976      6967      7057      7067      6977     17422     17495
 -2     17496     16787     16719     17427     17501     16793     17429     17502     17503     16794
 -1      2162    4    0    1
 -2      6967      7057      7067      6977      6968      7058      7068      6978     17429     17502
 -2     17503     16794     16726     17434     17508     16800     17436     17509     17510     16801
 -1      2163    4    0    1
 -2      6968      7058      7068      6978      6969      7059      7069      6979     17436     17509
 -2     17510     16801     16733     17441     17515     16807     17443     17516     17517     16808
 -1      2164    4    0    1
 -2      6969      7059      7069      6979      6970      7060      7070      6980     17443     17516
 -2     17517     16808     16740     17448     17522     16814     17450     17523     17524     16815
 -1      2165    4    0    1
 -2      6970      7060      7070      6980      6971      7061      7071      6981     17450     17523
 -2     17524     16815     16747     17455     17529     16821     17457     17530     17531     16822
 -1      2166    4    0    1
 -2      6971      7061      7071      6981      6972      7062      7072      6982     17457     17530
 -2     17531     16822     16754     17462     17536     16828     17464     17537     17538     16829
 -1      2167    4    0    1
 -2      6972      7062      7072      6982      4906      4915      4916      4907     17464     17537
 -2     17538     16829     16761     17469     17543     16835      5427      5429      5430      5400
 -1      2168    4    0    1
 -2       510       519       520       511      6973      7063      7073      6983      1033      1035
 -2      1036      1006     16765     17473     17547     16839     17475     17548     17549     16840
 -1      2169    4    0    1
 -2      6973      7063      7073      6983      6974      7064      7074      6984     17475     17548
 -2     17549     16840     16772     17480     17554     16846     17482     17555     17556     16847
 -1      2170    4    0    1
 -2      6974      7064      7074      6984      6975      7065      7075      6985     17482     17555
 -2     17556     16847     16779     17487     17561     16853     17489     17562     17563     16854
 -1      2171    4    0    1
 -2      6975      7065      7075      6985      6976      7066      7076      6986     17489     17562
 -2     17563     16854     16786     17494     17568     16860     17496     17569     17570     16861
 -1      2172    4    0    1
 -2      6976      7066      7076      6986      6977      7067      7077      6987     17496     17569
 -2     17570     16861     16793     17501     17575     16867     17503     17576     17577     16868
 -1      2173    4    0    1
 -2      6977      7067      7077      6987      6978      7068      7078      6988     17503     17576
 -2     17577     16868     16800     17508     17582     16874     17510     17583     17584     16875
 -1      2174    4    0    1
 -2      6978      7068      7078      6988      6979      7069      7079      6989     17510     17583
 -2     17584     16875     16807     17515     17589     16881     17517     17590     17591     16882
 -1      2175    4    0    1
 -2      6979      7069      7079      6989      6980      7070      7080      6990     17517     17590
 -2     17591     16882     16814     17522     17596     16888     17524     17597     17598     16889
 -1      2176    4    0    1
 -2      6980      7070      7080      6990      6981      7071      7081      6991     17524     17597
 -2     17598     16889     16821     17529     17603     16895     17531     17604     17605     16896
 -1      2177    4    0    1
 -2      6981      7071      7081      6991      6982      7072      7082      6992     17531     17604
 -2     17605     16896     16828     17536     17610     16902     17538     17611     17612     16903
 -1      2178    4    0    1
 -2      6982      7072      7082      6992      4907      4916      4917      4908     17538     17611
 -2     17612     16903     16835     17543     17617     16909      5430      5432      5433      5403
 -1      2179    4    0    1
 -2       511       520       521       512      6983      7073      7083      6993      1036      1038
 -2      1039      1009     16839     17547     17621     16913     17549     17622     17623     16914
 -1      2180    4    0    1
 -2      6983      7073      7083      6993      6984      7074      7084      6994     17549     17622
 -2     17623     16914     16846     17554     17628     16920     17556     17629     17630     16921
 -1      2181    4    0    1
 -2      6984      7074      7084      6994      6985      7075      7085      6995     17556     17629
 -2     17630     16921     16853     17561     17635     16927     17563     17636     17637     16928
 -1      2182    4    0    1
 -2      6985      7075      7085      6995      6986      7076      7086      6996     17563     17636
 -2     17637     16928     16860     17568     17642     16934     17570     17643     17644     16935
 -1      2183    4    0    1
 -2      6986      7076      7086      6996      6987      7077      7087      6997     17570     17643
 -2     17644     16935     16867     17575     17649     16941     17577     17650     17651     16942
 -1      2184    4    0    1
 -2      6987      7077      7087      6997      6988      7078      7088      6998     17577     17650
 -2     17651     16942     16874     17582     17656     16948     17584     17657     17658     16949
 -1      2185    4    0    1
 -2      6988      7078      7088      6998      6989      7079      7089      6999     17584     17657
 -2     17658     16949     16881     17589     17663     16955     17591     17664     17665     16956
 -1      2186    4    0    1
 -2      6989      7079      7089      6999      6990      7080      7090      7000     17591     17664
 -2     17665     16956     16888     17596     17670     16962     17598     17671     17672     16963
 -1      2187    4    0    1
 -2      6990      7080      7090      7000      6991      7081      7091      7001     17598     17671
 -2     17672     16963     16895     17603     17677     16969     17605     17678     17679     16970
 -1      2188    4    0    1
 -2      6991      7081      7091      7001      6992      7082      7092      7002     17605     17678
 -2     17679     16970     16902     17610     17684     16976     17612     17685     17686     16977
 -1      2189    4    0    1
 -2      6992      7082      7092      7002      4908      4917      4918      4909     17612     17685
 -2     17686     16977     16909     17617     17691     16983      5433      5435      5436      5406
 -1      2190    4    0    1
 -2       512       521       103       104      6993      7083      3324      3334      1039      1041
 -2       133      1012     16913     17621      3966      3998     17623     17695      3999     16987
 -1      2191    4    0    1
 -2      6993      7083      3324      3334      6994      7084      3325      3335     17623     17695
 -2      3999     16987     16920     17628      3969      4001     17630     17699      4002     16991
 -1      2192    4    0    1
 -2      6994      7084      3325      3335      6995      7085      3326      3336     17630     17699
 -2      4002     16991     16927     17635      3972      4004     17637     17703      4005     16995
 -1      2193    4    0    1
 -2      6995      7085      3326      3336      6996      7086      3327      3337     17637     17703
 -2      4005     16995     16934     17642      3975      4007     17644     17707      4008     16999
 -1      2194    4    0    1
 -2      6996      7086      3327      3337      6997      7087      3328      3338     17644     17707
 -2      4008     16999     16941     17649      3978      4010     17651     17711      4011     17003
 -1      2195    4    0    1
 -2      6997      7087      3328      3338      6998      7088      3329      3339     17651     17711
 -2      4011     17003     16948     17656      3981      4013     17658     17715      4014     17007
 -1      2196    4    0    1
 -2      6998      7088      3329      3339      6999      7089      3330      3340     17658     17715
 -2      4014     17007     16955     17663      3984      4016     17665     17719      4017     17011
 -1      2197    4    0    1
 -2      6999      7089      3330      3340      7000      7090      3331      3341     17665     17719
 -2      4017     17011     16962     17670      3987      4019     17672     17723      4020     17015
 -1      2198    4    0    1
 -2      7000      7090      3331      3341      7001      7091      3332      3342     17672     17723
 -2      4020     17015     16969     17677      3990      4022     17679     17727      4023     17019
 -1      2199    4    0    1
 -2      7001      7091      3332      3342      7002      7092      3333      3343     17679     17727
 -2      4023     17019     16976     17684      3993      4025     17686     17731      4026     17023
 -1      2200    4    0    1
 -2      7002      7092      3333      3343      4909      4918       259       260     17686     17731
 -2      4026     17023     16983     17691      3996      4028      5436      5438       289      5409
 -1      2201    4    0    1
 -2        21        22       522       513      1646      1656      7093      7003        51      1043
 -2      1044      1014      2200      2232     17737     17029      2233     17738     17739     17030
 -1      2202    4    0    1
 -2      1646      1656      7093      7003      1647      1657      7094      7004      2233     17738
 -2     17739     17030      2203      2235     17744     17036      2236     17745     17746     17037
 -1      2203    4    0    1
 -2      1647      1657      7094      7004      1648      1658      7095      7005      2236     17745
 -2     17746     17037      2206      2238     17751     17043      2239     17752     17753     17044
 -1      2204    4    0    1
 -2      1648      1658      7095      7005      1649      1659      7096      7006      2239     17752
 -2     17753     17044      2209      2241     17758     17050      2242     17759     17760     17051
 -1      2205    4    0    1
 -2      1649      1659      7096      7006      1650      1660      7097      7007      2242     17759
 -2     17760     17051      2212      2244     17765     17057      2245     17766     17767     17058
 -1      2206    4    0    1
 -2      1650      1660      7097      7007      1651      1661      7098      7008      2245     17766
 -2     17767     17058      2215      2247     17772     17064      2248     17773     17774     17065
 -1      2207    4    0    1
 -2      1651      1661      7098      7008      1652      1662      7099      7009      2248     17773
 -2     17774     17065      2218      2250     17779     17071      2251     17780     17781     17072
 -1      2208    4    0    1
 -2      1652      1662      7099      7009      1653      1663      7100      7010      2251     17780
 -2     17781     17072      2221      2253     17786     17078      2254     17787     17788     17079
 -1      2209    4    0    1
 -2      1653      1663      7100      7010      1654      1664      7101      7011      2254     17787
 -2     17788     17079      2224      2256     17793     17085      2257     17794     17795     17086
 -1      2210    4    0    1
 -2      1654      1664      7101      7011      1655      1665      7102      7012      2257     17794
 -2     17795     17086      2227      2259     17800     17092      2260     17801     17802     17093
 -1      2211    4    0    1
 -2      1655      1665      7102      7012       177       178      4919      4910      2260     17801
 -2     17802     17093      2230      2262     17807     17099       207      5440      5441      5411
 -1      2212    4    0    1
 -2       513       522       523       514      7003      7093      7103      7013      1044      1046
 -2      1047      1017     17029     17737     17811     17103     17739     17812     17813     17104
 -1      2213    4    0    1
 -2      7003      7093      7103      7013      7004      7094      7104      7014     17739     17812
 -2     17813     17104     17036     17744     17818     17110     17746     17819     17820     17111
 -1      2214    4    0    1
 -2      7004      7094      7104      7014      7005      7095      7105      7015     17746     17819
 -2     17820     17111     17043     17751     17825     17117     17753     17826     17827     17118
 -1      2215    4    0    1
 -2      7005      7095      7105      7015      7006      7096      7106      7016     17753     17826
 -2     17827     17118     17050     17758     17832     17124     17760     17833     17834     17125
 -1      2216    4    0    1
 -2      7006      7096      7106      7016      7007      7097      7107      7017     17760     17833
 -2     17834     17125     17057     17765     17839     17131     17767     17840     17841     17132
 -1      2217    4    0    1
 -2      7007      7097      7107      7017      7008      7098      7108      7018     17767     17840
 -2     17841     17132     17064     17772     17846     17138     17774     17847     17848     17139
 -1      2218    4    0    1
 -2      7008      7098      7108      7018      7009      7099      7109      7019     17774     17847
 -2     17848     17139     17071     17779     17853     17145     17781     17854     17855     17146
 -1      2219    4    0    1
 -2      7009      7099      7109      7019      7010      7100      7110      7020     17781     17854
 -2     17855     17146     17078     17786     17860     17152     17788     17861     17862     17153
 -1      2220    4    0    1
 -2      7010      7100      7110      7020      7011      7101      7111      7021     17788     17861
 -2     17862     17153     17085     17793     17867     17159     17795     17868     17869     17160
 -1      2221    4    0    1
 -2      7011      7101      7111      7021      7012      7102      7112      7022     17795     17868
 -2     17869     17160     17092     17800     17874     17166     17802     17875     17876     17167
 -1      2222    4    0    1
 -2      7012      7102      7112      7022      4910      4919      4920      4911     17802     17875
 -2     17876     17167     17099     17807     17881     17173      5441      5443      5444      5414
 -1      2223    4    0    1
 -2       514       523       524       515      7013      7103      7113      7023      1047      1049
 -2      1050      1020     17103     17811     17885     17177     17813     17886     17887     17178
 -1      2224    4    0    1
 -2      7013      7103      7113      7023      7014      7104      7114      7024     17813     17886
 -2     17887     17178     17110     17818     17892     17184     17820     17893     17894     17185
 -1      2225    4    0    1
 -2      7014      7104      7114      7024      7015      7105      7115      7025     17820     17893
 -2     17894     17185     17117     17825     17899     17191     17827     17900     17901     17192
 -1      2226    4    0    1
 -2      7015      7105      7115      7025      7016      7106      7116      7026     17827     17900
 -2     17901     17192     17124     17832     17906     17198     17834     17907     17908     17199
 -1      2227    4    0    1
 -2      7016      7106      7116      7026      7017      7107      7117      7027     17834     17907
 -2     17908     17199     17131     17839     17913     17205     17841     17914     17915     17206
 -1      2228    4    0    1
 -2      7017      7107      7117      7027      7018      7108      7118      7028     17841     17914
 -2     17915     17206     17138     17846     17920     17212     17848     17921     17922     17213
 -1      2229    4    0    1
 -2      7018      7108      7118      7028      7019      7109      7119      7029     17848     17921
 -2     17922     17213     17145     17853     17927     17219     17855     17928     17929     17220
 -1      2230    4    0    1
 -2      7019      7109      7119      7029      7020      7110      7120      7030     17855     17928
 -2     17929     17220     17152     17860     17934     17226     17862     17935     17936     17227
 -1      2231    4    0    1
 -2      7020      7110      7120      7030      7021      7111      7121      7031     17862     17935
 -2     17936     17227     17159     17867     17941     17233     17869     17942     17943     17234
 -1      2232    4    0    1
 -2      7021      7111      7121      7031      7022      7112      7122      7032     17869     17942
 -2     17943     17234     17166     17874     17948     17240     17876     17949     17950     17241
 -1      2233    4    0    1
 -2      7022      7112      7122      7032      4911      4920      4921      4912     17876     17949
 -2     17950     17241     17173     17881     17955     17247      5444      5446      5447      5417
 -1      2234    4    0    1
 -2       515       524       525       516      7023      7113      7123      7033      1050      1052
 -2      1053      1023     17177     17885     17959     17251     17887     17960     17961     17252
 -1      2235    4    0    1
 -2      7023      7113      7123      7033      7024      7114      7124      7034     17887     17960
 -2     17961     17252     17184     17892     17966     17258     17894     17967     17968     17259
 -1      2236    4    0    1
 -2      7024      7114      7124      7034      7025      7115      7125      7035     17894     17967
 -2     17968     17259     17191     17899     17973     17265     17901     17974     17975     17266
 -1      2237    4    0    1
 -2      7025      7115      7125      7035      7026      7116      7126      7036     17901     17974
 -2     17975     17266     17198     17906     17980     17272     17908     17981     17982     17273
 -1      2238    4    0    1
 -2      7026      7116      7126      7036      7027      7117      7127      7037     17908     17981
 -2     17982     17273     17205     17913     17987     17279     17915     17988     17989     17280
 -1      2239    4    0    1
 -2      7027      7117      7127      7037      7028      7118      7128      7038     17915     17988
 -2     17989     17280     17212     17920     17994     17286     17922     17995     17996     17287
 -1      2240    4    0    1
 -2      7028      7118      7128      7038      7029      7119      7129      7039     17922     17995
 -2     17996     17287     17219     17927     18001     17293     17929     18002     18003     17294
 -1      2241    4    0    1
 -2      7029      7119      7129      7039      7030      7120      7130      7040     17929     18002
 -2     18003     17294     17226     17934     18008     17300     17936     18009     18010     17301
 -1      2242    4    0    1
 -2      7030      7120      7130      7040      7031      7121      7131      7041     17936     18009
 -2     18010     17301     17233     17941     18015     17307     17943     18016     18017     17308
 -1      2243    4    0    1
 -2      7031      7121      7131      7041      7032      7122      7132      7042     17943     18016
 -2     18017     17308     17240     17948     18022     17314     17950     18023     18024     17315
 -1      2244    4    0    1
 -2      7032      7122      7132      7042      4912      4921      4922      4913     17950     18023
 -2     18024     17315     17247     17955     18029     17321      5447      5449      5450      5420
 -1      2245    4    0    1
 -2       516       525       526       517      7033      7123      7133      7043      1053      1055
 -2      1056      1026     17251     17959     18033     17325     17961     18034     18035     17326
 -1      2246    4    0    1
 -2      7033      7123      7133      7043      7034      7124      7134      7044     17961     18034
 -2     18035     17326     17258     17966     18040     17332     17968     18041     18042     17333
 -1      2247    4    0    1
 -2      7034      7124      7134      7044      7035      7125      7135      7045     17968     18041
 -2     18042     17333     17265     17973     18047     17339     17975     18048     18049     17340
 -1      2248    4    0    1
 -2      7035      7125      7135      7045      7036      7126      7136      7046     17975     18048
 -2     18049     17340     17272     17980     18054     17346     17982     18055     18056     17347
 -1      2249    4    0    1
 -2      7036      7126      7136      7046      7037      7127      7137      7047     17982     18055
 -2     18056     17347     17279     17987     18061     17353     17989     18062     18063     17354
 -1      2250    4    0    1
 -2      7037      7127      7137      7047      7038      7128      7138      7048     17989     18062
 -2     18063     17354     17286     17994     18068     17360     17996     18069     18070     17361
 -1      2251    4    0    1
 -2      7038      7128      7138      7048      7039      7129      7139      7049     17996     18069
 -2     18070     17361     17293     18001     18075     17367     18003     18076     18077     17368
 -1      2252    4    0    1
 -2      7039      7129      7139      7049      7040      7130      7140      7050     18003     18076
 -2     18077     17368     17300     18008     18082     17374     18010     18083     18084     17375
 -1      2253    4    0    1
 -2      7040      7130      7140      7050      7041      7131      7141      7051     18010     18083
 -2     18084     17375     17307     18015     18089     17381     18017     18090     18091     17382
 -1      2254    4    0    1
 -2      7041      7131      7141      7051      7042      7132      7142      7052     18017     18090
 -2     18091     17382     17314     18022     18096     17388     18024     18097     18098     17389
 -1      2255    4    0    1
 -2      7042      7132      7142      7052      4913      4922      4923      4914     18024     18097
 -2     18098     17389     17321     18029     18103     17395      5450      5452      5453      5423
 -1      2256    4    0    1
 -2       517       526       527       518      7043      7133      7143      7053      1056      1058
 -2      1059      1029     17325     18033     18107     17399     18035     18108     18109     17400
 -1      2257    4    0    1
 -2      7043      7133      7143      7053      7044      7134      7144      7054     18035     18108
 -2     18109     17400     17332     18040     18114     17406     18042     18115     18116     17407
 -1      2258    4    0    1
 -2      7044      7134      7144      7054      7045      7135      7145      7055     18042     18115
 -2     18116     17407     17339     18047     18121     17413     18049     18122     18123     17414
 -1      2259    4    0    1
 -2      7045      7135      7145      7055      7046      7136      7146      7056     18049     18122
 -2     18123     17414     17346     18054     18128     17420     18056     18129     18130     17421
 -1      2260    4    0    1
 -2      7046      7136      7146      7056      7047      7137      7147      7057     18056     18129
 -2     18130     17421     17353     18061     18135     17427     18063     18136     18137     17428
 -1      2261    4    0    1
 -2      7047      7137      7147      7057      7048      7138      7148      7058     18063     18136
 -2     18137     17428     17360     18068     18142     17434     18070     18143     18144     17435
 -1      2262    4    0    1
 -2      7048      7138      7148      7058      7049      7139      7149      7059     18070     18143
 -2     18144     17435     17367     18075     18149     17441     18077     18150     18151     17442
 -1      2263    4    0    1
 -2      7049      7139      7149      7059      7050      7140      7150      7060     18077     18150
 -2     18151     17442     17374     18082     18156     17448     18084     18157     18158     17449
 -1      2264    4    0    1
 -2      7050      7140      7150      7060      7051      7141      7151      7061     18084     18157
 -2     18158     17449     17381     18089     18163     17455     18091     18164     18165     17456
 -1      2265    4    0    1
 -2      7051      7141      7151      7061      7052      7142      7152      7062     18091     18164
 -2     18165     17456     17388     18096     18170     17462     18098     18171     18172     17463
 -1      2266    4    0    1
 -2      7052      7142      7152      7062      4914      4923      4924      4915     18098     18171
 -2     18172     17463     17395     18103     18177     17469      5453      5455      5456      5426
 -1      2267    4    0    1
 -2       518       527       528       519      7053      7143      7153      7063      1059      1061
 -2      1062      1032     17399     18107     18181     17473     18109     18182     18183     17474
 -1      2268    4    0    1
 -2      7053      7143      7153      7063      7054      7144      7154      7064     18109     18182
 -2     18183     17474     17406     18114     18188     17480     18116     18189     18190     17481
 -1      2269    4    0    1
 -2      7054      7144      7154      7064      7055      7145      7155      7065     18116     18189
 -2     18190     17481     17413     18121     18195     17487     18123     18196     18197     17488
 -1      2270    4    0    1
 -2      7055      7145      7155      7065      7056      7146      7156      7066     18123     18196
 -2     18197     17488     17420     18128     18202     17494     18130     18203     18204     17495
 -1      2271    4    0    1
 -2      7056      7146      7156      7066      7057      7147      7157      7067     18130     18203
 -2     18204     17495     17427     18135     18209     17501     18137     18210     18211     17502
 -1      2272    4    0    1
 -2      7057      7147      7157      7067      7058      7148      7158      7068     18137     18210
 -2     18211     17502     17434     18142     18216     17508     18144     18217     18218     17509
 -1      2273    4    0    1
 -2      7058      7148      7158      7068      7059      7149      7159      7069     18144     18217
 -2     18218     17509     17441     18149     18223     17515     18151     18224     18225     17516
 -1      2274    4    0    1
 -2      7059      7149      7159      7069      7060      7150      7160      7070     18151     18224
 -2     18225     17516     17448     18156     18230     17522     18158     18231     18232     17523
 -1      2275    4    0    1
 -2      7060      7150      7160      7070      7061      7151      7161      7071     18158     18231
 -2     18232     17523     17455     18163     18237     17529     18165     18238     18239     17530
 -1      2276    4    0    1
 -2      7061      7151      7161      7071      7062      7152      7162      7072     18165     18238
 -2     18239     17530     17462     18170     18244     17536     18172     18245     18246     17537
 -1      2277    4    0    1
 -2      7062      7152      7162      7072      4915      4924      4925      4916     18172     18245
 -2     18246     17537     17469     18177     18251     17543      5456      5458      5459      5429
 -1      2278    4    0    1
 -2       519       528       529       520      7063      7153      7163      7073      1062      1064
 -2      1065      1035     17473     18181     18255     17547     18183     18256     18257     17548
 -1      2279    4    0    1
 -2      7063      7153      7163      7073      7064      7154      7164      7074     18183     18256
 -2     18257     17548     17480     18188     18262     17554     18190     18263     18264     17555
 -1      2280    4    0    1
 -2      7064      7154      7164      7074      7065      7155      7165      7075     18190     18263
 -2     18264     17555     17487     18195     18269     17561     18197     18270     18271     17562
 -1      2281    4    0    1
 -2      7065      7155      7165      7075      7066      7156      7166      7076     18197     18270
 -2     18271     17562     17494     18202     18276     17568     18204     18277     18278     17569
 -1      2282    4    0    1
 -2      7066      7156      7166      7076      7067      7157      7167      7077     18204     18277
 -2     18278     17569     17501     18209     18283     17575     18211     18284     18285     17576
 -1      2283    4    0    1
 -2      7067      7157      7167      7077      7068      7158      7168      7078     18211     18284
 -2     18285     17576     17508     18216     18290     17582     18218     18291     18292     17583
 -1      2284    4    0    1
 -2      7068      7158      7168      7078      7069      7159      7169      7079     18218     18291
 -2     18292     17583     17515     18223     18297     17589     18225     18298     18299     17590
 -1      2285    4    0    1
 -2      7069      7159      7169      7079      7070      7160      7170      7080     18225     18298
 -2     18299     17590     17522     18230     18304     17596     18232     18305     18306     17597
 -1      2286    4    0    1
 -2      7070      7160      7170      7080      7071      7161      7171      7081     18232     18305
 -2     18306     17597     17529     18237     18311     17603     18239     18312     18313     17604
 -1      2287    4    0    1
 -2      7071      7161      7171      7081      7072      7162      7172      7082     18239     18312
 -2     18313     17604     17536     18244     18318     17610     18246     18319     18320     17611
 -1      2288    4    0    1
 -2      7072      7162      7172      7082      4916      4925      4926      4917     18246     18319
 -2     18320     17611     17543     18251     18325     17617      5459      5461      5462      5432
 -1      2289    4    0    1
 -2       520       529       530       521      7073      7163      7173      7083      1065      1067
 -2      1068      1038     17547     18255     18329     17621     18257     18330     18331     17622
 -1      2290    4    0    1
 -2      7073      7163      7173      7083      7074      7164      7174      7084     18257     18330
 -2     18331     17622     17554     18262     18336     17628     18264     18337     18338     17629
 -1      2291    4    0    1
 -2      7074      7164      7174      7084      7075      7165      7175      7085     18264     18337
 -2     18338     17629     17561     18269     18343     17635     18271     18344     18345     17636
 -1      2292    4    0    1
 -2      7075      7165      7175      7085      7076      7166      7176      7086     18271     18344
 -2     18345     17636     17568     18276     18350     17642     18278     18351     18352     17643
 -1      2293    4    0    1
 -2      7076      7166      7176      7086      7077      7167      7177      7087     18278     18351
 -2     18352     17643     17575     18283     18357     17649     18285     18358     18359     17650
 -1      2294    4    0    1
 -2      7077      7167      7177      7087      7078      7168      7178      7088     18285     18358
 -2     18359     17650     17582     18290     18364     17656     18292     18365     18366     17657
 -1      2295    4    0    1
 -2      7078      7168      7178      7088      7079      7169      7179      7089     18292     18365
 -2     18366     17657     17589     18297     18371     17663     18299     18372     18373     17664
 -1      2296    4    0    1
 -2      7079      7169      7179      7089      7080      7170      7180      7090     18299     18372
 -2     18373     17664     17596     18304     18378     17670     18306     18379     18380     17671
 -1      2297    4    0    1
 -2      7080      7170      7180      7090      7081      7171      7181      7091     18306     18379
 -2     18380     17671     17603     18311     18385     17677     18313     18386     18387     17678
 -1      2298    4    0    1
 -2      7081      7171      7181      7091      7082      7172      7182      7092     18313     18386
 -2     18387     17678     17610     18318     18392     17684     18320     18393     18394     17685
 -1      2299    4    0    1
 -2      7082      7172      7182      7092      4917      4926      4927      4918     18320     18393
 -2     18394     17685     17617     18325     18399     17691      5462      5464      5465      5435
 -1      2300    4    0    1
 -2       521       530       102       103      7083      7173      3314      3324      1068      1070
 -2       132      1041     17621     18329      3934      3966     18331     18403      3967     17695
 -1      2301    4    0    1
 -2      7083      7173      3314      3324      7084      7174      3315      3325     18331     18403
 -2      3967     17695     17628     18336      3937      3969     18338     18407      3970     17699
 -1      2302    4    0    1
 -2      7084      7174      3315      3325      7085      7175      3316      3326     18338     18407
 -2      3970     17699     17635     18343      3940      3972     18345     18411      3973     17703
 -1      2303    4    0    1
 -2      7085      7175      3316      3326      7086      7176      3317      3327     18345     18411
 -2      3973     17703     17642     18350      3943      3975     18352     18415      3976     17707
 -1      2304    4    0    1
 -2      7086      7176      3317      3327      7087      7177      3318      3328     18352     18415
 -2      3976     17707     17649     18357      3946      3978     18359     18419      3979     17711
 -1      2305    4    0    1
 -2      7087      7177      3318      3328      7088      7178      3319      3329     18359     18419
 -2      3979     17711     17656     18364      3949      3981     18366     18423      3982     17715
 -1      2306    4    0    1
 -2      7088      7178      3319      3329      7089      7179      3320      3330     18366     18423
 -2      3982     17715     17663     18371      3952      3984     18373     18427      3985     17719
 -1      2307    4    0    1
 -2      7089      7179      3320      3330      7090      7180      3321      3331     18373     18427
 -2      3985     17719     17670     18378      3955      3987     18380     18431      3988     17723
 -1      2308    4    0    1
 -2      7090      7180      3321      3331      7091      7181      3322      3332     18380     18431
 -2      3988     17723     17677     18385      3958      3990     18387     18435      3991     17727
 -1      2309    4    0    1
 -2      7091      7181      3322      3332      7092      7182      3323      3333     18387     18435
 -2      3991     17727     17684     18392      3961      3993     18394     18439      3994     17731
 -1      2310    4    0    1
 -2      7092      7182      3323      3333      4918      4927       258       259     18394     18439
 -2      3994     17731     17691     18399      3964      3996      5465      5467       288      5438
 -1      2311    4    0    1
 -2        22        23       531       522      1656      1666      7183      7093        52      1072
 -2      1073      1043      2232      2264     18445     17737      2265     18446     18447     17738
 -1      2312    4    0    1
 -2      1656      1666      7183      7093      1657      1667      7184      7094      2265     18446
 -2     18447     17738      2235      2267     18452     17744      2268     18453     18454     17745
 -1      2313    4    0    1
 -2      1657      1667      7184      7094      1658      1668      7185      7095      2268     18453
 -2     18454     17745      2238      2270     18459     17751      2271     18460     18461     17752
 -1      2314    4    0    1
 -2      1658      1668      7185      7095      1659      1669      7186      7096      2271     18460
 -2     18461     17752      2241      2273     18466     17758      2274     18467     18468     17759
 -1      2315    4    0    1
 -2      1659      1669      7186      7096      1660      1670      7187      7097      2274     18467
 -2     18468     17759      2244      2276     18473     17765      2277     18474     18475     17766
 -1      2316    4    0    1
 -2      1660      1670      7187      7097      1661      1671      7188      7098      2277     18474
 -2     18475     17766      2247      2279     18480     17772      2280     18481     18482     17773
 -1      2317    4    0    1
 -2      1661      1671      7188      7098      1662      1672      7189      7099      2280     18481
 -2     18482     17773      2250      2282     18487     17779      2283     18488     18489     17780
 -1      2318    4    0    1
 -2      1662      1672      7189      7099      1663      1673      7190      7100      2283     18488
 -2     18489     17780      2253      2285     18494     17786      2286     18495     18496     17787
 -1      2319    4    0    1
 -2      1663      1673      7190      7100      1664      1674      7191      7101      2286     18495
 -2     18496     17787      2256      2288     18501     17793      2289     18502     18503     17794
 -1      2320    4    0    1
 -2      1664      1674      7191      7101      1665      1675      7192      7102      2289     18502
 -2     18503     17794      2259      2291     18508     17800      2292     18509     18510     17801
 -1      2321    4    0    1
 -2      1665      1675      7192      7102       178       179      4928      4919      2292     18509
 -2     18510     17801      2262      2294     18515     17807       208      5469      5470      5440
 -1      2322    4    0    1
 -2       522       531       532       523      7093      7183      7193      7103      1073      1075
 -2      1076      1046     17737     18445     18519     17811     18447     18520     18521     17812
 -1      2323    4    0    1
 -2      7093      7183      7193      7103      7094      7184      7194      7104     18447     18520
 -2     18521     17812     17744     18452     18526     17818     18454     18527     18528     17819
 -1      2324    4    0    1
 -2      7094      7184      7194      7104      7095      7185      7195      7105     18454     18527
 -2     18528     17819     17751     18459     18533     17825     18461     18534     18535     17826
 -1      2325    4    0    1
 -2      7095      7185      7195      7105      7096      7186      7196      7106     18461     18534
 -2     18535     17826     17758     18466     18540     17832     18468     18541     18542     17833
 -1      2326    4    0    1
 -2      7096      7186      7196      7106      7097      7187      7197      7107     18468     18541
 -2     18542     17833     17765     18473     18547     17839     18475     18548     18549     17840
 -1      2327    4    0    1
 -2      7097      7187      7197      7107      7098      7188      7198      7108     18475     18548
 -2     18549     17840     17772     18480     18554     17846     18482     18555     18556     17847
 -1      2328    4    0    1
 -2      7098      7188      7198      7108      7099      7189      7199      7109     18482     18555
 -2     18556     17847     17779     18487     18561     17853     18489     18562     18563     17854
 -1      2329    4    0    1
 -2      7099      7189      7199      7109      7100      7190      7200      7110     18489     18562
 -2     18563     17854     17786     18494     18568     17860     18496     18569     18570     17861
 -1      2330    4    0    1
 -2      7100      7190      7200      7110      7101      7191      7201      7111     18496     18569
 -2     18570     17861     17793     18501     18575     17867     18503     18576     18577     17868
 -1      2331    4    0    1
 -2      7101      7191      7201      7111      7102      7192      7202      7112     18503     18576
 -2     18577     17868     17800     18508     18582     17874     18510     18583     18584     17875
 -1      2332    4    0    1
 -2      7102      7192      7202      7112      4919      4928      4929      4920     18510     18583
 -2     18584     17875     17807     18515     18589     17881      5470      5472      5473      5443
 -1      2333    4    0    1
 -2       523       532       533       524      7103      7193      7203      7113      1076      1078
 -2      1079      1049     17811     18519     18593     17885     18521     18594     18595     17886
 -1      2334    4    0    1
 -2      7103      7193      7203      7113      7104      7194      7204      7114     18521     18594
 -2     18595     17886     17818     18526     18600     17892     18528     18601     18602     17893
 -1      2335    4    0    1
 -2      7104      7194      7204      7114      7105      7195      7205      7115     18528     18601
 -2     18602     17893     17825     18533     18607     17899     18535     18608     18609     17900
 -1      2336    4    0    1
 -2      7105      7195      7205      7115      7106      7196      7206      7116     18535     18608
 -2     18609     17900     17832     18540     18614     17906     18542     18615     18616     17907
 -1      2337    4    0    1
 -2      7106      7196      7206      7116      7107      7197      7207      7117     18542     18615
 -2     18616     17907     17839     18547     18621     17913     18549     18622     18623     17914
 -1      2338    4    0    1
 -2      7107      7197      7207      7117      7108      7198      7208      7118     18549     18622
 -2     18623     17914     17846     18554     18628     17920     18556     18629     18630     17921
 -1      2339    4    0    1
 -2      7108      7198      7208      7118      7109      7199      7209      7119     18556     18629
 -2     18630     17921     17853     18561     18635     17927     18563     18636     18637     17928
 -1      2340    4    0    1
 -2      7109      7199      7209      7119      7110      7200      7210      7120     18563     18636
 -2     18637     17928     17860     18568     18642     17934     18570     18643     18644     17935
 -1      2341    4    0    1
 -2      7110      7200      7210      7120      7111      7201      7211      7121     18570     18643
 -2     18644     17935     17867     18575     18649     17941     18577     18650     18651     17942
 -1      2342    4    0    1
 -2      7111      7201      7211      7121      7112      7202      7212      7122     18577     18650
 -2     18651     17942     17874     18582     18656     17948     18584     18657     18658     17949
 -1      2343    4    0    1
 -2      7112      7202      7212      7122      4920      4929      4930      4921     18584     18657
 -2     18658     17949     17881     18589     18663     17955      5473      5475      5476      5446
 -1      2344    4    0    1
 -2       524       533       534       525      7113      7203      7213      7123      1079      1081
 -2      1082      1052     17885     18593     18667     17959     18595     18668     18669     17960
 -1      2345    4    0    1
 -2      7113      7203      7213      7123      7114      7204      7214      7124     18595     18668
 -2     18669     17960     17892     18600     18674     17966     18602     18675     18676     17967
 -1      2346    4    0    1
 -2      7114      7204      7214      7124      7115      7205      7215      7125     18602     18675
 -2     18676     17967     17899     18607     18681     17973     18609     18682     18683     17974
 -1      2347    4    0    1
 -2      7115      7205      7215      7125      7116      7206      7216      7126     18609     18682
 -2     18683     17974     17906     18614     18688     17980     18616     18689     18690     17981
 -1      2348    4    0    1
 -2      7116      7206      7216      7126      7117      7207      7217      7127     18616     18689
 -2     18690     17981     17913     18621     18695     17987     18623     18696     18697     17988
 -1      2349    4    0    1
 -2      7117      7207      7217      7127      7118      7208      7218      7128     18623     18696
 -2     18697     17988     17920     18628     18702     17994     18630     18703     18704     17995
 -1      2350    4    0    1
 -2      7118      7208      7218      7128      7119      7209      7219      7129     18630     18703
 -2     18704     17995     17927     18635     18709     18001     18637     18710     18711     18002
 -1      2351    4    0    1
 -2      7119      7209      7219      7129      7120      7210      7220      7130     18637     18710
 -2     18711     18002     17934     18642     18716     18008     18644     18717     18718     18009
 -1      2352    4    0    1
 -2      7120      7210      7220      7130      7121      7211      7221      7131     18644     18717
 -2     18718     18009     17941     18649     18723     18015     18651     18724     18725     18016
 -1      2353    4    0    1
 -2      7121      7211      7221      7131      7122      7212      7222      7132     18651     18724
 -2     18725     18016     17948     18656     18730     18022     18658     18731     18732     18023
 -1      2354    4    0    1
 -2      7122      7212      7222      7132      4921      4930      4931      4922     18658     18731
 -2     18732     18023     17955     18663     18737     18029      5476      5478      5479      5449
 -1      2355    4    0    1
 -2       525       534       535       526      7123      7213      7223      7133      1082      1084
 -2      1085      1055     17959     18667     18741     18033     18669     18742     18743     18034
 -1      2356    4    0    1
 -2      7123      7213      7223      7133      7124      7214      7224      7134     18669     18742
 -2     18743     18034     17966     18674     18748     18040     18676     18749     18750     18041
 -1      2357    4    0    1
 -2      7124      7214      7224      7134      7125      7215      7225      7135     18676     18749
 -2     18750     18041     17973     18681     18755     18047     18683     18756     18757     18048
 -1      2358    4    0    1
 -2      7125      7215      7225      7135      7126      7216      7226      7136     18683     18756
 -2     18757     18048     17980     18688     18762     18054     18690     18763     18764     18055
 -1      2359    4    0    1
 -2      7126      7216      7226      7136      7127      7217      7227      7137     18690     18763
 -2     18764     18055     17987     18695     18769     18061     18697     18770     18771     18062
 -1      2360    4    0    1
 -2      7127      7217      7227      7137      7128      7218      7228      7138     18697     18770
 -2     18771     18062     17994     18702     18776     18068     18704     18777     18778     18069
 -1      2361    4    0    1
 -2      7128      7218      7228      7138      7129      7219      7229      7139     18704     18777
 -2     18778     18069     18001     18709     18783     18075     18711     18784     18785     18076
 -1      2362    4    0    1
 -2      7129      7219      7229      7139      7130      7220      7230      7140     18711     18784
 -2     18785     18076     18008     18716     18790     18082     18718     18791     18792     18083
 -1      2363    4    0    1
 -2      7130      7220      7230      7140      7131      7221      7231      7141     18718     18791
 -2     18792     18083     18015     18723     18797     18089     18725     18798     18799     18090
 -1      2364    4    0    1
 -2      7131      7221      7231      7141      7132      7222      7232      7142     18725     18798
 -2     18799     18090     18022     18730     18804     18096     18732     18805     18806     18097
 -1      2365    4    0    1
 -2      7132      7222      7232      7142      4922      4931      4932      4923     18732     18805
 -2     18806     18097     18029     18737     18811     18103      5479      5481      5482      5452
 -1      2366    4    0    1
 -2       526       535       536       527      7133      7223      7233      7143      1085      1087
 -2      1088      1058     18033     18741     18815     18107     18743     18816     18817     18108
 -1      2367    4    0    1
 -2      7133      7223      7233      7143      7134      7224      7234      7144     18743     18816
 -2     18817     18108     18040     18748     18822     18114     18750     18823     18824     18115
 -1      2368    4    0    1
 -2      7134      7224      7234      7144      7135      7225      7235      7145     18750     18823
 -2     18824     18115     18047     18755     18829     18121     18757     18830     18831     18122
 -1      2369    4    0    1
 -2      7135      7225      7235      7145      7136      7226      7236      7146     18757     18830
 -2     18831     18122     18054     18762     18836     18128     18764     18837     18838     18129
 -1      2370    4    0    1
 -2      7136      7226      7236      7146      7137      7227      7237      7147     18764     18837
 -2     18838     18129     18061     18769     18843     18135     18771     18844     18845     18136
 -1      2371    4    0    1
 -2      7137      7227      7237      7147      7138      7228      7238      7148     18771     18844
 -2     18845     18136     18068     18776     18850     18142     18778     18851     18852     18143
 -1      2372    4    0    1
 -2      7138      7228      7238      7148      7139      7229      7239      7149     18778     18851
 -2     18852     18143     18075     18783     18857     18149     18785     18858     18859     18150
 -1      2373    4    0    1
 -2      7139      7229      7239      7149      7140      7230      7240      7150     18785     18858
 -2     18859     18150     18082     18790     18864     18156     18792     18865     18866     18157
 -1      2374    4    0    1
 -2      7140      7230      7240      7150      7141      7231      7241      7151     18792     18865
 -2     18866     18157     18089     18797     18871     18163     18799     18872     18873     18164
 -1      2375    4    0    1
 -2      7141      7231      7241      7151      7142      7232      7242      7152     18799     18872
 -2     18873     18164     18096     18804     18878     18170     18806     18879     18880     18171
 -1      2376    4    0    1
 -2      7142      7232      7242      7152      4923      4932      4933      4924     18806     18879
 -2     18880     18171     18103     18811     18885     18177      5482      5484      5485      5455
 -1      2377    4    0    1
 -2       527       536       537       528      7143      7233      7243      7153      1088      1090
 -2      1091      1061     18107     18815     18889     18181     18817     18890     18891     18182
 -1      2378    4    0    1
 -2      7143      7233      7243      7153      7144      7234      7244      7154     18817     18890
 -2     18891     18182     18114     18822     18896     18188     18824     18897     18898     18189
 -1      2379    4    0    1
 -2      7144      7234      7244      7154      7145      7235      7245      7155     18824     18897
 -2     18898     18189     18121     18829     18903     18195     18831     18904     18905     18196
 -1      2380    4    0    1
 -2      7145      7235      7245      7155      7146      7236      7246      7156     18831     18904
 -2     18905     18196     18128     18836     18910     18202     18838     18911     18912     18203
 -1      2381    4    0    1
 -2      7146      7236      7246      7156      7147      7237      7247      7157     18838     18911
 -2     18912     18203     18135     18843     18917     18209     18845     18918     18919     18210
 -1      2382    4    0    1
 -2      7147      7237      7247      7157      7148      7238      7248      7158     18845     18918
 -2     18919     18210     18142     18850     18924     18216     18852     18925     18926     18217
 -1      2383    4    0    1
 -2      7148      7238      7248      7158      7149      7239      7249      7159     18852     18925
 -2     18926     18217     18149     18857     18931     18223     18859     18932     18933     18224
 -1      2384    4    0    1
 -2      7149      7239      7249      7159      7150      7240      7250      7160     18859     18932
 -2     18933     18224     18156     18864     18938     18230     18866     18939     18940     18231
 -1      2385    4    0    1
 -2      7150      7240      7250      7160      7151      7241      7251      7161     18866     18939
 -2     18940     18231     18163     18871     18945     18237     18873     18946     18947     18238
 -1      2386    4    0    1
 -2      7151      7241      7251      7161      7152      7242      7252      7162     18873     18946
 -2     18947     18238     18170     18878     18952     18244     18880     18953     18954     18245
 -1      2387    4    0    1
 -2      7152      7242      7252      7162      4924      4933      4934      4925     18880     18953
 -2     18954     18245     18177     18885     18959     18251      5485      5487      5488      5458
 -1      2388    4    0    1
 -2       528       537       538       529      7153      7243      7253      7163      1091      1093
 -2      1094      1064     18181     18889     18963     18255     18891     18964     18965     18256
 -1      2389    4    0    1
 -2      7153      7243      7253      7163      7154      7244      7254      7164     18891     18964
 -2     18965     18256     18188     18896     18970     18262     18898     18971     18972     18263
 -1      2390    4    0    1
 -2      7154      7244      7254      7164      7155      7245      7255      7165     18898     18971
 -2     18972     18263     18195     18903     18977     18269     18905     18978     18979     18270
 -1      2391    4    0    1
 -2      7155      7245      7255      7165      7156      7246      7256      7166     18905     18978
 -2     18979     18270     18202     18910     18984     18276     18912     18985     18986     18277
 -1      2392    4    0    1
 -2      7156      7246      7256      7166      7157      7247      7257      7167     18912     18985
 -2     18986     18277     18209     18917     18991     18283     18919     18992     18993     18284
 -1      2393    4    0    1
 -2      7157      7247      7257      7167      7158      7248      7258      7168     18919     18992
 -2     18993     18284     18216     18924     18998     18290     18926     18999     19000     18291
 -1      2394    4    0    1
 -2      7158      7248      7258      7168      7159      7249      7259      7169     18926     18999
 -2     19000     18291     18223     18931     19005     18297     18933     19006     19007     18298
 -1      2395    4    0    1
 -2      7159      7249      7259      7169      7160      7250      7260      7170     18933     19006
 -2     19007     18298     18230     18938     19012     18304     18940     19013     19014     18305
 -1      2396    4    0    1
 -2      7160      7250      7260      7170      7161      7251      7261      7171     18940     19013
 -2     19014     18305     18237     18945     19019     18311     18947     19020     19021     18312
 -1      2397    4    0    1
 -2      7161      7251      7261      7171      7162      7252      7262      7172     18947     19020
 -2     19021     18312     18244     18952     19026     18318     18954     19027     19028     18319
 -1      2398    4    0    1
 -2      7162      7252      7262      7172      4925      4934      4935      4926     18954     19027
 -2     19028     18319     18251     18959     19033     18325      5488      5490      5491      5461
 -1      2399    4    0    1
 -2       529       538       539       530      7163      7253      7263      7173      1094      1096
 -2      1097      1067     18255     18963     19037     18329     18965     19038     19039     18330
 -1      2400    4    0    1
 -2      7163      7253      7263      7173      7164      7254      7264      7174     18965     19038
 -2     19039     18330     18262     18970     19044     18336     18972     19045     19046     18337
 -1      2401    4    0    1
 -2      7164      7254      7264      7174      7165      7255      7265      7175     18972     19045
 -2     19046     18337     18269     18977     19051     18343     18979     19052     19053     18344
 -1      2402    4    0    1
 -2      7165      7255      7265      7175      7166      7256      7266      7176     18979     19052
 -2     19053     18344     18276     18984     19058     18350     18986     19059     19060     18351
 -1      2403    4    0    1
 -2      7166      7256      7266      7176      7167      7257      7267      7177     18986     19059
 -2     19060     18351     18283     18991     19065     18357     18993     19066     19067     18358
 -1      2404    4    0    1
 -2      7167      7257      7267      7177      7168      7258      7268      7178     18993     19066
 -2     19067     18358     18290     18998     19072     18364     19000     19073     19074     18365
 -1      2405    4    0    1
 -2      7168      7258      7268      7178      7169      7259      7269      7179     19000     19073
 -2     19074     18365     18297     19005     19079     18371     19007     19080     19081     18372
 -1      2406    4    0    1
 -2      7169      7259      7269      7179      7170      7260      7270      7180     19007     19080
 -2     19081     18372     18304     19012     19086     18378     19014     19087     19088     18379
 -1      2407    4    0    1
 -2      7170      7260      7270      7180      7171      7261      7271      7181     19014     19087
 -2     19088     18379     18311     19019     19093     18385     19021     19094     19095     18386
 -1      2408    4    0    1
 -2      7171      7261      7271      7181      7172      7262      7272      7182     19021     19094
 -2     19095     18386     18318     19026     19100     18392     19028     19101     19102     18393
 -1      2409    4    0    1
 -2      7172      7262      7272      7182      4926      4935      4936      4927     19028     19101
 -2     19102     18393     18325     19033     19107     18399      5491      5493      5494      5464
 -1      2410    4    0    1
 -2       530       539       101       102      7173      7263      3304      3314      1097      1099
 -2       131      1070     18329     19037      3902      3934     19039     19111      3935     18403
 -1      2411    4    0    1
 -2      7173      7263      3304      3314      7174      7264      3305      3315     19039     19111
 -2      3935     18403     18336     19044      3905      3937     19046     19115      3938     18407
 -1      2412    4    0    1
 -2      7174      7264      3305      3315      7175      7265      3306      3316     19046     19115
 -2      3938     18407     18343     19051      3908      3940     19053     19119      3941     18411
 -1      2413    4    0    1
 -2      7175      7265      3306      3316      7176      7266      3307      3317     19053     19119
 -2      3941     18411     18350     19058      3911      3943     19060     19123      3944     18415
 -1      2414    4    0    1
 -2      7176      7266      3307      3317      7177      7267      3308      3318     19060     19123
 -2      3944     18415     18357     19065      3914      3946     19067     19127      3947     18419
 -1      2415    4    0    1
 -2      7177      7267      3308      3318      7178      7268      3309      3319     19067     19127
 -2      3947     18419     18364     19072      3917      3949     19074     19131      3950     18423
 -1      2416    4    0    1
 -2      7178      7268      3309      3319      7179      7269      3310      3320     19074     19131
 -2      3950     18423     18371     19079      3920      3952     19081     19135      3953     18427
 -1      2417    4    0    1
 -2      7179      7269      3310      3320      7180      7270      3311      3321     19081     19135
 -2      3953     18427     18378     19086      3923      3955     19088     19139      3956     18431
 -1      2418    4    0    1
 -2      7180      7270      3311      3321      7181      7271      3312      3322     19088     19139
 -2      3956     18431     18385     19093      3926      3958     19095     19143      3959     18435
 -1      2419    4    0    1
 -2      7181      7271      3312      3322      7182      7272      3313      3323     19095     19143
 -2      3959     18435     18392     19100      3929      3961     19102     19147      3962     18439
 -1      2420    4    0    1
 -2      7182      7272      3313      3323      4927      4936       257       258     19102     19147
 -2      3962     18439     18399     19107      3932      3964      5494      5496       287      5467
 -1      2421    4    0    1
 -2        23        24       540       531      1666      1676      7273      7183        53      1101
 -2      1102      1072      2264      2296     19153     18445      2297     19154     19155     18446
 -1      2422    4    0    1
 -2      1666      1676      7273      7183      1667      1677      7274      7184      2297     19154
 -2     19155     18446      2267      2299     19160     18452      2300     19161     19162     18453
 -1      2423    4    0    1
 -2      1667      1677      7274      7184      1668      1678      7275      7185      2300     19161
 -2     19162     18453      2270      2302     19167     18459      2303     19168     19169     18460
 -1      2424    4    0    1
 -2      1668      1678      7275      7185      1669      1679      7276      7186      2303     19168
 -2     19169     18460      2273      2305     19174     18466      2306     19175     19176     18467
 -1      2425    4    0    1
 -2      1669      1679      7276      7186      1670      1680      7277      7187      2306     19175
 -2     19176     18467      2276      2308     19181     18473      2309     19182     19183     18474
 -1      2426    4    0    1
 -2      1670      1680      7277      7187      1671      1681      7278      7188      2309     19182
 -2     19183     18474      2279      2311     19188     18480      2312     19189     19190     18481
 -1      2427    4    0    1
 -2      1671      1681      7278      7188      1672      1682      7279      7189      2312     19189
 -2     19190     18481      2282      2314     19195     18487      2315     19196     19197     18488
 -1      2428    4    0    1
 -2      1672      1682      7279      7189      1673      1683      7280      7190      2315     19196
 -2     19197     18488      2285      2317     19202     18494      2318     19203     19204     18495
 -1      2429    4    0    1
 -2      1673      1683      7280      7190      1674      1684      7281      7191      2318     19203
 -2     19204     18495      2288      2320     19209     18501      2321     19210     19211     18502
 -1      2430    4    0    1
 -2      1674      1684      7281      7191      1675      1685      7282      7192      2321     19210
 -2     19211     18502      2291      2323     19216     18508      2324     19217     19218     18509
 -1      2431    4    0    1
 -2      1675      1685      7282      7192       179       180      4937      4928      2324     19217
 -2     19218     18509      2294      2326     19223     18515       209      5498      5499      5469
 -1      2432    4    0    1
 -2       531       540       541       532      7183      7273      7283      7193      1102      1104
 -2      1105      1075     18445     19153     19227     18519     19155     19228     19229     18520
 -1      2433    4    0    1
 -2      7183      7273      7283      7193      7184      7274      7284      7194     19155     19228
 -2     19229     18520     18452     19160     19234     18526     19162     19235     19236     18527
 -1      2434    4    0    1
 -2      7184      7274      7284      7194      7185      7275      7285      7195     19162     19235
 -2     19236     18527     18459     19167     19241     18533     19169     19242     19243     18534
 -1      2435    4    0    1
 -2      7185      7275      7285      7195      7186      7276      7286      7196     19169     19242
 -2     19243     18534     18466     19174     19248     18540     19176     19249     19250     18541
 -1      2436    4    0    1
 -2      7186      7276      7286      7196      7187      7277      7287      7197     19176     19249
 -2     19250     18541     18473     19181     19255     18547     19183     19256     19257     18548
 -1      2437    4    0    1
 -2      7187      7277      7287      7197      7188      7278      7288      7198     19183     19256
 -2     19257     18548     18480     19188     19262     18554     19190     19263     19264     18555
 -1      2438    4    0    1
 -2      7188      7278      7288      7198      7189      7279      7289      7199     19190     19263
 -2     19264     18555     18487     19195     19269     18561     19197     19270     19271     18562
 -1      2439    4    0    1
 -2      7189      7279      7289      7199      7190      7280      7290      7200     19197     19270
 -2     19271     18562     18494     19202     19276     18568     19204     19277     19278     18569
 -1      2440    4    0    1
 -2      7190      7280      7290      7200      7191      7281      7291      7201     19204     19277
 -2     19278     18569     18501     19209     19283     18575     19211     19284     19285     18576
 -1      2441    4    0    1
 -2      7191      7281      7291      7201      7192      7282      7292      7202     19211     19284
 -2     19285     18576     18508     19216     19290     18582     19218     19291     19292     18583
 -1      2442    4    0    1
 -2      7192      7282      7292      7202      4928      4937      4938      4929     19218     19291
 -2     19292     18583     18515     19223     19297     18589      5499      5501      5502      5472
 -1      2443    4    0    1
 -2       532       541       542       533      7193      7283      7293      7203      1105      1107
 -2      1108      1078     18519     19227     19301     18593     19229     19302     19303     18594
 -1      2444    4    0    1
 -2      7193      7283      7293      7203      7194      7284      7294      7204     19229     19302
 -2     19303     18594     18526     19234     19308     18600     19236     19309     19310     18601
 -1      2445    4    0    1
 -2      7194      7284      7294      7204      7195      7285      7295      7205     19236     19309
 -2     19310     18601     18533     19241     19315     18607     19243     19316     19317     18608
 -1      2446    4    0    1
 -2      7195      7285      7295      7205      7196      7286      7296      7206     19243     19316
 -2     19317     18608     18540     19248     19322     18614     19250     19323     19324     18615
 -1      2447    4    0    1
 -2      7196      7286      7296      7206      7197      7287      7297      7207     19250     19323
 -2     19324     18615     18547     19255     19329     18621     19257     19330     19331     18622
 -1      2448    4    0    1
 -2      7197      7287      7297      7207      7198      7288      7298      7208     19257     19330
 -2     19331     18622     18554     19262     19336     18628     19264     19337     19338     18629
 -1      2449    4    0    1
 -2      7198      7288      7298      7208      7199      7289      7299      7209     19264     19337
 -2     19338     18629     18561     19269     19343     18635     19271     19344     19345     18636
 -1      2450    4    0    1
 -2      7199      7289      7299      7209      7200      7290      7300      7210     19271     19344
 -2     19345     18636     18568     19276     19350     18642     19278     19351     19352     18643
 -1      2451    4    0    1
 -2      7200      7290      7300      7210      7201      7291      7301      7211     19278     19351
 -2     19352     18643     18575     19283     19357     18649     19285     19358     19359     18650
 -1      2452    4    0    1
 -2      7201      7291      7301      7211      7202      7292      7302      7212     19285     19358
 -2     19359     18650     18582     19290     19364     18656     19292     19365     19366     18657
 -1      2453    4    0    1
 -2      7202      7292      7302      7212      4929      4938      4939      4930     19292     19365
 -2     19366     18657     18589     19297     19371     18663      5502      5504      5505      5475
 -1      2454    4    0    1
 -2       533       542       543       534      7203      7293      7303      7213      1108      1110
 -2      1111      1081     18593     19301     19375     18667     19303     19376     19377     18668
 -1      2455    4    0    1
 -2      7203      7293      7303      7213      7204      7294      7304      7214     19303     19376
 -2     19377     18668     18600     19308     19382     18674     19310     19383     19384     18675
 -1      2456    4    0    1
 -2      7204      7294      7304      7214      7205      7295      7305      7215     19310     19383
 -2     19384     18675     18607     19315     19389     18681     19317     19390     19391     18682
 -1      2457    4    0    1
 -2      7205      7295      7305      7215      7206      7296      7306      7216     19317     19390
 -2     19391     18682     18614     19322     19396     18688     19324     19397     19398     18689
 -1      2458    4    0    1
 -2      7206      7296      7306      7216      7207      7297      7307      7217     19324     19397
 -2     19398     18689     18621     19329     19403     18695     19331     19404     19405     18696
 -1      2459    4    0    1
 -2      7207      7297      7307      7217      7208      7298      7308      7218     19331     19404
 -2     19405     18696     18628     19336     19410     18702     19338     19411     19412     18703
 -1      2460    4    0    1
 -2      7208      7298      7308      7218      7209      7299      7309      7219     19338     19411
 -2     19412     18703     18635     19343     19417     18709     19345     19418     19419     18710
 -1      2461    4    0    1
 -2      7209      7299      7309      7219      7210      7300      7310      7220     19345     19418
 -2     19419     18710     18642     19350     19424     18716     19352     19425     19426     18717
 -1      2462    4    0    1
 -2      7210      7300      7310      7220      7211      7301      7311      7221     19352     19425
 -2     19426     18717     18649     19357     19431     18723     19359     19432     19433     18724
 -1      2463    4    0    1
 -2      7211      7301      7311      7221      7212      7302      7312      7222     19359     19432
 -2     19433     18724     18656     19364     19438     18730     19366     19439     19440     18731
 -1      2464    4    0    1
 -2      7212      7302      7312      7222      4930      4939      4940      4931     19366     19439
 -2     19440     18731     18663     19371     19445     18737      5505      5507      5508      5478
 -1      2465    4    0    1
 -2       534       543       544       535      7213      7303      7313      7223      1111      1113
 -2      1114      1084     18667     19375     19449     18741     19377     19450     19451     18742
 -1      2466    4    0    1
 -2      7213      7303      7313      7223      7214      7304      7314      7224     19377     19450
 -2     19451     18742     18674     19382     19456     18748     19384     19457     19458     18749
 -1      2467    4    0    1
 -2      7214      7304      7314      7224      7215      7305      7315      7225     19384     19457
 -2     19458     18749     18681     19389     19463     18755     19391     19464     19465     18756
 -1      2468    4    0    1
 -2      7215      7305      7315      7225      7216      7306      7316      7226     19391     19464
 -2     19465     18756     18688     19396     19470     18762     19398     19471     19472     18763
 -1      2469    4    0    1
 -2      7216      7306      7316      7226      7217      7307      7317      7227     19398     19471
 -2     19472     18763     18695     19403     19477     18769     19405     19478     19479     18770
 -1      2470    4    0    1
 -2      7217      7307      7317      7227      7218      7308      7318      7228     19405     19478
 -2     19479     18770     18702     19410     19484     18776     19412     19485     19486     18777
 -1      2471    4    0    1
 -2      7218      7308      7318      7228      7219      7309      7319      7229     19412     19485
 -2     19486     18777     18709     19417     19491     18783     19419     19492     19493     18784
 -1      2472    4    0    1
 -2      7219      7309      7319      7229      7220      7310      7320      7230     19419     19492
 -2     19493     18784     18716     19424     19498     18790     19426     19499     19500     18791
 -1      2473    4    0    1
 -2      7220      7310      7320      7230      7221      7311      7321      7231     19426     19499
 -2     19500     18791     18723     19431     19505     18797     19433     19506     19507     18798
 -1      2474    4    0    1
 -2      7221      7311      7321      7231      7222      7312      7322      7232     19433     19506
 -2     19507     18798     18730     19438     19512     18804     19440     19513     19514     18805
 -1      2475    4    0    1
 -2      7222      7312      7322      7232      4931      4940      4941      4932     19440     19513
 -2     19514     18805     18737     19445     19519     18811      5508      5510      5511      5481
 -1      2476    4    0    1
 -2       535       544       545       536      7223      7313      7323      7233      1114      1116
 -2      1117      1087     18741     19449     19523     18815     19451     19524     19525     18816
 -1      2477    4    0    1
 -2      7223      7313      7323      7233      7224      7314      7324      7234     19451     19524
 -2     19525     18816     18748     19456     19530     18822     19458     19531     19532     18823
 -1      2478    4    0    1
 -2      7224      7314      7324      7234      7225      7315      7325      7235     19458     19531
 -2     19532     18823     18755     19463     19537     18829     19465     19538     19539     18830
 -1      2479    4    0    1
 -2      7225      7315      7325      7235      7226      7316      7326      7236     19465     19538
 -2     19539     18830     18762     19470     19544     18836     19472     19545     19546     18837
 -1      2480    4    0    1
 -2      7226      7316      7326      7236      7227      7317      7327      7237     19472     19545
 -2     19546     18837     18769     19477     19551     18843     19479     19552     19553     18844
 -1      2481    4    0    1
 -2      7227      7317      7327      7237      7228      7318      7328      7238     19479     19552
 -2     19553     18844     18776     19484     19558     18850     19486     19559     19560     18851
 -1      2482    4    0    1
 -2      7228      7318      7328      7238      7229      7319      7329      7239     19486     19559
 -2     19560     18851     18783     19491     19565     18857     19493     19566     19567     18858
 -1      2483    4    0    1
 -2      7229      7319      7329      7239      7230      7320      7330      7240     19493     19566
 -2     19567     18858     18790     19498     19572     18864     19500     19573     19574     18865
 -1      2484    4    0    1
 -2      7230      7320      7330      7240      7231      7321      7331      7241     19500     19573
 -2     19574     18865     18797     19505     19579     18871     19507     19580     19581     18872
 -1      2485    4    0    1
 -2      7231      7321      7331      7241      7232      7322      7332      7242     19507     19580
 -2     19581     18872     18804     19512     19586     18878     19514     19587     19588     18879
 -1      2486    4    0    1
 -2      7232      7322      7332      7242      4932      4941      4942      4933     19514     19587
 -2     19588     18879     18811     19519     19593     18885      5511      5513      5514      5484
 -1      2487    4    0    1
 -2       536       545       546       537      7233      7323      7333      7243      1117      1119
 -2      1120      1090     18815     19523     19597     18889     19525     19598     19599     18890
 -1      2488    4    0    1
 -2      7233      7323      7333      7243      7234      7324      7334      7244     19525     19598
 -2     19599     18890     18822     19530     19604     18896     19532     19605     19606     18897
 -1      2489    4    0    1
 -2      7234      7324      7334      7244      7235      7325      7335      7245     19532     19605
 -2     19606     18897     18829     19537     19611     18903     19539     19612     19613     18904
 -1      2490    4    0    1
 -2      7235      7325      7335      7245      7236      7326      7336      7246     19539     19612
 -2     19613     18904     18836     19544     19618     18910     19546     19619     19620     18911
 -1      2491    4    0    1
 -2      7236      7326      7336      7246      7237      7327      7337      7247     19546     19619
 -2     19620     18911     18843     19551     19625     18917     19553     19626     19627     18918
 -1      2492    4    0    1
 -2      7237      7327      7337      7247      7238      7328      7338      7248     19553     19626
 -2     19627     18918     18850     19558     19632     18924     19560     19633     19634     18925
 -1      2493    4    0    1
 -2      7238      7328      7338      7248      7239      7329      7339      7249     19560     19633
 -2     19634     18925     18857     19565     19639     18931     19567     19640     19641     18932
 -1      2494    4    0    1
 -2      7239      7329      7339      7249      7240      7330      7340      7250     19567     19640
 -2     19641     18932     18864     19572     19646     18938     19574     19647     19648     18939
 -1      2495    4    0    1
 -2      7240      7330      7340      7250      7241      7331      7341      7251     19574     19647
 -2     19648     18939     18871     19579     19653     18945     19581     19654     19655     18946
 -1      2496    4    0    1
 -2      7241      7331      7341      7251      7242      7332      7342      7252     19581     19654
 -2     19655     18946     18878     19586     19660     18952     19588     19661     19662     18953
 -1      2497    4    0    1
 -2      7242      7332      7342      7252      4933      4942      4943      4934     19588     19661
 -2     19662     18953     18885     19593     19667     18959      5514      5516      5517      5487
 -1      2498    4    0    1
 -2       537       546       547       538      7243      7333      7343      7253      1120      1122
 -2      1123      1093     18889     19597     19671     18963     19599     19672     19673     18964
 -1      2499    4    0    1
 -2      7243      7333      7343      7253      7244      7334      7344      7254     19599     19672
 -2     19673     18964     18896     19604     19678     18970     19606     19679     19680     18971
 -1      2500    4    0    1
 -2      7244      7334      7344      7254      7245      7335      7345      7255     19606     19679
 -2     19680     18971     18903     19611     19685     18977     19613     19686     19687     18978
 -1      2501    4    0    1
 -2      7245      7335      7345      7255      7246      7336      7346      7256     19613     19686
 -2     19687     18978     18910     19618     19692     18984     19620     19693     19694     18985
 -1      2502    4    0    1
 -2      7246      7336      7346      7256      7247      7337      7347      7257     19620     19693
 -2     19694     18985     18917     19625     19699     18991     19627     19700     19701     18992
 -1      2503    4    0    1
 -2      7247      7337      7347      7257      7248      7338      7348      7258     19627     19700
 -2     19701     18992     18924     19632     19706     18998     19634     19707     19708     18999
 -1      2504    4    0    1
 -2      7248      7338      7348      7258      7249      7339      7349      7259     19634     19707
 -2     19708     18999     18931     19639     19713     19005     19641     19714     19715     19006
 -1      2505    4    0    1
 -2      7249      7339      7349      7259      7250      7340      7350      7260     19641     19714
 -2     19715     19006     18938     19646     19720     19012     19648     19721     19722     19013
 -1      2506    4    0    1
 -2      7250      7340      7350      7260      7251      7341      7351      7261     19648     19721
 -2     19722     19013     18945     19653     19727     19019     19655     19728     19729     19020
 -1      2507    4    0    1
 -2      7251      7341      7351      7261      7252      7342      7352      7262     19655     19728
 -2     19729     19020     18952     19660     19734     19026     19662     19735     19736     19027
 -1      2508    4    0    1
 -2      7252      7342      7352      7262      4934      4943      4944      4935     19662     19735
 -2     19736     19027     18959     19667     19741     19033      5517      5519      5520      5490
 -1      2509    4    0    1
 -2       538       547       548       539      7253      7343      7353      7263      1123      1125
 -2      1126      1096     18963     19671     19745     19037     19673     19746     19747     19038
 -1      2510    4    0    1
 -2      7253      7343      7353      7263      7254      7344      7354      7264     19673     19746
 -2     19747     19038     18970     19678     19752     19044     19680     19753     19754     19045
 -1      2511    4    0    1
 -2      7254      7344      7354      7264      7255      7345      7355      7265     19680     19753
 -2     19754     19045     18977     19685     19759     19051     19687     19760     19761     19052
 -1      2512    4    0    1
 -2      7255      7345      7355      7265      7256      7346      7356      7266     19687     19760
 -2     19761     19052     18984     19692     19766     19058     19694     19767     19768     19059
 -1      2513    4    0    1
 -2      7256      7346      7356      7266      7257      7347      7357      7267     19694     19767
 -2     19768     19059     18991     19699     19773     19065     19701     19774     19775     19066
 -1      2514    4    0    1
 -2      7257      7347      7357      7267      7258      7348      7358      7268     19701     19774
 -2     19775     19066     18998     19706     19780     19072     19708     19781     19782     19073
 -1      2515    4    0    1
 -2      7258      7348      7358      7268      7259      7349      7359      7269     19708     19781
 -2     19782     19073     19005     19713     19787     19079     19715     19788     19789     19080
 -1      2516    4    0    1
 -2      7259      7349      7359      7269      7260      7350      7360      7270     19715     19788
 -2     19789     19080     19012     19720     19794     19086     19722     19795     19796     19087
 -1      2517    4    0    1
 -2      7260      7350      7360      7270      7261      7351      7361      7271     19722     19795
 -2     19796     19087     19019     19727     19801     19093     19729     19802     19803     19094
 -1      2518    4    0    1
 -2      7261      7351      7361      7271      7262      7352      7362      7272     19729     19802
 -2     19803     19094     19026     19734     19808     19100     19736     19809     19810     19101
 -1      2519    4    0    1
 -2      7262      7352      7362      7272      4935      4944      4945      4936     19736     19809
 -2     19810     19101     19033     19741     19815     19107      5520      5522      5523      5493
 -1      2520    4    0    1
 -2       539       548       100       101      7263      7353      3294      3304      1126      1128
 -2       130      1099     19037     19745      3870      3902     19747     19819      3903     19111
 -1      2521    4    0    1
 -2      7263      7353      3294      3304      7264      7354      3295      3305     19747     19819
 -2      3903     19111     19044     19752      3873      3905     19754     19823      3906     19115
 -1      2522    4    0    1
 -2      7264      7354      3295      3305      7265      7355      3296      3306     19754     19823
 -2      3906     19115     19051     19759      3876      3908     19761     19827      3909     19119
 -1      2523    4    0    1
 -2      7265      7355      3296      3306      7266      7356      3297      3307     19761     19827
 -2      3909     19119     19058     19766      3879      3911     19768     19831      3912     19123
 -1      2524    4    0    1
 -2      7266      7356      3297      3307      7267      7357      3298      3308     19768     19831
 -2      3912     19123     19065     19773      3882      3914     19775     19835      3915     19127
 -1      2525    4    0    1
 -2      7267      7357      3298      3308      7268      7358      3299      3309     19775     19835
 -2      3915     19127     19072     19780      3885      3917     19782     19839      3918     19131
 -1      2526    4    0    1
 -2      7268      7358      3299      3309      7269      7359      3300      3310     19782     19839
 -2      3918     19131     19079     19787      3888      3920     19789     19843      3921     19135
 -1      2527    4    0    1
 -2      7269      7359      3300      3310      7270      7360      3301      3311     19789     19843
 -2      3921     19135     19086     19794      3891      3923     19796     19847      3924     19139
 -1      2528    4    0    1
 -2      7270      7360      3301      3311      7271      7361      3302      3312     19796     19847
 -2      3924     19139     19093     19801      3894      3926     19803     19851      3927     19143
 -1      2529    4    0    1
 -2      7271      7361      3302      3312      7272      7362      3303      3313     19803     19851
 -2      3927     19143     19100     19808      3897      3929     19810     19855      3930     19147
 -1      2530    4    0    1
 -2      7272      7362      3303      3313      4936      4945       256       257     19810     19855
 -2      3930     19147     19107     19815      3900      3932      5523      5525       286      5496
 -1      2531    4    0    1
 -2        24        25       549       540      1676      1686      7363      7273        54      1130
 -2      1131      1101      2296      2328     19861     19153      2329     19862     19863     19154
 -1      2532    4    0    1
 -2      1676      1686      7363      7273      1677      1687      7364      7274      2329     19862
 -2     19863     19154      2299      2331     19868     19160      2332     19869     19870     19161
 -1      2533    4    0    1
 -2      1677      1687      7364      7274      1678      1688      7365      7275      2332     19869
 -2     19870     19161      2302      2334     19875     19167      2335     19876     19877     19168
 -1      2534    4    0    1
 -2      1678      1688      7365      7275      1679      1689      7366      7276      2335     19876
 -2     19877     19168      2305      2337     19882     19174      2338     19883     19884     19175
 -1      2535    4    0    1
 -2      1679      1689      7366      7276      1680      1690      7367      7277      2338     19883
 -2     19884     19175      2308      2340     19889     19181      2341     19890     19891     19182
 -1      2536    4    0    1
 -2      1680      1690      7367      7277      1681      1691      7368      7278      2341     19890
 -2     19891     19182      2311      2343     19896     19188      2344     19897     19898     19189
 -1      2537    4    0    1
 -2      1681      1691      7368      7278      1682      1692      7369      7279      2344     19897
 -2     19898     19189      2314      2346     19903     19195      2347     19904     19905     19196
 -1      2538    4    0    1
 -2      1682      1692      7369      7279      1683      1693      7370      7280      2347     19904
 -2     19905     19196      2317      2349     19910     19202      2350     19911     19912     19203
 -1      2539    4    0    1
 -2      1683      1693      7370      7280      1684      1694      7371      7281      2350     19911
 -2     19912     19203      2320      2352     19917     19209      2353     19918     19919     19210
 -1      2540    4    0    1
 -2      1684      1694      7371      7281      1685      1695      7372      7282      2353     19918
 -2     19919     19210      2323      2355     19924     19216      2356     19925     19926     19217
 -1      2541    4    0    1
 -2      1685      1695      7372      7282       180       181      4946      4937      2356     19925
 -2     19926     19217      2326      2358     19931     19223       210      5527      5528      5498
 -1      2542    4    0    1
 -2       540       549       550       541      7273      7363      7373      7283      1131      1133
 -2      1134      1104     19153     19861     19935     19227     19863     19936     19937     19228
 -1      2543    4    0    1
 -2      7273      7363      7373      7283      7274      7364      7374      7284     19863     19936
 -2     19937     19228     19160     19868     19942     19234     19870     19943     19944     19235
 -1      2544    4    0    1
 -2      7274      7364      7374      7284      7275      7365      7375      7285     19870     19943
 -2     19944     19235     19167     19875     19949     19241     19877     19950     19951     19242
 -1      2545    4    0    1
 -2      7275      7365      7375      7285      7276      7366      7376      7286     19877     19950
 -2     19951     19242     19174     19882     19956     19248     19884     19957     19958     19249
 -1      2546    4    0    1
 -2      7276      7366      7376      7286      7277      7367      7377      7287     19884     19957
 -2     19958     19249     19181     19889     19963     19255     19891     19964     19965     19256
 -1      2547    4    0    1
 -2      7277      7367      7377      7287      7278      7368      7378      7288     19891     19964
 -2     19965     19256     19188     19896     19970     19262     19898     19971     19972     19263
 -1      2548    4    0    1
 -2      7278      7368      7378      7288      7279      7369      7379      7289     19898     19971
 -2     19972     19263     19195     19903     19977     19269     19905     19978     19979     19270
 -1      2549    4    0    1
 -2      7279      7369      7379      7289      7280      7370      7380      7290     19905     19978
 -2     19979     19270     19202     19910     19984     19276     19912     19985     19986     19277
 -1      2550    4    0    1
 -2      7280      7370      7380      7290      7281      7371      7381      7291     19912     19985
 -2     19986     19277     19209     19917     19991     19283     19919     19992     19993     19284
 -1      2551    4    0    1
 -2      7281      7371      7381      7291      7282      7372      7382      7292     19919     19992
 -2     19993     19284     19216     19924     19998     19290     19926     19999     20000     19291
 -1      2552    4    0    1
 -2      7282      7372      7382      7292      4937      4946      4947      4938     19926     19999
 -2     20000     19291     19223     19931     20005     19297      5528      5530      5531      5501
 -1      2553    4    0    1
 -2       541       550       551       542      7283      7373      7383      7293      1134      1136
 -2      1137      1107     19227     19935     20009     19301     19937     20010     20011     19302
 -1      2554    4    0    1
 -2      7283      7373      7383      7293      7284      7374      7384      7294     19937     20010
 -2     20011     19302     19234     19942     20016     19308     19944     20017     20018     19309
 -1      2555    4    0    1
 -2      7284      7374      7384      7294      7285      7375      7385      7295     19944     20017
 -2     20018     19309     19241     19949     20023     19315     19951     20024     20025     19316
 -1      2556    4    0    1
 -2      7285      7375      7385      7295      7286      7376      7386      7296     19951     20024
 -2     20025     19316     19248     19956     20030     19322     19958     20031     20032     19323
 -1      2557    4    0    1
 -2      7286      7376      7386      7296      7287      7377      7387      7297     19958     20031
 -2     20032     19323     19255     19963     20037     19329     19965     20038     20039     19330
 -1      2558    4    0    1
 -2      7287      7377      7387      7297      7288      7378      7388      7298     19965     20038
 -2     20039     19330     19262     19970     20044     19336     19972     20045     20046     19337
 -1      2559    4    0    1
 -2      7288      7378      7388      7298      7289      7379      7389      7299     19972     20045
 -2     20046     19337     19269     19977     20051     19343     19979     20052     20053     19344
 -1      2560    4    0    1
 -2      7289      7379      7389      7299      7290      7380      7390      7300     19979     20052
 -2     20053     19344     19276     19984     20058     19350     19986     20059     20060     19351
 -1      2561    4    0    1
 -2      7290      7380      7390      7300      7291      7381      7391      7301     19986     20059
 -2     20060     19351     19283     19991     20065     19357     19993     20066     20067     19358
 -1      2562    4    0    1
 -2      7291      7381      7391      7301      7292      7382      7392      7302     19993     20066
 -2     20067     19358     19290     19998     20072     19364     20000     20073     20074     19365
 -1      2563    4    0    1
 -2      7292      7382      7392      7302      4938      4947      4948      4939     20000     20073
 -2     20074     19365     19297     20005     20079     19371      5531      5533      5534      5504
 -1      2564    4    0    1
 -2       542       551       552       543      7293      7383      7393      7303      1137      1139
 -2      1140      1110     19301     20009     20083     19375     20011     20084     20085     19376
 -1      2565    4    0    1
 -2      7293      7383      7393      7303      7294      7384      7394      7304     20011     20084
 -2     20085     19376     19308     20016     20090     19382     20018     20091     20092     19383
 -1      2566    4    0    1
 -2      7294      7384      7394      7304      7295      7385      7395      7305     20018     20091
 -2     20092     19383     19315     20023     20097     19389     20025     20098     20099     19390
 -1      2567    4    0    1
 -2      7295      7385      7395      7305      7296      7386      7396      7306     20025     20098
 -2     20099     19390     19322     20030     20104     19396     20032     20105     20106     19397
 -1      2568    4    0    1
 -2      7296      7386      7396      7306      7297      7387      7397      7307     20032     20105
 -2     20106     19397     19329     20037     20111     19403     20039     20112     20113     19404
 -1      2569    4    0    1
 -2      7297      7387      7397      7307      7298      7388      7398      7308     20039     20112
 -2     20113     19404     19336     20044     20118     19410     20046     20119     20120     19411
 -1      2570    4    0    1
 -2      7298      7388      7398      7308      7299      7389      7399      7309     20046     20119
 -2     20120     19411     19343     20051     20125     19417     20053     20126     20127     19418
 -1      2571    4    0    1
 -2      7299      7389      7399      7309      7300      7390      7400      7310     20053     20126
 -2     20127     19418     19350     20058     20132     19424     20060     20133     20134     19425
 -1      2572    4    0    1
 -2      7300      7390      7400      7310      7301      7391      7401      7311     20060     20133
 -2     20134     19425     19357     20065     20139     19431     20067     20140     20141     19432
 -1      2573    4    0    1
 -2      7301      7391      7401      7311      7302      7392      7402      7312     20067     20140
 -2     20141     19432     19364     20072     20146     19438     20074     20147     20148     19439
 -1      2574    4    0    1
 -2      7302      7392      7402      7312      4939      4948      4949      4940     20074     20147
 -2     20148     19439     19371     20079     20153     19445      5534      5536      5537      5507
 -1      2575    4    0    1
 -2       543       552       553       544      7303      7393      7403      7313      1140      1142
 -2      1143      1113     19375     20083     20157     19449     20085     20158     20159     19450
 -1      2576    4    0    1
 -2      7303      7393      7403      7313      7304      7394      7404      7314     20085     20158
 -2     20159     19450     19382     20090     20164     19456     20092     20165     20166     19457
 -1      2577    4    0    1
 -2      7304      7394      7404      7314      7305      7395      7405      7315     20092     20165
 -2     20166     19457     19389     20097     20171     19463     20099     20172     20173     19464
 -1      2578    4    0    1
 -2      7305      7395      7405      7315      7306      7396      7406      7316     20099     20172
 -2     20173     19464     19396     20104     20178     19470     20106     20179     20180     19471
 -1      2579    4    0    1
 -2      7306      7396      7406      7316      7307      7397      7407      7317     20106     20179
 -2     20180     19471     19403     20111     20185     19477     20113     20186     20187     19478
 -1      2580    4    0    1
 -2      7307      7397      7407      7317      7308      7398      7408      7318     20113     20186
 -2     20187     19478     19410     20118     20192     19484     20120     20193     20194     19485
 -1      2581    4    0    1
 -2      7308      7398      7408      7318      7309      7399      7409      7319     20120     20193
 -2     20194     19485     19417     20125     20199     19491     20127     20200     20201     19492
 -1      2582    4    0    1
 -2      7309      7399      7409      7319      7310      7400      7410      7320     20127     20200
 -2     20201     19492     19424     20132     20206     19498     20134     20207     20208     19499
 -1      2583    4    0    1
 -2      7310      7400      7410      7320      7311      7401      7411      7321     20134     20207
 -2     20208     19499     19431     20139     20213     19505     20141     20214     20215     19506
 -1      2584    4    0    1
 -2      7311      7401      7411      7321      7312      7402      7412      7322     20141     20214
 -2     20215     19506     19438     20146     20220     19512     20148     20221     20222     19513
 -1      2585    4    0    1
 -2      7312      7402      7412      7322      4940      4949      4950      4941     20148     20221
 -2     20222     19513     19445     20153     20227     19519      5537      5539      5540      5510
 -1      2586    4    0    1
 -2       544       553       554       545      7313      7403      7413      7323      1143      1145
 -2      1146      1116     19449     20157     20231     19523     20159     20232     20233     19524
 -1      2587    4    0    1
 -2      7313      7403      7413      7323      7314      7404      7414      7324     20159     20232
 -2     20233     19524     19456     20164     20238     19530     20166     20239     20240     19531
 -1      2588    4    0    1
 -2      7314      7404      7414      7324      7315      7405      7415      7325     20166     20239
 -2     20240     19531     19463     20171     20245     19537     20173     20246     20247     19538
 -1      2589    4    0    1
 -2      7315      7405      7415      7325      7316      7406      7416      7326     20173     20246
 -2     20247     19538     19470     20178     20252     19544     20180     20253     20254     19545
 -1      2590    4    0    1
 -2      7316      7406      7416      7326      7317      7407      7417      7327     20180     20253
 -2     20254     19545     19477     20185     20259     19551     20187     20260     20261     19552
 -1      2591    4    0    1
 -2      7317      7407      7417      7327      7318      7408      7418      7328     20187     20260
 -2     20261     19552     19484     20192     20266     19558     20194     20267     20268     19559
 -1      2592    4    0    1
 -2      7318      7408      7418      7328      7319      7409      7419      7329     20194     20267
 -2     20268     19559     19491     20199     20273     19565     20201     20274     20275     19566
 -1      2593    4    0    1
 -2      7319      7409      7419      7329      7320      7410      7420      7330     20201     20274
 -2     20275     19566     19498     20206     20280     19572     20208     20281     20282     19573
 -1      2594    4    0    1
 -2      7320      7410      7420      7330      7321      7411      7421      7331     20208     20281
 -2     20282     19573     19505     20213     20287     19579     20215     20288     20289     19580
 -1      2595    4    0    1
 -2      7321      7411      7421      7331      7322      7412      7422      7332     20215     20288
 -2     20289     19580     19512     20220     20294     19586     20222     20295     20296     19587
 -1      2596    4    0    1
 -2      7322      7412      7422      7332      4941      4950      4951      4942     20222     20295
 -2     20296     19587     19519     20227     20301     19593      5540      5542      5543      5513
 -1      2597    4    0    1
 -2       545       554       555       546      7323      7413      7423      7333      1146      1148
 -2      1149      1119     19523     20231     20305     19597     20233     20306     20307     19598
 -1      2598    4    0    1
 -2      7323      7413      7423      7333      7324      7414      7424      7334     20233     20306
 -2     20307     19598     19530     20238     20312     19604     20240     20313     20314     19605
 -1      2599    4    0    1
 -2      7324      7414      7424      7334      7325      7415      7425      7335     20240     20313
 -2     20314     19605     19537     20245     20319     19611     20247     20320     20321     19612
 -1      2600    4    0    1
 -2      7325      7415      7425      7335      7326      7416      7426      7336     20247     20320
 -2     20321     19612     19544     20252     20326     19618     20254     20327     20328     19619
 -1      2601    4    0    1
 -2      7326      7416      7426      7336      7327      7417      7427      7337     20254     20327
 -2     20328     19619     19551     20259     20333     19625     20261     20334     20335     19626
 -1      2602    4    0    1
 -2      7327      7417      7427      7337      7328      7418      7428      7338     20261     20334
 -2     20335     19626     19558     20266     20340     19632     20268     20341     20342     19633
 -1      2603    4    0    1
 -2      7328      7418      7428      7338      7329      7419      7429      7339     20268     20341
 -2     20342     19633     19565     20273     20347     19639     20275     20348     20349     19640
 -1      2604    4    0    1
 -2      7329      7419      7429      7339      7330      7420      7430      7340     20275     20348
 -2     20349     19640     19572     20280     20354     19646     20282     20355     20356     19647
 -1      2605    4    0    1
 -2      7330      7420      7430      7340      7331      7421      7431      7341     20282     20355
 -2     20356     19647     19579     20287     20361     19653     20289     20362     20363     19654
 -1      2606    4    0    1
 -2      7331      7421      7431      7341      7332      7422      7432      7342     20289     20362
 -2     20363     19654     19586     20294     20368     19660     20296     20369     20370     19661
 -1      2607    4    0    1
 -2      7332      7422      7432      7342      4942      4951      4952      4943     20296     20369
 -2     20370     19661     19593     20301     20375     19667      5543      5545      5546      5516
 -1      2608    4    0    1
 -2       546       555       556       547      7333      7423      7433      7343      1149      1151
 -2      1152      1122     19597     20305     20379     19671     20307     20380     20381     19672
 -1      2609    4    0    1
 -2      7333      7423      7433      7343      7334      7424      7434      7344     20307     20380
 -2     20381     19672     19604     20312     20386     19678     20314     20387     20388     19679
 -1      2610    4    0    1
 -2      7334      7424      7434      7344      7335      7425      7435      7345     20314     20387
 -2     20388     19679     19611     20319     20393     19685     20321     20394     20395     19686
 -1      2611    4    0    1
 -2      7335      7425      7435      7345      7336      7426      7436      7346     20321     20394
 -2     20395     19686     19618     20326     20400     19692     20328     20401     20402     19693
 -1      2612    4    0    1
 -2      7336      7426      7436      7346      7337      7427      7437      7347     20328     20401
 -2     20402     19693     19625     20333     20407     19699     20335     20408     20409     19700
 -1      2613    4    0    1
 -2      7337      7427      7437      7347      7338      7428      7438      7348     20335     20408
 -2     20409     19700     19632     20340     20414     19706     20342     20415     20416     19707
 -1      2614    4    0    1
 -2      7338      7428      7438      7348      7339      7429      7439      7349     20342     20415
 -2     20416     19707     19639     20347     20421     19713     20349     20422     20423     19714
 -1      2615    4    0    1
 -2      7339      7429      7439      7349      7340      7430      7440      7350     20349     20422
 -2     20423     19714     19646     20354     20428     19720     20356     20429     20430     19721
 -1      2616    4    0    1
 -2      7340      7430      7440      7350      7341      7431      7441      7351     20356     20429
 -2     20430     19721     19653     20361     20435     19727     20363     20436     20437     19728
 -1      2617    4    0    1
 -2      7341      7431      7441      7351      7342      7432      7442      7352     20363     20436
 -2     20437     19728     19660     20368     20442     19734     20370     20443     20444     19735
 -1      2618    4    0    1
 -2      7342      7432      7442      7352      4943      4952      4953      4944     20370     20443
 -2     20444     19735     19667     20375     20449     19741      5546      5548      5549      5519
 -1      2619    4    0    1
 -2       547       556       557       548      7343      7433      7443      7353      1152      1154
 -2      1155      1125     19671     20379     20453     19745     20381     20454     20455     19746
 -1      2620    4    0    1
 -2      7343      7433      7443      7353      7344      7434      7444      7354     20381     20454
 -2     20455     19746     19678     20386     20460     19752     20388     20461     20462     19753
 -1      2621    4    0    1
 -2      7344      7434      7444      7354      7345      7435      7445      7355     20388     20461
 -2     20462     19753     19685     20393     20467     19759     20395     20468     20469     19760
 -1      2622    4    0    1
 -2      7345      7435      7445      7355      7346      7436      7446      7356     20395     20468
 -2     20469     19760     19692     20400     20474     19766     20402     20475     20476     19767
 -1      2623    4    0    1
 -2      7346      7436      7446      7356      7347      7437      7447      7357     20402     20475
 -2     20476     19767     19699     20407     20481     19773     20409     20482     20483     19774
 -1      2624    4    0    1
 -2      7347      7437      7447      7357      7348      7438      7448      7358     20409     20482
 -2     20483     19774     19706     20414     20488     19780     20416     20489     20490     19781
 -1      2625    4    0    1
 -2      7348      7438      7448      7358      7349      7439      7449      7359     20416     20489
 -2     20490     19781     19713     20421     20495     19787     20423     20496     20497     19788
 -1      2626    4    0    1
 -2      7349      7439      7449      7359      7350      7440      7450      7360     20423     20496
 -2     20497     19788     19720     20428     20502     19794     20430     20503     20504     19795
 -1      2627    4    0    1
 -2      7350      7440      7450      7360      7351      7441      7451      7361     20430     20503
 -2     20504     19795     19727     20435     20509     19801     20437     20510     20511     19802
 -1      2628    4    0    1
 -2      7351      7441      7451      7361      7352      7442      7452      7362     20437     20510
 -2     20511     19802     19734     20442     20516     19808     20444     20517     20518     19809
 -1      2629    4    0    1
 -2      7352      7442      7452      7362      4944      4953      4954      4945     20444     20517
 -2     20518     19809     19741     20449     20523     19815      5549      5551      5552      5522
 -1      2630    4    0    1
 -2       548       557        99       100      7353      7443      3284      3294      1155      1157
 -2       129      1128     19745     20453      3838      3870     20455     20527      3871     19819
 -1      2631    4    0    1
 -2      7353      7443      3284      3294      7354      7444      3285      3295     20455     20527
 -2      3871     19819     19752     20460      3841      3873     20462     20531      3874     19823
 -1      2632    4    0    1
 -2      7354      7444      3285      3295      7355      7445      3286      3296     20462     20531
 -2      3874     19823     19759     20467      3844      3876     20469     20535      3877     19827
 -1      2633    4    0    1
 -2      7355      7445      3286      3296      7356      7446      3287      3297     20469     20535
 -2      3877     19827     19766     20474      3847      3879     20476     20539      3880     19831
 -1      2634    4    0    1
 -2      7356      7446      3287      3297      7357      7447      3288      3298     20476     20539
 -2      3880     19831     19773     20481      3850      3882     20483     20543      3883     19835
 -1      2635    4    0    1
 -2      7357      7447      3288      3298      7358      7448      3289      3299     20483     20543
 -2      3883     19835     19780     20488      3853      3885     20490     20547      3886     19839
 -1      2636    4    0    1
 -2      7358      7448      3289      3299      7359      7449      3290      3300     20490     20547
 -2      3886     19839     19787     20495      3856      3888     20497     20551      3889     19843
 -1      2637    4    0    1
 -2      7359      7449      3290      3300      7360      7450      3291      3301     20497     20551
 -2      3889     19843     19794     20502      3859      3891     20504     20555      3892     19847
 -1      2638    4    0    1
 -2      7360      7450      3291      3301      7361      7451      3292      3302     20504     20555
 -2      3892     19847     19801     20509      3862      3894     20511     20559      3895     19851
 -1      2639    4    0    1
 -2      7361      7451      3292      3302      7362      7452      3293      3303     20511     20559
 -2      3895     19851     19808     20516      3865      3897     20518     20563      3898     19855
 -1      2640    4    0    1
 -2      7362      7452      3293      3303      4945      4954       255       256     20518     20563
 -2      3898     19855     19815     20523      3868      3900      5552      5554       285      5525
 -1      2641    4    0    1
 -2        25        26       558       549      1686      1696      7453      7363        55      1159
 -2      1160      1130      2328      2360     20569     19861      2361     20570     20571     19862
 -1      2642    4    0    1
 -2      1686      1696      7453      7363      1687      1697      7454      7364      2361     20570
 -2     20571     19862      2331      2363     20576     19868      2364     20577     20578     19869
 -1      2643    4    0    1
 -2      1687      1697      7454      7364      1688      1698      7455      7365      2364     20577
 -2     20578     19869      2334      2366     20583     19875      2367     20584     20585     19876
 -1      2644    4    0    1
 -2      1688      1698      7455      7365      1689      1699      7456      7366      2367     20584
 -2     20585     19876      2337      2369     20590     19882      2370     20591     20592     19883
 -1      2645    4    0    1
 -2      1689      1699      7456      7366      1690      1700      7457      7367      2370     20591
 -2     20592     19883      2340      2372     20597     19889      2373     20598     20599     19890
 -1      2646    4    0    1
 -2      1690      1700      7457      7367      1691      1701      7458      7368      2373     20598
 -2     20599     19890      2343      2375     20604     19896      2376     20605     20606     19897
 -1      2647    4    0    1
 -2      1691      1701      7458      7368      1692      1702      7459      7369      2376     20605
 -2     20606     19897      2346      2378     20611     19903      2379     20612     20613     19904
 -1      2648    4    0    1
 -2      1692      1702      7459      7369      1693      1703      7460      7370      2379     20612
 -2     20613     19904      2349      2381     20618     19910      2382     20619     20620     19911
 -1      2649    4    0    1
 -2      1693      1703      7460      7370      1694      1704      7461      7371      2382     20619
 -2     20620     19911      2352      2384     20625     19917      2385     20626     20627     19918
 -1      2650    4    0    1
 -2      1694      1704      7461      7371      1695      1705      7462      7372      2385     20626
 -2     20627     19918      2355      2387     20632     19924      2388     20633     20634     19925
 -1      2651    4    0    1
 -2      1695      1705      7462      7372       181       182      4955      4946      2388     20633
 -2     20634     19925      2358      2390     20639     19931       211      5556      5557      5527
 -1      2652    4    0    1
 -2       549       558       559       550      7363      7453      7463      7373      1160      1162
 -2      1163      1133     19861     20569     20643     19935     20571     20644     20645     19936
 -1      2653    4    0    1
 -2      7363      7453      7463      7373      7364      7454      7464      7374     20571     20644
 -2     20645     19936     19868     20576     20650     19942     20578     20651     20652     19943
 -1      2654    4    0    1
 -2      7364      7454      7464      7374      7365      7455      7465      7375     20578     20651
 -2     20652     19943     19875     20583     20657     19949     20585     20658     20659     19950
 -1      2655    4    0    1
 -2      7365      7455      7465      7375      7366      7456      7466      7376     20585     20658
 -2     20659     19950     19882     20590     20664     19956     20592     20665     20666     19957
 -1      2656    4    0    1
 -2      7366      7456      7466      7376      7367      7457      7467      7377     20592     20665
 -2     20666     19957     19889     20597     20671     19963     20599     20672     20673     19964
 -1      2657    4    0    1
 -2      7367      7457      7467      7377      7368      7458      7468      7378     20599     20672
 -2     20673     19964     19896     20604     20678     19970     20606     20679     20680     19971
 -1      2658    4    0    1
 -2      7368      7458      7468      7378      7369      7459      7469      7379     20606     20679
 -2     20680     19971     19903     20611     20685     19977     20613     20686     20687     19978
 -1      2659    4    0    1
 -2      7369      7459      7469      7379      7370      7460      7470      7380     20613     20686
 -2     20687     19978     19910     20618     20692     19984     20620     20693     20694     19985
 -1      2660    4    0    1
 -2      7370      7460      7470      7380      7371      7461      7471      7381     20620     20693
 -2     20694     19985     19917     20625     20699     19991     20627     20700     20701     19992
 -1      2661    4    0    1
 -2      7371      7461      7471      7381      7372      7462      7472      7382     20627     20700
 -2     20701     19992     19924     20632     20706     19998     20634     20707     20708     19999
 -1      2662    4    0    1
 -2      7372      7462      7472      7382      4946      4955      4956      4947     20634     20707
 -2     20708     19999     19931     20639     20713     20005      5557      5559      5560      5530
 -1      2663    4    0    1
 -2       550       559       560       551      7373      7463      7473      7383      1163      1165
 -2      1166      1136     19935     20643     20717     20009     20645     20718     20719     20010
 -1      2664    4    0    1
 -2      7373      7463      7473      7383      7374      7464      7474      7384     20645     20718
 -2     20719     20010     19942     20650     20724     20016     20652     20725     20726     20017
 -1      2665    4    0    1
 -2      7374      7464      7474      7384      7375      7465      7475      7385     20652     20725
 -2     20726     20017     19949     20657     20731     20023     20659     20732     20733     20024
 -1      2666    4    0    1
 -2      7375      7465      7475      7385      7376      7466      7476      7386     20659     20732
 -2     20733     20024     19956     20664     20738     20030     20666     20739     20740     20031
 -1      2667    4    0    1
 -2      7376      7466      7476      7386      7377      7467      7477      7387     20666     20739
 -2     20740     20031     19963     20671     20745     20037     20673     20746     20747     20038
 -1      2668    4    0    1
 -2      7377      7467      7477      7387      7378      7468      7478      7388     20673     20746
 -2     20747     20038     19970     20678     20752     20044     20680     20753     20754     20045
 -1      2669    4    0    1
 -2      7378      7468      7478      7388      7379      7469      7479      7389     20680     20753
 -2     20754     20045     19977     20685     20759     20051     20687     20760     20761     20052
 -1      2670    4    0    1
 -2      7379      7469      7479      7389      7380      7470      7480      7390     20687     20760
 -2     20761     20052     19984     20692     20766     20058     20694     20767     20768     20059
 -1      2671    4    0    1
 -2      7380      7470      7480      7390      7381      7471      7481      7391     20694     20767
 -2     20768     20059     19991     20699     20773     20065     20701     20774     20775     20066
 -1      2672    4    0    1
 -2      7381      7471      7481      7391      7382      7472      7482      7392     20701     20774
 -2     20775     20066     19998     20706     20780     20072     20708     20781     20782     20073
 -1      2673    4    0    1
 -2      7382      7472      7482      7392      4947      4956      4957      4948     20708     20781
 -2     20782     20073     20005     20713     20787     20079      5560      5562      5563      5533
 -1      2674    4    0    1
 -2       551       560       561       552      7383      7473      7483      7393      1166      1168
 -2      1169      1139     20009     20717     20791     20083     20719     20792     20793     20084
 -1      2675    4    0    1
 -2      7383      7473      7483      7393      7384      7474      7484      7394     20719     20792
 -2     20793     20084     20016     20724     20798     20090     20726     20799     20800     20091
 -1      2676    4    0    1
 -2      7384      7474      7484      7394      7385      7475      7485      7395     20726     20799
 -2     20800     20091     20023     20731     20805     20097     20733     20806     20807     20098
 -1      2677    4    0    1
 -2      7385      7475      7485      7395      7386      7476      7486      7396     20733     20806
 -2     20807     20098     20030     20738     20812     20104     20740     20813     20814     20105
 -1      2678    4    0    1
 -2      7386      7476      7486      7396      7387      7477      7487      7397     20740     20813
 -2     20814     20105     20037     20745     20819     20111     20747     20820     20821     20112
 -1      2679    4    0    1
 -2      7387      7477      7487      7397      7388      7478      7488      7398     20747     20820
 -2     20821     20112     20044     20752     20826     20118     20754     20827     20828     20119
 -1      2680    4    0    1
 -2      7388      7478      7488      7398      7389      7479      7489      7399     20754     20827
 -2     20828     20119     20051     20759     20833     20125     20761     20834     20835     20126
 -1      2681    4    0    1
 -2      7389      7479      7489      7399      7390      7480      7490      7400     20761     20834
 -2     20835     20126     20058     20766     20840     20132     20768     20841     20842     20133
 -1      2682    4    0    1
 -2      7390      7480      7490      7400      7391      7481      7491      7401     20768     20841
 -2     20842     20133     20065     20773     20847     20139     20775     20848     20849     20140
 -1      2683    4    0    1
 -2      7391      7481      7491      7401      7392      7482      7492      7402     20775     20848
 -2     20849     20140     20072     20780     20854     20146     20782     20855     20856     20147
 -1      2684    4    0    1
 -2      7392      7482      7492      7402      4948      4957      4958      4949     20782     20855
 -2     20856     20147     20079     20787     20861     20153      5563      5565      5566      5536
 -1      2685    4    0    1
 -2       552       561       562       553      7393      7483      7493      7403      1169      1171
 -2      1172      1142     20083     20791     20865     20157     20793     20866     20867     20158
 -1      2686    4    0    1
 -2      7393      7483      7493      7403      7394      7484      7494      7404     20793     20866
 -2     20867     20158     20090     20798     20872     20164     20800     20873     20874     20165
 -1      2687    4    0    1
 -2      7394      7484      7494      7404      7395      7485      7495      7405     20800     20873
 -2     20874     20165     20097     20805     20879     20171     20807     20880     20881     20172
 -1      2688    4    0    1
 -2      7395      7485      7495      7405      7396      7486      7496      7406     20807     20880
 -2     20881     20172     20104     20812     20886     20178     20814     20887     20888     20179
 -1      2689    4    0    1
 -2      7396      7486      7496      7406      7397      7487      7497      7407     20814     20887
 -2     20888     20179     20111     20819     20893     20185     20821     20894     20895     20186
 -1      2690    4    0    1
 -2      7397      7487      7497      7407      7398      7488      7498      7408     20821     20894
 -2     20895     20186     20118     20826     20900     20192     20828     20901     20902     20193
 -1      2691    4    0    1
 -2      7398      7488      7498      7408      7399      7489      7499      7409     20828     20901
 -2     20902     20193     20125     20833     20907     20199     20835     20908     20909     20200
 -1      2692    4    0    1
 -2      7399      7489      7499      7409      7400      7490      7500      7410     20835     20908
 -2     20909     20200     20132     20840     20914     20206     20842     20915     20916     20207
 -1      2693    4    0    1
 -2      7400      7490      7500      7410      7401      7491      7501      7411     20842     20915
 -2     20916     20207     20139     20847     20921     20213     20849     20922     20923     20214
 -1      2694    4    0    1
 -2      7401      7491      7501      7411      7402      7492      7502      7412     20849     20922
 -2     20923     20214     20146     20854     20928     20220     20856     20929     20930     20221
 -1      2695    4    0    1
 -2      7402      7492      7502      7412      4949      4958      4959      4950     20856     20929
 -2     20930     20221     20153     20861     20935     20227      5566      5568      5569      5539
 -1      2696    4    0    1
 -2       553       562       563       554      7403      7493      7503      7413      1172      1174
 -2      1175      1145     20157     20865     20939     20231     20867     20940     20941     20232
 -1      2697    4    0    1
 -2      7403      7493      7503      7413      7404      7494      7504      7414     20867     20940
 -2     20941     20232     20164     20872     20946     20238     20874     20947     20948     20239
 -1      2698    4    0    1
 -2      7404      7494      7504      7414      7405      7495      7505      7415     20874     20947
 -2     20948     20239     20171     20879     20953     20245     20881     20954     20955     20246
 -1      2699    4    0    1
 -2      7405      7495      7505      7415      7406      7496      7506      7416     20881     20954
 -2     20955     20246     20178     20886     20960     20252     20888     20961     20962     20253
 -1      2700    4    0    1
 -2      7406      7496      7506      7416      7407      7497      7507      7417     20888     20961
 -2     20962     20253     20185     20893     20967     20259     20895     20968     20969     20260
 -1      2701    4    0    1
 -2      7407      7497      7507      7417      7408      7498      7508      7418     20895     20968
 -2     20969     20260     20192     20900     20974     20266     20902     20975     20976     20267
 -1      2702    4    0    1
 -2      7408      7498      7508      7418      7409      7499      7509      7419     20902     20975
 -2     20976     20267     20199     20907     20981     20273     20909     20982     20983     20274
 -1      2703    4    0    1
 -2      7409      7499      7509      7419      7410      7500      7510      7420     20909     20982
 -2     20983     20274     20206     20914     20988     20280     20916     20989     20990     20281
 -1      2704    4    0    1
 -2      7410      7500      7510      7420      7411      7501      7511      7421     20916     20989
 -2     20990     20281     20213     20921     20995     20287     20923     20996     20997     20288
 -1      2705    4    0    1
 -2      7411      7501      7511      7421      7412      7502      7512      7422     20923     20996
 -2     20997     20288     20220     20928     21002     20294     20930     21003     21004     20295
 -1      2706    4    0    1
 -2      7412      7502      7512      7422      4950      4959      4960      4951     20930     21003
 -2     21004     20295     20227     20935     21009     20301      5569      5571      5572      5542
 -1      2707    4    0    1
 -2       554       563       564       555      7413      7503      7513      7423      1175      1177
 -2      1178      1148     20231     20939     21013     20305     20941     21014     21015     20306
 -1      2708    4    0    1
 -2      7413      7503      7513      7423      7414      7504      7514      7424     20941     21014
 -2     21015     20306     20238     20946     21020     20312     20948     21021     21022     20313
 -1      2709    4    0    1
 -2      7414      7504      7514      7424      7415      7505      7515      7425     20948     21021
 -2     21022     20313     20245     20953     21027     20319     20955     21028     21029     20320
 -1      2710    4    0    1
 -2      7415      7505      7515      7425      7416      7506      7516      7426     20955     21028
 -2     21029     20320     20252     20960     21034     20326     20962     21035     21036     20327
 -1      2711    4    0    1
 -2      7416      7506      7516      7426      7417      7507      7517      7427     20962     21035
 -2     21036     20327     20259     20967     21041     20333     20969     21042     21043     20334
 -1      2712    4    0    1
 -2      7417      7507      7517      7427      7418      7508      7518      7428     20969     21042
 -2     21043     20334     20266     20974     21048     20340     20976     21049     21050     20341
 -1      2713    4    0    1
 -2      7418      7508      7518      7428      7419      7509      7519      7429     20976     21049
 -2     21050     20341     20273     20981     21055     20347     20983     21056     21057     20348
 -1      2714    4    0    1
 -2      7419      7509      7519      7429      7420      7510      7520      7430     20983     21056
 -2     21057     20348     20280     20988     21062     20354     20990     21063     21064     20355
 -1      2715    4    0    1
 -2      7420      7510      7520      7430      7421      7511      7521      7431     20990     21063
 -2     21064     20355     20287     20995     21069     20361     20997     21070     21071     20362
 -1      2716    4    0    1
 -2      7421      7511      7521      7431      7422      7512      7522      7432     20997     21070
 -2     21071     20362     20294     21002     21076     20368     21004     21077     21078     20369
 -1      2717    4    0    1
 -2      7422      7512      7522      7432      4951      4960      4961      4952     21004     21077
 -2     21078     20369     20301     21009     21083     20375      5572      5574      5575      5545
 -1      2718    4    0    1
 -2       555       564       565       556      7423      7513      7523      7433      1178      1180
 -2      1181      1151     20305     21013     21087     20379     21015     21088     21089     20380
 -1      2719    4    0    1
 -2      7423      7513      7523      7433      7424      7514      7524      7434     21015     21088
 -2     21089     20380     20312     21020     21094     20386     21022     21095     21096     20387
 -1      2720    4    0    1
 -2      7424      7514      7524      7434      7425      7515      7525      7435     21022     21095
 -2     21096     20387     20319     21027     21101     20393     21029     21102     21103     20394
 -1      2721    4    0    1
 -2      7425      7515      7525      7435      7426      7516      7526      7436     21029     21102
 -2     21103     20394     20326     21034     21108     20400     21036     21109     21110     20401
 -1      2722    4    0    1
 -2      7426      7516      7526      7436      7427      7517      7527      7437     21036     21109
 -2     21110     20401     20333     21041     21115     20407     21043     21116     21117     20408
 -1      2723    4    0    1
 -2      7427      7517      7527      7437      7428      7518      7528      7438     21043     21116
 -2     21117     20408     20340     21048     21122     20414     21050     21123     21124     20415
 -1      2724    4    0    1
 -2      7428      7518      7528      7438      7429      7519      7529      7439     21050     21123
 -2     21124     20415     20347     21055     21129     20421     21057     21130     21131     20422
 -1      2725    4    0    1
 -2      7429      7519      7529      7439      7430      7520      7530      7440     21057     21130
 -2     21131     20422     20354     21062     21136     20428     21064     21137     21138     20429
 -1      2726    4    0    1
 -2      7430      7520      7530      7440      7431      7521      7531      7441     21064     21137
 -2     21138     20429     20361     21069     21143     20435     21071     21144     21145     20436
 -1      2727    4    0    1
 -2      7431      7521      7531      7441      7432      7522      7532      7442     21071     21144
 -2     21145     20436     20368     21076     21150     20442     21078     21151     21152     20443
 -1      2728    4    0    1
 -2      7432      7522      7532      7442      4952      4961      4962      4953     21078     21151
 -2     21152     20443     20375     21083     21157     20449      5575      5577      5578      5548
 -1      2729    4    0    1
 -2       556       565       566       557      7433      7523      7533      7443      1181      1183
 -2      1184      1154     20379     21087     21161     20453     21089     21162     21163     20454
 -1      2730    4    0    1
 -2      7433      7523      7533      7443      7434      7524      7534      7444     21089     21162
 -2     21163     20454     20386     21094     21168     20460     21096     21169     21170     20461
 -1      2731    4    0    1
 -2      7434      7524      7534      7444      7435      7525      7535      7445     21096     21169
 -2     21170     20461     20393     21101     21175     20467     21103     21176     21177     20468
 -1      2732    4    0    1
 -2      7435      7525      7535      7445      7436      7526      7536      7446     21103     21176
 -2     21177     20468     20400     21108     21182     20474     21110     21183     21184     20475
 -1      2733    4    0    1
 -2      7436      7526      7536      7446      7437      7527      7537      7447     21110     21183
 -2     21184     20475     20407     21115     21189     20481     21117     21190     21191     20482
 -1      2734    4    0    1
 -2      7437      7527      7537      7447      7438      7528      7538      7448     21117     21190
 -2     21191     20482     20414     21122     21196     20488     21124     21197     21198     20489
 -1      2735    4    0    1
 -2      7438      7528      7538      7448      7439      7529      7539      7449     21124     21197
 -2     21198     20489     20421     21129     21203     20495     21131     21204     21205     20496
 -1      2736    4    0    1
 -2      7439      7529      7539      7449      7440      7530      7540      7450     21131     21204
 -2     21205     20496     20428     21136     21210     20502     21138     21211     21212     20503
 -1      2737    4    0    1
 -2      7440      7530      7540      7450      7441      7531      7541      7451     21138     21211
 -2     21212     20503     20435     21143     21217     20509     21145     21218     21219     20510
 -1      2738    4    0    1
 -2      7441      7531      7541      7451      7442      7532      7542      7452     21145     21218
 -2     21219     20510     20442     21150     21224     20516     21152     21225     21226     20517
 -1      2739    4    0    1
 -2      7442      7532      7542      7452      4953      4962      4963      4954     21152     21225
 -2     21226     20517     20449     21157     21231     20523      5578      5580      5581      5551
 -1      2740    4    0    1
 -2       557       566        98        99      7443      7533      3274      3284      1184      1186
 -2       128      1157     20453     21161      3806      3838     21163     21235      3839     20527
 -1      2741    4    0    1
 -2      7443      7533      3274      3284      7444      7534      3275      3285     21163     21235
 -2      3839     20527     20460     21168      3809      3841     21170     21239      3842     20531
 -1      2742    4    0    1
 -2      7444      7534      3275      3285      7445      7535      3276      3286     21170     21239
 -2      3842     20531     20467     21175      3812      3844     21177     21243      3845     20535
 -1      2743    4    0    1
 -2      7445      7535      3276      3286      7446      7536      3277      3287     21177     21243
 -2      3845     20535     20474     21182      3815      3847     21184     21247      3848     20539
 -1      2744    4    0    1
 -2      7446      7536      3277      3287      7447      7537      3278      3288     21184     21247
 -2      3848     20539     20481     21189      3818      3850     21191     21251      3851     20543
 -1      2745    4    0    1
 -2      7447      7537      3278      3288      7448      7538      3279      3289     21191     21251
 -2      3851     20543     20488     21196      3821      3853     21198     21255      3854     20547
 -1      2746    4    0    1
 -2      7448      7538      3279      3289      7449      7539      3280      3290     21198     21255
 -2      3854     20547     20495     21203      3824      3856     21205     21259      3857     20551
 -1      2747    4    0    1
 -2      7449      7539      3280      3290      7450      7540      3281      3291     21205     21259
 -2      3857     20551     20502     21210      3827      3859     21212     21263      3860     20555
 -1      2748    4    0    1
 -2      7450      7540      3281      3291      7451      7541      3282      3292     21212     21263
 -2      3860     20555     20509     21217      3830      3862     21219     21267      3863     20559
 -1      2749    4    0    1
 -2      7451      7541      3282      3292      7452      7542      3283      3293     21219     21267
 -2      3863     20559     20516     21224      3833      3865     21226     21271      3866     20563
 -1      2750    4    0    1
 -2      7452      7542      3283      3293      4954      4963       254       255     21226     21271
 -2      3866     20563     20523     21231      3836      3868      5581      5583       284      5554
 -1      2751    4    0    1
 -2        26        27       567       558      1696      1706      7543      7453        56      1188
 -2      1189      1159      2360      2392     21277     20569      2393     21278     21279     20570
 -1      2752    4    0    1
 -2      1696      1706      7543      7453      1697      1707      7544      7454      2393     21278
 -2     21279     20570      2363      2395     21284     20576      2396     21285     21286     20577
 -1      2753    4    0    1
 -2      1697      1707      7544      7454      1698      1708      7545      7455      2396     21285
 -2     21286     20577      2366      2398     21291     20583      2399     21292     21293     20584
 -1      2754    4    0    1
 -2      1698      1708      7545      7455      1699      1709      7546      7456      2399     21292
 -2     21293     20584      2369      2401     21298     20590      2402     21299     21300     20591
 -1      2755    4    0    1
 -2      1699      1709      7546      7456      1700      1710      7547      7457      2402     21299
 -2     21300     20591      2372      2404     21305     20597      2405     21306     21307     20598
 -1      2756    4    0    1
 -2      1700      1710      7547      7457      1701      1711      7548      7458      2405     21306
 -2     21307     20598      2375      2407     21312     20604      2408     21313     21314     20605
 -1      2757    4    0    1
 -2      1701      1711      7548      7458      1702      1712      7549      7459      2408     21313
 -2     21314     20605      2378      2410     21319     20611      2411     21320     21321     20612
 -1      2758    4    0    1
 -2      1702      1712      7549      7459      1703      1713      7550      7460      2411     21320
 -2     21321     20612      2381      2413     21326     20618      2414     21327     21328     20619
 -1      2759    4    0    1
 -2      1703      1713      7550      7460      1704      1714      7551      7461      2414     21327
 -2     21328     20619      2384      2416     21333     20625      2417     21334     21335     20626
 -1      2760    4    0    1
 -2      1704      1714      7551      7461      1705      1715      7552      7462      2417     21334
 -2     21335     20626      2387      2419     21340     20632      2420     21341     21342     20633
 -1      2761    4    0    1
 -2      1705      1715      7552      7462       182       183      4964      4955      2420     21341
 -2     21342     20633      2390      2422     21347     20639       212      5585      5586      5556
 -1      2762    4    0    1
 -2       558       567       568       559      7453      7543      7553      7463      1189      1191
 -2      1192      1162     20569     21277     21351     20643     21279     21352     21353     20644
 -1      2763    4    0    1
 -2      7453      7543      7553      7463      7454      7544      7554      7464     21279     21352
 -2     21353     20644     20576     21284     21358     20650     21286     21359     21360     20651
 -1      2764    4    0    1
 -2      7454      7544      7554      7464      7455      7545      7555      7465     21286     21359
 -2     21360     20651     20583     21291     21365     20657     21293     21366     21367     20658
 -1      2765    4    0    1
 -2      7455      7545      7555      7465      7456      7546      7556      7466     21293     21366
 -2     21367     20658     20590     21298     21372     20664     21300     21373     21374     20665
 -1      2766    4    0    1
 -2      7456      7546      7556      7466      7457      7547      7557      7467     21300     21373
 -2     21374     20665     20597     21305     21379     20671     21307     21380     21381     20672
 -1      2767    4    0    1
 -2      7457      7547      7557      7467      7458      7548      7558      7468     21307     21380
 -2     21381     20672     20604     21312     21386     20678     21314     21387     21388     20679
 -1      2768    4    0    1
 -2      7458      7548      7558      7468      7459      7549      7559      7469     21314     21387
 -2     21388     20679     20611     21319     21393     20685     21321     21394     21395     20686
 -1      2769    4    0    1
 -2      7459      7549      7559      7469      7460      7550      7560      7470     21321     21394
 -2     21395     20686     20618     21326     21400     20692     21328     21401     21402     20693
 -1      2770    4    0    1
 -2      7460      7550      7560      7470      7461      7551      7561      7471     21328     21401
 -2     21402     20693     20625     21333     21407     20699     21335     21408     21409     20700
 -1      2771    4    0    1
 -2      7461      7551      7561      7471      7462      7552      7562      7472     21335     21408
 -2     21409     20700     20632     21340     21414     20706     21342     21415     21416     20707
 -1      2772    4    0    1
 -2      7462      7552      7562      7472      4955      4964      4965      4956     21342     21415
 -2     21416     20707     20639     21347     21421     20713      5586      5588      5589      5559
 -1      2773    4    0    1
 -2       559       568       569       560      7463      7553      7563      7473      1192      1194
 -2      1195      1165     20643     21351     21425     20717     21353     21426     21427     20718
 -1      2774    4    0    1
 -2      7463      7553      7563      7473      7464      7554      7564      7474     21353     21426
 -2     21427     20718     20650     21358     21432     20724     21360     21433     21434     20725
 -1      2775    4    0    1
 -2      7464      7554      7564      7474      7465      7555      7565      7475     21360     21433
 -2     21434     20725     20657     21365     21439     20731     21367     21440     21441     20732
 -1      2776    4    0    1
 -2      7465      7555      7565      7475      7466      7556      7566      7476     21367     21440
 -2     21441     20732     20664     21372     21446     20738     21374     21447     21448     20739
 -1      2777    4    0    1
 -2      7466      7556      7566      7476      7467      7557      7567      7477     21374     21447
 -2     21448     20739     20671     21379     21453     20745     21381     21454     21455     20746
 -1      2778    4    0    1
 -2      7467      7557      7567      7477      7468      7558      7568      7478     21381     21454
 -2     21455     20746     20678     21386     21460     20752     21388     21461     21462     20753
 -1      2779    4    0    1
 -2      7468      7558      7568      7478      7469      7559      7569      7479     21388     21461
 -2     21462     20753     20685     21393     21467     20759     21395     21468     21469     20760
 -1      2780    4    0    1
 -2      7469      7559      7569      7479      7470      7560      7570      7480     21395     21468
 -2     21469     20760     20692     21400     21474     20766     21402     21475     21476     20767
 -1      2781    4    0    1
 -2      7470      7560      7570      7480      7471      7561      7571      7481     21402     21475
 -2     21476     20767     20699     21407     21481     20773     21409     21482     21483     20774
 -1      2782    4    0    1
 -2      7471      7561      7571      7481      7472      7562      7572      7482     21409     21482
 -2     21483     20774     20706     21414     21488     20780     21416     21489     21490     20781
 -1      2783    4    0    1
 -2      7472      7562      7572      7482      4956      4965      4966      4957     21416     21489
 -2     21490     20781     20713     21421     21495     20787      5589      5591      5592      5562
 -1      2784    4    0    1
 -2       560       569       570       561      7473      7563      7573      7483      1195      1197
 -2      1198      1168     20717     21425     21499     20791     21427     21500     21501     20792
 -1      2785    4    0    1
 -2      7473      7563      7573      7483      7474      7564      7574      7484     21427     21500
 -2     21501     20792     20724     21432     21506     20798     21434     21507     21508     20799
 -1      2786    4    0    1
 -2      7474      7564      7574      7484      7475      7565      7575      7485     21434     21507
 -2     21508     20799     20731     21439     21513     20805     21441     21514     21515     20806
 -1      2787    4    0    1
 -2      7475      7565      7575      7485      7476      7566      7576      7486     21441     21514
 -2     21515     20806     20738     21446     21520     20812     21448     21521     21522     20813
 -1      2788    4    0    1
 -2      7476      7566      7576      7486      7477      7567      7577      7487     21448     21521
 -2     21522     20813     20745     21453     21527     20819     21455     21528     21529     20820
 -1      2789    4    0    1
 -2      7477      7567      7577      7487      7478      7568      7578      7488     21455     21528
 -2     21529     20820     20752     21460     21534     20826     21462     21535     21536     20827
 -1      2790    4    0    1
 -2      7478      7568      7578      7488      7479      7569      7579      7489     21462     21535
 -2     21536     20827     20759     21467     21541     20833     21469     21542     21543     20834
 -1      2791    4    0    1
 -2      7479      7569      7579      7489      7480      7570      7580      7490     21469     21542
 -2     21543     20834     20766     21474     21548     20840     21476     21549     21550     20841
 -1      2792    4    0    1
 -2      7480      7570      7580      7490      7481      7571      7581      7491     21476     21549
 -2     21550     20841     20773     21481     21555     20847     21483     21556     21557     20848
 -1      2793    4    0    1
 -2      7481      7571      7581      7491      7482      7572      7582      7492     21483     21556
 -2     21557     20848     20780     21488     21562     20854     21490     21563     21564     20855
 -1      2794    4    0    1
 -2      7482      7572      7582      7492      4957      4966      4967      4958     21490     21563
 -2     21564     20855     20787     21495     21569     20861      5592      5594      5595      5565
 -1      2795    4    0    1
 -2       561       570       571       562      7483      7573      7583      7493      1198      1200
 -2      1201      1171     20791     21499     21573     20865     21501     21574     21575     20866
 -1      2796    4    0    1
 -2      7483      7573      7583      7493      7484      7574      7584      7494     21501     21574
 -2     21575     20866     20798     21506     21580     20872     21508     21581     21582     20873
 -1      2797    4    0    1
 -2      7484      7574      7584      7494      7485      7575      7585      7495     21508     21581
 -2     21582     20873     20805     21513     21587     20879     21515     21588     21589     20880
 -1      2798    4    0    1
 -2      7485      7575      7585      7495      7486      7576      7586      7496     21515     21588
 -2     21589     20880     20812     21520     21594     20886     21522     21595     21596     20887
 -1      2799    4    0    1
 -2      7486      7576      7586      7496      7487      7577      7587      7497     21522     21595
 -2     21596     20887     20819     21527     21601     20893     21529     21602     21603     20894
 -1      2800    4    0    1
 -2      7487      7577      7587      7497      7488      7578      7588      7498     21529     21602
 -2     21603     20894     20826     21534     21608     20900     21536     21609     21610     20901
 -1      2801    4    0    1
 -2      7488      7578      7588      7498      7489      7579      7589      7499     21536     21609
 -2     21610     20901     20833     21541     21615     20907     21543     21616     21617     20908
 -1      2802    4    0    1
 -2      7489      7579      7589      7499      7490      7580      7590      7500     21543     21616
 -2     21617     20908     20840     21548     21622     20914     21550     21623     21624     20915
 -1      2803    4    0    1
 -2      7490      7580      7590      7500      7491      7581      7591      7501     21550     21623
 -2     21624     20915     20847     21555     21629     20921     21557     21630     21631     20922
 -1      2804    4    0    1
 -2      7491      7581      7591      7501      7492      7582      7592      7502     21557     21630
 -2     21631     20922     20854     21562     21636     20928     21564     21637     21638     20929
 -1      2805    4    0    1
 -2      7492      7582      7592      7502      4958      4967      4968      4959     21564     21637
 -2     21638     20929     20861     21569     21643     20935      5595      5597      5598      5568
 -1      2806    4    0    1
 -2       562       571       572       563      7493      7583      7593      7503      1201      1203
 -2      1204      1174     20865     21573     21647     20939     21575     21648     21649     20940
 -1      2807    4    0    1
 -2      7493      7583      7593      7503      7494      7584      7594      7504     21575     21648
 -2     21649     20940     20872     21580     21654     20946     21582     21655     21656     20947
 -1      2808    4    0    1
 -2      7494      7584      7594      7504      7495      7585      7595      7505     21582     21655
 -2     21656     20947     20879     21587     21661     20953     21589     21662     21663     20954
 -1      2809    4    0    1
 -2      7495      7585      7595      7505      7496      7586      7596      7506     21589     21662
 -2     21663     20954     20886     21594     21668     20960     21596     21669     21670     20961
 -1      2810    4    0    1
 -2      7496      7586      7596      7506      7497      7587      7597      7507     21596     21669
 -2     21670     20961     20893     21601     21675     20967     21603     21676     21677     20968
 -1      2811    4    0    1
 -2      7497      7587      7597      7507      7498      7588      7598      7508     21603     21676
 -2     21677     20968     20900     21608     21682     20974     21610     21683     21684     20975
 -1      2812    4    0    1
 -2      7498      7588      7598      7508      7499      7589      7599      7509     21610     21683
 -2     21684     20975     20907     21615     21689     20981     21617     21690     21691     20982
 -1      2813    4    0    1
 -2      7499      7589      7599      7509      7500      7590      7600      7510     21617     21690
 -2     21691     20982     20914     21622     21696     20988     21624     21697     21698     20989
 -1      2814    4    0    1
 -2      7500      7590      7600      7510      7501      7591      7601      7511     21624     21697
 -2     21698     20989     20921     21629     21703     20995     21631     21704     21705     20996
 -1      2815    4    0    1
 -2      7501      7591      7601      7511      7502      7592      7602      7512     21631     21704
 -2     21705     20996     20928     21636     21710     21002     21638     21711     21712     21003
 -1      2816    4    0    1
 -2      7502      7592      7602      7512      4959      4968      4969      4960     21638     21711
 -2     21712     21003     20935     21643     21717     21009      5598      5600      5601      5571
 -1      2817    4    0    1
 -2       563       572       573       564      7503      7593      7603      7513      1204      1206
 -2      1207      1177     20939     21647     21721     21013     21649     21722     21723     21014
 -1      2818    4    0    1
 -2      7503      7593      7603      7513      7504      7594      7604      7514     21649     21722
 -2     21723     21014     20946     21654     21728     21020     21656     21729     21730     21021
 -1      2819    4    0    1
 -2      7504      7594      7604      7514      7505      7595      7605      7515     21656     21729
 -2     21730     21021     20953     21661     21735     21027     21663     21736     21737     21028
 -1      2820    4    0    1
 -2      7505      7595      7605      7515      7506      7596      7606      7516     21663     21736
 -2     21737     21028     20960     21668     21742     21034     21670     21743     21744     21035
 -1      2821    4    0    1
 -2      7506      7596      7606      7516      7507      7597      7607      7517     21670     21743
 -2     21744     21035     20967     21675     21749     21041     21677     21750     21751     21042
 -1      2822    4    0    1
 -2      7507      7597      7607      7517      7508      7598      7608      7518     21677     21750
 -2     21751     21042     20974     21682     21756     21048     21684     21757     21758     21049
 -1      2823    4    0    1
 -2      7508      7598      7608      7518      7509      7599      7609      7519     21684     21757
 -2     21758     21049     20981     21689     21763     21055     21691     21764     21765     21056
 -1      2824    4    0    1
 -2      7509      7599      7609      7519      7510      7600      7610      7520     21691     21764
 -2     21765     21056     20988     21696     21770     21062     21698     21771     21772     21063
 -1      2825    4    0    1
 -2      7510      7600      7610      7520      7511      7601      7611      7521     21698     21771
 -2     21772     21063     20995     21703     21777     21069     21705     21778     21779     21070
 -1      2826    4    0    1
 -2      7511      7601      7611      7521      7512      7602      7612      7522     21705     21778
 -2     21779     21070     21002     21710     21784     21076     21712     21785     21786     21077
 -1      2827    4    0    1
 -2      7512      7602      7612      7522      4960      4969      4970      4961     21712     21785
 -2     21786     21077     21009     21717     21791     21083      5601      5603      5604      5574
 -1      2828    4    0    1
 -2       564       573       574       565      7513      7603      7613      7523      1207      1209
 -2      1210      1180     21013     21721     21795     21087     21723     21796     21797     21088
 -1      2829    4    0    1
 -2      7513      7603      7613      7523      7514      7604      7614      7524     21723     21796
 -2     21797     21088     21020     21728     21802     21094     21730     21803     21804     21095
 -1      2830    4    0    1
 -2      7514      7604      7614      7524      7515      7605      7615      7525     21730     21803
 -2     21804     21095     21027     21735     21809     21101     21737     21810     21811     21102
 -1      2831    4    0    1
 -2      7515      7605      7615      7525      7516      7606      7616      7526     21737     21810
 -2     21811     21102     21034     21742     21816     21108     21744     21817     21818     21109
 -1      2832    4    0    1
 -2      7516      7606      7616      7526      7517      7607      7617      7527     21744     21817
 -2     21818     21109     21041     21749     21823     21115     21751     21824     21825     21116
 -1      2833    4    0    1
 -2      7517      7607      7617      7527      7518      7608      7618      7528     21751     21824
 -2     21825     21116     21048     21756     21830     21122     21758     21831     21832     21123
 -1      2834    4    0    1
 -2      7518      7608      7618      7528      7519      7609      7619      7529     21758     21831
 -2     21832     21123     21055     21763     21837     21129     21765     21838     21839     21130
 -1      2835    4    0    1
 -2      7519      7609      7619      7529      7520      7610      7620      7530     21765     21838
 -2     21839     21130     21062     21770     21844     21136     21772     21845     21846     21137
 -1      2836    4    0    1
 -2      7520      7610      7620      7530      7521      7611      7621      7531     21772     21845
 -2     21846     21137     21069     21777     21851     21143     21779     21852     21853     21144
 -1      2837    4    0    1
 -2      7521      7611      7621      7531      7522      7612      7622      7532     21779     21852
 -2     21853     21144     21076     21784     21858     21150     21786     21859     21860     21151
 -1      2838    4    0    1
 -2      7522      7612      7622      7532      4961      4970      4971      4962     21786     21859
 -2     21860     21151     21083     21791     21865     21157      5604      5606      5607      5577
 -1      2839    4    0    1
 -2       565       574       575       566      7523      7613      7623      7533      1210      1212
 -2      1213      1183     21087     21795     21869     21161     21797     21870     21871     21162
 -1      2840    4    0    1
 -2      7523      7613      7623      7533      7524      7614      7624      7534     21797     21870
 -2     21871     21162     21094     21802     21876     21168     21804     21877     21878     21169
 -1      2841    4    0    1
 -2      7524      7614      7624      7534      7525      7615      7625      7535     21804     21877
 -2     21878     21169     21101     21809     21883     21175     21811     21884     21885     21176
 -1      2842    4    0    1
 -2      7525      7615      7625      7535      7526      7616      7626      7536     21811     21884
 -2     21885     21176     21108     21816     21890     21182     21818     21891     21892     21183
 -1      2843    4    0    1
 -2      7526      7616      7626      7536      7527      7617      7627      7537     21818     21891
 -2     21892     21183     21115     21823     21897     21189     21825     21898     21899     21190
 -1      2844    4    0    1
 -2      7527      7617      7627      7537      7528      7618      7628      7538     21825     21898
 -2     21899     21190     21122     21830     21904     21196     21832     21905     21906     21197
 -1      2845    4    0    1
 -2      7528      7618      7628      7538      7529      7619      7629      7539     21832     21905
 -2     21906     21197     21129     21837     21911     21203     21839     21912     21913     21204
 -1      2846    4    0    1
 -2      7529      7619      7629      7539      7530      7620      7630      7540     21839     21912
 -2     21913     21204     21136     21844     21918     21210     21846     21919     21920     21211
 -1      2847    4    0    1
 -2      7530      7620      7630      7540      7531      7621      7631      7541     21846     21919
 -2     21920     21211     21143     21851     21925     21217     21853     21926     21927     21218
 -1      2848    4    0    1
 -2      7531      7621      7631      7541      7532      7622      7632      7542     21853     21926
 -2     21927     21218     21150     21858     21932     21224     21860     21933     21934     21225
 -1      2849    4    0    1
 -2      7532      7622      7632      7542      4962      4971      4972      4963     21860     21933
 -2     21934     21225     21157     21865     21939     21231      5607      5609      5610      5580
 -1      2850    4    0    1
 -2       566       575        97        98      7533      7623      3264      3274      1213      1215
 -2       127      1186     21161     21869      3774      3806     21871     21943      3807     21235
 -1      2851    4    0    1
 -2      7533      7623      3264      3274      7534      7624      3265      3275     21871     21943
 -2      3807     21235     21168     21876      3777      3809     21878     21947      3810     21239
 -1      2852    4    0    1
 -2      7534      7624      3265      3275      7535      7625      3266      3276     21878     21947
 -2      3810     21239     21175     21883      3780      3812     21885     21951      3813     21243
 -1      2853    4    0    1
 -2      7535      7625      3266      3276      7536      7626      3267      3277     21885     21951
 -2      3813     21243     21182     21890      3783      3815     21892     21955      3816     21247
 -1      2854    4    0    1
 -2      7536      7626      3267      3277      7537      7627      3268      3278     21892     21955
 -2      3816     21247     21189     21897      3786      3818     21899     21959      3819     21251
 -1      2855    4    0    1
 -2      7537      7627      3268      3278      7538      7628      3269      3279     21899     21959
 -2      3819     21251     21196     21904      3789      3821     21906     21963      3822     21255
 -1      2856    4    0    1
 -2      7538      7628      3269      3279      7539      7629      3270      3280     21906     21963
 -2      3822     21255     21203     21911      3792      3824     21913     21967      3825     21259
 -1      2857    4    0    1
 -2      7539      7629      3270      3280      7540      7630      3271      3281     21913     21967
 -2      3825     21259     21210     21918      3795      3827     21920     21971      3828     21263
 -1      2858    4    0    1
 -2      7540      7630      3271      3281      7541      7631      3272      3282     21920     21971
 -2      3828     21263     21217     21925      3798      3830     21927     21975      3831     21267
 -1      2859    4    0    1
 -2      7541      7631      3272      3282      7542      7632      3273      3283     21927     21975
 -2      3831     21267     21224     21932      3801      3833     21934     21979      3834     21271
 -1      2860    4    0    1
 -2      7542      7632      3273      3283      4963      4972       253       254     21934     21979
 -2      3834     21271     21231     21939      3804      3836      5610      5612       283      5583
 -1      2861    4    0    1
 -2        27        28       576       567      1706      1716      7633      7543        57      1217
 -2      1218      1188      2392      2424     21985     21277      2425     21986     21987     21278
 -1      2862    4    0    1
 -2      1706      1716      7633      7543      1707      1717      7634      7544      2425     21986
 -2     21987     21278      2395      2427     21992     21284      2428     21993     21994     21285
 -1      2863    4    0    1
 -2      1707      1717      7634      7544      1708      1718      7635      7545      2428     21993
 -2     21994     21285      2398      2430     21999     21291      2431     22000     22001     21292
 -1      2864    4    0    1
 -2      1708      1718      7635      7545      1709      1719      7636      7546      2431     22000
 -2     22001     21292      2401      2433     22006     21298      2434     22007     22008     21299
 -1      2865    4    0    1
 -2      1709      1719      7636      7546      1710      1720      7637      7547      2434     22007
 -2     22008     21299      2404      2436     22013     21305      2437     22014     22015     21306
 -1      2866    4    0    1
 -2      1710      1720      7637      7547      1711      1721      7638      7548      2437     22014
 -2     22015     21306      2407      2439     22020     21312      2440     22021     22022     21313
 -1      2867    4    0    1
 -2      1711      1721      7638      7548      1712      1722      7639      7549      2440     22021
 -2     22022     21313      2410      2442     22027     21319      2443     22028     22029     21320
 -1      2868    4    0    1
 -2      1712      1722      7639      7549      1713      1723      7640      7550      2443     22028
 -2     22029     21320      2413      2445     22034     21326      2446     22035     22036     21327
 -1      2869    4    0    1
 -2      1713      1723      7640      7550      1714      1724      7641      7551      2446     22035
 -2     22036     21327      2416      2448     22041     21333      2449     22042     22043     21334
 -1      2870    4    0    1
 -2      1714      1724      7641      7551      1715      1725      7642      7552      2449     22042
 -2     22043     21334      2419      2451     22048     21340      2452     22049     22050     21341
 -1      2871    4    0    1
 -2      1715      1725      7642      7552       183       184      4973      4964      2452     22049
 -2     22050     21341      2422      2454     22055     21347       213      5614      5615      5585
 -1      2872    4    0    1
 -2       567       576       577       568      7543      7633      7643      7553      1218      1220
 -2      1221      1191     21277     21985     22059     21351     21987     22060     22061     21352
 -1      2873    4    0    1
 -2      7543      7633      7643      7553      7544      7634      7644      7554     21987     22060
 -2     22061     21352     21284     21992     22066     21358     21994     22067     22068     21359
 -1      2874    4    0    1
 -2      7544      7634      7644      7554      7545      7635      7645      7555     21994     22067
 -2     22068     21359     21291     21999     22073     21365     22001     22074     22075     21366
 -1      2875    4    0    1
 -2      7545      7635      7645      7555      7546      7636      7646      7556     22001     22074
 -2     22075     21366     21298     22006     22080     21372     22008     22081     22082     21373
 -1      2876    4    0    1
 -2      7546      7636      7646      7556      7547      7637      7647      7557     22008     22081
 -2     22082     21373     21305     22013     22087     21379     22015     22088     22089     21380
 -1      2877    4    0    1
 -2      7547      7637      7647      7557      7548      7638      7648      7558     22015     22088
 -2     22089     21380     21312     22020     22094     21386     22022     22095     22096     21387
 -1      2878    4    0    1
 -2      7548      7638      7648      7558      7549      7639      7649      7559     22022     22095
 -2     22096     21387     21319     22027     22101     21393     22029     22102     22103     21394
 -1      2879    4    0    1
 -2      7549      7639      7649      7559      7550      7640      7650      7560     22029     22102
 -2     22103     21394     21326     22034     22108     21400     22036     22109     22110     21401
 -1      2880    4    0    1
 -2      7550      7640      7650      7560      7551      7641      7651      7561     22036     22109
 -2     22110     21401     21333     22041     22115     21407     22043     22116     22117     21408
 -1      2881    4    0    1
 -2      7551      7641      7651      7561      7552      7642      7652      7562     22043     22116
 -2     22117     21408     21340     22048     22122     21414     22050     22123     22124     21415
 -1      2882    4    0    1
 -2      7552      7642      7652      7562      4964      4973      4974      4965     22050     22123
 -2     22124     21415     21347     22055     22129     21421      5615      5617      5618      5588
 -1      2883    4    0    1
 -2       568       577       578       569      7553      7643      7653      7563      1221      1223
 -2      1224      1194     21351     22059     22133     21425     22061     22134     22135     21426
 -1      2884    4    0    1
 -2      7553      7643      7653      7563      7554      7644      7654      7564     22061     22134
 -2     22135     21426     21358     22066     22140     21432     22068     22141     22142     21433
 -1      2885    4    0    1
 -2      7554      7644      7654      7564      7555      7645      7655      7565     22068     22141
 -2     22142     21433     21365     22073     22147     21439     22075     22148     22149     21440
 -1      2886    4    0    1
 -2      7555      7645      7655      7565      7556      7646      7656      7566     22075     22148
 -2     22149     21440     21372     22080     22154     21446     22082     22155     22156     21447
 -1      2887    4    0    1
 -2      7556      7646      7656      7566      7557      7647      7657      7567     22082     22155
 -2     22156     21447     21379     22087     22161     21453     22089     22162     22163     21454
 -1      2888    4    0    1
 -2      7557      7647      7657      7567      7558      7648      7658      7568     22089     22162
 -2     22163     21454     21386     22094     22168     21460     22096     22169     22170     21461
 -1      2889    4    0    1
 -2      7558      7648      7658      7568      7559      7649      7659      7569     22096     22169
 -2     22170     21461     21393     22101     22175     21467     22103     22176     22177     21468
 -1      2890    4    0    1
 -2      7559      7649      7659      7569      7560      7650      7660      7570     22103     22176
 -2     22177     21468     21400     22108     22182     21474     22110     22183     22184     21475
 -1      2891    4    0    1
 -2      7560      7650      7660      7570      7561      7651      7661      7571     22110     22183
 -2     22184     21475     21407     22115     22189     21481     22117     22190     22191     21482
 -1      2892    4    0    1
 -2      7561      7651      7661      7571      7562      7652      7662      7572     22117     22190
 -2     22191     21482     21414     22122     22196     21488     22124     22197     22198     21489
 -1      2893    4    0    1
 -2      7562      7652      7662      7572      4965      4974      4975      4966     22124     22197
 -2     22198     21489     21421     22129     22203     21495      5618      5620      5621      5591
 -1      2894    4    0    1
 -2       569       578       579       570      7563      7653      7663      7573      1224      1226
 -2      1227      1197     21425     22133     22207     21499     22135     22208     22209     21500
 -1      2895    4    0    1
 -2      7563      7653      7663      7573      7564      7654      7664      7574     22135     22208
 -2     22209     21500     21432     22140     22214     21506     22142     22215     22216     21507
 -1      2896    4    0    1
 -2      7564      7654      7664      7574      7565      7655      7665      7575     22142     22215
 -2     22216     21507     21439     22147     22221     21513     22149     22222     22223     21514
 -1      2897    4    0    1
 -2      7565      7655      7665      7575      7566      7656      7666      7576     22149     22222
 -2     22223     21514     21446     22154     22228     21520     22156     22229     22230     21521
 -1      2898    4    0    1
 -2      7566      7656      7666      7576      7567      7657      7667      7577     22156     22229
 -2     22230     21521     21453     22161     22235     21527     22163     22236     22237     21528
 -1      2899    4    0    1
 -2      7567      7657      7667      7577      7568      7658      7668      7578     22163     22236
 -2     22237     21528     21460     22168     22242     21534     22170     22243     22244     21535
 -1      2900    4    0    1
 -2      7568      7658      7668      7578      7569      7659      7669      7579     22170     22243
 -2     22244     21535     21467     22175     22249     21541     22177     22250     22251     21542
 -1      2901    4    0    1
 -2      7569      7659      7669      7579      7570      7660      7670      7580     22177     22250
 -2     22251     21542     21474     22182     22256     21548     22184     22257     22258     21549
 -1      2902    4    0    1
 -2      7570      7660      7670      7580      7571      7661      7671      7581     22184     22257
 -2     22258     21549     21481     22189     22263     21555     22191     22264     22265     21556
 -1      2903    4    0    1
 -2      7571      7661      7671      7581      7572      7662      7672      7582     22191     22264
 -2     22265     21556     21488     22196     22270     21562     22198     22271     22272     21563
 -1      2904    4    0    1
 -2      7572      7662      7672      7582      4966      4975      4976      4967     22198     22271
 -2     22272     21563     21495     22203     22277     21569      5621      5623      5624      5594
 -1      2905    4    0    1
 -2       570       579       580       571      7573      7663      7673      7583      1227      1229
 -2      1230      1200     21499     22207     22281     21573     22209     22282     22283     21574
 -1      2906    4    0    1
 -2      7573      7663      7673      7583      7574      7664      7674      7584     22209     22282
 -2     22283     21574     21506     22214     22288     21580     22216     22289     22290     21581
 -1      2907    4    0    1
 -2      7574      7664      7674      7584      7575      7665      7675      7585     22216     22289
 -2     22290     21581     21513     22221     22295     21587     22223     22296     22297     21588
 -1      2908    4    0    1
 -2      7575      7665      7675      7585      7576      7666      7676      7586     22223     22296
 -2     22297     21588     21520     22228     22302     21594     22230     22303     22304     21595
 -1      2909    4    0    1
 -2      7576      7666      7676      7586      7577      7667      7677      7587     22230     22303
 -2     22304     21595     21527     22235     22309     21601     22237     22310     22311     21602
 -1      2910    4    0    1
 -2      7577      7667      7677      7587      7578      7668      7678      7588     22237     22310
 -2     22311     21602     21534     22242     22316     21608     22244     22317     22318     21609
 -1      2911    4    0    1
 -2      7578      7668      7678      7588      7579      7669      7679      7589     22244     22317
 -2     22318     21609     21541     22249     22323     21615     22251     22324     22325     21616
 -1      2912    4    0    1
 -2      7579      7669      7679      7589      7580      7670      7680      7590     22251     22324
 -2     22325     21616     21548     22256     22330     21622     22258     22331     22332     21623
 -1      2913    4    0    1
 -2      7580      7670      7680      7590      7581      7671      7681      7591     22258     22331
 -2     22332     21623     21555     22263     22337     21629     22265     22338     22339     21630
 -1      2914    4    0    1
 -2      7581      7671      7681      7591      7582      7672      7682      7592     22265     22338
 -2     22339     21630     21562     22270     22344     21636     22272     22345     22346     21637
 -1      2915    4    0    1
 -2      7582      7672      7682      7592      4967      4976      4977      4968     22272     22345
 -2     22346     21637     21569     22277     22351     21643      5624      5626      5627      5597
 -1      2916    4    0    1
 -2       571       580       581       572      7583      7673      7683      7593      1230      1232
 -2      1233      1203     21573     22281     22355     21647     22283     22356     22357     21648
 -1      2917    4    0    1
 -2      7583      7673      7683      7593      7584      7674      7684      7594     22283     22356
 -2     22357     21648     21580     22288     22362     21654     22290     22363     22364     21655
 -1      2918    4    0    1
 -2      7584      7674      7684      7594      7585      7675      7685      7595     22290     22363
 -2     22364     21655     21587     22295     22369     21661     22297     22370     22371     21662
 -1      2919    4    0    1
 -2      7585      7675      7685      7595      7586      7676      7686      7596     22297     22370
 -2     22371     21662     21594     22302     22376     21668     22304     22377     22378     21669
 -1      2920    4    0    1
 -2      7586      7676      7686      7596      7587      7677      7687      7597     22304     22377
 -2     22378     21669     21601     22309     22383     21675     22311     22384     22385     21676
 -1      2921    4    0    1
 -2      7587      7677      7687      7597      7588      7678      7688      7598     22311     22384
 -2     22385     21676     21608     22316     22390     21682     22318     22391     22392     21683
 -1      2922    4    0    1
 -2      7588      7678      7688      7598      7589      7679      7689      7599     22318     22391
 -2     22392     21683     21615     22323     22397     21689     22325     22398     22399     21690
 -1      2923    4    0    1
 -2      7589      7679      7689      7599      7590      7680      7690      7600     22325     22398
 -2     22399     21690     21622     22330     22404     21696     22332     22405     22406     21697
 -1      2924    4    0    1
 -2      7590      7680      7690      7600      7591      7681      7691      7601     22332     22405
 -2     22406     21697     21629     22337     22411     21703     22339     22412     22413     21704
 -1      2925    4    0    1
 -2      7591      7681      7691      7601      7592      7682      7692      7602     22339     22412
 -2     22413     21704     21636     22344     22418     21710     22346     22419     22420     21711
 -1      2926    4    0    1
 -2      7592      7682      7692      7602      4968      4977      4978      4969     22346     22419
 -2     22420     21711     21643     22351     22425     21717      5627      5629      5630      5600
 -1      2927    4    0    1
 -2       572       581       582       573      7593      7683      7693      7603      1233      1235
 -2      1236      1206     21647     22355     22429     21721     22357     22430     22431     21722
 -1      2928    4    0    1
 -2      7593      7683      7693      7603      7594      7684      7694      7604     22357     22430
 -2     22431     21722     21654     22362     22436     21728     22364     22437     22438     21729
 -1      2929    4    0    1
 -2      7594      7684      7694      7604      7595      7685      7695      7605     22364     22437
 -2     22438     21729     21661     22369     22443     21735     22371     22444     22445     21736
 -1      2930    4    0    1
 -2      7595      7685      7695      7605      7596      7686      7696      7606     22371     22444
 -2     22445     21736     21668     22376     22450     21742     22378     22451     22452     21743
 -1      2931    4    0    1
 -2      7596      7686      7696      7606      7597      7687      7697      7607     22378     22451
 -2     22452     21743     21675     22383     22457     21749     22385     22458     22459     21750
 -1      2932    4    0    1
 -2      7597      7687      7697      7607      7598      7688      7698      7608     22385     22458
 -2     22459     21750     21682     22390     22464     21756     22392     22465     22466     21757
 -1      2933    4    0    1
 -2      7598      7688      7698      7608      7599      7689      7699      7609     22392     22465
 -2     22466     21757     21689     22397     22471     21763     22399     22472     22473     21764
 -1      2934    4    0    1
 -2      7599      7689      7699      7609      7600      7690      7700      7610     22399     22472
 -2     22473     21764     21696     22404     22478     21770     22406     22479     22480     21771
 -1      2935    4    0    1
 -2      7600      7690      7700      7610      7601      7691      7701      7611     22406     22479
 -2     22480     21771     21703     22411     22485     21777     22413     22486     22487     21778
 -1      2936    4    0    1
 -2      7601      7691      7701      7611      7602      7692      7702      7612     22413     22486
 -2     22487     21778     21710     22418     22492     21784     22420     22493     22494     21785
 -1      2937    4    0    1
 -2      7602      7692      7702      7612      4969      4978      4979      4970     22420     22493
 -2     22494     21785     21717     22425     22499     21791      5630      5632      5633      5603
 -1      2938    4    0    1
 -2       573       582       583       574      7603      7693      7703      7613      1236      1238
 -2      1239      1209     21721     22429     22503     21795     22431     22504     22505     21796
 -1      2939    4    0    1
 -2      7603      7693      7703      7613      7604      7694      7704      7614     22431     22504
 -2     22505     21796     21728     22436     22510     21802     22438     22511     22512     21803
 -1      2940    4    0    1
 -2      7604      7694      7704      7614      7605      7695      7705      7615     22438     22511
 -2     22512     21803     21735     22443     22517     21809     22445     22518     22519     21810
 -1      2941    4    0    1
 -2      7605      7695      7705      7615      7606      7696      7706      7616     22445     22518
 -2     22519     21810     21742     22450     22524     21816     22452     22525     22526     21817
 -1      2942    4    0    1
 -2      7606      7696      7706      7616      7607      7697      7707      7617     22452     22525
 -2     22526     21817     21749     22457     22531     21823     22459     22532     22533     21824
 -1      2943    4    0    1
 -2      7607      7697      7707      7617      7608      7698      7708      7618     22459     22532
 -2     22533     21824     21756     22464     22538     21830     22466     22539     22540     21831
 -1      2944    4    0    1
 -2      7608      7698      7708      7618      7609      7699      7709      7619     22466     22539
 -2     22540     21831     21763     22471     22545     21837     22473     22546     22547     21838
 -1      2945    4    0    1
 -2      7609      7699      7709      7619      7610      7700      7710      7620     22473     22546
 -2     22547     21838     21770     22478     22552     21844     22480     22553     22554     21845
 -1      2946    4    0    1
 -2      7610      7700      7710      7620      7611      7701      7711      7621     22480     22553
 -2     22554     21845     21777     22485     22559     21851     22487     22560     22561     21852
 -1      2947    4    0    1
 -2      7611      7701      7711      7621      7612      7702      7712      7622     22487     22560
 -2     22561     21852     21784     22492     22566     21858     22494     22567     22568     21859
 -1      2948    4    0    1
 -2      7612      7702      7712      7622      4970      4979      4980      4971     22494     22567
 -2     22568     21859     21791     22499     22573     21865      5633      5635      5636      5606
 -1      2949    4    0    1
 -2       574       583       584       575      7613      7703      7713      7623      1239      1241
 -2      1242      1212     21795     22503     22577     21869     22505     22578     22579     21870
 -1      2950    4    0    1
 -2      7613      7703      7713      7623      7614      7704      7714      7624     22505     22578
 -2     22579     21870     21802     22510     22584     21876     22512     22585     22586     21877
 -1      2951    4    0    1
 -2      7614      7704      7714      7624      7615      7705      7715      7625     22512     22585
 -2     22586     21877     21809     22517     22591     21883     22519     22592     22593     21884
 -1      2952    4    0    1
 -2      7615      7705      7715      7625      7616      7706      7716      7626     22519     22592
 -2     22593     21884     21816     22524     22598     21890     22526     22599     22600     21891
 -1      2953    4    0    1
 -2      7616      7706      7716      7626      7617      7707      7717      7627     22526     22599
 -2     22600     21891     21823     22531     22605     21897     22533     22606     22607     21898
 -1      2954    4    0    1
 -2      7617      7707      7717      7627      7618      7708      7718      7628     22533     22606
 -2     22607     21898     21830     22538     22612     21904     22540     22613     22614     21905
 -1      2955    4    0    1
 -2      7618      7708      7718      7628      7619      7709      7719      7629     22540     22613
 -2     22614     21905     21837     22545     22619     21911     22547     22620     22621     21912
 -1      2956    4    0    1
 -2      7619      7709      7719      7629      7620      7710      7720      7630     22547     22620
 -2     22621     21912     21844     22552     22626     21918     22554     22627     22628     21919
 -1      2957    4    0    1
 -2      7620      7710      7720      7630      7621      7711      7721      7631     22554     22627
 -2     22628     21919     21851     22559     22633     21925     22561     22634     22635     21926
 -1      2958    4    0    1
 -2      7621      7711      7721      7631      7622      7712      7722      7632     22561     22634
 -2     22635     21926     21858     22566     22640     21932     22568     22641     22642     21933
 -1      2959    4    0    1
 -2      7622      7712      7722      7632      4971      4980      4981      4972     22568     22641
 -2     22642     21933     21865     22573     22647     21939      5636      5638      5639      5609
 -1      2960    4    0    1
 -2       575       584        96        97      7623      7713      3254      3264      1242      1244
 -2       126      1215     21869     22577      3742      3774     22579     22651      3775     21943
 -1      2961    4    0    1
 -2      7623      7713      3254      3264      7624      7714      3255      3265     22579     22651
 -2      3775     21943     21876     22584      3745      3777     22586     22655      3778     21947
 -1      2962    4    0    1
 -2      7624      7714      3255      3265      7625      7715      3256      3266     22586     22655
 -2      3778     21947     21883     22591      3748      3780     22593     22659      3781     21951
 -1      2963    4    0    1
 -2      7625      7715      3256      3266      7626      7716      3257      3267     22593     22659
 -2      3781     21951     21890     22598      3751      3783     22600     22663      3784     21955
 -1      2964    4    0    1
 -2      7626      7716      3257      3267      7627      7717      3258      3268     22600     22663
 -2      3784     21955     21897     22605      3754      3786     22607     22667      3787     21959
 -1      2965    4    0    1
 -2      7627      7717      3258      3268      7628      7718      3259      3269     22607     22667
 -2      3787     21959     21904     22612      3757      3789     22614     22671      3790     21963
 -1      2966    4    0    1
 -2      7628      7718      3259      3269      7629      7719      3260      3270     22614     22671
 -2      3790     21963     21911     22619      3760      3792     22621     22675      3793     21967
 -1      2967    4    0    1
 -2      7629      7719      3260      3270      7630      7720      3261      3271     22621     22675
 -2      3793     21967     21918     22626      3763      3795     22628     22679      3796     21971
 -1      2968    4    0    1
 -2      7630      7720      3261      3271      7631      7721      3262      3272     22628     22679
 -2      3796     21971     21925     22633      3766      3798     22635     22683      3799     21975
 -1      2969    4    0    1
 -2      7631      7721      3262      3272      7632      7722      3263      3273     22635     22683
 -2      3799     21975     21932     22640      3769      3801     22642     22687      3802     21979
 -1      2970    4    0    1
 -2      7632      7722      3263      3273      4972      4981       252       253     22642     22687
 -2      3802     21979     21939     22647      3772      3804      5639      5641       282      5612
 -1      2971    4    0    1
 -2        28        29       585       576      1716      1726      7723      7633        58      1246
 -2      1247      1217      2424      2456     22693     21985      2457     22694     22695     21986
 -1      2972    4    0    1
 -2      1716      1726      7723      7633      1717      1727      7724      7634      2457     22694
 -2     22695     21986      2427      2459     22700     21992      2460     22701     22702     21993
 -1      2973    4    0    1
 -2      1717      1727      7724      7634      1718      1728      7725      7635      2460     22701
 -2     22702     21993      2430      2462     22707     21999      2463     22708     22709     22000
 -1      2974    4    0    1
 -2      1718      1728      7725      7635      1719      1729      7726      7636      2463     22708
 -2     22709     22000      2433      2465     22714     22006      2466     22715     22716     22007
 -1      2975    4    0    1
 -2      1719      1729      7726      7636      1720      1730      7727      7637      2466     22715
 -2     22716     22007      2436      2468     22721     22013      2469     22722     22723     22014
 -1      2976    4    0    1
 -2      1720      1730      7727      7637      1721      1731      7728      7638      2469     22722
 -2     22723     22014      2439      2471     22728     22020      2472     22729     22730     22021
 -1      2977    4    0    1
 -2      1721      1731      7728      7638      1722      1732      7729      7639      2472     22729
 -2     22730     22021      2442      2474     22735     22027      2475     22736     22737     22028
 -1      2978    4    0    1
 -2      1722      1732      7729      7639      1723      1733      7730      7640      2475     22736
 -2     22737     22028      2445      2477     22742     22034      2478     22743     22744     22035
 -1      2979    4    0    1
 -2      1723      1733      7730      7640      1724      1734      7731      7641      2478     22743
 -2     22744     22035      2448      2480     22749     22041      2481     22750     22751     22042
 -1      2980    4    0    1
 -2      1724      1734      7731      7641      1725      1735      7732      7642      2481     22750
 -2     22751     22042      2451      2483     22756     22048      2484     22757     22758     22049
 -1      2981    4    0    1
 -2      1725      1735      7732      7642       184       185      4982      4973      2484     22757
 -2     22758     22049      2454      2486     22763     22055       214      5643      5644      5614
 -1      2982    4    0    1
 -2       576       585       586       577      7633      7723      7733      7643      1247      1249
 -2      1250      1220     21985     22693     22767     22059     22695     22768     22769     22060
 -1      2983    4    0    1
 -2      7633      7723      7733      7643      7634      7724      7734      7644     22695     22768
 -2     22769     22060     21992     22700     22774     22066     22702     22775     22776     22067
 -1      2984    4    0    1
 -2      7634      7724      7734      7644      7635      7725      7735      7645     22702     22775
 -2     22776     22067     21999     22707     22781     22073     22709     22782     22783     22074
 -1      2985    4    0    1
 -2      7635      7725      7735      7645      7636      7726      7736      7646     22709     22782
 -2     22783     22074     22006     22714     22788     22080     22716     22789     22790     22081
 -1      2986    4    0    1
 -2      7636      7726      7736      7646      7637      7727      7737      7647     22716     22789
 -2     22790     22081     22013     22721     22795     22087     22723     22796     22797     22088
 -1      2987    4    0    1
 -2      7637      7727      7737      7647      7638      7728      7738      7648     22723     22796
 -2     22797     22088     22020     22728     22802     22094     22730     22803     22804     22095
 -1      2988    4    0    1
 -2      7638      7728      7738      7648      7639      7729      7739      7649     22730     22803
 -2     22804     22095     22027     22735     22809     22101     22737     22810     22811     22102
 -1      2989    4    0    1
 -2      7639      7729      7739      7649      7640      7730      7740      7650     22737     22810
 -2     22811     22102     22034     22742     22816     22108     22744     22817     22818     22109
 -1      2990    4    0    1
 -2      7640      7730      7740      7650      7641      7731      7741      7651     22744     22817
 -2     22818     22109     22041     22749     22823     22115     22751     22824     22825     22116
 -1      2991    4    0    1
 -2      7641      7731      7741      7651      7642      7732      7742      7652     22751     22824
 -2     22825     22116     22048     22756     22830     22122     22758     22831     22832     22123
 -1      2992    4    0    1
 -2      7642      7732      7742      7652      4973      4982      4983      4974     22758     22831
 -2     22832     22123     22055     22763     22837     22129      5644      5646      5647      5617
 -1      2993    4    0    1
 -2       577       586       587       578      7643      7733      7743      7653      1250      1252
 -2      1253      1223     22059     22767     22841     22133     22769     22842     22843     22134
 -1      2994    4    0    1
 -2      7643      7733      7743      7653      7644      7734      7744      7654     22769     22842
 -2     22843     22134     22066     22774     22848     22140     22776     22849     22850     22141
 -1      2995    4    0    1
 -2      7644      7734      7744      7654      7645      7735      7745      7655     22776     22849
 -2     22850     22141     22073     22781     22855     22147     22783     22856     22857     22148
 -1      2996    4    0    1
 -2      7645      7735      7745      7655      7646      7736      7746      7656     22783     22856
 -2     22857     22148     22080     22788     22862     22154     22790     22863     22864     22155
 -1      2997    4    0    1
 -2      7646      7736      7746      7656      7647      7737      7747      7657     22790     22863
 -2     22864     22155     22087     22795     22869     22161     22797     22870     22871     22162
 -1      2998    4    0    1
 -2      7647      7737      7747      7657      7648      7738      7748      7658     22797     22870
 -2     22871     22162     22094     22802     22876     22168     22804     22877     22878     22169
 -1      2999    4    0    1
 -2      7648      7738      7748      7658      7649      7739      7749      7659     22804     22877
 -2     22878     22169     22101     22809     22883     22175     22811     22884     22885     22176
 -1      3000    4    0    1
 -2      7649      7739      7749      7659      7650      7740      7750      7660     22811     22884
 -2     22885     22176     22108     22816     22890     22182     22818     22891     22892     22183
 -1      3001    4    0    1
 -2      7650      7740      7750      7660      7651      7741      7751      7661     22818     22891
 -2     22892     22183     22115     22823     22897     22189     22825     22898     22899     22190
 -1      3002    4    0    1
 -2      7651      7741      7751      7661      7652      7742      7752      7662     22825     22898
 -2     22899     22190     22122     22830     22904     22196     22832     22905     22906     22197
 -1      3003    4    0    1
 -2      7652      7742      7752      7662      4974      4983      4984      4975     22832     22905
 -2     22906     22197     22129     22837     22911     22203      5647      5649      5650      5620
 -1      3004    4    0    1
 -2       578       587       588       579      7653      7743      7753      7663      1253      1255
 -2      1256      1226     22133     22841     22915     22207     22843     22916     22917     22208
 -1      3005    4    0    1
 -2      7653      7743      7753      7663      7654      7744      7754      7664     22843     22916
 -2     22917     22208     22140     22848     22922     22214     22850     22923     22924     22215
 -1      3006    4    0    1
 -2      7654      7744      7754      7664      7655      7745      7755      7665     22850     22923
 -2     22924     22215     22147     22855     22929     22221     22857     22930     22931     22222
 -1      3007    4    0    1
 -2      7655      7745      7755      7665      7656      7746      7756      7666     22857     22930
 -2     22931     22222     22154     22862     22936     22228     22864     22937     22938     22229
 -1      3008    4    0    1
 -2      7656      7746      7756      7666      7657      7747      7757      7667     22864     22937
 -2     22938     22229     22161     22869     22943     22235     22871     22944     22945     22236
 -1      3009    4    0    1
 -2      7657      7747      7757      7667      7658      7748      7758      7668     22871     22944
 -2     22945     22236     22168     22876     22950     22242     22878     22951     22952     22243
 -1      3010    4    0    1
 -2      7658      7748      7758      7668      7659      7749      7759      7669     22878     22951
 -2     22952     22243     22175     22883     22957     22249     22885     22958     22959     22250
 -1      3011    4    0    1
 -2      7659      7749      7759      7669      7660      7750      7760      7670     22885     22958
 -2     22959     22250     22182     22890     22964     22256     22892     22965     22966     22257
 -1      3012    4    0    1
 -2      7660      7750      7760      7670      7661      7751      7761      7671     22892     22965
 -2     22966     22257     22189     22897     22971     22263     22899     22972     22973     22264
 -1      3013    4    0    1
 -2      7661      7751      7761      7671      7662      7752      7762      7672     22899     22972
 -2     22973     22264     22196     22904     22978     22270     22906     22979     22980     22271
 -1      3014    4    0    1
 -2      7662      7752      7762      7672      4975      4984      4985      4976     22906     22979
 -2     22980     22271     22203     22911     22985     22277      5650      5652      5653      5623
 -1      3015    4    0    1
 -2       579       588       589       580      7663      7753      7763      7673      1256      1258
 -2      1259      1229     22207     22915     22989     22281     22917     22990     22991     22282
 -1      3016    4    0    1
 -2      7663      7753      7763      7673      7664      7754      7764      7674     22917     22990
 -2     22991     22282     22214     22922     22996     22288     22924     22997     22998     22289
 -1      3017    4    0    1
 -2      7664      7754      7764      7674      7665      7755      7765      7675     22924     22997
 -2     22998     22289     22221     22929     23003     22295     22931     23004     23005     22296
 -1      3018    4    0    1
 -2      7665      7755      7765      7675      7666      7756      7766      7676     22931     23004
 -2     23005     22296     22228     22936     23010     22302     22938     23011     23012     22303
 -1      3019    4    0    1
 -2      7666      7756      7766      7676      7667      7757      7767      7677     22938     23011
 -2     23012     22303     22235     22943     23017     22309     22945     23018     23019     22310
 -1      3020    4    0    1
 -2      7667      7757      7767      7677      7668      7758      7768      7678     22945     23018
 -2     23019     22310     22242     22950     23024     22316     22952     23025     23026     22317
 -1      3021    4    0    1
 -2      7668      7758      7768      7678      7669      7759      7769      7679     22952     23025
 -2     23026     22317     22249     22957     23031     22323     22959     23032     23033     22324
 -1      3022    4    0    1
 -2      7669      7759      7769      7679      7670      7760      7770      7680     22959     23032
 -2     23033     22324     22256     22964     23038     22330     22966     23039     23040     22331
 -1      3023    4    0    1
 -2      7670      7760      7770      7680      7671      7761      7771      7681     22966     23039
 -2     23040     22331     22263     22971     23045     22337     22973     23046     23047     22338
 -1      3024    4    0    1
 -2      7671      7761      7771      7681      7672      7762      7772      7682     22973     23046
 -2     23047     22338     22270     22978     23052     22344     22980     23053     23054     22345
 -1      3025    4    0    1
 -2      7672      7762      7772      7682      4976      4985      4986      4977     22980     23053
 -2     23054     22345     22277     22985     23059     22351      5653      5655      5656      5626
 -1      3026    4    0    1
 -2       580       589       590       581      7673      7763      7773      7683      1259      1261
 -2      1262      1232     22281     22989     23063     22355     22991     23064     23065     22356
 -1      3027    4    0    1
 -2      7673      7763      7773      7683      7674      7764      7774      7684     22991     23064
 -2     23065     22356     22288     22996     23070     22362     22998     23071     23072     22363
 -1      3028    4    0    1
 -2      7674      7764      7774      7684      7675      7765      7775      7685     22998     23071
 -2     23072     22363     22295     23003     23077     22369     23005     23078     23079     22370
 -1      3029    4    0    1
 -2      7675      7765      7775      7685      7676      7766      7776      7686     23005     23078
 -2     23079     22370     22302     23010     23084     22376     23012     23085     23086     22377
 -1      3030    4    0    1
 -2      7676      7766      7776      7686      7677      7767      7777      7687     23012     23085
 -2     23086     22377     22309     23017     23091     22383     23019     23092     23093     22384
 -1      3031    4    0    1
 -2      7677      7767      7777      7687      7678      7768      7778      7688     23019     23092
 -2     23093     22384     22316     23024     23098     22390     23026     23099     23100     22391
 -1      3032    4    0    1
 -2      7678      7768      7778      7688      7679      7769      7779      7689     23026     23099
 -2     23100     22391     22323     23031     23105     22397     23033     23106     23107     22398
 -1      3033    4    0    1
 -2      7679      7769      7779      7689      7680      7770      7780      7690     23033     23106
 -2     23107     22398     22330     23038     23112     22404     23040     23113     23114     22405
 -1      3034    4    0    1
 -2      7680      7770      7780      7690      7681      7771      7781      7691     23040     23113
 -2     23114     22405     22337     23045     23119     22411     23047     23120     23121     22412
 -1      3035    4    0    1
 -2      7681      7771      7781      7691      7682      7772      7782      7692     23047     23120
 -2     23121     22412     22344     23052     23126     22418     23054     23127     23128     22419
 -1      3036    4    0    1
 -2      7682      7772      7782      7692      4977      4986      4987      4978     23054     23127
 -2     23128     22419     22351     23059     23133     22425      5656      5658      5659      5629
 -1      3037    4    0    1
 -2       581       590       591       582      7683      7773      7783      7693      1262      1264
 -2      1265      1235     22355     23063     23137     22429     23065     23138     23139     22430
 -1      3038    4    0    1
 -2      7683      7773      7783      7693      7684      7774      7784      7694     23065     23138
 -2     23139     22430     22362     23070     23144     22436     23072     23145     23146     22437
 -1      3039    4    0    1
 -2      7684      7774      7784      7694      7685      7775      7785      7695     23072     23145
 -2     23146     22437     22369     23077     23151     22443     23079     23152     23153     22444
 -1      3040    4    0    1
 -2      7685      7775      7785      7695      7686      7776      7786      7696     23079     23152
 -2     23153     22444     22376     23084     23158     22450     23086     23159     23160     22451
 -1      3041    4    0    1
 -2      7686      7776      7786      7696      7687      7777      7787      7697     23086     23159
 -2     23160     22451     22383     23091     23165     22457     23093     23166     23167     22458
 -1      3042    4    0    1
 -2      7687      7777      7787      7697      7688      7778      7788      7698     23093     23166
 -2     23167     22458     22390     23098     23172     22464     23100     23173     23174     22465
 -1      3043    4    0    1
 -2      7688      7778      7788      7698      7689      7779      7789      7699     23100     23173
 -2     23174     22465     22397     23105     23179     22471     23107     23180     23181     22472
 -1      3044    4    0    1
 -2      7689      7779      7789      7699      7690      7780      7790      7700     23107     23180
 -2     23181     22472     22404     23112     23186     22478     23114     23187     23188     22479
 -1      3045    4    0    1
 -2      7690      7780      7790      7700      7691      7781      7791      7701     23114     23187
 -2     23188     22479     22411     23119     23193     22485     23121     23194     23195     22486
 -1      3046    4    0    1
 -2      7691      7781      7791      7701      7692      7782      7792      7702     23121     23194
 -2     23195     22486     22418     23126     23200     22492     23128     23201     23202     22493
 -1      3047    4    0    1
 -2      7692      7782      7792      7702      4978      4987      4988      4979     23128     23201
 -2     23202     22493     22425     23133     23207     22499      5659      5661      5662      5632
 -1      3048    4    0    1
 -2       582       591       592       583      7693      7783      7793      7703      1265      1267
 -2      1268      1238     22429     23137     23211     22503     23139     23212     23213     22504
 -1      3049    4    0    1
 -2      7693      7783      7793      7703      7694      7784      7794      7704     23139     23212
 -2     23213     22504     22436     23144     23218     22510     23146     23219     23220     22511
 -1      3050    4    0    1
 -2      7694      7784      7794      7704      7695      7785      7795      7705     23146     23219
 -2     23220     22511     22443     23151     23225     22517     23153     23226     23227     22518
 -1      3051    4    0    1
 -2      7695      7785      7795      7705      7696      7786      7796      7706     23153     23226
 -2     23227     22518     22450     23158     23232     22524     23160     23233     23234     22525
 -1      3052    4    0    1
 -2      7696      7786      7796      7706      7697      7787      7797      7707     23160     23233
 -2     23234     22525     22457     23165     23239     22531     23167     23240     23241     22532
 -1      3053    4    0    1
 -2      7697      7787      7797      7707      7698      7788      7798      7708     23167     23240
 -2     23241     22532     22464     23172     23246     22538     23174     23247     23248     22539
 -1      3054    4    0    1
 -2      7698      7788      7798      7708      7699      7789      7799      7709     23174     23247
 -2     23248     22539     22471     23179     23253     22545     23181     23254     23255     22546
 -1      3055    4    0    1
 -2      7699      7789      7799      7709      7700      7790      7800      7710     23181     23254
 -2     23255     22546     22478     23186     23260     22552     23188     23261     23262     22553
 -1      3056    4    0    1
 -2      7700      7790      7800      7710      7701      7791      7801      7711     23188     23261
 -2     23262     22553     22485     23193     23267     22559     23195     23268     23269     22560
 -1      3057    4    0    1
 -2      7701      7791      7801      7711      7702      7792      7802      7712     23195     23268
 -2     23269     22560     22492     23200     23274     22566     23202     23275     23276     22567
 -1      3058    4    0    1
 -2      7702      7792      7802      7712      4979      4988      4989      4980     23202     23275
 -2     23276     22567     22499     23207     23281     22573      5662      5664      5665      5635
 -1      3059    4    0    1
 -2       583       592       593       584      7703      7793      7803      7713      1268      1270
 -2      1271      1241     22503     23211     23285     22577     23213     23286     23287     22578
 -1      3060    4    0    1
 -2      7703      7793      7803      7713      7704      7794      7804      7714     23213     23286
 -2     23287     22578     22510     23218     23292     22584     23220     23293     23294     22585
 -1      3061    4    0    1
 -2      7704      7794      7804      7714      7705      7795      7805      7715     23220     23293
 -2     23294     22585     22517     23225     23299     22591     23227     23300     23301     22592
 -1      3062    4    0    1
 -2      7705      7795      7805      7715      7706      7796      7806      7716     23227     23300
 -2     23301     22592     22524     23232     23306     22598     23234     23307     23308     22599
 -1      3063    4    0    1
 -2      7706      7796      7806      7716      7707      7797      7807      7717     23234     23307
 -2     23308     22599     22531     23239     23313     22605     23241     23314     23315     22606
 -1      3064    4    0    1
 -2      7707      7797      7807      7717      7708      7798      7808      7718     23241     23314
 -2     23315     22606     22538     23246     23320     22612     23248     23321     23322     22613
 -1      3065    4    0    1
 -2      7708      7798      7808      7718      7709      7799      7809      7719     23248     23321
 -2     23322     22613     22545     23253     23327     22619     23255     23328     23329     22620
 -1      3066    4    0    1
 -2      7709      7799      7809      7719      7710      7800      7810      7720     23255     23328
 -2     23329     22620     22552     23260     23334     22626     23262     23335     23336     22627
 -1      3067    4    0    1
 -2      7710      7800      7810      7720      7711      7801      7811      7721     23262     23335
 -2     23336     22627     22559     23267     23341     22633     23269     23342     23343     22634
 -1      3068    4    0    1
 -2      7711      7801      7811      7721      7712      7802      7812      7722     23269     23342
 -2     23343     22634     22566     23274     23348     22640     23276     23349     23350     22641
 -1      3069    4    0    1
 -2      7712      7802      7812      7722      4980      4989      4990      4981     23276     23349
 -2     23350     22641     22573     23281     23355     22647      5665      5667      5668      5638
 -1      3070    4    0    1
 -2       584       593        95        96      7713      7803      3244      3254      1271      1273
 -2       125      1244     22577     23285      3710      3742     23287     23359      3743     22651
 -1      3071    4    0    1
 -2      7713      7803      3244      3254      7714      7804      3245      3255     23287     23359
 -2      3743     22651     22584     23292      3713      3745     23294     23363      3746     22655
 -1      3072    4    0    1
 -2      7714      7804      3245      3255      7715      7805      3246      3256     23294     23363
 -2      3746     22655     22591     23299      3716      3748     23301     23367      3749     22659
 -1      3073    4    0    1
 -2      7715      7805      3246      3256      7716      7806      3247      3257     23301     23367
 -2      3749     22659     22598     23306      3719      3751     23308     23371      3752     22663
 -1      3074    4    0    1
 -2      7716      7806      3247      3257      7717      7807      3248      3258     23308     23371
 -2      3752     22663     22605     23313      3722      3754     23315     23375      3755     22667
 -1      3075    4    0    1
 -2      7717      7807      3248      3258      7718      7808      3249      3259     23315     23375
 -2      3755     22667     22612     23320      3725      3757     23322     23379      3758     22671
 -1      3076    4    0    1
 -2      7718      7808      3249      3259      7719      7809      3250      3260     23322     23379
 -2      3758     22671     22619     23327      3728      3760     23329     23383      3761     22675
 -1      3077    4    0    1
 -2      7719      7809      3250      3260      7720      7810      3251      3261     23329     23383
 -2      3761     22675     22626     23334      3731      3763     23336     23387      3764     22679
 -1      3078    4    0    1
 -2      7720      7810      3251      3261      7721      7811      3252      3262     23336     23387
 -2      3764     22679     22633     23341      3734      3766     23343     23391      3767     22683
 -1      3079    4    0    1
 -2      7721      7811      3252      3262      7722      7812      3253      3263     23343     23391
 -2      3767     22683     22640     23348      3737      3769     23350     23395      3770     22687
 -1      3080    4    0    1
 -2      7722      7812      3253      3263      4981      4990       251       252     23350     23395
 -2      3770     22687     22647     23355      3740      3772      5668      5670       281      5641
 -1      3081    4    0    1
 -2        29        30       594       585      1726      1736      7813      7723        59      1275
 -2      1276      1246      2456      2488     23401     22693      2489     23402     23403     22694
 -1      3082    4    0    1
 -2      1726      1736      7813      7723      1727      1737      7814      7724      2489     23402
 -2     23403     22694      2459      2491     23408     22700      2492     23409     23410     22701
 -1      3083    4    0    1
 -2      1727      1737      7814      7724      1728      1738      7815      7725      2492     23409
 -2     23410     22701      2462      2494     23415     22707      2495     23416     23417     22708
 -1      3084    4    0    1
 -2      1728      1738      7815      7725      1729      1739      7816      7726      2495     23416
 -2     23417     22708      2465      2497     23422     22714      2498     23423     23424     22715
 -1      3085    4    0    1
 -2      1729      1739      7816      7726      1730      1740      7817      7727      2498     23423
 -2     23424     22715      2468      2500     23429     22721      2501     23430     23431     22722
 -1      3086    4    0    1
 -2      1730      1740      7817      7727      1731      1741      7818      7728      2501     23430
 -2     23431     22722      2471      2503     23436     22728      2504     23437     23438     22729
 -1      3087    4    0    1
 -2      1731      1741      7818      7728      1732      1742      7819      7729      2504     23437
 -2     23438     22729      2474      2506     23443     22735      2507     23444     23445     22736
 -1      3088    4    0    1
 -2      1732      1742      7819      7729      1733      1743      7820      7730      2507     23444
 -2     23445     22736      2477      2509     23450     22742      2510     23451     23452     22743
 -1      3089    4    0    1
 -2      1733      1743      7820      7730      1734      1744      7821      7731      2510     23451
 -2     23452     22743      2480      2512     23457     22749      2513     23458     23459     22750
 -1      3090    4    0    1
 -2      1734      1744      7821      7731      1735      1745      7822      7732      2513     23458
 -2     23459     22750      2483      2515     23464     22756      2516     23465     23466     22757
 -1      3091    4    0    1
 -2      1735      1745      7822      7732       185       186      4991      4982      2516     23465
 -2     23466     22757      2486      2518     23471     22763       215      5672      5673      5643
 -1      3092    4    0    1
 -2       585       594       595       586      7723      7813      7823      7733      1276      1278
 -2      1279      1249     22693     23401     23475     22767     23403     23476     23477     22768
 -1      3093    4    0    1
 -2      7723      7813      7823      7733      7724      7814      7824      7734     23403     23476
 -2     23477     22768     22700     23408     23482     22774     23410     23483     23484     22775
 -1      3094    4    0    1
 -2      7724      7814      7824      7734      7725      7815      7825      7735     23410     23483
 -2     23484     22775     22707     23415     23489     22781     23417     23490     23491     22782
 -1      3095    4    0    1
 -2      7725      7815      7825      7735      7726      7816      7826      7736     23417     23490
 -2     23491     22782     22714     23422     23496     22788     23424     23497     23498     22789
 -1      3096    4    0    1
 -2      7726      7816      7826      7736      7727      7817      7827      7737     23424     23497
 -2     23498     22789     22721     23429     23503     22795     23431     23504     23505     22796
 -1      3097    4    0    1
 -2      7727      7817      7827      7737      7728      7818      7828      7738     23431     23504
 -2     23505     22796     22728     23436     23510     22802     23438     23511     23512     22803
 -1      3098    4    0    1
 -2      7728      7818      7828      7738      7729      7819      7829      7739     23438     23511
 -2     23512     22803     22735     23443     23517     22809     23445     23518     23519     22810
 -1      3099    4    0    1
 -2      7729      7819      7829      7739      7730      7820      7830      7740     23445     23518
 -2     23519     22810     22742     23450     23524     22816     23452     23525     23526     22817
 -1      3100    4    0    1
 -2      7730      7820      7830      7740      7731      7821      7831      7741     23452     23525
 -2     23526     22817     22749     23457     23531     22823     23459     23532     23533     22824
 -1      3101    4    0    1
 -2      7731      7821      7831      7741      7732      7822      7832      7742     23459     23532
 -2     23533     22824     22756     23464     23538     22830     23466     23539     23540     22831
 -1      3102    4    0    1
 -2      7732      7822      7832      7742      4982      4991      4992      4983     23466     23539
 -2     23540     22831     22763     23471     23545     22837      5673      5675      5676      5646
 -1      3103    4    0    1
 -2       586       595       596       587      7733      7823      7833      7743      1279      1281
 -2      1282      1252     22767     23475     23549     22841     23477     23550     23551     22842
 -1      3104    4    0    1
 -2      7733      7823      7833      7743      7734      7824      7834      7744     23477     23550
 -2     23551     22842     22774     23482     23556     22848     23484     23557     23558     22849
 -1      3105    4    0    1
 -2      7734      7824      7834      7744      7735      7825      7835      7745     23484     23557
 -2     23558     22849     22781     23489     23563     22855     23491     23564     23565     22856
 -1      3106    4    0    1
 -2      7735      7825      7835      7745      7736      7826      7836      7746     23491     23564
 -2     23565     22856     22788     23496     23570     22862     23498     23571     23572     22863
 -1      3107    4    0    1
 -2      7736      7826      7836      7746      7737      7827      7837      7747     23498     23571
 -2     23572     22863     22795     23503     23577     22869     23505     23578     23579     22870
 -1      3108    4    0    1
 -2      7737      7827      7837      7747      7738      7828      7838      7748     23505     23578
 -2     23579     22870     22802     23510     23584     22876     23512     23585     23586     22877
 -1      3109    4    0    1
 -2      7738      7828      7838      7748      7739      7829      7839      7749     23512     23585
 -2     23586     22877     22809     23517     23591     22883     23519     23592     23593     22884
 -1      3110    4    0    1
 -2      7739      7829      7839      7749      7740      7830      7840      7750     23519     23592
 -2     23593     22884     22816     23524     23598     22890     23526     23599     23600     22891
 -1      3111    4    0    1
 -2      7740      7830      7840      7750      7741      7831      7841      7751     23526     23599
 -2     23600     22891     22823     23531     23605     22897     23533     23606     23607     22898
 -1      3112    4    0    1
 -2      7741      7831      7841      7751      7742      7832      7842      7752     23533     23606
 -2     23607     22898     22830     23538     23612     22904     23540     23613     23614     22905
 -1      3113    4    0    1
 -2      7742      7832      7842      7752      4983      4992      4993      4984     23540     23613
 -2     23614     22905     22837     23545     23619     22911      5676      5678      5679      5649
 -1      3114    4    0    1
 -2       587       596       597       588      7743      7833      7843      7753      1282      1284
 -2      1285      1255     22841     23549     23623     22915     23551     23624     23625     22916
 -1      3115    4    0    1
 -2      7743      7833      7843      7753      7744      7834      7844      7754     23551     23624
 -2     23625     22916     22848     23556     23630     22922     23558     23631     23632     22923
 -1      3116    4    0    1
 -2      7744      7834      7844      7754      7745      7835      7845      7755     23558     23631
 -2     23632     22923     22855     23563     23637     22929     23565     23638     23639     22930
 -1      3117    4    0    1
 -2      7745      7835      7845      7755      7746      7836      7846      7756     23565     23638
 -2     23639     22930     22862     23570     23644     22936     23572     23645     23646     22937
 -1      3118    4    0    1
 -2      7746      7836      7846      7756      7747      7837      7847      7757     23572     23645
 -2     23646     22937     22869     23577     23651     22943     23579     23652     23653     22944
 -1      3119    4    0    1
 -2      7747      7837      7847      7757      7748      7838      7848      7758     23579     23652
 -2     23653     22944     22876     23584     23658     22950     23586     23659     23660     22951
 -1      3120    4    0    1
 -2      7748      7838      7848      7758      7749      7839      7849      7759     23586     23659
 -2     23660     22951     22883     23591     23665     22957     23593     23666     23667     22958
 -1      3121    4    0    1
 -2      7749      7839      7849      7759      7750      7840      7850      7760     23593     23666
 -2     23667     22958     22890     23598     23672     22964     23600     23673     23674     22965
 -1      3122    4    0    1
 -2      7750      7840      7850      7760      7751      7841      7851      7761     23600     23673
 -2     23674     22965     22897     23605     23679     22971     23607     23680     23681     22972
 -1      3123    4    0    1
 -2      7751      7841      7851      7761      7752      7842      7852      7762     23607     23680
 -2     23681     22972     22904     23612     23686     22978     23614     23687     23688     22979
 -1      3124    4    0    1
 -2      7752      7842      7852      7762      4984      4993      4994      4985     23614     23687
 -2     23688     22979     22911     23619     23693     22985      5679      5681      5682      5652
 -1      3125    4    0    1
 -2       588       597       598       589      7753      7843      7853      7763      1285      1287
 -2      1288      1258     22915     23623     23697     22989     23625     23698     23699     22990
 -1      3126    4    0    1
 -2      7753      7843      7853      7763      7754      7844      7854      7764     23625     23698
 -2     23699     22990     22922     23630     23704     22996     23632     23705     23706     22997
 -1      3127    4    0    1
 -2      7754      7844      7854      7764      7755      7845      7855      7765     23632     23705
 -2     23706     22997     22929     23637     23711     23003     23639     23712     23713     23004
 -1      3128    4    0    1
 -2      7755      7845      7855      7765      7756      7846      7856      7766     23639     23712
 -2     23713     23004     22936     23644     23718     23010     23646     23719     23720     23011
 -1      3129    4    0    1
 -2      7756      7846      7856      7766      7757      7847      7857      7767     23646     23719
 -2     23720     23011     22943     23651     23725     23017     23653     23726     23727     23018
 -1      3130    4    0    1
 -2      7757      7847      7857      7767      7758      7848      7858      7768     23653     23726
 -2     23727     23018     22950     23658     23732     23024     23660     23733     23734     23025
 -1      3131    4    0    1
 -2      7758      7848      7858      7768      7759      7849      7859      7769     23660     23733
 -2     23734     23025     22957     23665     23739     23031     23667     23740     23741     23032
 -1      3132    4    0    1
 -2      7759      7849      7859      7769      7760      7850      7860      7770     23667     23740
 -2     23741     23032     22964     23672     23746     23038     23674     23747     23748     23039
 -1      3133    4    0    1
 -2      7760      7850      7860      7770      7761      7851      7861      7771     23674     23747
 -2     23748     23039     22971     23679     23753     23045     23681     23754     23755     23046
 -1      3134    4    0    1
 -2      7761      7851      7861      7771      7762      7852      7862      7772     23681     23754
 -2     23755     23046     22978     23686     23760     23052     23688     23761     23762     23053
 -1      3135    4    0    1
 -2      7762      7852      7862      7772      4985      4994      4995      4986     23688     23761
 -2     23762     23053     22985     23693     23767     23059      5682      5684      5685      5655
 -1      3136    4    0    1
 -2       589       598       599       590      7763      7853      7863      7773      1288      1290
 -2      1291      1261     22989     23697     23771     23063     23699     23772     23773     23064
 -1      3137    4    0    1
 -2      7763      7853      7863      7773      7764      7854      7864      7774     23699     23772
 -2     23773     23064     22996     23704     23778     23070     23706     23779     23780     23071
 -1      3138    4    0    1
 -2      7764      7854      7864      7774      7765      7855      7865      7775     23706     23779
 -2     23780     23071     23003     23711     23785     23077     23713     23786     23787     23078
 -1      3139    4    0    1
 -2      7765      7855      7865      7775      7766      7856      7866      7776     23713     23786
 -2     23787     23078     23010     23718     23792     23084     23720     23793     23794     23085
 -1      3140    4    0    1
 -2      7766      7856      7866      7776      7767      7857      7867      7777     23720     23793
 -2     23794     23085     23017     23725     23799     23091     23727     23800     23801     23092
 -1      3141    4    0    1
 -2      7767      7857      7867      7777      7768      7858      7868      7778     23727     23800
 -2     23801     23092     23024     23732     23806     23098     23734     23807     23808     23099
 -1      3142    4    0    1
 -2      7768      7858      7868      7778      7769      7859      7869      7779     23734     23807
 -2     23808     23099     23031     23739     23813     23105     23741     23814     23815     23106
 -1      3143    4    0    1
 -2      7769      7859      7869      7779      7770      7860      7870      7780     23741     23814
 -2     23815     23106     23038     23746     23820     23112     23748     23821     23822     23113
 -1      3144    4    0    1
 -2      7770      7860      7870      7780      7771      7861      7871      7781     23748     23821
 -2     23822     23113     23045     23753     23827     23119     23755     23828     23829     23120
 -1      3145    4    0    1
 -2      7771      7861      7871      7781      7772      7862      7872      7782     23755     23828
 -2     23829     23120     23052     23760     23834     23126     23762     23835     23836     23127
 -1      3146    4    0    1
 -2      7772      7862      7872      7782      4986      4995      4996      4987     23762     23835
 -2     23836     23127     23059     23767     23841     23133      5685      5687      5688      5658
 -1      3147    4    0    1
 -2       590       599       600       591      7773      7863      7873      7783      1291      1293
 -2      1294      1264     23063     23771     23845     23137     23773     23846     23847     23138
 -1      3148    4    0    1
 -2      7773      7863      7873      7783      7774      7864      7874      7784     23773     23846
 -2     23847     23138     23070     23778     23852     23144     23780     23853     23854     23145
 -1      3149    4    0    1
 -2      7774      7864      7874      7784      7775      7865      7875      7785     23780     23853
 -2     23854     23145     23077     23785     23859     23151     23787     23860     23861     23152
 -1      3150    4    0    1
 -2      7775      7865      7875      7785      7776      7866      7876      7786     23787     23860
 -2     23861     23152     23084     23792     23866     23158     23794     23867     23868     23159
 -1      3151    4    0    1
 -2      7776      7866      7876      7786      7777      7867      7877      7787     23794     23867
 -2     23868     23159     23091     23799     23873     23165     23801     23874     23875     23166
 -1      3152    4    0    1
 -2      7777      7867      7877      7787      7778      7868      7878      7788     23801     23874
 -2     23875     23166     23098     23806     23880     23172     23808     23881     23882     23173
 -1      3153    4    0    1
 -2      7778      7868      7878      7788      7779      7869      7879      7789     23808     23881
 -2     23882     23173     23105     23813     23887     23179     23815     23888     23889     23180
 -1      3154    4    0    1
 -2      7779      7869      7879      7789      7780      7870      7880      7790     23815     23888
 -2     23889     23180     23112     23820     23894     23186     23822     23895     23896     23187
 -1      3155    4    0    1
 -2      7780      7870      7880      7790      7781      7871      7881      7791     23822     23895
 -2     23896     23187     23119     23827     23901     23193     23829     23902     23903     23194
 -1      3156    4    0    1
 -2      7781      7871      7881      7791      7782      7872      7882      7792     23829     23902
 -2     23903     23194     23126     23834     23908     23200     23836     23909     23910     23201
 -1      3157    4    0    1
 -2      7782      7872      7882      7792      4987      4996      4997      4988     23836     23909
 -2     23910     23201     23133     23841     23915     23207      5688      5690      5691      5661
 -1      3158    4    0    1
 -2       591       600       601       592      7783      7873      7883      7793      1294      1296
 -2      1297      1267     23137     23845     23919     23211     23847     23920     23921     23212
 -1      3159    4    0    1
 -2      7783      7873      7883      7793      7784      7874      7884      7794     23847     23920
 -2     23921     23212     23144     23852     23926     23218     23854     23927     23928     23219
 -1      3160    4    0    1
 -2      7784      7874      7884      7794      7785      7875      7885      7795     23854     23927
 -2     23928     23219     23151     23859     23933     23225     23861     23934     23935     23226
 -1      3161    4    0    1
 -2      7785      7875      7885      7795      7786      7876      7886      7796     23861     23934
 -2     23935     23226     23158     23866     23940     23232     23868     23941     23942     23233
 -1      3162    4    0    1
 -2      7786      7876      7886      7796      7787      7877      7887      7797     23868     23941
 -2     23942     23233     23165     23873     23947     23239     23875     23948     23949     23240
 -1      3163    4    0    1
 -2      7787      7877      7887      7797      7788      7878      7888      7798     23875     23948
 -2     23949     23240     23172     23880     23954     23246     23882     23955     23956     23247
 -1      3164    4    0    1
 -2      7788      7878      7888      7798      7789      7879      7889      7799     23882     23955
 -2     23956     23247     23179     23887     23961     23253     23889     23962     23963     23254
 -1      3165    4    0    1
 -2      7789      7879      7889      7799      7790      7880      7890      7800     23889     23962
 -2     23963     23254     23186     23894     23968     23260     23896     23969     23970     23261
 -1      3166    4    0    1
 -2      7790      7880      7890      7800      7791      7881      7891      7801     23896     23969
 -2     23970     23261     23193     23901     23975     23267     23903     23976     23977     23268
 -1      3167    4    0    1
 -2      7791      7881      7891      7801      7792      7882      7892      7802     23903     23976
 -2     23977     23268     23200     23908     23982     23274     23910     23983     23984     23275
 -1      3168    4    0    1
 -2      7792      7882      7892      7802      4988      4997      4998      4989     23910     23983
 -2     23984     23275     23207     23915     23989     23281      5691      5693      5694      5664
 -1      3169    4    0    1
 -2       592       601       602       593      7793      7883      7893      7803      1297      1299
 -2      1300      1270     23211     23919     23993     23285     23921     23994     23995     23286
 -1      3170    4    0    1
 -2      7793      7883      7893      7803      7794      7884      7894      7804     23921     23994
 -2     23995     23286     23218     23926     24000     23292     23928     24001     24002     23293
 -1      3171    4    0    1
 -2      7794      7884      7894      7804      7795      7885      7895      7805     23928     24001
 -2     24002     23293     23225     23933     24007     23299     23935     24008     24009     23300
 -1      3172    4    0    1
 -2      7795      7885      7895      7805      7796      7886      7896      7806     23935     24008
 -2     24009     23300     23232     23940     24014     23306     23942     24015     24016     23307
 -1      3173    4    0    1
 -2      7796      7886      7896      7806      7797      7887      7897      7807     23942     24015
 -2     24016     23307     23239     23947     24021     23313     23949     24022     24023     23314
 -1      3174    4    0    1
 -2      7797      7887      7897      7807      7798      7888      7898      7808     23949     24022
 -2     24023     23314     23246     23954     24028     23320     23956     24029     24030     23321
 -1      3175    4    0    1
 -2      7798      7888      7898      7808      7799      7889      7899      7809     23956     24029
 -2     24030     23321     23253     23961     24035     23327     23963     24036     24037     23328
 -1      3176    4    0    1
 -2      7799      7889      7899      7809      7800      7890      7900      7810     23963     24036
 -2     24037     23328     23260     23968     24042     23334     23970     24043     24044     23335
 -1      3177    4    0    1
 -2      7800      7890      7900      7810      7801      7891      7901      7811     23970     24043
 -2     24044     23335     23267     23975     24049     23341     23977     24050     24051     23342
 -1      3178    4    0    1
 -2      7801      7891      7901      7811      7802      7892      7902      7812     23977     24050
 -2     24051     23342     23274     23982     24056     23348     23984     24057     24058     23349
 -1      3179    4    0    1
 -2      7802      7892      7902      7812      4989      4998      4999      4990     23984     24057
 -2     24058     23349     23281     23989     24063     23355      5694      5696      5697      5667
 -1      3180    4    0    1
 -2       593       602        94        95      7803      7893      3234      3244      1300      1302
 -2       124      1273     23285     23993      3678      3710     23995     24067      3711     23359
 -1      3181    4    0    1
 -2      7803      7893      3234      3244      7804      7894      3235      3245     23995     24067
 -2      3711     23359     23292     24000      3681      3713     24002     24071      3714     23363
 -1      3182    4    0    1
 -2      7804      7894      3235      3245      7805      7895      3236      3246     24002     24071
 -2      3714     23363     23299     24007      3684      3716     24009     24075      3717     23367
 -1      3183    4    0    1
 -2      7805      7895      3236      3246      7806      7896      3237      3247     24009     24075
 -2      3717     23367     23306     24014      3687      3719     24016     24079      3720     23371
 -1      3184    4    0    1
 -2      7806      7896      3237      3247      7807      7897      3238      3248     24016     24079
 -2      3720     23371     23313     24021      3690      3722     24023     24083      3723     23375
 -1      3185    4    0    1
 -2      7807      7897      3238      3248      7808      7898      3239      3249     24023     24083
 -2      3723     23375     23320     24028      3693      3725     24030     24087      3726     23379
 -1      3186    4    0    1
 -2      7808      7898      3239      3249      7809      7899      3240      3250     24030     24087
 -2      3726     23379     23327     24035      3696      3728     24037     24091      3729     23383
 -1      3187    4    0    1
 -2      7809      7899      3240      3250      7810      7900      3241      3251     24037     24091
 -2      3729     23383     23334     24042      3699      3731     24044     24095      3732     23387
 -1      3188    4    0    1
 -2      7810      7900      3241      3251      7811      7901      3242      3252     24044     24095
 -2      3732     23387     23341     24049      3702      3734     24051     24099      3735     23391
 -1      3189    4    0    1
 -2      7811      7901      3242      3252      7812      7902      3243      3253     24051     24099
 -2      3735     23391     23348     24056      3705      3737     24058     24103      3738     23395
 -1      3190    4    0    1
 -2      7812      7902      3243      3253      4990      4999       250       251     24058     24103
 -2      3738     23395     23355     24063      3708      3740      5697      5699       280      5670
 -1      3191    4    0    1
 -2        30        31       603       594      1736      1746      7903      7813        60      1304
 -2      1305      1275      2488      2520     24109     23401      2521     24110     24111     23402
 -1      3192    4    0    1
 -2      1736      1746      7903      7813      1737      1747      7904      7814      2521     24110
 -2     24111     23402      2491      2523     24116     23408      2524     24117     24118     23409
 -1      3193    4    0    1
 -2      1737      1747      7904      7814      1738      1748      7905      7815      2524     24117
 -2     24118     23409      2494      2526     24123     23415      2527     24124     24125     23416
 -1      3194    4    0    1
 -2      1738      1748      7905      7815      1739      1749      7906      7816      2527     24124
 -2     24125     23416      2497      2529     24130     23422      2530     24131     24132     23423
 -1      3195    4    0    1
 -2      1739      1749      7906      7816      1740      1750      7907      7817      2530     24131
 -2     24132     23423      2500      2532     24137     23429      2533     24138     24139     23430
 -1      3196    4    0    1
 -2      1740      1750      7907      7817      1741      1751      7908      7818      2533     24138
 -2     24139     23430      2503      2535     24144     23436      2536     24145     24146     23437
 -1      3197    4    0    1
 -2      1741      1751      7908      7818      1742      1752      7909      7819      2536     24145
 -2     24146     23437      2506      2538     24151     23443      2539     24152     24153     23444
 -1      3198    4    0    1
 -2      1742      1752      7909      7819      1743      1753      7910      7820      2539     24152
 -2     24153     23444      2509      2541     24158     23450      2542     24159     24160     23451
 -1      3199    4    0    1
 -2      1743      1753      7910      7820      1744      1754      7911      7821      2542     24159
 -2     24160     23451      2512      2544     24165     23457      2545     24166     24167     23458
 -1      3200    4    0    1
 -2      1744      1754      7911      7821      1745      1755      7912      7822      2545     24166
 -2     24167     23458      2515      2547     24172     23464      2548     24173     24174     23465
 -1      3201    4    0    1
 -2      1745      1755      7912      7822       186       187      5000      4991      2548     24173
 -2     24174     23465      2518      2550     24179     23471       216      5701      5702      5672
 -1      3202    4    0    1
 -2       594       603       604       595      7813      7903      7913      7823      1305      1307
 -2      1308      1278     23401     24109     24183     23475     24111     24184     24185     23476
 -1      3203    4    0    1
 -2      7813      7903      7913      7823      7814      7904      7914      7824     24111     24184
 -2     24185     23476     23408     24116     24190     23482     24118     24191     24192     23483
 -1      3204    4    0    1
 -2      7814      7904      7914      7824      7815      7905      7915      7825     24118     24191
 -2     24192     23483     23415     24123     24197     23489     24125     24198     24199     23490
 -1      3205    4    0    1
 -2      7815      7905      7915      7825      7816      7906      7916      7826     24125     24198
 -2     24199     23490     23422     24130     24204     23496     24132     24205     24206     23497
 -1      3206    4    0    1
 -2      7816      7906      7916      7826      7817      7907      7917      7827     24132     24205
 -2     24206     23497     23429     24137     24211     23503     24139     24212     24213     23504
 -1      3207    4    0    1
 -2      7817      7907      7917      7827      7818      7908      7918      7828     24139     24212
 -2     24213     23504     23436     24144     24218     23510     24146     24219     24220     23511
 -1      3208    4    0    1
 -2      7818      7908      7918      7828      7819      7909      7919      7829     24146     24219
 -2     24220     23511     23443     24151     24225     23517     24153     24226     24227     23518
 -1      3209    4    0    1
 -2      7819      7909      7919      7829      7820      7910      7920      7830     24153     24226
 -2     24227     23518     23450     24158     24232     23524     24160     24233     24234     23525
 -1      3210    4    0    1
 -2      7820      7910      7920      7830      7821      7911      7921      7831     24160     24233
 -2     24234     23525     23457     24165     24239     23531     24167     24240     24241     23532
 -1      3211    4    0    1
 -2      7821      7911      7921      7831      7822      7912      7922      7832     24167     24240
 -2     24241     23532     23464     24172     24246     23538     24174     24247     24248     23539
 -1      3212    4    0    1
 -2      7822      7912      7922      7832      4991      5000      5001      4992     24174     24247
 -2     24248     23539     23471     24179     24253     23545      5702      5704      5705      5675
 -1      3213    4    0    1
 -2       595       604       605       596      7823      7913      7923      7833      1308      1310
 -2      1311      1281     23475     24183     24257     23549     24185     24258     24259     23550
 -1      3214    4    0    1
 -2      7823      7913      7923      7833      7824      7914      7924      7834     24185     24258
 -2     24259     23550     23482     24190     24264     23556     24192     24265     24266     23557
 -1      3215    4    0    1
 -2      7824      7914      7924      7834      7825      7915      7925      7835     24192     24265
 -2     24266     23557     23489     24197     24271     23563     24199     24272     24273     23564
 -1      3216    4    0    1
 -2      7825      7915      7925      7835      7826      7916      7926      7836     24199     24272
 -2     24273     23564     23496     24204     24278     23570     24206     24279     24280     23571
 -1      3217    4    0    1
 -2      7826      7916      7926      7836      7827      7917      7927      7837     24206     24279
 -2     24280     23571     23503     24211     24285     23577     24213     24286     24287     23578
 -1      3218    4    0    1
 -2      7827      7917      7927      7837      7828      7918      7928      7838     24213     24286
 -2     24287     23578     23510     24218     24292     23584     24220     24293     24294     23585
 -1      3219    4    0    1
 -2      7828      7918      7928      7838      7829      7919      7929      7839     24220     24293
 -2     24294     23585     23517     24225     24299     23591     24227     24300     24301     23592
 -1      3220    4    0    1
 -2      7829      7919      7929      7839      7830      7920      7930      7840     24227     24300
 -2     24301     23592     23524     24232     24306     23598     24234     24307     24308     23599
 -1      3221    4    0    1
 -2      7830      7920      7930      7840      7831      7921      7931      7841     24234     24307
 -2     24308     23599     23531     24239     24313     23605     24241     24314     24315     23606
 -1      3222    4    0    1
 -2      7831      7921      7931      7841      7832      7922      7932      7842     24241     24314
 -2     24315     23606     23538     24246     24320     23612     24248     24321     24322     23613
 -1      3223    4    0    1
 -2      7832      7922      7932      7842      4992      5001      5002      4993     24248     24321
 -2     24322     23613     23545     24253     24327     23619      5705      5707      5708      5678
 -1      3224    4    0    1
 -2       596       605       606       597      7833      7923      7933      7843      1311      1313
 -2      1314      1284     23549     24257     24331     23623     24259     24332     24333     23624
 -1      3225    4    0    1
 -2      7833      7923      7933      7843      7834      7924      7934      7844     24259     24332
 -2     24333     23624     23556     24264     24338     23630     24266     24339     24340     23631
 -1      3226    4    0    1
 -2      7834      7924      7934      7844      7835      7925      7935      7845     24266     24339
 -2     24340     23631     23563     24271     24345     23637     24273     24346     24347     23638
 -1      3227    4    0    1
 -2      7835      7925      7935      7845      7836      7926      7936      7846     24273     24346
 -2     24347     23638     23570     24278     24352     23644     24280     24353     24354     23645
 -1      3228    4    0    1
 -2      7836      7926      7936      7846      7837      7927      7937      7847     24280     24353
 -2     24354     23645     23577     24285     24359     23651     24287     24360     24361     23652
 -1      3229    4    0    1
 -2      7837      7927      7937      7847      7838      7928      7938      7848     24287     24360
 -2     24361     23652     23584     24292     24366     23658     24294     24367     24368     23659
 -1      3230    4    0    1
 -2      7838      7928      7938      7848      7839      7929      7939      7849     24294     24367
 -2     24368     23659     23591     24299     24373     23665     24301     24374     24375     23666
 -1      3231    4    0    1
 -2      7839      7929      7939      7849      7840      7930      7940      7850     24301     24374
 -2     24375     23666     23598     24306     24380     23672     24308     24381     24382     23673
 -1      3232    4    0    1
 -2      7840      7930      7940      7850      7841      7931      7941      7851     24308     24381
 -2     24382     23673     23605     24313     24387     23679     24315     24388     24389     23680
 -1      3233    4    0    1
 -2      7841      7931      7941      7851      7842      7932      7942      7852     24315     24388
 -2     24389     23680     23612     24320     24394     23686     24322     24395     24396     23687
 -1      3234    4    0    1
 -2      7842      7932      7942      7852      4993      5002      5003      4994     24322     24395
 -2     24396     23687     23619     24327     24401     23693      5708      5710      5711      5681
 -1      3235    4    0    1
 -2       597       606       607       598      7843      7933      7943      7853      1314      1316
 -2      1317      1287     23623     24331     24405     23697     24333     24406     24407     23698
 -1      3236    4    0    1
 -2      7843      7933      7943      7853      7844      7934      7944      7854     24333     24406
 -2     24407     23698     23630     24338     24412     23704     24340     24413     24414     23705
 -1      3237    4    0    1
 -2      7844      7934      7944      7854      7845      7935      7945      7855     24340     24413
 -2     24414     23705     23637     24345     24419     23711     24347     24420     24421     23712
 -1      3238    4    0    1
 -2      7845      7935      7945      7855      7846      7936      7946      7856     24347     24420
 -2     24421     23712     23644     24352     24426     23718     24354     24427     24428     23719
 -1      3239    4    0    1
 -2      7846      7936      7946      7856      7847      7937      7947      7857     24354     24427
 -2     24428     23719     23651     24359     24433     23725     24361     24434     24435     23726
 -1      3240    4    0    1
 -2      7847      7937      7947      7857      7848      7938      7948      7858     24361     24434
 -2     24435     23726     23658     24366     24440     23732     24368     24441     24442     23733
 -1      3241    4    0    1
 -2      7848      7938      7948      7858      7849      7939      7949      7859     24368     24441
 -2     24442     23733     23665     24373     24447     23739     24375     24448     24449     23740
 -1      3242    4    0    1
 -2      7849      7939      7949      7859      7850      7940      7950      7860     24375     24448
 -2     24449     23740     23672     24380     24454     23746     24382     24455     24456     23747
 -1      3243    4    0    1
 -2      7850      7940      7950      7860      7851      7941      7951      7861     24382     24455
 -2     24456     23747     23679     24387     24461     23753     24389     24462     24463     23754
 -1      3244    4    0    1
 -2      7851      7941      7951      7861      7852      7942      7952      7862     24389     24462
 -2     24463     23754     23686     24394     24468     23760     24396     24469     24470     23761
 -1      3245    4    0    1
 -2      7852      7942      7952      7862      4994      5003      5004      4995     24396     24469
 -2     24470     23761     23693     24401     24475     23767      5711      5713      5714      5684
 -1      3246    4    0    1
 -2       598       607       608       599      7853      7943      7953      7863      1317      1319
 -2      1320      1290     23697     24405     24479     23771     24407     24480     24481     23772
 -1      3247    4    0    1
 -2      7853      7943      7953      7863      7854      7944      7954      7864     24407     24480
 -2     24481     23772     23704     24412     24486     23778     24414     24487     24488     23779
 -1      3248    4    0    1
 -2      7854      7944      7954      7864      7855      7945      7955      7865     24414     24487
 -2     24488     23779     23711     24419     24493     23785     24421     24494     24495     23786
 -1      3249    4    0    1
 -2      7855      7945      7955      7865      7856      7946      7956      7866     24421     24494
 -2     24495     23786     23718     24426     24500     23792     24428     24501     24502     23793
 -1      3250    4    0    1
 -2      7856      7946      7956      7866      7857      7947      7957      7867     24428     24501
 -2     24502     23793     23725     24433     24507     23799     24435     24508     24509     23800
 -1      3251    4    0    1
 -2      7857      7947      7957      7867      7858      7948      7958      7868     24435     24508
 -2     24509     23800     23732     24440     24514     23806     24442     24515     24516     23807
 -1      3252    4    0    1
 -2      7858      7948      7958      7868      7859      7949      7959      7869     24442     24515
 -2     24516     23807     23739     24447     24521     23813     24449     24522     24523     23814
 -1      3253    4    0    1
 -2      7859      7949      7959      7869      7860      7950      7960      7870     24449     24522
 -2     24523     23814     23746     24454     24528     23820     24456     24529     24530     23821
 -1      3254    4    0    1
 -2      7860      7950      7960      7870      7861      7951      7961      7871     24456     24529
 -2     24530     23821     23753     24461     24535     23827     24463     24536     24537     23828
 -1      3255    4    0    1
 -2      7861      7951      7961      7871      7862      7952      7962      7872     24463     24536
 -2     24537     23828     23760     24468     24542     23834     24470     24543     24544     23835
 -1      3256    4    0    1
 -2      7862      7952      7962      7872      4995      5004      5005      4996     24470     24543
 -2     24544     23835     23767     24475     24549     23841      5714      5716      5717      5687
 -1      3257    4    0    1
 -2       599       608       609       600      7863      7953      7963      7873      1320      1322
 -2      1323      1293     23771     24479     24553     23845     24481     24554     24555     23846
 -1      3258    4    0    1
 -2      7863      7953      7963      7873      7864      7954      7964      7874     24481     24554
 -2     24555     23846     23778     24486     24560     23852     24488     24561     24562     23853
 -1      3259    4    0    1
 -2      7864      7954      7964      7874      7865      7955      7965      7875     24488     24561
 -2     24562     23853     23785     24493     24567     23859     24495     24568     24569     23860
 -1      3260    4    0    1
 -2      7865      7955      7965      7875      7866      7956      7966      7876     24495     24568
 -2     24569     23860     23792     24500     24574     23866     24502     24575     24576     23867
 -1      3261    4    0    1
 -2      7866      7956      7966      7876      7867      7957      7967      7877     24502     24575
 -2     24576     23867     23799     24507     24581     23873     24509     24582     24583     23874
 -1      3262    4    0    1
 -2      7867      7957      7967      7877      7868      7958      7968      7878     24509     24582
 -2     24583     23874     23806     24514     24588     23880     24516     24589     24590     23881
 -1      3263    4    0    1
 -2      7868      7958      7968      7878      7869      7959      7969      7879     24516     24589
 -2     24590     23881     23813     24521     24595     23887     24523     24596     24597     23888
 -1      3264    4    0    1
 -2      7869      7959      7969      7879      7870      7960      7970      7880     24523     24596
 -2     24597     23888     23820     24528     24602     23894     24530     24603     24604     23895
 -1      3265    4    0    1
 -2      7870      7960      7970      7880      7871      7961      7971      7881     24530     24603
 -2     24604     23895     23827     24535     24609     23901     24537     24610     24611     23902
 -1      3266    4    0    1
 -2      7871      7961      7971      7881      7872      7962      7972      7882     24537     24610
 -2     24611     23902     23834     24542     24616     23908     24544     24617     24618     23909
 -1      3267    4    0    1
 -2      7872      7962      7972      7882      4996      5005      5006      4997     24544     24617
 -2     24618     23909     23841     24549     24623     23915      5717      5719      5720      5690
 -1      3268    4    0    1
 -2       600       609       610       601      7873      7963      7973      7883      1323      1325
 -2      1326      1296     23845     24553     24627     23919     24555     24628     24629     23920
 -1      3269    4    0    1
 -2      7873      7963      7973      7883      7874      7964      7974      7884     24555     24628
 -2     24629     23920     23852     24560     24634     23926     24562     24635     24636     23927
 -1      3270    4    0    1
 -2      7874      7964      7974      7884      7875      7965      7975      7885     24562     24635
 -2     24636     23927     23859     24567     24641     23933     24569     24642     24643     23934
 -1      3271    4    0    1
 -2      7875      7965      7975      7885      7876      7966      7976      7886     24569     24642
 -2     24643     23934     23866     24574     24648     23940     24576     24649     24650     23941
 -1      3272    4    0    1
 -2      7876      7966      7976      7886      7877      7967      7977      7887     24576     24649
 -2     24650     23941     23873     24581     24655     23947     24583     24656     24657     23948
 -1      3273    4    0    1
 -2      7877      7967      7977      7887      7878      7968      7978      7888     24583     24656
 -2     24657     23948     23880     24588     24662     23954     24590     24663     24664     23955
 -1      3274    4    0    1
 -2      7878      7968      7978      7888      7879      7969      7979      7889     24590     24663
 -2     24664     23955     23887     24595     24669     23961     24597     24670     24671     23962
 -1      3275    4    0    1
 -2      7879      7969      7979      7889      7880      7970      7980      7890     24597     24670
 -2     24671     23962     23894     24602     24676     23968     24604     24677     24678     23969
 -1      3276    4    0    1
 -2      7880      7970      7980      7890      7881      7971      7981      7891     24604     24677
 -2     24678     23969     23901     24609     24683     23975     24611     24684     24685     23976
 -1      3277    4    0    1
 -2      7881      7971      7981      7891      7882      7972      7982      7892     24611     24684
 -2     24685     23976     23908     24616     24690     23982     24618     24691     24692     23983
 -1      3278    4    0    1
 -2      7882      7972      7982      7892      4997      5006      5007      4998     24618     24691
 -2     24692     23983     23915     24623     24697     23989      5720      5722      5723      5693
 -1      3279    4    0    1
 -2       601       610       611       602      7883      7973      7983      7893      1326      1328
 -2      1329      1299     23919     24627     24701     23993     24629     24702     24703     23994
 -1      3280    4    0    1
 -2      7883      7973      7983      7893      7884      7974      7984      7894     24629     24702
 -2     24703     23994     23926     24634     24708     24000     24636     24709     24710     24001
 -1      3281    4    0    1
 -2      7884      7974      7984      7894      7885      7975      7985      7895     24636     24709
 -2     24710     24001     23933     24641     24715     24007     24643     24716     24717     24008
 -1      3282    4    0    1
 -2      7885      7975      7985      7895      7886      7976      7986      7896     24643     24716
 -2     24717     24008     23940     24648     24722     24014     24650     24723     24724     24015
 -1      3283    4    0    1
 -2      7886      7976      7986      7896      7887      7977      7987      7897     24650     24723
 -2     24724     24015     23947     24655     24729     24021     24657     24730     24731     24022
 -1      3284    4    0    1
 -2      7887      7977      7987      7897      7888      7978      7988      7898     24657     24730
 -2     24731     24022     23954     24662     24736     24028     24664     24737     24738     24029
 -1      3285    4    0    1
 -2      7888      7978      7988      7898      7889      7979      7989      7899     24664     24737
 -2     24738     24029     23961     24669     24743     24035     24671     24744     24745     24036
 -1      3286    4    0    1
 -2      7889      7979      7989      7899      7890      7980      7990      7900     24671     24744
 -2     24745     24036     23968     24676     24750     24042     24678     24751     24752     24043
 -1      3287    4    0    1
 -2      7890      7980      7990      7900      7891      7981      7991      7901     24678     24751
 -2     24752     24043     23975     24683     24757     24049     24685     24758     24759     24050
 -1      3288    4    0    1
 -2      7891      7981      7991      7901      7892      7982      7992      7902     24685     24758
 -2     24759     24050     23982     24690     24764     24056     24692     24765     24766     24057
 -1      3289    4    0    1
 -2      7892      7982      7992      7902      4998      5007      5008      4999     24692     24765
 -2     24766     24057     23989     24697     24771     24063      5723      5725      5726      5696
 -1      3290    4    0    1
 -2       602       611        93        94      7893      7983      3224      3234      1329      1331
 -2       123      1302     23993     24701      3646      3678     24703     24775      3679     24067
 -1      3291    4    0    1
 -2      7893      7983      3224      3234      7894      7984      3225      3235     24703     24775
 -2      3679     24067     24000     24708      3649      3681     24710     24779      3682     24071
 -1      3292    4    0    1
 -2      7894      7984      3225      3235      7895      7985      3226      3236     24710     24779
 -2      3682     24071     24007     24715      3652      3684     24717     24783      3685     24075
 -1      3293    4    0    1
 -2      7895      7985      3226      3236      7896      7986      3227      3237     24717     24783
 -2      3685     24075     24014     24722      3655      3687     24724     24787      3688     24079
 -1      3294    4    0    1
 -2      7896      7986      3227      3237      7897      7987      3228      3238     24724     24787
 -2      3688     24079     24021     24729      3658      3690     24731     24791      3691     24083
 -1      3295    4    0    1
 -2      7897      7987      3228      3238      7898      7988      3229      3239     24731     24791
 -2      3691     24083     24028     24736      3661      3693     24738     24795      3694     24087
 -1      3296    4    0    1
 -2      7898      7988      3229      3239      7899      7989      3230      3240     24738     24795
 -2      3694     24087     24035     24743      3664      3696     24745     24799      3697     24091
 -1      3297    4    0    1
 -2      7899      7989      3230      3240      7900      7990      3231      3241     24745     24799
 -2      3697     24091     24042     24750      3667      3699     24752     24803      3700     24095
 -1      3298    4    0    1
 -2      7900      7990      3231      3241      7901      7991      3232      3242     24752     24803
 -2      3700     24095     24049     24757      3670      3702     24759     24807      3703     24099
 -1      3299    4    0    1
 -2      7901      7991      3232      3242      7902      7992      3233      3243     24759     24807
 -2      3703     24099     24056     24764      3673      3705     24766     24811      3706     24103
 -1      3300    4    0    1
 -2      7902      7992      3233      3243      4999      5008       249       250     24766     24811
 -2      3706     24103     24063     24771      3676      3708      5726      5728       279      5699
 -1      3301    4    0    1
 -2        31        32       612       603      1746      1756      7993      7903        61      1333
 -2      1334      1304      2520      2552     24817     24109      2553     24818     24819     24110
 -1      3302    4    0    1
 -2      1746      1756      7993      7903      1747      1757      7994      7904      2553     24818
 -2     24819     24110      2523      2555     24824     24116      2556     24825     24826     24117
 -1      3303    4    0    1
 -2      1747      1757      7994      7904      1748      1758      7995      7905      2556     24825
 -2     24826     24117      2526      2558     24831     24123      2559     24832     24833     24124
 -1      3304    4    0    1
 -2      1748      1758      7995      7905      1749      1759      7996      7906      2559     24832
 -2     24833     24124      2529      2561     24838     24130      2562     24839     24840     24131
 -1      3305    4    0    1
 -2      1749      1759      7996      7906      1750      1760      7997      7907      2562     24839
 -2     24840     24131      2532      2564     24845     24137      2565     24846     24847     24138
 -1      3306    4    0    1
 -2      1750      1760      7997      7907      1751      1761      7998      7908      2565     24846
 -2     24847     24138      2535      2567     24852     24144      2568     24853     24854     24145
 -1      3307    4    0    1
 -2      1751      1761      7998      7908      1752      1762      7999      7909      2568     24853
 -2     24854     24145      2538      2570     24859     24151      2571     24860     24861     24152
 -1      3308    4    0    1
 -2      1752      1762      7999      7909      1753      1763      8000      7910      2571     24860
 -2     24861     24152      2541      2573     24866     24158      2574     24867     24868     24159
 -1      3309    4    0    1
 -2      1753      1763      8000      7910      1754      1764      8001      7911      2574     24867
 -2     24868     24159      2544      2576     24873     24165      2577     24874     24875     24166
 -1      3310    4    0    1
 -2      1754      1764      8001      7911      1755      1765      8002      7912      2577     24874
 -2     24875     24166      2547      2579     24880     24172      2580     24881     24882     24173
 -1      3311    4    0    1
 -2      1755      1765      8002      7912       187       188      5009      5000      2580     24881
 -2     24882     24173      2550      2582     24887     24179       217      5730      5731      5701
 -1      3312    4    0    1
 -2       603       612       613       604      7903      7993      8003      7913      1334      1336
 -2      1337      1307     24109     24817     24891     24183     24819     24892     24893     24184
 -1      3313    4    0    1
 -2      7903      7993      8003      7913      7904      7994      8004      7914     24819     24892
 -2     24893     24184     24116     24824     24898     24190     24826     24899     24900     24191
 -1      3314    4    0    1
 -2      7904      7994      8004      7914      7905      7995      8005      7915     24826     24899
 -2     24900     24191     24123     24831     24905     24197     24833     24906     24907     24198
 -1      3315    4    0    1
 -2      7905      7995      8005      7915      7906      7996      8006      7916     24833     24906
 -2     24907     24198     24130     24838     24912     24204     24840     24913     24914     24205
 -1      3316    4    0    1
 -2      7906      7996      8006      7916      7907      7997      8007      7917     24840     24913
 -2     24914     24205     24137     24845     24919     24211     24847     24920     24921     24212
 -1      3317    4    0    1
 -2      7907      7997      8007      7917      7908      7998      8008      7918     24847     24920
 -2     24921     24212     24144     24852     24926     24218     24854     24927     24928     24219
 -1      3318    4    0    1
 -2      7908      7998      8008      7918      7909      7999      8009      7919     24854     24927
 -2     24928     24219     24151     24859     24933     24225     24861     24934     24935     24226
 -1      3319    4    0    1
 -2      7909      7999      8009      7919      7910      8000      8010      7920     24861     24934
 -2     24935     24226     24158     24866     24940     24232     24868     24941     24942     24233
 -1      3320    4    0    1
 -2      7910      8000      8010      7920      7911      8001      8011      7921     24868     24941
 -2     24942     24233     24165     24873     24947     24239     24875     24948     24949     24240
 -1      3321    4    0    1
 -2      7911      8001      8011      7921      7912      8002      8012      7922     24875     24948
 -2     24949     24240     24172     24880     24954     24246     24882     24955     24956     24247
 -1      3322    4    0    1
 -2      7912      8002      8012      7922      5000      5009      5010      5001     24882     24955
 -2     24956     24247     24179     24887     24961     24253      5731      5733      5734      5704
 -1      3323    4    0    1
 -2       604       613       614       605      7913      8003      8013      7923      1337      1339
 -2      1340      1310     24183     24891     24965     24257     24893     24966     24967     24258
 -1      3324    4    0    1
 -2      7913      8003      8013      7923      7914      8004      8014      7924     24893     24966
 -2     24967     24258     24190     24898     24972     24264     24900     24973     24974     24265
 -1      3325    4    0    1
 -2      7914      8004      8014      7924      7915      8005      8015      7925     24900     24973
 -2     24974     24265     24197     24905     24979     24271     24907     24980     24981     24272
 -1      3326    4    0    1
 -2      7915      8005      8015      7925      7916      8006      8016      7926     24907     24980
 -2     24981     24272     24204     24912     24986     24278     24914     24987     24988     24279
 -1      3327    4    0    1
 -2      7916      8006      8016      7926      7917      8007      8017      7927     24914     24987
 -2     24988     24279     24211     24919     24993     24285     24921     24994     24995     24286
 -1      3328    4    0    1
 -2      7917      8007      8017      7927      7918      8008      8018      7928     24921     24994
 -2     24995     24286     24218     24926     25000     24292     24928     25001     25002     24293
 -1      3329    4    0    1
 -2      7918      8008      8018      7928      7919      8009      8019      7929     24928     25001
 -2     25002     24293     24225     24933     25007     24299     24935     25008     25009     24300
 -1      3330    4    0    1
 -2      7919      8009      8019      7929      7920      8010      8020      7930     24935     25008
 -2     25009     24300     24232     24940     25014     24306     24942     25015     25016     24307
 -1      3331    4    0    1
 -2      7920      8010      8020      7930      7921      8011      8021      7931     24942     25015
 -2     25016     24307     24239     24947     25021     24313     24949     25022     25023     24314
 -1      3332    4    0    1
 -2      7921      8011      8021      7931      7922      8012      8022      7932     24949     25022
 -2     25023     24314     24246     24954     25028     24320     24956     25029     25030     24321
 -1      3333    4    0    1
 -2      7922      8012      8022      7932      5001      5010      5011      5002     24956     25029
 -2     25030     24321     24253     24961     25035     24327      5734      5736      5737      5707
 -1      3334    4    0    1
 -2       605       614       615       606      7923      8013      8023      7933      1340      1342
 -2      1343      1313     24257     24965     25039     24331     24967     25040     25041     24332
 -1      3335    4    0    1
 -2      7923      8013      8023      7933      7924      8014      8024      7934     24967     25040
 -2     25041     24332     24264     24972     25046     24338     24974     25047     25048     24339
 -1      3336    4    0    1
 -2      7924      8014      8024      7934      7925      8015      8025      7935     24974     25047
 -2     25048     24339     24271     24979     25053     24345     24981     25054     25055     24346
 -1      3337    4    0    1
 -2      7925      8015      8025      7935      7926      8016      8026      7936     24981     25054
 -2     25055     24346     24278     24986     25060     24352     24988     25061     25062     24353
 -1      3338    4    0    1
 -2      7926      8016      8026      7936      7927      8017      8027      7937     24988     25061
 -2     25062     24353     24285     24993     25067     24359     24995     25068     25069     24360
 -1      3339    4    0    1
 -2      7927      8017      8027      7937      7928      8018      8028      7938     24995     25068
 -2     25069     24360     24292     25000     25074     24366     25002     25075     25076     24367
 -1      3340    4    0    1
 -2      7928      8018      8028      7938      7929      8019      8029      7939     25002     25075
 -2     25076     24367     24299     25007     25081     24373     25009     25082     25083     24374
 -1      3341    4    0    1
 -2      7929      8019      8029      7939      7930      8020      8030      7940     25009     25082
 -2     25083     24374     24306     25014     25088     24380     25016     25089     25090     24381
 -1      3342    4    0    1
 -2      7930      8020      8030      7940      7931      8021      8031      7941     25016     25089
 -2     25090     24381     24313     25021     25095     24387     25023     25096     25097     24388
 -1      3343    4    0    1
 -2      7931      8021      8031      7941      7932      8022      8032      7942     25023     25096
 -2     25097     24388     24320     25028     25102     24394     25030     25103     25104     24395
 -1      3344    4    0    1
 -2      7932      8022      8032      7942      5002      5011      5012      5003     25030     25103
 -2     25104     24395     24327     25035     25109     24401      5737      5739      5740      5710
 -1      3345    4    0    1
 -2       606       615       616       607      7933      8023      8033      7943      1343      1345
 -2      1346      1316     24331     25039     25113     24405     25041     25114     25115     24406
 -1      3346    4    0    1
 -2      7933      8023      8033      7943      7934      8024      8034      7944     25041     25114
 -2     25115     24406     24338     25046     25120     24412     25048     25121     25122     24413
 -1      3347    4    0    1
 -2      7934      8024      8034      7944      7935      8025      8035      7945     25048     25121
 -2     25122     24413     24345     25053     25127     24419     25055     25128     25129     24420
 -1      3348    4    0    1
 -2      7935      8025      8035      7945      7936      8026      8036      7946     25055     25128
 -2     25129     24420     24352     25060     25134     24426     25062     25135     25136     24427
 -1      3349    4    0    1
 -2      7936      8026      8036      7946      7937      8027      8037      7947     25062     25135
 -2     25136     24427     24359     25067     25141     24433     25069     25142     25143     24434
 -1      3350    4    0    1
 -2      7937      8027      8037      7947      7938      8028      8038      7948     25069     25142
 -2     25143     24434     24366     25074     25148     24440     25076     25149     25150     24441
 -1      3351    4    0    1
 -2      7938      8028      8038      7948      7939      8029      8039      7949     25076     25149
 -2     25150     24441     24373     25081     25155     24447     25083     25156     25157     24448
 -1      3352    4    0    1
 -2      7939      8029      8039      7949      7940      8030      8040      7950     25083     25156
 -2     25157     24448     24380     25088     25162     24454     25090     25163     25164     24455
 -1      3353    4    0    1
 -2      7940      8030      8040      7950      7941      8031      8041      7951     25090     25163
 -2     25164     24455     24387     25095     25169     24461     25097     25170     25171     24462
 -1      3354    4    0    1
 -2      7941      8031      8041      7951      7942      8032      8042      7952     25097     25170
 -2     25171     24462     24394     25102     25176     24468     25104     25177     25178     24469
 -1      3355    4    0    1
 -2      7942      8032      8042      7952      5003      5012      5013      5004     25104     25177
 -2     25178     24469     24401     25109     25183     24475      5740      5742      5743      5713
 -1      3356    4    0    1
 -2       607       616       617       608      7943      8033      8043      7953      1346      1348
 -2      1349      1319     24405     25113     25187     24479     25115     25188     25189     24480
 -1      3357    4    0    1
 -2      7943      8033      8043      7953      7944      8034      8044      7954     25115     25188
 -2     25189     24480     24412     25120     25194     24486     25122     25195     25196     24487
 -1      3358    4    0    1
 -2      7944      8034      8044      7954      7945      8035      8045      7955     25122     25195
 -2     25196     24487     24419     25127     25201     24493     25129     25202     25203     24494
 -1      3359    4    0    1
 -2      7945      8035      8045      7955      7946      8036      8046      7956     25129     25202
 -2     25203     24494     24426     25134     25208     24500     25136     25209     25210     24501
 -1      3360    4    0    1
 -2      7946      8036      8046      7956      7947      8037      8047      7957     25136     25209
 -2     25210     24501     24433     25141     25215     24507     25143     25216     25217     24508
 -1      3361    4    0    1
 -2      7947      8037      8047      7957      7948      8038      8048      7958     25143     25216
 -2     25217     24508     24440     25148     25222     24514     25150     25223     25224     24515
 -1      3362    4    0    1
 -2      7948      8038      8048      7958      7949      8039      8049      7959     25150     25223
 -2     25224     24515     24447     25155     25229     24521     25157     25230     25231     24522
 -1      3363    4    0    1
 -2      7949      8039      8049      7959      7950      8040      8050      7960     25157     25230
 -2     25231     24522     24454     25162     25236     24528     25164     25237     25238     24529
 -1      3364    4    0    1
 -2      7950      8040      8050      7960      7951      8041      8051      7961     25164     25237
 -2     25238     24529     24461     25169     25243     24535     25171     25244     25245     24536
 -1      3365    4    0    1
 -2      7951      8041      8051      7961      7952      8042      8052      7962     25171     25244
 -2     25245     24536     24468     25176     25250     24542     25178     25251     25252     24543
 -1      3366    4    0    1
 -2      7952      8042      8052      7962      5004      5013      5014      5005     25178     25251
 -2     25252     24543     24475     25183     25257     24549      5743      5745      5746      5716
 -1      3367    4    0    1
 -2       608       617       618       609      7953      8043      8053      7963      1349      1351
 -2      1352      1322     24479     25187     25261     24553     25189     25262     25263     24554
 -1      3368    4    0    1
 -2      7953      8043      8053      7963      7954      8044      8054      7964     25189     25262
 -2     25263     24554     24486     25194     25268     24560     25196     25269     25270     24561
 -1      3369    4    0    1
 -2      7954      8044      8054      7964      7955      8045      8055      7965     25196     25269
 -2     25270     24561     24493     25201     25275     24567     25203     25276     25277     24568
 -1      3370    4    0    1
 -2      7955      8045      8055      7965      7956      8046      8056      7966     25203     25276
 -2     25277     24568     24500     25208     25282     24574     25210     25283     25284     24575
 -1      3371    4    0    1
 -2      7956      8046      8056      7966      7957      8047      8057      7967     25210     25283
 -2     25284     24575     24507     25215     25289     24581     25217     25290     25291     24582
 -1      3372    4    0    1
 -2      7957      8047      8057      7967      7958      8048      8058      7968     25217     25290
 -2     25291     24582     24514     25222     25296     24588     25224     25297     25298     24589
 -1      3373    4    0    1
 -2      7958      8048      8058      7968      7959      8049      8059      7969     25224     25297
 -2     25298     24589     24521     25229     25303     24595     25231     25304     25305     24596
 -1      3374    4    0    1
 -2      7959      8049      8059      7969      7960      8050      8060      7970     25231     25304
 -2     25305     24596     24528     25236     25310     24602     25238     25311     25312     24603
 -1      3375    4    0    1
 -2      7960      8050      8060      7970      7961      8051      8061      7971     25238     25311
 -2     25312     24603     24535     25243     25317     24609     25245     25318     25319     24610
 -1      3376    4    0    1
 -2      7961      8051      8061      7971      7962      8052      8062      7972     25245     25318
 -2     25319     24610     24542     25250     25324     24616     25252     25325     25326     24617
 -1      3377    4    0    1
 -2      7962      8052      8062      7972      5005      5014      5015      5006     25252     25325
 -2     25326     24617     24549     25257     25331     24623      5746      5748      5749      5719
 -1      3378    4    0    1
 -2       609       618       619       610      7963      8053      8063      7973      1352      1354
 -2      1355      1325     24553     25261     25335     24627     25263     25336     25337     24628
 -1      3379    4    0    1
 -2      7963      8053      8063      7973      7964      8054      8064      7974     25263     25336
 -2     25337     24628     24560     25268     25342     24634     25270     25343     25344     24635
 -1      3380    4    0    1
 -2      7964      8054      8064      7974      7965      8055      8065      7975     25270     25343
 -2     25344     24635     24567     25275     25349     24641     25277     25350     25351     24642
 -1      3381    4    0    1
 -2      7965      8055      8065      7975      7966      8056      8066      7976     25277     25350
 -2     25351     24642     24574     25282     25356     24648     25284     25357     25358     24649
 -1      3382    4    0    1
 -2      7966      8056      8066      7976      7967      8057      8067      7977     25284     25357
 -2     25358     24649     24581     25289     25363     24655     25291     25364     25365     24656
 -1      3383    4    0    1
 -2      7967      8057      8067      7977      7968      8058      8068      7978     25291     25364
 -2     25365     24656     24588     25296     25370     24662     25298     25371     25372     24663
 -1      3384    4    0    1
 -2      7968      8058      8068      7978      7969      8059      8069      7979     25298     25371
 -2     25372     24663     24595     25303     25377     24669     25305     25378     25379     24670
 -1      3385    4    0    1
 -2      7969      8059      8069      7979      7970      8060      8070      7980     25305     25378
 -2     25379     24670     24602     25310     25384     24676     25312     25385     25386     24677
 -1      3386    4    0    1
 -2      7970      8060      8070      7980      7971      8061      8071      7981     25312     25385
 -2     25386     24677     24609     25317     25391     24683     25319     25392     25393     24684
 -1      3387    4    0    1
 -2      7971      8061      8071      7981      7972      8062      8072      7982     25319     25392
 -2     25393     24684     24616     25324     25398     24690     25326     25399     25400     24691
 -1      3388    4    0    1
 -2      7972      8062      8072      7982      5006      5015      5016      5007     25326     25399
 -2     25400     24691     24623     25331     25405     24697      5749      5751      5752      5722
 -1      3389    4    0    1
 -2       610       619       620       611      7973      8063      8073      7983      1355      1357
 -2      1358      1328     24627     25335     25409     24701     25337     25410     25411     24702
 -1      3390    4    0    1
 -2      7973      8063      8073      7983      7974      8064      8074      7984     25337     25410
 -2     25411     24702     24634     25342     25416     24708     25344     25417     25418     24709
 -1      3391    4    0    1
 -2      7974      8064      8074      7984      7975      8065      8075      7985     25344     25417
 -2     25418     24709     24641     25349     25423     24715     25351     25424     25425     24716
 -1      3392    4    0    1
 -2      7975      8065      8075      7985      7976      8066      8076      7986     25351     25424
 -2     25425     24716     24648     25356     25430     24722     25358     25431     25432     24723
 -1      3393    4    0    1
 -2      7976      8066      8076      7986      7977      8067      8077      7987     25358     25431
 -2     25432     24723     24655     25363     25437     24729     25365     25438     25439     24730
 -1      3394    4    0    1
 -2      7977      8067      8077      7987      7978      8068      8078      7988     25365     25438
 -2     25439     24730     24662     25370     25444     24736     25372     25445     25446     24737
 -1      3395    4    0    1
 -2      7978      8068      8078      7988      7979      8069      8079      7989     25372     25445
 -2     25446     24737     24669     25377     25451     24743     25379     25452     25453     24744
 -1      3396    4    0    1
 -2      7979      8069      8079      7989      7980      8070      8080      7990     25379     25452
 -2     25453     24744     24676     25384     25458     24750     25386     25459     25460     24751
 -1      3397    4    0    1
 -2      7980      8070      8080      7990      7981      8071      8081      7991     25386     25459
 -2     25460     24751     24683     25391     25465     24757     25393     25466     25467     24758
 -1      3398    4    0    1
 -2      7981      8071      8081      7991      7982      8072      8082      7992     25393     25466
 -2     25467     24758     24690     25398     25472     24764     25400     25473     25474     24765
 -1      3399    4    0    1
 -2      7982      8072      8082      7992      5007      5016      5017      5008     25400     25473
 -2     25474     24765     24697     25405     25479     24771      5752      5754      5755      5725
 -1      3400    4    0    1
 -2       611       620        92        93      7983      8073      3214      3224      1358      1360
 -2       122      1331     24701     25409      3614      3646     25411     25483      3647     24775
 -1      3401    4    0    1
 -2      7983      8073      3214      3224      7984      8074      3215      3225     25411     25483
 -2      3647     24775     24708     25416      3617      3649     25418     25487      3650     24779
 -1      3402    4    0    1
 -2      7984      8074      3215      3225      7985      8075      3216      3226     25418     25487
 -2      3650     24779     24715     25423      3620      3652     25425     25491      3653     24783
 -1      3403    4    0    1
 -2      7985      8075      3216      3226      7986      8076      3217      3227     25425     25491
 -2      3653     24783     24722     25430      3623      3655     25432     25495      3656     24787
 -1      3404    4    0    1
 -2      7986      8076      3217      3227      7987      8077      3218      3228     25432     25495
 -2      3656     24787     24729     25437      3626      3658     25439     25499      3659     24791
 -1      3405    4    0    1
 -2      7987      8077      3218      3228      7988      8078      3219      3229     25439     25499
 -2      3659     24791     24736     25444      3629      3661     25446     25503      3662     24795
 -1      3406    4    0    1
 -2      7988      8078      3219      3229      7989      8079      3220      3230     25446     25503
 -2      3662     24795     24743     25451      3632      3664     25453     25507      3665     24799
 -1      3407    4    0    1
 -2      7989      8079      3220      3230      7990      8080      3221      3231     25453     25507
 -2      3665     24799     24750     25458      3635      3667     25460     25511      3668     24803
 -1      3408    4    0    1
 -2      7990      8080      3221      3231      7991      8081      3222      3232     25460     25511
 -2      3668     24803     24757     25465      3638      3670     25467     25515      3671     24807
 -1      3409    4    0    1
 -2      7991      8081      3222      3232      7992      8082      3223      3233     25467     25515
 -2      3671     24807     24764     25472      3641      3673     25474     25519      3674     24811
 -1      3410    4    0    1
 -2      7992      8082      3223      3233      5008      5017       248       249     25474     25519
 -2      3674     24811     24771     25479      3644      3676      5755      5757       278      5728
 -1      3411    4    0    1
 -2        32        33       621       612      1756      1766      8083      7993        62      1362
 -2      1363      1333      2552      2584     25525     24817      2585     25526     25527     24818
 -1      3412    4    0    1
 -2      1756      1766      8083      7993      1757      1767      8084      7994      2585     25526
 -2     25527     24818      2555      2587     25532     24824      2588     25533     25534     24825
 -1      3413    4    0    1
 -2      1757      1767      8084      7994      1758      1768      8085      7995      2588     25533
 -2     25534     24825      2558      2590     25539     24831      2591     25540     25541     24832
 -1      3414    4    0    1
 -2      1758      1768      8085      7995      1759      1769      8086      7996      2591     25540
 -2     25541     24832      2561      2593     25546     24838      2594     25547     25548     24839
 -1      3415    4    0    1
 -2      1759      1769      8086      7996      1760      1770      8087      7997      2594     25547
 -2     25548     24839      2564      2596     25553     24845      2597     25554     25555     24846
 -1      3416    4    0    1
 -2      1760      1770      8087      7997      1761      1771      8088      7998      2597     25554
 -2     25555     24846      2567      2599     25560     24852      2600     25561     25562     24853
 -1      3417    4    0    1
 -2      1761      1771      8088      7998      1762      1772      8089      7999      2600     25561
 -2     25562     24853      2570      2602     25567     24859      2603     25568     25569     24860
 -1      3418    4    0    1
 -2      1762      1772      8089      7999      1763      1773      8090      8000      2603     25568
 -2     25569     24860      2573      2605     25574     24866      2606     25575     25576     24867
 -1      3419    4    0    1
 -2      1763      1773      8090      8000      1764      1774      8091      8001      2606     25575
 -2     25576     24867      2576      2608     25581     24873      2609     25582     25583     24874
 -1      3420    4    0    1
 -2      1764      1774      8091      8001      1765      1775      8092      8002      2609     25582
 -2     25583     24874      2579      2611     25588     24880      2612     25589     25590     24881
 -1      3421    4    0    1
 -2      1765      1775      8092      8002       188       189      5018      5009      2612     25589
 -2     25590     24881      2582      2614     25595     24887       218      5759      5760      5730
 -1      3422    4    0    1
 -2       612       621       622       613      7993      8083      8093      8003      1363      1365
 -2      1366      1336     24817     25525     25599     24891     25527     25600     25601     24892
 -1      3423    4    0    1
 -2      7993      8083      8093      8003      7994      8084      8094      8004     25527     25600
 -2     25601     24892     24824     25532     25606     24898     25534     25607     25608     24899
 -1      3424    4    0    1
 -2      7994      8084      8094      8004      7995      8085      8095      8005     25534     25607
 -2     25608     24899     24831     25539     25613     24905     25541     25614     25615     24906
 -1      3425    4    0    1
 -2      7995      8085      8095      8005      7996      8086      8096      8006     25541     25614
 -2     25615     24906     24838     25546     25620     24912     25548     25621     25622     24913
 -1      3426    4    0    1
 -2      7996      8086      8096      8006      7997      8087      8097      8007     25548     25621
 -2     25622     24913     24845     25553     25627     24919     25555     25628     25629     24920
 -1      3427    4    0    1
 -2      7997      8087      8097      8007      7998      8088      8098      8008     25555     25628
 -2     25629     24920     24852     25560     25634     24926     25562     25635     25636     24927
 -1      3428    4    0    1
 -2      7998      8088      8098      8008      7999      8089      8099      8009     25562     25635
 -2     25636     24927     24859     25567     25641     24933     25569     25642     25643     24934
 -1      3429    4    0    1
 -2      7999      8089      8099      8009      8000      8090      8100      8010     25569     25642
 -2     25643     24934     24866     25574     25648     24940     25576     25649     25650     24941
 -1      3430    4    0    1
 -2      8000      8090      8100      8010      8001      8091      8101      8011     25576     25649
 -2     25650     24941     24873     25581     25655     24947     25583     25656     25657     24948
 -1      3431    4    0    1
 -2      8001      8091      8101      8011      8002      8092      8102      8012     25583     25656
 -2     25657     24948     24880     25588     25662     24954     25590     25663     25664     24955
 -1      3432    4    0    1
 -2      8002      8092      8102      8012      5009      5018      5019      5010     25590     25663
 -2     25664     24955     24887     25595     25669     24961      5760      5762      5763      5733
 -1      3433    4    0    1
 -2       613       622       623       614      8003      8093      8103      8013      1366      1368
 -2      1369      1339     24891     25599     25673     24965     25601     25674     25675     24966
 -1      3434    4    0    1
 -2      8003      8093      8103      8013      8004      8094      8104      8014     25601     25674
 -2     25675     24966     24898     25606     25680     24972     25608     25681     25682     24973
 -1      3435    4    0    1
 -2      8004      8094      8104      8014      8005      8095      8105      8015     25608     25681
 -2     25682     24973     24905     25613     25687     24979     25615     25688     25689     24980
 -1      3436    4    0    1
 -2      8005      8095      8105      8015      8006      8096      8106      8016     25615     25688
 -2     25689     24980     24912     25620     25694     24986     25622     25695     25696     24987
 -1      3437    4    0    1
 -2      8006      8096      8106      8016      8007      8097      8107      8017     25622     25695
 -2     25696     24987     24919     25627     25701     24993     25629     25702     25703     24994
 -1      3438    4    0    1
 -2      8007      8097      8107      8017      8008      8098      8108      8018     25629     25702
 -2     25703     24994     24926     25634     25708     25000     25636     25709     25710     25001
 -1      3439    4    0    1
 -2      8008      8098      8108      8018      8009      8099      8109      8019     25636     25709
 -2     25710     25001     24933     25641     25715     25007     25643     25716     25717     25008
 -1      3440    4    0    1
 -2      8009      8099      8109      8019      8010      8100      8110      8020     25643     25716
 -2     25717     25008     24940     25648     25722     25014     25650     25723     25724     25015
 -1      3441    4    0    1
 -2      8010      8100      8110      8020      8011      8101      8111      8021     25650     25723
 -2     25724     25015     24947     25655     25729     25021     25657     25730     25731     25022
 -1      3442    4    0    1
 -2      8011      8101      8111      8021      8012      8102      8112      8022     25657     25730
 -2     25731     25022     24954     25662     25736     25028     25664     25737     25738     25029
 -1      3443    4    0    1
 -2      8012      8102      8112      8022      5010      5019      5020      5011     25664     25737
 -2     25738     25029     24961     25669     25743     25035      5763      5765      5766      5736
 -1      3444    4    0    1
 -2       614       623       624       615      8013      8103      8113      8023      1369      1371
 -2      1372      1342     24965     25673     25747     25039     25675     25748     25749     25040
 -1      3445    4    0    1
 -2      8013      8103      8113      8023      8014      8104      8114      8024     25675     25748
 -2     25749     25040     24972     25680     25754     25046     25682     25755     25756     25047
 -1      3446    4    0    1
 -2      8014      8104      8114      8024      8015      8105      8115      8025     25682     25755
 -2     25756     25047     24979     25687     25761     25053     25689     25762     25763     25054
 -1      3447    4    0    1
 -2      8015      8105      8115      8025      8016      8106      8116      8026     25689     25762
 -2     25763     25054     24986     25694     25768     25060     25696     25769     25770     25061
 -1      3448    4    0    1
 -2      8016      8106      8116      8026      8017      8107      8117      8027     25696     25769
 -2     25770     25061     24993     25701     25775     25067     25703     25776     25777     25068
 -1      3449    4    0    1
 -2      8017      8107      8117      8027      8018      8108      8118      8028     25703     25776
 -2     25777     25068     25000     25708     25782     25074     25710     25783     25784     25075
 -1      3450    4    0    1
 -2      8018      8108      8118      8028      8019      8109      8119      8029     25710     25783
 -2     25784     25075     25007     25715     25789     25081     25717     25790     25791     25082
 -1      3451    4    0    1
 -2      8019      8109      8119      8029      8020      8110      8120      8030     25717     25790
 -2     25791     25082     25014     25722     25796     25088     25724     25797     25798     25089
 -1      3452    4    0    1
 -2      8020      8110      8120      8030      8021      8111      8121      8031     25724     25797
 -2     25798     25089     25021     25729     25803     25095     25731     25804     25805     25096
 -1      3453    4    0    1
 -2      8021      8111      8121      8031      8022      8112      8122      8032     25731     25804
 -2     25805     25096     25028     25736     25810     25102     25738     25811     25812     25103
 -1      3454    4    0    1
 -2      8022      8112      8122      8032      5011      5020      5021      5012     25738     25811
 -2     25812     25103     25035     25743     25817     25109      5766      5768      5769      5739
 -1      3455    4    0    1
 -2       615       624       625       616      8023      8113      8123      8033      1372      1374
 -2      1375      1345     25039     25747     25821     25113     25749     25822     25823     25114
 -1      3456    4    0    1
 -2      8023      8113      8123      8033      8024      8114      8124      8034     25749     25822
 -2     25823     25114     25046     25754     25828     25120     25756     25829     25830     25121
 -1      3457    4    0    1
 -2      8024      8114      8124      8034      8025      8115      8125      8035     25756     25829
 -2     25830     25121     25053     25761     25835     25127     25763     25836     25837     25128
 -1      3458    4    0    1
 -2      8025      8115      8125      8035      8026      8116      8126      8036     25763     25836
 -2     25837     25128     25060     25768     25842     25134     25770     25843     25844     25135
 -1      3459    4    0    1
 -2      8026      8116      8126      8036      8027      8117      8127      8037     25770     25843
 -2     25844     25135     25067     25775     25849     25141     25777     25850     25851     25142
 -1      3460    4    0    1
 -2      8027      8117      8127      8037      8028      8118      8128      8038     25777     25850
 -2     25851     25142     25074     25782     25856     25148     25784     25857     25858     25149
 -1      3461    4    0    1
 -2      8028      8118      8128      8038      8029      8119      8129      8039     25784     25857
 -2     25858     25149     25081     25789     25863     25155     25791     25864     25865     25156
 -1      3462    4    0    1
 -2      8029      8119      8129      8039      8030      8120      8130      8040     25791     25864
 -2     25865     25156     25088     25796     25870     25162     25798     25871     25872     25163
 -1      3463    4    0    1
 -2      8030      8120      8130      8040      8031      8121      8131      8041     25798     25871
 -2     25872     25163     25095     25803     25877     25169     25805     25878     25879     25170
 -1      3464    4    0    1
 -2      8031      8121      8131      8041      8032      8122      8132      8042     25805     25878
 -2     25879     25170     25102     25810     25884     25176     25812     25885     25886     25177
 -1      3465    4    0    1
 -2      8032      8122      8132      8042      5012      5021      5022      5013     25812     25885
 -2     25886     25177     25109     25817     25891     25183      5769      5771      5772      5742
 -1      3466    4    0    1
 -2       616       625       626       617      8033      8123      8133      8043      1375      1377
 -2      1378      1348     25113     25821     25895     25187     25823     25896     25897     25188
 -1      3467    4    0    1
 -2      8033      8123      8133      8043      8034      8124      8134      8044     25823     25896
 -2     25897     25188     25120     25828     25902     25194     25830     25903     25904     25195
 -1      3468    4    0    1
 -2      8034      8124      8134      8044      8035      8125      8135      8045     25830     25903
 -2     25904     25195     25127     25835     25909     25201     25837     25910     25911     25202
 -1      3469    4    0    1
 -2      8035      8125      8135      8045      8036      8126      8136      8046     25837     25910
 -2     25911     25202     25134     25842     25916     25208     25844     25917     25918     25209
 -1      3470    4    0    1
 -2      8036      8126      8136      8046      8037      8127      8137      8047     25844     25917
 -2     25918     25209     25141     25849     25923     25215     25851     25924     25925     25216
 -1      3471    4    0    1
 -2      8037      8127      8137      8047      8038      8128      8138      8048     25851     25924
 -2     25925     25216     25148     25856     25930     25222     25858     25931     25932     25223
 -1      3472    4    0    1
 -2      8038      8128      8138      8048      8039      8129      8139      8049     25858     25931
 -2     25932     25223     25155     25863     25937     25229     25865     25938     25939     25230
 -1      3473    4    0    1
 -2      8039      8129      8139      8049      8040      8130      8140      8050     25865     25938
 -2     25939     25230     25162     25870     25944     25236     25872     25945     25946     25237
 -1      3474    4    0    1
 -2      8040      8130      8140      8050      8041      8131      8141      8051     25872     25945
 -2     25946     25237     25169     25877     25951     25243     25879     25952     25953     25244
 -1      3475    4    0    1
 -2      8041      8131      8141      8051      8042      8132      8142      8052     25879     25952
 -2     25953     25244     25176     25884     25958     25250     25886     25959     25960     25251
 -1      3476    4    0    1
 -2      8042      8132      8142      8052      5013      5022      5023      5014     25886     25959
 -2     25960     25251     25183     25891     25965     25257      5772      5774      5775      5745
 -1      3477    4    0    1
 -2       617       626       627       618      8043      8133      8143      8053      1378      1380
 -2      1381      1351     25187     25895     25969     25261     25897     25970     25971     25262
 -1      3478    4    0    1
 -2      8043      8133      8143      8053      8044      8134      8144      8054     25897     25970
 -2     25971     25262     25194     25902     25976     25268     25904     25977     25978     25269
 -1      3479    4    0    1
 -2      8044      8134      8144      8054      8045      8135      8145      8055     25904     25977
 -2     25978     25269     25201     25909     25983     25275     25911     25984     25985     25276
 -1      3480    4    0    1
 -2      8045      8135      8145      8055      8046      8136      8146      8056     25911     25984
 -2     25985     25276     25208     25916     25990     25282     25918     25991     25992     25283
 -1      3481    4    0    1
 -2      8046      8136      8146      8056      8047      8137      8147      8057     25918     25991
 -2     25992     25283     25215     25923     25997     25289     25925     25998     25999     25290
 -1      3482    4    0    1
 -2      8047      8137      8147      8057      8048      8138      8148      8058     25925     25998
 -2     25999     25290     25222     25930     26004     25296     25932     26005     26006     25297
 -1      3483    4    0    1
 -2      8048      8138      8148      8058      8049      8139      8149      8059     25932     26005
 -2     26006     25297     25229     25937     26011     25303     25939     26012     26013     25304
 -1      3484    4    0    1
 -2      8049      8139      8149      8059      8050      8140      8150      8060     25939     26012
 -2     26013     25304     25236     25944     26018     25310     25946     26019     26020     25311
 -1      3485    4    0    1
 -2      8050      8140      8150      8060      8051      8141      8151      8061     25946     26019
 -2     26020     25311     25243     25951     26025     25317     25953     26026     26027     25318
 -1      3486    4    0    1
 -2      8051      8141      8151      8061      8052      8142      8152      8062     25953     26026
 -2     26027     25318     25250     25958     26032     25324     25960     26033     26034     25325
 -1      3487    4    0    1
 -2      8052      8142      8152      8062      5014      5023      5024      5015     25960     26033
 -2     26034     25325     25257     25965     26039     25331      5775      5777      5778      5748
 -1      3488    4    0    1
 -2       618       627       628       619      8053      8143      8153      8063      1381      1383
 -2      1384      1354     25261     25969     26043     25335     25971     26044     26045     25336
 -1      3489    4    0    1
 -2      8053      8143      8153      8063      8054      8144      8154      8064     25971     26044
 -2     26045     25336     25268     25976     26050     25342     25978     26051     26052     25343
 -1      3490    4    0    1
 -2      8054      8144      8154      8064      8055      8145      8155      8065     25978     26051
 -2     26052     25343     25275     25983     26057     25349     25985     26058     26059     25350
 -1      3491    4    0    1
 -2      8055      8145      8155      8065      8056      8146      8156      8066     25985     26058
 -2     26059     25350     25282     25990     26064     25356     25992     26065     26066     25357
 -1      3492    4    0    1
 -2      8056      8146      8156      8066      8057      8147      8157      8067     25992     26065
 -2     26066     25357     25289     25997     26071     25363     25999     26072     26073     25364
 -1      3493    4    0    1
 -2      8057      8147      8157      8067      8058      8148      8158      8068     25999     26072
 -2     26073     25364     25296     26004     26078     25370     26006     26079     26080     25371
 -1      3494    4    0    1
 -2      8058      8148      8158      8068      8059      8149      8159      8069     26006     26079
 -2     26080     25371     25303     26011     26085     25377     26013     26086     26087     25378
 -1      3495    4    0    1
 -2      8059      8149      8159      8069      8060      8150      8160      8070     26013     26086
 -2     26087     25378     25310     26018     26092     25384     26020     26093     26094     25385
 -1      3496    4    0    1
 -2      8060      8150      8160      8070      8061      8151      8161      8071     26020     26093
 -2     26094     25385     25317     26025     26099     25391     26027     26100     26101     25392
 -1      3497    4    0    1
 -2      8061      8151      8161      8071      8062      8152      8162      8072     26027     26100
 -2     26101     25392     25324     26032     26106     25398     26034     26107     26108     25399
 -1      3498    4    0    1
 -2      8062      8152      8162      8072      5015      5024      5025      5016     26034     26107
 -2     26108     25399     25331     26039     26113     25405      5778      5780      5781      5751
 -1      3499    4    0    1
 -2       619       628       629       620      8063      8153      8163      8073      1384      1386
 -2      1387      1357     25335     26043     26117     25409     26045     26118     26119     25410
 -1      3500    4    0    1
 -2      8063      8153      8163      8073      8064      8154      8164      8074     26045     26118
 -2     26119     25410     25342     26050     26124     25416     26052     26125     26126     25417
 -1      3501    4    0    1
 -2      8064      8154      8164      8074      8065      8155      8165      8075     26052     26125
 -2     26126     25417     25349     26057     26131     25423     26059     26132     26133     25424
 -1      3502    4    0    1
 -2      8065      8155      8165      8075      8066      8156      8166      8076     26059     26132
 -2     26133     25424     25356     26064     26138     25430     26066     26139     26140     25431
 -1      3503    4    0    1
 -2      8066      8156      8166      8076      8067      8157      8167      8077     26066     26139
 -2     26140     25431     25363     26071     26145     25437     26073     26146     26147     25438
 -1      3504    4    0    1
 -2      8067      8157      8167      8077      8068      8158      8168      8078     26073     26146
 -2     26147     25438     25370     26078     26152     25444     26080     26153     26154     25445
 -1      3505    4    0    1
 -2      8068      8158      8168      8078      8069      8159      8169      8079     26080     26153
 -2     26154     25445     25377     26085     26159     25451     26087     26160     26161     25452
 -1      3506    4    0    1
 -2      8069      8159      8169      8079      8070      8160      8170      8080     26087     26160
 -2     26161     25452     25384     26092     26166     25458     26094     26167     26168     25459
 -1      3507    4    0    1
 -2      8070      8160      8170      8080      8071      8161      8171      8081     26094     26167
 -2     26168     25459     25391     26099     26173     25465     26101     26174     26175     25466
 -1      3508    4    0    1
 -2      8071      8161      8171      8081      8072      8162      8172      8082     26101     26174
 -2     26175     25466     25398     26106     26180     25472     26108     26181     26182     25473
 -1      3509    4    0    1
 -2      8072      8162      8172      8082      5016      5025      5026      5017     26108     26181
 -2     26182     25473     25405     26113     26187     25479      5781      5783      5784      5754
 -1      3510    4    0    1
 -2       620       629        91        92      8073      8163      3204      3214      1387      1389
 -2       121      1360     25409     26117      3582      3614     26119     26191      3615     25483
 -1      3511    4    0    1
 -2      8073      8163      3204      3214      8074      8164      3205      3215     26119     26191
 -2      3615     25483     25416     26124      3585      3617     26126     26195      3618     25487
 -1      3512    4    0    1
 -2      8074      8164      3205      3215      8075      8165      3206      3216     26126     26195
 -2      3618     25487     25423     26131      3588      3620     26133     26199      3621     25491
 -1      3513    4    0    1
 -2      8075      8165      3206      3216      8076      8166      3207      3217     26133     26199
 -2      3621     25491     25430     26138      3591      3623     26140     26203      3624     25495
 -1      3514    4    0    1
 -2      8076      8166      3207      3217      8077      8167      3208      3218     26140     26203
 -2      3624     25495     25437     26145      3594      3626     26147     26207      3627     25499
 -1      3515    4    0    1
 -2      8077      8167      3208      3218      8078      8168      3209      3219     26147     26207
 -2      3627     25499     25444     26152      3597      3629     26154     26211      3630     25503
 -1      3516    4    0    1
 -2      8078      8168      3209      3219      8079      8169      3210      3220     26154     26211
 -2      3630     25503     25451     26159      3600      3632     26161     26215      3633     25507
 -1      3517    4    0    1
 -2      8079      8169      3210      3220      8080      8170      3211      3221     26161     26215
 -2      3633     25507     25458     26166      3603      3635     26168     26219      3636     25511
 -1      3518    4    0    1
 -2      8080      8170      3211      3221      8081      8171      3212      3222     26168     26219
 -2      3636     25511     25465     26173      3606      3638     26175     26223      3639     25515
 -1      3519    4    0    1
 -2      8081      8171      3212      3222      8082      8172      3213      3223     26175     26223
 -2      3639     25515     25472     26180      3609      3641     26182     26227      3642     25519
 -1      3520    4    0    1
 -2      8082      8172      3213      3223      5017      5026       247       248     26182     26227
 -2      3642     25519     25479     26187      3612      3644      5784      5786       277      5757
 -1      3521    4    0    1
 -2        33        34       630       621      1766      1776      8173      8083        63      1391
 -2      1392      1362      2584      2616     26233     25525      2617     26234     26235     25526
 -1      3522    4    0    1
 -2      1766      1776      8173      8083      1767      1777      8174      8084      2617     26234
 -2     26235     25526      2587      2619     26240     25532      2620     26241     26242     25533
 -1      3523    4    0    1
 -2      1767      1777      8174      8084      1768      1778      8175      8085      2620     26241
 -2     26242     25533      2590      2622     26247     25539      2623     26248     26249     25540
 -1      3524    4    0    1
 -2      1768      1778      8175      8085      1769      1779      8176      8086      2623     26248
 -2     26249     25540      2593      2625     26254     25546      2626     26255     26256     25547
 -1      3525    4    0    1
 -2      1769      1779      8176      8086      1770      1780      8177      8087      2626     26255
 -2     26256     25547      2596      2628     26261     25553      2629     26262     26263     25554
 -1      3526    4    0    1
 -2      1770      1780      8177      8087      1771      1781      8178      8088      2629     26262
 -2     26263     25554      2599      2631     26268     25560      2632     26269     26270     25561
 -1      3527    4    0    1
 -2      1771      1781      8178      8088      1772      1782      8179      8089      2632     26269
 -2     26270     25561      2602      2634     26275     25567      2635     26276     26277     25568
 -1      3528    4    0    1
 -2      1772      1782      8179      8089      1773      1783      8180      8090      2635     26276
 -2     26277     25568      2605      2637     26282     25574      2638     26283     26284     25575
 -1      3529    4    0    1
 -2      1773      1783      8180      8090      1774      1784      8181      8091      2638     26283
 -2     26284     25575      2608      2640     26289     25581      2641     26290     26291     25582
 -1      3530    4    0    1
 -2      1774      1784      8181      8091      1775      1785      8182      8092      2641     26290
 -2     26291     25582      2611      2643     26296     25588      2644     26297     26298     25589
 -1      3531    4    0    1
 -2      1775      1785      8182      8092       189       190      5027      5018      2644     26297
 -2     26298     25589      2614      2646     26303     25595       219      5788      5789      5759
 -1      3532    4    0    1
 -2       621       630       631       622      8083      8173      8183      8093      1392      1394
 -2      1395      1365     25525     26233     26307     25599     26235     26308     26309     25600
 -1      3533    4    0    1
 -2      8083      8173      8183      8093      8084      8174      8184      8094     26235     26308
 -2     26309     25600     25532     26240     26314     25606     26242     26315     26316     25607
 -1      3534    4    0    1
 -2      8084      8174      8184      8094      8085      8175      8185      8095     26242     26315
 -2     26316     25607     25539     26247     26321     25613     26249     26322     26323     25614
 -1      3535    4    0    1
 -2      8085      8175      8185      8095      8086      8176      8186      8096     26249     26322
 -2     26323     25614     25546     26254     26328     25620     26256     26329     26330     25621
 -1      3536    4    0    1
 -2      8086      8176      8186      8096      8087      8177      8187      8097     26256     26329
 -2     26330     25621     25553     26261     26335     25627     26263     26336     26337     25628
 -1      3537    4    0    1
 -2      8087      8177      8187      8097      8088      8178      8188      8098     26263     26336
 -2     26337     25628     25560     26268     26342     25634     26270     26343     26344     25635
 -1      3538    4    0    1
 -2      8088      8178      8188      8098      8089      8179      8189      8099     26270     26343
 -2     26344     25635     25567     26275     26349     25641     26277     26350     26351     25642
 -1      3539    4    0    1
 -2      8089      8179      8189      8099      8090      8180      8190      8100     26277     26350
 -2     26351     25642     25574     26282     26356     25648     26284     26357     26358     25649
 -1      3540    4    0    1
 -2      8090      8180      8190      8100      8091      8181      8191      8101     26284     26357
 -2     26358     25649     25581     26289     26363     25655     26291     26364     26365     25656
 -1      3541    4    0    1
 -2      8091      8181      8191      8101      8092      8182      8192      8102     26291     26364
 -2     26365     25656     25588     26296     26370     25662     26298     26371     26372     25663
 -1      3542    4    0    1
 -2      8092      8182      8192      8102      5018      5027      5028      5019     26298     26371
 -2     26372     25663     25595     26303     26377     25669      5789      5791      5792      5762
 -1      3543    4    0    1
 -2       622       631       632       623      8093      8183      8193      8103      1395      1397
 -2      1398      1368     25599     26307     26381     25673     26309     26382     26383     25674
 -1      3544    4    0    1
 -2      8093      8183      8193      8103      8094      8184      8194      8104     26309     26382
 -2     26383     25674     25606     26314     26388     25680     26316     26389     26390     25681
 -1      3545    4    0    1
 -2      8094      8184      8194      8104      8095      8185      8195      8105     26316     26389
 -2     26390     25681     25613     26321     26395     25687     26323     26396     26397     25688
 -1      3546    4    0    1
 -2      8095      8185      8195      8105      8096      8186      8196      8106     26323     26396
 -2     26397     25688     25620     26328     26402     25694     26330     26403     26404     25695
 -1      3547    4    0    1
 -2      8096      8186      8196      8106      8097      8187      8197      8107     26330     26403
 -2     26404     25695     25627     26335     26409     25701     26337     26410     26411     25702
 -1      3548    4    0    1
 -2      8097      8187      8197      8107      8098      8188      8198      8108     26337     26410
 -2     26411     25702     25634     26342     26416     25708     26344     26417     26418     25709
 -1      3549    4    0    1
 -2      8098      8188      8198      8108      8099      8189      8199      8109     26344     26417
 -2     26418     25709     25641     26349     26423     25715     26351     26424     26425     25716
 -1      3550    4    0    1
 -2      8099      8189      8199      8109      8100      8190      8200      8110     26351     26424
 -2     26425     25716     25648     26356     26430     25722     26358     26431     26432     25723
 -1      3551    4    0    1
 -2      8100      8190      8200      8110      8101      8191      8201      8111     26358     26431
 -2     26432     25723     25655     26363     26437     25729     26365     26438     26439     25730
 -1      3552    4    0    1
 -2      8101      8191      8201      8111      8102      8192      8202      8112     26365     26438
 -2     26439     25730     25662     26370     26444     25736     26372     26445     26446     25737
 -1      3553    4    0    1
 -2      8102      8192      8202      8112      5019      5028      5029      5020     26372     26445
 -2     26446     25737     25669     26377     26451     25743      5792      5794      5795      5765
 -1      3554    4    0    1
 -2       623       632       633       624      8103      8193      8203      8113      1398      1400
 -2      1401      1371     25673     26381     26455     25747     26383     26456     26457     25748
 -1      3555    4    0    1
 -2      8103      8193      8203      8113      8104      8194      8204      8114     26383     26456
 -2     26457     25748     25680     26388     26462     25754     26390     26463     26464     25755
 -1      3556    4    0    1
 -2      8104      8194      8204      8114      8105      8195      8205      8115     26390     26463
 -2     26464     25755     25687     26395     26469     25761     26397     26470     26471     25762
 -1      3557    4    0    1
 -2      8105      8195      8205      8115      8106      8196      8206      8116     26397     26470
 -2     26471     25762     25694     26402     26476     25768     26404     26477     26478     25769
 -1      3558    4    0    1
 -2      8106      8196      8206      8116      8107      8197      8207      8117     26404     26477
 -2     26478     25769     25701     26409     26483     25775     26411     26484     26485     25776
 -1      3559    4    0    1
 -2      8107      8197      8207      8117      8108      8198      8208      8118     26411     26484
 -2     26485     25776     25708     26416     26490     25782     26418     26491     26492     25783
 -1      3560    4    0    1
 -2      8108      8198      8208      8118      8109      8199      8209      8119     26418     26491
 -2     26492     25783     25715     26423     26497     25789     26425     26498     26499     25790
 -1      3561    4    0    1
 -2      8109      8199      8209      8119      8110      8200      8210      8120     26425     26498
 -2     26499     25790     25722     26430     26504     25796     26432     26505     26506     25797
 -1      3562    4    0    1
 -2      8110      8200      8210      8120      8111      8201      8211      8121     26432     26505
 -2     26506     25797     25729     26437     26511     25803     26439     26512     26513     25804
 -1      3563    4    0    1
 -2      8111      8201      8211      8121      8112      8202      8212      8122     26439     26512
 -2     26513     25804     25736     26444     26518     25810     26446     26519     26520     25811
 -1      3564    4    0    1
 -2      8112      8202      8212      8122      5020      5029      5030      5021     26446     26519
 -2     26520     25811     25743     26451     26525     25817      5795      5797      5798      5768
 -1      3565    4    0    1
 -2       624       633       634       625      8113      8203      8213      8123      1401      1403
 -2      1404      1374     25747     26455     26529     25821     26457     26530     26531     25822
 -1      3566    4    0    1
 -2      8113      8203      8213      8123      8114      8204      8214      8124     26457     26530
 -2     26531     25822     25754     26462     26536     25828     26464     26537     26538     25829
 -1      3567    4    0    1
 -2      8114      8204      8214      8124      8115      8205      8215      8125     26464     26537
 -2     26538     25829     25761     26469     26543     25835     26471     26544     26545     25836
 -1      3568    4    0    1
 -2      8115      8205      8215      8125      8116      8206      8216      8126     26471     26544
 -2     26545     25836     25768     26476     26550     25842     26478     26551     26552     25843
 -1      3569    4    0    1
 -2      8116      8206      8216      8126      8117      8207      8217      8127     26478     26551
 -2     26552     25843     25775     26483     26557     25849     26485     26558     26559     25850
 -1      3570    4    0    1
 -2      8117      8207      8217      8127      8118      8208      8218      8128     26485     26558
 -2     26559     25850     25782     26490     26564     25856     26492     26565     26566     25857
 -1      3571    4    0    1
 -2      8118      8208      8218      8128      8119      8209      8219      8129     26492     26565
 -2     26566     25857     25789     26497     26571     25863     26499     26572     26573     25864
 -1      3572    4    0    1
 -2      8119      8209      8219      8129      8120      8210      8220      8130     26499     26572
 -2     26573     25864     25796     26504     26578     25870     26506     26579     26580     25871
 -1      3573    4    0    1
 -2      8120      8210      8220      8130      8121      8211      8221      8131     26506     26579
 -2     26580     25871     25803     26511     26585     25877     26513     26586     26587     25878
 -1      3574    4    0    1
 -2      8121      8211      8221      8131      8122      8212      8222      8132     26513     26586
 -2     26587     25878     25810     26518     26592     25884     26520     26593     26594     25885
 -1      3575    4    0    1
 -2      8122      8212      8222      8132      5021      5030      5031      5022     26520     26593
 -2     26594     25885     25817     26525     26599     25891      5798      5800      5801      5771
 -1      3576    4    0    1
 -2       625       634       635       626      8123      8213      8223      8133      1404      1406
 -2      1407      1377     25821     26529     26603     25895     26531     26604     26605     25896
 -1      3577    4    0    1
 -2      8123      8213      8223      8133      8124      8214      8224      8134     26531     26604
 -2     26605     25896     25828     26536     26610     25902     26538     26611     26612     25903
 -1      3578    4    0    1
 -2      8124      8214      8224      8134      8125      8215      8225      8135     26538     26611
 -2     26612     25903     25835     26543     26617     25909     26545     26618     26619     25910
 -1      3579    4    0    1
 -2      8125      8215      8225      8135      8126      8216      8226      8136     26545     26618
 -2     26619     25910     25842     26550     26624     25916     26552     26625     26626     25917
 -1      3580    4    0    1
 -2      8126      8216      8226      8136      8127      8217      8227      8137     26552     26625
 -2     26626     25917     25849     26557     26631     25923     26559     26632     26633     25924
 -1      3581    4    0    1
 -2      8127      8217      8227      8137      8128      8218      8228      8138     26559     26632
 -2     26633     25924     25856     26564     26638     25930     26566     26639     26640     25931
 -1      3582    4    0    1
 -2      8128      8218      8228      8138      8129      8219      8229      8139     26566     26639
 -2     26640     25931     25863     26571     26645     25937     26573     26646     26647     25938
 -1      3583    4    0    1
 -2      8129      8219      8229      8139      8130      8220      8230      8140     26573     26646
 -2     26647     25938     25870     26578     26652     25944     26580     26653     26654     25945
 -1      3584    4    0    1
 -2      8130      8220      8230      8140      8131      8221      8231      8141     26580     26653
 -2     26654     25945     25877     26585     26659     25951     26587     26660     26661     25952
 -1      3585    4    0    1
 -2      8131      8221      8231      8141      8132      8222      8232      8142     26587     26660
 -2     26661     25952     25884     26592     26666     25958     26594     26667     26668     25959
 -1      3586    4    0    1
 -2      8132      8222      8232      8142      5022      5031      5032      5023     26594     26667
 -2     26668     25959     25891     26599     26673     25965      5801      5803      5804      5774
 -1      3587    4    0    1
 -2       626       635       636       627      8133      8223      8233      8143      1407      1409
 -2      1410      1380     25895     26603     26677     25969     26605     26678     26679     25970
 -1      3588    4    0    1
 -2      8133      8223      8233      8143      8134      8224      8234      8144     26605     26678
 -2     26679     25970     25902     26610     26684     25976     26612     26685     26686     25977
 -1      3589    4    0    1
 -2      8134      8224      8234      8144      8135      8225      8235      8145     26612     26685
 -2     26686     25977     25909     26617     26691     25983     26619     26692     26693     25984
 -1      3590    4    0    1
 -2      8135      8225      8235      8145      8136      8226      8236      8146     26619     26692
 -2     26693     25984     25916     26624     26698     25990     26626     26699     26700     25991
 -1      3591    4    0    1
 -2      8136      8226      8236      8146      8137      8227      8237      8147     26626     26699
 -2     26700     25991     25923     26631     26705     25997     26633     26706     26707     25998
 -1      3592    4    0    1
 -2      8137      8227      8237      8147      8138      8228      8238      8148     26633     26706
 -2     26707     25998     25930     26638     26712     26004     26640     26713     26714     26005
 -1      3593    4    0    1
 -2      8138      8228      8238      8148      8139      8229      8239      8149     26640     26713
 -2     26714     26005     25937     26645     26719     26011     26647     26720     26721     26012
 -1      3594    4    0    1
 -2      8139      8229      8239      8149      8140      8230      8240      8150     26647     26720
 -2     26721     26012     25944     26652     26726     26018     26654     26727     26728     26019
 -1      3595    4    0    1
 -2      8140      8230      8240      8150      8141      8231      8241      8151     26654     26727
 -2     26728     26019     25951     26659     26733     26025     26661     26734     26735     26026
 -1      3596    4    0    1
 -2      8141      8231      8241      8151      8142      8232      8242      8152     26661     26734
 -2     26735     26026     25958     26666     26740     26032     26668     26741     26742     26033
 -1      3597    4    0    1
 -2      8142      8232      8242      8152      5023      5032      5033      5024     26668     26741
 -2     26742     26033     25965     26673     26747     26039      5804      5806      5807      5777
 -1      3598    4    0    1
 -2       627       636       637       628      8143      8233      8243      8153      1410      1412
 -2      1413      1383     25969     26677     26751     26043     26679     26752     26753     26044
 -1      3599    4    0    1
 -2      8143      8233      8243      8153      8144      8234      8244      8154     26679     26752
 -2     26753     26044     25976     26684     26758     26050     26686     26759     26760     26051
 -1      3600    4    0    1
 -2      8144      8234      8244      8154      8145      8235      8245      8155     26686     26759
 -2     26760     26051     25983     26691     26765     26057     26693     26766     26767     26058
 -1      3601    4    0    1
 -2      8145      8235      8245      8155      8146      8236      8246      8156     26693     26766
 -2     26767     26058     25990     26698     26772     26064     26700     26773     26774     26065
 -1      3602    4    0    1
 -2      8146      8236      8246      8156      8147      8237      8247      8157     26700     26773
 -2     26774     26065     25997     26705     26779     26071     26707     26780     26781     26072
 -1      3603    4    0    1
 -2      8147      8237      8247      8157      8148      8238      8248      8158     26707     26780
 -2     26781     26072     26004     26712     26786     26078     26714     26787     26788     26079
 -1      3604    4    0    1
 -2      8148      8238      8248      8158      8149      8239      8249      8159     26714     26787
 -2     26788     26079     26011     26719     26793     26085     26721     26794     26795     26086
 -1      3605    4    0    1
 -2      8149      8239      8249      8159      8150      8240      8250      8160     26721     26794
 -2     26795     26086     26018     26726     26800     26092     26728     26801     26802     26093
 -1      3606    4    0    1
 -2      8150      8240      8250      8160      8151      8241      8251      8161     26728     26801
 -2     26802     26093     26025     26733     26807     26099     26735     26808     26809     26100
 -1      3607    4    0    1
 -2      8151      8241      8251      8161      8152      8242      8252      8162     26735     26808
 -2     26809     26100     26032     26740     26814     26106     26742     26815     26816     26107
 -1      3608    4    0    1
 -2      8152      8242      8252      8162      5024      5033      5034      5025     26742     26815
 -2     26816     26107     26039     26747     26821     26113      5807      5809      5810      5780
 -1      3609    4    0    1
 -2       628       637       638       629      8153      8243      8253      8163      1413      1415
 -2      1416      1386     26043     26751     26825     26117     26753     26826     26827     26118
 -1      3610    4    0    1
 -2      8153      8243      8253      8163      8154      8244      8254      8164     26753     26826
 -2     26827     26118     26050     26758     26832     26124     26760     26833     26834     26125
 -1      3611    4    0    1
 -2      8154      8244      8254      8164      8155      8245      8255      8165     26760     26833
 -2     26834     26125     26057     26765     26839     26131     26767     26840     26841     26132
 -1      3612    4    0    1
 -2      8155      8245      8255      8165      8156      8246      8256      8166     26767     26840
 -2     26841     26132     26064     26772     26846     26138     26774     26847     26848     26139
 -1      3613    4    0    1
 -2      8156      8246      8256      8166      8157      8247      8257      8167     26774     26847
 -2     26848     26139     26071     26779     26853     26145     26781     26854     26855     26146
 -1      3614    4    0    1
 -2      8157      8247      8257      8167      8158      8248      8258      8168     26781     26854
 -2     26855     26146     26078     26786     26860     26152     26788     26861     26862     26153
 -1      3615    4    0    1
 -2      8158      8248      8258      8168      8159      8249      8259      8169     26788     26861
 -2     26862     26153     26085     26793     26867     26159     26795     26868     26869     26160
 -1      3616    4    0    1
 -2      8159      8249      8259      8169      8160      8250      8260      8170     26795     26868
 -2     26869     26160     26092     26800     26874     26166     26802     26875     26876     26167
 -1      3617    4    0    1
 -2      8160      8250      8260      8170      8161      8251      8261      8171     26802     26875
 -2     26876     26167     26099     26807     26881     26173     26809     26882     26883     26174
 -1      3618    4    0    1
 -2      8161      8251      8261      8171      8162      8252      8262      8172     26809     26882
 -2     26883     26174     26106     26814     26888     26180     26816     26889     26890     26181
 -1      3619    4    0    1
 -2      8162      8252      8262      8172      5025      5034      5035      5026     26816     26889
 -2     26890     26181     26113     26821     26895     26187      5810      5812      5813      5783
 -1      3620    4    0    1
 -2       629       638        90        91      8163      8253      3194      3204      1416      1418
 -2       120      1389     26117     26825      3550      3582     26827     26899      3583     26191
 -1      3621    4    0    1
 -2      8163      8253      3194      3204      8164      8254      3195      3205     26827     26899
 -2      3583     26191     26124     26832      3553      3585     26834     26903      3586     26195
 -1      3622    4    0    1
 -2      8164      8254      3195      3205      8165      8255      3196      3206     26834     26903
 -2      3586     26195     26131     26839      3556      3588     26841     26907      3589     26199
 -1      3623    4    0    1
 -2      8165      8255      3196      3206      8166      8256      3197      3207     26841     26907
 -2      3589     26199     26138     26846      3559      3591     26848     26911      3592     26203
 -1      3624    4    0    1
 -2      8166      8256      3197      3207      8167      8257      3198      3208     26848     26911
 -2      3592     26203     26145     26853      3562      3594     26855     26915      3595     26207
 -1      3625    4    0    1
 -2      8167      8257      3198      3208      8168      8258      3199      3209     26855     26915
 -2      3595     26207     26152     26860      3565      3597     26862     26919      3598     26211
 -1      3626    4    0    1
 -2      8168      8258      3199      3209      8169      8259      3200      3210     26862     26919
 -2      3598     26211     26159     26867      3568      3600     26869     26923      3601     26215
 -1      3627    4    0    1
 -2      8169      8259      3200      3210      8170      8260      3201      3211     26869     26923
 -2      3601     26215     26166     26874      3571      3603     26876     26927      3604     26219
 -1      3628    4    0    1
 -2      8170      8260      3201      3211      8171      8261      3202      3212     26876     26927
 -2      3604     26219     26173     26881      3574      3606     26883     26931      3607     26223
 -1      3629    4    0    1
 -2      8171      8261      3202      3212      8172      8262      3203      3213     26883     26931
 -2      3607     26223     26180     26888      3577      3609     26890     26935      3610     26227
 -1      3630    4    0    1
 -2      8172      8262      3203      3213      5026      5035       246       247     26890     26935
 -2      3610     26227     26187     26895      3580      3612      5813      5815       276      5786
 -1      3631    4    0    1
 -2        34        35       639       630      1776      1786      8263      8173        64      1420
 -2      1421      1391      2616      2648     26941     26233      2649     26942     26943     26234
 -1      3632    4    0    1
 -2      1776      1786      8263      8173      1777      1787      8264      8174      2649     26942
 -2     26943     26234      2619      2651     26948     26240      2652     26949     26950     26241
 -1      3633    4    0    1
 -2      1777      1787      8264      8174      1778      1788      8265      8175      2652     26949
 -2     26950     26241      2622      2654     26955     26247      2655     26956     26957     26248
 -1      3634    4    0    1
 -2      1778      1788      8265      8175      1779      1789      8266      8176      2655     26956
 -2     26957     26248      2625      2657     26962     26254      2658     26963     26964     26255
 -1      3635    4    0    1
 -2      1779      1789      8266      8176      1780      1790      8267      8177      2658     26963
 -2     26964     26255      2628      2660     26969     26261      2661     26970     26971     26262
 -1      3636    4    0    1
 -2      1780      1790      8267      8177      1781      1791      8268      8178      2661     26970
 -2     26971     26262      2631      2663     26976     26268      2664     26977     26978     26269
 -1      3637    4    0    1
 -2      1781      1791      8268      8178      1782      1792      8269      8179      2664     26977
 -2     26978     26269      2634      2666     26983     26275      2667     26984     26985     26276
 -1      3638    4    0    1
 -2      1782      1792      8269      8179      1783      1793      8270      8180      2667     26984
 -2     26985     26276      2637      2669     26990     26282      2670     26991     26992     26283
 -1      3639    4    0    1
 -2      1783      1793      8270      8180      1784      1794      8271      8181      2670     26991
 -2     26992     26283      2640      2672     26997     26289      2673     26998     26999     26290
 -1      3640    4    0    1
 -2      1784      1794      8271      8181      1785      1795      8272      8182      2673     26998
 -2     26999     26290      2643      2675     27004     26296      2676     27005     27006     26297
 -1      3641    4    0    1
 -2      1785      1795      8272      8182       190       191      5036      5027      2676     27005
 -2     27006     26297      2646      2678     27011     26303       220      5817      5818      5788
 -1      3642    4    0    1
 -2       630       639       640       631      8173      8263      8273      8183      1421      1423
 -2      1424      1394     26233     26941     27015     26307     26943     27016     27017     26308
 -1      3643    4    0    1
 -2      8173      8263      8273      8183      8174      8264      8274      8184     26943     27016
 -2     27017     26308     26240     26948     27022     26314     26950     27023     27024     26315
 -1      3644    4    0    1
 -2      8174      8264      8274      8184      8175      8265      8275      8185     26950     27023
 -2     27024     26315     26247     26955     27029     26321     26957     27030     27031     26322
 -1      3645    4    0    1
 -2      8175      8265      8275      8185      8176      8266      8276      8186     26957     27030
 -2     27031     26322     26254     26962     27036     26328     26964     27037     27038     26329
 -1      3646    4    0    1
 -2      8176      8266      8276      8186      8177      8267      8277      8187     26964     27037
 -2     27038     26329     26261     26969     27043     26335     26971     27044     27045     26336
 -1      3647    4    0    1
 -2      8177      8267      8277      8187      8178      8268      8278      8188     26971     27044
 -2     27045     26336     26268     26976     27050     26342     26978     27051     27052     26343
 -1      3648    4    0    1
 -2      8178      8268      8278      8188      8179      8269      8279      8189     26978     27051
 -2     27052     26343     26275     26983     27057     26349     26985     27058     27059     26350
 -1      3649    4    0    1
 -2      8179      8269      8279      8189      8180      8270      8280      8190     26985     27058
 -2     27059     26350     26282     26990     27064     26356     26992     27065     27066     26357
 -1      3650    4    0    1
 -2      8180      8270      8280      8190      8181      8271      8281      8191     26992     27065
 -2     27066     26357     26289     26997     27071     26363     26999     27072     27073     26364
 -1      3651    4    0    1
 -2      8181      8271      8281      8191      8182      8272      8282      8192     26999     27072
 -2     27073     26364     26296     27004     27078     26370     27006     27079     27080     26371
 -1      3652    4    0    1
 -2      8182      8272      8282      8192      5027      5036      5037      5028     27006     27079
 -2     27080     26371     26303     27011     27085     26377      5818      5820      5821      5791
 -1      3653    4    0    1
 -2       631       640       641       632      8183      8273      8283      8193      1424      1426
 -2      1427      1397     26307     27015     27089     26381     27017     27090     27091     26382
 -1      3654    4    0    1
 -2      8183      8273      8283      8193      8184      8274      8284      8194     27017     27090
 -2     27091     26382     26314     27022     27096     26388     27024     27097     27098     26389
 -1      3655    4    0    1
 -2      8184      8274      8284      8194      8185      8275      8285      8195     27024     27097
 -2     27098     26389     26321     27029     27103     26395     27031     27104     27105     26396
 -1      3656    4    0    1
 -2      8185      8275      8285      8195      8186      8276      8286      8196     27031     27104
 -2     27105     26396     26328     27036     27110     26402     27038     27111     27112     26403
 -1      3657    4    0    1
 -2      8186      8276      8286      8196      8187      8277      8287      8197     27038     27111
 -2     27112     26403     26335     27043     27117     26409     27045     27118     27119     26410
 -1      3658    4    0    1
 -2      8187      8277      8287      8197      8188      8278      8288      8198     27045     27118
 -2     27119     26410     26342     27050     27124     26416     27052     27125     27126     26417
 -1      3659    4    0    1
 -2      8188      8278      8288      8198      8189      8279      8289      8199     27052     27125
 -2     27126     26417     26349     27057     27131     26423     27059     27132     27133     26424
 -1      3660    4    0    1
 -2      8189      8279      8289      8199      8190      8280      8290      8200     27059     27132
 -2     27133     26424     26356     27064     27138     26430     27066     27139     27140     26431
 -1      3661    4    0    1
 -2      8190      8280      8290      8200      8191      8281      8291      8201     27066     27139
 -2     27140     26431     26363     27071     27145     26437     27073     27146     27147     26438
 -1      3662    4    0    1
 -2      8191      8281      8291      8201      8192      8282      8292      8202     27073     27146
 -2     27147     26438     26370     27078     27152     26444     27080     27153     27154     26445
 -1      3663    4    0    1
 -2      8192      8282      8292      8202      5028      5037      5038      5029     27080     27153
 -2     27154     26445     26377     27085     27159     26451      5821      5823      5824      5794
 -1      3664    4    0    1
 -2       632       641       642       633      8193      8283      8293      8203      1427      1429
 -2      1430      1400     26381     27089     27163     26455     27091     27164     27165     26456
 -1      3665    4    0    1
 -2      8193      8283      8293      8203      8194      8284      8294      8204     27091     27164
 -2     27165     26456     26388     27096     27170     26462     27098     27171     27172     26463
 -1      3666    4    0    1
 -2      8194      8284      8294      8204      8195      8285      8295      8205     27098     27171
 -2     27172     26463     26395     27103     27177     26469     27105     27178     27179     26470
 -1      3667    4    0    1
 -2      8195      8285      8295      8205      8196      8286      8296      8206     27105     27178
 -2     27179     26470     26402     27110     27184     26476     27112     27185     27186     26477
 -1      3668    4    0    1
 -2      8196      8286      8296      8206      8197      8287      8297      8207     27112     27185
 -2     27186     26477     26409     27117     27191     26483     27119     27192     27193     26484
 -1      3669    4    0    1
 -2      8197      8287      8297      8207      8198      8288      8298      8208     27119     27192
 -2     27193     26484     26416     27124     27198     26490     27126     27199     27200     26491
 -1      3670    4    0    1
 -2      8198      8288      8298      8208      8199      8289      8299      8209     27126     27199
 -2     27200     26491     26423     27131     27205     26497     27133     27206     27207     26498
 -1      3671    4    0    1
 -2      8199      8289      8299      8209      8200      8290      8300      8210     27133     27206
 -2     27207     26498     26430     27138     27212     26504     27140     27213     27214     26505
 -1      3672    4    0    1
 -2      8200      8290      8300      8210      8201      8291      8301      8211     27140     27213
 -2     27214     26505     26437     27145     27219     26511     27147     27220     27221     26512
 -1      3673    4    0    1
 -2      8201      8291      8301      8211      8202      8292      8302      8212     27147     27220
 -2     27221     26512     26444     27152     27226     26518     27154     27227     27228     26519
 -1      3674    4    0    1
 -2      8202      8292      8302      8212      5029      5038      5039      5030     27154     27227
 -2     27228     26519     26451     27159     27233     26525      5824      5826      5827      5797
 -1      3675    4    0    1
 -2       633       642       643       634      8203      8293      8303      8213      1430      1432
 -2      1433      1403     26455     27163     27237     26529     27165     27238     27239     26530
 -1      3676    4    0    1
 -2      8203      8293      8303      8213      8204      8294      8304      8214     27165     27238
 -2     27239     26530     26462     27170     27244     26536     27172     27245     27246     26537
 -1      3677    4    0    1
 -2      8204      8294      8304      8214      8205      8295      8305      8215     27172     27245
 -2     27246     26537     26469     27177     27251     26543     27179     27252     27253     26544
 -1      3678    4    0    1
 -2      8205      8295      8305      8215      8206      8296      8306      8216     27179     27252
 -2     27253     26544     26476     27184     27258     26550     27186     27259     27260     26551
 -1      3679    4    0    1
 -2      8206      8296      8306      8216      8207      8297      8307      8217     27186     27259
 -2     27260     26551     26483     27191     27265     26557     27193     27266     27267     26558
 -1      3680    4    0    1
 -2      8207      8297      8307      8217      8208      8298      8308      8218     27193     27266
 -2     27267     26558     26490     27198     27272     26564     27200     27273     27274     26565
 -1      3681    4    0    1
 -2      8208      8298      8308      8218      8209      8299      8309      8219     27200     27273
 -2     27274     26565     26497     27205     27279     26571     27207     27280     27281     26572
 -1      3682    4    0    1
 -2      8209      8299      8309      8219      8210      8300      8310      8220     27207     27280
 -2     27281     26572     26504     27212     27286     26578     27214     27287     27288     26579
 -1      3683    4    0    1
 -2      8210      8300      8310      8220      8211      8301      8311      8221     27214     27287
 -2     27288     26579     26511     27219     27293     26585     27221     27294     27295     26586
 -1      3684    4    0    1
 -2      8211      8301      8311      8221      8212      8302      8312      8222     27221     27294
 -2     27295     26586     26518     27226     27300     26592     27228     27301     27302     26593
 -1      3685    4    0    1
 -2      8212      8302      8312      8222      5030      5039      5040      5031     27228     27301
 -2     27302     26593     26525     27233     27307     26599      5827      5829      5830      5800
 -1      3686    4    0    1
 -2       634       643       644       635      8213      8303      8313      8223      1433      1435
 -2      1436      1406     26529     27237     27311     26603     27239     27312     27313     26604
 -1      3687    4    0    1
 -2      8213      8303      8313      8223      8214      8304      8314      8224     27239     27312
 -2     27313     26604     26536     27244     27318     26610     27246     27319     27320     26611
 -1      3688    4    0    1
 -2      8214      8304      8314      8224      8215      8305      8315      8225     27246     27319
 -2     27320     26611     26543     27251     27325     26617     27253     27326     27327     26618
 -1      3689    4    0    1
 -2      8215      8305      8315      8225      8216      8306      8316      8226     27253     27326
 -2     27327     26618     26550     27258     27332     26624     27260     27333     27334     26625
 -1      3690    4    0    1
 -2      8216      8306      8316      8226      8217      8307      8317      8227     27260     27333
 -2     27334     26625     26557     27265     27339     26631     27267     27340     27341     26632
 -1      3691    4    0    1
 -2      8217      8307      8317      8227      8218      8308      8318      8228     27267     27340
 -2     27341     26632     26564     27272     27346     26638     27274     27347     27348     26639
 -1      3692    4    0    1
 -2      8218      8308      8318      8228      8219      8309      8319      8229     27274     27347
 -2     27348     26639     26571     27279     27353     26645     27281     27354     27355     26646
 -1      3693    4    0    1
 -2      8219      8309      8319      8229      8220      8310      8320      8230     27281     27354
 -2     27355     26646     26578     27286     27360     26652     27288     27361     27362     26653
 -1      3694    4    0    1
 -2      8220      8310      8320      8230      8221      8311      8321      8231     27288     27361
 -2     27362     26653     26585     27293     27367     26659     27295     27368     27369     26660
 -1      3695    4    0    1
 -2      8221      8311      8321      8231      8222      8312      8322      8232     27295     27368
 -2     27369     26660     26592     27300     27374     26666     27302     27375     27376     26667
 -1      3696    4    0    1
 -2      8222      8312      8322      8232      5031      5040      5041      5032     27302     27375
 -2     27376     26667     26599     27307     27381     26673      5830      5832      5833      5803
 -1      3697    4    0    1
 -2       635       644       645       636      8223      8313      8323      8233      1436      1438
 -2      1439      1409     26603     27311     27385     26677     27313     27386     27387     26678
 -1      3698    4    0    1
 -2      8223      8313      8323      8233      8224      8314      8324      8234     27313     27386
 -2     27387     26678     26610     27318     27392     26684     27320     27393     27394     26685
 -1      3699    4    0    1
 -2      8224      8314      8324      8234      8225      8315      8325      8235     27320     27393
 -2     27394     26685     26617     27325     27399     26691     27327     27400     27401     26692
 -1      3700    4    0    1
 -2      8225      8315      8325      8235      8226      8316      8326      8236     27327     27400
 -2     27401     26692     26624     27332     27406     26698     27334     27407     27408     26699
 -1      3701    4    0    1
 -2      8226      8316      8326      8236      8227      8317      8327      8237     27334     27407
 -2     27408     26699     26631     27339     27413     26705     27341     27414     27415     26706
 -1      3702    4    0    1
 -2      8227      8317      8327      8237      8228      8318      8328      8238     27341     27414
 -2     27415     26706     26638     27346     27420     26712     27348     27421     27422     26713
 -1      3703    4    0    1
 -2      8228      8318      8328      8238      8229      8319      8329      8239     27348     27421
 -2     27422     26713     26645     27353     27427     26719     27355     27428     27429     26720
 -1      3704    4    0    1
 -2      8229      8319      8329      8239      8230      8320      8330      8240     27355     27428
 -2     27429     26720     26652     27360     27434     26726     27362     27435     27436     26727
 -1      3705    4    0    1
 -2      8230      8320      8330      8240      8231      8321      8331      8241     27362     27435
 -2     27436     26727     26659     27367     27441     26733     27369     27442     27443     26734
 -1      3706    4    0    1
 -2      8231      8321      8331      8241      8232      8322      8332      8242     27369     27442
 -2     27443     26734     26666     27374     27448     26740     27376     27449     27450     26741
 -1      3707    4    0    1
 -2      8232      8322      8332      8242      5032      5041      5042      5033     27376     27449
 -2     27450     26741     26673     27381     27455     26747      5833      5835      5836      5806
 -1      3708    4    0    1
 -2       636       645       646       637      8233      8323      8333      8243      1439      1441
 -2      1442      1412     26677     27385     27459     26751     27387     27460     27461     26752
 -1      3709    4    0    1
 -2      8233      8323      8333      8243      8234      8324      8334      8244     27387     27460
 -2     27461     26752     26684     27392     27466     26758     27394     27467     27468     26759
 -1      3710    4    0    1
 -2      8234      8324      8334      8244      8235      8325      8335      8245     27394     27467
 -2     27468     26759     26691     27399     27473     26765     27401     27474     27475     26766
 -1      3711    4    0    1
 -2      8235      8325      8335      8245      8236      8326      8336      8246     27401     27474
 -2     27475     26766     26698     27406     27480     26772     27408     27481     27482     26773
 -1      3712    4    0    1
 -2      8236      8326      8336      8246      8237      8327      8337      8247     27408     27481
 -2     27482     26773     26705     27413     27487     26779     27415     27488     27489     26780
 -1      3713    4    0    1
 -2      8237      8327      8337      8247      8238      8328      8338      8248     27415     27488
 -2     27489     26780     26712     27420     27494     26786     27422     27495     27496     26787
 -1      3714    4    0    1
 -2      8238      8328      8338      8248      8239      8329      8339      8249     27422     27495
 -2     27496     26787     26719     27427     27501     26793     27429     27502     27503     26794
 -1      3715    4    0    1
 -2      8239      8329      8339      8249      8240      8330      8340      8250     27429     27502
 -2     27503     26794     26726     27434     27508     26800     27436     27509     27510     26801
 -1      3716    4    0    1
 -2      8240      8330      8340      8250      8241      8331      8341      8251     27436     27509
 -2     27510     26801     26733     27441     27515     26807     27443     27516     27517     26808
 -1      3717    4    0    1
 -2      8241      8331      8341      8251      8242      8332      8342      8252     27443     27516
 -2     27517     26808     26740     27448     27522     26814     27450     27523     27524     26815
 -1      3718    4    0    1
 -2      8242      8332      8342      8252      5033      5042      5043      5034     27450     27523
 -2     27524     26815     26747     27455     27529     26821      5836      5838      5839      5809
 -1      3719    4    0    1
 -2       637       646       647       638      8243      8333      8343      8253      1442      1444
 -2      1445      1415     26751     27459     27533     26825     27461     27534     27535     26826
 -1      3720    4    0    1
 -2      8243      8333      8343      8253      8244      8334      8344      8254     27461     27534
 -2     27535     26826     26758     27466     27540     26832     27468     27541     27542     26833
 -1      3721    4    0    1
 -2      8244      8334      8344      8254      8245      8335      8345      8255     27468     27541
 -2     27542     26833     26765     27473     27547     26839     27475     27548     27549     26840
 -1      3722    4    0    1
 -2      8245      8335      8345      8255      8246      8336      8346      8256     27475     27548
 -2     27549     26840     26772     27480     27554     26846     27482     27555     27556     26847
 -1      3723    4    0    1
 -2      8246      8336      8346      8256      8247      8337      8347      8257     27482     27555
 -2     27556     26847     26779     27487     27561     26853     27489     27562     27563     26854
 -1      3724    4    0    1
 -2      8247      8337      8347      8257      8248      8338      8348      8258     27489     27562
 -2     27563     26854     26786     27494     27568     26860     27496     27569     27570     26861
 -1      3725    4    0    1
 -2      8248      8338      8348      8258      8249      8339      8349      8259     27496     27569
 -2     27570     26861     26793     27501     27575     26867     27503     27576     27577     26868
 -1      3726    4    0    1
 -2      8249      8339      8349      8259      8250      8340      8350      8260     27503     27576
 -2     27577     26868     26800     27508     27582     26874     27510     27583     27584     26875
 -1      3727    4    0    1
 -2      8250      8340      8350      8260      8251      8341      8351      8261     27510     27583
 -2     27584     26875     26807     27515     27589     26881     27517     27590     27591     26882
 -1      3728    4    0    1
 -2      8251      8341      8351      8261      8252      8342      8352      8262     27517     27590
 -2     27591     26882     26814     27522     27596     26888     27524     27597     27598     26889
 -1      3729    4    0    1
 -2      8252      8342      8352      8262      5034      5043      5044      5035     27524     27597
 -2     27598     26889     26821     27529     27603     26895      5839      5841      5842      5812
 -1      3730    4    0    1
 -2       638       647        89        90      8253      8343      3184      3194      1445      1447
 -2       119      1418     26825     27533      3518      3550     27535     27607      3551     26899
 -1      3731    4    0    1
 -2      8253      8343      3184      3194      8254      8344      3185      3195     27535     27607
 -2      3551     26899     26832     27540      3521      3553     27542     27611      3554     26903
 -1      3732    4    0    1
 -2      8254      8344      3185      3195      8255      8345      3186      3196     27542     27611
 -2      3554     26903     26839     27547      3524      3556     27549     27615      3557     26907
 -1      3733    4    0    1
 -2      8255      8345      3186      3196      8256      8346      3187      3197     27549     27615
 -2      3557     26907     26846     27554      3527      3559     27556     27619      3560     26911
 -1      3734    4    0    1
 -2      8256      8346      3187      3197      8257      8347      3188      3198     27556     27619
 -2      3560     26911     26853     27561      3530      3562     27563     27623      3563     26915
 -1      3735    4    0    1
 -2      8257      8347      3188      3198      8258      8348      3189      3199     27563     27623
 -2      3563     26915     26860     27568      3533      3565     27570     27627      3566     26919
 -1      3736    4    0    1
 -2      8258      8348      3189      3199      8259      8349      3190      3200     27570     27627
 -2      3566     26919     26867     27575      3536      3568     27577     27631      3569     26923
 -1      3737    4    0    1
 -2      8259      8349      3190      3200      8260      8350      3191      3201     27577     27631
 -2      3569     26923     26874     27582      3539      3571     27584     27635      3572     26927
 -1      3738    4    0    1
 -2      8260      8350      3191      3201      8261      8351      3192      3202     27584     27635
 -2      3572     26927     26881     27589      3542      3574     27591     27639      3575     26931
 -1      3739    4    0    1
 -2      8261      8351      3192      3202      8262      8352      3193      3203     27591     27639
 -2      3575     26931     26888     27596      3545      3577     27598     27643      3578     26935
 -1      3740    4    0    1
 -2      8262      8352      3193      3203      5035      5044       245       246     27598     27643
 -2      3578     26935     26895     27603      3548      3580      5842      5844       275      5815
 -1      3741    4    0    1
 -2        35        36       648       639      1786      1796      8353      8263        65      1449
 -2      1450      1420      2648      2680     27649     26941      2681     27650     27651     26942
 -1      3742    4    0    1
 -2      1786      1796      8353      8263      1787      1797      8354      8264      2681     27650
 -2     27651     26942      2651      2683     27656     26948      2684     27657     27658     26949
 -1      3743    4    0    1
 -2      1787      1797      8354      8264      1788      1798      8355      8265      2684     27657
 -2     27658     26949      2654      2686     27663     26955      2687     27664     27665     26956
 -1      3744    4    0    1
 -2      1788      1798      8355      8265      1789      1799      8356      8266      2687     27664
 -2     27665     26956      2657      2689     27670     26962      2690     27671     27672     26963
 -1      3745    4    0    1
 -2      1789      1799      8356      8266      1790      1800      8357      8267      2690     27671
 -2     27672     26963      2660      2692     27677     26969      2693     27678     27679     26970
 -1      3746    4    0    1
 -2      1790      1800      8357      8267      1791      1801      8358      8268      2693     27678
 -2     27679     26970      2663      2695     27684     26976      2696     27685     27686     26977
 -1      3747    4    0    1
 -2      1791      1801      8358      8268      1792      1802      8359      8269      2696     27685
 -2     27686     26977      2666      2698     27691     26983      2699     27692     27693     26984
 -1      3748    4    0    1
 -2      1792      1802      8359      8269      1793      1803      8360      8270      2699     27692
 -2     27693     26984      2669      2701     27698     26990      2702     27699     27700     26991
 -1      3749    4    0    1
 -2      1793      1803      8360      8270      1794      1804      8361      8271      2702     27699
 -2     27700     26991      2672      2704     27705     26997      2705     27706     27707     26998
 -1      3750    4    0    1
 -2      1794      1804      8361      8271      1795      1805      8362      8272      2705     27706
 -2     27707     26998      2675      2707     27712     27004      2708     27713     27714     27005
 -1      3751    4    0    1
 -2      1795      1805      8362      8272       191       192      5045      5036      2708     27713
 -2     27714     27005      2678      2710     27719     27011       221      5846      5847      5817
 -1      3752    4    0    1
 -2       639       648       649       640      8263      8353      8363      8273      1450      1452
 -2      1453      1423     26941     27649     27723     27015     27651     27724     27725     27016
 -1      3753    4    0    1
 -2      8263      8353      8363      8273      8264      8354      8364      8274     27651     27724
 -2     27725     27016     26948     27656     27730     27022     27658     27731     27732     27023
 -1      3754    4    0    1
 -2      8264      8354      8364      8274      8265      8355      8365      8275     27658     27731
 -2     27732     27023     26955     27663     27737     27029     27665     27738     27739     27030
 -1      3755    4    0    1
 -2      8265      8355      8365      8275      8266      8356      8366      8276     27665     27738
 -2     27739     27030     26962     27670     27744     27036     27672     27745     27746     27037
 -1      3756    4    0    1
 -2      8266      8356      8366      8276      8267      8357      8367      8277     27672     27745
 -2     27746     27037     26969     27677     27751     27043     27679     27752     27753     27044
 -1      3757    4    0    1
 -2      8267      8357      8367      8277      8268      8358      8368      8278     27679     27752
 -2     27753     27044     26976     27684     27758     27050     27686     27759     27760     27051
 -1      3758    4    0    1
 -2      8268      8358      8368      8278      8269      8359      8369      8279     27686     27759
 -2     27760     27051     26983     27691     27765     27057     27693     27766     27767     27058
 -1      3759    4    0    1
 -2      8269      8359      8369      8279      8270      8360      8370      8280     27693     27766
 -2     27767     27058     26990     27698     27772     27064     27700     27773     27774     27065
 -1      3760    4    0    1
 -2      8270      8360      8370      8280      8271      8361      8371      8281     27700     27773
 -2     27774     27065     26997     27705     27779     27071     27707     27780     27781     27072
 -1      3761    4    0    1
 -2      8271      8361      8371      8281      8272      8362      8372      8282     27707     27780
 -2     27781     27072     27004     27712     27786     27078     27714     27787     27788     27079
 -1      3762    4    0    1
 -2      8272      8362      8372      8282      5036      5045      5046      5037     27714     27787
 -2     27788     27079     27011     27719     27793     27085      5847      5849      5850      5820
 -1      3763    4    0    1
 -2       640       649       650       641      8273      8363      8373      8283      1453      1455
 -2      1456      1426     27015     27723     27797     27089     27725     27798     27799     27090
 -1      3764    4    0    1
 -2      8273      8363      8373      8283      8274      8364      8374      8284     27725     27798
 -2     27799     27090     27022     27730     27804     27096     27732     27805     27806     27097
 -1      3765    4    0    1
 -2      8274      8364      8374      8284      8275      8365      8375      8285     27732     27805
 -2     27806     27097     27029     27737     27811     27103     27739     27812     27813     27104
 -1      3766    4    0    1
 -2      8275      8365      8375      8285      8276      8366      8376      8286     27739     27812
 -2     27813     27104     27036     27744     27818     27110     27746     27819     27820     27111
 -1      3767    4    0    1
 -2      8276      8366      8376      8286      8277      8367      8377      8287     27746     27819
 -2     27820     27111     27043     27751     27825     27117     27753     27826     27827     27118
 -1      3768    4    0    1
 -2      8277      8367      8377      8287      8278      8368      8378      8288     27753     27826
 -2     27827     27118     27050     27758     27832     27124     27760     27833     27834     27125
 -1      3769    4    0    1
 -2      8278      8368      8378      8288      8279      8369      8379      8289     27760     27833
 -2     27834     27125     27057     27765     27839     27131     27767     27840     27841     27132
 -1      3770    4    0    1
 -2      8279      8369      8379      8289      8280      8370      8380      8290     27767     27840
 -2     27841     27132     27064     27772     27846     27138     27774     27847     27848     27139
 -1      3771    4    0    1
 -2      8280      8370      8380      8290      8281      8371      8381      8291     27774     27847
 -2     27848     27139     27071     27779     27853     27145     27781     27854     27855     27146
 -1      3772    4    0    1
 -2      8281      8371      8381      8291      8282      8372      8382      8292     27781     27854
 -2     27855     27146     27078     27786     27860     27152     27788     27861     27862     27153
 -1      3773    4    0    1
 -2      8282      8372      8382      8292      5037      5046      5047      5038     27788     27861
 -2     27862     27153     27085     27793     27867     27159      5850      5852      5853      5823
 -1      3774    4    0    1
 -2       641       650       651       642      8283      8373      8383      8293      1456      1458
 -2      1459      1429     27089     27797     27871     27163     27799     27872     27873     27164
 -1      3775    4    0    1
 -2      8283      8373      8383      8293      8284      8374      8384      8294     27799     27872
 -2     27873     27164     27096     27804     27878     27170     27806     27879     27880     27171
 -1      3776    4    0    1
 -2      8284      8374      8384      8294      8285      8375      8385      8295     27806     27879
 -2     27880     27171     27103     27811     27885     27177     27813     27886     27887     27178
 -1      3777    4    0    1
 -2      8285      8375      8385      8295      8286      8376      8386      8296     27813     27886
 -2     27887     27178     27110     27818     27892     27184     27820     27893     27894     27185
 -1      3778    4    0    1
 -2      8286      8376      8386      8296      8287      8377      8387      8297     27820     27893
 -2     27894     27185     27117     27825     27899     27191     27827     27900     27901     27192
 -1      3779    4    0    1
 -2      8287      8377      8387      8297      8288      8378      8388      8298     27827     27900
 -2     27901     27192     27124     27832     27906     27198     27834     27907     27908     27199
 -1      3780    4    0    1
 -2      8288      8378      8388      8298      8289      8379      8389      8299     27834     27907
 -2     27908     27199     27131     27839     27913     27205     27841     27914     27915     27206
 -1      3781    4    0    1
 -2      8289      8379      8389      8299      8290      8380      8390      8300     27841     27914
 -2     27915     27206     27138     27846     27920     27212     27848     27921     27922     27213
 -1      3782    4    0    1
 -2      8290      8380      8390      8300      8291      8381      8391      8301     27848     27921
 -2     27922     27213     27145     27853     27927     27219     27855     27928     27929     27220
 -1      3783    4    0    1
 -2      8291      8381      8391      8301      8292      8382      8392      8302     27855     27928
 -2     27929     27220     27152     27860     27934     27226     27862     27935     27936     27227
 -1      3784    4    0    1
 -2      8292      8382      8392      8302      5038      5047      5048      5039     27862     27935
 -2     27936     27227     27159     27867     27941     27233      5853      5855      5856      5826
 -1      3785    4    0    1
 -2       642       651       652       643      8293      8383      8393      8303      1459      1461
 -2      1462      1432     27163     27871     27945     27237     27873     27946     27947     27238
 -1      3786    4    0    1
 -2      8293      8383      8393      8303      8294      8384      8394      8304     27873     27946
 -2     27947     27238     27170     27878     27952     27244     27880     27953     27954     27245
 -1      3787    4    0    1
 -2      8294      8384      8394      8304      8295      8385      8395      8305     27880     27953
 -2     27954     27245     27177     27885     27959     27251     27887     27960     27961     27252
 -1      3788    4    0    1
 -2      8295      8385      8395      8305      8296      8386      8396      8306     27887     27960
 -2     27961     27252     27184     27892     27966     27258     27894     27967     27968     27259
 -1      3789    4    0    1
 -2      8296      8386      8396      8306      8297      8387      8397      8307     27894     27967
 -2     27968     27259     27191     27899     27973     27265     27901     27974     27975     27266
 -1      3790    4    0    1
 -2      8297      8387      8397      8307      8298      8388      8398      8308     27901     27974
 -2     27975     27266     27198     27906     27980     27272     27908     27981     27982     27273
 -1      3791    4    0    1
 -2      8298      8388      8398      8308      8299      8389      8399      8309     27908     27981
 -2     27982     27273     27205     27913     27987     27279     27915     27988     27989     27280
 -1      3792    4    0    1
 -2      8299      8389      8399      8309      8300      8390      8400      8310     27915     27988
 -2     27989     27280     27212     27920     27994     27286     27922     27995     27996     27287
 -1      3793    4    0    1
 -2      8300      8390      8400      8310      8301      8391      8401      8311     27922     27995
 -2     27996     27287     27219     27927     28001     27293     27929     28002     28003     27294
 -1      3794    4    0    1
 -2      8301      8391      8401      8311      8302      8392      8402      8312     27929     28002
 -2     28003     27294     27226     27934     28008     27300     27936     28009     28010     27301
 -1      3795    4    0    1
 -2      8302      8392      8402      8312      5039      5048      5049      5040     27936     28009
 -2     28010     27301     27233     27941     28015     27307      5856      5858      5859      5829
 -1      3796    4    0    1
 -2       643       652       653       644      8303      8393      8403      8313      1462      1464
 -2      1465      1435     27237     27945     28019     27311     27947     28020     28021     27312
 -1      3797    4    0    1
 -2      8303      8393      8403      8313      8304      8394      8404      8314     27947     28020
 -2     28021     27312     27244     27952     28026     27318     27954     28027     28028     27319
 -1      3798    4    0    1
 -2      8304      8394      8404      8314      8305      8395      8405      8315     27954     28027
 -2     28028     27319     27251     27959     28033     27325     27961     28034     28035     27326
 -1      3799    4    0    1
 -2      8305      8395      8405      8315      8306      8396      8406      8316     27961     28034
 -2     28035     27326     27258     27966     28040     27332     27968     28041     28042     27333
 -1      3800    4    0    1
 -2      8306      8396      8406      8316      8307      8397      8407      8317     27968     28041
 -2     28042     27333     27265     27973     28047     27339     27975     28048     28049     27340
 -1      3801    4    0    1
 -2      8307      8397      8407      8317      8308      8398      8408      8318     27975     28048
 -2     28049     27340     27272     27980     28054     27346     27982     28055     28056     27347
 -1      3802    4    0    1
 -2      8308      8398      8408      8318      8309      8399      8409      8319     27982     28055
 -2     28056     27347     27279     27987     28061     27353     27989     28062     28063     27354
 -1      3803    4    0    1
 -2      8309      8399      8409      8319      8310      8400      8410      8320     27989     28062
 -2     28063     27354     27286     27994     28068     27360     27996     28069     28070     27361
 -1      3804    4    0    1
 -2      8310      8400      8410      8320      8311      8401      8411      8321     27996     28069
 -2     28070     27361     27293     28001     28075     27367     28003     28076     28077     27368
 -1      3805    4    0    1
 -2      8311      8401      8411      8321      8312      8402      8412      8322     28003     28076
 -2     28077     27368     27300     28008     28082     27374     28010     28083     28084     27375
 -1      3806    4    0    1
 -2      8312      8402      8412      8322      5040      5049      5050      5041     28010     28083
 -2     28084     27375     27307     28015     28089     27381      5859      5861      5862      5832
 -1      3807    4    0    1
 -2       644       653       654       645      8313      8403      8413      8323      1465      1467
 -2      1468      1438     27311     28019     28093     27385     28021     28094     28095     27386
 -1      3808    4    0    1
 -2      8313      8403      8413      8323      8314      8404      8414      8324     28021     28094
 -2     28095     27386     27318     28026     28100     27392     28028     28101     28102     27393
 -1      3809    4    0    1
 -2      8314      8404      8414      8324      8315      8405      8415      8325     28028     28101
 -2     28102     27393     27325     28033     28107     27399     28035     28108     28109     27400
 -1      3810    4    0    1
 -2      8315      8405      8415      8325      8316      8406      8416      8326     28035     28108
 -2     28109     27400     27332     28040     28114     27406     28042     28115     28116     27407
 -1      3811    4    0    1
 -2      8316      8406      8416      8326      8317      8407      8417      8327     28042     28115
 -2     28116     27407     27339     28047     28121     27413     28049     28122     28123     27414
 -1      3812    4    0    1
 -2      8317      8407      8417      8327      8318      8408      8418      8328     28049     28122
 -2     28123     27414     27346     28054     28128     27420     28056     28129     28130     27421
 -1      3813    4    0    1
 -2      8318      8408      8418      8328      8319      8409      8419      8329     28056     28129
 -2     28130     27421     27353     28061     28135     27427     28063     28136     28137     27428
 -1      3814    4    0    1
 -2      8319      8409      8419      8329      8320      8410      8420      8330     28063     28136
 -2     28137     27428     27360     28068     28142     27434     28070     28143     28144     27435
 -1      3815    4    0    1
 -2      8320      8410      8420      8330      8321      8411      8421      8331     28070     28143
 -2     28144     27435     27367     28075     28149     27441     28077     28150     28151     27442
 -1      3816    4    0    1
 -2      8321      8411      8421      8331      8322      8412      8422      8332     28077     28150
 -2     28151     27442     27374     28082     28156     27448     28084     28157     28158     27449
 -1      3817    4    0    1
 -2      8322      8412      8422      8332      5041      5050      5051      5042     28084     28157
 -2     28158     27449     27381     28089     28163     27455      5862      5864      5865      5835
 -1      3818    4    0    1
 -2       645       654       655       646      8323      8413      8423      8333      1468      1470
 -2      1471      1441     27385     28093     28167     27459     28095     28168     28169     27460
 -1      3819    4    0    1
 -2      8323      8413      8423      8333      8324      8414      8424      8334     28095     28168
 -2     28169     27460     27392     28100     28174     27466     28102     28175     28176     27467
 -1      3820    4    0    1
 -2      8324      8414      8424      8334      8325      8415      8425      8335     28102     28175
 -2     28176     27467     27399     28107     28181     27473     28109     28182     28183     27474
 -1      3821    4    0    1
 -2      8325      8415      8425      8335      8326      8416      8426      8336     28109     28182
 -2     28183     27474     27406     28114     28188     27480     28116     28189     28190     27481
 -1      3822    4    0    1
 -2      8326      8416      8426      8336      8327      8417      8427      8337     28116     28189
 -2     28190     27481     27413     28121     28195     27487     28123     28196     28197     27488
 -1      3823    4    0    1
 -2      8327      8417      8427      8337      8328      8418      8428      8338     28123     28196
 -2     28197     27488     27420     28128     28202     27494     28130     28203     28204     27495
 -1      3824    4    0    1
 -2      8328      8418      8428      8338      8329      8419      8429      8339     28130     28203
 -2     28204     27495     27427     28135     28209     27501     28137     28210     28211     27502
 -1      3825    4    0    1
 -2      8329      8419      8429      8339      8330      8420      8430      8340     28137     28210
 -2     28211     27502     27434     28142     28216     27508     28144     28217     28218     27509
 -1      3826    4    0    1
 -2      8330      8420      8430      8340      8331      8421      8431      8341     28144     28217
 -2     28218     27509     27441     28149     28223     27515     28151     28224     28225     27516
 -1      3827    4    0    1
 -2      8331      8421      8431      8341      8332      8422      8432      8342     28151     28224
 -2     28225     27516     27448     28156     28230     27522     28158     28231     28232     27523
 -1      3828    4    0    1
 -2      8332      8422      8432      8342      5042      5051      5052      5043     28158     28231
 -2     28232     27523     27455     28163     28237     27529      5865      5867      5868      5838
 -1      3829    4    0    1
 -2       646       655       656       647      8333      8423      8433      8343      1471      1473
 -2      1474      1444     27459     28167     28241     27533     28169     28242     28243     27534
 -1      3830    4    0    1
 -2      8333      8423      8433      8343      8334      8424      8434      8344     28169     28242
 -2     28243     27534     27466     28174     28248     27540     28176     28249     28250     27541
 -1      3831    4    0    1
 -2      8334      8424      8434      8344      8335      8425      8435      8345     28176     28249
 -2     28250     27541     27473     28181     28255     27547     28183     28256     28257     27548
 -1      3832    4    0    1
 -2      8335      8425      8435      8345      8336      8426      8436      8346     28183     28256
 -2     28257     27548     27480     28188     28262     27554     28190     28263     28264     27555
 -1      3833    4    0    1
 -2      8336      8426      8436      8346      8337      8427      8437      8347     28190     28263
 -2     28264     27555     27487     28195     28269     27561     28197     28270     28271     27562
 -1      3834    4    0    1
 -2      8337      8427      8437      8347      8338      8428      8438      8348     28197     28270
 -2     28271     27562     27494     28202     28276     27568     28204     28277     28278     27569
 -1      3835    4    0    1
 -2      8338      8428      8438      8348      8339      8429      8439      8349     28204     28277
 -2     28278     27569     27501     28209     28283     27575     28211     28284     28285     27576
 -1      3836    4    0    1
 -2      8339      8429      8439      8349      8340      8430      8440      8350     28211     28284
 -2     28285     27576     27508     28216     28290     27582     28218     28291     28292     27583
 -1      3837    4    0    1
 -2      8340      8430      8440      8350      8341      8431      8441      8351     28218     28291
 -2     28292     27583     27515     28223     28297     27589     28225     28298     28299     27590
 -1      3838    4    0    1
 -2      8341      8431      8441      8351      8342      8432      8442      8352     28225     28298
 -2     28299     27590     27522     28230     28304     27596     28232     28305     28306     27597
 -1      3839    4    0    1
 -2      8342      8432      8442      8352      5043      5052      5053      5044     28232     28305
 -2     28306     27597     27529     28237     28311     27603      5868      5870      5871      5841
 -1      3840    4    0    1
 -2       647       656        88        89      8343      8433      3174      3184      1474      1476
 -2       118      1447     27533     28241      3486      3518     28243     28315      3519     27607
 -1      3841    4    0    1
 -2      8343      8433      3174      3184      8344      8434      3175      3185     28243     28315
 -2      3519     27607     27540     28248      3489      3521     28250     28319      3522     27611
 -1      3842    4    0    1
 -2      8344      8434      3175      3185      8345      8435      3176      3186     28250     28319
 -2      3522     27611     27547     28255      3492      3524     28257     28323      3525     27615
 -1      3843    4    0    1
 -2      8345      8435      3176      3186      8346      8436      3177      3187     28257     28323
 -2      3525     27615     27554     28262      3495      3527     28264     28327      3528     27619
 -1      3844    4    0    1
 -2      8346      8436      3177      3187      8347      8437      3178      3188     28264     28327
 -2      3528     27619     27561     28269      3498      3530     28271     28331      3531     27623
 -1      3845    4    0    1
 -2      8347      8437      3178      3188      8348      8438      3179      3189     28271     28331
 -2      3531     27623     27568     28276      3501      3533     28278     28335      3534     27627
 -1      3846    4    0    1
 -2      8348      8438      3179      3189      8349      8439      3180      3190     28278     28335
 -2      3534     27627     27575     28283      3504      3536     28285     28339      3537     27631
 -1      3847    4    0    1
 -2      8349      8439      3180      3190      8350      8440      3181      3191     28285     28339
 -2      3537     27631     27582     28290      3507      3539     28292     28343      3540     27635
 -1      3848    4    0    1
 -2      8350      8440      3181      3191      8351      8441      3182      3192     28292     28343
 -2      3540     27635     27589     28297      3510      3542     28299     28347      3543     27639
 -1      3849    4    0    1
 -2      8351      8441      3182      3192      8352      8442      3183      3193     28299     28347
 -2      3543     27639     27596     28304      3513      3545     28306     28351      3546     27643
 -1      3850    4    0    1
 -2      8352      8442      3183      3193      5044      5053       244       245     28306     28351
 -2      3546     27643     27603     28311      3516      3548      5871      5873       274      5844
 -1      3851    4    0    1
 -2        36        37       657       648      1796      1806      8443      8353        66      1478
 -2      1479      1449      2680      2712     28357     27649      2713     28358     28359     27650
 -1      3852    4    0    1
 -2      1796      1806      8443      8353      1797      1807      8444      8354      2713     28358
 -2     28359     27650      2683      2715     28364     27656      2716     28365     28366     27657
 -1      3853    4    0    1
 -2      1797      1807      8444      8354      1798      1808      8445      8355      2716     28365
 -2     28366     27657      2686      2718     28371     27663      2719     28372     28373     27664
 -1      3854    4    0    1
 -2      1798      1808      8445      8355      1799      1809      8446      8356      2719     28372
 -2     28373     27664      2689      2721     28378     27670      2722     28379     28380     27671
 -1      3855    4    0    1
 -2      1799      1809      8446      8356      1800      1810      8447      8357      2722     28379
 -2     28380     27671      2692      2724     28385     27677      2725     28386     28387     27678
 -1      3856    4    0    1
 -2      1800      1810      8447      8357      1801      1811      8448      8358      2725     28386
 -2     28387     27678      2695      2727     28392     27684      2728     28393     28394     27685
 -1      3857    4    0    1
 -2      1801      1811      8448      8358      1802      1812      8449      8359      2728     28393
 -2     28394     27685      2698      2730     28399     27691      2731     28400     28401     27692
 -1      3858    4    0    1
 -2      1802      1812      8449      8359      1803      1813      8450      8360      2731     28400
 -2     28401     27692      2701      2733     28406     27698      2734     28407     28408     27699
 -1      3859    4    0    1
 -2      1803      1813      8450      8360      1804      1814      8451      8361      2734     28407
 -2     28408     27699      2704      2736     28413     27705      2737     28414     28415     27706
 -1      3860    4    0    1
 -2      1804      1814      8451      8361      1805      1815      8452      8362      2737     28414
 -2     28415     27706      2707      2739     28420     27712      2740     28421     28422     27713
 -1      3861    4    0    1
 -2      1805      1815      8452      8362       192       193      5054      5045      2740     28421
 -2     28422     27713      2710      2742     28427     27719       222      5875      5876      5846
 -1      3862    4    0    1
 -2       648       657       658       649      8353      8443      8453      8363      1479      1481
 -2      1482      1452     27649     28357     28431     27723     28359     28432     28433     27724
 -1      3863    4    0    1
 -2      8353      8443      8453      8363      8354      8444      8454      8364     28359     28432
 -2     28433     27724     27656     28364     28438     27730     28366     28439     28440     27731
 -1      3864    4    0    1
 -2      8354      8444      8454      8364      8355      8445      8455      8365     28366     28439
 -2     28440     27731     27663     28371     28445     27737     28373     28446     28447     27738
 -1      3865    4    0    1
 -2      8355      8445      8455      8365      8356      8446      8456      8366     28373     28446
 -2     28447     27738     27670     28378     28452     27744     28380     28453     28454     27745
 -1      3866    4    0    1
 -2      8356      8446      8456      8366      8357      8447      8457      8367     28380     28453
 -2     28454     27745     27677     28385     28459     27751     28387     28460     28461     27752
 -1      3867    4    0    1
 -2      8357      8447      8457      8367      8358      8448      8458      8368     28387     28460
 -2     28461     27752     27684     28392     28466     27758     28394     28467     28468     27759
 -1      3868    4    0    1
 -2      8358      8448      8458      8368      8359      8449      8459      8369     28394     28467
 -2     28468     27759     27691     28399     28473     27765     28401     28474     28475     27766
 -1      3869    4    0    1
 -2      8359      8449      8459      8369      8360      8450      8460      8370     28401     28474
 -2     28475     27766     27698     28406     28480     27772     28408     28481     28482     27773
 -1      3870    4    0    1
 -2      8360      8450      8460      8370      8361      8451      8461      8371     28408     28481
 -2     28482     27773     27705     28413     28487     27779     28415     28488     28489     27780
 -1      3871    4    0    1
 -2      8361      8451      8461      8371      8362      8452      8462      8372     28415     28488
 -2     28489     27780     27712     28420     28494     27786     28422     28495     28496     27787
 -1      3872    4    0    1
 -2      8362      8452      8462      8372      5045      5054      5055      5046     28422     28495
 -2     28496     27787     27719     28427     28501     27793      5876      5878      5879      5849
 -1      3873    4    0    1
 -2       649       658       659       650      8363      8453      8463      8373      1482      1484
 -2      1485      1455     27723     28431     28505     27797     28433     28506     28507     27798
 -1      3874    4    0    1
 -2      8363      8453      8463      8373      8364      8454      8464      8374     28433     28506
 -2     28507     27798     27730     28438     28512     27804     28440     28513     28514     27805
 -1      3875    4    0    1
 -2      8364      8454      8464      8374      8365      8455      8465      8375     28440     28513
 -2     28514     27805     27737     28445     28519     27811     28447     28520     28521     27812
 -1      3876    4    0    1
 -2      8365      8455      8465      8375      8366      8456      8466      8376     28447     28520
 -2     28521     27812     27744     28452     28526     27818     28454     28527     28528     27819
 -1      3877    4    0    1
 -2      8366      8456      8466      8376      8367      8457      8467      8377     28454     28527
 -2     28528     27819     27751     28459     28533     27825     28461     28534     28535     27826
 -1      3878    4    0    1
 -2      8367      8457      8467      8377      8368      8458      8468      8378     28461     28534
 -2     28535     27826     27758     28466     28540     27832     28468     28541     28542     27833
 -1      3879    4    0    1
 -2      8368      8458      8468      8378      8369      8459      8469      8379     28468     28541
 -2     28542     27833     27765     28473     28547     27839     28475     28548     28549     27840
 -1      3880    4    0    1
 -2      8369      8459      8469      8379      8370      8460      8470      8380     28475     28548
 -2     28549     27840     27772     28480     28554     27846     28482     28555     28556     27847
 -1      3881    4    0    1
 -2      8370      8460      8470      8380      8371      8461      8471      8381     28482     28555
 -2     28556     27847     27779     28487     28561     27853     28489     28562     28563     27854
 -1      3882    4    0    1
 -2      8371      8461      8471      8381      8372      8462      8472      8382     28489     28562
 -2     28563     27854     27786     28494     28568     27860     28496     28569     28570     27861
 -1      3883    4    0    1
 -2      8372      8462      8472      8382      5046      5055      5056      5047     28496     28569
 -2     28570     27861     27793     28501     28575     27867      5879      5881      5882      5852
 -1      3884    4    0    1
 -2       650       659       660       651      8373      8463      8473      8383      1485      1487
 -2      1488      1458     27797     28505     28579     27871     28507     28580     28581     27872
 -1      3885    4    0    1
 -2      8373      8463      8473      8383      8374      8464      8474      8384     28507     28580
 -2     28581     27872     27804     28512     28586     27878     28514     28587     28588     27879
 -1      3886    4    0    1
 -2      8374      8464      8474      8384      8375      8465      8475      8385     28514     28587
 -2     28588     27879     27811     28519     28593     27885     28521     28594     28595     27886
 -1      3887    4    0    1
 -2      8375      8465      8475      8385      8376      8466      8476      8386     28521     28594
 -2     28595     27886     27818     28526     28600     27892     28528     28601     28602     27893
 -1      3888    4    0    1
 -2      8376      8466      8476      8386      8377      8467      8477      8387     28528     28601
 -2     28602     27893     27825     28533     28607     27899     28535     28608     28609     27900
 -1      3889    4    0    1
 -2      8377      8467      8477      8387      8378      8468      8478      8388     28535     28608
 -2     28609     27900     27832     28540     28614     27906     28542     28615     28616     27907
 -1      3890    4    0    1
 -2      8378      8468      8478      8388      8379      8469      8479      8389     28542     28615
 -2     28616     27907     27839     28547     28621     27913     28549     28622     28623     27914
 -1      3891    4    0    1
 -2      8379      8469      8479      8389      8380      8470      8480      8390     28549     28622
 -2     28623     27914     27846     28554     28628     27920     28556     28629     28630     27921
 -1      3892    4    0    1
 -2      8380      8470      8480      8390      8381      8471      8481      8391     28556     28629
 -2     28630     27921     27853     28561     28635     27927     28563     28636     28637     27928
 -1      3893    4    0    1
 -2      8381      8471      8481      8391      8382      8472      8482      8392     28563     28636
 -2     28637     27928     27860     28568     28642     27934     28570     28643     28644     27935
 -1      3894    4    0    1
 -2      8382      8472      8482      8392      5047      5056      5057      5048     28570     28643
 -2     28644     27935     27867     28575     28649     27941      5882      5884      5885      5855
 -1      3895    4    0    1
 -2       651       660       661       652      8383      8473      8483      8393      1488      1490
 -2      1491      1461     27871     28579     28653     27945     28581     28654     28655     27946
 -1      3896    4    0    1
 -2      8383      8473      8483      8393      8384      8474      8484      8394     28581     28654
 -2     28655     27946     27878     28586     28660     27952     28588     28661     28662     27953
 -1      3897    4    0    1
 -2      8384      8474      8484      8394      8385      8475      8485      8395     28588     28661
 -2     28662     27953     27885     28593     28667     27959     28595     28668     28669     27960
 -1      3898    4    0    1
 -2      8385      8475      8485      8395      8386      8476      8486      8396     28595     28668
 -2     28669     27960     27892     28600     28674     27966     28602     28675     28676     27967
 -1      3899    4    0    1
 -2      8386      8476      8486      8396      8387      8477      8487      8397     28602     28675
 -2     28676     27967     27899     28607     28681     27973     28609     28682     28683     27974
 -1      3900    4    0    1
 -2      8387      8477      8487      8397      8388      8478      8488      8398     28609     28682
 -2     28683     27974     27906     28614     28688     27980     28616     28689     28690     27981
 -1      3901    4    0    1
 -2      8388      8478      8488      8398      8389      8479      8489      8399     28616     28689
 -2     28690     27981     27913     28621     28695     27987     28623     28696     28697     27988
 -1      3902    4    0    1
 -2      8389      8479      8489      8399      8390      8480      8490      8400     28623     28696
 -2     28697     27988     27920     28628     28702     27994     28630     28703     28704     27995
 -1      3903    4    0    1
 -2      8390      8480      8490      8400      8391      8481      8491      8401     28630     28703
 -2     28704     27995     27927     28635     28709     28001     28637     28710     28711     28002
 -1      3904    4    0    1
 -2      8391      8481      8491      8401      8392      8482      8492      8402     28637     28710
 -2     28711     28002     27934     28642     28716     28008     28644     28717     28718     28009
 -1      3905    4    0    1
 -2      8392      8482      8492      8402      5048      5057      5058      5049     28644     28717
 -2     28718     28009     27941     28649     28723     28015      5885      5887      5888      5858
 -1      3906    4    0    1
 -2       652       661       662       653      8393      8483      8493      8403      1491      1493
 -2      1494      1464     27945     28653     28727     28019     28655     28728     28729     28020
 -1      3907    4    0    1
 -2      8393      8483      8493      8403      8394      8484      8494      8404     28655     28728
 -2     28729     28020     27952     28660     28734     28026     28662     28735     28736     28027
 -1      3908    4    0    1
 -2      8394      8484      8494      8404      8395      8485      8495      8405     28662     28735
 -2     28736     28027     27959     28667     28741     28033     28669     28742     28743     28034
 -1      3909    4    0    1
 -2      8395      8485      8495      8405      8396      8486      8496      8406     28669     28742
 -2     28743     28034     27966     28674     28748     28040     28676     28749     28750     28041
 -1      3910    4    0    1
 -2      8396      8486      8496      8406      8397      8487      8497      8407     28676     28749
 -2     28750     28041     27973     28681     28755     28047     28683     28756     28757     28048
 -1      3911    4    0    1
 -2      8397      8487      8497      8407      8398      8488      8498      8408     28683     28756
 -2     28757     28048     27980     28688     28762     28054     28690     28763     28764     28055
 -1      3912    4    0    1
 -2      8398      8488      8498      8408      8399      8489      8499      8409     28690     28763
 -2     28764     28055     27987     28695     28769     28061     28697     28770     28771     28062
 -1      3913    4    0    1
 -2      8399      8489      8499      8409      8400      8490      8500      8410     28697     28770
 -2     28771     28062     27994     28702     28776     28068     28704     28777     28778     28069
 -1      3914    4    0    1
 -2      8400      8490      8500      8410      8401      8491      8501      8411     28704     28777
 -2     28778     28069     28001     28709     28783     28075     28711     28784     28785     28076
 -1      3915    4    0    1
 -2      8401      8491      8501      8411      8402      8492      8502      8412     28711     28784
 -2     28785     28076     28008     28716     28790     28082     28718     28791     28792     28083
 -1      3916    4    0    1
 -2      8402      8492      8502      8412      5049      5058      5059      5050     28718     28791
 -2     28792     28083     28015     28723     28797     28089      5888      5890      5891      5861
 -1      3917    4    0    1
 -2       653       662       663       654      8403      8493      8503      8413      1494      1496
 -2      1497      1467     28019     28727     28801     28093     28729     28802     28803     28094
 -1      3918    4    0    1
 -2      8403      8493      8503      8413      8404      8494      8504      8414     28729     28802
 -2     28803     28094     28026     28734     28808     28100     28736     28809     28810     28101
 -1      3919    4    0    1
 -2      8404      8494      8504      8414      8405      8495      8505      8415     28736     28809
 -2     28810     28101     28033     28741     28815     28107     28743     28816     28817     28108
 -1      3920    4    0    1
 -2      8405      8495      8505      8415      8406      8496      8506      8416     28743     28816
 -2     28817     28108     28040     28748     28822     28114     28750     28823     28824     28115
 -1      3921    4    0    1
 -2      8406      8496      8506      8416      8407      8497      8507      8417     28750     28823
 -2     28824     28115     28047     28755     28829     28121     28757     28830     28831     28122
 -1      3922    4    0    1
 -2      8407      8497      8507      8417      8408      8498      8508      8418     28757     28830
 -2     28831     28122     28054     28762     28836     28128     28764     28837     28838     28129
 -1      3923    4    0    1
 -2      8408      8498      8508      8418      8409      8499      8509      8419     28764     28837
 -2     28838     28129     28061     28769     28843     28135     28771     28844     28845     28136
 -1      3924    4    0    1
 -2      8409      8499      8509      8419      8410      8500      8510      8420     28771     28844
 -2     28845     28136     28068     28776     28850     28142     28778     28851     28852     28143
 -1      3925    4    0    1
 -2      8410      8500      8510      8420      8411      8501      8511      8421     28778     28851
 -2     28852     28143     28075     28783     28857     28149     28785     28858     28859     28150
 -1      3926    4    0    1
 -2      8411      8501      8511      8421      8412      8502      8512      8422     28785     28858
 -2     28859     28150     28082     28790     28864     28156     28792     28865     28866     28157
 -1      3927    4    0    1
 -2      8412      8502      8512      8422      5050      5059      5060      5051     28792     28865
 -2     28866     28157     28089     28797     28871     28163      5891      5893      5894      5864
 -1      3928    4    0    1
 -2       654       663       664       655      8413      8503      8513      8423      1497      1499
 -2      1500      1470     28093     28801     28875     28167     28803     28876     28877     28168
 -1      3929    4    0    1
 -2      8413      8503      8513      8423      8414      8504      8514      8424     28803     28876
 -2     28877     28168     28100     28808     28882     28174     28810     28883     28884     28175
 -1      3930    4    0    1
 -2      8414      8504      8514      8424      8415      8505      8515      8425     28810     28883
 -2     28884     28175     28107     28815     28889     28181     28817     28890     28891     28182
 -1      3931    4    0    1
 -2      8415      8505      8515      8425      8416      8506      8516      8426     28817     28890
 -2     28891     28182     28114     28822     28896     28188     28824     28897     28898     28189
 -1      3932    4    0    1
 -2      8416      8506      8516      8426      8417      8507      8517      8427     28824     28897
 -2     28898     28189     28121     28829     28903     28195     28831     28904     28905     28196
 -1      3933    4    0    1
 -2      8417      8507      8517      8427      8418      8508      8518      8428     28831     28904
 -2     28905     28196     28128     28836     28910     28202     28838     28911     28912     28203
 -1      3934    4    0    1
 -2      8418      8508      8518      8428      8419      8509      8519      8429     28838     28911
 -2     28912     28203     28135     28843     28917     28209     28845     28918     28919     28210
 -1      3935    4    0    1
 -2      8419      8509      8519      8429      8420      8510      8520      8430     28845     28918
 -2     28919     28210     28142     28850     28924     28216     28852     28925     28926     28217
 -1      3936    4    0    1
 -2      8420      8510      8520      8430      8421      8511      8521      8431     28852     28925
 -2     28926     28217     28149     28857     28931     28223     28859     28932     28933     28224
 -1      3937    4    0    1
 -2      8421      8511      8521      8431      8422      8512      8522      8432     28859     28932
 -2     28933     28224     28156     28864     28938     28230     28866     28939     28940     28231
 -1      3938    4    0    1
 -2      8422      8512      8522      8432      5051      5060      5061      5052     28866     28939
 -2     28940     28231     28163     28871     28945     28237      5894      5896      5897      5867
 -1      3939    4    0    1
 -2       655       664       665       656      8423      8513      8523      8433      1500      1502
 -2      1503      1473     28167     28875     28949     28241     28877     28950     28951     28242
 -1      3940    4    0    1
 -2      8423      8513      8523      8433      8424      8514      8524      8434     28877     28950
 -2     28951     28242     28174     28882     28956     28248     28884     28957     28958     28249
 -1      3941    4    0    1
 -2      8424      8514      8524      8434      8425      8515      8525      8435     28884     28957
 -2     28958     28249     28181     28889     28963     28255     28891     28964     28965     28256
 -1      3942    4    0    1
 -2      8425      8515      8525      8435      8426      8516      8526      8436     28891     28964
 -2     28965     28256     28188     28896     28970     28262     28898     28971     28972     28263
 -1      3943    4    0    1
 -2      8426      8516      8526      8436      8427      8517      8527      8437     28898     28971
 -2     28972     28263     28195     28903     28977     28269     28905     28978     28979     28270
 -1      3944    4    0    1
 -2      8427      8517      8527      8437      8428      8518      8528      8438     28905     28978
 -2     28979     28270     28202     28910     28984     28276     28912     28985     28986     28277
 -1      3945    4    0    1
 -2      8428      8518      8528      8438      8429      8519      8529      8439     28912     28985
 -2     28986     28277     28209     28917     28991     28283     28919     28992     28993     28284
 -1      3946    4    0    1
 -2      8429      8519      8529      8439      8430      8520      8530      8440     28919     28992
 -2     28993     28284     28216     28924     28998     28290     28926     28999     29000     28291
 -1      3947    4    0    1
 -2      8430      8520      8530      8440      8431      8521      8531      8441     28926     28999
 -2     29000     28291     28223     28931     29005     28297     28933     29006     29007     28298
 -1      3948    4    0    1
 -2      8431      8521      8531      8441      8432      8522      8532      8442     28933     29006
 -2     29007     28298     28230     28938     29012     28304     28940     29013     29014     28305
 -1      3949    4    0    1
 -2      8432      8522      8532      8442      5052      5061      5062      5053     28940     29013
 -2     29014     28305     28237     28945     29019     28311      5897      5899      5900      5870
 -1      3950    4    0    1
 -2       656       665        87        88      8433      8523      3164      3174      1503      1505
 -2       117      1476     28241     28949      3454      3486     28951     29023      3487     28315
 -1      3951    4    0    1
 -2      8433      8523      3164      3174      8434      8524      3165      3175     28951     29023
 -2      3487     28315     28248     28956      3457      3489     28958     29027      3490     28319
 -1      3952    4    0    1
 -2      8434      8524      3165      3175      8435      8525      3166      3176     28958     29027
 -2      3490     28319     28255     28963      3460      3492     28965     29031      3493     28323
 -1      3953    4    0    1
 -2      8435      8525      3166      3176      8436      8526      3167      3177     28965     29031
 -2      3493     28323     28262     28970      3463      3495     28972     29035      3496     28327
 -1      3954    4    0    1
 -2      8436      8526      3167      3177      8437      8527      3168      3178     28972     29035
 -2      3496     28327     28269     28977      3466      3498     28979     29039      3499     28331
 -1      3955    4    0    1
 -2      8437      8527      3168      3178      8438      8528      3169      3179     28979     29039
 -2      3499     28331     28276     28984      3469      3501     28986     29043      3502     28335
 -1      3956    4    0    1
 -2      8438      8528      3169      3179      8439      8529      3170      3180     28986     29043
 -2      3502     28335     28283     28991      3472      3504     28993     29047      3505     28339
 -1      3957    4    0    1
 -2      8439      8529      3170      3180      8440      8530      3171      3181     28993     29047
 -2      3505     28339     28290     28998      3475      3507     29000     29051      3508     28343
 -1      3958    4    0    1
 -2      8440      8530      3171      3181      8441      8531      3172      3182     29000     29051
 -2      3508     28343     28297     29005      3478      3510     29007     29055      3511     28347
 -1      3959    4    0    1
 -2      8441      8531      3172      3182      8442      8532      3173      3183     29007     29055
 -2      3511     28347     28304     29012      3481      3513     29014     29059      3514     28351
 -1      3960    4    0    1
 -2      8442      8532      3173      3183      5053      5062       243       244     29014     29059
 -2      3514     28351     28311     29019      3484      3516      5900      5902       273      5873
 -1      3961    4    0    1
 -2        37         2        68       657      1806       342      2765      8443        67        77
 -2      1507      1478      2712       352      2855     28357      2744      2856     29065     28358
 -1      3962    4    0    1
 -2      1806       342      2765      8443      1807       343      2766      8444      2744      2856
 -2     29065     28358      2715       353      2858     28364      2746      2859     29069     28365
 -1      3963    4    0    1
 -2      1807       343      2766      8444      1808       344      2767      8445      2746      2859
 -2     29069     28365      2718       354      2861     28371      2748      2862     29073     28372
 -1      3964    4    0    1
 -2      1808       344      2767      8445      1809       345      2768      8446      2748      2862
 -2     29073     28372      2721       355      2864     28378      2750      2865     29077     28379
 -1      3965    4    0    1
 -2      1809       345      2768      8446      1810       346      2769      8447      2750      2865
 -2     29077     28379      2724       356      2867     28385      2752      2868     29081     28386
 -1      3966    4    0    1
 -2      1810       346      2769      8447      1811       347      2770      8448      2752      2868
 -2     29081     28386      2727       357      2870     28392      2754      2871     29085     28393
 -1      3967    4    0    1
 -2      1811       347      2770      8448      1812       348      2771      8449      2754      2871
 -2     29085     28393      2730       358      2873     28399      2756      2874     29089     28400
 -1      3968    4    0    1
 -2      1812       348      2771      8449      1813       349      2772      8450      2756      2874
 -2     29089     28400      2733       359      2876     28406      2758      2877     29093     28407
 -1      3969    4    0    1
 -2      1813       349      2772      8450      1814       350      2773      8451      2758      2877
 -2     29093     28407      2736       360      2879     28413      2760      2880     29097     28414
 -1      3970    4    0    1
 -2      1814       350      2773      8451      1815       351      2774      8452      2760      2880
 -2     29097     28414      2739       361      2882     28420      2762      2883     29101     28421
 -1      3971    4    0    1
 -2      1815       351      2774      8452       193         6       224      5054      2762      2883
 -2     29101     28421      2742       362      2885     28427       223       233      5904      5875
 -1      3972    4    0    1
 -2       657        68        69       658      8443      2765      2775      8453      1507        78
 -2      1509      1481     28357      2855      2887     28431     29065      2888     29107     28432
 -1      3973    4    0    1
 -2      8443      2765      2775      8453      8444      2766      2776      8454     29065      2888
 -2     29107     28432     28364      2858      2890     28438     29069      2891     29111     28439
 -1      3974    4    0    1
 -2      8444      2766      2776      8454      8445      2767      2777      8455     29069      2891
 -2     29111     28439     28371      2861      2893     28445     29073      2894     29115     28446
 -1      3975    4    0    1
 -2      8445      2767      2777      8455      8446      2768      2778      8456     29073      2894
 -2     29115     28446     28378      2864      2896     28452     29077      2897     29119     28453
 -1      3976    4    0    1
 -2      8446      2768      2778      8456      8447      2769      2779      8457     29077      2897
 -2     29119     28453     28385      2867      2899     28459     29081      2900     29123     28460
 -1      3977    4    0    1
 -2      8447      2769      2779      8457      8448      2770      2780      8458     29081      2900
 -2     29123     28460     28392      2870      2902     28466     29085      2903     29127     28467
 -1      3978    4    0    1
 -2      8448      2770      2780      8458      8449      2771      2781      8459     29085      2903
 -2     29127     28467     28399      2873      2905     28473     29089      2906     29131     28474
 -1      3979    4    0    1
 -2      8449      2771      2781      8459      8450      2772      2782      8460     29089      2906
 -2     29131     28474     28406      2876      2908     28480     29093      2909     29135     28481
 -1      3980    4    0    1
 -2      8450      2772      2782      8460      8451      2773      2783      8461     29093      2909
 -2     29135     28481     28413      2879      2911     28487     29097      2912     29139     28488
 -1      3981    4    0    1
 -2      8451      2773      2783      8461      8452      2774      2784      8462     29097      2912
 -2     29139     28488     28420      2882      2914     28494     29101      2915     29143     28495
 -1      3982    4    0    1
 -2      8452      2774      2784      8462      5054       224       225      5055     29101      2915
 -2     29143     28495     28427      2885      2917     28501      5904       234      5906      5878
 -1      3983    4    0    1
 -2       658        69        70       659      8453      2775      2785      8463      1509        79
 -2      1511      1484     28431      2887      2919     28505     29107      2920     29149     28506
 -1      3984    4    0    1
 -2      8453      2775      2785      8463      8454      2776      2786      8464     29107      2920
 -2     29149     28506     28438      2890      2922     28512     29111      2923     29153     28513
 -1      3985    4    0    1
 -2      8454      2776      2786      8464      8455      2777      2787      8465     29111      2923
 -2     29153     28513     28445      2893      2925     28519     29115      2926     29157     28520
 -1      3986    4    0    1
 -2      8455      2777      2787      8465      8456      2778      2788      8466     29115      2926
 -2     29157     28520     28452      2896      2928     28526     29119      2929     29161     28527
 -1      3987    4    0    1
 -2      8456      2778      2788      8466      8457      2779      2789      8467     29119      2929
 -2     29161     28527     28459      2899      2931     28533     29123      2932     29165     28534
 -1      3988    4    0    1
 -2      8457      2779      2789      8467      8458      2780      2790      8468     29123      2932
 -2     29165     28534     28466      2902      2934     28540     29127      2935     29169     28541
 -1      3989    4    0    1
 -2      8458      2780      2790      8468      8459      2781      2791      8469     29127      2935
 -2     29169     28541     28473      2905      2937     28547     29131      2938     29173     28548
 -1      3990    4    0    1
 -2      8459      2781      2791      8469      8460      2782      2792      8470     29131      2938
 -2     29173     28548     28480      2908      2940     28554     29135      2941     29177     28555
 -1      3991    4    0    1
 -2      8460      2782      2792      8470      8461      2783      2793      8471     29135      2941
 -2     29177     28555     28487      2911      2943     28561     29139      2944     29181     28562
 -1      3992    4    0    1
 -2      8461      2783      2793      8471      8462      2784      2794      8472     29139      2944
 -2     29181     28562     28494      2914      2946     28568     29143      2947     29185     28569
 -1      3993    4    0    1
 -2      8462      2784      2794      8472      5055       225       226      5056     29143      2947
 -2     29185     28569     28501      2917      2949     28575      5906       235      5908      5881
 -1      3994    4    0    1
 -2       659        70        71       660      8463      2785      2795      8473      1511        80
 -2      1513      1487     28505      2919      2951     28579     29149      2952     29191     28580
 -1      3995    4    0    1
 -2      8463      2785      2795      8473      8464      2786      2796      8474     29149      2952
 -2     29191     28580     28512      2922      2954     28586     29153      2955     29195     28587
 -1      3996    4    0    1
 -2      8464      2786      2796      8474      8465      2787      2797      8475     29153      2955
 -2     29195     28587     28519      2925      2957     28593     29157      2958     29199     28594
 -1      3997    4    0    1
 -2      8465      2787      2797      8475      8466      2788      2798      8476     29157      2958
 -2     29199     28594     28526      2928      2960     28600     29161      2961     29203     28601
 -1      3998    4    0    1
 -2      8466      2788      2798      8476      8467      2789      2799      8477     29161      2961
 -2     29203     28601     28533      2931      2963     28607     29165      2964     29207     28608
 -1      3999    4    0    1
 -2      8467      2789      2799      8477      8468      2790      2800      8478     29165      2964
 -2     29207     28608     28540      2934      2966     28614     29169      2967     29211     28615
 -1      4000    4    0    1
 -2      8468      2790      2800      8478      8469      2791      2801      8479     29169      2967
 -2     29211     28615     28547      2937      2969     28621     29173      2970     29215     28622
 -1      4001    4    0    1
 -2      8469      2791      2801      8479      8470      2792      2802      8480     29173      2970
 -2     29215     28622     28554      2940      2972     28628     29177      2973     29219     28629
 -1      4002    4    0    1
 -2      8470      2792      2802      8480      8471      2793      2803      8481     29177      2973
 -2     29219     28629     28561      2943      2975     28635     29181      2976     29223     28636
 -1      4003    4    0    1
 -2      8471      2793      2803      8481      8472      2794      2804      8482     29181      2976
 -2     29223     28636     28568      2946      2978     28642     29185      2979     29227     28643
 -1      4004    4    0    1
 -2      8472      2794      2804      8482      5056       226       227      5057     29185      2979
 -2     29227     28643     28575      2949      2981     28649      5908       236      5910      5884
 -1      4005    4    0    1
 -2       660        71        72       661      8473      2795      2805      8483      1513        81
 -2      1515      1490     28579      2951      2983     28653     29191      2984     29233     28654
 -1      4006    4    0    1
 -2      8473      2795      2805      8483      8474      2796      2806      8484     29191      2984
 -2     29233     28654     28586      2954      2986     28660     29195      2987     29237     28661
 -1      4007    4    0    1
 -2      8474      2796      2806      8484      8475      2797      2807      8485     29195      2987
 -2     29237     28661     28593      2957      2989     28667     29199      2990     29241     28668
 -1      4008    4    0    1
 -2      8475      2797      2807      8485      8476      2798      2808      8486     29199      2990
 -2     29241     28668     28600      2960      2992     28674     29203      2993     29245     28675
 -1      4009    4    0    1
 -2      8476      2798      2808      8486      8477      2799      2809      8487     29203      2993
 -2     29245     28675     28607      2963      2995     28681     29207      2996     29249     28682
 -1      4010    4    0    1
 -2      8477      2799      2809      8487      8478      2800      2810      8488     29207      2996
 -2     29249     28682     28614      2966      2998     28688     29211      2999     29253     28689
 -1      4011    4    0    1
 -2      8478      2800      2810      8488      8479      2801      2811      8489     29211      2999
 -2     29253     28689     28621      2969      3001     28695     29215      3002     29257     28696
 -1      4012    4    0    1
 -2      8479      2801      2811      8489      8480      2802      2812      8490     29215      3002
 -2     29257     28696     28628      2972      3004     28702     29219      3005     29261     28703
 -1      4013    4    0    1
 -2      8480      2802      2812      8490      8481      2803      2813      8491     29219      3005
 -2     29261     28703     28635      2975      3007     28709     29223      3008     29265     28710
 -1      4014    4    0    1
 -2      8481      2803      2813      8491      8482      2804      2814      8492     29223      3008
 -2     29265     28710     28642      2978      3010     28716     29227      3011     29269     28717
 -1      4015    4    0    1
 -2      8482      2804      2814      8492      5057       227       228      5058     29227      3011
 -2     29269     28717     28649      2981      3013     28723      5910       237      5912      5887
 -1      4016    4    0    1
 -2       661        72        73       662      8483      2805      2815      8493      1515        82
 -2      1517      1493     28653      2983      3015     28727     29233      3016     29275     28728
 -1      4017    4    0    1
 -2      8483      2805      2815      8493      8484      2806      2816      8494     29233      3016
 -2     29275     28728     28660      2986      3018     28734     29237      3019     29279     28735
 -1      4018    4    0    1
 -2      8484      2806      2816      8494      8485      2807      2817      8495     29237      3019
 -2     29279     28735     28667      2989      3021     28741     29241      3022     29283     28742
 -1      4019    4    0    1
 -2      8485      2807      2817      8495      8486      2808      2818      8496     29241      3022
 -2     29283     28742     28674      2992      3024     28748     29245      3025     29287     28749
 -1      4020    4    0    1
 -2      8486      2808      2818      8496      8487      2809      2819      8497     29245      3025
 -2     29287     28749     28681      2995      3027     28755     29249      3028     29291     28756
 -1      4021    4    0    1
 -2      8487      2809      2819      8497      8488      2810      2820      8498     29249      3028
 -2     29291     28756     28688      2998      3030     28762     29253      3031     29295     28763
 -1      4022    4    0    1
 -2      8488      2810      2820      8498      8489      2811      2821      8499     29253      3031
 -2     29295     28763     28695      3001      3033     28769     29257      3034     29299     28770
 -1      4023    4    0    1
 -2      8489      2811      2821      8499      8490      2812      2822      8500     29257      3034
 -2     29299     28770     28702      3004      3036     28776     29261      3037     29303     28777
 -1      4024    4    0    1
 -2      8490      2812      2822      8500      8491      2813      2823      8501     29261      3037
 -2     29303     28777     28709      3007      3039     28783     29265      3040     29307     28784
 -1      4025    4    0    1
 -2      8491      2813      2823      8501      8492      2814      2824      8502     29265      3040
 -2     29307     28784     28716      3010      3042     28790     29269      3043     29311     28791
 -1      4026    4    0    1
 -2      8492      2814      2824      8502      5058       228       229      5059     29269      3043
 -2     29311     28791     28723      3013      3045     28797      5912       238      5914      5890
 -1      4027    4    0    1
 -2       662        73        74       663      8493      2815      2825      8503      1517        83
 -2      1519      1496     28727      3015      3047     28801     29275      3048     29317     28802
 -1      4028    4    0    1
 -2      8493      2815      2825      8503      8494      2816      2826      8504     29275      3048
 -2     29317     28802     28734      3018      3050     28808     29279      3051     29321     28809
 -1      4029    4    0    1
 -2      8494      2816      2826      8504      8495      2817      2827      8505     29279      3051
 -2     29321     28809     28741      3021      3053     28815     29283      3054     29325     28816
 -1      4030    4    0    1
 -2      8495      2817      2827      8505      8496      2818      2828      8506     29283      3054
 -2     29325     28816     28748      3024      3056     28822     29287      3057     29329     28823
 -1      4031    4    0    1
 -2      8496      2818      2828      8506      8497      2819      2829      8507     29287      3057
 -2     29329     28823     28755      3027      3059     28829     29291      3060     29333     28830
 -1      4032    4    0    1
 -2      8497      2819      2829      8507      8498      2820      2830      8508     29291      3060
 -2     29333     28830     28762      3030      3062     28836     29295      3063     29337     28837
 -1      4033    4    0    1
 -2      8498      2820      2830      8508      8499      2821      2831      8509     29295      3063
 -2     29337     28837     28769      3033      3065     28843     29299      3066     29341     28844
 -1      4034    4    0    1
 -2      8499      2821      2831      8509      8500      2822      2832      8510     29299      3066
 -2     29341     28844     28776      3036      3068     28850     29303      3069     29345     28851
 -1      4035    4    0    1
 -2      8500      2822      2832      8510      8501      2823      2833      8511     29303      3069
 -2     29345     28851     28783      3039      3071     28857     29307      3072     29349     28858
 -1      4036    4    0    1
 -2      8501      2823      2833      8511      8502      2824      2834      8512     29307      3072
 -2     29349     28858     28790      3042      3074     28864     29311      3075     29353     28865
 -1      4037    4    0    1
 -2      8502      2824      2834      8512      5059       229       230      5060     29311      3075
 -2     29353     28865     28797      3045      3077     28871      5914       239      5916      5893
 -1      4038    4    0    1
 -2       663        74        75       664      8503      2825      2835      8513      1519        84
 -2      1521      1499     28801      3047      3079     28875     29317      3080     29359     28876
 -1      4039    4    0    1
 -2      8503      2825      2835      8513      8504      2826      2836      8514     29317      3080
 -2     29359     28876     28808      3050      3082     28882     29321      3083     29363     28883
 -1      4040    4    0    1
 -2      8504      2826      2836      8514      8505      2827      2837      8515     29321      3083
 -2     29363     28883     28815      3053      3085     28889     29325      3086     29367     28890
 -1      4041    4    0    1
 -2      8505      2827      2837      8515      8506      2828      2838      8516     29325      3086
 -2     29367     28890     28822      3056      3088     28896     29329      3089     29371     28897
 -1      4042    4    0    1
 -2      8506      2828      2838      8516      8507      2829      2839      8517     29329      3089
 -2     29371     28897     28829      3059      3091     28903     29333      3092     29375     28904
 -1      4043    4    0    1
 -2      8507      2829      2839      8517      8508      2830      2840      8518     29333      3092
 -2     29375     28904     28836      3062      3094     28910     29337      3095     29379     28911
 -1      4044    4    0    1
 -2      8508      2830      2840      8518      8509      2831      2841      8519     29337      3095
 -2     29379     28911     28843      3065      3097     28917     29341      3098     29383     28918
 -1      4045    4    0    1
 -2      8509      2831      2841      8519      8510      2832      2842      8520     29341      3098
 -2     29383     28918     28850      3068      3100     28924     29345      3101     29387     28925
 -1      4046    4    0    1
 -2      8510      2832      2842      8520      8511      2833      2843      8521     29345      3101
 -2     29387     28925     28857      3071      3103     28931     29349      3104     29391     28932
 -1      4047    4    0    1
 -2      8511      2833      2843      8521      8512      2834      2844      8522     29349      3104
 -2     29391     28932     28864      3074      3106     28938     29353      3107     29395     28939
 -1      4048    4    0    1
 -2      8512      2834      2844      8522      5060       230       231      5061     29353      3107
 -2     29395     28939     28871      3077      3109     28945      5916       240      5918      5896
 -1      4049    4    0    1
 -2       664        75        76       665      8513      2835      2845      8523      1521        85
 -2      1523      1502     28875      3079      3111     28949     29359      3112     29401     28950
 -1      4050    4    0    1
 -2      8513      2835      2845      8523      8514      2836      2846      8524     29359      3112
 -2     29401     28950     28882      3082      3114     28956     29363      3115     29405     28957
 -1      4051    4    0    1
 -2      8514      2836      2846      8524      8515      2837      2847      8525     29363      3115
 -2     29405     28957     28889      3085      3117     28963     29367      3118     29409     28964
 -1      4052    4    0    1
 -2      8515      2837      2847      8525      8516      2838      2848      8526     29367      3118
 -2     29409     28964     28896      3088      3120     28970     29371      3121     29413     28971
 -1      4053    4    0    1
 -2      8516      2838      2848      8526      8517      2839      2849      8527     29371      3121
 -2     29413     28971     28903      3091      3123     28977     29375      3124     29417     28978
 -1      4054    4    0    1
 -2      8517      2839      2849      8527      8518      2840      2850      8528     29375      3124
 -2     29417     28978     28910      3094      3126     28984     29379      3127     29421     28985
 -1      4055    4    0    1
 -2      8518      2840      2850      8528      8519      2841      2851      8529     29379      3127
 -2     29421     28985     28917      3097      3129     28991     29383      3130     29425     28992
 -1      4056    4    0    1
 -2      8519      2841      2851      8529      8520      2842      2852      8530     29383      3130
 -2     29425     28992     28924      3100      3132     28998     29387      3133     29429     28999
 -1      4057    4    0    1
 -2      8520      2842      2852      8530      8521      2843      2853      8531     29387      3133
 -2     29429     28999     28931      3103      3135     29005     29391      3136     29433     29006
 -1      4058    4    0    1
 -2      8521      2843      2853      8531      8522      2844      2854      8532     29391      3136
 -2     29433     29006     28938      3106      3138     29012     29395      3139     29437     29013
 -1      4059    4    0    1
 -2      8522      2844      2854      8532      5061       231       232      5062     29395      3139
 -2     29437     29013     28945      3109      3141     29019      5918       241      5920      5899
 -1      4060    4    0    1
 -2       665        76         3        87      8523      2845       363      3164      1523        86
 -2       116      1505     28949      3111       373      3454     29401      3143      3455     29023
 -1      4061    4    0    1
 -2      8523      2845       363      3164      8524      2846       364      3165     29401      3143
 -2      3455     29023     28956      3114       374      3457     29405      3145      3458     29027
 -1      4062    4    0    1
 -2      8524      2846       364      3165      8525      2847       365      3166     29405      3145
 -2      3458     29027     28963      3117       375      3460     29409      3147      3461     29031
 -1      4063    4    0    1
 -2      8525      2847       365      3166      8526      2848       366      3167     29409      3147
 -2      3461     29031     28970      3120       376      3463     29413      3149      3464     29035
 -1      4064    4    0    1
 -2      8526      2848       366      3167      8527      2849       367      3168     29413      3149
 -2      3464     29035     28977      3123       377      3466     29417      3151      3467     29039
 -1      4065    4    0    1
 -2      8527      2849       367      3168      8528      2850       368      3169     29417      3151
 -2      3467     29039     28984      3126       378      3469     29421      3153      3470     29043
 -1      4066    4    0    1
 -2      8528      2850       368      3169      8529      2851       369      3170     29421      3153
 -2      3470     29043     28991      3129       379      3472     29425      3155      3473     29047
 -1      4067    4    0    1
 -2      8529      2851       369      3170      8530      2852       370      3171     29425      3155
 -2      3473     29047     28998      3132       380      3475     29429      3157      3476     29051
 -1      4068    4    0    1
 -2      8530      2852       370      3171      8531      2853       371      3172     29429      3157
 -2      3476     29051     29005      3135       381      3478     29433      3159      3479     29055
 -1      4069    4    0    1
 -2      8531      2853       371      3172      8532      2854       372      3173     29433      3159
 -2      3479     29055     29012      3138       382      3481     29437      3161      3482     29059
 -1      4070    4    0    1
 -2      8532      2854       372      3173      5062       232         7       243     29437      3161
 -2      3482     29059     29019      3141       383      3484      5920       242       272      5902
 -3
    1PSTEP                         1           1           1          
  100CL  101 1.000000000       15523                     0    1           1
 -4  DISP        4    1
 -5  D1          1    2    1    0
 -5  D2          1    2    2    0
 -5  D3          1    2    3    0
 -5  ALL         1    2    0    0    1ALL
 -1         1 1.70600E-04 0.00000E+00-5.49365E-06
 -1         2 6.35023E-05 0.00000E+00-5.49358E-06
 -1         3 0.00000E+00 6.35022E-05-5.49358E-06
 -1         4 0.00000E+00 1.70600E-04-5.49365E-06
 -1         5 1.70600E-04 0.00000E+00-7.39829E-06
 -1         6 6.35023E-05 0.00000E+00-7.39835E-06
 -1         7 0.00000E+00 6.35022E-05-7.39835E-06
 -1         8 0.00000E+00 1.70600E-04-7.39829E-06
 -1         9 1.56174E-04 0.00000E+00-5.49359E-06
 -1        10 1.44235E-04 0.00000E+00-5.49357E-06
 -1        11 1.34205E-04 0.00000E+00-5.49359E-06
 -1        12 1.25691E-04 0.00000E+00-5.49358E-06
 -1        13 1.18386E-04 0.00000E+00-5.49359E-06
 -1        14 1.12063E-04 0.00000E+00-5.49359E-06
 -1        15 1.06550E-04 0.00000E+00-5.49359E-06
 -1        16 1.01710E-04 0.00000E+00-5.49359E-06
 -1        17 9.74390E-05 0.00000E+00-5.49359E-06
 -1        18 9.36504E-05 0.00000E+00-5.49359E-06
 -1        19 9.02755E-05 0.00000E+00-5.49359E-06
 -1        20 8.72579E-05 0.00000E+00-5.49359E-06
 -1        21 8.45511E-05 0.00000E+00-5.49359E-06
 -1        22 8.21160E-05 0.00000E+00-5.49359E-06
 -1        23 7.99203E-05 0.00000E+00-5.49359E-06
 -1        24 7.79362E-05 0.00000E+00-5.49359E-06
 -1        25 7.61402E-05 0.00000E+00-5.49359E-06
 -1        26 7.45121E-05 0.00000E+00-5.49359E-06
 -1        27 7.30347E-05 0.00000E+00-5.49359E-06
 -1        28 7.16928E-05 0.00000E+00-5.49359E-06
 -1        29 7.04733E-05 0.00000E+00-5.49359E-06
 -1        30 6.93648E-05 0.00000E+00-5.49359E-06
 -1        31 6.83571E-05 0.00000E+00-5.49359E-06
 -1        32 6.74414E-05 0.00000E+00-5.49359E-06
 -1        33 6.66097E-05 0.00000E+00-5.49359E-06
 -1        34 6.58550E-05 0.00000E+00-5.49359E-06
 -1        35 6.51720E-05 0.00000E+00-5.49359E-06
 -1        36 6.45503E-05 0.00000E+00-5.49359E-06
 -1        37 6.40046E-05 0.00000E+00-5.49358E-06
 -1        38 1.63044E-04 0.00000E+00-5.49354E-06
 -1        39 1.49932E-04 0.00000E+00-5.49362E-06
 -1        40 1.39008E-04 0.00000E+00-5.49357E-06
 -1        41 1.29780E-04 0.00000E+00-5.49359E-06
 -1        42 1.21903E-04 0.00000E+00-5.49358E-06
 -1        43 1.15113E-04 0.00000E+00-5.49359E-06
 -1        44 1.09214E-04 0.00000E+00-5.49359E-06
 -1        45 1.04053E-04 0.00000E+00-5.49359E-06
 -1        46 9.95092E-05 0.00000E+00-5.49359E-06
 -1        47 9.54888E-05 0.00000E+00-5.49359E-06
 -1        48 9.19148E-05 0.00000E+00-5.49359E-06
 -1        49 8.87250E-05 0.00000E+00-5.49359E-06
 -1        50 8.58681E-05 0.00000E+00-5.49359E-06
 -1        51 8.33016E-05 0.00000E+00-5.49359E-06
 -1        52 8.09900E-05 0.00000E+00-5.49359E-06
 -1        53 7.89032E-05 0.00000E+00-5.49359E-06
 -1        54 7.70159E-05 0.00000E+00-5.49359E-06
 -1        55 7.53062E-05 0.00000E+00-5.49359E-06
 -1        56 7.37555E-05 0.00000E+00-5.49359E-06
 -1        57 7.23476E-05 0.00000E+00-5.49359E-06
 -1        58 7.10685E-05 0.00000E+00-5.49359E-06
 -1        59 6.99058E-05 0.00000E+00-5.49359E-06
 -1        60 6.88489E-05 0.00000E+00-5.49359E-06
 -1        61 6.78882E-05 0.00000E+00-5.49359E-06
 -1        62 6.70154E-05 0.00000E+00-5.49359E-06
 -1        63 6.62231E-05 0.00000E+00-5.49359E-06
 -1        64 6.55049E-05 0.00000E+00-5.49358E-06
 -1        65 6.48533E-05 0.00000E+00-5.49359E-06
 -1        66 6.42702E-05 0.00000E+00-5.49357E-06
 -1        67 6.37456E-05 0.00000E+00-5.49359E-06
 -1        68 6.27204E-05 9.93394E-06-5.49358E-06
 -1        69 6.03942E-05 1.96233E-05-5.49358E-06
 -1        70 5.65809E-05 2.88294E-05-5.49358E-06
 -1        71 5.13744E-05 3.73257E-05-5.49358E-06
 -1        72 4.49029E-05 4.49029E-05-5.49358E-06
 -1        73 3.73257E-05 5.13744E-05-5.49358E-06
 -1        74 2.88294E-05 5.65809E-05-5.49358E-06
 -1        75 1.96233E-05 6.03942E-05-5.49359E-06
 -1        76 9.93394E-06 6.27204E-05-5.49358E-06
 -1        77 6.32912E-05 4.98113E-06-5.49358E-06
 -1        78 6.17328E-05 1.48207E-05-5.49358E-06
 -1        79 5.86543E-05 2.42954E-05-5.49358E-06
 -1        80 5.41315E-05 3.31718E-05-5.49358E-06
 -1        81 4.82759E-05 4.12315E-05-5.49358E-06
 -1        82 4.12315E-05 4.82759E-05-5.49358E-06
 -1        83 3.31718E-05 5.41315E-05-5.49358E-06
 -1        84 2.42954E-05 5.86543E-05-5.49358E-06
 -1        85 1.48207E-05 6.17328E-05-5.49358E-06
 -1        86 4.98113E-06 6.32912E-05-5.49359E-06
 -1        87 0.00000E+00 6.40046E-05-5.49358E-06
 -1        88 0.00000E+00 6.45503E-05-5.49359E-06
 -1        89 0.00000E+00 6.51720E-05-5.49359E-06
 -1        90 0.00000E+00 6.58550E-05-5.49359E-06
 -1        91 0.00000E+00 6.66097E-05-5.49359E-06
 -1        92 0.00000E+00 6.74414E-05-5.49359E-06
 -1        93 0.00000E+00 6.83571E-05-5.49359E-06
 -1        94 0.00000E+00 6.93648E-05-5.49359E-06
 -1        95 0.00000E+00 7.04733E-05-5.49359E-06
 -1        96 0.00000E+00 7.16928E-05-5.49359E-06
 -1        97 0.00000E+00 7.30347E-05-5.49359E-06
 -1        98 0.00000E+00 7.45121E-05-5.49359E-06
 -1        99 0.00000E+00 7.61402E-05-5.49359E-06
 -1       100 0.00000E+00 7.79362E-05-5.49359E-06
 -1       101 0.00000E+00 7.99203E-05-5.49359E-06
 -1       102 0.00000E+00 8.21160E-05-5.49359E-06
 -1       103 0.00000E+00 8.45511E-05-5.49359E-06
 -1       104 0.00000E+00 8.72579E-05-5.49359E-06
 -1       105 0.00000E+00 9.02755E-05-5.49359E-06
 -1       106 0.00000E+00 9.36504E-05-5.49359E-06
 -1       107 0.00000E+00 9.74390E-05-5.49359E-06
 -1       108 0.00000E+00 1.01710E-04-5.49359E-06
 -1       109 0.00000E+00 1.06550E-04-5.49359E-06
 -1       110 0.00000E+00 1.12063E-04-5.49359E-06
 -1       111 0.00000E+00 1.18386E-04-5.49359E-06
 -1       112 0.00000E+00 1.25691E-04-5.49358E-06
 -1       113 0.00000E+00 1.34205E-04-5.49359E-06
 -1       114 0.00000E+00 1.44235E-04-5.49357E-06
 -1       115 0.00000E+00 1.56174E-04-5.49359E-06
 -1       116 0.00000E+00 6.37456E-05-5.49359E-06
 -1       117 0.00000E+00 6.42702E-05-5.49357E-06
 -1       118 0.00000E+00 6.48533E-05-5.49359E-06
 -1       119 0.00000E+00 6.55049E-05-5.49358E-06
 -1       120 0.00000E+00 6.62231E-05-5.49359E-06
 -1       121 0.00000E+00 6.70155E-05-5.49359E-06
 -1       122 0.00000E+00 6.78882E-05-5.49359E-06
 -1       123 0.00000E+00 6.88489E-05-5.49359E-06
 -1       124 0.00000E+00 6.99058E-05-5.49359E-06
 -1       125 0.00000E+00 7.10685E-05-5.49359E-06
 -1       126 0.00000E+00 7.23476E-05-5.49359E-06
 -1       127 0.00000E+00 7.37555E-05-5.49359E-06
 -1       128 0.00000E+00 7.53062E-05-5.49359E-06
 -1       129 0.00000E+00 7.70159E-05-5.49359E-06
 -1       130 0.00000E+00 7.89032E-05-5.49359E-06
 -1       131 0.00000E+00 8.09900E-05-5.49359E-06
 -1       132 0.00000E+00 8.33016E-05-5.49359E-06
 -1       133 0.00000E+00 8.58681E-05-5.49359E-06
 -1       134 0.00000E+00 8.87250E-05-5.49359E-06
 -1       135 0.00000E+00 9.19148E-05-5.49359E-06
 -1       136 0.00000E+00 9.54888E-05-5.49359E-06
 -1       137 0.00000E+00 9.95092E-05-5.49359E-06
 -1       138 0.00000E+00 1.04053E-04-5.49359E-06
 -1       139 0.00000E+00 1.09214E-04-5.49359E-06
 -1       140 0.00000E+00 1.15113E-04-5.49359E-06
 -1       141 0.00000E+00 1.21903E-04-5.49358E-06
 -1       142 0.00000E+00 1.29780E-04-5.49359E-06
 -1       143 0.00000E+00 1.39008E-04-5.49357E-06
 -1       144 0.00000E+00 1.49932E-04-5.49362E-06
 -1       145 0.00000E+00 1.63044E-04-5.49354E-06
 -1       146 2.66877E-05 1.68500E-04-5.49365E-06
 -1       147 5.27183E-05 1.62250E-04-5.49365E-06
 -1       148 7.74507E-05 1.52006E-04-5.49365E-06
 -1       149 1.00276E-04 1.38018E-04-5.49365E-06
 -1       150 1.20632E-04 1.20632E-04-5.49365E-06
 -1       151 1.38018E-04 1.00276E-04-5.49365E-06
 -1       152 1.52006E-04 7.74507E-05-5.49365E-06
 -1       153 1.62250E-04 5.27183E-05-5.49365E-06
 -1       154 1.68500E-04 2.66877E-05-5.49365E-06
 -1       155 1.33892E-05 1.70126E-04-5.49365E-06
 -1       156 3.98380E-05 1.65937E-04-5.49365E-06
 -1       157 6.53059E-05 1.57662E-04-5.49365E-06
 -1       158 8.91657E-05 1.45505E-04-5.49365E-06
 -1       159 1.10830E-04 1.29765E-04-5.49365E-06
 -1       160 1.29765E-04 1.10830E-04-5.49365E-06
 -1       161 1.45505E-04 8.91657E-05-5.49365E-06
 -1       162 1.57662E-04 6.53059E-05-5.49365E-06
 -1       163 1.65937E-04 3.98380E-05-5.49365E-06
 -1       164 1.70126E-04 1.33892E-05-5.49365E-06
 -1       165 1.56174E-04 0.00000E+00-7.39834E-06
 -1       166 1.44235E-04 0.00000E+00-7.39836E-06
 -1       167 1.34205E-04 0.00000E+00-7.39835E-06
 -1       168 1.25691E-04 0.00000E+00-7.39835E-06
 -1       169 1.18386E-04 0.00000E+00-7.39835E-06
 -1       170 1.12063E-04 0.00000E+00-7.39835E-06
 -1       171 1.06550E-04 0.00000E+00-7.39835E-06
 -1       172 1.01710E-04 0.00000E+00-7.39835E-06
 -1       173 9.74390E-05 0.00000E+00-7.39835E-06
 -1       174 9.36504E-05 0.00000E+00-7.39835E-06
 -1       175 9.02755E-05 0.00000E+00-7.39835E-06
 -1       176 8.72579E-05 0.00000E+00-7.39835E-06
 -1       177 8.45511E-05 0.00000E+00-7.39835E-06
 -1       178 8.21160E-05 0.00000E+00-7.39835E-06
 -1       179 7.99203E-05 0.00000E+00-7.39835E-06
 -1       180 7.79362E-05 0.00000E+00-7.39835E-06
 -1       181 7.61402E-05 0.00000E+00-7.39835E-06
 -1       182 7.45121E-05 0.00000E+00-7.39835E-06
 -1       183 7.30347E-05 0.00000E+00-7.39835E-06
 -1       184 7.16928E-05 0.00000E+00-7.39835E-06
 -1       185 7.04733E-05 0.00000E+00-7.39835E-06
 -1       186 6.93648E-05 0.00000E+00-7.39835E-06
 -1       187 6.83571E-05 0.00000E+00-7.39835E-06
 -1       188 6.74414E-05 0.00000E+00-7.39835E-06
 -1       189 6.66097E-05 0.00000E+00-7.39835E-06
 -1       190 6.58550E-05 0.00000E+00-7.39835E-06
 -1       191 6.51720E-05 0.00000E+00-7.39835E-06
 -1       192 6.45503E-05 0.00000E+00-7.39835E-06
 -1       193 6.40046E-05 0.00000E+00-7.39835E-06
 -1       194 1.63044E-04 0.00000E+00-7.39839E-06
 -1       195 1.49932E-04 0.00000E+00-7.39831E-06
 -1       196 1.39008E-04 0.00000E+00-7.39836E-06
 -1       197 1.29780E-04 0.00000E+00-7.39834E-06
 -1       198 1.21903E-04 0.00000E+00-7.39835E-06
 -1       199 1.15113E-04 0.00000E+00-7.39835E-06
 -1       200 1.09214E-04 0.00000E+00-7.39835E-06
 -1       201 1.04053E-04 0.00000E+00-7.39835E-06
 -1       202 9.95092E-05 0.00000E+00-7.39835E-06
 -1       203 9.54888E-05 0.00000E+00-7.39835E-06
 -1       204 9.19148E-05 0.00000E+00-7.39835E-06
 -1       205 8.87250E-05 0.00000E+00-7.39835E-06
 -1       206 8.58681E-05 0.00000E+00-7.39835E-06
 -1       207 8.33016E-05 0.00000E+00-7.39835E-06
 -1       208 8.09900E-05 0.00000E+00-7.39835E-06
 -1       209 7.89032E-05 0.00000E+00-7.39835E-06
 -1       210 7.70159E-05 0.00000E+00-7.39835E-06
 -1       211 7.53062E-05 0.00000E+00-7.39835E-06
 -1       212 7.37555E-05 0.00000E+00-7.39835E-06
 -1       213 7.23476E-05 0.00000E+00-7.39835E-06
 -1       214 7.10685E-05 0.00000E+00-7.39835E-06
 -1       215 6.99058E-05 0.00000E+00-7.39835E-06
 -1       216 6.88489E-05 0.00000E+00-7.39835E-06
 -1       217 6.78882E-05 0.00000E+00-7.39835E-06
 -1       218 6.70154E-05 0.00000E+00-7.39835E-06
 -1       219 6.62231E-05 0.00000E+00-7.39835E-06
 -1       220 6.55049E-05 0.00000E+00-7.39835E-06
 -1       221 6.48533E-05 0.00000E+00-7.39835E-06
 -1       222 6.42702E-05 0.00000E+00-7.39836E-06
 -1       223 6.37456E-05 0.00000E+00-7.39834E-06
 -1       224 6.27204E-05 9.93394E-06-7.39835E-06
 -1       225 6.03942E-05 1.96233E-05-7.39835E-06
 -1       226 5.65809E-05 2.88294E-05-7.39835E-06
 -1       227 5.13744E-05 3.73257E-05-7.39835E-06
 -1       228 4.49029E-05 4.49029E-05-7.39835E-06
 -1       229 3.73257E-05 5.13744E-05-7.39835E-06
 -1       230 2.88294E-05 5.65809E-05-7.39835E-06
 -1       231 1.96233E-05 6.03942E-05-7.39835E-06
 -1       232 9.93394E-06 6.27204E-05-7.39835E-06
 -1       233 6.32912E-05 4.98113E-06-7.39835E-06
 -1       234 6.17328E-05 1.48207E-05-7.39835E-06
 -1       235 5.86543E-05 2.42954E-05-7.39835E-06
 -1       236 5.41315E-05 3.31718E-05-7.39835E-06
 -1       237 4.82759E-05 4.12315E-05-7.39835E-06
 -1       238 4.12315E-05 4.82759E-05-7.39835E-06
 -1       239 3.31718E-05 5.41315E-05-7.39835E-06
 -1       240 2.42954E-05 5.86543E-05-7.39835E-06
 -1       241 1.48207E-05 6.17328E-05-7.39835E-06
 -1       242 4.98113E-06 6.32912E-05-7.39835E-06
 -1       243 0.00000E+00 6.40046E-05-7.39835E-06
 -1       244 0.00000E+00 6.45503E-05-7.39835E-06
 -1       245 0.00000E+00 6.51720E-05-7.39835E-06
 -1       246 0.00000E+00 6.58550E-05-7.39835E-06
 -1       247 0.00000E+00 6.66097E-05-7.39835E-06
 -1       248 0.00000E+00 6.74414E-05-7.39835E-06
 -1       249 0.00000E+00 6.83571E-05-7.39835E-06
 -1       250 0.00000E+00 6.93648E-05-7.39835E-06
 -1       251 0.00000E+00 7.04733E-05-7.39835E-06
 -1       252 0.00000E+00 7.16928E-05-7.39835E-06
 -1       253 0.00000E+00 7.30347E-05-7.39835E-06
 -1       254 0.00000E+00 7.45121E-05-7.39835E-06
 -1       255 0.00000E+00 7.61402E-05-7.39835E-06
 -1       256 0.00000E+00 7.79362E-05-7.39835E-06
 -1       257 0.00000E+00 7.99203E-05-7.39835E-06
 -1       258 0.00000E+00 8.21160E-05-7.39835E-06
 -1       259 0.00000E+00 8.45511E-05-7.39835E-06
 -1       260 0.00000E+00 8.72579E-05-7.39835E-06
 -1       261 0.00000E+00 9.02755E-05-7.39835E-06
 -1       262 0.00000E+00 9.36504E-05-7.39835E-06
 -1       263 0.00000E+00 9.74390E-05-7.39835E-06
 -1       264 0.00000E+00 1.01710E-04-7.39835E-06
 -1       265 0.00000E+00 1.06550E-04-7.39835E-06
 -1       266 0.00000E+00 1.12063E-04-7.39835E-06
 -1       267 0.00000E+00 1.18386E-04-7.39835E-06
 -1       268 0.00000E+00 1.25691E-04-7.39835E-06
 -1       269 0.00000E+00 1.34205E-04-7.39835E-06
 -1       270 0.00000E+00 1.44235E-04-7.39836E-06
 -1       271 0.00000E+00 1.56174E-04-7.39834E-06
 -1       272 0.00000E+00 6.37456E-05-7.39834E-06
 -1       273 0.00000E+00 6.42702E-05-7.39836E-06
 -1       274 0.00000E+00 6.48533E-05-7.39835E-06
 -1       275 0.00000E+00 6.55049E-05-7.39835E-06
 -1       276 0.00000E+00 6.62231E-05-7.39835E-06
 -1       277 0.00000E+00 6.70155E-05-7.39835E-06
 -1       278 0.00000E+00 6.78882E-05-7.39835E-06
 -1       279 0.00000E+00 6.88489E-05-7.39835E-06
 -1       280 0.00000E+00 6.99058E-05-7.39835E-06
 -1       281 0.00000E+00 7.10685E-05-7.39835E-06
 -1       282 0.00000E+00 7.23476E-05-7.39835E-06
 -1       283 0.00000E+00 7.37555E-05-7.39835E-06
 -1       284 0.00000E+00 7.53062E-05-7.39835E-06
 -1       285 0.00000E+00 7.70159E-05-7.39835E-06
 -1       286 0.00000E+00 7.89032E-05-7.39835E-06
 -1       287 0.00000E+00 8.09900E-05-7.39835E-06
 -1       288 0.00000E+00 8.33016E-05-7.39835E-06
 -1       289 0.00000E+00 8.58681E-05-7.39835E-06
 -1       290 0.00000E+00 8.87250E-05-7.39835E-06
 -1       291 0.00000E+00 9.19148E-05-7.39835E-06
 -1       292 0.00000E+00 9.54888E-05-7.39835E-06
 -1       293 0.00000E+00 9.95092E-05-7.39835E-06
 -1       294 0.00000E+00 1.04053E-04-7.39835E-06
 -1       295 0.00000E+00 1.09214E-04-7.39835E-06
 -1       296 0.00000E+00 1.15113E-04-7.39835E-06
 -1       297 0.00000E+00 1.21903E-04-7.39835E-06
 -1       298 0.00000E+00 1.29780E-04-7.39834E-06
 -1       299 0.00000E+00 1.39008E-04-7.39836E-06
 -1       300 0.00000E+00 1.49932E-04-7.39831E-06
 -1       301 0.00000E+00 1.63044E-04-7.39839E-06
 -1       302 2.66877E-05 1.68500E-04-7.39829E-06
 -1       303 5.27183E-05 1.62250E-04-7.39829E-06
 -1       304 7.74507E-05 1.52006E-04-7.39829E-06
 -1       305 1.00276E-04 1.38018E-04-7.39829E-06
 -1       306 1.20632E-04 1.20632E-04-7.39829E-06
 -1       307 1.38018E-04 1.00276E-04-7.39829E-06
 -1       308 1.52006E-04 7.74507E-05-7.39829E-06
 -1       309 1.62250E-04 5.27183E-05-7.39829E-06
 -1       310 1.68500E-04 2.66877E-05-7.39829E-06
 -1       311 1.33892E-05 1.70126E-04-7.39828E-06
 -1       312 3.98380E-05 1.65937E-04-7.39828E-06
 -1       313 6.53059E-05 1.57662E-04-7.39828E-06
 -1       314 8.91657E-05 1.45505E-04-7.39828E-06
 -1       315 1.10830E-04 1.29765E-04-7.39828E-06
 -1       316 1.29765E-04 1.10830E-04-7.39828E-06
 -1       317 1.45505E-04 8.91657E-05-7.39828E-06
 -1       318 1.57662E-04 6.53059E-05-7.39828E-06
 -1       319 1.65937E-04 3.98380E-05-7.39828E-06
 -1       320 1.70126E-04 1.33892E-05-7.39828E-06
 -1       321 1.70600E-04 0.00000E+00-5.66675E-06
 -1       322 1.70600E-04 0.00000E+00-5.83990E-06
 -1       323 1.70600E-04 0.00000E+00-6.01306E-06
 -1       324 1.70600E-04 0.00000E+00-6.18622E-06
 -1       325 1.70600E-04 0.00000E+00-6.35939E-06
 -1       326 1.70600E-04 0.00000E+00-6.53255E-06
 -1       327 1.70600E-04 0.00000E+00-6.70571E-06
 -1       328 1.70600E-04 0.00000E+00-6.87887E-06
 -1       329 1.70600E-04 0.00000E+00-7.05204E-06
 -1       330 1.70600E-04 0.00000E+00-7.22519E-06
 -1       331 1.70600E-04 0.00000E+00-5.58019E-06
 -1       332 1.70600E-04 0.00000E+00-5.75332E-06
 -1       333 1.70600E-04 0.00000E+00-5.92648E-06
 -1       334 1.70600E-04 0.00000E+00-6.09964E-06
 -1       335 1.70600E-04 0.00000E+00-6.27280E-06
 -1       336 1.70600E-04 0.00000E+00-6.44597E-06
 -1       337 1.70600E-04 0.00000E+00-6.61913E-06
 -1       338 1.70600E-04 0.00000E+00-6.79229E-06
 -1       339 1.70600E-04 0.00000E+00-6.96545E-06
 -1       340 1.70600E-04 0.00000E+00-7.13861E-06
 -1       341 1.70600E-04 0.00000E+00-7.31174E-06
 -1       342 6.35022E-05 0.00000E+00-5.66675E-06
 -1       343 6.35022E-05 0.00000E+00-5.83991E-06
 -1       344 6.35023E-05 0.00000E+00-6.01307E-06
 -1       345 6.35023E-05 0.00000E+00-6.18623E-06
 -1       346 6.35023E-05 0.00000E+00-6.35939E-06
 -1       347 6.35023E-05 0.00000E+00-6.53255E-06
 -1       348 6.35023E-05 0.00000E+00-6.70571E-06
 -1       349 6.35023E-05 0.00000E+00-6.87886E-06
 -1       350 6.35022E-05 0.00000E+00-7.05202E-06
 -1       351 6.35022E-05 0.00000E+00-7.22518E-06
 -1       352 6.35022E-05 0.00000E+00-5.58017E-06
 -1       353 6.35022E-05 0.00000E+00-5.75333E-06
 -1       354 6.35023E-05 0.00000E+00-5.92649E-06
 -1       355 6.35023E-05 0.00000E+00-6.09965E-06
 -1       356 6.35023E-05 0.00000E+00-6.27281E-06
 -1       357 6.35023E-05 0.00000E+00-6.44597E-06
 -1       358 6.35023E-05 0.00000E+00-6.61913E-06
 -1       359 6.35023E-05 0.00000E+00-6.79228E-06
 -1       360 6.35023E-05 0.00000E+00-6.96544E-06
 -1       361 6.35022E-05 0.00000E+00-7.13860E-06
 -1       362 6.35022E-05 0.00000E+00-7.31176E-06
 -1       363 0.00000E+00 6.35023E-05-5.66675E-06
 -1       364 0.00000E+00 6.35023E-05-5.83991E-06
 -1       365 0.00000E+00 6.35023E-05-6.01307E-06
 -1       366 0.00000E+00 6.35023E-05-6.18623E-06
 -1       367 0.00000E+00 6.35023E-05-6.35939E-06
 -1       368 0.00000E+00 6.35023E-05-6.53255E-06
 -1       369 0.00000E+00 6.35023E-05-6.70571E-06
 -1       370 0.00000E+00 6.35023E-05-6.87887E-06
 -1       371 0.00000E+00 6.35023E-05-7.05202E-06
 -1       372 0.00000E+00 6.35023E-05-7.22519E-06
 -1       373 0.00000E+00 6.35023E-05-5.58016E-06
 -1       374 0.00000E+00 6.35023E-05-5.75333E-06
 -1       375 0.00000E+00 6.35023E-05-5.92649E-06
 -1       376 0.00000E+00 6.35023E-05-6.09965E-06
 -1       377 0.00000E+00 6.35023E-05-6.27281E-06
 -1       378 0.00000E+00 6.35023E-05-6.44597E-06
 -1       379 0.00000E+00 6.35023E-05-6.61913E-06
 -1       380 0.00000E+00 6.35023E-05-6.79229E-06
 -1       381 0.00000E+00 6.35023E-05-6.96545E-06
 -1       382 0.00000E+00 6.35023E-05-7.13860E-06
 -1       383 0.00000E+00 6.35023E-05-7.31177E-06
 -1       384 0.00000E+00 1.70600E-04-5.66675E-06
 -1       385 0.00000E+00 1.70600E-04-5.83990E-06
 -1       386 0.00000E+00 1.70600E-04-6.01306E-06
 -1       387 0.00000E+00 1.70600E-04-6.18622E-06
 -1       388 0.00000E+00 1.70600E-04-6.35939E-06
 -1       389 0.00000E+00 1.70600E-04-6.53255E-06
 -1       390 0.00000E+00 1.70600E-04-6.70571E-06
 -1       391 0.00000E+00 1.70600E-04-6.87887E-06
 -1       392 0.00000E+00 1.70600E-04-7.05204E-06
 -1       393 0.00000E+00 1.70600E-04-7.22519E-06
 -1       394 0.00000E+00 1.70600E-04-5.58019E-06
 -1       395 0.00000E+00 1.70600E-04-5.75332E-06
 -1       396 0.00000E+00 1.70600E-04-5.92648E-06
 -1       397 0.00000E+00 1.70600E-04-6.09964E-06
 -1       398 0.00000E+00 1.70600E-04-6.27280E-06
 -1       399 0.00000E+00 1.70600E-04-6.44597E-06
 -1       400 0.00000E+00 1.70600E-04-6.61913E-06
 -1       401 0.00000E+00 1.70600E-04-6.79229E-06
 -1       402 0.00000E+00 1.70600E-04-6.96545E-06
 -1       403 0.00000E+00 1.70600E-04-7.13861E-06
 -1       404 0.00000E+00 1.70600E-04-7.31174E-06
 -1       405 1.54251E-04 2.44310E-05-5.49359E-06
 -1       406 1.48530E-04 4.82605E-05-5.49359E-06
 -1       407 1.39152E-04 7.09016E-05-5.49359E-06
 -1       408 1.26348E-04 9.17969E-05-5.49359E-06
 -1       409 1.10432E-04 1.10432E-04-5.49359E-06
 -1       410 9.17969E-05 1.26348E-04-5.49359E-06
 -1       411 7.09016E-05 1.39152E-04-5.49359E-06
 -1       412 4.82605E-05 1.48530E-04-5.49359E-06
 -1       413 2.44310E-05 1.54251E-04-5.49359E-06
 -1       414 1.42459E-04 2.25633E-05-5.49357E-06
 -1       415 1.37176E-04 4.45711E-05-5.49357E-06
 -1       416 1.28514E-04 6.54814E-05-5.49357E-06
 -1       417 1.16689E-04 8.47793E-05-5.49357E-06
 -1       418 1.01990E-04 1.01990E-04-5.49357E-06
 -1       419 8.47793E-05 1.16689E-04-5.49357E-06
 -1       420 6.54814E-05 1.28514E-04-5.49357E-06
 -1       421 4.45711E-05 1.37176E-04-5.49357E-06
 -1       422 2.25633E-05 1.42459E-04-5.49357E-06
 -1       423 1.32553E-04 2.09943E-05-5.49359E-06
 -1       424 1.27637E-04 4.14717E-05-5.49359E-06
 -1       425 1.19578E-04 6.09280E-05-5.49359E-06
 -1       426 1.08574E-04 7.88839E-05-5.49359E-06
 -1       427 9.48975E-05 9.48975E-05-5.49359E-06
 -1       428 7.88839E-05 1.08574E-04-5.49359E-06
 -1       429 6.09280E-05 1.19578E-04-5.49359E-06
 -1       430 4.14717E-05 1.27637E-04-5.49359E-06
 -1       431 2.09943E-05 1.32553E-04-5.49359E-06
 -1       432 1.24144E-04 1.96625E-05-5.49358E-06
 -1       433 1.19540E-04 3.88408E-05-5.49358E-06
 -1       434 1.11992E-04 5.70627E-05-5.49358E-06
 -1       435 1.01687E-04 7.38796E-05-5.49358E-06
 -1       436 8.88773E-05 8.88773E-05-5.49358E-06
 -1       437 7.38796E-05 1.01687E-04-5.49358E-06
 -1       438 5.70627E-05 1.11992E-04-5.49358E-06
 -1       439 3.88408E-05 1.19540E-04-5.49358E-06
 -1       440 1.96625E-05 1.24144E-04-5.49358E-06
 -1       441 1.16928E-04 1.85196E-05-5.49359E-06
 -1       442 1.12592E-04 3.65832E-05-5.49359E-06
 -1       443 1.05483E-04 5.37460E-05-5.49359E-06
 -1       444 9.57761E-05 6.95854E-05-5.49359E-06
 -1       445 8.37114E-05 8.37114E-05-5.49359E-06
 -1       446 6.95854E-05 9.57761E-05-5.49359E-06
 -1       447 5.37460E-05 1.05483E-04-5.49359E-06
 -1       448 3.65832E-05 1.12592E-04-5.49359E-06
 -1       449 1.85196E-05 1.16928E-04-5.49359E-06
 -1       450 1.10683E-04 1.75305E-05-5.49359E-06
 -1       451 1.06578E-04 3.46294E-05-5.49359E-06
 -1       452 9.98490E-05 5.08756E-05-5.49359E-06
 -1       453 9.06610E-05 6.58691E-05-5.49359E-06
 -1       454 7.92406E-05 7.92406E-05-5.49359E-06
 -1       455 6.58691E-05 9.06610E-05-5.49359E-06
 -1       456 5.08756E-05 9.98490E-05-5.49359E-06
 -1       457 3.46294E-05 1.06578E-04-5.49359E-06
 -1       458 1.75305E-05 1.10683E-04-5.49359E-06
 -1       459 1.05238E-04 1.66680E-05-5.49359E-06
 -1       460 1.01335E-04 3.29256E-05-5.49359E-06
 -1       461 9.49364E-05 4.83725E-05-5.49359E-06
 -1       462 8.62004E-05 6.26283E-05-5.49359E-06
 -1       463 7.53419E-05 7.53419E-05-5.49359E-06
 -1       464 6.26283E-05 8.62004E-05-5.49359E-06
 -1       465 4.83725E-05 9.49364E-05-5.49359E-06
 -1       466 3.29256E-05 1.01335E-04-5.49359E-06
 -1       467 1.66680E-05 1.05238E-04-5.49359E-06
 -1       468 1.00458E-04 1.59110E-05-5.49359E-06
 -1       469 9.67323E-05 3.14302E-05-5.49359E-06
 -1       470 9.06246E-05 4.61755E-05-5.49359E-06
 -1       471 8.22854E-05 5.97839E-05-5.49359E-06
 -1       472 7.19201E-05 7.19201E-05-5.49359E-06
 -1       473 5.97839E-05 8.22854E-05-5.49359E-06
 -1       474 4.61755E-05 9.06246E-05-5.49359E-06
 -1       475 3.14302E-05 9.67323E-05-5.49359E-06
 -1       476 1.59110E-05 1.00458E-04-5.49359E-06
 -1       477 9.62394E-05 1.52428E-05-5.49359E-06
 -1       478 9.26700E-05 3.01103E-05-5.49359E-06
 -1       479 8.68188E-05 4.42364E-05-5.49359E-06
 -1       480 7.88298E-05 5.72732E-05-5.49359E-06
 -1       481 6.88998E-05 6.88998E-05-5.49359E-06
 -1       482 5.72732E-05 7.88298E-05-5.49359E-06
 -1       483 4.42364E-05 8.68188E-05-5.49359E-06
 -1       484 3.01103E-05 9.26700E-05-5.49359E-06
 -1       485 1.52428E-05 9.62394E-05-5.49359E-06
 -1       486 9.24974E-05 1.46502E-05-5.49359E-06
 -1       487 8.90668E-05 2.89396E-05-5.49359E-06
 -1       488 8.34431E-05 4.25164E-05-5.49359E-06
 -1       489 7.57648E-05 5.50463E-05-5.49359E-06
 -1       490 6.62208E-05 6.62208E-05-5.49359E-06
 -1       491 5.50463E-05 7.57648E-05-5.49359E-06
 -1       492 4.25164E-05 8.34431E-05-5.49359E-06
 -1       493 2.89396E-05 8.90668E-05-5.49359E-06
 -1       494 1.46502E-05 9.24974E-05-5.49359E-06
 -1       495 8.91641E-05 1.41222E-05-5.49359E-06
 -1       496 8.58571E-05 2.78967E-05-5.49359E-06
 -1       497 8.04361E-05 4.09842E-05-5.49359E-06
 -1       498 7.30344E-05 5.30626E-05-5.49359E-06
 -1       499 6.38344E-05 6.38344E-05-5.49359E-06
 -1       500 5.30626E-05 7.30344E-05-5.49359E-06
 -1       501 4.09842E-05 8.04361E-05-5.49359E-06
 -1       502 2.78967E-05 8.58571E-05-5.49359E-06
 -1       503 1.41222E-05 8.91641E-05-5.49359E-06
 -1       504 8.61836E-05 1.36501E-05-5.49359E-06
 -1       505 8.29872E-05 2.69642E-05-5.49359E-06
 -1       506 7.77474E-05 3.96143E-05-5.49359E-06
 -1       507 7.05931E-05 5.12889E-05-5.49359E-06
 -1       508 6.17007E-05 6.17007E-05-5.49359E-06
 -1       509 5.12889E-05 7.05931E-05-5.49359E-06
 -1       510 3.96143E-05 7.77474E-05-5.49359E-06
 -1       511 2.69642E-05 8.29872E-05-5.49359E-06
 -1       512 1.36501E-05 8.61836E-05-5.49359E-06
 -1       513 8.35101E-05 1.32267E-05-5.49359E-06
 -1       514 8.04128E-05 2.61277E-05-5.49359E-06
 -1       515 7.53355E-05 3.83854E-05-5.49359E-06
 -1       516 6.84032E-05 4.96979E-05-5.49359E-06
 -1       517 5.97866E-05 5.97866E-05-5.49359E-06
 -1       518 4.96979E-05 6.84032E-05-5.49359E-06
 -1       519 3.83854E-05 7.53355E-05-5.49359E-06
 -1       520 2.61277E-05 8.04128E-05-5.49359E-06
 -1       521 1.32267E-05 8.35101E-05-5.49359E-06
 -1       522 8.11051E-05 1.28458E-05-5.49359E-06
 -1       523 7.80970E-05 2.53753E-05-5.49359E-06
 -1       524 7.31659E-05 3.72799E-05-5.49359E-06
 -1       525 6.64333E-05 4.82666E-05-5.49359E-06
 -1       526 5.80648E-05 5.80648E-05-5.49359E-06
 -1       527 4.82666E-05 6.64333E-05-5.49359E-06
 -1       528 3.72799E-05 7.31659E-05-5.49359E-06
 -1       529 2.53753E-05 7.80970E-05-5.49359E-06
 -1       530 1.28458E-05 8.11051E-05-5.49359E-06
 -1       531 7.89363E-05 1.25023E-05-5.49359E-06
 -1       532 7.60087E-05 2.46967E-05-5.49359E-06
 -1       533 7.12095E-05 3.62831E-05-5.49359E-06
 -1       534 6.46569E-05 4.69760E-05-5.49359E-06
 -1       535 5.65122E-05 5.65122E-05-5.49359E-06
 -1       536 4.69760E-05 6.46569E-05-5.49359E-06
 -1       537 3.62831E-05 7.12095E-05-5.49359E-06
 -1       538 2.46967E-05 7.60087E-05-5.49359E-06
 -1       539 1.25023E-05 7.89363E-05-5.49359E-06
 -1       540 7.69766E-05 1.21919E-05-5.49359E-06
 -1       541 7.41217E-05 2.40836E-05-5.49359E-06
 -1       542 6.94416E-05 3.53823E-05-5.49359E-06
 -1       543 6.30517E-05 4.58097E-05-5.49359E-06
 -1       544 5.51092E-05 5.51092E-05-5.49359E-06
 -1       545 4.58097E-05 6.30517E-05-5.49359E-06
 -1       546 3.53823E-05 6.94416E-05-5.49359E-06
 -1       547 2.40836E-05 7.41217E-05-5.49359E-06
 -1       548 1.21919E-05 7.69766E-05-5.49359E-06
 -1       549 7.52028E-05 1.19109E-05-5.49359E-06
 -1       550 7.24136E-05 2.35286E-05-5.49359E-06
 -1       551 6.78414E-05 3.45669E-05-5.49359E-06
 -1       552 6.15987E-05 4.47541E-05-5.49359E-06
 -1       553 5.38392E-05 5.38392E-05-5.49359E-06
 -1       554 4.47541E-05 6.15987E-05-5.49359E-06
 -1       555 3.45669E-05 6.78414E-05-5.49359E-06
 -1       556 2.35286E-05 7.24136E-05-5.49359E-06
 -1       557 1.19109E-05 7.52028E-05-5.49359E-06
 -1       558 7.35948E-05 1.16563E-05-5.49359E-06
 -1       559 7.08653E-05 2.30255E-05-5.49359E-06
 -1       560 6.63908E-05 3.38278E-05-5.49359E-06
 -1       561 6.02816E-05 4.37971E-05-5.49359E-06
 -1       562 5.26880E-05 5.26880E-05-5.49359E-06
 -1       563 4.37971E-05 6.02816E-05-5.49359E-06
 -1       564 3.38278E-05 6.63908E-05-5.49359E-06
 -1       565 2.30255E-05 7.08653E-05-5.49359E-06
 -1       566 1.16563E-05 7.35948E-05-5.49359E-06
 -1       567 7.21355E-05 1.14251E-05-5.49359E-06
 -1       568 6.94601E-05 2.25690E-05-5.49359E-06
 -1       569 6.50744E-05 3.31571E-05-5.49359E-06
 -1       570 5.90863E-05 4.29287E-05-5.49359E-06
 -1       571 5.16433E-05 5.16433E-05-5.49359E-06
 -1       572 4.29287E-05 5.90863E-05-5.49359E-06
 -1       573 3.31571E-05 6.50744E-05-5.49359E-06
 -1       574 2.25690E-05 6.94601E-05-5.49359E-06
 -1       575 1.14251E-05 7.21355E-05-5.49359E-06
 -1       576 7.08102E-05 1.12152E-05-5.49359E-06
 -1       577 6.81839E-05 2.21543E-05-5.49359E-06
 -1       578 6.38788E-05 3.25479E-05-5.49359E-06
 -1       579 5.80007E-05 4.21400E-05-5.49359E-06
 -1       580 5.06945E-05 5.06945E-05-5.49359E-06
 -1       581 4.21400E-05 5.80007E-05-5.49359E-06
 -1       582 3.25479E-05 6.38788E-05-5.49359E-06
 -1       583 2.21543E-05 6.81839E-05-5.49359E-06
 -1       584 1.12152E-05 7.08102E-05-5.49359E-06
 -1       585 6.96057E-05 1.10245E-05-5.49359E-06
 -1       586 6.70241E-05 2.17775E-05-5.49359E-06
 -1       587 6.27922E-05 3.19942E-05-5.49359E-06
 -1       588 5.70141E-05 4.14232E-05-5.49359E-06
 -1       589 4.98322E-05 4.98322E-05-5.49359E-06
 -1       590 4.14232E-05 5.70141E-05-5.49359E-06
 -1       591 3.19942E-05 6.27922E-05-5.49359E-06
 -1       592 2.17775E-05 6.70241E-05-5.49359E-06
 -1       593 1.10245E-05 6.96057E-05-5.49359E-06
 -1       594 6.85108E-05 1.08510E-05-5.49359E-06
 -1       595 6.59698E-05 2.14349E-05-5.49359E-06
 -1       596 6.18045E-05 3.14910E-05-5.49359E-06
 -1       597 5.61173E-05 4.07716E-05-5.49359E-06
 -1       598 4.90483E-05 4.90483E-05-5.49359E-06
 -1       599 4.07716E-05 5.61173E-05-5.49359E-06
 -1       600 3.14910E-05 6.18045E-05-5.49359E-06
 -1       601 2.14349E-05 6.59698E-05-5.49359E-06
 -1       602 1.08510E-05 6.85108E-05-5.49359E-06
 -1       603 6.75155E-05 1.06934E-05-5.49359E-06
 -1       604 6.50115E-05 2.11235E-05-5.49359E-06
 -1       605 6.09066E-05 3.10335E-05-5.49359E-06
 -1       606 5.53021E-05 4.01793E-05-5.49359E-06
 -1       607 4.83358E-05 4.83358E-05-5.49359E-06
 -1       608 4.01793E-05 5.53021E-05-5.49359E-06
 -1       609 3.10335E-05 6.09066E-05-5.49359E-06
 -1       610 2.11235E-05 6.50115E-05-5.49359E-06
 -1       611 1.06934E-05 6.75155E-05-5.49359E-06
 -1       612 6.66110E-05 1.05502E-05-5.49359E-06
 -1       613 6.41405E-05 2.08405E-05-5.49359E-06
 -1       614 6.00907E-05 3.06177E-05-5.49359E-06
 -1       615 5.45612E-05 3.96410E-05-5.49359E-06
 -1       616 4.76882E-05 4.76882E-05-5.49359E-06
 -1       617 3.96410E-05 5.45612E-05-5.49359E-06
 -1       618 3.06177E-05 6.00907E-05-5.49359E-06
 -1       619 2.08405E-05 6.41405E-05-5.49359E-06
 -1       620 1.05502E-05 6.66110E-05-5.49359E-06
 -1       621 6.57897E-05 1.04201E-05-5.49359E-06
 -1       622 6.33496E-05 2.05835E-05-5.49359E-06
 -1       623 5.93497E-05 3.02402E-05-5.49359E-06
 -1       624 5.38884E-05 3.91522E-05-5.49359E-06
 -1       625 4.71002E-05 4.71002E-05-5.49359E-06
 -1       626 3.91522E-05 5.38884E-05-5.49359E-06
 -1       627 3.02402E-05 5.93497E-05-5.49359E-06
 -1       628 2.05835E-05 6.33496E-05-5.49359E-06
 -1       629 1.04201E-05 6.57897E-05-5.49359E-06
 -1       630 6.50442E-05 1.03020E-05-5.49359E-06
 -1       631 6.26318E-05 2.03503E-05-5.49359E-06
 -1       632 5.86772E-05 2.98975E-05-5.49359E-06
 -1       633 5.32778E-05 3.87086E-05-5.49359E-06
 -1       634 4.65665E-05 4.65665E-05-5.49359E-06
 -1       635 3.87086E-05 5.32778E-05-5.49359E-06
 -1       636 2.98975E-05 5.86772E-05-5.49359E-06
 -1       637 2.03503E-05 6.26318E-05-5.49359E-06
 -1       638 1.03020E-05 6.50442E-05-5.49359E-06
 -1       639 6.43696E-05 1.01951E-05-5.49359E-06
 -1       640 6.19822E-05 2.01392E-05-5.49359E-06
 -1       641 5.80686E-05 2.95875E-05-5.49359E-06
 -1       642 5.27252E-05 3.83071E-05-5.49359E-06
 -1       643 4.60835E-05 4.60835E-05-5.49359E-06
 -1       644 3.83071E-05 5.27252E-05-5.49359E-06
 -1       645 2.95875E-05 5.80686E-05-5.49359E-06
 -1       646 2.01392E-05 6.19822E-05-5.49359E-06
 -1       647 1.01951E-05 6.43696E-05-5.49359E-06
 -1       648 6.37556E-05 1.00979E-05-5.49359E-06
 -1       649 6.13910E-05 1.99471E-05-5.49359E-06
 -1       650 5.75147E-05 2.93052E-05-5.49359E-06
 -1       651 5.22223E-05 3.79417E-05-5.49359E-06
 -1       652 4.56439E-05 4.56439E-05-5.49359E-06
 -1       653 3.79417E-05 5.22223E-05-5.49359E-06
 -1       654 2.93052E-05 5.75147E-05-5.49359E-06
 -1       655 1.99471E-05 6.13910E-05-5.49359E-06
 -1       656 1.00979E-05 6.37556E-05-5.49359E-06
 -1       657 6.32166E-05 1.00125E-05-5.49358E-06
 -1       658 6.08720E-05 1.97785E-05-5.49358E-06
 -1       659 5.70285E-05 2.90575E-05-5.49358E-06
 -1       660 5.17808E-05 3.76210E-05-5.49358E-06
 -1       661 4.52581E-05 4.52581E-05-5.49358E-06
 -1       662 3.76210E-05 5.17808E-05-5.49358E-06
 -1       663 2.90575E-05 5.70285E-05-5.49358E-06
 -1       664 1.97785E-05 6.08720E-05-5.49358E-06
 -1       665 1.00125E-05 6.32166E-05-5.49358E-06
 -1       666 1.56149E-04 1.22892E-05-5.49359E-06
 -1       667 1.61037E-04 2.55057E-05-5.49354E-06
 -1       669 1.52304E-04 3.65649E-05-5.49359E-06
 -1       670 1.55064E-04 5.03834E-05-5.49354E-06
 -1       672 1.44709E-04 5.99403E-05-5.49359E-06
 -1       673 1.45273E-04 7.40204E-05-5.49354E-06
 -1       675 1.33550E-04 8.18398E-05-5.49359E-06
 -1       676 1.31905E-04 9.58348E-05-5.49354E-06
 -1       678 1.19104E-04 1.01724E-04-5.49359E-06
 -1       679 1.15289E-04 1.15289E-04-5.49354E-06
 -1       681 1.01724E-04 1.19104E-04-5.49359E-06
 -1       682 9.58348E-05 1.31905E-04-5.49354E-06
 -1       684 8.18398E-05 1.33550E-04-5.49359E-06
 -1       685 7.40204E-05 1.45273E-04-5.49354E-06
 -1       687 5.99403E-05 1.44709E-04-5.49359E-06
 -1       688 5.03834E-05 1.55064E-04-5.49354E-06
 -1       690 3.65649E-05 1.52304E-04-5.49359E-06
 -1       691 2.55057E-05 1.61037E-04-5.49354E-06
 -1       693 1.22892E-05 1.56149E-04-5.49359E-06
 -1       695 1.44189E-04 1.13479E-05-5.49358E-06
 -1       696 1.48086E-04 2.34545E-05-5.49362E-06
 -1       698 1.40639E-04 3.37644E-05-5.49358E-06
 -1       699 1.42593E-04 4.63314E-05-5.49362E-06
 -1       701 1.33625E-04 5.53495E-05-5.49358E-06
 -1       702 1.33590E-04 6.80675E-05-5.49362E-06
 -1       704 1.23322E-04 7.55717E-05-5.49358E-06
 -1       705 1.21297E-04 8.81276E-05-5.49362E-06
 -1       707 1.09981E-04 9.39330E-05-5.49358E-06
 -1       708 1.06018E-04 1.06018E-04-5.49362E-06
 -1       710 9.39330E-05 1.09981E-04-5.49358E-06
 -1       711 8.81276E-05 1.21297E-04-5.49362E-06
 -1       713 7.55717E-05 1.23322E-04-5.49358E-06
 -1       714 6.80675E-05 1.33590E-04-5.49362E-06
 -1       716 5.53495E-05 1.33625E-04-5.49358E-06
 -1       717 4.63314E-05 1.42593E-04-5.49362E-06
 -1       719 3.37644E-05 1.40639E-04-5.49358E-06
 -1       720 2.34545E-05 1.48086E-04-5.49362E-06
 -1       722 1.13479E-05 1.44189E-04-5.49358E-06
 -1       724 1.34161E-04 1.05587E-05-5.49359E-06
 -1       725 1.37296E-04 2.17456E-05-5.49357E-06
 -1       727 1.30858E-04 3.14161E-05-5.49359E-06
 -1       728 1.32204E-04 4.29557E-05-5.49357E-06
 -1       730 1.24332E-04 5.15000E-05-5.49359E-06
 -1       731 1.23857E-04 6.31082E-05-5.49357E-06
 -1       733 1.14745E-04 7.03158E-05-5.49359E-06
 -1       734 1.12460E-04 8.17067E-05-5.49357E-06
 -1       736 1.02332E-04 8.74001E-05-5.49359E-06
 -1       737 9.82933E-05 9.82933E-05-5.49357E-06
 -1       739 8.74001E-05 1.02332E-04-5.49359E-06
 -1       740 8.17067E-05 1.12460E-04-5.49357E-06
 -1       742 7.03158E-05 1.14745E-04-5.49359E-06
 -1       743 6.31082E-05 1.23857E-04-5.49357E-06
 -1       745 5.15000E-05 1.24332E-04-5.49359E-06
 -1       746 4.29557E-05 1.32204E-04-5.49357E-06
 -1       748 3.14161E-05 1.30858E-04-5.49359E-06
 -1       749 2.17456E-05 1.37296E-04-5.49357E-06
 -1       751 1.05587E-05 1.34161E-04-5.49359E-06
 -1       753 1.25643E-04 9.88829E-06-5.49358E-06
 -1       754 1.28182E-04 2.03020E-05-5.49359E-06
 -1       756 1.22549E-04 2.94214E-05-5.49358E-06
 -1       757 1.23428E-04 4.01041E-05-5.49359E-06
 -1       759 1.16438E-04 4.82300E-05-5.49358E-06
 -1       760 1.15635E-04 5.89188E-05-5.49359E-06
 -1       762 1.07459E-04 6.58511E-05-5.49358E-06
 -1       763 1.04994E-04 7.62826E-05-5.49359E-06
 -1       765 9.58349E-05 8.18507E-05-5.49358E-06
 -1       766 9.17681E-05 9.17681E-05-5.49359E-06
 -1       768 8.18507E-05 9.58349E-05-5.49358E-06
 -1       769 7.62826E-05 1.04994E-04-5.49359E-06
 -1       771 6.58511E-05 1.07459E-04-5.49358E-06
 -1       772 5.89188E-05 1.15635E-04-5.49359E-06
 -1       774 4.82300E-05 1.16438E-04-5.49358E-06
 -1       775 4.01041E-05 1.23428E-04-5.49359E-06
 -1       777 2.94214E-05 1.22549E-04-5.49358E-06
 -1       778 2.03020E-05 1.28182E-04-5.49359E-06
 -1       780 9.88829E-06 1.25643E-04-5.49358E-06
 -1       782 1.18334E-04 9.31310E-06-5.49359E-06
 -1       783 1.20402E-04 1.90698E-05-5.49358E-06
 -1       785 1.15420E-04 2.77100E-05-5.49359E-06
 -1       786 1.15936E-04 3.76700E-05-5.49358E-06
 -1       788 1.09665E-04 4.54245E-05-5.49359E-06
 -1       789 1.08616E-04 5.53426E-05-5.49358E-06
 -1       791 1.01208E-04 6.20206E-05-5.49359E-06
 -1       792 9.86212E-05 7.16525E-05-5.49358E-06
 -1       794 9.02602E-05 7.70895E-05-5.49359E-06
 -1       795 8.61981E-05 8.61981E-05-5.49358E-06
 -1       797 7.70895E-05 9.02602E-05-5.49359E-06
 -1       798 7.16525E-05 9.86212E-05-5.49358E-06
 -1       800 6.20206E-05 1.01208E-04-5.49359E-06
 -1       801 5.53426E-05 1.08616E-04-5.49358E-06
 -1       803 4.54245E-05 1.09665E-04-5.49359E-06
 -1       804 3.76700E-05 1.15936E-04-5.49358E-06
 -1       806 2.77100E-05 1.15420E-04-5.49359E-06
 -1       807 1.90698E-05 1.20402E-04-5.49358E-06
 -1       809 9.31310E-06 1.18334E-04-5.49359E-06
 -1       811 1.12008E-04 8.81522E-06-5.49359E-06
 -1       812 1.13696E-04 1.80077E-05-5.49359E-06
 -1       814 1.09250E-04 2.62286E-05-5.49359E-06
 -1       815 1.09479E-04 3.55719E-05-5.49359E-06
 -1       817 1.03802E-04 4.29961E-05-5.49359E-06
 -1       818 1.02567E-04 5.22602E-05-5.49359E-06
 -1       820 9.57978E-05 5.87050E-05-5.49359E-06
 -1       821 9.31284E-05 6.76618E-05-5.49359E-06
 -1       823 8.54349E-05 7.29683E-05-5.49359E-06
 -1       824 8.13972E-05 8.13972E-05-5.49359E-06
 -1       826 7.29683E-05 8.54349E-05-5.49359E-06
 -1       827 6.76618E-05 9.31284E-05-5.49359E-06
 -1       829 5.87050E-05 9.57978E-05-5.49359E-06
 -1       830 5.22602E-05 1.02567E-04-5.49359E-06
 -1       832 4.29961E-05 1.03802E-04-5.49359E-06
 -1       833 3.55719E-05 1.09479E-04-5.49359E-06
 -1       835 2.62286E-05 1.09250E-04-5.49359E-06
 -1       836 1.80077E-05 1.13696E-04-5.49359E-06
 -1       838 8.81522E-06 1.12008E-04-5.49359E-06
 -1       840 1.06491E-04 8.38103E-06-5.49359E-06
 -1       841 1.07869E-04 1.70848E-05-5.49359E-06
 -1       843 1.03869E-04 2.49367E-05-5.49359E-06
 -1       844 1.03869E-04 3.37490E-05-5.49359E-06
 -1       846 9.86892E-05 4.08784E-05-5.49359E-06
 -1       847 9.73104E-05 4.95821E-05-5.49359E-06
 -1       849 9.10793E-05 5.58135E-05-5.49359E-06
 -1       850 8.83560E-05 6.41944E-05-5.49359E-06
 -1       852 8.12268E-05 6.93743E-05-5.49359E-06
 -1       853 7.72260E-05 7.72260E-05-5.49359E-06
 -1       855 6.93743E-05 8.12268E-05-5.49359E-06
 -1       856 6.41944E-05 8.83560E-05-5.49359E-06
 -1       858 5.58135E-05 9.10793E-05-5.49359E-06
 -1       859 4.95821E-05 9.73104E-05-5.49359E-06
 -1       861 4.08784E-05 9.86892E-05-5.49359E-06
 -1       862 3.37490E-05 1.03869E-04-5.49359E-06
 -1       864 2.49367E-05 1.03869E-04-5.49359E-06
 -1       865 1.70848E-05 1.07869E-04-5.49359E-06
 -1       867 8.38103E-06 1.06491E-04-5.49359E-06
 -1       869 1.01649E-04 7.99991E-06-5.49359E-06
 -1       870 1.02772E-04 1.62774E-05-5.49359E-06
 -1       872 9.91456E-05 2.38028E-05-5.49359E-06
 -1       873 9.89599E-05 3.21540E-05-5.49359E-06
 -1       875 9.42014E-05 3.90195E-05-5.49359E-06
 -1       876 9.27115E-05 4.72389E-05-5.49359E-06
 -1       878 8.69376E-05 5.32754E-05-5.49359E-06
 -1       879 8.41803E-05 6.11606E-05-5.49359E-06
 -1       881 7.75332E-05 6.62196E-05-5.49359E-06
 -1       882 7.35763E-05 7.35763E-05-5.49359E-06
 -1       884 6.62196E-05 7.75332E-05-5.49359E-06
 -1       885 6.11606E-05 8.41803E-05-5.49359E-06
 -1       887 5.32754E-05 8.69376E-05-5.49359E-06
 -1       888 4.72389E-05 9.27115E-05-5.49359E-06
 -1       890 3.90195E-05 9.42014E-05-5.49359E-06
 -1       891 3.21540E-05 9.89599E-05-5.49359E-06
 -1       893 2.38028E-05 9.91456E-05-5.49359E-06
 -1       894 1.62774E-05 1.02772E-04-5.49359E-06
 -1       896 7.99991E-06 1.01649E-04-5.49359E-06
 -1       898 9.73738E-05 7.66349E-06-5.49359E-06
 -1       899 9.82841E-05 1.55667E-05-5.49359E-06
 -1       901 9.49762E-05 2.28018E-05-5.49359E-06
 -1       902 9.46389E-05 3.07500E-05-5.49359E-06
 -1       904 9.02399E-05 3.73786E-05-5.49359E-06
 -1       905 8.86634E-05 4.51762E-05-5.49359E-06
 -1       907 8.32816E-05 5.10350E-05-5.49359E-06
 -1       908 8.05046E-05 5.84900E-05-5.49359E-06
 -1       910 7.42726E-05 6.34348E-05-5.49359E-06
 -1       911 7.03636E-05 7.03636E-05-5.49359E-06
 -1       913 6.34348E-05 7.42726E-05-5.49359E-06
 -1       914 5.84900E-05 8.05046E-05-5.49359E-06
 -1       916 5.10350E-05 8.32816E-05-5.49359E-06
 -1       917 4.51762E-05 8.86634E-05-5.49359E-06
 -1       919 3.73786E-05 9.02399E-05-5.49359E-06
 -1       920 3.07500E-05 9.46389E-05-5.49359E-06
 -1       922 2.28018E-05 9.49762E-05-5.49359E-06
 -1       923 1.55667E-05 9.82841E-05-5.49359E-06
 -1       925 7.66349E-06 9.73738E-05-5.49359E-06
 -1       927 9.35818E-05 7.36505E-06-5.49359E-06
 -1       928 9.43132E-05 1.49377E-05-5.49359E-06
 -1       930 9.12775E-05 2.19138E-05-5.49359E-06
 -1       931 9.08152E-05 2.95077E-05-5.49359E-06
 -1       933 8.67257E-05 3.59229E-05-5.49359E-06
 -1       934 8.50811E-05 4.33510E-05-5.49359E-06
 -1       936 8.00383E-05 4.90476E-05-5.49359E-06
 -1       937 7.72521E-05 5.61269E-05-5.49359E-06
 -1       939 7.13802E-05 6.09644E-05-5.49359E-06
 -1       940 6.75208E-05 6.75208E-05-5.49359E-06
 -1       942 6.09644E-05 7.13802E-05-5.49359E-06
 -1       943 5.61269E-05 7.72521E-05-5.49359E-06
 -1       945 4.90476E-05 8.00383E-05-5.49359E-06
 -1       946 4.33510E-05 8.50811E-05-5.49359E-06
 -1       948 3.59229E-05 8.67257E-05-5.49359E-06
 -1       949 2.95077E-05 9.08152E-05-5.49359E-06
 -1       951 2.19138E-05 9.12775E-05-5.49359E-06
 -1       952 1.49377E-05 9.43132E-05-5.49359E-06
 -1       954 7.36505E-06 9.35818E-05-5.49359E-06
 -1       956 9.02035E-05 7.09917E-06-5.49359E-06
 -1       957 9.07832E-05 1.43786E-05-5.49359E-06
 -1       959 8.79824E-05 2.11227E-05-5.49359E-06
 -1       960 8.74162E-05 2.84032E-05-5.49359E-06
 -1       962 8.35949E-05 3.46261E-05-5.49359E-06
 -1       963 8.18967E-05 4.17285E-05-5.49359E-06
 -1       965 7.71490E-05 4.72769E-05-5.49359E-06
 -1       966 7.43607E-05 5.40262E-05-5.49359E-06
 -1       968 6.88034E-05 5.87636E-05-5.49359E-06
 -1       969 6.49936E-05 6.49936E-05-5.49359E-06
 -1       971 5.87636E-05 6.88034E-05-5.49359E-06
 -1       972 5.40262E-05 7.43607E-05-5.49359E-06
 -1       974 4.72769E-05 7.71490E-05-5.49359E-06
 -1       975 4.17285E-05 8.18967E-05-5.49359E-06
 -1       977 3.46261E-05 8.35949E-05-5.49359E-06
 -1       978 2.84032E-05 8.74162E-05-5.49359E-06
 -1       980 2.11227E-05 8.79824E-05-5.49359E-06
 -1       981 1.43786E-05 9.07832E-05-5.49359E-06
 -1       983 7.09917E-06 9.02035E-05-5.49359E-06
 -1       985 8.71825E-05 6.86141E-06-5.49359E-06
 -1       986 8.76326E-05 1.38796E-05-5.49359E-06
 -1       988 8.50358E-05 2.04153E-05-5.49359E-06
 -1       989 8.43825E-05 2.74175E-05-5.49359E-06
 -1       991 8.07952E-05 3.34665E-05-5.49359E-06
 -1       992 7.90546E-05 4.02803E-05-5.49359E-06
 -1       994 7.45652E-05 4.56936E-05-5.49359E-06
 -1       995 7.17800E-05 5.21512E-05-5.49359E-06
 -1       997 6.64991E-05 5.67956E-05-5.49359E-06
 -1       998 6.27380E-05 6.27380E-05-5.49359E-06
 -1      1000 5.67956E-05 6.64991E-05-5.49359E-06
 -1      1001 5.21512E-05 7.17800E-05-5.49359E-06
 -1      1003 4.56936E-05 7.45652E-05-5.49359E-06
 -1      1004 4.02803E-05 7.90546E-05-5.49359E-06
 -1      1006 3.34665E-05 8.07952E-05-5.49359E-06
 -1      1007 2.74175E-05 8.43825E-05-5.49359E-06
 -1      1009 2.04153E-05 8.50358E-05-5.49359E-06
 -1      1010 1.38796E-05 8.76326E-05-5.49359E-06
 -1      1012 6.86141E-06 8.71825E-05-5.49359E-06
 -1      1014 8.44723E-05 6.64811E-06-5.49359E-06
 -1      1015 8.48109E-05 1.34327E-05-5.49359E-06
 -1      1017 8.23923E-05 1.97806E-05-5.49359E-06
 -1      1018 8.16654E-05 2.65347E-05-5.49359E-06
 -1      1020 7.82835E-05 3.24261E-05-5.49359E-06
 -1      1021 7.65090E-05 3.89833E-05-5.49359E-06
 -1      1023 7.22471E-05 4.42731E-05-5.49359E-06
 -1      1024 6.94687E-05 5.04720E-05-5.49359E-06
 -1      1026 6.44318E-05 5.50300E-05-5.49359E-06
 -1      1027 6.07179E-05 6.07179E-05-5.49359E-06
 -1      1029 5.50300E-05 6.44318E-05-5.49359E-06
 -1      1030 5.04720E-05 6.94687E-05-5.49359E-06
 -1      1032 4.42731E-05 7.22471E-05-5.49359E-06
 -1      1033 3.89833E-05 7.65090E-05-5.49359E-06
 -1      1035 3.24261E-05 7.82835E-05-5.49359E-06
 -1      1036 2.65347E-05 8.16654E-05-5.49359E-06
 -1      1038 1.97806E-05 8.23923E-05-5.49359E-06
 -1      1039 1.34327E-05 8.48109E-05-5.49359E-06
 -1      1041 6.64811E-06 8.44723E-05-5.49359E-06
 -1      1043 8.20338E-05 6.45620E-06-5.49359E-06
 -1      1044 8.22760E-05 1.30312E-05-5.49359E-06
 -1      1046 8.00139E-05 1.92096E-05-5.49359E-06
 -1      1047 7.92245E-05 2.57416E-05-5.49359E-06
 -1      1049 7.60237E-05 3.14901E-05-5.49359E-06
 -1      1050 7.42223E-05 3.78181E-05-5.49359E-06
 -1      1052 7.01616E-05 4.29951E-05-5.49359E-06
 -1      1053 6.73924E-05 4.89635E-05-5.49359E-06
 -1      1055 6.25719E-05 5.34415E-05-5.49359E-06
 -1      1056 5.89031E-05 5.89031E-05-5.49359E-06
 -1      1058 5.34415E-05 6.25719E-05-5.49359E-06
 -1      1059 4.89635E-05 6.73924E-05-5.49359E-06
 -1      1061 4.29951E-05 7.01616E-05-5.49359E-06
 -1      1062 3.78181E-05 7.42223E-05-5.49359E-06
 -1      1064 3.14901E-05 7.60237E-05-5.49359E-06
 -1      1065 2.57416E-05 7.92245E-05-5.49359E-06
 -1      1067 1.92096E-05 8.00139E-05-5.49359E-06
 -1      1068 1.30312E-05 8.22760E-05-5.49359E-06
 -1      1070 6.45620E-06 8.20338E-05-5.49359E-06
 -1      1072 7.98347E-05 6.28313E-06-5.49359E-06
 -1      1073 7.99929E-05 1.26696E-05-5.49359E-06
 -1      1075 7.78689E-05 1.86947E-05-5.49359E-06
 -1      1076 7.70260E-05 2.50273E-05-5.49359E-06
 -1      1078 7.39857E-05 3.06459E-05-5.49359E-06
 -1      1079 7.21626E-05 3.67687E-05-5.49359E-06
 -1      1081 6.82807E-05 4.18425E-05-5.49359E-06
 -1      1082 6.55223E-05 4.76047E-05-5.49359E-06
 -1      1084 6.08945E-05 5.20088E-05-5.49359E-06
 -1      1085 5.72686E-05 5.72686E-05-5.49359E-06
 -1      1087 5.20088E-05 6.08945E-05-5.49359E-06
 -1      1088 4.76047E-05 6.55223E-05-5.49359E-06
 -1      1090 4.18425E-05 6.82807E-05-5.49359E-06
 -1      1091 3.67687E-05 7.21626E-05-5.49359E-06
 -1      1093 3.06459E-05 7.39857E-05-5.49359E-06
 -1      1094 2.50273E-05 7.70260E-05-5.49359E-06
 -1      1096 1.86947E-05 7.78689E-05-5.49359E-06
 -1      1097 1.26696E-05 7.99929E-05-5.49359E-06
 -1      1099 6.28313E-06 7.98347E-05-5.49359E-06
 -1      1101 7.78472E-05 6.12670E-06-5.49359E-06
 -1      1102 7.79318E-05 1.23432E-05-5.49359E-06
 -1      1104 7.59303E-05 1.82293E-05-5.49359E-06
 -1      1105 7.50414E-05 2.43824E-05-5.49359E-06
 -1      1107 7.21438E-05 2.98829E-05-5.49359E-06
 -1      1108 7.03033E-05 3.58213E-05-5.49359E-06
 -1      1110 6.65809E-05 4.08008E-05-5.49359E-06
 -1      1111 6.38340E-05 4.63782E-05-5.49359E-06
 -1      1113 5.93785E-05 5.07140E-05-5.49359E-06
 -1      1114 5.57930E-05 5.57930E-05-5.49359E-06
 -1      1116 5.07140E-05 5.93785E-05-5.49359E-06
 -1      1117 4.63782E-05 6.38340E-05-5.49359E-06
 -1      1119 4.08008E-05 6.65809E-05-5.49359E-06
 -1      1120 3.58213E-05 7.03033E-05-5.49359E-06
 -1      1122 2.98829E-05 7.21438E-05-5.49359E-06
 -1      1123 2.43824E-05 7.50414E-05-5.49359E-06
 -1      1125 1.82293E-05 7.59303E-05-5.49359E-06
 -1      1126 1.23432E-05 7.79318E-05-5.49359E-06
 -1      1128 6.12670E-06 7.78472E-05-5.49359E-06
 -1      1130 7.60477E-05 5.98509E-06-5.49359E-06
 -1      1131 7.60677E-05 1.20479E-05-5.49359E-06
 -1      1133 7.41752E-05 1.78079E-05-5.49359E-06
 -1      1134 7.32465E-05 2.37992E-05-5.49359E-06
 -1      1136 7.04762E-05 2.91922E-05-5.49359E-06
 -1      1137 6.86217E-05 3.49645E-05-5.49359E-06
 -1      1139 6.50419E-05 3.98577E-05-5.49359E-06
 -1      1140 6.23072E-05 4.52688E-05-5.49359E-06
 -1      1142 5.80060E-05 4.95418E-05-5.49359E-06
 -1      1143 5.44585E-05 5.44585E-05-5.49359E-06
 -1      1145 4.95418E-05 5.80060E-05-5.49359E-06
 -1      1146 4.52688E-05 6.23072E-05-5.49359E-06
 -1      1148 3.98577E-05 6.50419E-05-5.49359E-06
 -1      1149 3.49645E-05 6.86217E-05-5.49359E-06
 -1      1151 2.91922E-05 7.04762E-05-5.49359E-06
 -1      1152 2.37992E-05 7.32465E-05-5.49359E-06
 -1      1154 1.78079E-05 7.41752E-05-5.49359E-06
 -1      1155 1.20479E-05 7.60677E-05-5.49359E-06
 -1      1157 5.98509E-06 7.60477E-05-5.49359E-06
 -1      1159 7.44163E-05 5.85669E-06-5.49359E-06
 -1      1160 7.43791E-05 1.17805E-05-5.49359E-06
 -1      1162 7.25839E-05 1.74259E-05-5.49359E-06
 -1      1163 7.16205E-05 2.32709E-05-5.49359E-06
 -1      1165 6.89643E-05 2.85659E-05-5.49359E-06
 -1      1166 6.70983E-05 3.41883E-05-5.49359E-06
 -1      1168 6.36465E-05 3.90026E-05-5.49359E-06
 -1      1169 6.09240E-05 4.42639E-05-5.49359E-06
 -1      1171 5.67616E-05 4.84790E-05-5.49359E-06
 -1      1172 5.32495E-05 5.32495E-05-5.49359E-06
 -1      1174 4.84790E-05 5.67616E-05-5.49359E-06
 -1      1175 4.42639E-05 6.09240E-05-5.49359E-06
 -1      1177 3.90026E-05 6.36465E-05-5.49359E-06
 -1      1178 3.41883E-05 6.70983E-05-5.49359E-06
 -1      1180 2.85659E-05 6.89643E-05-5.49359E-06
 -1      1181 2.32709E-05 7.16205E-05-5.49359E-06
 -1      1183 1.74259E-05 7.25839E-05-5.49359E-06
 -1      1184 1.17805E-05 7.43791E-05-5.49359E-06
 -1      1186 5.85669E-06 7.44163E-05-5.49359E-06
 -1      1188 7.29355E-05 5.74015E-06-5.49359E-06
 -1      1189 7.28475E-05 1.15379E-05-5.49359E-06
 -1      1191 7.11395E-05 1.70791E-05-5.49359E-06
 -1      1192 7.01457E-05 2.27917E-05-5.49359E-06
 -1      1194 6.75919E-05 2.79975E-05-5.49359E-06
 -1      1195 6.57167E-05 3.34843E-05-5.49359E-06
 -1      1197 6.23800E-05 3.82265E-05-5.49359E-06
 -1      1198 5.96695E-05 4.33524E-05-5.49359E-06
 -1      1200 5.56321E-05 4.75143E-05-5.49359E-06
 -1      1201 5.21530E-05 5.21530E-05-5.49359E-06
 -1      1203 4.75143E-05 5.56321E-05-5.49359E-06
 -1      1204 4.33524E-05 5.96695E-05-5.49359E-06
 -1      1206 3.82265E-05 6.23800E-05-5.49359E-06
 -1      1207 3.34843E-05 6.57167E-05-5.49359E-06
 -1      1209 2.79975E-05 6.75919E-05-5.49359E-06
 -1      1210 2.27917E-05 7.01457E-05-5.49359E-06
 -1      1212 1.70791E-05 7.11396E-05-5.49359E-06
 -1      1213 1.15379E-05 7.28475E-05-5.49359E-06
 -1      1215 5.74015E-06 7.29355E-05-5.49359E-06
 -1      1217 7.15901E-05 5.63427E-06-5.49359E-06
 -1      1218 7.14569E-05 1.13177E-05-5.49359E-06
 -1      1220 6.98274E-05 1.67641E-05-5.49359E-06
 -1      1221 6.88067E-05 2.23566E-05-5.49359E-06
 -1      1223 6.63452E-05 2.74811E-05-5.49359E-06
 -1      1224 6.44622E-05 3.28451E-05-5.49359E-06
 -1      1226 6.12294E-05 3.75214E-05-5.49359E-06
 -1      1227 5.85304E-05 4.25249E-05-5.49359E-06
 -1      1229 5.46059E-05 4.66379E-05-5.49359E-06
 -1      1230 5.11575E-05 5.11575E-05-5.49359E-06
 -1      1232 4.66379E-05 5.46059E-05-5.49359E-06
 -1      1233 4.25249E-05 5.85305E-05-5.49359E-06
 -1      1235 3.75214E-05 6.12294E-05-5.49359E-06
 -1      1236 3.28451E-05 6.44622E-05-5.49359E-06
 -1      1238 2.74811E-05 6.63452E-05-5.49359E-06
 -1      1239 2.23566E-05 6.88067E-05-5.49359E-06
 -1      1241 1.67641E-05 6.98274E-05-5.49359E-06
 -1      1242 1.13177E-05 7.14569E-05-5.49359E-06
 -1      1244 5.63427E-06 7.15901E-05-5.49359E-06
 -1      1246 7.03673E-05 5.53802E-06-5.49359E-06
 -1      1247 7.01935E-05 1.11176E-05-5.49359E-06
 -1      1249 6.86346E-05 1.64777E-05-5.49359E-06
 -1      1250 6.75901E-05 2.19614E-05-5.49359E-06
 -1      1252 6.52119E-05 2.70116E-05-5.49359E-06
 -1      1253 6.33225E-05 3.22644E-05-5.49359E-06
 -1      1255 6.01835E-05 3.68805E-05-5.49359E-06
 -1      1256 5.74956E-05 4.17730E-05-5.49359E-06
 -1      1258 5.36731E-05 4.58412E-05-5.49359E-06
 -1      1259 5.02530E-05 5.02530E-05-5.49359E-06
 -1      1261 4.58412E-05 5.36731E-05-5.49359E-06
 -1      1262 4.17730E-05 5.74956E-05-5.49359E-06
 -1      1264 3.68805E-05 6.01835E-05-5.49359E-06
 -1      1265 3.22644E-05 6.33225E-05-5.49359E-06
 -1      1267 2.70116E-05 6.52119E-05-5.49359E-06
 -1      1268 2.19614E-05 6.75901E-05-5.49359E-06
 -1      1270 1.64777E-05 6.86346E-05-5.49359E-06
 -1      1271 1.11176E-05 7.01935E-05-5.49359E-06
 -1      1273 5.53802E-06 7.03673E-05-5.49359E-06
 -1      1275 6.92553E-05 5.45051E-06-5.49359E-06
 -1      1276 6.90451E-05 1.09357E-05-5.49359E-06
 -1      1278 6.75500E-05 1.62173E-05-5.49359E-06
 -1      1279 6.64844E-05 2.16021E-05-5.49359E-06
 -1      1281 6.41814E-05 2.65848E-05-5.49359E-06
 -1      1282 6.22865E-05 3.17366E-05-5.49359E-06
 -1      1284 5.92324E-05 3.62977E-05-5.49359E-06
 -1      1285 5.65550E-05 4.10896E-05-5.49359E-06
 -1      1287 5.28250E-05 4.51168E-05-5.49359E-06
 -1      1288 4.94309E-05 4.94309E-05-5.49359E-06
 -1      1290 4.51168E-05 5.28250E-05-5.49359E-06
 -1      1291 4.10896E-05 5.65550E-05-5.49359E-06
 -1      1293 3.62977E-05 5.92324E-05-5.49359E-06
 -1      1294 3.17366E-05 6.22865E-05-5.49359E-06
 -1      1296 2.65848E-05 6.41814E-05-5.49359E-06
 -1      1297 2.16021E-05 6.64844E-05-5.49359E-06
 -1      1299 1.62173E-05 6.75500E-05-5.49359E-06
 -1      1300 1.09357E-05 6.90451E-05-5.49359E-06
 -1      1302 5.45051E-06 6.92553E-05-5.49359E-06
 -1      1304 6.82442E-05 5.37093E-06-5.49359E-06
 -1      1305 6.80012E-05 1.07703E-05-5.49359E-06
 -1      1307 6.65638E-05 1.59806E-05-5.49359E-06
 -1      1308 6.54792E-05 2.12755E-05-5.49359E-06
 -1      1310 6.32444E-05 2.61967E-05-5.49359E-06
 -1      1311 6.13448E-05 3.12567E-05-5.49359E-06
 -1      1313 5.83677E-05 3.57677E-05-5.49359E-06
 -1      1314 5.56999E-05 4.04683E-05-5.49359E-06
 -1      1316 5.20538E-05 4.44581E-05-5.49359E-06
 -1      1317 4.86835E-05 4.86835E-05-5.49359E-06
 -1      1319 4.44581E-05 5.20538E-05-5.49359E-06
 -1      1320 4.04683E-05 5.56999E-05-5.49359E-06
 -1      1322 3.57677E-05 5.83677E-05-5.49359E-06
 -1      1323 3.12567E-05 6.13448E-05-5.49359E-06
 -1      1325 2.61967E-05 6.32444E-05-5.49359E-06
 -1      1326 2.12755E-05 6.54792E-05-5.49359E-06
 -1      1328 1.59806E-05 6.65638E-05-5.49359E-06
 -1      1329 1.07703E-05 6.80012E-05-5.49359E-06
 -1      1331 5.37093E-06 6.82442E-05-5.49359E-06
 -1      1333 6.73250E-05 5.29860E-06-5.49359E-06
 -1      1334 6.70524E-05 1.06201E-05-5.49359E-06
 -1      1336 6.56673E-05 1.57653E-05-5.49359E-06
 -1      1337 6.45655E-05 2.09786E-05-5.49359E-06
 -1      1339 6.23926E-05 2.58438E-05-5.49359E-06
 -1      1340 6.04888E-05 3.08206E-05-5.49359E-06
 -1      1342 5.75815E-05 3.52860E-05-5.49359E-06
 -1      1343 5.49227E-05 3.99037E-05-5.49359E-06
 -1      1345 5.13527E-05 4.38593E-05-5.49359E-06
 -1      1346 4.80042E-05 4.80042E-05-5.49359E-06
 -1      1348 4.38593E-05 5.13527E-05-5.49359E-06
 -1      1349 3.99037E-05 5.49227E-05-5.49359E-06
 -1      1351 3.52860E-05 5.75815E-05-5.49359E-06
 -1      1352 3.08206E-05 6.04888E-05-5.49359E-06
 -1      1354 2.58438E-05 6.23926E-05-5.49359E-06
 -1      1355 2.09786E-05 6.45655E-05-5.49359E-06
 -1      1357 1.57653E-05 6.56673E-05-5.49359E-06
 -1      1358 1.06201E-05 6.70524E-05-5.49359E-06
 -1      1360 5.29860E-06 6.73250E-05-5.49359E-06
 -1      1362 6.64899E-05 5.23287E-06-5.49359E-06
 -1      1363 6.61904E-05 1.04835E-05-5.49359E-06
 -1      1365 6.48527E-05 1.55698E-05-5.49359E-06
 -1      1366 6.37355E-05 2.07089E-05-5.49359E-06
 -1      1368 6.16187E-05 2.55233E-05-5.49359E-06
 -1      1369 5.97112E-05 3.04244E-05-5.49359E-06
 -1      1371 5.68673E-05 3.48483E-05-5.49359E-06
 -1      1372 5.42166E-05 3.93907E-05-5.49359E-06
 -1      1374 5.07157E-05 4.33153E-05-5.49359E-06
 -1      1375 4.73871E-05 4.73871E-05-5.49359E-06
 -1      1377 4.33153E-05 5.07157E-05-5.49359E-06
 -1      1378 3.93907E-05 5.42166E-05-5.49359E-06
 -1      1380 3.48483E-05 5.68673E-05-5.49359E-06
 -1      1381 3.04244E-05 5.97112E-05-5.49359E-06
 -1      1383 2.55233E-05 6.16187E-05-5.49359E-06
 -1      1384 2.07089E-05 6.37355E-05-5.49359E-06
 -1      1386 1.55698E-05 6.48527E-05-5.49359E-06
 -1      1387 1.04835E-05 6.61904E-05-5.49359E-06
 -1      1389 5.23287E-06 6.64899E-05-5.49359E-06
 -1      1391 6.57320E-05 5.17322E-06-5.49359E-06
 -1      1392 6.54078E-05 1.03596E-05-5.49359E-06
 -1      1394 6.41135E-05 1.53923E-05-5.49359E-06
 -1      1395 6.29819E-05 2.04641E-05-5.49359E-06
 -1      1397 6.09163E-05 2.52323E-05-5.49359E-06
 -1      1398 5.90052E-05 3.00646E-05-5.49359E-06
 -1      1400 5.62191E-05 3.44511E-05-5.49359E-06
 -1      1401 5.35756E-05 3.89250E-05-5.49359E-06
 -1      1403 5.01376E-05 4.28215E-05-5.49359E-06
 -1      1404 4.68268E-05 4.68268E-05-5.49359E-06
 -1      1406 4.28215E-05 5.01376E-05-5.49359E-06
 -1      1407 3.89250E-05 5.35756E-05-5.49359E-06
 -1      1409 3.44511E-05 5.62191E-05-5.49359E-06
 -1      1410 3.00646E-05 5.90052E-05-5.49359E-06
 -1      1412 2.52323E-05 6.09163E-05-5.49359E-06
 -1      1413 2.04641E-05 6.29819E-05-5.49359E-06
 -1      1415 1.53923E-05 6.41135E-05-5.49359E-06
 -1      1416 1.03596E-05 6.54078E-05-5.49359E-06
 -1      1418 5.17322E-06 6.57320E-05-5.49359E-06
 -1      1420 6.50445E-05 5.11911E-06-5.49358E-06
 -1      1421 6.46985E-05 1.02472E-05-5.49358E-06
 -1      1423 6.34428E-05 1.52313E-05-5.49358E-06
 -1      1424 6.22989E-05 2.02421E-05-5.49358E-06
 -1      1426 6.02791E-05 2.49684E-05-5.49358E-06
 -1      1427 5.83653E-05 2.97386E-05-5.49358E-06
 -1      1429 5.56310E-05 3.40907E-05-5.49358E-06
 -1      1430 5.29946E-05 3.85028E-05-5.49358E-06
 -1      1432 4.96131E-05 4.23736E-05-5.49358E-06
 -1      1433 4.63190E-05 4.63190E-05-5.49358E-06
 -1      1435 4.23736E-05 4.96131E-05-5.49358E-06
 -1      1436 3.85028E-05 5.29946E-05-5.49358E-06
 -1      1438 3.40907E-05 5.56310E-05-5.49358E-06
 -1      1439 2.97386E-05 5.83653E-05-5.49358E-06
 -1      1441 2.49684E-05 6.02791E-05-5.49358E-06
 -1      1442 2.02421E-05 6.22989E-05-5.49358E-06
 -1      1444 1.52313E-05 6.34428E-05-5.49358E-06
 -1      1445 1.02472E-05 6.46985E-05-5.49358E-06
 -1      1447 5.11911E-06 6.50445E-05-5.49358E-06
 -1      1449 6.44240E-05 5.07028E-06-5.49359E-06
 -1      1450 6.40548E-05 1.01453E-05-5.49359E-06
 -1      1452 6.28377E-05 1.50860E-05-5.49359E-06
 -1      1453 6.16791E-05 2.00408E-05-5.49359E-06
 -1      1455 5.97041E-05 2.47303E-05-5.49359E-06
 -1      1456 5.77847E-05 2.94428E-05-5.49359E-06
 -1      1458 5.51004E-05 3.37656E-05-5.49359E-06
 -1      1459 5.24674E-05 3.81198E-05-5.49359E-06
 -1      1461 4.91399E-05 4.19695E-05-5.49359E-06
 -1      1462 4.58582E-05 4.58582E-05-5.49359E-06
 -1      1464 4.19695E-05 4.91399E-05-5.49359E-06
 -1      1465 3.81198E-05 5.24674E-05-5.49359E-06
 -1      1467 3.37656E-05 5.51004E-05-5.49359E-06
 -1      1468 2.94428E-05 5.77847E-05-5.49359E-06
 -1      1470 2.47303E-05 5.97041E-05-5.49359E-06
 -1      1471 2.00408E-05 6.16791E-05-5.49359E-06
 -1      1473 1.50860E-05 6.28377E-05-5.49359E-06
 -1      1474 1.01453E-05 6.40548E-05-5.49359E-06
 -1      1476 5.07028E-06 6.44240E-05-5.49359E-06
 -1      1478 6.38560E-05 5.02558E-06-5.49358E-06
 -1      1479 6.34789E-05 1.00541E-05-5.49357E-06
 -1      1481 6.22837E-05 1.49530E-05-5.49358E-06
 -1      1482 6.11246E-05 1.98606E-05-5.49357E-06
 -1      1484 5.91777E-05 2.45122E-05-5.49358E-06
 -1      1485 5.72651E-05 2.91780E-05-5.49357E-06
 -1      1487 5.46146E-05 3.34679E-05-5.49358E-06
 -1      1488 5.19957E-05 3.77771E-05-5.49357E-06
 -1      1490 4.87066E-05 4.15994E-05-5.49358E-06
 -1      1491 4.54459E-05 4.54459E-05-5.49357E-06
 -1      1493 4.15994E-05 4.87066E-05-5.49358E-06
 -1      1494 3.77771E-05 5.19957E-05-5.49357E-06
 -1      1496 3.34679E-05 5.46146E-05-5.49358E-06
 -1      1497 2.91780E-05 5.72651E-05-5.49357E-06
 -1      1499 2.45122E-05 5.91777E-05-5.49357E-06
 -1      1500 1.98606E-05 6.11246E-05-5.49358E-06
 -1      1502 1.49530E-05 6.22837E-05-5.49357E-06
 -1      1503 1.00541E-05 6.34789E-05-5.49357E-06
 -1      1505 5.02558E-06 6.38560E-05-5.49358E-06
 -1      1507 6.29608E-05 9.97201E-06-5.49359E-06
 -1      1509 6.06257E-05 1.96985E-05-5.49359E-06
 -1      1511 5.67978E-05 2.89399E-05-5.49359E-06
 -1      1513 5.15713E-05 3.74687E-05-5.49359E-06
 -1      1515 4.50750E-05 4.50750E-05-5.49359E-06
 -1      1517 3.74687E-05 5.15713E-05-5.49359E-06
 -1      1519 2.89399E-05 5.67978E-05-5.49359E-06
 -1      1521 1.96985E-05 6.06257E-05-5.49360E-06
 -1      1523 9.97201E-06 6.29608E-05-5.49359E-06
 -1      1526 1.56174E-04 0.00000E+00-5.66674E-06
 -1      1527 1.56174E-04 0.00000E+00-5.83990E-06
 -1      1528 1.56174E-04 0.00000E+00-6.01307E-06
 -1      1529 1.56174E-04 0.00000E+00-6.18623E-06
 -1      1530 1.56174E-04 0.00000E+00-6.35939E-06
 -1      1531 1.56174E-04 0.00000E+00-6.53255E-06
 -1      1532 1.56174E-04 0.00000E+00-6.70571E-06
 -1      1533 1.56174E-04 0.00000E+00-6.87887E-06
 -1      1534 1.56174E-04 0.00000E+00-7.05203E-06
 -1      1535 1.56174E-04 0.00000E+00-7.22519E-06
 -1      1536 1.44235E-04 0.00000E+00-5.66675E-06
 -1      1537 1.44235E-04 0.00000E+00-5.83991E-06
 -1      1538 1.44235E-04 0.00000E+00-6.01307E-06
 -1      1539 1.44235E-04 0.00000E+00-6.18623E-06
 -1      1540 1.44235E-04 0.00000E+00-6.35939E-06
 -1      1541 1.44235E-04 0.00000E+00-6.53255E-06
 -1      1542 1.44235E-04 0.00000E+00-6.70570E-06
 -1      1543 1.44235E-04 0.00000E+00-6.87886E-06
 -1      1544 1.44235E-04 0.00000E+00-7.05202E-06
 -1      1545 1.44235E-04 0.00000E+00-7.22519E-06
 -1      1546 1.34205E-04 0.00000E+00-5.66675E-06
 -1      1547 1.34205E-04 0.00000E+00-5.83990E-06
 -1      1548 1.34205E-04 0.00000E+00-6.01306E-06
 -1      1549 1.34205E-04 0.00000E+00-6.18623E-06
 -1      1550 1.34205E-04 0.00000E+00-6.35939E-06
 -1      1551 1.34205E-04 0.00000E+00-6.53255E-06
 -1      1552 1.34205E-04 0.00000E+00-6.70571E-06
 -1      1553 1.34205E-04 0.00000E+00-6.87887E-06
 -1      1554 1.34205E-04 0.00000E+00-7.05203E-06
 -1      1555 1.34205E-04 0.00000E+00-7.22519E-06
 -1      1556 1.25691E-04 0.00000E+00-5.66675E-06
 -1      1557 1.25691E-04 0.00000E+00-5.83991E-06
 -1      1558 1.25691E-04 0.00000E+00-6.01307E-06
 -1      1559 1.25691E-04 0.00000E+00-6.18623E-06
 -1      1560 1.25691E-04 0.00000E+00-6.35939E-06
 -1      1561 1.25691E-04 0.00000E+00-6.53255E-06
 -1      1562 1.25691E-04 0.00000E+00-6.70571E-06
 -1      1563 1.25691E-04 0.00000E+00-6.87887E-06
 -1      1564 1.25691E-04 0.00000E+00-7.05203E-06
 -1      1565 1.25691E-04 0.00000E+00-7.22519E-06
 -1      1566 1.18386E-04 0.00000E+00-5.66675E-06
 -1      1567 1.18386E-04 0.00000E+00-5.83991E-06
 -1      1568 1.18386E-04 0.00000E+00-6.01307E-06
 -1      1569 1.18386E-04 0.00000E+00-6.18623E-06
 -1      1570 1.18386E-04 0.00000E+00-6.35939E-06
 -1      1571 1.18386E-04 0.00000E+00-6.53255E-06
 -1      1572 1.18386E-04 0.00000E+00-6.70571E-06
 -1      1573 1.18386E-04 0.00000E+00-6.87887E-06
 -1      1574 1.18386E-04 0.00000E+00-7.05203E-06
 -1      1575 1.18386E-04 0.00000E+00-7.22519E-06
 -1      1576 1.12063E-04 0.00000E+00-5.66675E-06
 -1      1577 1.12063E-04 0.00000E+00-5.83991E-06
 -1      1578 1.12063E-04 0.00000E+00-6.01307E-06
 -1      1579 1.12063E-04 0.00000E+00-6.18623E-06
 -1      1580 1.12063E-04 0.00000E+00-6.35939E-06
 -1      1581 1.12063E-04 0.00000E+00-6.53255E-06
 -1      1582 1.12063E-04 0.00000E+00-6.70571E-06
 -1      1583 1.12063E-04 0.00000E+00-6.87887E-06
 -1      1584 1.12063E-04 0.00000E+00-7.05203E-06
 -1      1585 1.12063E-04 0.00000E+00-7.22519E-06
 -1      1586 1.06550E-04 0.00000E+00-5.66675E-06
 -1      1587 1.06550E-04 0.00000E+00-5.83991E-06
 -1      1588 1.06550E-04 0.00000E+00-6.01307E-06
 -1      1589 1.06550E-04 0.00000E+00-6.18623E-06
 -1      1590 1.06550E-04 0.00000E+00-6.35939E-06
 -1      1591 1.06550E-04 0.00000E+00-6.53255E-06
 -1      1592 1.06550E-04 0.00000E+00-6.70571E-06
 -1      1593 1.06550E-04 0.00000E+00-6.87887E-06
 -1      1594 1.06550E-04 0.00000E+00-7.05203E-06
 -1      1595 1.06550E-04 0.00000E+00-7.22519E-06
 -1      1596 1.01710E-04 0.00000E+00-5.66675E-06
 -1      1597 1.01710E-04 0.00000E+00-5.83991E-06
 -1      1598 1.01710E-04 0.00000E+00-6.01307E-06
 -1      1599 1.01710E-04 0.00000E+00-6.18623E-06
 -1      1600 1.01710E-04 0.00000E+00-6.35939E-06
 -1      1601 1.01710E-04 0.00000E+00-6.53255E-06
 -1      1602 1.01710E-04 0.00000E+00-6.70571E-06
 -1      1603 1.01710E-04 0.00000E+00-6.87887E-06
 -1      1604 1.01710E-04 0.00000E+00-7.05203E-06
 -1      1605 1.01710E-04 0.00000E+00-7.22519E-06
 -1      1606 9.74390E-05 0.00000E+00-5.66675E-06
 -1      1607 9.74390E-05 0.00000E+00-5.83991E-06
 -1      1608 9.74390E-05 0.00000E+00-6.01307E-06
 -1      1609 9.74390E-05 0.00000E+00-6.18623E-06
 -1      1610 9.74390E-05 0.00000E+00-6.35939E-06
 -1      1611 9.74390E-05 0.00000E+00-6.53255E-06
 -1      1612 9.74390E-05 0.00000E+00-6.70571E-06
 -1      1613 9.74390E-05 0.00000E+00-6.87887E-06
 -1      1614 9.74390E-05 0.00000E+00-7.05203E-06
 -1      1615 9.74390E-05 0.00000E+00-7.22519E-06
 -1      1616 9.36504E-05 0.00000E+00-5.66675E-06
 -1      1617 9.36504E-05 0.00000E+00-5.83991E-06
 -1      1618 9.36504E-05 0.00000E+00-6.01307E-06
 -1      1619 9.36504E-05 0.00000E+00-6.18623E-06
 -1      1620 9.36504E-05 0.00000E+00-6.35939E-06
 -1      1621 9.36504E-05 0.00000E+00-6.53255E-06
 -1      1622 9.36504E-05 0.00000E+00-6.70571E-06
 -1      1623 9.36504E-05 0.00000E+00-6.87887E-06
 -1      1624 9.36504E-05 0.00000E+00-7.05203E-06
 -1      1625 9.36504E-05 0.00000E+00-7.22519E-06
 -1      1626 9.02755E-05 0.00000E+00-5.66675E-06
 -1      1627 9.02755E-05 0.00000E+00-5.83991E-06
 -1      1628 9.02755E-05 0.00000E+00-6.01307E-06
 -1      1629 9.02755E-05 0.00000E+00-6.18623E-06
 -1      1630 9.02755E-05 0.00000E+00-6.35939E-06
 -1      1631 9.02755E-05 0.00000E+00-6.53255E-06
 -1      1632 9.02755E-05 0.00000E+00-6.70571E-06
 -1      1633 9.02755E-05 0.00000E+00-6.87887E-06
 -1      1634 9.02755E-05 0.00000E+00-7.05203E-06
 -1      1635 9.02755E-05 0.00000E+00-7.22519E-06
 -1      1636 8.72579E-05 0.00000E+00-5.66675E-06
 -1      1637 8.72579E-05 0.00000E+00-5.83991E-06
 -1      1638 8.72579E-05 0.00000E+00-6.01307E-06
 -1      1639 8.72579E-05 0.00000E+00-6.18623E-06
 -1      1640 8.72579E-05 0.00000E+00-6.35939E-06
 -1      1641 8.72579E-05 0.00000E+00-6.53255E-06
 -1      1642 8.72579E-05 0.00000E+00-6.70571E-06
 -1      1643 8.72579E-05 0.00000E+00-6.87887E-06
 -1      1644 8.72579E-05 0.00000E+00-7.05203E-06
 -1      1645 8.72579E-05 0.00000E+00-7.22519E-06
 -1      1646 8.45511E-05 0.00000E+00-5.66675E-06
 -1      1647 8.45511E-05 0.00000E+00-5.83991E-06
 -1      1648 8.45511E-05 0.00000E+00-6.01307E-06
 -1      1649 8.45511E-05 0.00000E+00-6.18623E-06
 -1      1650 8.45511E-05 0.00000E+00-6.35939E-06
 -1      1651 8.45511E-05 0.00000E+00-6.53255E-06
 -1      1652 8.45511E-05 0.00000E+00-6.70571E-06
 -1      1653 8.45511E-05 0.00000E+00-6.87887E-06
 -1      1654 8.45511E-05 0.00000E+00-7.05203E-06
 -1      1655 8.45511E-05 0.00000E+00-7.22519E-06
 -1      1656 8.21160E-05 0.00000E+00-5.66675E-06
 -1      1657 8.21160E-05 0.00000E+00-5.83991E-06
 -1      1658 8.21160E-05 0.00000E+00-6.01307E-06
 -1      1659 8.21160E-05 0.00000E+00-6.18623E-06
 -1      1660 8.21160E-05 0.00000E+00-6.35939E-06
 -1      1661 8.21160E-05 0.00000E+00-6.53255E-06
 -1      1662 8.21160E-05 0.00000E+00-6.70571E-06
 -1      1663 8.21160E-05 0.00000E+00-6.87887E-06
 -1      1664 8.21160E-05 0.00000E+00-7.05203E-06
 -1      1665 8.21160E-05 0.00000E+00-7.22519E-06
 -1      1666 7.99203E-05 0.00000E+00-5.66675E-06
 -1      1667 7.99203E-05 0.00000E+00-5.83991E-06
 -1      1668 7.99203E-05 0.00000E+00-6.01307E-06
 -1      1669 7.99203E-05 0.00000E+00-6.18623E-06
 -1      1670 7.99203E-05 0.00000E+00-6.35939E-06
 -1      1671 7.99203E-05 0.00000E+00-6.53255E-06
 -1      1672 7.99203E-05 0.00000E+00-6.70571E-06
 -1      1673 7.99203E-05 0.00000E+00-6.87887E-06
 -1      1674 7.99203E-05 0.00000E+00-7.05203E-06
 -1      1675 7.99203E-05 0.00000E+00-7.22519E-06
 -1      1676 7.79362E-05 0.00000E+00-5.66675E-06
 -1      1677 7.79362E-05 0.00000E+00-5.83991E-06
 -1      1678 7.79362E-05 0.00000E+00-6.01307E-06
 -1      1679 7.79362E-05 0.00000E+00-6.18623E-06
 -1      1680 7.79362E-05 0.00000E+00-6.35939E-06
 -1      1681 7.79362E-05 0.00000E+00-6.53255E-06
 -1      1682 7.79362E-05 0.00000E+00-6.70571E-06
 -1      1683 7.79362E-05 0.00000E+00-6.87887E-06
 -1      1684 7.79362E-05 0.00000E+00-7.05203E-06
 -1      1685 7.79362E-05 0.00000E+00-7.22519E-06
 -1      1686 7.61402E-05 0.00000E+00-5.66675E-06
 -1      1687 7.61402E-05 0.00000E+00-5.83991E-06
 -1      1688 7.61402E-05 0.00000E+00-6.01307E-06
 -1      1689 7.61402E-05 0.00000E+00-6.18623E-06
 -1      1690 7.61402E-05 0.00000E+00-6.35939E-06
 -1      1691 7.61402E-05 0.00000E+00-6.53255E-06
 -1      1692 7.61402E-05 0.00000E+00-6.70571E-06
 -1      1693 7.61402E-05 0.00000E+00-6.87887E-06
 -1      1694 7.61402E-05 0.00000E+00-7.05203E-06
 -1      1695 7.61402E-05 0.00000E+00-7.22519E-06
 -1      1696 7.45121E-05 0.00000E+00-5.66675E-06
 -1      1697 7.45121E-05 0.00000E+00-5.83991E-06
 -1      1698 7.45121E-05 0.00000E+00-6.01307E-06
 -1      1699 7.45121E-05 0.00000E+00-6.18623E-06
 -1      1700 7.45121E-05 0.00000E+00-6.35939E-06
 -1      1701 7.45121E-05 0.00000E+00-6.53255E-06
 -1      1702 7.45121E-05 0.00000E+00-6.70571E-06
 -1      1703 7.45121E-05 0.00000E+00-6.87887E-06
 -1      1704 7.45121E-05 0.00000E+00-7.05203E-06
 -1      1705 7.45121E-05 0.00000E+00-7.22519E-06
 -1      1706 7.30347E-05 0.00000E+00-5.66675E-06
 -1      1707 7.30347E-05 0.00000E+00-5.83991E-06
 -1      1708 7.30347E-05 0.00000E+00-6.01307E-06
 -1      1709 7.30347E-05 0.00000E+00-6.18623E-06
 -1      1710 7.30347E-05 0.00000E+00-6.35939E-06
 -1      1711 7.30347E-05 0.00000E+00-6.53255E-06
 -1      1712 7.30347E-05 0.00000E+00-6.70571E-06
 -1      1713 7.30347E-05 0.00000E+00-6.87887E-06
 -1      1714 7.30347E-05 0.00000E+00-7.05203E-06
 -1      1715 7.30347E-05 0.00000E+00-7.22519E-06
 -1      1716 7.16928E-05 0.00000E+00-5.66675E-06
 -1      1717 7.16928E-05 0.00000E+00-5.83991E-06
 -1      1718 7.16928E-05 0.00000E+00-6.01307E-06
 -1      1719 7.16928E-05 0.00000E+00-6.18623E-06
 -1      1720 7.16928E-05 0.00000E+00-6.35939E-06
 -1      1721 7.16928E-05 0.00000E+00-6.53255E-06
 -1      1722 7.16928E-05 0.00000E+00-6.70571E-06
 -1      1723 7.16928E-05 0.00000E+00-6.87887E-06
 -1      1724 7.16928E-05 0.00000E+00-7.05203E-06
 -1      1725 7.16928E-05 0.00000E+00-7.22519E-06
 -1      1726 7.04733E-05 0.00000E+00-5.66675E-06
 -1      1727 7.04733E-05 0.00000E+00-5.83991E-06
 -1      1728 7.04733E-05 0.00000E+00-6.01307E-06
 -1      1729 7.04733E-05 0.00000E+00-6.18623E-06
 -1      1730 7.04733E-05 0.00000E+00-6.35939E-06
 -1      1731 7.04733E-05 0.00000E+00-6.53255E-06
 -1      1732 7.04733E-05 0.00000E+00-6.70571E-06
 -1      1733 7.04733E-05 0.00000E+00-6.87887E-06
 -1      1734 7.04733E-05 0.00000E+00-7.05203E-06
 -1      1735 7.04733E-05 0.00000E+00-7.22519E-06
 -1      1736 6.93648E-05 0.00000E+00-5.66675E-06
 -1      1737 6.93648E-05 0.00000E+00-5.83991E-06
 -1      1738 6.93648E-05 0.00000E+00-6.01307E-06
 -1      1739 6.93648E-05 0.00000E+00-6.18623E-06
 -1      1740 6.93648E-05 0.00000E+00-6.35939E-06
 -1      1741 6.93648E-05 0.00000E+00-6.53255E-06
 -1      1742 6.93648E-05 0.00000E+00-6.70571E-06
 -1      1743 6.93648E-05 0.00000E+00-6.87887E-06
 -1      1744 6.93648E-05 0.00000E+00-7.05203E-06
 -1      1745 6.93648E-05 0.00000E+00-7.22519E-06
 -1      1746 6.83571E-05 0.00000E+00-5.66675E-06
 -1      1747 6.83571E-05 0.00000E+00-5.83991E-06
 -1      1748 6.83571E-05 0.00000E+00-6.01307E-06
 -1      1749 6.83571E-05 0.00000E+00-6.18623E-06
 -1      1750 6.83571E-05 0.00000E+00-6.35939E-06
 -1      1751 6.83571E-05 0.00000E+00-6.53255E-06
 -1      1752 6.83571E-05 0.00000E+00-6.70571E-06
 -1      1753 6.83571E-05 0.00000E+00-6.87887E-06
 -1      1754 6.83571E-05 0.00000E+00-7.05203E-06
 -1      1755 6.83571E-05 0.00000E+00-7.22519E-06
 -1      1756 6.74414E-05 0.00000E+00-5.66675E-06
 -1      1757 6.74414E-05 0.00000E+00-5.83991E-06
 -1      1758 6.74414E-05 0.00000E+00-6.01307E-06
 -1      1759 6.74414E-05 0.00000E+00-6.18623E-06
 -1      1760 6.74414E-05 0.00000E+00-6.35939E-06
 -1      1761 6.74414E-05 0.00000E+00-6.53255E-06
 -1      1762 6.74414E-05 0.00000E+00-6.70571E-06
 -1      1763 6.74414E-05 0.00000E+00-6.87887E-06
 -1      1764 6.74414E-05 0.00000E+00-7.05203E-06
 -1      1765 6.74414E-05 0.00000E+00-7.22519E-06
 -1      1766 6.66097E-05 0.00000E+00-5.66675E-06
 -1      1767 6.66097E-05 0.00000E+00-5.83991E-06
 -1      1768 6.66097E-05 0.00000E+00-6.01307E-06
 -1      1769 6.66097E-05 0.00000E+00-6.18623E-06
 -1      1770 6.66097E-05 0.00000E+00-6.35939E-06
 -1      1771 6.66097E-05 0.00000E+00-6.53255E-06
 -1      1772 6.66097E-05 0.00000E+00-6.70571E-06
 -1      1773 6.66097E-05 0.00000E+00-6.87887E-06
 -1      1774 6.66097E-05 0.00000E+00-7.05203E-06
 -1      1775 6.66097E-05 0.00000E+00-7.22519E-06
 -1      1776 6.58550E-05 0.00000E+00-5.66675E-06
 -1      1777 6.58550E-05 0.00000E+00-5.83991E-06
 -1      1778 6.58550E-05 0.00000E+00-6.01307E-06
 -1      1779 6.58550E-05 0.00000E+00-6.18623E-06
 -1      1780 6.58550E-05 0.00000E+00-6.35939E-06
 -1      1781 6.58550E-05 0.00000E+00-6.53255E-06
 -1      1782 6.58550E-05 0.00000E+00-6.70571E-06
 -1      1783 6.58550E-05 0.00000E+00-6.87887E-06
 -1      1784 6.58550E-05 0.00000E+00-7.05203E-06
 -1      1785 6.58550E-05 0.00000E+00-7.22519E-06
 -1      1786 6.51720E-05 0.00000E+00-5.66675E-06
 -1      1787 6.51720E-05 0.00000E+00-5.83991E-06
 -1      1788 6.51720E-05 0.00000E+00-6.01307E-06
 -1      1789 6.51720E-05 0.00000E+00-6.18623E-06
 -1      1790 6.51720E-05 0.00000E+00-6.35939E-06
 -1      1791 6.51720E-05 0.00000E+00-6.53255E-06
 -1      1792 6.51720E-05 0.00000E+00-6.70571E-06
 -1      1793 6.51720E-05 0.00000E+00-6.87887E-06
 -1      1794 6.51720E-05 0.00000E+00-7.05203E-06
 -1      1795 6.51720E-05 0.00000E+00-7.22519E-06
 -1      1796 6.45503E-05 0.00000E+00-5.66674E-06
 -1      1797 6.45503E-05 0.00000E+00-5.83990E-06
 -1      1798 6.45503E-05 0.00000E+00-6.01306E-06
 -1      1799 6.45503E-05 0.00000E+00-6.18623E-06
 -1      1800 6.45503E-05 0.00000E+00-6.35939E-06
 -1      1801 6.45503E-05 0.00000E+00-6.53255E-06
 -1      1802 6.45503E-05 0.00000E+00-6.70571E-06
 -1      1803 6.45503E-05 0.00000E+00-6.87887E-06
 -1      1804 6.45503E-05 0.00000E+00-7.05203E-06
 -1      1805 6.45503E-05 0.00000E+00-7.22519E-06
 -1      1806 6.40046E-05 0.00000E+00-5.66674E-06
 -1      1807 6.40046E-05 0.00000E+00-5.83990E-06
 -1      1808 6.40046E-05 0.00000E+00-6.01306E-06
 -1      1809 6.40046E-05 0.00000E+00-6.18623E-06
 -1      1810 6.40046E-05 0.00000E+00-6.35939E-06
 -1      1811 6.40046E-05 0.00000E+00-6.53255E-06
 -1      1812 6.40046E-05 0.00000E+00-6.70571E-06
 -1      1813 6.40046E-05 0.00000E+00-6.87887E-06
 -1      1814 6.40046E-05 0.00000E+00-7.05203E-06
 -1      1815 6.40046E-05 0.00000E+00-7.22519E-06
 -1      1816 1.56174E-04 0.00000E+00-5.58017E-06
 -1      1817 1.63044E-04 0.00000E+00-5.66673E-06
 -1      1819 1.56174E-04 0.00000E+00-5.75332E-06
 -1      1820 1.63044E-04 0.00000E+00-5.83990E-06
 -1      1822 1.56174E-04 0.00000E+00-5.92649E-06
 -1      1823 1.63044E-04 0.00000E+00-6.01306E-06
 -1      1825 1.56174E-04 0.00000E+00-6.09965E-06
 -1      1826 1.63044E-04 0.00000E+00-6.18622E-06
 -1      1828 1.56174E-04 0.00000E+00-6.27281E-06
 -1      1829 1.63044E-04 0.00000E+00-6.35939E-06
 -1      1831 1.56174E-04 0.00000E+00-6.44597E-06
 -1      1832 1.63044E-04 0.00000E+00-6.53255E-06
 -1      1834 1.56174E-04 0.00000E+00-6.61913E-06
 -1      1835 1.63044E-04 0.00000E+00-6.70571E-06
 -1      1837 1.56174E-04 0.00000E+00-6.79229E-06
 -1      1838 1.63044E-04 0.00000E+00-6.87887E-06
 -1      1840 1.56174E-04 0.00000E+00-6.96545E-06
 -1      1841 1.63044E-04 0.00000E+00-7.05203E-06
 -1      1843 1.56174E-04 0.00000E+00-7.13861E-06
 -1      1844 1.63044E-04 0.00000E+00-7.22520E-06
 -1      1846 1.56174E-04 0.00000E+00-7.31177E-06
 -1      1848 1.44235E-04 0.00000E+00-5.58016E-06
 -1      1849 1.49932E-04 0.00000E+00-5.66676E-06
 -1      1851 1.44235E-04 0.00000E+00-5.75333E-06
 -1      1852 1.49932E-04 0.00000E+00-5.83991E-06
 -1      1854 1.44235E-04 0.00000E+00-5.92649E-06
 -1      1855 1.49932E-04 0.00000E+00-6.01307E-06
 -1      1857 1.44235E-04 0.00000E+00-6.09965E-06
 -1      1858 1.49932E-04 0.00000E+00-6.18623E-06
 -1      1860 1.44235E-04 0.00000E+00-6.27281E-06
 -1      1861 1.49932E-04 0.00000E+00-6.35939E-06
 -1      1863 1.44235E-04 0.00000E+00-6.44597E-06
 -1      1864 1.49932E-04 0.00000E+00-6.53255E-06
 -1      1866 1.44235E-04 0.00000E+00-6.61913E-06
 -1      1867 1.49932E-04 0.00000E+00-6.70570E-06
 -1      1869 1.44235E-04 0.00000E+00-6.79228E-06
 -1      1870 1.49932E-04 0.00000E+00-6.87886E-06
 -1      1872 1.44235E-04 0.00000E+00-6.96544E-06
 -1      1873 1.49932E-04 0.00000E+00-7.05202E-06
 -1      1875 1.44235E-04 0.00000E+00-7.13860E-06
 -1      1876 1.49932E-04 0.00000E+00-7.22517E-06
 -1      1878 1.44235E-04 0.00000E+00-7.31177E-06
 -1      1880 1.34205E-04 0.00000E+00-5.58017E-06
 -1      1881 1.39008E-04 0.00000E+00-5.66674E-06
 -1      1883 1.34205E-04 0.00000E+00-5.75333E-06
 -1      1884 1.39008E-04 0.00000E+00-5.83990E-06
 -1      1886 1.34205E-04 0.00000E+00-5.92648E-06
 -1      1887 1.39008E-04 0.00000E+00-6.01307E-06
 -1      1889 1.34205E-04 0.00000E+00-6.09965E-06
 -1      1890 1.39008E-04 0.00000E+00-6.18623E-06
 -1      1892 1.34205E-04 0.00000E+00-6.27281E-06
 -1      1893 1.39008E-04 0.00000E+00-6.35939E-06
 -1      1895 1.34205E-04 0.00000E+00-6.44597E-06
 -1      1896 1.39008E-04 0.00000E+00-6.53255E-06
 -1      1898 1.34205E-04 0.00000E+00-6.61913E-06
 -1      1899 1.39008E-04 0.00000E+00-6.70571E-06
 -1      1901 1.34205E-04 0.00000E+00-6.79229E-06
 -1      1902 1.39008E-04 0.00000E+00-6.87887E-06
 -1      1904 1.34205E-04 0.00000E+00-6.96545E-06
 -1      1905 1.39008E-04 0.00000E+00-7.05203E-06
 -1      1907 1.34205E-04 0.00000E+00-7.13861E-06
 -1      1908 1.39008E-04 0.00000E+00-7.22519E-06
 -1      1910 1.34205E-04 0.00000E+00-7.31177E-06
 -1      1912 1.25691E-04 0.00000E+00-5.58017E-06
 -1      1913 1.29780E-04 0.00000E+00-5.66675E-06
 -1      1915 1.25691E-04 0.00000E+00-5.75333E-06
 -1      1916 1.29780E-04 0.00000E+00-5.83991E-06
 -1      1918 1.25691E-04 0.00000E+00-5.92649E-06
 -1      1919 1.29780E-04 0.00000E+00-6.01307E-06
 -1      1921 1.25691E-04 0.00000E+00-6.09965E-06
 -1      1922 1.29780E-04 0.00000E+00-6.18623E-06
 -1      1924 1.25691E-04 0.00000E+00-6.27281E-06
 -1      1925 1.29780E-04 0.00000E+00-6.35939E-06
 -1      1927 1.25691E-04 0.00000E+00-6.44597E-06
 -1      1928 1.29780E-04 0.00000E+00-6.53255E-06
 -1      1930 1.25691E-04 0.00000E+00-6.61913E-06
 -1      1931 1.29780E-04 0.00000E+00-6.70571E-06
 -1      1933 1.25691E-04 0.00000E+00-6.79229E-06
 -1      1934 1.29780E-04 0.00000E+00-6.87887E-06
 -1      1936 1.25691E-04 0.00000E+00-6.96545E-06
 -1      1937 1.29780E-04 0.00000E+00-7.05203E-06
 -1      1939 1.25691E-04 0.00000E+00-7.13861E-06
 -1      1940 1.29780E-04 0.00000E+00-7.22519E-06
 -1      1942 1.25691E-04 0.00000E+00-7.31177E-06
 -1      1944 1.18386E-04 0.00000E+00-5.58017E-06
 -1      1945 1.21903E-04 0.00000E+00-5.66674E-06
 -1      1947 1.18386E-04 0.00000E+00-5.75333E-06
 -1      1948 1.21903E-04 0.00000E+00-5.83991E-06
 -1      1950 1.18386E-04 0.00000E+00-5.92649E-06
 -1      1951 1.21903E-04 0.00000E+00-6.01307E-06
 -1      1953 1.18386E-04 0.00000E+00-6.09965E-06
 -1      1954 1.21903E-04 0.00000E+00-6.18623E-06
 -1      1956 1.18386E-04 0.00000E+00-6.27281E-06
 -1      1957 1.21903E-04 0.00000E+00-6.35939E-06
 -1      1959 1.18386E-04 0.00000E+00-6.44597E-06
 -1      1960 1.21903E-04 0.00000E+00-6.53255E-06
 -1      1962 1.18386E-04 0.00000E+00-6.61913E-06
 -1      1963 1.21903E-04 0.00000E+00-6.70571E-06
 -1      1965 1.18386E-04 0.00000E+00-6.79229E-06
 -1      1966 1.21903E-04 0.00000E+00-6.87887E-06
 -1      1968 1.18386E-04 0.00000E+00-6.96545E-06
 -1      1969 1.21903E-04 0.00000E+00-7.05203E-06
 -1      1971 1.18386E-04 0.00000E+00-7.13861E-06
 -1      1972 1.21903E-04 0.00000E+00-7.22519E-06
 -1      1974 1.18386E-04 0.00000E+00-7.31177E-06
 -1      1976 1.12063E-04 0.00000E+00-5.58017E-06
 -1      1977 1.15113E-04 0.00000E+00-5.66675E-06
 -1      1979 1.12063E-04 0.00000E+00-5.75333E-06
 -1      1980 1.15113E-04 0.00000E+00-5.83991E-06
 -1      1982 1.12063E-04 0.00000E+00-5.92649E-06
 -1      1983 1.15113E-04 0.00000E+00-6.01307E-06
 -1      1985 1.12063E-04 0.00000E+00-6.09965E-06
 -1      1986 1.15113E-04 0.00000E+00-6.18623E-06
 -1      1988 1.12063E-04 0.00000E+00-6.27281E-06
 -1      1989 1.15113E-04 0.00000E+00-6.35939E-06
 -1      1991 1.12063E-04 0.00000E+00-6.44597E-06
 -1      1992 1.15113E-04 0.00000E+00-6.53255E-06
 -1      1994 1.12063E-04 0.00000E+00-6.61913E-06
 -1      1995 1.15113E-04 0.00000E+00-6.70571E-06
 -1      1997 1.12063E-04 0.00000E+00-6.79229E-06
 -1      1998 1.15113E-04 0.00000E+00-6.87887E-06
 -1      2000 1.12063E-04 0.00000E+00-6.96545E-06
 -1      2001 1.15113E-04 0.00000E+00-7.05203E-06
 -1      2003 1.12063E-04 0.00000E+00-7.13861E-06
 -1      2004 1.15113E-04 0.00000E+00-7.22519E-06
 -1      2006 1.12063E-04 0.00000E+00-7.31177E-06
 -1      2008 1.06550E-04 0.00000E+00-5.58017E-06
 -1      2009 1.09214E-04 0.00000E+00-5.66675E-06
 -1      2011 1.06550E-04 0.00000E+00-5.75333E-06
 -1      2012 1.09214E-04 0.00000E+00-5.83991E-06
 -1      2014 1.06550E-04 0.00000E+00-5.92649E-06
 -1      2015 1.09214E-04 0.00000E+00-6.01307E-06
 -1      2017 1.06550E-04 0.00000E+00-6.09965E-06
 -1      2018 1.09214E-04 0.00000E+00-6.18623E-06
 -1      2020 1.06550E-04 0.00000E+00-6.27281E-06
 -1      2021 1.09214E-04 0.00000E+00-6.35939E-06
 -1      2023 1.06550E-04 0.00000E+00-6.44597E-06
 -1      2024 1.09214E-04 0.00000E+00-6.53255E-06
 -1      2026 1.06550E-04 0.00000E+00-6.61913E-06
 -1      2027 1.09214E-04 0.00000E+00-6.70571E-06
 -1      2029 1.06550E-04 0.00000E+00-6.79229E-06
 -1      2030 1.09214E-04 0.00000E+00-6.87887E-06
 -1      2032 1.06550E-04 0.00000E+00-6.96545E-06
 -1      2033 1.09214E-04 0.00000E+00-7.05203E-06
 -1      2035 1.06550E-04 0.00000E+00-7.13861E-06
 -1      2036 1.09214E-04 0.00000E+00-7.22519E-06
 -1      2038 1.06550E-04 0.00000E+00-7.31177E-06
 -1      2040 1.01710E-04 0.00000E+00-5.58017E-06
 -1      2041 1.04053E-04 0.00000E+00-5.66675E-06
 -1      2043 1.01710E-04 0.00000E+00-5.75333E-06
 -1      2044 1.04053E-04 0.00000E+00-5.83991E-06
 -1      2046 1.01710E-04 0.00000E+00-5.92649E-06
 -1      2047 1.04053E-04 0.00000E+00-6.01307E-06
 -1      2049 1.01710E-04 0.00000E+00-6.09965E-06
 -1      2050 1.04053E-04 0.00000E+00-6.18623E-06
 -1      2052 1.01710E-04 0.00000E+00-6.27281E-06
 -1      2053 1.04053E-04 0.00000E+00-6.35939E-06
 -1      2055 1.01710E-04 0.00000E+00-6.44597E-06
 -1      2056 1.04053E-04 0.00000E+00-6.53255E-06
 -1      2058 1.01710E-04 0.00000E+00-6.61913E-06
 -1      2059 1.04053E-04 0.00000E+00-6.70571E-06
 -1      2061 1.01710E-04 0.00000E+00-6.79229E-06
 -1      2062 1.04053E-04 0.00000E+00-6.87887E-06
 -1      2064 1.01710E-04 0.00000E+00-6.96545E-06
 -1      2065 1.04053E-04 0.00000E+00-7.05203E-06
 -1      2067 1.01710E-04 0.00000E+00-7.13861E-06
 -1      2068 1.04053E-04 0.00000E+00-7.22519E-06
 -1      2070 1.01710E-04 0.00000E+00-7.31177E-06
 -1      2072 9.74390E-05 0.00000E+00-5.58017E-06
 -1      2073 9.95092E-05 0.00000E+00-5.66675E-06
 -1      2075 9.74390E-05 0.00000E+00-5.75333E-06
 -1      2076 9.95092E-05 0.00000E+00-5.83991E-06
 -1      2078 9.74390E-05 0.00000E+00-5.92649E-06
 -1      2079 9.95092E-05 0.00000E+00-6.01307E-06
 -1      2081 9.74390E-05 0.00000E+00-6.09965E-06
 -1      2082 9.95092E-05 0.00000E+00-6.18623E-06
 -1      2084 9.74390E-05 0.00000E+00-6.27281E-06
 -1      2085 9.95092E-05 0.00000E+00-6.35939E-06
 -1      2087 9.74390E-05 0.00000E+00-6.44597E-06
 -1      2088 9.95092E-05 0.00000E+00-6.53255E-06
 -1      2090 9.74390E-05 0.00000E+00-6.61913E-06
 -1      2091 9.95092E-05 0.00000E+00-6.70571E-06
 -1      2093 9.74390E-05 0.00000E+00-6.79229E-06
 -1      2094 9.95092E-05 0.00000E+00-6.87887E-06
 -1      2096 9.74390E-05 0.00000E+00-6.96545E-06
 -1      2097 9.95092E-05 0.00000E+00-7.05203E-06
 -1      2099 9.74390E-05 0.00000E+00-7.13861E-06
 -1      2100 9.95092E-05 0.00000E+00-7.22519E-06
 -1      2102 9.74390E-05 0.00000E+00-7.31177E-06
 -1      2104 9.36504E-05 0.00000E+00-5.58017E-06
 -1      2105 9.54888E-05 0.00000E+00-5.66675E-06
 -1      2107 9.36504E-05 0.00000E+00-5.75333E-06
 -1      2108 9.54888E-05 0.00000E+00-5.83991E-06
 -1      2110 9.36504E-05 0.00000E+00-5.92649E-06
 -1      2111 9.54888E-05 0.00000E+00-6.01307E-06
 -1      2113 9.36504E-05 0.00000E+00-6.09965E-06
 -1      2114 9.54888E-05 0.00000E+00-6.18623E-06
 -1      2116 9.36504E-05 0.00000E+00-6.27281E-06
 -1      2117 9.54888E-05 0.00000E+00-6.35939E-06
 -1      2119 9.36504E-05 0.00000E+00-6.44597E-06
 -1      2120 9.54888E-05 0.00000E+00-6.53255E-06
 -1      2122 9.36504E-05 0.00000E+00-6.61913E-06
 -1      2123 9.54888E-05 0.00000E+00-6.70571E-06
 -1      2125 9.36504E-05 0.00000E+00-6.79229E-06
 -1      2126 9.54888E-05 0.00000E+00-6.87887E-06
 -1      2128 9.36504E-05 0.00000E+00-6.96545E-06
 -1      2129 9.54888E-05 0.00000E+00-7.05203E-06
 -1      2131 9.36504E-05 0.00000E+00-7.13861E-06
 -1      2132 9.54888E-05 0.00000E+00-7.22519E-06
 -1      2134 9.36504E-05 0.00000E+00-7.31177E-06
 -1      2136 9.02755E-05 0.00000E+00-5.58017E-06
 -1      2137 9.19148E-05 0.00000E+00-5.66675E-06
 -1      2139 9.02755E-05 0.00000E+00-5.75333E-06
 -1      2140 9.19148E-05 0.00000E+00-5.83991E-06
 -1      2142 9.02755E-05 0.00000E+00-5.92649E-06
 -1      2143 9.19148E-05 0.00000E+00-6.01307E-06
 -1      2145 9.02755E-05 0.00000E+00-6.09965E-06
 -1      2146 9.19148E-05 0.00000E+00-6.18623E-06
 -1      2148 9.02755E-05 0.00000E+00-6.27281E-06
 -1      2149 9.19148E-05 0.00000E+00-6.35939E-06
 -1      2151 9.02755E-05 0.00000E+00-6.44597E-06
 -1      2152 9.19148E-05 0.00000E+00-6.53255E-06
 -1      2154 9.02755E-05 0.00000E+00-6.61913E-06
 -1      2155 9.19148E-05 0.00000E+00-6.70571E-06
 -1      2157 9.02755E-05 0.00000E+00-6.79229E-06
 -1      2158 9.19148E-05 0.00000E+00-6.87887E-06
 -1      2160 9.02755E-05 0.00000E+00-6.96545E-06
 -1      2161 9.19148E-05 0.00000E+00-7.05203E-06
 -1      2163 9.02755E-05 0.00000E+00-7.13861E-06
 -1      2164 9.19148E-05 0.00000E+00-7.22519E-06
 -1      2166 9.02755E-05 0.00000E+00-7.31177E-06
 -1      2168 8.72579E-05 0.00000E+00-5.58017E-06
 -1      2169 8.87250E-05 0.00000E+00-5.66675E-06
 -1      2171 8.72579E-05 0.00000E+00-5.75333E-06
 -1      2172 8.87250E-05 0.00000E+00-5.83991E-06
 -1      2174 8.72579E-05 0.00000E+00-5.92649E-06
 -1      2175 8.87250E-05 0.00000E+00-6.01307E-06
 -1      2177 8.72579E-05 0.00000E+00-6.09965E-06
 -1      2178 8.87250E-05 0.00000E+00-6.18623E-06
 -1      2180 8.72579E-05 0.00000E+00-6.27281E-06
 -1      2181 8.87250E-05 0.00000E+00-6.35939E-06
 -1      2183 8.72579E-05 0.00000E+00-6.44597E-06
 -1      2184 8.87250E-05 0.00000E+00-6.53255E-06
 -1      2186 8.72579E-05 0.00000E+00-6.61913E-06
 -1      2187 8.87250E-05 0.00000E+00-6.70571E-06
 -1      2189 8.72579E-05 0.00000E+00-6.79229E-06
 -1      2190 8.87250E-05 0.00000E+00-6.87887E-06
 -1      2192 8.72579E-05 0.00000E+00-6.96545E-06
 -1      2193 8.87250E-05 0.00000E+00-7.05203E-06
 -1      2195 8.72579E-05 0.00000E+00-7.13861E-06
 -1      2196 8.87250E-05 0.00000E+00-7.22519E-06
 -1      2198 8.72579E-05 0.00000E+00-7.31177E-06
 -1      2200 8.45511E-05 0.00000E+00-5.58017E-06
 -1      2201 8.58681E-05 0.00000E+00-5.66675E-06
 -1      2203 8.45511E-05 0.00000E+00-5.75333E-06
 -1      2204 8.58681E-05 0.00000E+00-5.83991E-06
 -1      2206 8.45511E-05 0.00000E+00-5.92649E-06
 -1      2207 8.58681E-05 0.00000E+00-6.01307E-06
 -1      2209 8.45511E-05 0.00000E+00-6.09965E-06
 -1      2210 8.58681E-05 0.00000E+00-6.18623E-06
 -1      2212 8.45511E-05 0.00000E+00-6.27281E-06
 -1      2213 8.58681E-05 0.00000E+00-6.35939E-06
 -1      2215 8.45511E-05 0.00000E+00-6.44597E-06
 -1      2216 8.58681E-05 0.00000E+00-6.53255E-06
 -1      2218 8.45511E-05 0.00000E+00-6.61913E-06
 -1      2219 8.58681E-05 0.00000E+00-6.70571E-06
 -1      2221 8.45511E-05 0.00000E+00-6.79229E-06
 -1      2222 8.58681E-05 0.00000E+00-6.87887E-06
 -1      2224 8.45511E-05 0.00000E+00-6.96545E-06
 -1      2225 8.58681E-05 0.00000E+00-7.05203E-06
 -1      2227 8.45511E-05 0.00000E+00-7.13861E-06
 -1      2228 8.58681E-05 0.00000E+00-7.22519E-06
 -1      2230 8.45511E-05 0.00000E+00-7.31177E-06
 -1      2232 8.21160E-05 0.00000E+00-5.58017E-06
 -1      2233 8.33016E-05 0.00000E+00-5.66675E-06
 -1      2235 8.21160E-05 0.00000E+00-5.75333E-06
 -1      2236 8.33016E-05 0.00000E+00-5.83991E-06
 -1      2238 8.21160E-05 0.00000E+00-5.92649E-06
 -1      2239 8.33016E-05 0.00000E+00-6.01307E-06
 -1      2241 8.21160E-05 0.00000E+00-6.09965E-06
 -1      2242 8.33016E-05 0.00000E+00-6.18623E-06
 -1      2244 8.21160E-05 0.00000E+00-6.27281E-06
 -1      2245 8.33016E-05 0.00000E+00-6.35939E-06
 -1      2247 8.21160E-05 0.00000E+00-6.44597E-06
 -1      2248 8.33016E-05 0.00000E+00-6.53255E-06
 -1      2250 8.21160E-05 0.00000E+00-6.61913E-06
 -1      2251 8.33016E-05 0.00000E+00-6.70571E-06
 -1      2253 8.21160E-05 0.00000E+00-6.79229E-06
 -1      2254 8.33016E-05 0.00000E+00-6.87887E-06
 -1      2256 8.21160E-05 0.00000E+00-6.96545E-06
 -1      2257 8.33016E-05 0.00000E+00-7.05203E-06
 -1      2259 8.21160E-05 0.00000E+00-7.13861E-06
 -1      2260 8.33016E-05 0.00000E+00-7.22519E-06
 -1      2262 8.21160E-05 0.00000E+00-7.31177E-06
 -1      2264 7.99203E-05 0.00000E+00-5.58017E-06
 -1      2265 8.09900E-05 0.00000E+00-5.66675E-06
 -1      2267 7.99203E-05 0.00000E+00-5.75333E-06
 -1      2268 8.09900E-05 0.00000E+00-5.83991E-06
 -1      2270 7.99203E-05 0.00000E+00-5.92649E-06
 -1      2271 8.09900E-05 0.00000E+00-6.01307E-06
 -1      2273 7.99203E-05 0.00000E+00-6.09965E-06
 -1      2274 8.09900E-05 0.00000E+00-6.18623E-06
 -1      2276 7.99203E-05 0.00000E+00-6.27281E-06
 -1      2277 8.09900E-05 0.00000E+00-6.35939E-06
 -1      2279 7.99203E-05 0.00000E+00-6.44597E-06
 -1      2280 8.09900E-05 0.00000E+00-6.53255E-06
 -1      2282 7.99203E-05 0.00000E+00-6.61913E-06
 -1      2283 8.09900E-05 0.00000E+00-6.70571E-06
 -1      2285 7.99203E-05 0.00000E+00-6.79229E-06
 -1      2286 8.09900E-05 0.00000E+00-6.87887E-06
 -1      2288 7.99203E-05 0.00000E+00-6.96545E-06
 -1      2289 8.09900E-05 0.00000E+00-7.05203E-06
 -1      2291 7.99203E-05 0.00000E+00-7.13861E-06
 -1      2292 8.09900E-05 0.00000E+00-7.22519E-06
 -1      2294 7.99203E-05 0.00000E+00-7.31177E-06
 -1      2296 7.79362E-05 0.00000E+00-5.58017E-06
 -1      2297 7.89032E-05 0.00000E+00-5.66675E-06
 -1      2299 7.79362E-05 0.00000E+00-5.75333E-06
 -1      2300 7.89032E-05 0.00000E+00-5.83991E-06
 -1      2302 7.79362E-05 0.00000E+00-5.92649E-06
 -1      2303 7.89032E-05 0.00000E+00-6.01307E-06
 -1      2305 7.79362E-05 0.00000E+00-6.09965E-06
 -1      2306 7.89032E-05 0.00000E+00-6.18623E-06
 -1      2308 7.79362E-05 0.00000E+00-6.27281E-06
 -1      2309 7.89032E-05 0.00000E+00-6.35939E-06
 -1      2311 7.79362E-05 0.00000E+00-6.44597E-06
 -1      2312 7.89032E-05 0.00000E+00-6.53255E-06
 -1      2314 7.79362E-05 0.00000E+00-6.61913E-06
 -1      2315 7.89032E-05 0.00000E+00-6.70571E-06
 -1      2317 7.79362E-05 0.00000E+00-6.79229E-06
 -1      2318 7.89032E-05 0.00000E+00-6.87887E-06
 -1      2320 7.79362E-05 0.00000E+00-6.96545E-06
 -1      2321 7.89032E-05 0.00000E+00-7.05203E-06
 -1      2323 7.79362E-05 0.00000E+00-7.13861E-06
 -1      2324 7.89032E-05 0.00000E+00-7.22519E-06
 -1      2326 7.79362E-05 0.00000E+00-7.31177E-06
 -1      2328 7.61402E-05 0.00000E+00-5.58017E-06
 -1      2329 7.70159E-05 0.00000E+00-5.66675E-06
 -1      2331 7.61402E-05 0.00000E+00-5.75333E-06
 -1      2332 7.70159E-05 0.00000E+00-5.83991E-06
 -1      2334 7.61402E-05 0.00000E+00-5.92649E-06
 -1      2335 7.70159E-05 0.00000E+00-6.01307E-06
 -1      2337 7.61402E-05 0.00000E+00-6.09965E-06
 -1      2338 7.70159E-05 0.00000E+00-6.18623E-06
 -1      2340 7.61402E-05 0.00000E+00-6.27281E-06
 -1      2341 7.70159E-05 0.00000E+00-6.35939E-06
 -1      2343 7.61402E-05 0.00000E+00-6.44597E-06
 -1      2344 7.70159E-05 0.00000E+00-6.53255E-06
 -1      2346 7.61402E-05 0.00000E+00-6.61913E-06
 -1      2347 7.70159E-05 0.00000E+00-6.70571E-06
 -1      2349 7.61402E-05 0.00000E+00-6.79229E-06
 -1      2350 7.70159E-05 0.00000E+00-6.87887E-06
 -1      2352 7.61402E-05 0.00000E+00-6.96545E-06
 -1      2353 7.70159E-05 0.00000E+00-7.05203E-06
 -1      2355 7.61402E-05 0.00000E+00-7.13861E-06
 -1      2356 7.70159E-05 0.00000E+00-7.22519E-06
 -1      2358 7.61402E-05 0.00000E+00-7.31177E-06
 -1      2360 7.45121E-05 0.00000E+00-5.58017E-06
 -1      2361 7.53062E-05 0.00000E+00-5.66675E-06
 -1      2363 7.45121E-05 0.00000E+00-5.75333E-06
 -1      2364 7.53062E-05 0.00000E+00-5.83991E-06
 -1      2366 7.45121E-05 0.00000E+00-5.92649E-06
 -1      2367 7.53062E-05 0.00000E+00-6.01307E-06
 -1      2369 7.45121E-05 0.00000E+00-6.09965E-06
 -1      2370 7.53062E-05 0.00000E+00-6.18623E-06
 -1      2372 7.45121E-05 0.00000E+00-6.27281E-06
 -1      2373 7.53062E-05 0.00000E+00-6.35939E-06
 -1      2375 7.45121E-05 0.00000E+00-6.44597E-06
 -1      2376 7.53062E-05 0.00000E+00-6.53255E-06
 -1      2378 7.45121E-05 0.00000E+00-6.61913E-06
 -1      2379 7.53062E-05 0.00000E+00-6.70571E-06
 -1      2381 7.45121E-05 0.00000E+00-6.79229E-06
 -1      2382 7.53062E-05 0.00000E+00-6.87887E-06
 -1      2384 7.45121E-05 0.00000E+00-6.96545E-06
 -1      2385 7.53062E-05 0.00000E+00-7.05203E-06
 -1      2387 7.45121E-05 0.00000E+00-7.13861E-06
 -1      2388 7.53062E-05 0.00000E+00-7.22519E-06
 -1      2390 7.45121E-05 0.00000E+00-7.31177E-06
 -1      2392 7.30347E-05 0.00000E+00-5.58017E-06
 -1      2393 7.37555E-05 0.00000E+00-5.66675E-06
 -1      2395 7.30347E-05 0.00000E+00-5.75333E-06
 -1      2396 7.37555E-05 0.00000E+00-5.83991E-06
 -1      2398 7.30347E-05 0.00000E+00-5.92649E-06
 -1      2399 7.37555E-05 0.00000E+00-6.01307E-06
 -1      2401 7.30347E-05 0.00000E+00-6.09965E-06
 -1      2402 7.37555E-05 0.00000E+00-6.18623E-06
 -1      2404 7.30347E-05 0.00000E+00-6.27281E-06
 -1      2405 7.37555E-05 0.00000E+00-6.35939E-06
 -1      2407 7.30347E-05 0.00000E+00-6.44597E-06
 -1      2408 7.37555E-05 0.00000E+00-6.53255E-06
 -1      2410 7.30347E-05 0.00000E+00-6.61913E-06
 -1      2411 7.37555E-05 0.00000E+00-6.70571E-06
 -1      2413 7.30347E-05 0.00000E+00-6.79229E-06
 -1      2414 7.37555E-05 0.00000E+00-6.87887E-06
 -1      2416 7.30347E-05 0.00000E+00-6.96545E-06
 -1      2417 7.37555E-05 0.00000E+00-7.05203E-06
 -1      2419 7.30347E-05 0.00000E+00-7.13861E-06
 -1      2420 7.37555E-05 0.00000E+00-7.22519E-06
 -1      2422 7.30347E-05 0.00000E+00-7.31177E-06
 -1      2424 7.16928E-05 0.00000E+00-5.58017E-06
 -1      2425 7.23476E-05 0.00000E+00-5.66675E-06
 -1      2427 7.16928E-05 0.00000E+00-5.75333E-06
 -1      2428 7.23476E-05 0.00000E+00-5.83991E-06
 -1      2430 7.16928E-05 0.00000E+00-5.92649E-06
 -1      2431 7.23476E-05 0.00000E+00-6.01307E-06
 -1      2433 7.16928E-05 0.00000E+00-6.09965E-06
 -1      2434 7.23476E-05 0.00000E+00-6.18623E-06
 -1      2436 7.16928E-05 0.00000E+00-6.27281E-06
 -1      2437 7.23476E-05 0.00000E+00-6.35939E-06
 -1      2439 7.16928E-05 0.00000E+00-6.44597E-06
 -1      2440 7.23476E-05 0.00000E+00-6.53255E-06
 -1      2442 7.16928E-05 0.00000E+00-6.61913E-06
 -1      2443 7.23476E-05 0.00000E+00-6.70571E-06
 -1      2445 7.16928E-05 0.00000E+00-6.79229E-06
 -1      2446 7.23476E-05 0.00000E+00-6.87887E-06
 -1      2448 7.16928E-05 0.00000E+00-6.96545E-06
 -1      2449 7.23476E-05 0.00000E+00-7.05203E-06
 -1      2451 7.16928E-05 0.00000E+00-7.13861E-06
 -1      2452 7.23476E-05 0.00000E+00-7.22519E-06
 -1      2454 7.16928E-05 0.00000E+00-7.31177E-06
 -1      2456 7.04733E-05 0.00000E+00-5.58017E-06
 -1      2457 7.10685E-05 0.00000E+00-5.66675E-06
 -1      2459 7.04733E-05 0.00000E+00-5.75333E-06
 -1      2460 7.10685E-05 0.00000E+00-5.83991E-06
 -1      2462 7.04733E-05 0.00000E+00-5.92649E-06
 -1      2463 7.10685E-05 0.00000E+00-6.01307E-06
 -1      2465 7.04733E-05 0.00000E+00-6.09965E-06
 -1      2466 7.10685E-05 0.00000E+00-6.18623E-06
 -1      2468 7.04733E-05 0.00000E+00-6.27281E-06
 -1      2469 7.10685E-05 0.00000E+00-6.35939E-06
 -1      2471 7.04733E-05 0.00000E+00-6.44597E-06
 -1      2472 7.10685E-05 0.00000E+00-6.53255E-06
 -1      2474 7.04733E-05 0.00000E+00-6.61913E-06
 -1      2475 7.10685E-05 0.00000E+00-6.70571E-06
 -1      2477 7.04733E-05 0.00000E+00-6.79229E-06
 -1      2478 7.10685E-05 0.00000E+00-6.87887E-06
 -1      2480 7.04733E-05 0.00000E+00-6.96545E-06
 -1      2481 7.10685E-05 0.00000E+00-7.05203E-06
 -1      2483 7.04733E-05 0.00000E+00-7.13861E-06
 -1      2484 7.10685E-05 0.00000E+00-7.22519E-06
 -1      2486 7.04733E-05 0.00000E+00-7.31177E-06
 -1      2488 6.93648E-05 0.00000E+00-5.58017E-06
 -1      2489 6.99058E-05 0.00000E+00-5.66675E-06
 -1      2491 6.93648E-05 0.00000E+00-5.75333E-06
 -1      2492 6.99058E-05 0.00000E+00-5.83991E-06
 -1      2494 6.93648E-05 0.00000E+00-5.92649E-06
 -1      2495 6.99058E-05 0.00000E+00-6.01307E-06
 -1      2497 6.93648E-05 0.00000E+00-6.09965E-06
 -1      2498 6.99058E-05 0.00000E+00-6.18623E-06
 -1      2500 6.93648E-05 0.00000E+00-6.27281E-06
 -1      2501 6.99058E-05 0.00000E+00-6.35939E-06
 -1      2503 6.93648E-05 0.00000E+00-6.44597E-06
 -1      2504 6.99058E-05 0.00000E+00-6.53255E-06
 -1      2506 6.93648E-05 0.00000E+00-6.61913E-06
 -1      2507 6.99058E-05 0.00000E+00-6.70571E-06
 -1      2509 6.93648E-05 0.00000E+00-6.79229E-06
 -1      2510 6.99058E-05 0.00000E+00-6.87887E-06
 -1      2512 6.93648E-05 0.00000E+00-6.96545E-06
 -1      2513 6.99058E-05 0.00000E+00-7.05203E-06
 -1      2515 6.93648E-05 0.00000E+00-7.13861E-06
 -1      2516 6.99058E-05 0.00000E+00-7.22519E-06
 -1      2518 6.93648E-05 0.00000E+00-7.31177E-06
 -1      2520 6.83571E-05 0.00000E+00-5.58017E-06
 -1      2521 6.88489E-05 0.00000E+00-5.66675E-06
 -1      2523 6.83571E-05 0.00000E+00-5.75333E-06
 -1      2524 6.88489E-05 0.00000E+00-5.83991E-06
 -1      2526 6.83571E-05 0.00000E+00-5.92649E-06
 -1      2527 6.88489E-05 0.00000E+00-6.01307E-06
 -1      2529 6.83571E-05 0.00000E+00-6.09965E-06
 -1      2530 6.88489E-05 0.00000E+00-6.18623E-06
 -1      2532 6.83571E-05 0.00000E+00-6.27281E-06
 -1      2533 6.88489E-05 0.00000E+00-6.35939E-06
 -1      2535 6.83571E-05 0.00000E+00-6.44597E-06
 -1      2536 6.88489E-05 0.00000E+00-6.53255E-06
 -1      2538 6.83571E-05 0.00000E+00-6.61913E-06
 -1      2539 6.88489E-05 0.00000E+00-6.70571E-06
 -1      2541 6.83571E-05 0.00000E+00-6.79229E-06
 -1      2542 6.88489E-05 0.00000E+00-6.87887E-06
 -1      2544 6.83571E-05 0.00000E+00-6.96545E-06
 -1      2545 6.88489E-05 0.00000E+00-7.05203E-06
 -1      2547 6.83571E-05 0.00000E+00-7.13861E-06
 -1      2548 6.88489E-05 0.00000E+00-7.22519E-06
 -1      2550 6.83571E-05 0.00000E+00-7.31177E-06
 -1      2552 6.74414E-05 0.00000E+00-5.58017E-06
 -1      2553 6.78882E-05 0.00000E+00-5.66675E-06
 -1      2555 6.74414E-05 0.00000E+00-5.75333E-06
 -1      2556 6.78882E-05 0.00000E+00-5.83991E-06
 -1      2558 6.74414E-05 0.00000E+00-5.92649E-06
 -1      2559 6.78882E-05 0.00000E+00-6.01307E-06
 -1      2561 6.74414E-05 0.00000E+00-6.09965E-06
 -1      2562 6.78882E-05 0.00000E+00-6.18623E-06
 -1      2564 6.74414E-05 0.00000E+00-6.27281E-06
 -1      2565 6.78882E-05 0.00000E+00-6.35939E-06
 -1      2567 6.74414E-05 0.00000E+00-6.44597E-06
 -1      2568 6.78882E-05 0.00000E+00-6.53255E-06
 -1      2570 6.74414E-05 0.00000E+00-6.61913E-06
 -1      2571 6.78882E-05 0.00000E+00-6.70571E-06
 -1      2573 6.74414E-05 0.00000E+00-6.79229E-06
 -1      2574 6.78882E-05 0.00000E+00-6.87887E-06
 -1      2576 6.74414E-05 0.00000E+00-6.96545E-06
 -1      2577 6.78882E-05 0.00000E+00-7.05203E-06
 -1      2579 6.74414E-05 0.00000E+00-7.13861E-06
 -1      2580 6.78882E-05 0.00000E+00-7.22519E-06
 -1      2582 6.74414E-05 0.00000E+00-7.31177E-06
 -1      2584 6.66097E-05 0.00000E+00-5.58017E-06
 -1      2585 6.70154E-05 0.00000E+00-5.66675E-06
 -1      2587 6.66097E-05 0.00000E+00-5.75333E-06
 -1      2588 6.70154E-05 0.00000E+00-5.83991E-06
 -1      2590 6.66097E-05 0.00000E+00-5.92649E-06
 -1      2591 6.70154E-05 0.00000E+00-6.01307E-06
 -1      2593 6.66097E-05 0.00000E+00-6.09965E-06
 -1      2594 6.70154E-05 0.00000E+00-6.18623E-06
 -1      2596 6.66097E-05 0.00000E+00-6.27281E-06
 -1      2597 6.70154E-05 0.00000E+00-6.35939E-06
 -1      2599 6.66097E-05 0.00000E+00-6.44597E-06
 -1      2600 6.70154E-05 0.00000E+00-6.53255E-06
 -1      2602 6.66097E-05 0.00000E+00-6.61913E-06
 -1      2603 6.70154E-05 0.00000E+00-6.70571E-06
 -1      2605 6.66097E-05 0.00000E+00-6.79229E-06
 -1      2606 6.70154E-05 0.00000E+00-6.87887E-06
 -1      2608 6.66097E-05 0.00000E+00-6.96545E-06
 -1      2609 6.70154E-05 0.00000E+00-7.05203E-06
 -1      2611 6.66097E-05 0.00000E+00-7.13861E-06
 -1      2612 6.70154E-05 0.00000E+00-7.22519E-06
 -1      2614 6.66097E-05 0.00000E+00-7.31177E-06
 -1      2616 6.58550E-05 0.00000E+00-5.58017E-06
 -1      2617 6.62231E-05 0.00000E+00-5.66675E-06
 -1      2619 6.58550E-05 0.00000E+00-5.75333E-06
 -1      2620 6.62231E-05 0.00000E+00-5.83991E-06
 -1      2622 6.58550E-05 0.00000E+00-5.92649E-06
 -1      2623 6.62231E-05 0.00000E+00-6.01307E-06
 -1      2625 6.58550E-05 0.00000E+00-6.09965E-06
 -1      2626 6.62231E-05 0.00000E+00-6.18623E-06
 -1      2628 6.58550E-05 0.00000E+00-6.27281E-06
 -1      2629 6.62231E-05 0.00000E+00-6.35939E-06
 -1      2631 6.58550E-05 0.00000E+00-6.44597E-06
 -1      2632 6.62231E-05 0.00000E+00-6.53255E-06
 -1      2634 6.58550E-05 0.00000E+00-6.61913E-06
 -1      2635 6.62231E-05 0.00000E+00-6.70571E-06
 -1      2637 6.58550E-05 0.00000E+00-6.79229E-06
 -1      2638 6.62231E-05 0.00000E+00-6.87887E-06
 -1      2640 6.58550E-05 0.00000E+00-6.96545E-06
 -1      2641 6.62231E-05 0.00000E+00-7.05203E-06
 -1      2643 6.58550E-05 0.00000E+00-7.13861E-06
 -1      2644 6.62231E-05 0.00000E+00-7.22519E-06
 -1      2646 6.58550E-05 0.00000E+00-7.31177E-06
 -1      2648 6.51720E-05 0.00000E+00-5.58017E-06
 -1      2649 6.55049E-05 0.00000E+00-5.66675E-06
 -1      2651 6.51720E-05 0.00000E+00-5.75333E-06
 -1      2652 6.55049E-05 0.00000E+00-5.83991E-06
 -1      2654 6.51720E-05 0.00000E+00-5.92649E-06
 -1      2655 6.55049E-05 0.00000E+00-6.01307E-06
 -1      2657 6.51720E-05 0.00000E+00-6.09965E-06
 -1      2658 6.55049E-05 0.00000E+00-6.18623E-06
 -1      2660 6.51720E-05 0.00000E+00-6.27281E-06
 -1      2661 6.55049E-05 0.00000E+00-6.35939E-06
 -1      2663 6.51720E-05 0.00000E+00-6.44597E-06
 -1      2664 6.55049E-05 0.00000E+00-6.53255E-06
 -1      2666 6.51720E-05 0.00000E+00-6.61913E-06
 -1      2667 6.55049E-05 0.00000E+00-6.70571E-06
 -1      2669 6.51720E-05 0.00000E+00-6.79229E-06
 -1      2670 6.55049E-05 0.00000E+00-6.87887E-06
 -1      2672 6.51720E-05 0.00000E+00-6.96545E-06
 -1      2673 6.55049E-05 0.00000E+00-7.05203E-06
 -1      2675 6.51720E-05 0.00000E+00-7.13861E-06
 -1      2676 6.55049E-05 0.00000E+00-7.22519E-06
 -1      2678 6.51720E-05 0.00000E+00-7.31177E-06
 -1      2680 6.45503E-05 0.00000E+00-5.58017E-06
 -1      2681 6.48533E-05 0.00000E+00-5.66675E-06
 -1      2683 6.45503E-05 0.00000E+00-5.75332E-06
 -1      2684 6.48533E-05 0.00000E+00-5.83991E-06
 -1      2686 6.45503E-05 0.00000E+00-5.92648E-06
 -1      2687 6.48533E-05 0.00000E+00-6.01307E-06
 -1      2689 6.45503E-05 0.00000E+00-6.09964E-06
 -1      2690 6.48533E-05 0.00000E+00-6.18623E-06
 -1      2692 6.45503E-05 0.00000E+00-6.27281E-06
 -1      2693 6.48533E-05 0.00000E+00-6.35939E-06
 -1      2695 6.45503E-05 0.00000E+00-6.44597E-06
 -1      2696 6.48533E-05 0.00000E+00-6.53255E-06
 -1      2698 6.45503E-05 0.00000E+00-6.61913E-06
 -1      2699 6.48533E-05 0.00000E+00-6.70571E-06
 -1      2701 6.45503E-05 0.00000E+00-6.79229E-06
 -1      2702 6.48533E-05 0.00000E+00-6.87887E-06
 -1      2704 6.45503E-05 0.00000E+00-6.96545E-06
 -1      2705 6.48533E-05 0.00000E+00-7.05203E-06
 -1      2707 6.45503E-05 0.00000E+00-7.13861E-06
 -1      2708 6.48533E-05 0.00000E+00-7.22519E-06
 -1      2710 6.45503E-05 0.00000E+00-7.31177E-06
 -1      2712 6.40046E-05 0.00000E+00-5.58016E-06
 -1      2713 6.42702E-05 0.00000E+00-5.66674E-06
 -1      2715 6.40046E-05 0.00000E+00-5.75332E-06
 -1      2716 6.42702E-05 0.00000E+00-5.83990E-06
 -1      2718 6.40046E-05 0.00000E+00-5.92648E-06
 -1      2719 6.42702E-05 0.00000E+00-6.01306E-06
 -1      2721 6.40046E-05 0.00000E+00-6.09964E-06
 -1      2722 6.42702E-05 0.00000E+00-6.18622E-06
 -1      2724 6.40046E-05 0.00000E+00-6.27281E-06
 -1      2725 6.42702E-05 0.00000E+00-6.35939E-06
 -1      2727 6.40046E-05 0.00000E+00-6.44597E-06
 -1      2728 6.42702E-05 0.00000E+00-6.53255E-06
 -1      2730 6.40046E-05 0.00000E+00-6.61913E-06
 -1      2731 6.42702E-05 0.00000E+00-6.70571E-06
 -1      2733 6.40046E-05 0.00000E+00-6.79229E-06
 -1      2734 6.42702E-05 0.00000E+00-6.87887E-06
 -1      2736 6.40046E-05 0.00000E+00-6.96545E-06
 -1      2737 6.42702E-05 0.00000E+00-7.05203E-06
 -1      2739 6.40046E-05 0.00000E+00-7.13861E-06
 -1      2740 6.42702E-05 0.00000E+00-7.22519E-06
 -1      2742 6.40046E-05 0.00000E+00-7.31177E-06
 -1      2744 6.37456E-05 0.00000E+00-5.66675E-06
 -1      2746 6.37456E-05 0.00000E+00-5.83991E-06
 -1      2748 6.37456E-05 0.00000E+00-6.01307E-06
 -1      2750 6.37456E-05 0.00000E+00-6.18623E-06
 -1      2752 6.37456E-05 0.00000E+00-6.35939E-06
 -1      2754 6.37456E-05 0.00000E+00-6.53255E-06
 -1      2756 6.37456E-05 0.00000E+00-6.70571E-06
 -1      2758 6.37456E-05 0.00000E+00-6.87887E-06
 -1      2760 6.37456E-05 0.00000E+00-7.05203E-06
 -1      2762 6.37456E-05 0.00000E+00-7.22518E-06
 -1      2765 6.27204E-05 9.93394E-06-5.66675E-06
 -1      2766 6.27204E-05 9.93394E-06-5.83991E-06
 -1      2767 6.27204E-05 9.93394E-06-6.01307E-06
 -1      2768 6.27204E-05 9.93394E-06-6.18623E-06
 -1      2769 6.27204E-05 9.93394E-06-6.35939E-06
 -1      2770 6.27204E-05 9.93394E-06-6.53255E-06
 -1      2771 6.27204E-05 9.93394E-06-6.70571E-06
 -1      2772 6.27204E-05 9.93394E-06-6.87886E-06
 -1      2773 6.27204E-05 9.93394E-06-7.05202E-06
 -1      2774 6.27204E-05 9.93394E-06-7.22518E-06
 -1      2775 6.03942E-05 1.96233E-05-5.66675E-06
 -1      2776 6.03942E-05 1.96233E-05-5.83991E-06
 -1      2777 6.03942E-05 1.96233E-05-6.01307E-06
 -1      2778 6.03942E-05 1.96233E-05-6.18623E-06
 -1      2779 6.03942E-05 1.96233E-05-6.35939E-06
 -1      2780 6.03942E-05 1.96233E-05-6.53255E-06
 -1      2781 6.03942E-05 1.96233E-05-6.70571E-06
 -1      2782 6.03942E-05 1.96233E-05-6.87886E-06
 -1      2783 6.03942E-05 1.96233E-05-7.05202E-06
 -1      2784 6.03942E-05 1.96233E-05-7.22518E-06
 -1      2785 5.65809E-05 2.88294E-05-5.66675E-06
 -1      2786 5.65809E-05 2.88294E-05-5.83991E-06
 -1      2787 5.65809E-05 2.88294E-05-6.01307E-06
 -1      2788 5.65809E-05 2.88294E-05-6.18623E-06
 -1      2789 5.65809E-05 2.88294E-05-6.35939E-06
 -1      2790 5.65809E-05 2.88294E-05-6.53255E-06
 -1      2791 5.65809E-05 2.88294E-05-6.70571E-06
 -1      2792 5.65809E-05 2.88294E-05-6.87886E-06
 -1      2793 5.65809E-05 2.88294E-05-7.05202E-06
 -1      2794 5.65809E-05 2.88294E-05-7.22518E-06
 -1      2795 5.13744E-05 3.73257E-05-5.66675E-06
 -1      2796 5.13744E-05 3.73257E-05-5.83991E-06
 -1      2797 5.13744E-05 3.73257E-05-6.01307E-06
 -1      2798 5.13744E-05 3.73257E-05-6.18623E-06
 -1      2799 5.13744E-05 3.73257E-05-6.35939E-06
 -1      2800 5.13744E-05 3.73257E-05-6.53255E-06
 -1      2801 5.13744E-05 3.73257E-05-6.70570E-06
 -1      2802 5.13744E-05 3.73257E-05-6.87886E-06
 -1      2803 5.13744E-05 3.73257E-05-7.05202E-06
 -1      2804 5.13744E-05 3.73257E-05-7.22518E-06
 -1      2805 4.49029E-05 4.49029E-05-5.66675E-06
 -1      2806 4.49029E-05 4.49029E-05-5.83991E-06
 -1      2807 4.49029E-05 4.49029E-05-6.01307E-06
 -1      2808 4.49029E-05 4.49029E-05-6.18623E-06
 -1      2809 4.49029E-05 4.49029E-05-6.35939E-06
 -1      2810 4.49029E-05 4.49029E-05-6.53255E-06
 -1      2811 4.49029E-05 4.49029E-05-6.70570E-06
 -1      2812 4.49029E-05 4.49029E-05-6.87886E-06
 -1      2813 4.49029E-05 4.49029E-05-7.05202E-06
 -1      2814 4.49029E-05 4.49029E-05-7.22518E-06
 -1      2815 3.73257E-05 5.13744E-05-5.66675E-06
 -1      2816 3.73257E-05 5.13744E-05-5.83991E-06
 -1      2817 3.73257E-05 5.13744E-05-6.01307E-06
 -1      2818 3.73257E-05 5.13744E-05-6.18623E-06
 -1      2819 3.73257E-05 5.13744E-05-6.35939E-06
 -1      2820 3.73257E-05 5.13744E-05-6.53255E-06
 -1      2821 3.73257E-05 5.13744E-05-6.70571E-06
 -1      2822 3.73257E-05 5.13744E-05-6.87886E-06
 -1      2823 3.73257E-05 5.13744E-05-7.05202E-06
 -1      2824 3.73257E-05 5.13744E-05-7.22518E-06
 -1      2825 2.88294E-05 5.65809E-05-5.66675E-06
 -1      2826 2.88294E-05 5.65809E-05-5.83991E-06
 -1      2827 2.88294E-05 5.65809E-05-6.01307E-06
 -1      2828 2.88294E-05 5.65809E-05-6.18623E-06
 -1      2829 2.88294E-05 5.65809E-05-6.35939E-06
 -1      2830 2.88294E-05 5.65809E-05-6.53255E-06
 -1      2831 2.88294E-05 5.65809E-05-6.70570E-06
 -1      2832 2.88294E-05 5.65809E-05-6.87886E-06
 -1      2833 2.88294E-05 5.65809E-05-7.05202E-06
 -1      2834 2.88294E-05 5.65809E-05-7.22518E-06
 -1      2835 1.96233E-05 6.03942E-05-5.66675E-06
 -1      2836 1.96233E-05 6.03942E-05-5.83991E-06
 -1      2837 1.96233E-05 6.03942E-05-6.01307E-06
 -1      2838 1.96233E-05 6.03942E-05-6.18623E-06
 -1      2839 1.96233E-05 6.03942E-05-6.35939E-06
 -1      2840 1.96233E-05 6.03942E-05-6.53255E-06
 -1      2841 1.96233E-05 6.03942E-05-6.70570E-06
 -1      2842 1.96233E-05 6.03942E-05-6.87886E-06
 -1      2843 1.96233E-05 6.03942E-05-7.05202E-06
 -1      2844 1.96233E-05 6.03942E-05-7.22518E-06
 -1      2845 9.93394E-06 6.27204E-05-5.66675E-06
 -1      2846 9.93394E-06 6.27204E-05-5.83991E-06
 -1      2847 9.93394E-06 6.27204E-05-6.01307E-06
 -1      2848 9.93394E-06 6.27204E-05-6.18623E-06
 -1      2849 9.93394E-06 6.27204E-05-6.35939E-06
 -1      2850 9.93394E-06 6.27204E-05-6.53255E-06
 -1      2851 9.93394E-06 6.27204E-05-6.70571E-06
 -1      2852 9.93394E-06 6.27204E-05-6.87886E-06
 -1      2853 9.93394E-06 6.27204E-05-7.05202E-06
 -1      2854 9.93394E-06 6.27204E-05-7.22518E-06
 -1      2855 6.27204E-05 9.93394E-06-5.58017E-06
 -1      2856 6.32912E-05 4.98113E-06-5.66675E-06
 -1      2858 6.27204E-05 9.93394E-06-5.75333E-06
 -1      2859 6.32912E-05 4.98113E-06-5.83991E-06
 -1      2861 6.27204E-05 9.93394E-06-5.92649E-06
 -1      2862 6.32912E-05 4.98113E-06-6.01307E-06
 -1      2864 6.27204E-05 9.93394E-06-6.09965E-06
 -1      2865 6.32912E-05 4.98113E-06-6.18623E-06
 -1      2867 6.27204E-05 9.93394E-06-6.27281E-06
 -1      2868 6.32912E-05 4.98113E-06-6.35939E-06
 -1      2870 6.27204E-05 9.93394E-06-6.44597E-06
 -1      2871 6.32912E-05 4.98113E-06-6.53255E-06
 -1      2873 6.27204E-05 9.93394E-06-6.61913E-06
 -1      2874 6.32912E-05 4.98113E-06-6.70571E-06
 -1      2876 6.27204E-05 9.93394E-06-6.79228E-06
 -1      2877 6.32912E-05 4.98113E-06-6.87886E-06
 -1      2879 6.27204E-05 9.93394E-06-6.96544E-06
 -1      2880 6.32912E-05 4.98113E-06-7.05202E-06
 -1      2882 6.27204E-05 9.93394E-06-7.13860E-06
 -1      2883 6.32912E-05 4.98113E-06-7.22518E-06
 -1      2885 6.27204E-05 9.93394E-06-7.31176E-06
 -1      2887 6.03942E-05 1.96233E-05-5.58017E-06
 -1      2888 6.17328E-05 1.48207E-05-5.66675E-06
 -1      2890 6.03942E-05 1.96233E-05-5.75333E-06
 -1      2891 6.17328E-05 1.48207E-05-5.83991E-06
 -1      2893 6.03942E-05 1.96233E-05-5.92649E-06
 -1      2894 6.17328E-05 1.48207E-05-6.01307E-06
 -1      2896 6.03942E-05 1.96233E-05-6.09965E-06
 -1      2897 6.17328E-05 1.48207E-05-6.18623E-06
 -1      2899 6.03942E-05 1.96233E-05-6.27281E-06
 -1      2900 6.17328E-05 1.48207E-05-6.35939E-06
 -1      2902 6.03942E-05 1.96233E-05-6.44597E-06
 -1      2903 6.17328E-05 1.48207E-05-6.53255E-06
 -1      2905 6.03942E-05 1.96233E-05-6.61913E-06
 -1      2906 6.17328E-05 1.48207E-05-6.70571E-06
 -1      2908 6.03942E-05 1.96233E-05-6.79228E-06
 -1      2909 6.17328E-05 1.48207E-05-6.87886E-06
 -1      2911 6.03942E-05 1.96233E-05-6.96544E-06
 -1      2912 6.17328E-05 1.48207E-05-7.05202E-06
 -1      2914 6.03942E-05 1.96233E-05-7.13860E-06
 -1      2915 6.17328E-05 1.48207E-05-7.22518E-06
 -1      2917 6.03942E-05 1.96233E-05-7.31176E-06
 -1      2919 5.65809E-05 2.88294E-05-5.58017E-06
 -1      2920 5.86543E-05 2.42954E-05-5.66675E-06
 -1      2922 5.65809E-05 2.88294E-05-5.75333E-06
 -1      2923 5.86543E-05 2.42954E-05-5.83991E-06
 -1      2925 5.65809E-05 2.88294E-05-5.92649E-06
 -1      2926 5.86543E-05 2.42954E-05-6.01307E-06
 -1      2928 5.65809E-05 2.88294E-05-6.09965E-06
 -1      2929 5.86543E-05 2.42954E-05-6.18623E-06
 -1      2931 5.65809E-05 2.88294E-05-6.27281E-06
 -1      2932 5.86543E-05 2.42954E-05-6.35939E-06
 -1      2934 5.65809E-05 2.88294E-05-6.44597E-06
 -1      2935 5.86543E-05 2.42954E-05-6.53255E-06
 -1      2937 5.65809E-05 2.88294E-05-6.61913E-06
 -1      2938 5.86543E-05 2.42954E-05-6.70571E-06
 -1      2940 5.65809E-05 2.88294E-05-6.79228E-06
 -1      2941 5.86543E-05 2.42954E-05-6.87886E-06
 -1      2943 5.65809E-05 2.88294E-05-6.96544E-06
 -1      2944 5.86543E-05 2.42954E-05-7.05202E-06
 -1      2946 5.65809E-05 2.88294E-05-7.13860E-06
 -1      2947 5.86543E-05 2.42954E-05-7.22518E-06
 -1      2949 5.65809E-05 2.88294E-05-7.31176E-06
 -1      2951 5.13744E-05 3.73257E-05-5.58017E-06
 -1      2952 5.41315E-05 3.31718E-05-5.66675E-06
 -1      2954 5.13744E-05 3.73257E-05-5.75333E-06
 -1      2955 5.41315E-05 3.31718E-05-5.83991E-06
 -1      2957 5.13744E-05 3.73257E-05-5.92649E-06
 -1      2958 5.41315E-05 3.31718E-05-6.01307E-06
 -1      2960 5.13744E-05 3.73257E-05-6.09965E-06
 -1      2961 5.41315E-05 3.31718E-05-6.18623E-06
 -1      2963 5.13744E-05 3.73257E-05-6.27281E-06
 -1      2964 5.41315E-05 3.31718E-05-6.35939E-06
 -1      2966 5.13744E-05 3.73257E-05-6.44597E-06
 -1      2967 5.41315E-05 3.31718E-05-6.53255E-06
 -1      2969 5.13744E-05 3.73257E-05-6.61913E-06
 -1      2970 5.41315E-05 3.31718E-05-6.70571E-06
 -1      2972 5.13744E-05 3.73257E-05-6.79228E-06
 -1      2973 5.41315E-05 3.31718E-05-6.87886E-06
 -1      2975 5.13744E-05 3.73257E-05-6.96544E-06
 -1      2976 5.41315E-05 3.31718E-05-7.05202E-06
 -1      2978 5.13744E-05 3.73257E-05-7.13860E-06
 -1      2979 5.41315E-05 3.31718E-05-7.22518E-06
 -1      2981 5.13744E-05 3.73257E-05-7.31176E-06
 -1      2983 4.49029E-05 4.49029E-05-5.58017E-06
 -1      2984 4.82759E-05 4.12315E-05-5.66675E-06
 -1      2986 4.49029E-05 4.49029E-05-5.75333E-06
 -1      2987 4.82759E-05 4.12315E-05-5.83991E-06
 -1      2989 4.49029E-05 4.49029E-05-5.92649E-06
 -1      2990 4.82759E-05 4.12315E-05-6.01307E-06
 -1      2992 4.49029E-05 4.49029E-05-6.09965E-06
 -1      2993 4.82759E-05 4.12315E-05-6.18623E-06
 -1      2995 4.49029E-05 4.49029E-05-6.27281E-06
 -1      2996 4.82759E-05 4.12315E-05-6.35939E-06
 -1      2998 4.49029E-05 4.49029E-05-6.44597E-06
 -1      2999 4.82759E-05 4.12315E-05-6.53255E-06
 -1      3001 4.49029E-05 4.49029E-05-6.61913E-06
 -1      3002 4.82759E-05 4.12315E-05-6.70571E-06
 -1      3004 4.49029E-05 4.49029E-05-6.79228E-06
 -1      3005 4.82759E-05 4.12315E-05-6.87886E-06
 -1      3007 4.49029E-05 4.49029E-05-6.96544E-06
 -1      3008 4.82759E-05 4.12315E-05-7.05202E-06
 -1      3010 4.49029E-05 4.49029E-05-7.13860E-06
 -1      3011 4.82759E-05 4.12315E-05-7.22518E-06
 -1      3013 4.49029E-05 4.49029E-05-7.31176E-06
 -1      3015 3.73257E-05 5.13744E-05-5.58017E-06
 -1      3016 4.12315E-05 4.82758E-05-5.66675E-06
 -1      3018 3.73257E-05 5.13744E-05-5.75333E-06
 -1      3019 4.12315E-05 4.82758E-05-5.83991E-06
 -1      3021 3.73257E-05 5.13744E-05-5.92649E-06
 -1      3022 4.12315E-05 4.82758E-05-6.01307E-06
 -1      3024 3.73257E-05 5.13744E-05-6.09965E-06
 -1      3025 4.12315E-05 4.82758E-05-6.18623E-06
 -1      3027 3.73257E-05 5.13744E-05-6.27281E-06
 -1      3028 4.12315E-05 4.82758E-05-6.35939E-06
 -1      3030 3.73257E-05 5.13744E-05-6.44597E-06
 -1      3031 4.12315E-05 4.82758E-05-6.53255E-06
 -1      3033 3.73257E-05 5.13744E-05-6.61913E-06
 -1      3034 4.12315E-05 4.82758E-05-6.70570E-06
 -1      3036 3.73257E-05 5.13744E-05-6.79229E-06
 -1      3037 4.12315E-05 4.82758E-05-6.87886E-06
 -1      3039 3.73257E-05 5.13744E-05-6.96544E-06
 -1      3040 4.12315E-05 4.82758E-05-7.05202E-06
 -1      3042 3.73257E-05 5.13744E-05-7.13860E-06
 -1      3043 4.12315E-05 4.82758E-05-7.22518E-06
 -1      3045 3.73257E-05 5.13744E-05-7.31177E-06
 -1      3047 2.88294E-05 5.65809E-05-5.58017E-06
 -1      3048 3.31718E-05 5.41315E-05-5.66675E-06
 -1      3050 2.88294E-05 5.65809E-05-5.75333E-06
 -1      3051 3.31718E-05 5.41315E-05-5.83991E-06
 -1      3053 2.88294E-05 5.65809E-05-5.92649E-06
 -1      3054 3.31718E-05 5.41315E-05-6.01307E-06
 -1      3056 2.88294E-05 5.65809E-05-6.09965E-06
 -1      3057 3.31718E-05 5.41315E-05-6.18623E-06
 -1      3059 2.88294E-05 5.65809E-05-6.27281E-06
 -1      3060 3.31718E-05 5.41315E-05-6.35939E-06
 -1      3062 2.88294E-05 5.65809E-05-6.44597E-06
 -1      3063 3.31718E-05 5.41315E-05-6.53255E-06
 -1      3065 2.88294E-05 5.65809E-05-6.61913E-06
 -1      3066 3.31718E-05 5.41315E-05-6.70570E-06
 -1      3068 2.88294E-05 5.65809E-05-6.79228E-06
 -1      3069 3.31718E-05 5.41315E-05-6.87886E-06
 -1      3071 2.88294E-05 5.65809E-05-6.96544E-06
 -1      3072 3.31718E-05 5.41315E-05-7.05202E-06
 -1      3074 2.88294E-05 5.65809E-05-7.13860E-06
 -1      3075 3.31718E-05 5.41315E-05-7.22518E-06
 -1      3077 2.88294E-05 5.65809E-05-7.31176E-06
 -1      3079 1.96233E-05 6.03942E-05-5.58017E-06
 -1      3080 2.42954E-05 5.86543E-05-5.66675E-06
 -1      3082 1.96233E-05 6.03942E-05-5.75333E-06
 -1      3083 2.42954E-05 5.86543E-05-5.83991E-06
 -1      3085 1.96233E-05 6.03942E-05-5.92649E-06
 -1      3086 2.42954E-05 5.86543E-05-6.01307E-06
 -1      3088 1.96233E-05 6.03942E-05-6.09965E-06
 -1      3089 2.42954E-05 5.86543E-05-6.18623E-06
 -1      3091 1.96233E-05 6.03942E-05-6.27281E-06
 -1      3092 2.42954E-05 5.86543E-05-6.35939E-06
 -1      3094 1.96233E-05 6.03942E-05-6.44597E-06
 -1      3095 2.42954E-05 5.86543E-05-6.53255E-06
 -1      3097 1.96233E-05 6.03942E-05-6.61913E-06
 -1      3098 2.42954E-05 5.86543E-05-6.70571E-06
 -1      3100 1.96233E-05 6.03942E-05-6.79228E-06
 -1      3101 2.42954E-05 5.86543E-05-6.87886E-06
 -1      3103 1.96233E-05 6.03942E-05-6.96544E-06
 -1      3104 2.42954E-05 5.86543E-05-7.05202E-06
 -1      3106 1.96233E-05 6.03942E-05-7.13860E-06
 -1      3107 2.42954E-05 5.86543E-05-7.22518E-06
 -1      3109 1.96233E-05 6.03942E-05-7.31176E-06
 -1      3111 9.93394E-06 6.27204E-05-5.58017E-06
 -1      3112 1.48208E-05 6.17328E-05-5.66675E-06
 -1      3114 9.93394E-06 6.27204E-05-5.75333E-06
 -1      3115 1.48208E-05 6.17328E-05-5.83991E-06
 -1      3117 9.93394E-06 6.27204E-05-5.92649E-06
 -1      3118 1.48208E-05 6.17328E-05-6.01307E-06
 -1      3120 9.93394E-06 6.27204E-05-6.09965E-06
 -1      3121 1.48208E-05 6.17328E-05-6.18623E-06
 -1      3123 9.93394E-06 6.27204E-05-6.27281E-06
 -1      3124 1.48208E-05 6.17328E-05-6.35939E-06
 -1      3126 9.93394E-06 6.27204E-05-6.44597E-06
 -1      3127 1.48208E-05 6.17328E-05-6.53255E-06
 -1      3129 9.93394E-06 6.27204E-05-6.61913E-06
 -1      3130 1.48208E-05 6.17328E-05-6.70571E-06
 -1      3132 9.93394E-06 6.27204E-05-6.79228E-06
 -1      3133 1.48208E-05 6.17328E-05-6.87886E-06
 -1      3135 9.93394E-06 6.27204E-05-6.96544E-06
 -1      3136 1.48208E-05 6.17328E-05-7.05202E-06
 -1      3138 9.93394E-06 6.27204E-05-7.13860E-06
 -1      3139 1.48208E-05 6.17328E-05-7.22518E-06
 -1      3141 9.93394E-06 6.27204E-05-7.31177E-06
 -1      3143 4.98120E-06 6.32912E-05-5.66675E-06
 -1      3145 4.98120E-06 6.32912E-05-5.83991E-06
 -1      3147 4.98120E-06 6.32912E-05-6.01307E-06
 -1      3149 4.98120E-06 6.32912E-05-6.18623E-06
 -1      3151 4.98120E-06 6.32912E-05-6.35939E-06
 -1      3153 4.98120E-06 6.32912E-05-6.53255E-06
 -1      3155 4.98120E-06 6.32912E-05-6.70570E-06
 -1      3157 4.98120E-06 6.32912E-05-6.87886E-06
 -1      3159 4.98120E-06 6.32912E-05-7.05202E-06
 -1      3161 4.98120E-06 6.32912E-05-7.22518E-06
 -1      3164 0.00000E+00 6.40046E-05-5.66674E-06
 -1      3165 0.00000E+00 6.40046E-05-5.83990E-06
 -1      3166 0.00000E+00 6.40046E-05-6.01306E-06
 -1      3167 0.00000E+00 6.40046E-05-6.18622E-06
 -1      3168 0.00000E+00 6.40046E-05-6.35939E-06
 -1      3169 0.00000E+00 6.40046E-05-6.53255E-06
 -1      3170 0.00000E+00 6.40046E-05-6.70571E-06
 -1      3171 0.00000E+00 6.40046E-05-6.87887E-06
 -1      3172 0.00000E+00 6.40046E-05-7.05203E-06
 -1      3173 0.00000E+00 6.40046E-05-7.22519E-06
 -1      3174 0.00000E+00 6.45503E-05-5.66674E-06
 -1      3175 0.00000E+00 6.45503E-05-5.83990E-06
 -1      3176 0.00000E+00 6.45503E-05-6.01306E-06
 -1      3177 0.00000E+00 6.45503E-05-6.18623E-06
 -1      3178 0.00000E+00 6.45503E-05-6.35939E-06
 -1      3179 0.00000E+00 6.45503E-05-6.53255E-06
 -1      3180 0.00000E+00 6.45503E-05-6.70571E-06
 -1      3181 0.00000E+00 6.45503E-05-6.87887E-06
 -1      3182 0.00000E+00 6.45503E-05-7.05203E-06
 -1      3183 0.00000E+00 6.45503E-05-7.22519E-06
 -1      3184 0.00000E+00 6.51720E-05-5.66675E-06
 -1      3185 0.00000E+00 6.51720E-05-5.83991E-06
 -1      3186 0.00000E+00 6.51720E-05-6.01307E-06
 -1      3187 0.00000E+00 6.51720E-05-6.18623E-06
 -1      3188 0.00000E+00 6.51720E-05-6.35939E-06
 -1      3189 0.00000E+00 6.51720E-05-6.53255E-06
 -1      3190 0.00000E+00 6.51720E-05-6.70571E-06
 -1      3191 0.00000E+00 6.51720E-05-6.87887E-06
 -1      3192 0.00000E+00 6.51720E-05-7.05203E-06
 -1      3193 0.00000E+00 6.51720E-05-7.22519E-06
 -1      3194 0.00000E+00 6.58550E-05-5.66675E-06
 -1      3195 0.00000E+00 6.58550E-05-5.83991E-06
 -1      3196 0.00000E+00 6.58550E-05-6.01307E-06
 -1      3197 0.00000E+00 6.58550E-05-6.18623E-06
 -1      3198 0.00000E+00 6.58550E-05-6.35939E-06
 -1      3199 0.00000E+00 6.58550E-05-6.53255E-06
 -1      3200 0.00000E+00 6.58550E-05-6.70571E-06
 -1      3201 0.00000E+00 6.58550E-05-6.87887E-06
 -1      3202 0.00000E+00 6.58550E-05-7.05203E-06
 -1      3203 0.00000E+00 6.58550E-05-7.22519E-06
 -1      3204 0.00000E+00 6.66097E-05-5.66675E-06
 -1      3205 0.00000E+00 6.66097E-05-5.83991E-06
 -1      3206 0.00000E+00 6.66097E-05-6.01307E-06
 -1      3207 0.00000E+00 6.66097E-05-6.18623E-06
 -1      3208 0.00000E+00 6.66097E-05-6.35939E-06
 -1      3209 0.00000E+00 6.66097E-05-6.53255E-06
 -1      3210 0.00000E+00 6.66097E-05-6.70571E-06
 -1      3211 0.00000E+00 6.66097E-05-6.87887E-06
 -1      3212 0.00000E+00 6.66097E-05-7.05203E-06
 -1      3213 0.00000E+00 6.66097E-05-7.22519E-06
 -1      3214 0.00000E+00 6.74414E-05-5.66675E-06
 -1      3215 0.00000E+00 6.74414E-05-5.83991E-06
 -1      3216 0.00000E+00 6.74414E-05-6.01307E-06
 -1      3217 0.00000E+00 6.74414E-05-6.18623E-06
 -1      3218 0.00000E+00 6.74414E-05-6.35939E-06
 -1      3219 0.00000E+00 6.74414E-05-6.53255E-06
 -1      3220 0.00000E+00 6.74414E-05-6.70571E-06
 -1      3221 0.00000E+00 6.74414E-05-6.87887E-06
 -1      3222 0.00000E+00 6.74414E-05-7.05203E-06
 -1      3223 0.00000E+00 6.74414E-05-7.22519E-06
 -1      3224 0.00000E+00 6.83571E-05-5.66675E-06
 -1      3225 0.00000E+00 6.83571E-05-5.83991E-06
 -1      3226 0.00000E+00 6.83571E-05-6.01307E-06
 -1      3227 0.00000E+00 6.83571E-05-6.18623E-06
 -1      3228 0.00000E+00 6.83571E-05-6.35939E-06
 -1      3229 0.00000E+00 6.83571E-05-6.53255E-06
 -1      3230 0.00000E+00 6.83571E-05-6.70571E-06
 -1      3231 0.00000E+00 6.83571E-05-6.87887E-06
 -1      3232 0.00000E+00 6.83571E-05-7.05203E-06
 -1      3233 0.00000E+00 6.83571E-05-7.22519E-06
 -1      3234 0.00000E+00 6.93648E-05-5.66675E-06
 -1      3235 0.00000E+00 6.93648E-05-5.83991E-06
 -1      3236 0.00000E+00 6.93648E-05-6.01307E-06
 -1      3237 0.00000E+00 6.93648E-05-6.18623E-06
 -1      3238 0.00000E+00 6.93648E-05-6.35939E-06
 -1      3239 0.00000E+00 6.93648E-05-6.53255E-06
 -1      3240 0.00000E+00 6.93648E-05-6.70571E-06
 -1      3241 0.00000E+00 6.93648E-05-6.87887E-06
 -1      3242 0.00000E+00 6.93648E-05-7.05203E-06
 -1      3243 0.00000E+00 6.93648E-05-7.22519E-06
 -1      3244 0.00000E+00 7.04733E-05-5.66675E-06
 -1      3245 0.00000E+00 7.04733E-05-5.83991E-06
 -1      3246 0.00000E+00 7.04733E-05-6.01307E-06
 -1      3247 0.00000E+00 7.04733E-05-6.18623E-06
 -1      3248 0.00000E+00 7.04733E-05-6.35939E-06
 -1      3249 0.00000E+00 7.04733E-05-6.53255E-06
 -1      3250 0.00000E+00 7.04733E-05-6.70571E-06
 -1      3251 0.00000E+00 7.04733E-05-6.87887E-06
 -1      3252 0.00000E+00 7.04733E-05-7.05203E-06
 -1      3253 0.00000E+00 7.04733E-05-7.22519E-06
 -1      3254 0.00000E+00 7.16928E-05-5.66675E-06
 -1      3255 0.00000E+00 7.16928E-05-5.83991E-06
 -1      3256 0.00000E+00 7.16928E-05-6.01307E-06
 -1      3257 0.00000E+00 7.16928E-05-6.18623E-06
 -1      3258 0.00000E+00 7.16928E-05-6.35939E-06
 -1      3259 0.00000E+00 7.16928E-05-6.53255E-06
 -1      3260 0.00000E+00 7.16928E-05-6.70571E-06
 -1      3261 0.00000E+00 7.16928E-05-6.87887E-06
 -1      3262 0.00000E+00 7.16928E-05-7.05203E-06
 -1      3263 0.00000E+00 7.16928E-05-7.22519E-06
 -1      3264 0.00000E+00 7.30347E-05-5.66675E-06
 -1      3265 0.00000E+00 7.30347E-05-5.83991E-06
 -1      3266 0.00000E+00 7.30347E-05-6.01307E-06
 -1      3267 0.00000E+00 7.30347E-05-6.18623E-06
 -1      3268 0.00000E+00 7.30347E-05-6.35939E-06
 -1      3269 0.00000E+00 7.30347E-05-6.53255E-06
 -1      3270 0.00000E+00 7.30347E-05-6.70571E-06
 -1      3271 0.00000E+00 7.30347E-05-6.87887E-06
 -1      3272 0.00000E+00 7.30347E-05-7.05203E-06
 -1      3273 0.00000E+00 7.30347E-05-7.22519E-06
 -1      3274 0.00000E+00 7.45121E-05-5.66675E-06
 -1      3275 0.00000E+00 7.45121E-05-5.83991E-06
 -1      3276 0.00000E+00 7.45121E-05-6.01307E-06
 -1      3277 0.00000E+00 7.45121E-05-6.18623E-06
 -1      3278 0.00000E+00 7.45121E-05-6.35939E-06
 -1      3279 0.00000E+00 7.45121E-05-6.53255E-06
 -1      3280 0.00000E+00 7.45121E-05-6.70571E-06
 -1      3281 0.00000E+00 7.45121E-05-6.87887E-06
 -1      3282 0.00000E+00 7.45121E-05-7.05203E-06
 -1      3283 0.00000E+00 7.45121E-05-7.22519E-06
 -1      3284 0.00000E+00 7.61402E-05-5.66675E-06
 -1      3285 0.00000E+00 7.61402E-05-5.83991E-06
 -1      3286 0.00000E+00 7.61402E-05-6.01307E-06
 -1      3287 0.00000E+00 7.61402E-05-6.18623E-06
 -1      3288 0.00000E+00 7.61402E-05-6.35939E-06
 -1      3289 0.00000E+00 7.61402E-05-6.53255E-06
 -1      3290 0.00000E+00 7.61402E-05-6.70571E-06
 -1      3291 0.00000E+00 7.61402E-05-6.87887E-06
 -1      3292 0.00000E+00 7.61402E-05-7.05203E-06
 -1      3293 0.00000E+00 7.61402E-05-7.22519E-06
 -1      3294 0.00000E+00 7.79362E-05-5.66675E-06
 -1      3295 0.00000E+00 7.79362E-05-5.83991E-06
 -1      3296 0.00000E+00 7.79362E-05-6.01307E-06
 -1      3297 0.00000E+00 7.79362E-05-6.18623E-06
 -1      3298 0.00000E+00 7.79362E-05-6.35939E-06
 -1      3299 0.00000E+00 7.79362E-05-6.53255E-06
 -1      3300 0.00000E+00 7.79362E-05-6.70571E-06
 -1      3301 0.00000E+00 7.79362E-05-6.87887E-06
 -1      3302 0.00000E+00 7.79362E-05-7.05203E-06
 -1      3303 0.00000E+00 7.79362E-05-7.22519E-06
 -1      3304 0.00000E+00 7.99203E-05-5.66675E-06
 -1      3305 0.00000E+00 7.99203E-05-5.83991E-06
 -1      3306 0.00000E+00 7.99203E-05-6.01307E-06
 -1      3307 0.00000E+00 7.99203E-05-6.18623E-06
 -1      3308 0.00000E+00 7.99203E-05-6.35939E-06
 -1      3309 0.00000E+00 7.99203E-05-6.53255E-06
 -1      3310 0.00000E+00 7.99203E-05-6.70571E-06
 -1      3311 0.00000E+00 7.99203E-05-6.87887E-06
 -1      3312 0.00000E+00 7.99203E-05-7.05203E-06
 -1      3313 0.00000E+00 7.99203E-05-7.22519E-06
 -1      3314 0.00000E+00 8.21160E-05-5.66675E-06
 -1      3315 0.00000E+00 8.21160E-05-5.83991E-06
 -1      3316 0.00000E+00 8.21160E-05-6.01307E-06
 -1      3317 0.00000E+00 8.21160E-05-6.18623E-06
 -1      3318 0.00000E+00 8.21160E-05-6.35939E-06
 -1      3319 0.00000E+00 8.21160E-05-6.53255E-06
 -1      3320 0.00000E+00 8.21160E-05-6.70571E-06
 -1      3321 0.00000E+00 8.21160E-05-6.87887E-06
 -1      3322 0.00000E+00 8.21160E-05-7.05203E-06
 -1      3323 0.00000E+00 8.21160E-05-7.22519E-06
 -1      3324 0.00000E+00 8.45511E-05-5.66675E-06
 -1      3325 0.00000E+00 8.45511E-05-5.83991E-06
 -1      3326 0.00000E+00 8.45511E-05-6.01307E-06
 -1      3327 0.00000E+00 8.45511E-05-6.18623E-06
 -1      3328 0.00000E+00 8.45511E-05-6.35939E-06
 -1      3329 0.00000E+00 8.45511E-05-6.53255E-06
 -1      3330 0.00000E+00 8.45511E-05-6.70571E-06
 -1      3331 0.00000E+00 8.45511E-05-6.87887E-06
 -1      3332 0.00000E+00 8.45511E-05-7.05203E-06
 -1      3333 0.00000E+00 8.45511E-05-7.22519E-06
 -1      3334 0.00000E+00 8.72579E-05-5.66675E-06
 -1      3335 0.00000E+00 8.72579E-05-5.83991E-06
 -1      3336 0.00000E+00 8.72579E-05-6.01307E-06
 -1      3337 0.00000E+00 8.72579E-05-6.18623E-06
 -1      3338 0.00000E+00 8.72579E-05-6.35939E-06
 -1      3339 0.00000E+00 8.72579E-05-6.53255E-06
 -1      3340 0.00000E+00 8.72579E-05-6.70571E-06
 -1      3341 0.00000E+00 8.72579E-05-6.87887E-06
 -1      3342 0.00000E+00 8.72579E-05-7.05203E-06
 -1      3343 0.00000E+00 8.72579E-05-7.22519E-06
 -1      3344 0.00000E+00 9.02755E-05-5.66675E-06
 -1      3345 0.00000E+00 9.02755E-05-5.83991E-06
 -1      3346 0.00000E+00 9.02755E-05-6.01307E-06
 -1      3347 0.00000E+00 9.02755E-05-6.18623E-06
 -1      3348 0.00000E+00 9.02755E-05-6.35939E-06
 -1      3349 0.00000E+00 9.02755E-05-6.53255E-06
 -1      3350 0.00000E+00 9.02755E-05-6.70571E-06
 -1      3351 0.00000E+00 9.02755E-05-6.87887E-06
 -1      3352 0.00000E+00 9.02755E-05-7.05203E-06
 -1      3353 0.00000E+00 9.02755E-05-7.22519E-06
 -1      3354 0.00000E+00 9.36504E-05-5.66675E-06
 -1      3355 0.00000E+00 9.36504E-05-5.83991E-06
 -1      3356 0.00000E+00 9.36504E-05-6.01307E-06
 -1      3357 0.00000E+00 9.36504E-05-6.18623E-06
 -1      3358 0.00000E+00 9.36504E-05-6.35939E-06
 -1      3359 0.00000E+00 9.36504E-05-6.53255E-06
 -1      3360 0.00000E+00 9.36504E-05-6.70571E-06
 -1      3361 0.00000E+00 9.36504E-05-6.87887E-06
 -1      3362 0.00000E+00 9.36504E-05-7.05203E-06
 -1      3363 0.00000E+00 9.36504E-05-7.22519E-06
 -1      3364 0.00000E+00 9.74390E-05-5.66675E-06
 -1      3365 0.00000E+00 9.74390E-05-5.83991E-06
 -1      3366 0.00000E+00 9.74390E-05-6.01307E-06
 -1      3367 0.00000E+00 9.74390E-05-6.18623E-06
 -1      3368 0.00000E+00 9.74390E-05-6.35939E-06
 -1      3369 0.00000E+00 9.74390E-05-6.53255E-06
 -1      3370 0.00000E+00 9.74390E-05-6.70571E-06
 -1      3371 0.00000E+00 9.74390E-05-6.87887E-06
 -1      3372 0.00000E+00 9.74390E-05-7.05203E-06
 -1      3373 0.00000E+00 9.74390E-05-7.22519E-06
 -1      3374 0.00000E+00 1.01710E-04-5.66675E-06
 -1      3375 0.00000E+00 1.01710E-04-5.83991E-06
 -1      3376 0.00000E+00 1.01710E-04-6.01307E-06
 -1      3377 0.00000E+00 1.01710E-04-6.18623E-06
 -1      3378 0.00000E+00 1.01710E-04-6.35939E-06
 -1      3379 0.00000E+00 1.01710E-04-6.53255E-06
 -1      3380 0.00000E+00 1.01710E-04-6.70571E-06
 -1      3381 0.00000E+00 1.01710E-04-6.87887E-06
 -1      3382 0.00000E+00 1.01710E-04-7.05203E-06
 -1      3383 0.00000E+00 1.01710E-04-7.22519E-06
 -1      3384 0.00000E+00 1.06550E-04-5.66675E-06
 -1      3385 0.00000E+00 1.06550E-04-5.83991E-06
 -1      3386 0.00000E+00 1.06550E-04-6.01307E-06
 -1      3387 0.00000E+00 1.06550E-04-6.18623E-06
 -1      3388 0.00000E+00 1.06550E-04-6.35939E-06
 -1      3389 0.00000E+00 1.06550E-04-6.53255E-06
 -1      3390 0.00000E+00 1.06550E-04-6.70571E-06
 -1      3391 0.00000E+00 1.06550E-04-6.87887E-06
 -1      3392 0.00000E+00 1.06550E-04-7.05203E-06
 -1      3393 0.00000E+00 1.06550E-04-7.22519E-06
 -1      3394 0.00000E+00 1.12063E-04-5.66675E-06
 -1      3395 0.00000E+00 1.12063E-04-5.83991E-06
 -1      3396 0.00000E+00 1.12063E-04-6.01307E-06
 -1      3397 0.00000E+00 1.12063E-04-6.18623E-06
 -1      3398 0.00000E+00 1.12063E-04-6.35939E-06
 -1      3399 0.00000E+00 1.12063E-04-6.53255E-06
 -1      3400 0.00000E+00 1.12063E-04-6.70571E-06
 -1      3401 0.00000E+00 1.12063E-04-6.87887E-06
 -1      3402 0.00000E+00 1.12063E-04-7.05203E-06
 -1      3403 0.00000E+00 1.12063E-04-7.22519E-06
 -1      3404 0.00000E+00 1.18386E-04-5.66675E-06
 -1      3405 0.00000E+00 1.18386E-04-5.83991E-06
 -1      3406 0.00000E+00 1.18386E-04-6.01307E-06
 -1      3407 0.00000E+00 1.18386E-04-6.18623E-06
 -1      3408 0.00000E+00 1.18386E-04-6.35939E-06
 -1      3409 0.00000E+00 1.18386E-04-6.53255E-06
 -1      3410 0.00000E+00 1.18386E-04-6.70571E-06
 -1      3411 0.00000E+00 1.18386E-04-6.87887E-06
 -1      3412 0.00000E+00 1.18386E-04-7.05203E-06
 -1      3413 0.00000E+00 1.18386E-04-7.22519E-06
 -1      3414 0.00000E+00 1.25691E-04-5.66675E-06
 -1      3415 0.00000E+00 1.25691E-04-5.83991E-06
 -1      3416 0.00000E+00 1.25691E-04-6.01307E-06
 -1      3417 0.00000E+00 1.25691E-04-6.18623E-06
 -1      3418 0.00000E+00 1.25691E-04-6.35939E-06
 -1      3419 0.00000E+00 1.25691E-04-6.53255E-06
 -1      3420 0.00000E+00 1.25691E-04-6.70571E-06
 -1      3421 0.00000E+00 1.25691E-04-6.87887E-06
 -1      3422 0.00000E+00 1.25691E-04-7.05203E-06
 -1      3423 0.00000E+00 1.25691E-04-7.22519E-06
 -1      3424 0.00000E+00 1.34205E-04-5.66675E-06
 -1      3425 0.00000E+00 1.34205E-04-5.83990E-06
 -1      3426 0.00000E+00 1.34205E-04-6.01306E-06
 -1      3427 0.00000E+00 1.34205E-04-6.18623E-06
 -1      3428 0.00000E+00 1.34205E-04-6.35939E-06
 -1      3429 0.00000E+00 1.34205E-04-6.53255E-06
 -1      3430 0.00000E+00 1.34205E-04-6.70571E-06
 -1      3431 0.00000E+00 1.34205E-04-6.87887E-06
 -1      3432 0.00000E+00 1.34205E-04-7.05203E-06
 -1      3433 0.00000E+00 1.34205E-04-7.22519E-06
 -1      3434 0.00000E+00 1.44235E-04-5.66675E-06
 -1      3435 0.00000E+00 1.44235E-04-5.83991E-06
 -1      3436 0.00000E+00 1.44235E-04-6.01307E-06
 -1      3437 0.00000E+00 1.44235E-04-6.18623E-06
 -1      3438 0.00000E+00 1.44235E-04-6.35939E-06
 -1      3439 0.00000E+00 1.44235E-04-6.53255E-06
 -1      3440 0.00000E+00 1.44235E-04-6.70570E-06
 -1      3441 0.00000E+00 1.44235E-04-6.87886E-06
 -1      3442 0.00000E+00 1.44235E-04-7.05202E-06
 -1      3443 0.00000E+00 1.44235E-04-7.22519E-06
 -1      3444 0.00000E+00 1.56174E-04-5.66674E-06
 -1      3445 0.00000E+00 1.56174E-04-5.83990E-06
 -1      3446 0.00000E+00 1.56174E-04-6.01307E-06
 -1      3447 0.00000E+00 1.56174E-04-6.18623E-06
 -1      3448 0.00000E+00 1.56174E-04-6.35939E-06
 -1      3449 0.00000E+00 1.56174E-04-6.53255E-06
 -1      3450 0.00000E+00 1.56174E-04-6.70571E-06
 -1      3451 0.00000E+00 1.56174E-04-6.87887E-06
 -1      3452 0.00000E+00 1.56174E-04-7.05203E-06
 -1      3453 0.00000E+00 1.56174E-04-7.22519E-06
 -1      3454 0.00000E+00 6.40046E-05-5.58016E-06
 -1      3455 0.00000E+00 6.37456E-05-5.66675E-06
 -1      3457 0.00000E+00 6.40046E-05-5.75332E-06
 -1      3458 0.00000E+00 6.37456E-05-5.83991E-06
 -1      3460 0.00000E+00 6.40046E-05-5.92648E-06
 -1      3461 0.00000E+00 6.37456E-05-6.01307E-06
 -1      3463 0.00000E+00 6.40046E-05-6.09964E-06
 -1      3464 0.00000E+00 6.37456E-05-6.18623E-06
 -1      3466 0.00000E+00 6.40046E-05-6.27281E-06
 -1      3467 0.00000E+00 6.37456E-05-6.35939E-06
 -1      3469 0.00000E+00 6.40046E-05-6.44597E-06
 -1      3470 0.00000E+00 6.37456E-05-6.53255E-06
 -1      3472 0.00000E+00 6.40046E-05-6.61913E-06
 -1      3473 0.00000E+00 6.37456E-05-6.70571E-06
 -1      3475 0.00000E+00 6.40046E-05-6.79229E-06
 -1      3476 0.00000E+00 6.37456E-05-6.87887E-06
 -1      3478 0.00000E+00 6.40046E-05-6.96545E-06
 -1      3479 0.00000E+00 6.37456E-05-7.05203E-06
 -1      3481 0.00000E+00 6.40046E-05-7.13861E-06
 -1      3482 0.00000E+00 6.37456E-05-7.22519E-06
 -1      3484 0.00000E+00 6.40046E-05-7.31177E-06
 -1      3486 0.00000E+00 6.45503E-05-5.58017E-06
 -1      3487 0.00000E+00 6.42702E-05-5.66674E-06
 -1      3489 0.00000E+00 6.45503E-05-5.75332E-06
 -1      3490 0.00000E+00 6.42702E-05-5.83990E-06
 -1      3492 0.00000E+00 6.45503E-05-5.92648E-06
 -1      3493 0.00000E+00 6.42702E-05-6.01306E-06
 -1      3495 0.00000E+00 6.45503E-05-6.09964E-06
 -1      3496 0.00000E+00 6.42702E-05-6.18622E-06
 -1      3498 0.00000E+00 6.45503E-05-6.27281E-06
 -1      3499 0.00000E+00 6.42702E-05-6.35939E-06
 -1      3501 0.00000E+00 6.45503E-05-6.44597E-06
 -1      3502 0.00000E+00 6.42702E-05-6.53255E-06
 -1      3504 0.00000E+00 6.45503E-05-6.61913E-06
 -1      3505 0.00000E+00 6.42702E-05-6.70571E-06
 -1      3507 0.00000E+00 6.45503E-05-6.79229E-06
 -1      3508 0.00000E+00 6.42702E-05-6.87887E-06
 -1      3510 0.00000E+00 6.45503E-05-6.96545E-06
 -1      3511 0.00000E+00 6.42702E-05-7.05203E-06
 -1      3513 0.00000E+00 6.45503E-05-7.13861E-06
 -1      3514 0.00000E+00 6.42702E-05-7.22519E-06
 -1      3516 0.00000E+00 6.45503E-05-7.31177E-06
 -1      3518 0.00000E+00 6.51720E-05-5.58017E-06
 -1      3519 0.00000E+00 6.48533E-05-5.66675E-06
 -1      3521 0.00000E+00 6.51720E-05-5.75333E-06
 -1      3522 0.00000E+00 6.48533E-05-5.83991E-06
 -1      3524 0.00000E+00 6.51720E-05-5.92649E-06
 -1      3525 0.00000E+00 6.48533E-05-6.01307E-06
 -1      3527 0.00000E+00 6.51720E-05-6.09965E-06
 -1      3528 0.00000E+00 6.48533E-05-6.18623E-06
 -1      3530 0.00000E+00 6.51720E-05-6.27281E-06
 -1      3531 0.00000E+00 6.48533E-05-6.35939E-06
 -1      3533 0.00000E+00 6.51720E-05-6.44597E-06
 -1      3534 0.00000E+00 6.48533E-05-6.53255E-06
 -1      3536 0.00000E+00 6.51720E-05-6.61913E-06
 -1      3537 0.00000E+00 6.48533E-05-6.70571E-06
 -1      3539 0.00000E+00 6.51720E-05-6.79229E-06
 -1      3540 0.00000E+00 6.48533E-05-6.87887E-06
 -1      3542 0.00000E+00 6.51720E-05-6.96545E-06
 -1      3543 0.00000E+00 6.48533E-05-7.05203E-06
 -1      3545 0.00000E+00 6.51720E-05-7.13861E-06
 -1      3546 0.00000E+00 6.48533E-05-7.22519E-06
 -1      3548 0.00000E+00 6.51720E-05-7.31177E-06
 -1      3550 0.00000E+00 6.58550E-05-5.58017E-06
 -1      3551 0.00000E+00 6.55049E-05-5.66674E-06
 -1      3553 0.00000E+00 6.58550E-05-5.75333E-06
 -1      3554 0.00000E+00 6.55049E-05-5.83991E-06
 -1      3556 0.00000E+00 6.58550E-05-5.92649E-06
 -1      3557 0.00000E+00 6.55049E-05-6.01307E-06
 -1      3559 0.00000E+00 6.58550E-05-6.09965E-06
 -1      3560 0.00000E+00 6.55049E-05-6.18623E-06
 -1      3562 0.00000E+00 6.58550E-05-6.27281E-06
 -1      3563 0.00000E+00 6.55049E-05-6.35939E-06
 -1      3565 0.00000E+00 6.58550E-05-6.44597E-06
 -1      3566 0.00000E+00 6.55049E-05-6.53255E-06
 -1      3568 0.00000E+00 6.58550E-05-6.61913E-06
 -1      3569 0.00000E+00 6.55049E-05-6.70571E-06
 -1      3571 0.00000E+00 6.58550E-05-6.79229E-06
 -1      3572 0.00000E+00 6.55049E-05-6.87887E-06
 -1      3574 0.00000E+00 6.58550E-05-6.96545E-06
 -1      3575 0.00000E+00 6.55049E-05-7.05203E-06
 -1      3577 0.00000E+00 6.58550E-05-7.13861E-06
 -1      3578 0.00000E+00 6.55049E-05-7.22519E-06
 -1      3580 0.00000E+00 6.58550E-05-7.31177E-06
 -1      3582 0.00000E+00 6.66097E-05-5.58017E-06
 -1      3583 0.00000E+00 6.62231E-05-5.66675E-06
 -1      3585 0.00000E+00 6.66097E-05-5.75333E-06
 -1      3586 0.00000E+00 6.62231E-05-5.83991E-06
 -1      3588 0.00000E+00 6.66097E-05-5.92649E-06
 -1      3589 0.00000E+00 6.62231E-05-6.01307E-06
 -1      3591 0.00000E+00 6.66097E-05-6.09965E-06
 -1      3592 0.00000E+00 6.62231E-05-6.18623E-06
 -1      3594 0.00000E+00 6.66097E-05-6.27281E-06
 -1      3595 0.00000E+00 6.62231E-05-6.35939E-06
 -1      3597 0.00000E+00 6.66097E-05-6.44597E-06
 -1      3598 0.00000E+00 6.62231E-05-6.53255E-06
 -1      3600 0.00000E+00 6.66097E-05-6.61913E-06
 -1      3601 0.00000E+00 6.62231E-05-6.70571E-06
 -1      3603 0.00000E+00 6.66097E-05-6.79229E-06
 -1      3604 0.00000E+00 6.62231E-05-6.87887E-06
 -1      3606 0.00000E+00 6.66097E-05-6.96545E-06
 -1      3607 0.00000E+00 6.62231E-05-7.05203E-06
 -1      3609 0.00000E+00 6.66097E-05-7.13861E-06
 -1      3610 0.00000E+00 6.62231E-05-7.22519E-06
 -1      3612 0.00000E+00 6.66097E-05-7.31177E-06
 -1      3614 0.00000E+00 6.74414E-05-5.58017E-06
 -1      3615 0.00000E+00 6.70155E-05-5.66675E-06
 -1      3617 0.00000E+00 6.74414E-05-5.75333E-06
 -1      3618 0.00000E+00 6.70155E-05-5.83991E-06
 -1      3620 0.00000E+00 6.74414E-05-5.92649E-06
 -1      3621 0.00000E+00 6.70155E-05-6.01307E-06
 -1      3623 0.00000E+00 6.74414E-05-6.09965E-06
 -1      3624 0.00000E+00 6.70155E-05-6.18623E-06
 -1      3626 0.00000E+00 6.74414E-05-6.27281E-06
 -1      3627 0.00000E+00 6.70155E-05-6.35939E-06
 -1      3629 0.00000E+00 6.74414E-05-6.44597E-06
 -1      3630 0.00000E+00 6.70155E-05-6.53255E-06
 -1      3632 0.00000E+00 6.74414E-05-6.61913E-06
 -1      3633 0.00000E+00 6.70155E-05-6.70571E-06
 -1      3635 0.00000E+00 6.74414E-05-6.79229E-06
 -1      3636 0.00000E+00 6.70155E-05-6.87887E-06
 -1      3638 0.00000E+00 6.74414E-05-6.96545E-06
 -1      3639 0.00000E+00 6.70155E-05-7.05203E-06
 -1      3641 0.00000E+00 6.74414E-05-7.13861E-06
 -1      3642 0.00000E+00 6.70155E-05-7.22519E-06
 -1      3644 0.00000E+00 6.74414E-05-7.31177E-06
 -1      3646 0.00000E+00 6.83571E-05-5.58017E-06
 -1      3647 0.00000E+00 6.78882E-05-5.66675E-06
 -1      3649 0.00000E+00 6.83571E-05-5.75333E-06
 -1      3650 0.00000E+00 6.78882E-05-5.83991E-06
 -1      3652 0.00000E+00 6.83571E-05-5.92649E-06
 -1      3653 0.00000E+00 6.78882E-05-6.01307E-06
 -1      3655 0.00000E+00 6.83571E-05-6.09965E-06
 -1      3656 0.00000E+00 6.78882E-05-6.18623E-06
 -1      3658 0.00000E+00 6.83571E-05-6.27281E-06
 -1      3659 0.00000E+00 6.78882E-05-6.35939E-06
 -1      3661 0.00000E+00 6.83571E-05-6.44597E-06
 -1      3662 0.00000E+00 6.78882E-05-6.53255E-06
 -1      3664 0.00000E+00 6.83571E-05-6.61913E-06
 -1      3665 0.00000E+00 6.78882E-05-6.70571E-06
 -1      3667 0.00000E+00 6.83571E-05-6.79229E-06
 -1      3668 0.00000E+00 6.78882E-05-6.87887E-06
 -1      3670 0.00000E+00 6.83571E-05-6.96545E-06
 -1      3671 0.00000E+00 6.78882E-05-7.05203E-06
 -1      3673 0.00000E+00 6.83571E-05-7.13861E-06
 -1      3674 0.00000E+00 6.78882E-05-7.22519E-06
 -1      3676 0.00000E+00 6.83571E-05-7.31177E-06
 -1      3678 0.00000E+00 6.93648E-05-5.58017E-06
 -1      3679 0.00000E+00 6.88489E-05-5.66675E-06
 -1      3681 0.00000E+00 6.93648E-05-5.75333E-06
 -1      3682 0.00000E+00 6.88489E-05-5.83991E-06
 -1      3684 0.00000E+00 6.93648E-05-5.92649E-06
 -1      3685 0.00000E+00 6.88489E-05-6.01307E-06
 -1      3687 0.00000E+00 6.93648E-05-6.09965E-06
 -1      3688 0.00000E+00 6.88489E-05-6.18623E-06
 -1      3690 0.00000E+00 6.93648E-05-6.27281E-06
 -1      3691 0.00000E+00 6.88489E-05-6.35939E-06
 -1      3693 0.00000E+00 6.93648E-05-6.44597E-06
 -1      3694 0.00000E+00 6.88489E-05-6.53255E-06
 -1      3696 0.00000E+00 6.93648E-05-6.61913E-06
 -1      3697 0.00000E+00 6.88489E-05-6.70571E-06
 -1      3699 0.00000E+00 6.93648E-05-6.79229E-06
 -1      3700 0.00000E+00 6.88489E-05-6.87887E-06
 -1      3702 0.00000E+00 6.93648E-05-6.96545E-06
 -1      3703 0.00000E+00 6.88489E-05-7.05203E-06
 -1      3705 0.00000E+00 6.93648E-05-7.13861E-06
 -1      3706 0.00000E+00 6.88489E-05-7.22519E-06
 -1      3708 0.00000E+00 6.93648E-05-7.31177E-06
 -1      3710 0.00000E+00 7.04733E-05-5.58017E-06
 -1      3711 0.00000E+00 6.99058E-05-5.66675E-06
 -1      3713 0.00000E+00 7.04733E-05-5.75333E-06
 -1      3714 0.00000E+00 6.99058E-05-5.83991E-06
 -1      3716 0.00000E+00 7.04733E-05-5.92649E-06
 -1      3717 0.00000E+00 6.99058E-05-6.01307E-06
 -1      3719 0.00000E+00 7.04733E-05-6.09965E-06
 -1      3720 0.00000E+00 6.99058E-05-6.18623E-06
 -1      3722 0.00000E+00 7.04733E-05-6.27281E-06
 -1      3723 0.00000E+00 6.99058E-05-6.35939E-06
 -1      3725 0.00000E+00 7.04733E-05-6.44597E-06
 -1      3726 0.00000E+00 6.99058E-05-6.53255E-06
 -1      3728 0.00000E+00 7.04733E-05-6.61913E-06
 -1      3729 0.00000E+00 6.99058E-05-6.70571E-06
 -1      3731 0.00000E+00 7.04733E-05-6.79229E-06
 -1      3732 0.00000E+00 6.99058E-05-6.87887E-06
 -1      3734 0.00000E+00 7.04733E-05-6.96545E-06
 -1      3735 0.00000E+00 6.99058E-05-7.05203E-06
 -1      3737 0.00000E+00 7.04733E-05-7.13861E-06
 -1      3738 0.00000E+00 6.99058E-05-7.22519E-06
 -1      3740 0.00000E+00 7.04733E-05-7.31177E-06
 -1      3742 0.00000E+00 7.16928E-05-5.58017E-06
 -1      3743 0.00000E+00 7.10685E-05-5.66675E-06
 -1      3745 0.00000E+00 7.16928E-05-5.75333E-06
 -1      3746 0.00000E+00 7.10685E-05-5.83991E-06
 -1      3748 0.00000E+00 7.16928E-05-5.92649E-06
 -1      3749 0.00000E+00 7.10685E-05-6.01307E-06
 -1      3751 0.00000E+00 7.16928E-05-6.09965E-06
 -1      3752 0.00000E+00 7.10685E-05-6.18623E-06
 -1      3754 0.00000E+00 7.16928E-05-6.27281E-06
 -1      3755 0.00000E+00 7.10685E-05-6.35939E-06
 -1      3757 0.00000E+00 7.16928E-05-6.44597E-06
 -1      3758 0.00000E+00 7.10685E-05-6.53255E-06
 -1      3760 0.00000E+00 7.16928E-05-6.61913E-06
 -1      3761 0.00000E+00 7.10685E-05-6.70571E-06
 -1      3763 0.00000E+00 7.16928E-05-6.79229E-06
 -1      3764 0.00000E+00 7.10685E-05-6.87887E-06
 -1      3766 0.00000E+00 7.16928E-05-6.96545E-06
 -1      3767 0.00000E+00 7.10685E-05-7.05203E-06
 -1      3769 0.00000E+00 7.16928E-05-7.13861E-06
 -1      3770 0.00000E+00 7.10685E-05-7.22519E-06
 -1      3772 0.00000E+00 7.16928E-05-7.31177E-06
 -1      3774 0.00000E+00 7.30347E-05-5.58017E-06
 -1      3775 0.00000E+00 7.23476E-05-5.66675E-06
 -1      3777 0.00000E+00 7.30347E-05-5.75333E-06
 -1      3778 0.00000E+00 7.23476E-05-5.83991E-06
 -1      3780 0.00000E+00 7.30347E-05-5.92649E-06
 -1      3781 0.00000E+00 7.23476E-05-6.01307E-06
 -1      3783 0.00000E+00 7.30347E-05-6.09965E-06
 -1      3784 0.00000E+00 7.23476E-05-6.18623E-06
 -1      3786 0.00000E+00 7.30347E-05-6.27281E-06
 -1      3787 0.00000E+00 7.23476E-05-6.35939E-06
 -1      3789 0.00000E+00 7.30347E-05-6.44597E-06
 -1      3790 0.00000E+00 7.23476E-05-6.53255E-06
 -1      3792 0.00000E+00 7.30347E-05-6.61913E-06
 -1      3793 0.00000E+00 7.23476E-05-6.70571E-06
 -1      3795 0.00000E+00 7.30347E-05-6.79229E-06
 -1      3796 0.00000E+00 7.23476E-05-6.87887E-06
 -1      3798 0.00000E+00 7.30347E-05-6.96545E-06
 -1      3799 0.00000E+00 7.23476E-05-7.05203E-06
 -1      3801 0.00000E+00 7.30347E-05-7.13861E-06
 -1      3802 0.00000E+00 7.23476E-05-7.22519E-06
 -1      3804 0.00000E+00 7.30347E-05-7.31177E-06
 -1      3806 0.00000E+00 7.45121E-05-5.58017E-06
 -1      3807 0.00000E+00 7.37555E-05-5.66675E-06
 -1      3809 0.00000E+00 7.45121E-05-5.75333E-06
 -1      3810 0.00000E+00 7.37555E-05-5.83991E-06
 -1      3812 0.00000E+00 7.45121E-05-5.92649E-06
 -1      3813 0.00000E+00 7.37555E-05-6.01307E-06
 -1      3815 0.00000E+00 7.45121E-05-6.09965E-06
 -1      3816 0.00000E+00 7.37555E-05-6.18623E-06
 -1      3818 0.00000E+00 7.45121E-05-6.27281E-06
 -1      3819 0.00000E+00 7.37555E-05-6.35939E-06
 -1      3821 0.00000E+00 7.45121E-05-6.44597E-06
 -1      3822 0.00000E+00 7.37555E-05-6.53255E-06
 -1      3824 0.00000E+00 7.45121E-05-6.61913E-06
 -1      3825 0.00000E+00 7.37555E-05-6.70571E-06
 -1      3827 0.00000E+00 7.45121E-05-6.79229E-06
 -1      3828 0.00000E+00 7.37555E-05-6.87887E-06
 -1      3830 0.00000E+00 7.45121E-05-6.96545E-06
 -1      3831 0.00000E+00 7.37555E-05-7.05203E-06
 -1      3833 0.00000E+00 7.45121E-05-7.13861E-06
 -1      3834 0.00000E+00 7.37555E-05-7.22519E-06
 -1      3836 0.00000E+00 7.45121E-05-7.31177E-06
 -1      3838 0.00000E+00 7.61402E-05-5.58017E-06
 -1      3839 0.00000E+00 7.53062E-05-5.66675E-06
 -1      3841 0.00000E+00 7.61402E-05-5.75333E-06
 -1      3842 0.00000E+00 7.53062E-05-5.83991E-06
 -1      3844 0.00000E+00 7.61402E-05-5.92649E-06
 -1      3845 0.00000E+00 7.53062E-05-6.01307E-06
 -1      3847 0.00000E+00 7.61402E-05-6.09965E-06
 -1      3848 0.00000E+00 7.53062E-05-6.18623E-06
 -1      3850 0.00000E+00 7.61402E-05-6.27281E-06
 -1      3851 0.00000E+00 7.53062E-05-6.35939E-06
 -1      3853 0.00000E+00 7.61402E-05-6.44597E-06
 -1      3854 0.00000E+00 7.53062E-05-6.53255E-06
 -1      3856 0.00000E+00 7.61402E-05-6.61913E-06
 -1      3857 0.00000E+00 7.53062E-05-6.70571E-06
 -1      3859 0.00000E+00 7.61402E-05-6.79229E-06
 -1      3860 0.00000E+00 7.53062E-05-6.87887E-06
 -1      3862 0.00000E+00 7.61402E-05-6.96545E-06
 -1      3863 0.00000E+00 7.53062E-05-7.05203E-06
 -1      3865 0.00000E+00 7.61402E-05-7.13861E-06
 -1      3866 0.00000E+00 7.53062E-05-7.22519E-06
 -1      3868 0.00000E+00 7.61402E-05-7.31177E-06
 -1      3870 0.00000E+00 7.79362E-05-5.58017E-06
 -1      3871 0.00000E+00 7.70159E-05-5.66675E-06
 -1      3873 0.00000E+00 7.79362E-05-5.75333E-06
 -1      3874 0.00000E+00 7.70159E-05-5.83991E-06
 -1      3876 0.00000E+00 7.79362E-05-5.92649E-06
 -1      3877 0.00000E+00 7.70159E-05-6.01307E-06
 -1      3879 0.00000E+00 7.79362E-05-6.09965E-06
 -1      3880 0.00000E+00 7.70159E-05-6.18623E-06
 -1      3882 0.00000E+00 7.79362E-05-6.27281E-06
 -1      3883 0.00000E+00 7.70159E-05-6.35939E-06
 -1      3885 0.00000E+00 7.79362E-05-6.44597E-06
 -1      3886 0.00000E+00 7.70159E-05-6.53255E-06
 -1      3888 0.00000E+00 7.79362E-05-6.61913E-06
 -1      3889 0.00000E+00 7.70159E-05-6.70571E-06
 -1      3891 0.00000E+00 7.79362E-05-6.79229E-06
 -1      3892 0.00000E+00 7.70159E-05-6.87887E-06
 -1      3894 0.00000E+00 7.79362E-05-6.96545E-06
 -1      3895 0.00000E+00 7.70159E-05-7.05203E-06
 -1      3897 0.00000E+00 7.79362E-05-7.13861E-06
 -1      3898 0.00000E+00 7.70159E-05-7.22519E-06
 -1      3900 0.00000E+00 7.79362E-05-7.31177E-06
 -1      3902 0.00000E+00 7.99203E-05-5.58017E-06
 -1      3903 0.00000E+00 7.89032E-05-5.66675E-06
 -1      3905 0.00000E+00 7.99203E-05-5.75333E-06
 -1      3906 0.00000E+00 7.89032E-05-5.83991E-06
 -1      3908 0.00000E+00 7.99203E-05-5.92649E-06
 -1      3909 0.00000E+00 7.89032E-05-6.01307E-06
 -1      3911 0.00000E+00 7.99203E-05-6.09965E-06
 -1      3912 0.00000E+00 7.89032E-05-6.18623E-06
 -1      3914 0.00000E+00 7.99203E-05-6.27281E-06
 -1      3915 0.00000E+00 7.89032E-05-6.35939E-06
 -1      3917 0.00000E+00 7.99203E-05-6.44597E-06
 -1      3918 0.00000E+00 7.89032E-05-6.53255E-06
 -1      3920 0.00000E+00 7.99203E-05-6.61913E-06
 -1      3921 0.00000E+00 7.89032E-05-6.70571E-06
 -1      3923 0.00000E+00 7.99203E-05-6.79229E-06
 -1      3924 0.00000E+00 7.89032E-05-6.87887E-06
 -1      3926 0.00000E+00 7.99203E-05-6.96545E-06
 -1      3927 0.00000E+00 7.89032E-05-7.05203E-06
 -1      3929 0.00000E+00 7.99203E-05-7.13861E-06
 -1      3930 0.00000E+00 7.89032E-05-7.22519E-06
 -1      3932 0.00000E+00 7.99203E-05-7.31177E-06
 -1      3934 0.00000E+00 8.21160E-05-5.58017E-06
 -1      3935 0.00000E+00 8.09900E-05-5.66675E-06
 -1      3937 0.00000E+00 8.21160E-05-5.75333E-06
 -1      3938 0.00000E+00 8.09900E-05-5.83991E-06
 -1      3940 0.00000E+00 8.21160E-05-5.92649E-06
 -1      3941 0.00000E+00 8.09900E-05-6.01307E-06
 -1      3943 0.00000E+00 8.21160E-05-6.09965E-06
 -1      3944 0.00000E+00 8.09900E-05-6.18623E-06
 -1      3946 0.00000E+00 8.21160E-05-6.27281E-06
 -1      3947 0.00000E+00 8.09900E-05-6.35939E-06
 -1      3949 0.00000E+00 8.21160E-05-6.44597E-06
 -1      3950 0.00000E+00 8.09900E-05-6.53255E-06
 -1      3952 0.00000E+00 8.21160E-05-6.61913E-06
 -1      3953 0.00000E+00 8.09900E-05-6.70571E-06
 -1      3955 0.00000E+00 8.21160E-05-6.79229E-06
 -1      3956 0.00000E+00 8.09900E-05-6.87887E-06
 -1      3958 0.00000E+00 8.21160E-05-6.96545E-06
 -1      3959 0.00000E+00 8.09900E-05-7.05203E-06
 -1      3961 0.00000E+00 8.21160E-05-7.13861E-06
 -1      3962 0.00000E+00 8.09900E-05-7.22519E-06
 -1      3964 0.00000E+00 8.21160E-05-7.31177E-06
 -1      3966 0.00000E+00 8.45511E-05-5.58017E-06
 -1      3967 0.00000E+00 8.33016E-05-5.66675E-06
 -1      3969 0.00000E+00 8.45511E-05-5.75333E-06
 -1      3970 0.00000E+00 8.33016E-05-5.83991E-06
 -1      3972 0.00000E+00 8.45511E-05-5.92649E-06
 -1      3973 0.00000E+00 8.33016E-05-6.01307E-06
 -1      3975 0.00000E+00 8.45511E-05-6.09965E-06
 -1      3976 0.00000E+00 8.33016E-05-6.18623E-06
 -1      3978 0.00000E+00 8.45511E-05-6.27281E-06
 -1      3979 0.00000E+00 8.33016E-05-6.35939E-06
 -1      3981 0.00000E+00 8.45511E-05-6.44597E-06
 -1      3982 0.00000E+00 8.33016E-05-6.53255E-06
 -1      3984 0.00000E+00 8.45511E-05-6.61913E-06
 -1      3985 0.00000E+00 8.33016E-05-6.70571E-06
 -1      3987 0.00000E+00 8.45511E-05-6.79229E-06
 -1      3988 0.00000E+00 8.33016E-05-6.87887E-06
 -1      3990 0.00000E+00 8.45511E-05-6.96545E-06
 -1      3991 0.00000E+00 8.33016E-05-7.05203E-06
 -1      3993 0.00000E+00 8.45511E-05-7.13861E-06
 -1      3994 0.00000E+00 8.33016E-05-7.22519E-06
 -1      3996 0.00000E+00 8.45511E-05-7.31177E-06
 -1      3998 0.00000E+00 8.72579E-05-5.58017E-06
 -1      3999 0.00000E+00 8.58681E-05-5.66675E-06
 -1      4001 0.00000E+00 8.72579E-05-5.75333E-06
 -1      4002 0.00000E+00 8.58681E-05-5.83991E-06
 -1      4004 0.00000E+00 8.72579E-05-5.92649E-06
 -1      4005 0.00000E+00 8.58681E-05-6.01307E-06
 -1      4007 0.00000E+00 8.72579E-05-6.09965E-06
 -1      4008 0.00000E+00 8.58681E-05-6.18623E-06
 -1      4010 0.00000E+00 8.72579E-05-6.27281E-06
 -1      4011 0.00000E+00 8.58681E-05-6.35939E-06
 -1      4013 0.00000E+00 8.72579E-05-6.44597E-06
 -1      4014 0.00000E+00 8.58681E-05-6.53255E-06
 -1      4016 0.00000E+00 8.72579E-05-6.61913E-06
 -1      4017 0.00000E+00 8.58681E-05-6.70571E-06
 -1      4019 0.00000E+00 8.72579E-05-6.79229E-06
 -1      4020 0.00000E+00 8.58681E-05-6.87887E-06
 -1      4022 0.00000E+00 8.72579E-05-6.96545E-06
 -1      4023 0.00000E+00 8.58681E-05-7.05203E-06
 -1      4025 0.00000E+00 8.72579E-05-7.13861E-06
 -1      4026 0.00000E+00 8.58681E-05-7.22519E-06
 -1      4028 0.00000E+00 8.72579E-05-7.31177E-06
 -1      4030 0.00000E+00 9.02755E-05-5.58017E-06
 -1      4031 0.00000E+00 8.87250E-05-5.66675E-06
 -1      4033 0.00000E+00 9.02755E-05-5.75333E-06
 -1      4034 0.00000E+00 8.87250E-05-5.83991E-06
 -1      4036 0.00000E+00 9.02755E-05-5.92649E-06
 -1      4037 0.00000E+00 8.87250E-05-6.01307E-06
 -1      4039 0.00000E+00 9.02755E-05-6.09965E-06
 -1      4040 0.00000E+00 8.87250E-05-6.18623E-06
 -1      4042 0.00000E+00 9.02755E-05-6.27281E-06
 -1      4043 0.00000E+00 8.87250E-05-6.35939E-06
 -1      4045 0.00000E+00 9.02755E-05-6.44597E-06
 -1      4046 0.00000E+00 8.87250E-05-6.53255E-06
 -1      4048 0.00000E+00 9.02755E-05-6.61913E-06
 -1      4049 0.00000E+00 8.87250E-05-6.70571E-06
 -1      4051 0.00000E+00 9.02755E-05-6.79229E-06
 -1      4052 0.00000E+00 8.87250E-05-6.87887E-06
 -1      4054 0.00000E+00 9.02755E-05-6.96545E-06
 -1      4055 0.00000E+00 8.87250E-05-7.05203E-06
 -1      4057 0.00000E+00 9.02755E-05-7.13861E-06
 -1      4058 0.00000E+00 8.87250E-05-7.22519E-06
 -1      4060 0.00000E+00 9.02755E-05-7.31177E-06
 -1      4062 0.00000E+00 9.36504E-05-5.58017E-06
 -1      4063 0.00000E+00 9.19148E-05-5.66675E-06
 -1      4065 0.00000E+00 9.36504E-05-5.75333E-06
 -1      4066 0.00000E+00 9.19148E-05-5.83991E-06
 -1      4068 0.00000E+00 9.36504E-05-5.92649E-06
 -1      4069 0.00000E+00 9.19148E-05-6.01307E-06
 -1      4071 0.00000E+00 9.36504E-05-6.09965E-06
 -1      4072 0.00000E+00 9.19148E-05-6.18623E-06
 -1      4074 0.00000E+00 9.36504E-05-6.27281E-06
 -1      4075 0.00000E+00 9.19148E-05-6.35939E-06
 -1      4077 0.00000E+00 9.36504E-05-6.44597E-06
 -1      4078 0.00000E+00 9.19148E-05-6.53255E-06
 -1      4080 0.00000E+00 9.36504E-05-6.61913E-06
 -1      4081 0.00000E+00 9.19148E-05-6.70571E-06
 -1      4083 0.00000E+00 9.36504E-05-6.79229E-06
 -1      4084 0.00000E+00 9.19148E-05-6.87887E-06
 -1      4086 0.00000E+00 9.36504E-05-6.96545E-06
 -1      4087 0.00000E+00 9.19148E-05-7.05203E-06
 -1      4089 0.00000E+00 9.36504E-05-7.13861E-06
 -1      4090 0.00000E+00 9.19148E-05-7.22519E-06
 -1      4092 0.00000E+00 9.36504E-05-7.31177E-06
 -1      4094 0.00000E+00 9.74390E-05-5.58017E-06
 -1      4095 0.00000E+00 9.54888E-05-5.66675E-06
 -1      4097 0.00000E+00 9.74390E-05-5.75333E-06
 -1      4098 0.00000E+00 9.54888E-05-5.83991E-06
 -1      4100 0.00000E+00 9.74390E-05-5.92649E-06
 -1      4101 0.00000E+00 9.54888E-05-6.01307E-06
 -1      4103 0.00000E+00 9.74390E-05-6.09965E-06
 -1      4104 0.00000E+00 9.54888E-05-6.18623E-06
 -1      4106 0.00000E+00 9.74390E-05-6.27281E-06
 -1      4107 0.00000E+00 9.54888E-05-6.35939E-06
 -1      4109 0.00000E+00 9.74390E-05-6.44597E-06
 -1      4110 0.00000E+00 9.54888E-05-6.53255E-06
 -1      4112 0.00000E+00 9.74390E-05-6.61913E-06
 -1      4113 0.00000E+00 9.54888E-05-6.70571E-06
 -1      4115 0.00000E+00 9.74390E-05-6.79229E-06
 -1      4116 0.00000E+00 9.54888E-05-6.87887E-06
 -1      4118 0.00000E+00 9.74390E-05-6.96545E-06
 -1      4119 0.00000E+00 9.54888E-05-7.05203E-06
 -1      4121 0.00000E+00 9.74390E-05-7.13861E-06
 -1      4122 0.00000E+00 9.54888E-05-7.22519E-06
 -1      4124 0.00000E+00 9.74390E-05-7.31177E-06
 -1      4126 0.00000E+00 1.01710E-04-5.58017E-06
 -1      4127 0.00000E+00 9.95092E-05-5.66675E-06
 -1      4129 0.00000E+00 1.01710E-04-5.75333E-06
 -1      4130 0.00000E+00 9.95092E-05-5.83991E-06
 -1      4132 0.00000E+00 1.01710E-04-5.92649E-06
 -1      4133 0.00000E+00 9.95092E-05-6.01307E-06
 -1      4135 0.00000E+00 1.01710E-04-6.09965E-06
 -1      4136 0.00000E+00 9.95092E-05-6.18623E-06
 -1      4138 0.00000E+00 1.01710E-04-6.27281E-06
 -1      4139 0.00000E+00 9.95092E-05-6.35939E-06
 -1      4141 0.00000E+00 1.01710E-04-6.44597E-06
 -1      4142 0.00000E+00 9.95092E-05-6.53255E-06
 -1      4144 0.00000E+00 1.01710E-04-6.61913E-06
 -1      4145 0.00000E+00 9.95092E-05-6.70571E-06
 -1      4147 0.00000E+00 1.01710E-04-6.79229E-06
 -1      4148 0.00000E+00 9.95092E-05-6.87887E-06
 -1      4150 0.00000E+00 1.01710E-04-6.96545E-06
 -1      4151 0.00000E+00 9.95092E-05-7.05203E-06
 -1      4153 0.00000E+00 1.01710E-04-7.13861E-06
 -1      4154 0.00000E+00 9.95092E-05-7.22519E-06
 -1      4156 0.00000E+00 1.01710E-04-7.31177E-06
 -1      4158 0.00000E+00 1.06550E-04-5.58017E-06
 -1      4159 0.00000E+00 1.04053E-04-5.66675E-06
 -1      4161 0.00000E+00 1.06550E-04-5.75333E-06
 -1      4162 0.00000E+00 1.04053E-04-5.83991E-06
 -1      4164 0.00000E+00 1.06550E-04-5.92649E-06
 -1      4165 0.00000E+00 1.04053E-04-6.01307E-06
 -1      4167 0.00000E+00 1.06550E-04-6.09965E-06
 -1      4168 0.00000E+00 1.04053E-04-6.18623E-06
 -1      4170 0.00000E+00 1.06550E-04-6.27281E-06
 -1      4171 0.00000E+00 1.04053E-04-6.35939E-06
 -1      4173 0.00000E+00 1.06550E-04-6.44597E-06
 -1      4174 0.00000E+00 1.04053E-04-6.53255E-06
 -1      4176 0.00000E+00 1.06550E-04-6.61913E-06
 -1      4177 0.00000E+00 1.04053E-04-6.70571E-06
 -1      4179 0.00000E+00 1.06550E-04-6.79229E-06
 -1      4180 0.00000E+00 1.04053E-04-6.87887E-06
 -1      4182 0.00000E+00 1.06550E-04-6.96545E-06
 -1      4183 0.00000E+00 1.04053E-04-7.05203E-06
 -1      4185 0.00000E+00 1.06550E-04-7.13861E-06
 -1      4186 0.00000E+00 1.04053E-04-7.22519E-06
 -1      4188 0.00000E+00 1.06550E-04-7.31177E-06
 -1      4190 0.00000E+00 1.12063E-04-5.58017E-06
 -1      4191 0.00000E+00 1.09214E-04-5.66675E-06
 -1      4193 0.00000E+00 1.12063E-04-5.75333E-06
 -1      4194 0.00000E+00 1.09214E-04-5.83991E-06
 -1      4196 0.00000E+00 1.12063E-04-5.92649E-06
 -1      4197 0.00000E+00 1.09214E-04-6.01307E-06
 -1      4199 0.00000E+00 1.12063E-04-6.09965E-06
 -1      4200 0.00000E+00 1.09214E-04-6.18623E-06
 -1      4202 0.00000E+00 1.12063E-04-6.27281E-06
 -1      4203 0.00000E+00 1.09214E-04-6.35939E-06
 -1      4205 0.00000E+00 1.12063E-04-6.44597E-06
 -1      4206 0.00000E+00 1.09214E-04-6.53255E-06
 -1      4208 0.00000E+00 1.12063E-04-6.61913E-06
 -1      4209 0.00000E+00 1.09214E-04-6.70571E-06
 -1      4211 0.00000E+00 1.12063E-04-6.79229E-06
 -1      4212 0.00000E+00 1.09214E-04-6.87887E-06
 -1      4214 0.00000E+00 1.12063E-04-6.96545E-06
 -1      4215 0.00000E+00 1.09214E-04-7.05203E-06
 -1      4217 0.00000E+00 1.12063E-04-7.13861E-06
 -1      4218 0.00000E+00 1.09214E-04-7.22519E-06
 -1      4220 0.00000E+00 1.12063E-04-7.31177E-06
 -1      4222 0.00000E+00 1.18386E-04-5.58017E-06
 -1      4223 0.00000E+00 1.15113E-04-5.66675E-06
 -1      4225 0.00000E+00 1.18386E-04-5.75333E-06
 -1      4226 0.00000E+00 1.15113E-04-5.83991E-06
 -1      4228 0.00000E+00 1.18386E-04-5.92649E-06
 -1      4229 0.00000E+00 1.15113E-04-6.01307E-06
 -1      4231 0.00000E+00 1.18386E-04-6.09965E-06
 -1      4232 0.00000E+00 1.15113E-04-6.18623E-06
 -1      4234 0.00000E+00 1.18386E-04-6.27281E-06
 -1      4235 0.00000E+00 1.15113E-04-6.35939E-06
 -1      4237 0.00000E+00 1.18386E-04-6.44597E-06
 -1      4238 0.00000E+00 1.15113E-04-6.53255E-06
 -1      4240 0.00000E+00 1.18386E-04-6.61913E-06
 -1      4241 0.00000E+00 1.15113E-04-6.70571E-06
 -1      4243 0.00000E+00 1.18386E-04-6.79229E-06
 -1      4244 0.00000E+00 1.15113E-04-6.87887E-06
 -1      4246 0.00000E+00 1.18386E-04-6.96545E-06
 -1      4247 0.00000E+00 1.15113E-04-7.05203E-06
 -1      4249 0.00000E+00 1.18386E-04-7.13861E-06
 -1      4250 0.00000E+00 1.15113E-04-7.22519E-06
 -1      4252 0.00000E+00 1.18386E-04-7.31177E-06
 -1      4254 0.00000E+00 1.25691E-04-5.58017E-06
 -1      4255 0.00000E+00 1.21903E-04-5.66674E-06
 -1      4257 0.00000E+00 1.25691E-04-5.75333E-06
 -1      4258 0.00000E+00 1.21903E-04-5.83991E-06
 -1      4260 0.00000E+00 1.25691E-04-5.92649E-06
 -1      4261 0.00000E+00 1.21903E-04-6.01307E-06
 -1      4263 0.00000E+00 1.25691E-04-6.09965E-06
 -1      4264 0.00000E+00 1.21903E-04-6.18623E-06
 -1      4266 0.00000E+00 1.25691E-04-6.27281E-06
 -1      4267 0.00000E+00 1.21903E-04-6.35939E-06
 -1      4269 0.00000E+00 1.25691E-04-6.44597E-06
 -1      4270 0.00000E+00 1.21903E-04-6.53255E-06
 -1      4272 0.00000E+00 1.25691E-04-6.61913E-06
 -1      4273 0.00000E+00 1.21903E-04-6.70571E-06
 -1      4275 0.00000E+00 1.25691E-04-6.79229E-06
 -1      4276 0.00000E+00 1.21903E-04-6.87887E-06
 -1      4278 0.00000E+00 1.25691E-04-6.96545E-06
 -1      4279 0.00000E+00 1.21903E-04-7.05203E-06
 -1      4281 0.00000E+00 1.25691E-04-7.13861E-06
 -1      4282 0.00000E+00 1.21903E-04-7.22519E-06
 -1      4284 0.00000E+00 1.25691E-04-7.31177E-06
 -1      4286 0.00000E+00 1.34205E-04-5.58017E-06
 -1      4287 0.00000E+00 1.29780E-04-5.66675E-06
 -1      4289 0.00000E+00 1.34205E-04-5.75333E-06
 -1      4290 0.00000E+00 1.29780E-04-5.83991E-06
 -1      4292 0.00000E+00 1.34205E-04-5.92648E-06
 -1      4293 0.00000E+00 1.29780E-04-6.01307E-06
 -1      4295 0.00000E+00 1.34205E-04-6.09965E-06
 -1      4296 0.00000E+00 1.29780E-04-6.18623E-06
 -1      4298 0.00000E+00 1.34205E-04-6.27281E-06
 -1      4299 0.00000E+00 1.29780E-04-6.35939E-06
 -1      4301 0.00000E+00 1.34205E-04-6.44597E-06
 -1      4302 0.00000E+00 1.29780E-04-6.53255E-06
 -1      4304 0.00000E+00 1.34205E-04-6.61913E-06
 -1      4305 0.00000E+00 1.29780E-04-6.70571E-06
 -1      4307 0.00000E+00 1.34205E-04-6.79229E-06
 -1      4308 0.00000E+00 1.29780E-04-6.87887E-06
 -1      4310 0.00000E+00 1.34205E-04-6.96545E-06
 -1      4311 0.00000E+00 1.29780E-04-7.05203E-06
 -1      4313 0.00000E+00 1.34205E-04-7.13861E-06
 -1      4314 0.00000E+00 1.29780E-04-7.22519E-06
 -1      4316 0.00000E+00 1.34205E-04-7.31177E-06
 -1      4318 0.00000E+00 1.44235E-04-5.58016E-06
 -1      4319 0.00000E+00 1.39008E-04-5.66674E-06
 -1      4321 0.00000E+00 1.44235E-04-5.75333E-06
 -1      4322 0.00000E+00 1.39008E-04-5.83990E-06
 -1      4324 0.00000E+00 1.44235E-04-5.92649E-06
 -1      4325 0.00000E+00 1.39008E-04-6.01307E-06
 -1      4327 0.00000E+00 1.44235E-04-6.09965E-06
 -1      4328 0.00000E+00 1.39008E-04-6.18623E-06
 -1      4330 0.00000E+00 1.44235E-04-6.27281E-06
 -1      4331 0.00000E+00 1.39008E-04-6.35939E-06
 -1      4333 0.00000E+00 1.44235E-04-6.44597E-06
 -1      4334 0.00000E+00 1.39008E-04-6.53255E-06
 -1      4336 0.00000E+00 1.44235E-04-6.61913E-06
 -1      4337 0.00000E+00 1.39008E-04-6.70571E-06
 -1      4339 0.00000E+00 1.44235E-04-6.79228E-06
 -1      4340 0.00000E+00 1.39008E-04-6.87887E-06
 -1      4342 0.00000E+00 1.44235E-04-6.96544E-06
 -1      4343 0.00000E+00 1.39008E-04-7.05203E-06
 -1      4345 0.00000E+00 1.44235E-04-7.13860E-06
 -1      4346 0.00000E+00 1.39008E-04-7.22519E-06
 -1      4348 0.00000E+00 1.44235E-04-7.31177E-06
 -1      4350 0.00000E+00 1.56174E-04-5.58017E-06
 -1      4351 0.00000E+00 1.49932E-04-5.66676E-06
 -1      4353 0.00000E+00 1.56174E-04-5.75332E-06
 -1      4354 0.00000E+00 1.49932E-04-5.83991E-06
 -1      4356 0.00000E+00 1.56174E-04-5.92649E-06
 -1      4357 0.00000E+00 1.49932E-04-6.01307E-06
 -1      4359 0.00000E+00 1.56174E-04-6.09965E-06
 -1      4360 0.00000E+00 1.49932E-04-6.18623E-06
 -1      4362 0.00000E+00 1.56174E-04-6.27281E-06
 -1      4363 0.00000E+00 1.49932E-04-6.35939E-06
 -1      4365 0.00000E+00 1.56174E-04-6.44597E-06
 -1      4366 0.00000E+00 1.49932E-04-6.53255E-06
 -1      4368 0.00000E+00 1.56174E-04-6.61913E-06
 -1      4369 0.00000E+00 1.49932E-04-6.70570E-06
 -1      4371 0.00000E+00 1.56174E-04-6.79229E-06
 -1      4372 0.00000E+00 1.49932E-04-6.87886E-06
 -1      4374 0.00000E+00 1.56174E-04-6.96545E-06
 -1      4375 0.00000E+00 1.49932E-04-7.05202E-06
 -1      4377 0.00000E+00 1.56174E-04-7.13861E-06
 -1      4378 0.00000E+00 1.49932E-04-7.22517E-06
 -1      4380 0.00000E+00 1.56174E-04-7.31177E-06
 -1      4382 0.00000E+00 1.63044E-04-5.66673E-06
 -1      4384 0.00000E+00 1.63044E-04-5.83990E-06
 -1      4386 0.00000E+00 1.63044E-04-6.01306E-06
 -1      4388 0.00000E+00 1.63044E-04-6.18622E-06
 -1      4390 0.00000E+00 1.63044E-04-6.35939E-06
 -1      4392 0.00000E+00 1.63044E-04-6.53255E-06
 -1      4394 0.00000E+00 1.63044E-04-6.70571E-06
 -1      4396 0.00000E+00 1.63044E-04-6.87887E-06
 -1      4398 0.00000E+00 1.63044E-04-7.05203E-06
 -1      4400 0.00000E+00 1.63044E-04-7.22520E-06
 -1      4403 2.66877E-05 1.68499E-04-5.66675E-06
 -1      4404 2.66877E-05 1.68499E-04-5.83990E-06
 -1      4405 2.66877E-05 1.68499E-04-6.01306E-06
 -1      4406 2.66877E-05 1.68499E-04-6.18622E-06
 -1      4407 2.66877E-05 1.68499E-04-6.35939E-06
 -1      4408 2.66877E-05 1.68499E-04-6.53255E-06
 -1      4409 2.66877E-05 1.68499E-04-6.70571E-06
 -1      4410 2.66877E-05 1.68499E-04-6.87887E-06
 -1      4411 2.66877E-05 1.68499E-04-7.05204E-06
 -1      4412 2.66877E-05 1.68499E-04-7.22519E-06
 -1      4413 5.27182E-05 1.62250E-04-5.66675E-06
 -1      4414 5.27183E-05 1.62250E-04-5.83990E-06
 -1      4415 5.27183E-05 1.62250E-04-6.01306E-06
 -1      4416 5.27183E-05 1.62250E-04-6.18622E-06
 -1      4417 5.27183E-05 1.62250E-04-6.35939E-06
 -1      4418 5.27183E-05 1.62250E-04-6.53255E-06
 -1      4419 5.27183E-05 1.62250E-04-6.70571E-06
 -1      4420 5.27183E-05 1.62250E-04-6.87887E-06
 -1      4421 5.27183E-05 1.62250E-04-7.05204E-06
 -1      4422 5.27182E-05 1.62250E-04-7.22519E-06
 -1      4423 7.74507E-05 1.52006E-04-5.66675E-06
 -1      4424 7.74507E-05 1.52006E-04-5.83990E-06
 -1      4425 7.74507E-05 1.52006E-04-6.01306E-06
 -1      4426 7.74507E-05 1.52006E-04-6.18622E-06
 -1      4427 7.74507E-05 1.52006E-04-6.35939E-06
 -1      4428 7.74507E-05 1.52006E-04-6.53255E-06
 -1      4429 7.74507E-05 1.52006E-04-6.70571E-06
 -1      4430 7.74507E-05 1.52006E-04-6.87887E-06
 -1      4431 7.74507E-05 1.52006E-04-7.05204E-06
 -1      4432 7.74507E-05 1.52006E-04-7.22519E-06
 -1      4433 1.00276E-04 1.38018E-04-5.66675E-06
 -1      4434 1.00276E-04 1.38018E-04-5.83990E-06
 -1      4435 1.00276E-04 1.38018E-04-6.01306E-06
 -1      4436 1.00276E-04 1.38018E-04-6.18622E-06
 -1      4437 1.00276E-04 1.38018E-04-6.35939E-06
 -1      4438 1.00276E-04 1.38018E-04-6.53255E-06
 -1      4439 1.00276E-04 1.38018E-04-6.70571E-06
 -1      4440 1.00276E-04 1.38018E-04-6.87887E-06
 -1      4441 1.00276E-04 1.38018E-04-7.05204E-06
 -1      4442 1.00276E-04 1.38018E-04-7.22519E-06
 -1      4443 1.20632E-04 1.20632E-04-5.66675E-06
 -1      4444 1.20632E-04 1.20632E-04-5.83990E-06
 -1      4445 1.20632E-04 1.20632E-04-6.01306E-06
 -1      4446 1.20632E-04 1.20632E-04-6.18622E-06
 -1      4447 1.20632E-04 1.20632E-04-6.35939E-06
 -1      4448 1.20632E-04 1.20632E-04-6.53255E-06
 -1      4449 1.20632E-04 1.20632E-04-6.70571E-06
 -1      4450 1.20632E-04 1.20632E-04-6.87887E-06
 -1      4451 1.20632E-04 1.20632E-04-7.05204E-06
 -1      4452 1.20632E-04 1.20632E-04-7.22519E-06
 -1      4453 1.38018E-04 1.00276E-04-5.66675E-06
 -1      4454 1.38018E-04 1.00276E-04-5.83990E-06
 -1      4455 1.38018E-04 1.00276E-04-6.01306E-06
 -1      4456 1.38018E-04 1.00276E-04-6.18622E-06
 -1      4457 1.38018E-04 1.00276E-04-6.35939E-06
 -1      4458 1.38018E-04 1.00276E-04-6.53255E-06
 -1      4459 1.38018E-04 1.00276E-04-6.70571E-06
 -1      4460 1.38018E-04 1.00276E-04-6.87887E-06
 -1      4461 1.38018E-04 1.00276E-04-7.05204E-06
 -1      4462 1.38018E-04 1.00276E-04-7.22519E-06
 -1      4463 1.52006E-04 7.74507E-05-5.66675E-06
 -1      4464 1.52006E-04 7.74507E-05-5.83990E-06
 -1      4465 1.52006E-04 7.74507E-05-6.01306E-06
 -1      4466 1.52006E-04 7.74507E-05-6.18622E-06
 -1      4467 1.52006E-04 7.74507E-05-6.35939E-06
 -1      4468 1.52006E-04 7.74507E-05-6.53255E-06
 -1      4469 1.52006E-04 7.74507E-05-6.70571E-06
 -1      4470 1.52006E-04 7.74507E-05-6.87887E-06
 -1      4471 1.52006E-04 7.74507E-05-7.05204E-06
 -1      4472 1.52006E-04 7.74507E-05-7.22519E-06
 -1      4473 1.62250E-04 5.27182E-05-5.66675E-06
 -1      4474 1.62250E-04 5.27183E-05-5.83990E-06
 -1      4475 1.62250E-04 5.27183E-05-6.01306E-06
 -1      4476 1.62250E-04 5.27183E-05-6.18622E-06
 -1      4477 1.62250E-04 5.27183E-05-6.35939E-06
 -1      4478 1.62250E-04 5.27183E-05-6.53255E-06
 -1      4479 1.62250E-04 5.27183E-05-6.70571E-06
 -1      4480 1.62250E-04 5.27183E-05-6.87887E-06
 -1      4481 1.62250E-04 5.27183E-05-7.05204E-06
 -1      4482 1.62250E-04 5.27182E-05-7.22519E-06
 -1      4483 1.68499E-04 2.66877E-05-5.66675E-06
 -1      4484 1.68499E-04 2.66877E-05-5.83990E-06
 -1      4485 1.68499E-04 2.66877E-05-6.01306E-06
 -1      4486 1.68499E-04 2.66877E-05-6.18622E-06
 -1      4487 1.68499E-04 2.66877E-05-6.35939E-06
 -1      4488 1.68499E-04 2.66877E-05-6.53255E-06
 -1      4489 1.68499E-04 2.66877E-05-6.70571E-06
 -1      4490 1.68499E-04 2.66877E-05-6.87887E-06
 -1      4491 1.68499E-04 2.66877E-05-7.05204E-06
 -1      4492 1.68499E-04 2.66877E-05-7.22519E-06
 -1      4493 2.66877E-05 1.68499E-04-5.58019E-06
 -1      4494 1.33892E-05 1.70126E-04-5.66675E-06
 -1      4496 2.66877E-05 1.68499E-04-5.75332E-06
 -1      4497 1.33892E-05 1.70126E-04-5.83990E-06
 -1      4499 2.66877E-05 1.68499E-04-5.92648E-06
 -1      4500 1.33892E-05 1.70126E-04-6.01306E-06
 -1      4502 2.66877E-05 1.68499E-04-6.09964E-06
 -1      4503 1.33892E-05 1.70126E-04-6.18622E-06
 -1      4505 2.66877E-05 1.68499E-04-6.27280E-06
 -1      4506 1.33892E-05 1.70126E-04-6.35939E-06
 -1      4508 2.66877E-05 1.68499E-04-6.44597E-06
 -1      4509 1.33892E-05 1.70126E-04-6.53255E-06
 -1      4511 2.66877E-05 1.68499E-04-6.61913E-06
 -1      4512 1.33892E-05 1.70126E-04-6.70571E-06
 -1      4514 2.66877E-05 1.68499E-04-6.79229E-06
 -1      4515 1.33892E-05 1.70126E-04-6.87887E-06
 -1      4517 2.66877E-05 1.68499E-04-6.96545E-06
 -1      4518 1.33892E-05 1.70126E-04-7.05204E-06
 -1      4520 2.66877E-05 1.68499E-04-7.13861E-06
 -1      4521 1.33892E-05 1.70126E-04-7.22519E-06
 -1      4523 2.66877E-05 1.68499E-04-7.31174E-06
 -1      4525 5.27183E-05 1.62250E-04-5.58019E-06
 -1      4526 3.98380E-05 1.65937E-04-5.66675E-06
 -1      4528 5.27182E-05 1.62250E-04-5.75332E-06
 -1      4529 3.98380E-05 1.65937E-04-5.83990E-06
 -1      4531 5.27183E-05 1.62250E-04-5.92648E-06
 -1      4532 3.98380E-05 1.65937E-04-6.01306E-06
 -1      4534 5.27183E-05 1.62250E-04-6.09964E-06
 -1      4535 3.98380E-05 1.65937E-04-6.18622E-06
 -1      4537 5.27183E-05 1.62250E-04-6.27280E-06
 -1      4538 3.98380E-05 1.65937E-04-6.35939E-06
 -1      4540 5.27183E-05 1.62250E-04-6.44597E-06
 -1      4541 3.98380E-05 1.65937E-04-6.53255E-06
 -1      4543 5.27183E-05 1.62250E-04-6.61913E-06
 -1      4544 3.98380E-05 1.65937E-04-6.70571E-06
 -1      4546 5.27183E-05 1.62250E-04-6.79229E-06
 -1      4547 3.98380E-05 1.65937E-04-6.87887E-06
 -1      4549 5.27183E-05 1.62250E-04-6.96545E-06
 -1      4550 3.98380E-05 1.65937E-04-7.05204E-06
 -1      4552 5.27182E-05 1.62250E-04-7.13861E-06
 -1      4553 3.98380E-05 1.65937E-04-7.22519E-06
 -1      4555 5.27183E-05 1.62250E-04-7.31174E-06
 -1      4557 7.74507E-05 1.52006E-04-5.58019E-06
 -1      4558 6.53059E-05 1.57662E-04-5.66675E-06
 -1      4560 7.74507E-05 1.52006E-04-5.75332E-06
 -1      4561 6.53059E-05 1.57662E-04-5.83990E-06
 -1      4563 7.74507E-05 1.52006E-04-5.92648E-06
 -1      4564 6.53059E-05 1.57662E-04-6.01306E-06
 -1      4566 7.74507E-05 1.52006E-04-6.09964E-06
 -1      4567 6.53059E-05 1.57662E-04-6.18622E-06
 -1      4569 7.74507E-05 1.52006E-04-6.27280E-06
 -1      4570 6.53059E-05 1.57662E-04-6.35939E-06
 -1      4572 7.74507E-05 1.52006E-04-6.44597E-06
 -1      4573 6.53059E-05 1.57662E-04-6.53255E-06
 -1      4575 7.74507E-05 1.52006E-04-6.61913E-06
 -1      4576 6.53059E-05 1.57662E-04-6.70571E-06
 -1      4578 7.74507E-05 1.52006E-04-6.79229E-06
 -1      4579 6.53059E-05 1.57662E-04-6.87887E-06
 -1      4581 7.74507E-05 1.52006E-04-6.96545E-06
 -1      4582 6.53059E-05 1.57662E-04-7.05204E-06
 -1      4584 7.74507E-05 1.52006E-04-7.13861E-06
 -1      4585 6.53059E-05 1.57662E-04-7.22519E-06
 -1      4587 7.74507E-05 1.52006E-04-7.31174E-06
 -1      4589 1.00276E-04 1.38018E-04-5.58019E-06
 -1      4590 8.91657E-05 1.45505E-04-5.66675E-06
 -1      4592 1.00276E-04 1.38018E-04-5.75332E-06
 -1      4593 8.91657E-05 1.45505E-04-5.83990E-06
 -1      4595 1.00276E-04 1.38018E-04-5.92648E-06
 -1      4596 8.91657E-05 1.45505E-04-6.01306E-06
 -1      4598 1.00276E-04 1.38018E-04-6.09964E-06
 -1      4599 8.91657E-05 1.45505E-04-6.18622E-06
 -1      4601 1.00276E-04 1.38018E-04-6.27280E-06
 -1      4602 8.91657E-05 1.45505E-04-6.35939E-06
 -1      4604 1.00276E-04 1.38018E-04-6.44597E-06
 -1      4605 8.91657E-05 1.45505E-04-6.53255E-06
 -1      4607 1.00276E-04 1.38018E-04-6.61913E-06
 -1      4608 8.91657E-05 1.45505E-04-6.70571E-06
 -1      4610 1.00276E-04 1.38018E-04-6.79229E-06
 -1      4611 8.91657E-05 1.45505E-04-6.87887E-06
 -1      4613 1.00276E-04 1.38018E-04-6.96545E-06
 -1      4614 8.91657E-05 1.45505E-04-7.05204E-06
 -1      4616 1.00276E-04 1.38018E-04-7.13861E-06
 -1      4617 8.91657E-05 1.45505E-04-7.22519E-06
 -1      4619 1.00276E-04 1.38018E-04-7.31174E-06
 -1      4621 1.20632E-04 1.20632E-04-5.58019E-06
 -1      4622 1.10830E-04 1.29765E-04-5.66675E-06
 -1      4624 1.20632E-04 1.20632E-04-5.75332E-06
 -1      4625 1.10830E-04 1.29765E-04-5.83990E-06
 -1      4627 1.20632E-04 1.20632E-04-5.92648E-06
 -1      4628 1.10830E-04 1.29765E-04-6.01306E-06
 -1      4630 1.20632E-04 1.20632E-04-6.09964E-06
 -1      4631 1.10830E-04 1.29765E-04-6.18622E-06
 -1      4633 1.20632E-04 1.20632E-04-6.27280E-06
 -1      4634 1.10830E-04 1.29765E-04-6.35939E-06
 -1      4636 1.20632E-04 1.20632E-04-6.44597E-06
 -1      4637 1.10830E-04 1.29765E-04-6.53255E-06
 -1      4639 1.20632E-04 1.20632E-04-6.61913E-06
 -1      4640 1.10830E-04 1.29765E-04-6.70571E-06
 -1      4642 1.20632E-04 1.20632E-04-6.79229E-06
 -1      4643 1.10830E-04 1.29765E-04-6.87887E-06
 -1      4645 1.20632E-04 1.20632E-04-6.96545E-06
 -1      4646 1.10830E-04 1.29765E-04-7.05204E-06
 -1      4648 1.20632E-04 1.20632E-04-7.13861E-06
 -1      4649 1.10830E-04 1.29765E-04-7.22519E-06
 -1      4651 1.20632E-04 1.20632E-04-7.31174E-06
 -1      4653 1.38018E-04 1.00276E-04-5.58019E-06
 -1      4654 1.29765E-04 1.10830E-04-5.66675E-06
 -1      4656 1.38018E-04 1.00276E-04-5.75332E-06
 -1      4657 1.29765E-04 1.10830E-04-5.83990E-06
 -1      4659 1.38018E-04 1.00276E-04-5.92648E-06
 -1      4660 1.29765E-04 1.10830E-04-6.01306E-06
 -1      4662 1.38018E-04 1.00276E-04-6.09964E-06
 -1      4663 1.29765E-04 1.10830E-04-6.18622E-06
 -1      4665 1.38018E-04 1.00276E-04-6.27280E-06
 -1      4666 1.29765E-04 1.10830E-04-6.35939E-06
 -1      4668 1.38018E-04 1.00276E-04-6.44597E-06
 -1      4669 1.29765E-04 1.10830E-04-6.53255E-06
 -1      4671 1.38018E-04 1.00276E-04-6.61913E-06
 -1      4672 1.29765E-04 1.10830E-04-6.70571E-06
 -1      4674 1.38018E-04 1.00276E-04-6.79229E-06
 -1      4675 1.29765E-04 1.10830E-04-6.87887E-06
 -1      4677 1.38018E-04 1.00276E-04-6.96545E-06
 -1      4678 1.29765E-04 1.10830E-04-7.05204E-06
 -1      4680 1.38018E-04 1.00276E-04-7.13861E-06
 -1      4681 1.29765E-04 1.10830E-04-7.22519E-06
 -1      4683 1.38018E-04 1.00276E-04-7.31174E-06
 -1      4685 1.52006E-04 7.74507E-05-5.58019E-06
 -1      4686 1.45505E-04 8.91657E-05-5.66675E-06
 -1      4688 1.52006E-04 7.74507E-05-5.75332E-06
 -1      4689 1.45505E-04 8.91657E-05-5.83990E-06
 -1      4691 1.52006E-04 7.74507E-05-5.92648E-06
 -1      4692 1.45505E-04 8.91657E-05-6.01306E-06
 -1      4694 1.52006E-04 7.74507E-05-6.09964E-06
 -1      4695 1.45505E-04 8.91657E-05-6.18622E-06
 -1      4697 1.52006E-04 7.74507E-05-6.27280E-06
 -1      4698 1.45505E-04 8.91657E-05-6.35939E-06
 -1      4700 1.52006E-04 7.74507E-05-6.44597E-06
 -1      4701 1.45505E-04 8.91657E-05-6.53255E-06
 -1      4703 1.52006E-04 7.74507E-05-6.61913E-06
 -1      4704 1.45505E-04 8.91657E-05-6.70571E-06
 -1      4706 1.52006E-04 7.74507E-05-6.79229E-06
 -1      4707 1.45505E-04 8.91657E-05-6.87887E-06
 -1      4709 1.52006E-04 7.74507E-05-6.96545E-06
 -1      4710 1.45505E-04 8.91657E-05-7.05204E-06
 -1      4712 1.52006E-04 7.74507E-05-7.13861E-06
 -1      4713 1.45505E-04 8.91657E-05-7.22519E-06
 -1      4715 1.52006E-04 7.74507E-05-7.31174E-06
 -1      4717 1.62250E-04 5.27183E-05-5.58019E-06
 -1      4718 1.57662E-04 6.53059E-05-5.66675E-06
 -1      4720 1.62250E-04 5.27182E-05-5.75332E-06
 -1      4721 1.57662E-04 6.53059E-05-5.83990E-06
 -1      4723 1.62250E-04 5.27183E-05-5.92648E-06
 -1      4724 1.57662E-04 6.53059E-05-6.01306E-06
 -1      4726 1.62250E-04 5.27183E-05-6.09964E-06
 -1      4727 1.57662E-04 6.53059E-05-6.18622E-06
 -1      4729 1.62250E-04 5.27183E-05-6.27280E-06
 -1      4730 1.57662E-04 6.53059E-05-6.35939E-06
 -1      4732 1.62250E-04 5.27183E-05-6.44597E-06
 -1      4733 1.57662E-04 6.53059E-05-6.53255E-06
 -1      4735 1.62250E-04 5.27183E-05-6.61913E-06
 -1      4736 1.57662E-04 6.53059E-05-6.70571E-06
 -1      4738 1.62250E-04 5.27183E-05-6.79229E-06
 -1      4739 1.57662E-04 6.53059E-05-6.87887E-06
 -1      4741 1.62250E-04 5.27183E-05-6.96545E-06
 -1      4742 1.57662E-04 6.53059E-05-7.05204E-06
 -1      4744 1.62250E-04 5.27182E-05-7.13861E-06
 -1      4745 1.57662E-04 6.53059E-05-7.22519E-06
 -1      4747 1.62250E-04 5.27183E-05-7.31174E-06
 -1      4749 1.68499E-04 2.66877E-05-5.58019E-06
 -1      4750 1.65937E-04 3.98380E-05-5.66675E-06
 -1      4752 1.68499E-04 2.66877E-05-5.75332E-06
 -1      4753 1.65937E-04 3.98380E-05-5.83990E-06
 -1      4755 1.68499E-04 2.66877E-05-5.92648E-06
 -1      4756 1.65937E-04 3.98380E-05-6.01306E-06
 -1      4758 1.68499E-04 2.66877E-05-6.09964E-06
 -1      4759 1.65937E-04 3.98380E-05-6.18622E-06
 -1      4761 1.68499E-04 2.66877E-05-6.27280E-06
 -1      4762 1.65937E-04 3.98380E-05-6.35939E-06
 -1      4764 1.68499E-04 2.66877E-05-6.44597E-06
 -1      4765 1.65937E-04 3.98380E-05-6.53255E-06
 -1      4767 1.68499E-04 2.66877E-05-6.61913E-06
 -1      4768 1.65937E-04 3.98380E-05-6.70571E-06
 -1      4770 1.68499E-04 2.66877E-05-6.79229E-06
 -1      4771 1.65937E-04 3.98380E-05-6.87887E-06
 -1      4773 1.68499E-04 2.66877E-05-6.96545E-06
 -1      4774 1.65937E-04 3.98380E-05-7.05204E-06
 -1      4776 1.68499E-04 2.66877E-05-7.13861E-06
 -1      4777 1.65937E-04 3.98380E-05-7.22519E-06
 -1      4779 1.68499E-04 2.66877E-05-7.31174E-06
 -1      4781 1.70126E-04 1.33892E-05-5.66675E-06
 -1      4783 1.70126E-04 1.33892E-05-5.83990E-06
 -1      4785 1.70126E-04 1.33892E-05-6.01306E-06
 -1      4787 1.70126E-04 1.33892E-05-6.18622E-06
 -1      4789 1.70126E-04 1.33892E-05-6.35939E-06
 -1      4791 1.70126E-04 1.33892E-05-6.53255E-06
 -1      4793 1.70126E-04 1.33892E-05-6.70571E-06
 -1      4795 1.70126E-04 1.33892E-05-6.87887E-06
 -1      4797 1.70126E-04 1.33892E-05-7.05204E-06
 -1      4799 1.70126E-04 1.33892E-05-7.22519E-06
 -1      4802 1.54251E-04 2.44310E-05-7.39834E-06
 -1      4803 1.48530E-04 4.82605E-05-7.39834E-06
 -1      4804 1.39152E-04 7.09016E-05-7.39834E-06
 -1      4805 1.26348E-04 9.17969E-05-7.39834E-06
 -1      4806 1.10432E-04 1.10432E-04-7.39834E-06
 -1      4807 9.17969E-05 1.26348E-04-7.39834E-06
 -1      4808 7.09016E-05 1.39152E-04-7.39834E-06
 -1      4809 4.82605E-05 1.48530E-04-7.39834E-06
 -1      4810 2.44310E-05 1.54251E-04-7.39834E-06
 -1      4811 1.42459E-04 2.25633E-05-7.39836E-06
 -1      4812 1.37176E-04 4.45711E-05-7.39836E-06
 -1      4813 1.28514E-04 6.54814E-05-7.39836E-06
 -1      4814 1.16689E-04 8.47793E-05-7.39836E-06
 -1      4815 1.01990E-04 1.01990E-04-7.39836E-06
 -1      4816 8.47793E-05 1.16689E-04-7.39836E-06
 -1      4817 6.54814E-05 1.28514E-04-7.39836E-06
 -1      4818 4.45711E-05 1.37176E-04-7.39836E-06
 -1      4819 2.25633E-05 1.42459E-04-7.39836E-06
 -1      4820 1.32553E-04 2.09943E-05-7.39835E-06
 -1      4821 1.27637E-04 4.14717E-05-7.39835E-06
 -1      4822 1.19578E-04 6.09280E-05-7.39835E-06
 -1      4823 1.08574E-04 7.88839E-05-7.39835E-06
 -1      4824 9.48975E-05 9.48975E-05-7.39835E-06
 -1      4825 7.88839E-05 1.08574E-04-7.39835E-06
 -1      4826 6.09280E-05 1.19578E-04-7.39835E-06
 -1      4827 4.14717E-05 1.27637E-04-7.39835E-06
 -1      4828 2.09943E-05 1.32553E-04-7.39835E-06
 -1      4829 1.24144E-04 1.96625E-05-7.39835E-06
 -1      4830 1.19540E-04 3.88408E-05-7.39835E-06
 -1      4831 1.11992E-04 5.70627E-05-7.39835E-06
 -1      4832 1.01687E-04 7.38796E-05-7.39835E-06
 -1      4833 8.88773E-05 8.88773E-05-7.39835E-06
 -1      4834 7.38796E-05 1.01687E-04-7.39835E-06
 -1      4835 5.70627E-05 1.11992E-04-7.39835E-06
 -1      4836 3.88408E-05 1.19540E-04-7.39835E-06
 -1      4837 1.96625E-05 1.24144E-04-7.39835E-06
 -1      4838 1.16928E-04 1.85196E-05-7.39835E-06
 -1      4839 1.12592E-04 3.65832E-05-7.39835E-06
 -1      4840 1.05483E-04 5.37460E-05-7.39835E-06
 -1      4841 9.57761E-05 6.95854E-05-7.39835E-06
 -1      4842 8.37114E-05 8.37114E-05-7.39835E-06
 -1      4843 6.95854E-05 9.57761E-05-7.39835E-06
 -1      4844 5.37460E-05 1.05483E-04-7.39835E-06
 -1      4845 3.65832E-05 1.12592E-04-7.39835E-06
 -1      4846 1.85196E-05 1.16928E-04-7.39835E-06
 -1      4847 1.10683E-04 1.75305E-05-7.39835E-06
 -1      4848 1.06578E-04 3.46294E-05-7.39835E-06
 -1      4849 9.98490E-05 5.08756E-05-7.39835E-06
 -1      4850 9.06610E-05 6.58691E-05-7.39835E-06
 -1      4851 7.92406E-05 7.92406E-05-7.39835E-06
 -1      4852 6.58691E-05 9.06610E-05-7.39835E-06
 -1      4853 5.08756E-05 9.98490E-05-7.39835E-06
 -1      4854 3.46294E-05 1.06578E-04-7.39835E-06
 -1      4855 1.75305E-05 1.10683E-04-7.39835E-06
 -1      4856 1.05238E-04 1.66680E-05-7.39835E-06
 -1      4857 1.01335E-04 3.29256E-05-7.39835E-06
 -1      4858 9.49364E-05 4.83725E-05-7.39835E-06
 -1      4859 8.62004E-05 6.26283E-05-7.39835E-06
 -1      4860 7.53419E-05 7.53419E-05-7.39835E-06
 -1      4861 6.26283E-05 8.62004E-05-7.39835E-06
 -1      4862 4.83725E-05 9.49364E-05-7.39835E-06
 -1      4863 3.29256E-05 1.01335E-04-7.39835E-06
 -1      4864 1.66680E-05 1.05238E-04-7.39835E-06
 -1      4865 1.00458E-04 1.59110E-05-7.39835E-06
 -1      4866 9.67323E-05 3.14302E-05-7.39835E-06
 -1      4867 9.06246E-05 4.61755E-05-7.39835E-06
 -1      4868 8.22854E-05 5.97839E-05-7.39835E-06
 -1      4869 7.19201E-05 7.19201E-05-7.39835E-06
 -1      4870 5.97839E-05 8.22854E-05-7.39835E-06
 -1      4871 4.61755E-05 9.06246E-05-7.39835E-06
 -1      4872 3.14302E-05 9.67323E-05-7.39835E-06
 -1      4873 1.59110E-05 1.00458E-04-7.39835E-06
 -1      4874 9.62394E-05 1.52428E-05-7.39835E-06
 -1      4875 9.26700E-05 3.01103E-05-7.39835E-06
 -1      4876 8.68188E-05 4.42364E-05-7.39835E-06
 -1      4877 7.88298E-05 5.72732E-05-7.39835E-06
 -1      4878 6.88998E-05 6.88998E-05-7.39835E-06
 -1      4879 5.72732E-05 7.88298E-05-7.39835E-06
 -1      4880 4.42364E-05 8.68188E-05-7.39835E-06
 -1      4881 3.01103E-05 9.26700E-05-7.39835E-06
 -1      4882 1.52428E-05 9.62394E-05-7.39835E-06
 -1      4883 9.24974E-05 1.46502E-05-7.39835E-06
 -1      4884 8.90668E-05 2.89396E-05-7.39835E-06
 -1      4885 8.34431E-05 4.25164E-05-7.39835E-06
 -1      4886 7.57648E-05 5.50463E-05-7.39835E-06
 -1      4887 6.62208E-05 6.62208E-05-7.39835E-06
 -1      4888 5.50463E-05 7.57648E-05-7.39835E-06
 -1      4889 4.25164E-05 8.34431E-05-7.39835E-06
 -1      4890 2.89396E-05 8.90668E-05-7.39835E-06
 -1      4891 1.46502E-05 9.24974E-05-7.39835E-06
 -1      4892 8.91641E-05 1.41222E-05-7.39835E-06
 -1      4893 8.58571E-05 2.78967E-05-7.39835E-06
 -1      4894 8.04361E-05 4.09842E-05-7.39835E-06
 -1      4895 7.30344E-05 5.30626E-05-7.39835E-06
 -1      4896 6.38344E-05 6.38344E-05-7.39835E-06
 -1      4897 5.30626E-05 7.30344E-05-7.39835E-06
 -1      4898 4.09842E-05 8.04361E-05-7.39835E-06
 -1      4899 2.78967E-05 8.58571E-05-7.39835E-06
 -1      4900 1.41222E-05 8.91641E-05-7.39835E-06
 -1      4901 8.61836E-05 1.36501E-05-7.39835E-06
 -1      4902 8.29872E-05 2.69642E-05-7.39835E-06
 -1      4903 7.77474E-05 3.96143E-05-7.39835E-06
 -1      4904 7.05931E-05 5.12889E-05-7.39835E-06
 -1      4905 6.17007E-05 6.17007E-05-7.39835E-06
 -1      4906 5.12889E-05 7.05931E-05-7.39835E-06
 -1      4907 3.96143E-05 7.77474E-05-7.39835E-06
 -1      4908 2.69642E-05 8.29872E-05-7.39835E-06
 -1      4909 1.36501E-05 8.61836E-05-7.39835E-06
 -1      4910 8.35101E-05 1.32267E-05-7.39835E-06
 -1      4911 8.04128E-05 2.61277E-05-7.39835E-06
 -1      4912 7.53355E-05 3.83854E-05-7.39835E-06
 -1      4913 6.84032E-05 4.96979E-05-7.39835E-06
 -1      4914 5.97866E-05 5.97866E-05-7.39835E-06
 -1      4915 4.96979E-05 6.84032E-05-7.39835E-06
 -1      4916 3.83854E-05 7.53355E-05-7.39835E-06
 -1      4917 2.61277E-05 8.04128E-05-7.39835E-06
 -1      4918 1.32267E-05 8.35101E-05-7.39835E-06
 -1      4919 8.11051E-05 1.28458E-05-7.39835E-06
 -1      4920 7.80970E-05 2.53753E-05-7.39835E-06
 -1      4921 7.31659E-05 3.72799E-05-7.39835E-06
 -1      4922 6.64333E-05 4.82666E-05-7.39835E-06
 -1      4923 5.80648E-05 5.80648E-05-7.39835E-06
 -1      4924 4.82666E-05 6.64333E-05-7.39835E-06
 -1      4925 3.72799E-05 7.31659E-05-7.39835E-06
 -1      4926 2.53753E-05 7.80970E-05-7.39835E-06
 -1      4927 1.28458E-05 8.11051E-05-7.39835E-06
 -1      4928 7.89363E-05 1.25023E-05-7.39835E-06
 -1      4929 7.60087E-05 2.46967E-05-7.39835E-06
 -1      4930 7.12095E-05 3.62831E-05-7.39835E-06
 -1      4931 6.46569E-05 4.69760E-05-7.39835E-06
 -1      4932 5.65122E-05 5.65122E-05-7.39835E-06
 -1      4933 4.69760E-05 6.46569E-05-7.39835E-06
 -1      4934 3.62831E-05 7.12095E-05-7.39835E-06
 -1      4935 2.46967E-05 7.60087E-05-7.39835E-06
 -1      4936 1.25023E-05 7.89363E-05-7.39835E-06
 -1      4937 7.69766E-05 1.21919E-05-7.39835E-06
 -1      4938 7.41217E-05 2.40836E-05-7.39835E-06
 -1      4939 6.94416E-05 3.53823E-05-7.39835E-06
 -1      4940 6.30517E-05 4.58097E-05-7.39835E-06
 -1      4941 5.51092E-05 5.51092E-05-7.39835E-06
 -1      4942 4.58097E-05 6.30517E-05-7.39835E-06
 -1      4943 3.53823E-05 6.94416E-05-7.39835E-06
 -1      4944 2.40836E-05 7.41217E-05-7.39835E-06
 -1      4945 1.21919E-05 7.69766E-05-7.39835E-06
 -1      4946 7.52028E-05 1.19109E-05-7.39835E-06
 -1      4947 7.24136E-05 2.35286E-05-7.39835E-06
 -1      4948 6.78414E-05 3.45669E-05-7.39835E-06
 -1      4949 6.15987E-05 4.47541E-05-7.39835E-06
 -1      4950 5.38392E-05 5.38392E-05-7.39835E-06
 -1      4951 4.47541E-05 6.15987E-05-7.39835E-06
 -1      4952 3.45669E-05 6.78414E-05-7.39835E-06
 -1      4953 2.35286E-05 7.24136E-05-7.39835E-06
 -1      4954 1.19109E-05 7.52028E-05-7.39835E-06
 -1      4955 7.35948E-05 1.16563E-05-7.39835E-06
 -1      4956 7.08653E-05 2.30255E-05-7.39835E-06
 -1      4957 6.63908E-05 3.38278E-05-7.39835E-06
 -1      4958 6.02816E-05 4.37971E-05-7.39835E-06
 -1      4959 5.26880E-05 5.26880E-05-7.39835E-06
 -1      4960 4.37971E-05 6.02816E-05-7.39835E-06
 -1      4961 3.38278E-05 6.63908E-05-7.39835E-06
 -1      4962 2.30255E-05 7.08653E-05-7.39835E-06
 -1      4963 1.16563E-05 7.35948E-05-7.39835E-06
 -1      4964 7.21355E-05 1.14251E-05-7.39835E-06
 -1      4965 6.94601E-05 2.25690E-05-7.39835E-06
 -1      4966 6.50744E-05 3.31571E-05-7.39835E-06
 -1      4967 5.90863E-05 4.29287E-05-7.39835E-06
 -1      4968 5.16433E-05 5.16433E-05-7.39835E-06
 -1      4969 4.29287E-05 5.90863E-05-7.39835E-06
 -1      4970 3.31571E-05 6.50744E-05-7.39835E-06
 -1      4971 2.25690E-05 6.94601E-05-7.39835E-06
 -1      4972 1.14251E-05 7.21355E-05-7.39835E-06
 -1      4973 7.08102E-05 1.12152E-05-7.39835E-06
 -1      4974 6.81839E-05 2.21543E-05-7.39835E-06
 -1      4975 6.38788E-05 3.25479E-05-7.39835E-06
 -1      4976 5.80007E-05 4.21400E-05-7.39835E-06
 -1      4977 5.06945E-05 5.06945E-05-7.39835E-06
 -1      4978 4.21400E-05 5.80007E-05-7.39835E-06
 -1      4979 3.25479E-05 6.38788E-05-7.39835E-06
 -1      4980 2.21543E-05 6.81839E-05-7.39835E-06
 -1      4981 1.12152E-05 7.08102E-05-7.39835E-06
 -1      4982 6.96057E-05 1.10245E-05-7.39835E-06
 -1      4983 6.70241E-05 2.17775E-05-7.39835E-06
 -1      4984 6.27922E-05 3.19942E-05-7.39835E-06
 -1      4985 5.70141E-05 4.14232E-05-7.39835E-06
 -1      4986 4.98322E-05 4.98322E-05-7.39835E-06
 -1      4987 4.14232E-05 5.70141E-05-7.39835E-06
 -1      4988 3.19942E-05 6.27922E-05-7.39835E-06
 -1      4989 2.17775E-05 6.70241E-05-7.39835E-06
 -1      4990 1.10245E-05 6.96057E-05-7.39835E-06
 -1      4991 6.85108E-05 1.08510E-05-7.39835E-06
 -1      4992 6.59698E-05 2.14349E-05-7.39835E-06
 -1      4993 6.18045E-05 3.14910E-05-7.39835E-06
 -1      4994 5.61173E-05 4.07716E-05-7.39835E-06
 -1      4995 4.90483E-05 4.90483E-05-7.39835E-06
 -1      4996 4.07716E-05 5.61173E-05-7.39835E-06
 -1      4997 3.14910E-05 6.18045E-05-7.39835E-06
 -1      4998 2.14349E-05 6.59698E-05-7.39835E-06
 -1      4999 1.08510E-05 6.85108E-05-7.39835E-06
 -1      5000 6.75155E-05 1.06934E-05-7.39835E-06
 -1      5001 6.50115E-05 2.11235E-05-7.39835E-06
 -1      5002 6.09066E-05 3.10335E-05-7.39835E-06
 -1      5003 5.53021E-05 4.01793E-05-7.39835E-06
 -1      5004 4.83358E-05 4.83358E-05-7.39835E-06
 -1      5005 4.01793E-05 5.53021E-05-7.39835E-06
 -1      5006 3.10335E-05 6.09066E-05-7.39835E-06
 -1      5007 2.11235E-05 6.50115E-05-7.39835E-06
 -1      5008 1.06934E-05 6.75155E-05-7.39835E-06
 -1      5009 6.66110E-05 1.05502E-05-7.39835E-06
 -1      5010 6.41405E-05 2.08405E-05-7.39835E-06
 -1      5011 6.00907E-05 3.06177E-05-7.39835E-06
 -1      5012 5.45612E-05 3.96410E-05-7.39835E-06
 -1      5013 4.76882E-05 4.76882E-05-7.39835E-06
 -1      5014 3.96410E-05 5.45612E-05-7.39835E-06
 -1      5015 3.06177E-05 6.00907E-05-7.39835E-06
 -1      5016 2.08405E-05 6.41405E-05-7.39835E-06
 -1      5017 1.05502E-05 6.66110E-05-7.39835E-06
 -1      5018 6.57897E-05 1.04201E-05-7.39835E-06
 -1      5019 6.33496E-05 2.05835E-05-7.39835E-06
 -1      5020 5.93497E-05 3.02402E-05-7.39835E-06
 -1      5021 5.38884E-05 3.91522E-05-7.39835E-06
 -1      5022 4.71002E-05 4.71002E-05-7.39835E-06
 -1      5023 3.91522E-05 5.38884E-05-7.39835E-06
 -1      5024 3.02402E-05 5.93497E-05-7.39835E-06
 -1      5025 2.05835E-05 6.33496E-05-7.39835E-06
 -1      5026 1.04201E-05 6.57897E-05-7.39835E-06
 -1      5027 6.50442E-05 1.03020E-05-7.39835E-06
 -1      5028 6.26318E-05 2.03503E-05-7.39835E-06
 -1      5029 5.86772E-05 2.98975E-05-7.39835E-06
 -1      5030 5.32778E-05 3.87086E-05-7.39835E-06
 -1      5031 4.65665E-05 4.65665E-05-7.39835E-06
 -1      5032 3.87086E-05 5.32778E-05-7.39835E-06
 -1      5033 2.98975E-05 5.86772E-05-7.39835E-06
 -1      5034 2.03503E-05 6.26318E-05-7.39835E-06
 -1      5035 1.03020E-05 6.50442E-05-7.39835E-06
 -1      5036 6.43696E-05 1.01951E-05-7.39835E-06
 -1      5037 6.19822E-05 2.01392E-05-7.39835E-06
 -1      5038 5.80686E-05 2.95875E-05-7.39835E-06
 -1      5039 5.27252E-05 3.83071E-05-7.39835E-06
 -1      5040 4.60835E-05 4.60835E-05-7.39835E-06
 -1      5041 3.83071E-05 5.27252E-05-7.39835E-06
 -1      5042 2.95875E-05 5.80686E-05-7.39835E-06
 -1      5043 2.01392E-05 6.19822E-05-7.39835E-06
 -1      5044 1.01951E-05 6.43696E-05-7.39835E-06
 -1      5045 6.37556E-05 1.00979E-05-7.39835E-06
 -1      5046 6.13910E-05 1.99471E-05-7.39835E-06
 -1      5047 5.75147E-05 2.93052E-05-7.39835E-06
 -1      5048 5.22223E-05 3.79417E-05-7.39835E-06
 -1      5049 4.56439E-05 4.56439E-05-7.39834E-06
 -1      5050 3.79417E-05 5.22223E-05-7.39835E-06
 -1      5051 2.93052E-05 5.75147E-05-7.39835E-06
 -1      5052 1.99471E-05 6.13910E-05-7.39834E-06
 -1      5053 1.00979E-05 6.37556E-05-7.39835E-06
 -1      5054 6.32166E-05 1.00125E-05-7.39835E-06
 -1      5055 6.08720E-05 1.97785E-05-7.39835E-06
 -1      5056 5.70285E-05 2.90575E-05-7.39835E-06
 -1      5057 5.17808E-05 3.76210E-05-7.39835E-06
 -1      5058 4.52581E-05 4.52581E-05-7.39835E-06
 -1      5059 3.76210E-05 5.17808E-05-7.39835E-06
 -1      5060 2.90575E-05 5.70285E-05-7.39835E-06
 -1      5061 1.97785E-05 6.08720E-05-7.39835E-06
 -1      5062 1.00125E-05 6.32166E-05-7.39835E-06
 -1      5063 1.56149E-04 1.22892E-05-7.39834E-06
 -1      5064 1.61037E-04 2.55057E-05-7.39839E-06
 -1      5066 1.52304E-04 3.65649E-05-7.39834E-06
 -1      5067 1.55064E-04 5.03834E-05-7.39839E-06
 -1      5069 1.44709E-04 5.99403E-05-7.39834E-06
 -1      5070 1.45273E-04 7.40204E-05-7.39839E-06
 -1      5072 1.33550E-04 8.18398E-05-7.39834E-06
 -1      5073 1.31905E-04 9.58348E-05-7.39839E-06
 -1      5075 1.19104E-04 1.01724E-04-7.39834E-06
 -1      5076 1.15289E-04 1.15289E-04-7.39839E-06
 -1      5078 1.01724E-04 1.19104E-04-7.39834E-06
 -1      5079 9.58348E-05 1.31905E-04-7.39839E-06
 -1      5081 8.18398E-05 1.33550E-04-7.39834E-06
 -1      5082 7.40204E-05 1.45273E-04-7.39839E-06
 -1      5084 5.99403E-05 1.44709E-04-7.39834E-06
 -1      5085 5.03834E-05 1.55064E-04-7.39839E-06
 -1      5087 3.65649E-05 1.52304E-04-7.39834E-06
 -1      5088 2.55057E-05 1.61037E-04-7.39839E-06
 -1      5090 1.22892E-05 1.56149E-04-7.39834E-06
 -1      5092 1.44189E-04 1.13479E-05-7.39836E-06
 -1      5093 1.48086E-04 2.34545E-05-7.39831E-06
 -1      5095 1.40639E-04 3.37644E-05-7.39836E-06
 -1      5096 1.42593E-04 4.63314E-05-7.39831E-06
 -1      5098 1.33625E-04 5.53495E-05-7.39836E-06
 -1      5099 1.33590E-04 6.80675E-05-7.39831E-06
 -1      5101 1.23322E-04 7.55717E-05-7.39836E-06
 -1      5102 1.21297E-04 8.81276E-05-7.39831E-06
 -1      5104 1.09981E-04 9.39330E-05-7.39836E-06
 -1      5105 1.06018E-04 1.06018E-04-7.39831E-06
 -1      5107 9.39330E-05 1.09981E-04-7.39836E-06
 -1      5108 8.81276E-05 1.21297E-04-7.39831E-06
 -1      5110 7.55717E-05 1.23322E-04-7.39836E-06
 -1      5111 6.80675E-05 1.33590E-04-7.39831E-06
 -1      5113 5.53495E-05 1.33625E-04-7.39836E-06
 -1      5114 4.63314E-05 1.42593E-04-7.39831E-06
 -1      5116 3.37644E-05 1.40639E-04-7.39836E-06
 -1      5117 2.34545E-05 1.48086E-04-7.39831E-06
 -1      5119 1.13479E-05 1.44189E-04-7.39836E-06
 -1      5121 1.34161E-04 1.05587E-05-7.39835E-06
 -1      5122 1.37296E-04 2.17456E-05-7.39836E-06
 -1      5124 1.30858E-04 3.14161E-05-7.39835E-06
 -1      5125 1.32204E-04 4.29557E-05-7.39836E-06
 -1      5127 1.24332E-04 5.15000E-05-7.39835E-06
 -1      5128 1.23857E-04 6.31082E-05-7.39836E-06
 -1      5130 1.14745E-04 7.03158E-05-7.39835E-06
 -1      5131 1.12460E-04 8.17067E-05-7.39836E-06
 -1      5133 1.02332E-04 8.74001E-05-7.39835E-06
 -1      5134 9.82933E-05 9.82933E-05-7.39836E-06
 -1      5136 8.74001E-05 1.02332E-04-7.39835E-06
 -1      5137 8.17067E-05 1.12460E-04-7.39836E-06
 -1      5139 7.03158E-05 1.14745E-04-7.39835E-06
 -1      5140 6.31082E-05 1.23857E-04-7.39836E-06
 -1      5142 5.15000E-05 1.24332E-04-7.39835E-06
 -1      5143 4.29557E-05 1.32204E-04-7.39836E-06
 -1      5145 3.14161E-05 1.30858E-04-7.39835E-06
 -1      5146 2.17456E-05 1.37296E-04-7.39836E-06
 -1      5148 1.05587E-05 1.34161E-04-7.39835E-06
 -1      5150 1.25643E-04 9.88829E-06-7.39835E-06
 -1      5151 1.28182E-04 2.03020E-05-7.39834E-06
 -1      5153 1.22549E-04 2.94214E-05-7.39835E-06
 -1      5154 1.23428E-04 4.01041E-05-7.39834E-06
 -1      5156 1.16438E-04 4.82300E-05-7.39835E-06
 -1      5157 1.15635E-04 5.89188E-05-7.39834E-06
 -1      5159 1.07459E-04 6.58511E-05-7.39835E-06
 -1      5160 1.04994E-04 7.62826E-05-7.39834E-06
 -1      5162 9.58349E-05 8.18507E-05-7.39835E-06
 -1      5163 9.17681E-05 9.17681E-05-7.39834E-06
 -1      5165 8.18507E-05 9.58349E-05-7.39835E-06
 -1      5166 7.62826E-05 1.04994E-04-7.39834E-06
 -1      5168 6.58511E-05 1.07459E-04-7.39835E-06
 -1      5169 5.89188E-05 1.15635E-04-7.39834E-06
 -1      5171 4.82300E-05 1.16438E-04-7.39835E-06
 -1      5172 4.01041E-05 1.23428E-04-7.39834E-06
 -1      5174 2.94214E-05 1.22549E-04-7.39835E-06
 -1      5175 2.03020E-05 1.28182E-04-7.39834E-06
 -1      5177 9.88829E-06 1.25643E-04-7.39835E-06
 -1      5179 1.18334E-04 9.31310E-06-7.39835E-06
 -1      5180 1.20402E-04 1.90698E-05-7.39835E-06
 -1      5182 1.15420E-04 2.77100E-05-7.39835E-06
 -1      5183 1.15936E-04 3.76700E-05-7.39835E-06
 -1      5185 1.09665E-04 4.54245E-05-7.39835E-06
 -1      5186 1.08616E-04 5.53426E-05-7.39835E-06
 -1      5188 1.01208E-04 6.20206E-05-7.39835E-06
 -1      5189 9.86212E-05 7.16525E-05-7.39835E-06
 -1      5191 9.02602E-05 7.70895E-05-7.39835E-06
 -1      5192 8.61981E-05 8.61981E-05-7.39835E-06
 -1      5194 7.70895E-05 9.02602E-05-7.39835E-06
 -1      5195 7.16525E-05 9.86212E-05-7.39835E-06
 -1      5197 6.20206E-05 1.01208E-04-7.39835E-06
 -1      5198 5.53426E-05 1.08616E-04-7.39835E-06
 -1      5200 4.54245E-05 1.09665E-04-7.39835E-06
 -1      5201 3.76700E-05 1.15936E-04-7.39835E-06
 -1      5203 2.77100E-05 1.15420E-04-7.39835E-06
 -1      5204 1.90698E-05 1.20402E-04-7.39835E-06
 -1      5206 9.31310E-06 1.18334E-04-7.39835E-06
 -1      5208 1.12008E-04 8.81522E-06-7.39835E-06
 -1      5209 1.13696E-04 1.80077E-05-7.39835E-06
 -1      5211 1.09250E-04 2.62286E-05-7.39835E-06
 -1      5212 1.09479E-04 3.55719E-05-7.39835E-06
 -1      5214 1.03802E-04 4.29961E-05-7.39835E-06
 -1      5215 1.02567E-04 5.22602E-05-7.39835E-06
 -1      5217 9.57978E-05 5.87050E-05-7.39835E-06
 -1      5218 9.31284E-05 6.76618E-05-7.39835E-06
 -1      5220 8.54349E-05 7.29683E-05-7.39835E-06
 -1      5221 8.13972E-05 8.13972E-05-7.39835E-06
 -1      5223 7.29683E-05 8.54349E-05-7.39835E-06
 -1      5224 6.76618E-05 9.31284E-05-7.39835E-06
 -1      5226 5.87050E-05 9.57978E-05-7.39835E-06
 -1      5227 5.22602E-05 1.02567E-04-7.39835E-06
 -1      5229 4.29961E-05 1.03802E-04-7.39835E-06
 -1      5230 3.55719E-05 1.09479E-04-7.39835E-06
 -1      5232 2.62286E-05 1.09250E-04-7.39835E-06
 -1      5233 1.80077E-05 1.13696E-04-7.39835E-06
 -1      5235 8.81522E-06 1.12008E-04-7.39835E-06
 -1      5237 1.06491E-04 8.38103E-06-7.39835E-06
 -1      5238 1.07869E-04 1.70848E-05-7.39835E-06
 -1      5240 1.03869E-04 2.49367E-05-7.39835E-06
 -1      5241 1.03869E-04 3.37490E-05-7.39835E-06
 -1      5243 9.86892E-05 4.08784E-05-7.39835E-06
 -1      5244 9.73104E-05 4.95821E-05-7.39835E-06
 -1      5246 9.10793E-05 5.58135E-05-7.39835E-06
 -1      5247 8.83560E-05 6.41944E-05-7.39835E-06
 -1      5249 8.12268E-05 6.93743E-05-7.39835E-06
 -1      5250 7.72260E-05 7.72260E-05-7.39835E-06
 -1      5252 6.93743E-05 8.12268E-05-7.39835E-06
 -1      5253 6.41944E-05 8.83560E-05-7.39835E-06
 -1      5255 5.58135E-05 9.10793E-05-7.39835E-06
 -1      5256 4.95821E-05 9.73104E-05-7.39835E-06
 -1      5258 4.08784E-05 9.86892E-05-7.39835E-06
 -1      5259 3.37490E-05 1.03869E-04-7.39835E-06
 -1      5261 2.49367E-05 1.03869E-04-7.39835E-06
 -1      5262 1.70848E-05 1.07869E-04-7.39835E-06
 -1      5264 8.38103E-06 1.06491E-04-7.39835E-06
 -1      5266 1.01649E-04 7.99991E-06-7.39835E-06
 -1      5267 1.02772E-04 1.62774E-05-7.39835E-06
 -1      5269 9.91456E-05 2.38028E-05-7.39835E-06
 -1      5270 9.89599E-05 3.21540E-05-7.39835E-06
 -1      5272 9.42014E-05 3.90195E-05-7.39835E-06
 -1      5273 9.27115E-05 4.72389E-05-7.39835E-06
 -1      5275 8.69376E-05 5.32754E-05-7.39835E-06
 -1      5276 8.41803E-05 6.11606E-05-7.39835E-06
 -1      5278 7.75332E-05 6.62196E-05-7.39835E-06
 -1      5279 7.35763E-05 7.35763E-05-7.39835E-06
 -1      5281 6.62196E-05 7.75332E-05-7.39835E-06
 -1      5282 6.11606E-05 8.41803E-05-7.39835E-06
 -1      5284 5.32754E-05 8.69376E-05-7.39835E-06
 -1      5285 4.72389E-05 9.27115E-05-7.39835E-06
 -1      5287 3.90195E-05 9.42014E-05-7.39835E-06
 -1      5288 3.21540E-05 9.89599E-05-7.39835E-06
 -1      5290 2.38028E-05 9.91456E-05-7.39835E-06
 -1      5291 1.62774E-05 1.02772E-04-7.39835E-06
 -1      5293 7.99991E-06 1.01649E-04-7.39835E-06
 -1      5295 9.73738E-05 7.66349E-06-7.39835E-06
 -1      5296 9.82841E-05 1.55667E-05-7.39835E-06
 -1      5298 9.49762E-05 2.28018E-05-7.39835E-06
 -1      5299 9.46389E-05 3.07500E-05-7.39835E-06
 -1      5301 9.02399E-05 3.73786E-05-7.39835E-06
 -1      5302 8.86634E-05 4.51762E-05-7.39835E-06
 -1      5304 8.32816E-05 5.10350E-05-7.39835E-06
 -1      5305 8.05046E-05 5.84900E-05-7.39835E-06
 -1      5307 7.42726E-05 6.34348E-05-7.39835E-06
 -1      5308 7.03636E-05 7.03636E-05-7.39835E-06
 -1      5310 6.34348E-05 7.42726E-05-7.39835E-06
 -1      5311 5.84900E-05 8.05046E-05-7.39835E-06
 -1      5313 5.10350E-05 8.32816E-05-7.39835E-06
 -1      5314 4.51762E-05 8.86634E-05-7.39835E-06
 -1      5316 3.73786E-05 9.02399E-05-7.39835E-06
 -1      5317 3.07500E-05 9.46389E-05-7.39835E-06
 -1      5319 2.28018E-05 9.49762E-05-7.39835E-06
 -1      5320 1.55667E-05 9.82841E-05-7.39835E-06
 -1      5322 7.66349E-06 9.73738E-05-7.39835E-06
 -1      5324 9.35818E-05 7.36505E-06-7.39835E-06
 -1      5325 9.43132E-05 1.49377E-05-7.39835E-06
 -1      5327 9.12775E-05 2.19138E-05-7.39835E-06
 -1      5328 9.08152E-05 2.95077E-05-7.39835E-06
 -1      5330 8.67257E-05 3.59229E-05-7.39835E-06
 -1      5331 8.50811E-05 4.33510E-05-7.39835E-06
 -1      5333 8.00383E-05 4.90476E-05-7.39835E-06
 -1      5334 7.72521E-05 5.61269E-05-7.39835E-06
 -1      5336 7.13802E-05 6.09644E-05-7.39835E-06
 -1      5337 6.75208E-05 6.75208E-05-7.39835E-06
 -1      5339 6.09644E-05 7.13802E-05-7.39835E-06
 -1      5340 5.61269E-05 7.72521E-05-7.39835E-06
 -1      5342 4.90476E-05 8.00383E-05-7.39835E-06
 -1      5343 4.33510E-05 8.50811E-05-7.39835E-06
 -1      5345 3.59229E-05 8.67257E-05-7.39835E-06
 -1      5346 2.95077E-05 9.08152E-05-7.39835E-06
 -1      5348 2.19138E-05 9.12775E-05-7.39835E-06
 -1      5349 1.49377E-05 9.43132E-05-7.39835E-06
 -1      5351 7.36505E-06 9.35818E-05-7.39835E-06
 -1      5353 9.02035E-05 7.09917E-06-7.39835E-06
 -1      5354 9.07832E-05 1.43786E-05-7.39835E-06
 -1      5356 8.79824E-05 2.11227E-05-7.39835E-06
 -1      5357 8.74162E-05 2.84032E-05-7.39835E-06
 -1      5359 8.35949E-05 3.46261E-05-7.39835E-06
 -1      5360 8.18967E-05 4.17285E-05-7.39835E-06
 -1      5362 7.71490E-05 4.72769E-05-7.39835E-06
 -1      5363 7.43607E-05 5.40262E-05-7.39835E-06
 -1      5365 6.88034E-05 5.87636E-05-7.39835E-06
 -1      5366 6.49936E-05 6.49936E-05-7.39835E-06
 -1      5368 5.87636E-05 6.88034E-05-7.39835E-06
 -1      5369 5.40262E-05 7.43607E-05-7.39835E-06
 -1      5371 4.72769E-05 7.71490E-05-7.39835E-06
 -1      5372 4.17285E-05 8.18967E-05-7.39835E-06
 -1      5374 3.46261E-05 8.35949E-05-7.39835E-06
 -1      5375 2.84032E-05 8.74162E-05-7.39835E-06
 -1      5377 2.11227E-05 8.79824E-05-7.39835E-06
 -1      5378 1.43786E-05 9.07832E-05-7.39835E-06
 -1      5380 7.09917E-06 9.02035E-05-7.39835E-06
 -1      5382 8.71825E-05 6.86141E-06-7.39835E-06
 -1      5383 8.76326E-05 1.38796E-05-7.39835E-06
 -1      5385 8.50358E-05 2.04153E-05-7.39835E-06
 -1      5386 8.43825E-05 2.74175E-05-7.39835E-06
 -1      5388 8.07952E-05 3.34665E-05-7.39835E-06
 -1      5389 7.90546E-05 4.02803E-05-7.39835E-06
 -1      5391 7.45652E-05 4.56936E-05-7.39835E-06
 -1      5392 7.17800E-05 5.21512E-05-7.39835E-06
 -1      5394 6.64991E-05 5.67956E-05-7.39835E-06
 -1      5395 6.27380E-05 6.27380E-05-7.39835E-06
 -1      5397 5.67956E-05 6.64991E-05-7.39835E-06
 -1      5398 5.21512E-05 7.17800E-05-7.39835E-06
 -1      5400 4.56936E-05 7.45652E-05-7.39835E-06
 -1      5401 4.02803E-05 7.90546E-05-7.39835E-06
 -1      5403 3.34665E-05 8.07952E-05-7.39835E-06
 -1      5404 2.74175E-05 8.43825E-05-7.39835E-06
 -1      5406 2.04153E-05 8.50358E-05-7.39835E-06
 -1      5407 1.38796E-05 8.76326E-05-7.39835E-06
 -1      5409 6.86141E-06 8.71825E-05-7.39835E-06
 -1      5411 8.44723E-05 6.64811E-06-7.39835E-06
 -1      5412 8.48109E-05 1.34327E-05-7.39835E-06
 -1      5414 8.23923E-05 1.97806E-05-7.39835E-06
 -1      5415 8.16654E-05 2.65347E-05-7.39835E-06
 -1      5417 7.82835E-05 3.24261E-05-7.39835E-06
 -1      5418 7.65090E-05 3.89833E-05-7.39835E-06
 -1      5420 7.22471E-05 4.42731E-05-7.39835E-06
 -1      5421 6.94687E-05 5.04720E-05-7.39835E-06
 -1      5423 6.44318E-05 5.50300E-05-7.39835E-06
 -1      5424 6.07179E-05 6.07179E-05-7.39835E-06
 -1      5426 5.50300E-05 6.44318E-05-7.39835E-06
 -1      5427 5.04720E-05 6.94687E-05-7.39835E-06
 -1      5429 4.42731E-05 7.22471E-05-7.39835E-06
 -1      5430 3.89833E-05 7.65090E-05-7.39835E-06
 -1      5432 3.24261E-05 7.82835E-05-7.39835E-06
 -1      5433 2.65347E-05 8.16654E-05-7.39835E-06
 -1      5435 1.97806E-05 8.23923E-05-7.39835E-06
 -1      5436 1.34327E-05 8.48109E-05-7.39835E-06
 -1      5438 6.64811E-06 8.44723E-05-7.39835E-06
 -1      5440 8.20338E-05 6.45620E-06-7.39835E-06
 -1      5441 8.22760E-05 1.30312E-05-7.39835E-06
 -1      5443 8.00139E-05 1.92096E-05-7.39835E-06
 -1      5444 7.92245E-05 2.57416E-05-7.39835E-06
 -1      5446 7.60237E-05 3.14901E-05-7.39835E-06
 -1      5447 7.42223E-05 3.78181E-05-7.39835E-06
 -1      5449 7.01616E-05 4.29951E-05-7.39835E-06
 -1      5450 6.73924E-05 4.89635E-05-7.39835E-06
 -1      5452 6.25719E-05 5.34415E-05-7.39835E-06
 -1      5453 5.89031E-05 5.89031E-05-7.39835E-06
 -1      5455 5.34415E-05 6.25719E-05-7.39835E-06
 -1      5456 4.89635E-05 6.73924E-05-7.39835E-06
 -1      5458 4.29951E-05 7.01616E-05-7.39835E-06
 -1      5459 3.78181E-05 7.42223E-05-7.39835E-06
 -1      5461 3.14901E-05 7.60237E-05-7.39835E-06
 -1      5462 2.57416E-05 7.92245E-05-7.39835E-06
 -1      5464 1.92096E-05 8.00139E-05-7.39835E-06
 -1      5465 1.30312E-05 8.22760E-05-7.39835E-06
 -1      5467 6.45620E-06 8.20338E-05-7.39835E-06
 -1      5469 7.98347E-05 6.28313E-06-7.39835E-06
 -1      5470 7.99929E-05 1.26696E-05-7.39835E-06
 -1      5472 7.78689E-05 1.86947E-05-7.39835E-06
 -1      5473 7.70260E-05 2.50273E-05-7.39835E-06
 -1      5475 7.39857E-05 3.06459E-05-7.39835E-06
 -1      5476 7.21626E-05 3.67687E-05-7.39835E-06
 -1      5478 6.82807E-05 4.18425E-05-7.39835E-06
 -1      5479 6.55223E-05 4.76047E-05-7.39835E-06
 -1      5481 6.08945E-05 5.20088E-05-7.39835E-06
 -1      5482 5.72686E-05 5.72686E-05-7.39835E-06
 -1      5484 5.20088E-05 6.08945E-05-7.39835E-06
 -1      5485 4.76047E-05 6.55223E-05-7.39835E-06
 -1      5487 4.18425E-05 6.82807E-05-7.39835E-06
 -1      5488 3.67687E-05 7.21626E-05-7.39835E-06
 -1      5490 3.06459E-05 7.39857E-05-7.39835E-06
 -1      5491 2.50273E-05 7.70260E-05-7.39835E-06
 -1      5493 1.86947E-05 7.78689E-05-7.39835E-06
 -1      5494 1.26696E-05 7.99929E-05-7.39835E-06
 -1      5496 6.28313E-06 7.98347E-05-7.39835E-06
 -1      5498 7.78472E-05 6.12670E-06-7.39835E-06
 -1      5499 7.79318E-05 1.23432E-05-7.39835E-06
 -1      5501 7.59303E-05 1.82293E-05-7.39835E-06
 -1      5502 7.50414E-05 2.43824E-05-7.39835E-06
 -1      5504 7.21438E-05 2.98829E-05-7.39835E-06
 -1      5505 7.03033E-05 3.58213E-05-7.39835E-06
 -1      5507 6.65809E-05 4.08008E-05-7.39835E-06
 -1      5508 6.38340E-05 4.63782E-05-7.39835E-06
 -1      5510 5.93785E-05 5.07140E-05-7.39835E-06
 -1      5511 5.57930E-05 5.57930E-05-7.39835E-06
 -1      5513 5.07140E-05 5.93785E-05-7.39835E-06
 -1      5514 4.63782E-05 6.38340E-05-7.39835E-06
 -1      5516 4.08008E-05 6.65809E-05-7.39835E-06
 -1      5517 3.58213E-05 7.03033E-05-7.39835E-06
 -1      5519 2.98829E-05 7.21438E-05-7.39835E-06
 -1      5520 2.43824E-05 7.50414E-05-7.39835E-06
 -1      5522 1.82293E-05 7.59303E-05-7.39835E-06
 -1      5523 1.23432E-05 7.79318E-05-7.39835E-06
 -1      5525 6.12670E-06 7.78472E-05-7.39835E-06
 -1      5527 7.60477E-05 5.98509E-06-7.39835E-06
 -1      5528 7.60677E-05 1.20479E-05-7.39835E-06
 -1      5530 7.41752E-05 1.78079E-05-7.39835E-06
 -1      5531 7.32465E-05 2.37992E-05-7.39835E-06
 -1      5533 7.04762E-05 2.91922E-05-7.39835E-06
 -1      5534 6.86217E-05 3.49645E-05-7.39835E-06
 -1      5536 6.50419E-05 3.98577E-05-7.39835E-06
 -1      5537 6.23072E-05 4.52688E-05-7.39835E-06
 -1      5539 5.80060E-05 4.95418E-05-7.39835E-06
 -1      5540 5.44585E-05 5.44585E-05-7.39835E-06
 -1      5542 4.95418E-05 5.80060E-05-7.39835E-06
 -1      5543 4.52688E-05 6.23072E-05-7.39835E-06
 -1      5545 3.98577E-05 6.50419E-05-7.39835E-06
 -1      5546 3.49645E-05 6.86217E-05-7.39835E-06
 -1      5548 2.91922E-05 7.04762E-05-7.39835E-06
 -1      5549 2.37992E-05 7.32465E-05-7.39835E-06
 -1      5551 1.78079E-05 7.41752E-05-7.39835E-06
 -1      5552 1.20479E-05 7.60677E-05-7.39835E-06
 -1      5554 5.98509E-06 7.60477E-05-7.39835E-06
 -1      5556 7.44163E-05 5.85669E-06-7.39835E-06
 -1      5557 7.43791E-05 1.17805E-05-7.39835E-06
 -1      5559 7.25839E-05 1.74259E-05-7.39835E-06
 -1      5560 7.16205E-05 2.32709E-05-7.39835E-06
 -1      5562 6.89643E-05 2.85659E-05-7.39835E-06
 -1      5563 6.70983E-05 3.41883E-05-7.39835E-06
 -1      5565 6.36465E-05 3.90026E-05-7.39835E-06
 -1      5566 6.09240E-05 4.42639E-05-7.39835E-06
 -1      5568 5.67616E-05 4.84790E-05-7.39835E-06
 -1      5569 5.32495E-05 5.32495E-05-7.39835E-06
 -1      5571 4.84790E-05 5.67616E-05-7.39835E-06
 -1      5572 4.42639E-05 6.09240E-05-7.39835E-06
 -1      5574 3.90026E-05 6.36465E-05-7.39835E-06
 -1      5575 3.41883E-05 6.70983E-05-7.39835E-06
 -1      5577 2.85659E-05 6.89643E-05-7.39835E-06
 -1      5578 2.32709E-05 7.16205E-05-7.39835E-06
 -1      5580 1.74259E-05 7.25839E-05-7.39835E-06
 -1      5581 1.17805E-05 7.43791E-05-7.39835E-06
 -1      5583 5.85669E-06 7.44163E-05-7.39835E-06
 -1      5585 7.29355E-05 5.74015E-06-7.39835E-06
 -1      5586 7.28475E-05 1.15379E-05-7.39835E-06
 -1      5588 7.11395E-05 1.70791E-05-7.39835E-06
 -1      5589 7.01457E-05 2.27917E-05-7.39835E-06
 -1      5591 6.75919E-05 2.79975E-05-7.39835E-06
 -1      5592 6.57167E-05 3.34843E-05-7.39835E-06
 -1      5594 6.23800E-05 3.82265E-05-7.39835E-06
 -1      5595 5.96695E-05 4.33524E-05-7.39835E-06
 -1      5597 5.56321E-05 4.75143E-05-7.39835E-06
 -1      5598 5.21530E-05 5.21530E-05-7.39835E-06
 -1      5600 4.75143E-05 5.56321E-05-7.39835E-06
 -1      5601 4.33524E-05 5.96695E-05-7.39835E-06
 -1      5603 3.82265E-05 6.23800E-05-7.39835E-06
 -1      5604 3.34843E-05 6.57167E-05-7.39835E-06
 -1      5606 2.79975E-05 6.75919E-05-7.39835E-06
 -1      5607 2.27917E-05 7.01457E-05-7.39835E-06
 -1      5609 1.70791E-05 7.11396E-05-7.39835E-06
 -1      5610 1.15379E-05 7.28475E-05-7.39835E-06
 -1      5612 5.74015E-06 7.29355E-05-7.39835E-06
 -1      5614 7.15901E-05 5.63427E-06-7.39835E-06
 -1      5615 7.14569E-05 1.13177E-05-7.39835E-06
 -1      5617 6.98274E-05 1.67641E-05-7.39835E-06
 -1      5618 6.88067E-05 2.23566E-05-7.39835E-06
 -1      5620 6.63452E-05 2.74811E-05-7.39835E-06
 -1      5621 6.44622E-05 3.28451E-05-7.39835E-06
 -1      5623 6.12294E-05 3.75214E-05-7.39835E-06
 -1      5624 5.85304E-05 4.25249E-05-7.39835E-06
 -1      5626 5.46059E-05 4.66379E-05-7.39835E-06
 -1      5627 5.11575E-05 5.11575E-05-7.39835E-06
 -1      5629 4.66379E-05 5.46059E-05-7.39835E-06
 -1      5630 4.25249E-05 5.85305E-05-7.39835E-06
 -1      5632 3.75214E-05 6.12294E-05-7.39835E-06
 -1      5633 3.28451E-05 6.44622E-05-7.39835E-06
 -1      5635 2.74811E-05 6.63452E-05-7.39835E-06
 -1      5636 2.23566E-05 6.88067E-05-7.39835E-06
 -1      5638 1.67641E-05 6.98274E-05-7.39835E-06
 -1      5639 1.13177E-05 7.14569E-05-7.39835E-06
 -1      5641 5.63427E-06 7.15901E-05-7.39835E-06
 -1      5643 7.03673E-05 5.53802E-06-7.39835E-06
 -1      5644 7.01935E-05 1.11176E-05-7.39835E-06
 -1      5646 6.86346E-05 1.64777E-05-7.39835E-06
 -1      5647 6.75901E-05 2.19614E-05-7.39835E-06
 -1      5649 6.52119E-05 2.70116E-05-7.39835E-06
 -1      5650 6.33225E-05 3.22644E-05-7.39835E-06
 -1      5652 6.01835E-05 3.68805E-05-7.39835E-06
 -1      5653 5.74956E-05 4.17730E-05-7.39835E-06
 -1      5655 5.36731E-05 4.58412E-05-7.39835E-06
 -1      5656 5.02530E-05 5.02530E-05-7.39835E-06
 -1      5658 4.58412E-05 5.36731E-05-7.39835E-06
 -1      5659 4.17730E-05 5.74956E-05-7.39835E-06
 -1      5661 3.68805E-05 6.01835E-05-7.39835E-06
 -1      5662 3.22644E-05 6.33225E-05-7.39835E-06
 -1      5664 2.70116E-05 6.52119E-05-7.39835E-06
 -1      5665 2.19614E-05 6.75901E-05-7.39835E-06
 -1      5667 1.64777E-05 6.86346E-05-7.39835E-06
 -1      5668 1.11176E-05 7.01935E-05-7.39835E-06
 -1      5670 5.53802E-06 7.03673E-05-7.39835E-06
 -1      5672 6.92553E-05 5.45051E-06-7.39835E-06
 -1      5673 6.90451E-05 1.09357E-05-7.39835E-06
 -1      5675 6.75500E-05 1.62173E-05-7.39835E-06
 -1      5676 6.64844E-05 2.16021E-05-7.39835E-06
 -1      5678 6.41814E-05 2.65848E-05-7.39835E-06
 -1      5679 6.22865E-05 3.17366E-05-7.39835E-06
 -1      5681 5.92324E-05 3.62977E-05-7.39835E-06
 -1      5682 5.65550E-05 4.10896E-05-7.39835E-06
 -1      5684 5.28250E-05 4.51168E-05-7.39835E-06
 -1      5685 4.94309E-05 4.94309E-05-7.39835E-06
 -1      5687 4.51168E-05 5.28250E-05-7.39835E-06
 -1      5688 4.10896E-05 5.65550E-05-7.39835E-06
 -1      5690 3.62977E-05 5.92324E-05-7.39835E-06
 -1      5691 3.17366E-05 6.22865E-05-7.39835E-06
 -1      5693 2.65848E-05 6.41814E-05-7.39835E-06
 -1      5694 2.16021E-05 6.64844E-05-7.39835E-06
 -1      5696 1.62173E-05 6.75500E-05-7.39835E-06
 -1      5697 1.09357E-05 6.90451E-05-7.39835E-06
 -1      5699 5.45051E-06 6.92553E-05-7.39835E-06
 -1      5701 6.82442E-05 5.37093E-06-7.39835E-06
 -1      5702 6.80012E-05 1.07703E-05-7.39835E-06
 -1      5704 6.65638E-05 1.59806E-05-7.39835E-06
 -1      5705 6.54792E-05 2.12755E-05-7.39835E-06
 -1      5707 6.32444E-05 2.61967E-05-7.39835E-06
 -1      5708 6.13448E-05 3.12567E-05-7.39835E-06
 -1      5710 5.83677E-05 3.57677E-05-7.39835E-06
 -1      5711 5.56999E-05 4.04683E-05-7.39835E-06
 -1      5713 5.20538E-05 4.44581E-05-7.39835E-06
 -1      5714 4.86835E-05 4.86835E-05-7.39835E-06
 -1      5716 4.44581E-05 5.20538E-05-7.39835E-06
 -1      5717 4.04683E-05 5.56999E-05-7.39835E-06
 -1      5719 3.57677E-05 5.83677E-05-7.39835E-06
 -1      5720 3.12567E-05 6.13448E-05-7.39835E-06
 -1      5722 2.61967E-05 6.32444E-05-7.39835E-06
 -1      5723 2.12755E-05 6.54792E-05-7.39835E-06
 -1      5725 1.59806E-05 6.65638E-05-7.39835E-06
 -1      5726 1.07703E-05 6.80012E-05-7.39835E-06
 -1      5728 5.37093E-06 6.82442E-05-7.39835E-06
 -1      5730 6.73250E-05 5.29860E-06-7.39835E-06
 -1      5731 6.70524E-05 1.06201E-05-7.39835E-06
 -1      5733 6.56673E-05 1.57653E-05-7.39835E-06
 -1      5734 6.45655E-05 2.09786E-05-7.39835E-06
 -1      5736 6.23926E-05 2.58438E-05-7.39835E-06
 -1      5737 6.04888E-05 3.08206E-05-7.39835E-06
 -1      5739 5.75815E-05 3.52860E-05-7.39835E-06
 -1      5740 5.49227E-05 3.99037E-05-7.39835E-06
 -1      5742 5.13527E-05 4.38593E-05-7.39835E-06
 -1      5743 4.80042E-05 4.80042E-05-7.39835E-06
 -1      5745 4.38593E-05 5.13527E-05-7.39835E-06
 -1      5746 3.99037E-05 5.49227E-05-7.39835E-06
 -1      5748 3.52860E-05 5.75815E-05-7.39835E-06
 -1      5749 3.08206E-05 6.04888E-05-7.39835E-06
 -1      5751 2.58438E-05 6.23926E-05-7.39835E-06
 -1      5752 2.09786E-05 6.45655E-05-7.39835E-06
 -1      5754 1.57653E-05 6.56673E-05-7.39835E-06
 -1      5755 1.06201E-05 6.70524E-05-7.39835E-06
 -1      5757 5.29860E-06 6.73250E-05-7.39835E-06
 -1      5759 6.64899E-05 5.23287E-06-7.39835E-06
 -1      5760 6.61904E-05 1.04835E-05-7.39835E-06
 -1      5762 6.48527E-05 1.55698E-05-7.39835E-06
 -1      5763 6.37355E-05 2.07089E-05-7.39835E-06
 -1      5765 6.16187E-05 2.55233E-05-7.39835E-06
 -1      5766 5.97112E-05 3.04244E-05-7.39835E-06
 -1      5768 5.68673E-05 3.48483E-05-7.39835E-06
 -1      5769 5.42166E-05 3.93907E-05-7.39835E-06
 -1      5771 5.07157E-05 4.33153E-05-7.39835E-06
 -1      5772 4.73871E-05 4.73871E-05-7.39835E-06
 -1      5774 4.33153E-05 5.07157E-05-7.39835E-06
 -1      5775 3.93907E-05 5.42166E-05-7.39835E-06
 -1      5777 3.48483E-05 5.68673E-05-7.39835E-06
 -1      5778 3.04244E-05 5.97112E-05-7.39835E-06
 -1      5780 2.55233E-05 6.16187E-05-7.39835E-06
 -1      5781 2.07089E-05 6.37355E-05-7.39835E-06
 -1      5783 1.55698E-05 6.48527E-05-7.39835E-06
 -1      5784 1.04835E-05 6.61904E-05-7.39835E-06
 -1      5786 5.23287E-06 6.64899E-05-7.39835E-06
 -1      5788 6.57320E-05 5.17322E-06-7.39835E-06
 -1      5789 6.54078E-05 1.03596E-05-7.39835E-06
 -1      5791 6.41135E-05 1.53923E-05-7.39835E-06
 -1      5792 6.29819E-05 2.04641E-05-7.39835E-06
 -1      5794 6.09163E-05 2.52323E-05-7.39835E-06
 -1      5795 5.90052E-05 3.00646E-05-7.39835E-06
 -1      5797 5.62191E-05 3.44511E-05-7.39835E-06
 -1      5798 5.35756E-05 3.89250E-05-7.39835E-06
 -1      5800 5.01376E-05 4.28215E-05-7.39835E-06
 -1      5801 4.68268E-05 4.68268E-05-7.39835E-06
 -1      5803 4.28215E-05 5.01376E-05-7.39835E-06
 -1      5804 3.89250E-05 5.35756E-05-7.39835E-06
 -1      5806 3.44511E-05 5.62191E-05-7.39835E-06
 -1      5807 3.00646E-05 5.90052E-05-7.39835E-06
 -1      5809 2.52323E-05 6.09163E-05-7.39835E-06
 -1      5810 2.04641E-05 6.29819E-05-7.39835E-06
 -1      5812 1.53923E-05 6.41135E-05-7.39835E-06
 -1      5813 1.03596E-05 6.54078E-05-7.39835E-06
 -1      5815 5.17322E-06 6.57320E-05-7.39835E-06
 -1      5817 6.50445E-05 5.11911E-06-7.39835E-06
 -1      5818 6.46985E-05 1.02472E-05-7.39835E-06
 -1      5820 6.34428E-05 1.52313E-05-7.39835E-06
 -1      5821 6.22989E-05 2.02421E-05-7.39835E-06
 -1      5823 6.02791E-05 2.49684E-05-7.39835E-06
 -1      5824 5.83653E-05 2.97386E-05-7.39835E-06
 -1      5826 5.56310E-05 3.40907E-05-7.39835E-06
 -1      5827 5.29946E-05 3.85028E-05-7.39835E-06
 -1      5829 4.96131E-05 4.23736E-05-7.39835E-06
 -1      5830 4.63190E-05 4.63190E-05-7.39835E-06
 -1      5832 4.23736E-05 4.96131E-05-7.39835E-06
 -1      5833 3.85028E-05 5.29946E-05-7.39835E-06
 -1      5835 3.40907E-05 5.56310E-05-7.39835E-06
 -1      5836 2.97386E-05 5.83653E-05-7.39835E-06
 -1      5838 2.49684E-05 6.02791E-05-7.39835E-06
 -1      5839 2.02421E-05 6.22989E-05-7.39835E-06
 -1      5841 1.52313E-05 6.34428E-05-7.39835E-06
 -1      5842 1.02472E-05 6.46985E-05-7.39835E-06
 -1      5844 5.11911E-06 6.50445E-05-7.39835E-06
 -1      5846 6.44240E-05 5.07028E-06-7.39834E-06
 -1      5847 6.40548E-05 1.01453E-05-7.39835E-06
 -1      5849 6.28377E-05 1.50860E-05-7.39834E-06
 -1      5850 6.16791E-05 2.00408E-05-7.39835E-06
 -1      5852 5.97041E-05 2.47303E-05-7.39834E-06
 -1      5853 5.77847E-05 2.94428E-05-7.39835E-06
 -1      5855 5.51004E-05 3.37656E-05-7.39834E-06
 -1      5856 5.24674E-05 3.81198E-05-7.39835E-06
 -1      5858 4.91399E-05 4.19695E-05-7.39834E-06
 -1      5859 4.58582E-05 4.58582E-05-7.39835E-06
 -1      5861 4.19695E-05 4.91399E-05-7.39834E-06
 -1      5862 3.81198E-05 5.24674E-05-7.39835E-06
 -1      5864 3.37656E-05 5.51004E-05-7.39834E-06
 -1      5865 2.94428E-05 5.77847E-05-7.39835E-06
 -1      5867 2.47303E-05 5.97041E-05-7.39834E-06
 -1      5868 2.00408E-05 6.16791E-05-7.39835E-06
 -1      5870 1.50860E-05 6.28377E-05-7.39834E-06
 -1      5871 1.01453E-05 6.40548E-05-7.39835E-06
 -1      5873 5.07028E-06 6.44240E-05-7.39834E-06
 -1      5875 6.38560E-05 5.02558E-06-7.39836E-06
 -1      5876 6.34789E-05 1.00541E-05-7.39836E-06
 -1      5878 6.22837E-05 1.49530E-05-7.39836E-06
 -1      5879 6.11246E-05 1.98606E-05-7.39836E-06
 -1      5881 5.91777E-05 2.45122E-05-7.39836E-06
 -1      5882 5.72651E-05 2.91780E-05-7.39836E-06
 -1      5884 5.46146E-05 3.34679E-05-7.39836E-06
 -1      5885 5.19957E-05 3.77771E-05-7.39836E-06
 -1      5887 4.87066E-05 4.15994E-05-7.39836E-06
 -1      5888 4.54459E-05 4.54459E-05-7.39836E-06
 -1      5890 4.15994E-05 4.87066E-05-7.39836E-06
 -1      5891 3.77771E-05 5.19957E-05-7.39836E-06
 -1      5893 3.34679E-05 5.46146E-05-7.39836E-06
 -1      5894 2.91780E-05 5.72651E-05-7.39836E-06
 -1      5896 2.45122E-05 5.91777E-05-7.39836E-06
 -1      5897 1.98606E-05 6.11246E-05-7.39836E-06
 -1      5899 1.49530E-05 6.22837E-05-7.39836E-06
 -1      5900 1.00541E-05 6.34789E-05-7.39836E-06
 -1      5902 5.02558E-06 6.38560E-05-7.39836E-06
 -1      5904 6.29608E-05 9.97201E-06-7.39834E-06
 -1      5906 6.06257E-05 1.96985E-05-7.39834E-06
 -1      5908 5.67978E-05 2.89399E-05-7.39834E-06
 -1      5910 5.15713E-05 3.74687E-05-7.39834E-06
 -1      5912 4.50750E-05 4.50750E-05-7.39834E-06
 -1      5914 3.74687E-05 5.15713E-05-7.39834E-06
 -1      5916 2.89399E-05 5.67978E-05-7.39834E-06
 -1      5918 1.96985E-05 6.06257E-05-7.39834E-06
 -1      5920 9.97201E-06 6.29608E-05-7.39834E-06
 -1      5923 1.54251E-04 2.44310E-05-5.66674E-06
 -1      5924 1.54251E-04 2.44310E-05-5.83990E-06
 -1      5925 1.54251E-04 2.44310E-05-6.01307E-06
 -1      5926 1.54251E-04 2.44310E-05-6.18623E-06
 -1      5927 1.54251E-04 2.44310E-05-6.35939E-06
 -1      5928 1.54251E-04 2.44310E-05-6.53255E-06
 -1      5929 1.54251E-04 2.44310E-05-6.70571E-06
 -1      5930 1.54251E-04 2.44310E-05-6.87887E-06
 -1      5931 1.54251E-04 2.44310E-05-7.05203E-06
 -1      5932 1.54251E-04 2.44310E-05-7.22519E-06
 -1      5933 1.48530E-04 4.82605E-05-5.66674E-06
 -1      5934 1.48530E-04 4.82605E-05-5.83990E-06
 -1      5935 1.48530E-04 4.82605E-05-6.01307E-06
 -1      5936 1.48530E-04 4.82605E-05-6.18623E-06
 -1      5937 1.48530E-04 4.82605E-05-6.35939E-06
 -1      5938 1.48530E-04 4.82605E-05-6.53255E-06
 -1      5939 1.48530E-04 4.82605E-05-6.70571E-06
 -1      5940 1.48530E-04 4.82605E-05-6.87887E-06
 -1      5941 1.48530E-04 4.82605E-05-7.05203E-06
 -1      5942 1.48530E-04 4.82605E-05-7.22519E-06
 -1      5943 1.39152E-04 7.09016E-05-5.66674E-06
 -1      5944 1.39152E-04 7.09016E-05-5.83990E-06
 -1      5945 1.39152E-04 7.09016E-05-6.01307E-06
 -1      5946 1.39152E-04 7.09016E-05-6.18623E-06
 -1      5947 1.39152E-04 7.09016E-05-6.35939E-06
 -1      5948 1.39152E-04 7.09016E-05-6.53255E-06
 -1      5949 1.39152E-04 7.09016E-05-6.70571E-06
 -1      5950 1.39152E-04 7.09016E-05-6.87887E-06
 -1      5951 1.39152E-04 7.09016E-05-7.05203E-06
 -1      5952 1.39152E-04 7.09016E-05-7.22519E-06
 -1      5953 1.26348E-04 9.17969E-05-5.66674E-06
 -1      5954 1.26348E-04 9.17969E-05-5.83990E-06
 -1      5955 1.26348E-04 9.17969E-05-6.01307E-06
 -1      5956 1.26348E-04 9.17969E-05-6.18623E-06
 -1      5957 1.26348E-04 9.17969E-05-6.35939E-06
 -1      5958 1.26348E-04 9.17969E-05-6.53255E-06
 -1      5959 1.26348E-04 9.17969E-05-6.70571E-06
 -1      5960 1.26348E-04 9.17969E-05-6.87887E-06
 -1      5961 1.26348E-04 9.17969E-05-7.05203E-06
 -1      5962 1.26348E-04 9.17969E-05-7.22519E-06
 -1      5963 1.10432E-04 1.10432E-04-5.66674E-06
 -1      5964 1.10432E-04 1.10432E-04-5.83990E-06
 -1      5965 1.10432E-04 1.10432E-04-6.01307E-06
 -1      5966 1.10432E-04 1.10432E-04-6.18623E-06
 -1      5967 1.10432E-04 1.10432E-04-6.35939E-06
 -1      5968 1.10432E-04 1.10432E-04-6.53255E-06
 -1      5969 1.10432E-04 1.10432E-04-6.70571E-06
 -1      5970 1.10432E-04 1.10432E-04-6.87887E-06
 -1      5971 1.10432E-04 1.10432E-04-7.05203E-06
 -1      5972 1.10432E-04 1.10432E-04-7.22519E-06
 -1      5973 9.17969E-05 1.26348E-04-5.66674E-06
 -1      5974 9.17969E-05 1.26348E-04-5.83990E-06
 -1      5975 9.17969E-05 1.26348E-04-6.01307E-06
 -1      5976 9.17969E-05 1.26348E-04-6.18623E-06
 -1      5977 9.17969E-05 1.26348E-04-6.35939E-06
 -1      5978 9.17969E-05 1.26348E-04-6.53255E-06
 -1      5979 9.17969E-05 1.26348E-04-6.70571E-06
 -1      5980 9.17969E-05 1.26348E-04-6.87887E-06
 -1      5981 9.17969E-05 1.26348E-04-7.05203E-06
 -1      5982 9.17969E-05 1.26348E-04-7.22519E-06
 -1      5983 7.09016E-05 1.39152E-04-5.66674E-06
 -1      5984 7.09016E-05 1.39152E-04-5.83990E-06
 -1      5985 7.09016E-05 1.39152E-04-6.01307E-06
 -1      5986 7.09016E-05 1.39152E-04-6.18623E-06
 -1      5987 7.09016E-05 1.39152E-04-6.35939E-06
 -1      5988 7.09016E-05 1.39152E-04-6.53255E-06
 -1      5989 7.09016E-05 1.39152E-04-6.70571E-06
 -1      5990 7.09016E-05 1.39152E-04-6.87887E-06
 -1      5991 7.09016E-05 1.39152E-04-7.05203E-06
 -1      5992 7.09016E-05 1.39152E-04-7.22519E-06
 -1      5993 4.82605E-05 1.48530E-04-5.66674E-06
 -1      5994 4.82605E-05 1.48530E-04-5.83990E-06
 -1      5995 4.82605E-05 1.48530E-04-6.01307E-06
 -1      5996 4.82605E-05 1.48530E-04-6.18623E-06
 -1      5997 4.82605E-05 1.48530E-04-6.35939E-06
 -1      5998 4.82605E-05 1.48530E-04-6.53255E-06
 -1      5999 4.82605E-05 1.48530E-04-6.70571E-06
 -1      6000 4.82605E-05 1.48530E-04-6.87887E-06
 -1      6001 4.82605E-05 1.48530E-04-7.05203E-06
 -1      6002 4.82605E-05 1.48530E-04-7.22519E-06
 -1      6003 2.44310E-05 1.54251E-04-5.66674E-06
 -1      6004 2.44310E-05 1.54251E-04-5.83990E-06
 -1      6005 2.44310E-05 1.54251E-04-6.01307E-06
 -1      6006 2.44310E-05 1.54251E-04-6.18623E-06
 -1      6007 2.44310E-05 1.54251E-04-6.35939E-06
 -1      6008 2.44310E-05 1.54251E-04-6.53255E-06
 -1      6009 2.44310E-05 1.54251E-04-6.70571E-06
 -1      6010 2.44310E-05 1.54251E-04-6.87887E-06
 -1      6011 2.44310E-05 1.54251E-04-7.05203E-06
 -1      6012 2.44310E-05 1.54251E-04-7.22519E-06
 -1      6013 1.42459E-04 2.25633E-05-5.66675E-06
 -1      6014 1.42459E-04 2.25633E-05-5.83991E-06
 -1      6015 1.42459E-04 2.25633E-05-6.01307E-06
 -1      6016 1.42459E-04 2.25633E-05-6.18623E-06
 -1      6017 1.42459E-04 2.25633E-05-6.35939E-06
 -1      6018 1.42459E-04 2.25633E-05-6.53255E-06
 -1      6019 1.42459E-04 2.25633E-05-6.70570E-06
 -1      6020 1.42459E-04 2.25633E-05-6.87886E-06
 -1      6021 1.42459E-04 2.25633E-05-7.05202E-06
 -1      6022 1.42459E-04 2.25633E-05-7.22519E-06
 -1      6023 1.37176E-04 4.45711E-05-5.66675E-06
 -1      6024 1.37176E-04 4.45711E-05-5.83991E-06
 -1      6025 1.37176E-04 4.45711E-05-6.01307E-06
 -1      6026 1.37176E-04 4.45711E-05-6.18623E-06
 -1      6027 1.37176E-04 4.45711E-05-6.35939E-06
 -1      6028 1.37176E-04 4.45711E-05-6.53255E-06
 -1      6029 1.37176E-04 4.45711E-05-6.70570E-06
 -1      6030 1.37176E-04 4.45711E-05-6.87886E-06
 -1      6031 1.37176E-04 4.45711E-05-7.05202E-06
 -1      6032 1.37176E-04 4.45711E-05-7.22519E-06
 -1      6033 1.28514E-04 6.54814E-05-5.66675E-06
 -1      6034 1.28514E-04 6.54814E-05-5.83991E-06
 -1      6035 1.28514E-04 6.54814E-05-6.01307E-06
 -1      6036 1.28514E-04 6.54814E-05-6.18623E-06
 -1      6037 1.28514E-04 6.54814E-05-6.35939E-06
 -1      6038 1.28514E-04 6.54814E-05-6.53255E-06
 -1      6039 1.28514E-04 6.54814E-05-6.70570E-06
 -1      6040 1.28514E-04 6.54814E-05-6.87886E-06
 -1      6041 1.28514E-04 6.54814E-05-7.05202E-06
 -1      6042 1.28514E-04 6.54814E-05-7.22519E-06
 -1      6043 1.16689E-04 8.47792E-05-5.66675E-06
 -1      6044 1.16689E-04 8.47792E-05-5.83991E-06
 -1      6045 1.16689E-04 8.47792E-05-6.01307E-06
 -1      6046 1.16689E-04 8.47792E-05-6.18623E-06
 -1      6047 1.16689E-04 8.47793E-05-6.35939E-06
 -1      6048 1.16689E-04 8.47793E-05-6.53255E-06
 -1      6049 1.16689E-04 8.47792E-05-6.70570E-06
 -1      6050 1.16689E-04 8.47792E-05-6.87886E-06
 -1      6051 1.16689E-04 8.47792E-05-7.05202E-06
 -1      6052 1.16689E-04 8.47792E-05-7.22519E-06
 -1      6053 1.01990E-04 1.01990E-04-5.66675E-06
 -1      6054 1.01990E-04 1.01990E-04-5.83991E-06
 -1      6055 1.01990E-04 1.01990E-04-6.01307E-06
 -1      6056 1.01990E-04 1.01990E-04-6.18623E-06
 -1      6057 1.01990E-04 1.01990E-04-6.35939E-06
 -1      6058 1.01990E-04 1.01990E-04-6.53255E-06
 -1      6059 1.01990E-04 1.01990E-04-6.70570E-06
 -1      6060 1.01990E-04 1.01990E-04-6.87886E-06
 -1      6061 1.01990E-04 1.01990E-04-7.05202E-06
 -1      6062 1.01990E-04 1.01990E-04-7.22519E-06
 -1      6063 8.47792E-05 1.16689E-04-5.66675E-06
 -1      6064 8.47792E-05 1.16689E-04-5.83991E-06
 -1      6065 8.47792E-05 1.16689E-04-6.01307E-06
 -1      6066 8.47793E-05 1.16689E-04-6.18623E-06
 -1      6067 8.47793E-05 1.16689E-04-6.35939E-06
 -1      6068 8.47793E-05 1.16689E-04-6.53255E-06
 -1      6069 8.47793E-05 1.16689E-04-6.70570E-06
 -1      6070 8.47792E-05 1.16689E-04-6.87886E-06
 -1      6071 8.47792E-05 1.16689E-04-7.05202E-06
 -1      6072 8.47792E-05 1.16689E-04-7.22519E-06
 -1      6073 6.54814E-05 1.28514E-04-5.66675E-06
 -1      6074 6.54814E-05 1.28514E-04-5.83991E-06
 -1      6075 6.54814E-05 1.28514E-04-6.01307E-06
 -1      6076 6.54814E-05 1.28514E-04-6.18623E-06
 -1      6077 6.54814E-05 1.28514E-04-6.35939E-06
 -1      6078 6.54814E-05 1.28514E-04-6.53255E-06
 -1      6079 6.54814E-05 1.28514E-04-6.70570E-06
 -1      6080 6.54814E-05 1.28514E-04-6.87886E-06
 -1      6081 6.54814E-05 1.28514E-04-7.05202E-06
 -1      6082 6.54814E-05 1.28514E-04-7.22519E-06
 -1      6083 4.45711E-05 1.37176E-04-5.66675E-06
 -1      6084 4.45711E-05 1.37176E-04-5.83991E-06
 -1      6085 4.45711E-05 1.37176E-04-6.01307E-06
 -1      6086 4.45711E-05 1.37176E-04-6.18623E-06
 -1      6087 4.45711E-05 1.37176E-04-6.35939E-06
 -1      6088 4.45711E-05 1.37176E-04-6.53255E-06
 -1      6089 4.45711E-05 1.37176E-04-6.70570E-06
 -1      6090 4.45711E-05 1.37176E-04-6.87886E-06
 -1      6091 4.45711E-05 1.37176E-04-7.05202E-06
 -1      6092 4.45711E-05 1.37176E-04-7.22519E-06
 -1      6093 2.25633E-05 1.42459E-04-5.66675E-06
 -1      6094 2.25633E-05 1.42459E-04-5.83991E-06
 -1      6095 2.25633E-05 1.42459E-04-6.01307E-06
 -1      6096 2.25633E-05 1.42459E-04-6.18623E-06
 -1      6097 2.25633E-05 1.42459E-04-6.35939E-06
 -1      6098 2.25633E-05 1.42459E-04-6.53255E-06
 -1      6099 2.25633E-05 1.42459E-04-6.70570E-06
 -1      6100 2.25633E-05 1.42459E-04-6.87886E-06
 -1      6101 2.25633E-05 1.42459E-04-7.05202E-06
 -1      6102 2.25633E-05 1.42459E-04-7.22519E-06
 -1      6103 1.32553E-04 2.09943E-05-5.66675E-06
 -1      6104 1.32553E-04 2.09943E-05-5.83990E-06
 -1      6105 1.32553E-04 2.09943E-05-6.01306E-06
 -1      6106 1.32553E-04 2.09943E-05-6.18623E-06
 -1      6107 1.32553E-04 2.09943E-05-6.35939E-06
 -1      6108 1.32553E-04 2.09943E-05-6.53255E-06
 -1      6109 1.32553E-04 2.09943E-05-6.70571E-06
 -1      6110 1.32553E-04 2.09943E-05-6.87887E-06
 -1      6111 1.32553E-04 2.09943E-05-7.05203E-06
 -1      6112 1.32553E-04 2.09943E-05-7.22519E-06
 -1      6113 1.27637E-04 4.14717E-05-5.66675E-06
 -1      6114 1.27637E-04 4.14717E-05-5.83990E-06
 -1      6115 1.27637E-04 4.14717E-05-6.01306E-06
 -1      6116 1.27637E-04 4.14717E-05-6.18623E-06
 -1      6117 1.27637E-04 4.14717E-05-6.35939E-06
 -1      6118 1.27637E-04 4.14717E-05-6.53255E-06
 -1      6119 1.27637E-04 4.14717E-05-6.70571E-06
 -1      6120 1.27637E-04 4.14717E-05-6.87887E-06
 -1      6121 1.27637E-04 4.14717E-05-7.05203E-06
 -1      6122 1.27637E-04 4.14717E-05-7.22519E-06
 -1      6123 1.19578E-04 6.09280E-05-5.66675E-06
 -1      6124 1.19578E-04 6.09280E-05-5.83990E-06
 -1      6125 1.19578E-04 6.09280E-05-6.01306E-06
 -1      6126 1.19578E-04 6.09280E-05-6.18623E-06
 -1      6127 1.19578E-04 6.09280E-05-6.35939E-06
 -1      6128 1.19578E-04 6.09280E-05-6.53255E-06
 -1      6129 1.19578E-04 6.09280E-05-6.70571E-06
 -1      6130 1.19578E-04 6.09280E-05-6.87887E-06
 -1      6131 1.19578E-04 6.09280E-05-7.05203E-06
 -1      6132 1.19578E-04 6.09280E-05-7.22519E-06
 -1      6133 1.08574E-04 7.88839E-05-5.66675E-06
 -1      6134 1.08574E-04 7.88839E-05-5.83990E-06
 -1      6135 1.08574E-04 7.88839E-05-6.01306E-06
 -1      6136 1.08574E-04 7.88839E-05-6.18623E-06
 -1      6137 1.08574E-04 7.88839E-05-6.35939E-06
 -1      6138 1.08574E-04 7.88839E-05-6.53255E-06
 -1      6139 1.08574E-04 7.88839E-05-6.70571E-06
 -1      6140 1.08574E-04 7.88839E-05-6.87887E-06
 -1      6141 1.08574E-04 7.88839E-05-7.05203E-06
 -1      6142 1.08574E-04 7.88839E-05-7.22519E-06
 -1      6143 9.48975E-05 9.48975E-05-5.66675E-06
 -1      6144 9.48975E-05 9.48975E-05-5.83990E-06
 -1      6145 9.48975E-05 9.48975E-05-6.01306E-06
 -1      6146 9.48975E-05 9.48975E-05-6.18623E-06
 -1      6147 9.48975E-05 9.48975E-05-6.35939E-06
 -1      6148 9.48975E-05 9.48975E-05-6.53255E-06
 -1      6149 9.48975E-05 9.48975E-05-6.70571E-06
 -1      6150 9.48975E-05 9.48975E-05-6.87887E-06
 -1      6151 9.48975E-05 9.48975E-05-7.05203E-06
 -1      6152 9.48975E-05 9.48975E-05-7.22519E-06
 -1      6153 7.88839E-05 1.08574E-04-5.66675E-06
 -1      6154 7.88839E-05 1.08574E-04-5.83990E-06
 -1      6155 7.88839E-05 1.08574E-04-6.01306E-06
 -1      6156 7.88839E-05 1.08574E-04-6.18623E-06
 -1      6157 7.88839E-05 1.08574E-04-6.35939E-06
 -1      6158 7.88839E-05 1.08574E-04-6.53255E-06
 -1      6159 7.88839E-05 1.08574E-04-6.70571E-06
 -1      6160 7.88839E-05 1.08574E-04-6.87887E-06
 -1      6161 7.88839E-05 1.08574E-04-7.05203E-06
 -1      6162 7.88839E-05 1.08574E-04-7.22519E-06
 -1      6163 6.09280E-05 1.19578E-04-5.66675E-06
 -1      6164 6.09280E-05 1.19578E-04-5.83990E-06
 -1      6165 6.09280E-05 1.19578E-04-6.01306E-06
 -1      6166 6.09280E-05 1.19578E-04-6.18623E-06
 -1      6167 6.09280E-05 1.19578E-04-6.35939E-06
 -1      6168 6.09280E-05 1.19578E-04-6.53255E-06
 -1      6169 6.09280E-05 1.19578E-04-6.70571E-06
 -1      6170 6.09280E-05 1.19578E-04-6.87887E-06
 -1      6171 6.09280E-05 1.19578E-04-7.05203E-06
 -1      6172 6.09280E-05 1.19578E-04-7.22519E-06
 -1      6173 4.14717E-05 1.27637E-04-5.66675E-06
 -1      6174 4.14717E-05 1.27637E-04-5.83990E-06
 -1      6175 4.14717E-05 1.27637E-04-6.01306E-06
 -1      6176 4.14717E-05 1.27637E-04-6.18623E-06
 -1      6177 4.14717E-05 1.27637E-04-6.35939E-06
 -1      6178 4.14717E-05 1.27637E-04-6.53255E-06
 -1      6179 4.14717E-05 1.27637E-04-6.70571E-06
 -1      6180 4.14717E-05 1.27637E-04-6.87887E-06
 -1      6181 4.14717E-05 1.27637E-04-7.05203E-06
 -1      6182 4.14717E-05 1.27637E-04-7.22519E-06
 -1      6183 2.09943E-05 1.32553E-04-5.66675E-06
 -1      6184 2.09943E-05 1.32553E-04-5.83990E-06
 -1      6185 2.09943E-05 1.32553E-04-6.01306E-06
 -1      6186 2.09943E-05 1.32553E-04-6.18623E-06
 -1      6187 2.09943E-05 1.32553E-04-6.35939E-06
 -1      6188 2.09943E-05 1.32553E-04-6.53255E-06
 -1      6189 2.09943E-05 1.32553E-04-6.70571E-06
 -1      6190 2.09943E-05 1.32553E-04-6.87887E-06
 -1      6191 2.09943E-05 1.32553E-04-7.05203E-06
 -1      6192 2.09943E-05 1.32553E-04-7.22519E-06
 -1      6193 1.24144E-04 1.96625E-05-5.66675E-06
 -1      6194 1.24144E-04 1.96625E-05-5.83991E-06
 -1      6195 1.24144E-04 1.96625E-05-6.01307E-06
 -1      6196 1.24144E-04 1.96625E-05-6.18623E-06
 -1      6197 1.24144E-04 1.96625E-05-6.35939E-06
 -1      6198 1.24144E-04 1.96625E-05-6.53255E-06
 -1      6199 1.24144E-04 1.96625E-05-6.70571E-06
 -1      6200 1.24144E-04 1.96625E-05-6.87887E-06
 -1      6201 1.24144E-04 1.96625E-05-7.05203E-06
 -1      6202 1.24144E-04 1.96625E-05-7.22519E-06
 -1      6203 1.19540E-04 3.88408E-05-5.66675E-06
 -1      6204 1.19540E-04 3.88408E-05-5.83991E-06
 -1      6205 1.19540E-04 3.88408E-05-6.01307E-06
 -1      6206 1.19540E-04 3.88408E-05-6.18623E-06
 -1      6207 1.19540E-04 3.88408E-05-6.35939E-06
 -1      6208 1.19540E-04 3.88408E-05-6.53255E-06
 -1      6209 1.19540E-04 3.88408E-05-6.70571E-06
 -1      6210 1.19540E-04 3.88408E-05-6.87887E-06
 -1      6211 1.19540E-04 3.88408E-05-7.05203E-06
 -1      6212 1.19540E-04 3.88408E-05-7.22519E-06
 -1      6213 1.11992E-04 5.70627E-05-5.66675E-06
 -1      6214 1.11992E-04 5.70627E-05-5.83991E-06
 -1      6215 1.11992E-04 5.70627E-05-6.01307E-06
 -1      6216 1.11992E-04 5.70627E-05-6.18623E-06
 -1      6217 1.11992E-04 5.70627E-05-6.35939E-06
 -1      6218 1.11992E-04 5.70627E-05-6.53255E-06
 -1      6219 1.11992E-04 5.70627E-05-6.70571E-06
 -1      6220 1.11992E-04 5.70627E-05-6.87887E-06
 -1      6221 1.11992E-04 5.70627E-05-7.05203E-06
 -1      6222 1.11992E-04 5.70627E-05-7.22519E-06
 -1      6223 1.01687E-04 7.38796E-05-5.66675E-06
 -1      6224 1.01687E-04 7.38796E-05-5.83991E-06
 -1      6225 1.01687E-04 7.38796E-05-6.01307E-06
 -1      6226 1.01687E-04 7.38796E-05-6.18623E-06
 -1      6227 1.01687E-04 7.38796E-05-6.35939E-06
 -1      6228 1.01687E-04 7.38796E-05-6.53255E-06
 -1      6229 1.01687E-04 7.38796E-05-6.70571E-06
 -1      6230 1.01687E-04 7.38796E-05-6.87887E-06
 -1      6231 1.01687E-04 7.38796E-05-7.05203E-06
 -1      6232 1.01687E-04 7.38796E-05-7.22519E-06
 -1      6233 8.88773E-05 8.88773E-05-5.66675E-06
 -1      6234 8.88773E-05 8.88773E-05-5.83991E-06
 -1      6235 8.88773E-05 8.88773E-05-6.01307E-06
 -1      6236 8.88773E-05 8.88773E-05-6.18623E-06
 -1      6237 8.88773E-05 8.88773E-05-6.35939E-06
 -1      6238 8.88773E-05 8.88773E-05-6.53255E-06
 -1      6239 8.88773E-05 8.88773E-05-6.70571E-06
 -1      6240 8.88773E-05 8.88773E-05-6.87887E-06
 -1      6241 8.88773E-05 8.88773E-05-7.05203E-06
 -1      6242 8.88773E-05 8.88773E-05-7.22519E-06
 -1      6243 7.38796E-05 1.01687E-04-5.66675E-06
 -1      6244 7.38796E-05 1.01687E-04-5.83991E-06
 -1      6245 7.38796E-05 1.01687E-04-6.01307E-06
 -1      6246 7.38796E-05 1.01687E-04-6.18623E-06
 -1      6247 7.38796E-05 1.01687E-04-6.35939E-06
 -1      6248 7.38796E-05 1.01687E-04-6.53255E-06
 -1      6249 7.38796E-05 1.01687E-04-6.70571E-06
 -1      6250 7.38796E-05 1.01687E-04-6.87887E-06
 -1      6251 7.38796E-05 1.01687E-04-7.05203E-06
 -1      6252 7.38796E-05 1.01687E-04-7.22519E-06
 -1      6253 5.70627E-05 1.11992E-04-5.66675E-06
 -1      6254 5.70627E-05 1.11992E-04-5.83991E-06
 -1      6255 5.70627E-05 1.11992E-04-6.01307E-06
 -1      6256 5.70627E-05 1.11992E-04-6.18623E-06
 -1      6257 5.70627E-05 1.11992E-04-6.35939E-06
 -1      6258 5.70627E-05 1.11992E-04-6.53255E-06
 -1      6259 5.70627E-05 1.11992E-04-6.70571E-06
 -1      6260 5.70627E-05 1.11992E-04-6.87887E-06
 -1      6261 5.70627E-05 1.11992E-04-7.05203E-06
 -1      6262 5.70627E-05 1.11992E-04-7.22519E-06
 -1      6263 3.88408E-05 1.19540E-04-5.66675E-06
 -1      6264 3.88408E-05 1.19540E-04-5.83991E-06
 -1      6265 3.88408E-05 1.19540E-04-6.01307E-06
 -1      6266 3.88408E-05 1.19540E-04-6.18623E-06
 -1      6267 3.88408E-05 1.19540E-04-6.35939E-06
 -1      6268 3.88408E-05 1.19540E-04-6.53255E-06
 -1      6269 3.88408E-05 1.19540E-04-6.70571E-06
 -1      6270 3.88408E-05 1.19540E-04-6.87887E-06
 -1      6271 3.88408E-05 1.19540E-04-7.05203E-06
 -1      6272 3.88408E-05 1.19540E-04-7.22519E-06
 -1      6273 1.96625E-05 1.24144E-04-5.66675E-06
 -1      6274 1.96625E-05 1.24144E-04-5.83991E-06
 -1      6275 1.96625E-05 1.24144E-04-6.01307E-06
 -1      6276 1.96625E-05 1.24144E-04-6.18623E-06
 -1      6277 1.96625E-05 1.24144E-04-6.35939E-06
 -1      6278 1.96625E-05 1.24144E-04-6.53255E-06
 -1      6279 1.96625E-05 1.24144E-04-6.70571E-06
 -1      6280 1.96625E-05 1.24144E-04-6.87887E-06
 -1      6281 1.96625E-05 1.24144E-04-7.05203E-06
 -1      6282 1.96625E-05 1.24144E-04-7.22519E-06
 -1      6283 1.16928E-04 1.85196E-05-5.66675E-06
 -1      6284 1.16928E-04 1.85196E-05-5.83991E-06
 -1      6285 1.16928E-04 1.85196E-05-6.01307E-06
 -1      6286 1.16928E-04 1.85196E-05-6.18623E-06
 -1      6287 1.16928E-04 1.85196E-05-6.35939E-06
 -1      6288 1.16928E-04 1.85196E-05-6.53255E-06
 -1      6289 1.16928E-04 1.85196E-05-6.70571E-06
 -1      6290 1.16928E-04 1.85196E-05-6.87887E-06
 -1      6291 1.16928E-04 1.85196E-05-7.05203E-06
 -1      6292 1.16928E-04 1.85196E-05-7.22519E-06
 -1      6293 1.12592E-04 3.65832E-05-5.66675E-06
 -1      6294 1.12592E-04 3.65832E-05-5.83991E-06
 -1      6295 1.12592E-04 3.65832E-05-6.01307E-06
 -1      6296 1.12592E-04 3.65832E-05-6.18623E-06
 -1      6297 1.12592E-04 3.65832E-05-6.35939E-06
 -1      6298 1.12592E-04 3.65832E-05-6.53255E-06
 -1      6299 1.12592E-04 3.65832E-05-6.70571E-06
 -1      6300 1.12592E-04 3.65832E-05-6.87887E-06
 -1      6301 1.12592E-04 3.65832E-05-7.05203E-06
 -1      6302 1.12592E-04 3.65832E-05-7.22519E-06
 -1      6303 1.05483E-04 5.37460E-05-5.66675E-06
 -1      6304 1.05483E-04 5.37460E-05-5.83991E-06
 -1      6305 1.05483E-04 5.37460E-05-6.01307E-06
 -1      6306 1.05483E-04 5.37460E-05-6.18623E-06
 -1      6307 1.05483E-04 5.37460E-05-6.35939E-06
 -1      6308 1.05483E-04 5.37460E-05-6.53255E-06
 -1      6309 1.05483E-04 5.37460E-05-6.70571E-06
 -1      6310 1.05483E-04 5.37460E-05-6.87887E-06
 -1      6311 1.05483E-04 5.37460E-05-7.05203E-06
 -1      6312 1.05483E-04 5.37460E-05-7.22519E-06
 -1      6313 9.57761E-05 6.95854E-05-5.66675E-06
 -1      6314 9.57761E-05 6.95854E-05-5.83991E-06
 -1      6315 9.57761E-05 6.95854E-05-6.01307E-06
 -1      6316 9.57761E-05 6.95854E-05-6.18623E-06
 -1      6317 9.57761E-05 6.95854E-05-6.35939E-06
 -1      6318 9.57761E-05 6.95854E-05-6.53255E-06
 -1      6319 9.57761E-05 6.95854E-05-6.70571E-06
 -1      6320 9.57761E-05 6.95854E-05-6.87887E-06
 -1      6321 9.57761E-05 6.95854E-05-7.05203E-06
 -1      6322 9.57761E-05 6.95854E-05-7.22519E-06
 -1      6323 8.37114E-05 8.37114E-05-5.66675E-06
 -1      6324 8.37114E-05 8.37114E-05-5.83991E-06
 -1      6325 8.37114E-05 8.37114E-05-6.01307E-06
 -1      6326 8.37114E-05 8.37114E-05-6.18623E-06
 -1      6327 8.37114E-05 8.37114E-05-6.35939E-06
 -1      6328 8.37114E-05 8.37114E-05-6.53255E-06
 -1      6329 8.37114E-05 8.37114E-05-6.70571E-06
 -1      6330 8.37114E-05 8.37114E-05-6.87887E-06
 -1      6331 8.37114E-05 8.37114E-05-7.05203E-06
 -1      6332 8.37114E-05 8.37114E-05-7.22519E-06
 -1      6333 6.95854E-05 9.57761E-05-5.66675E-06
 -1      6334 6.95854E-05 9.57761E-05-5.83991E-06
 -1      6335 6.95854E-05 9.57761E-05-6.01307E-06
 -1      6336 6.95854E-05 9.57761E-05-6.18623E-06
 -1      6337 6.95854E-05 9.57761E-05-6.35939E-06
 -1      6338 6.95854E-05 9.57761E-05-6.53255E-06
 -1      6339 6.95854E-05 9.57761E-05-6.70571E-06
 -1      6340 6.95854E-05 9.57761E-05-6.87887E-06
 -1      6341 6.95854E-05 9.57761E-05-7.05203E-06
 -1      6342 6.95854E-05 9.57761E-05-7.22519E-06
 -1      6343 5.37460E-05 1.05483E-04-5.66675E-06
 -1      6344 5.37460E-05 1.05483E-04-5.83991E-06
 -1      6345 5.37460E-05 1.05483E-04-6.01307E-06
 -1      6346 5.37460E-05 1.05483E-04-6.18623E-06
 -1      6347 5.37460E-05 1.05483E-04-6.35939E-06
 -1      6348 5.37460E-05 1.05483E-04-6.53255E-06
 -1      6349 5.37460E-05 1.05483E-04-6.70571E-06
 -1      6350 5.37460E-05 1.05483E-04-6.87887E-06
 -1      6351 5.37460E-05 1.05483E-04-7.05203E-06
 -1      6352 5.37460E-05 1.05483E-04-7.22519E-06
 -1      6353 3.65832E-05 1.12592E-04-5.66675E-06
 -1      6354 3.65832E-05 1.12592E-04-5.83991E-06
 -1      6355 3.65832E-05 1.12592E-04-6.01307E-06
 -1      6356 3.65832E-05 1.12592E-04-6.18623E-06
 -1      6357 3.65832E-05 1.12592E-04-6.35939E-06
 -1      6358 3.65832E-05 1.12592E-04-6.53255E-06
 -1      6359 3.65832E-05 1.12592E-04-6.70571E-06
 -1      6360 3.65832E-05 1.12592E-04-6.87887E-06
 -1      6361 3.65832E-05 1.12592E-04-7.05203E-06
 -1      6362 3.65832E-05 1.12592E-04-7.22519E-06
 -1      6363 1.85196E-05 1.16928E-04-5.66675E-06
 -1      6364 1.85196E-05 1.16928E-04-5.83991E-06
 -1      6365 1.85196E-05 1.16928E-04-6.01307E-06
 -1      6366 1.85196E-05 1.16928E-04-6.18623E-06
 -1      6367 1.85196E-05 1.16928E-04-6.35939E-06
 -1      6368 1.85196E-05 1.16928E-04-6.53255E-06
 -1      6369 1.85196E-05 1.16928E-04-6.70571E-06
 -1      6370 1.85196E-05 1.16928E-04-6.87887E-06
 -1      6371 1.85196E-05 1.16928E-04-7.05203E-06
 -1      6372 1.85196E-05 1.16928E-04-7.22519E-06
 -1      6373 1.10683E-04 1.75305E-05-5.66675E-06
 -1      6374 1.10683E-04 1.75305E-05-5.83991E-06
 -1      6375 1.10683E-04 1.75305E-05-6.01307E-06
 -1      6376 1.10683E-04 1.75305E-05-6.18623E-06
 -1      6377 1.10683E-04 1.75305E-05-6.35939E-06
 -1      6378 1.10683E-04 1.75305E-05-6.53255E-06
 -1      6379 1.10683E-04 1.75305E-05-6.70571E-06
 -1      6380 1.10683E-04 1.75305E-05-6.87887E-06
 -1      6381 1.10683E-04 1.75305E-05-7.05203E-06
 -1      6382 1.10683E-04 1.75305E-05-7.22519E-06
 -1      6383 1.06578E-04 3.46294E-05-5.66675E-06
 -1      6384 1.06578E-04 3.46294E-05-5.83991E-06
 -1      6385 1.06578E-04 3.46294E-05-6.01307E-06
 -1      6386 1.06578E-04 3.46294E-05-6.18623E-06
 -1      6387 1.06578E-04 3.46294E-05-6.35939E-06
 -1      6388 1.06578E-04 3.46294E-05-6.53255E-06
 -1      6389 1.06578E-04 3.46294E-05-6.70571E-06
 -1      6390 1.06578E-04 3.46294E-05-6.87887E-06
 -1      6391 1.06578E-04 3.46294E-05-7.05203E-06
 -1      6392 1.06578E-04 3.46294E-05-7.22519E-06
 -1      6393 9.98490E-05 5.08756E-05-5.66675E-06
 -1      6394 9.98490E-05 5.08756E-05-5.83991E-06
 -1      6395 9.98490E-05 5.08756E-05-6.01307E-06
 -1      6396 9.98490E-05 5.08756E-05-6.18623E-06
 -1      6397 9.98490E-05 5.08756E-05-6.35939E-06
 -1      6398 9.98490E-05 5.08756E-05-6.53255E-06
 -1      6399 9.98490E-05 5.08756E-05-6.70571E-06
 -1      6400 9.98490E-05 5.08756E-05-6.87887E-06
 -1      6401 9.98490E-05 5.08756E-05-7.05203E-06
 -1      6402 9.98490E-05 5.08756E-05-7.22519E-06
 -1      6403 9.06610E-05 6.58691E-05-5.66675E-06
 -1      6404 9.06610E-05 6.58691E-05-5.83991E-06
 -1      6405 9.06610E-05 6.58691E-05-6.01307E-06
 -1      6406 9.06610E-05 6.58691E-05-6.18623E-06
 -1      6407 9.06610E-05 6.58691E-05-6.35939E-06
 -1      6408 9.06610E-05 6.58691E-05-6.53255E-06
 -1      6409 9.06610E-05 6.58691E-05-6.70571E-06
 -1      6410 9.06610E-05 6.58691E-05-6.87887E-06
 -1      6411 9.06610E-05 6.58691E-05-7.05203E-06
 -1      6412 9.06610E-05 6.58691E-05-7.22519E-06
 -1      6413 7.92406E-05 7.92406E-05-5.66675E-06
 -1      6414 7.92406E-05 7.92406E-05-5.83991E-06
 -1      6415 7.92406E-05 7.92406E-05-6.01307E-06
 -1      6416 7.92406E-05 7.92406E-05-6.18623E-06
 -1      6417 7.92406E-05 7.92406E-05-6.35939E-06
 -1      6418 7.92406E-05 7.92406E-05-6.53255E-06
 -1      6419 7.92406E-05 7.92406E-05-6.70571E-06
 -1      6420 7.92406E-05 7.92406E-05-6.87887E-06
 -1      6421 7.92406E-05 7.92406E-05-7.05203E-06
 -1      6422 7.92406E-05 7.92406E-05-7.22519E-06
 -1      6423 6.58691E-05 9.06610E-05-5.66675E-06
 -1      6424 6.58691E-05 9.06610E-05-5.83991E-06
 -1      6425 6.58691E-05 9.06610E-05-6.01307E-06
 -1      6426 6.58691E-05 9.06610E-05-6.18623E-06
 -1      6427 6.58691E-05 9.06610E-05-6.35939E-06
 -1      6428 6.58691E-05 9.06610E-05-6.53255E-06
 -1      6429 6.58691E-05 9.06610E-05-6.70571E-06
 -1      6430 6.58691E-05 9.06610E-05-6.87887E-06
 -1      6431 6.58691E-05 9.06610E-05-7.05203E-06
 -1      6432 6.58691E-05 9.06610E-05-7.22519E-06
 -1      6433 5.08756E-05 9.98490E-05-5.66675E-06
 -1      6434 5.08756E-05 9.98490E-05-5.83991E-06
 -1      6435 5.08756E-05 9.98490E-05-6.01307E-06
 -1      6436 5.08756E-05 9.98490E-05-6.18623E-06
 -1      6437 5.08756E-05 9.98490E-05-6.35939E-06
 -1      6438 5.08756E-05 9.98490E-05-6.53255E-06
 -1      6439 5.08756E-05 9.98490E-05-6.70571E-06
 -1      6440 5.08756E-05 9.98490E-05-6.87887E-06
 -1      6441 5.08756E-05 9.98490E-05-7.05203E-06
 -1      6442 5.08756E-05 9.98490E-05-7.22519E-06
 -1      6443 3.46294E-05 1.06578E-04-5.66675E-06
 -1      6444 3.46294E-05 1.06578E-04-5.83991E-06
 -1      6445 3.46294E-05 1.06578E-04-6.01307E-06
 -1      6446 3.46294E-05 1.06578E-04-6.18623E-06
 -1      6447 3.46294E-05 1.06578E-04-6.35939E-06
 -1      6448 3.46294E-05 1.06578E-04-6.53255E-06
 -1      6449 3.46294E-05 1.06578E-04-6.70571E-06
 -1      6450 3.46294E-05 1.06578E-04-6.87887E-06
 -1      6451 3.46294E-05 1.06578E-04-7.05203E-06
 -1      6452 3.46294E-05 1.06578E-04-7.22519E-06
 -1      6453 1.75305E-05 1.10683E-04-5.66675E-06
 -1      6454 1.75305E-05 1.10683E-04-5.83991E-06
 -1      6455 1.75305E-05 1.10683E-04-6.01307E-06
 -1      6456 1.75305E-05 1.10683E-04-6.18623E-06
 -1      6457 1.75305E-05 1.10683E-04-6.35939E-06
 -1      6458 1.75305E-05 1.10683E-04-6.53255E-06
 -1      6459 1.75305E-05 1.10683E-04-6.70571E-06
 -1      6460 1.75305E-05 1.10683E-04-6.87887E-06
 -1      6461 1.75305E-05 1.10683E-04-7.05203E-06
 -1      6462 1.75305E-05 1.10683E-04-7.22519E-06
 -1      6463 1.05238E-04 1.66680E-05-5.66675E-06
 -1      6464 1.05238E-04 1.66680E-05-5.83991E-06
 -1      6465 1.05238E-04 1.66680E-05-6.01307E-06
 -1      6466 1.05238E-04 1.66680E-05-6.18623E-06
 -1      6467 1.05238E-04 1.66680E-05-6.35939E-06
 -1      6468 1.05238E-04 1.66680E-05-6.53255E-06
 -1      6469 1.05238E-04 1.66680E-05-6.70571E-06
 -1      6470 1.05238E-04 1.66680E-05-6.87887E-06
 -1      6471 1.05238E-04 1.66680E-05-7.05203E-06
 -1      6472 1.05238E-04 1.66680E-05-7.22519E-06
 -1      6473 1.01335E-04 3.29256E-05-5.66675E-06
 -1      6474 1.01335E-04 3.29256E-05-5.83991E-06
 -1      6475 1.01335E-04 3.29256E-05-6.01307E-06
 -1      6476 1.01335E-04 3.29256E-05-6.18623E-06
 -1      6477 1.01335E-04 3.29256E-05-6.35939E-06
 -1      6478 1.01335E-04 3.29256E-05-6.53255E-06
 -1      6479 1.01335E-04 3.29256E-05-6.70571E-06
 -1      6480 1.01335E-04 3.29256E-05-6.87887E-06
 -1      6481 1.01335E-04 3.29256E-05-7.05203E-06
 -1      6482 1.01335E-04 3.29256E-05-7.22519E-06
 -1      6483 9.49364E-05 4.83725E-05-5.66675E-06
 -1      6484 9.49364E-05 4.83725E-05-5.83991E-06
 -1      6485 9.49364E-05 4.83725E-05-6.01307E-06
 -1      6486 9.49364E-05 4.83725E-05-6.18623E-06
 -1      6487 9.49364E-05 4.83725E-05-6.35939E-06
 -1      6488 9.49364E-05 4.83725E-05-6.53255E-06
 -1      6489 9.49364E-05 4.83725E-05-6.70571E-06
 -1      6490 9.49364E-05 4.83725E-05-6.87887E-06
 -1      6491 9.49364E-05 4.83725E-05-7.05203E-06
 -1      6492 9.49364E-05 4.83725E-05-7.22519E-06
 -1      6493 8.62004E-05 6.26283E-05-5.66675E-06
 -1      6494 8.62004E-05 6.26283E-05-5.83991E-06
 -1      6495 8.62004E-05 6.26283E-05-6.01307E-06
 -1      6496 8.62004E-05 6.26283E-05-6.18623E-06
 -1      6497 8.62004E-05 6.26283E-05-6.35939E-06
 -1      6498 8.62004E-05 6.26283E-05-6.53255E-06
 -1      6499 8.62004E-05 6.26283E-05-6.70571E-06
 -1      6500 8.62004E-05 6.26283E-05-6.87887E-06
 -1      6501 8.62004E-05 6.26283E-05-7.05203E-06
 -1      6502 8.62004E-05 6.26283E-05-7.22519E-06
 -1      6503 7.53419E-05 7.53419E-05-5.66675E-06
 -1      6504 7.53419E-05 7.53419E-05-5.83991E-06
 -1      6505 7.53419E-05 7.53419E-05-6.01307E-06
 -1      6506 7.53419E-05 7.53419E-05-6.18623E-06
 -1      6507 7.53419E-05 7.53419E-05-6.35939E-06
 -1      6508 7.53419E-05 7.53419E-05-6.53255E-06
 -1      6509 7.53419E-05 7.53419E-05-6.70571E-06
 -1      6510 7.53419E-05 7.53419E-05-6.87887E-06
 -1      6511 7.53419E-05 7.53419E-05-7.05203E-06
 -1      6512 7.53419E-05 7.53419E-05-7.22519E-06
 -1      6513 6.26283E-05 8.62004E-05-5.66675E-06
 -1      6514 6.26283E-05 8.62004E-05-5.83991E-06
 -1      6515 6.26283E-05 8.62004E-05-6.01307E-06
 -1      6516 6.26283E-05 8.62004E-05-6.18623E-06
 -1      6517 6.26283E-05 8.62004E-05-6.35939E-06
 -1      6518 6.26283E-05 8.62004E-05-6.53255E-06
 -1      6519 6.26283E-05 8.62004E-05-6.70571E-06
 -1      6520 6.26283E-05 8.62004E-05-6.87887E-06
 -1      6521 6.26283E-05 8.62004E-05-7.05203E-06
 -1      6522 6.26283E-05 8.62004E-05-7.22519E-06
 -1      6523 4.83725E-05 9.49364E-05-5.66675E-06
 -1      6524 4.83725E-05 9.49364E-05-5.83991E-06
 -1      6525 4.83725E-05 9.49364E-05-6.01307E-06
 -1      6526 4.83725E-05 9.49364E-05-6.18623E-06
 -1      6527 4.83725E-05 9.49364E-05-6.35939E-06
 -1      6528 4.83725E-05 9.49364E-05-6.53255E-06
 -1      6529 4.83725E-05 9.49364E-05-6.70571E-06
 -1      6530 4.83725E-05 9.49364E-05-6.87887E-06
 -1      6531 4.83725E-05 9.49364E-05-7.05203E-06
 -1      6532 4.83725E-05 9.49364E-05-7.22519E-06
 -1      6533 3.29256E-05 1.01335E-04-5.66675E-06
 -1      6534 3.29256E-05 1.01335E-04-5.83991E-06
 -1      6535 3.29256E-05 1.01335E-04-6.01307E-06
 -1      6536 3.29256E-05 1.01335E-04-6.18623E-06
 -1      6537 3.29256E-05 1.01335E-04-6.35939E-06
 -1      6538 3.29256E-05 1.01335E-04-6.53255E-06
 -1      6539 3.29256E-05 1.01335E-04-6.70571E-06
 -1      6540 3.29256E-05 1.01335E-04-6.87887E-06
 -1      6541 3.29256E-05 1.01335E-04-7.05203E-06
 -1      6542 3.29256E-05 1.01335E-04-7.22519E-06
 -1      6543 1.66680E-05 1.05238E-04-5.66675E-06
 -1      6544 1.66680E-05 1.05238E-04-5.83991E-06
 -1      6545 1.66680E-05 1.05238E-04-6.01307E-06
 -1      6546 1.66680E-05 1.05238E-04-6.18623E-06
 -1      6547 1.66680E-05 1.05238E-04-6.35939E-06
 -1      6548 1.66680E-05 1.05238E-04-6.53255E-06
 -1      6549 1.66680E-05 1.05238E-04-6.70571E-06
 -1      6550 1.66680E-05 1.05238E-04-6.87887E-06
 -1      6551 1.66680E-05 1.05238E-04-7.05203E-06
 -1      6552 1.66680E-05 1.05238E-04-7.22519E-06
 -1      6553 1.00458E-04 1.59110E-05-5.66675E-06
 -1      6554 1.00458E-04 1.59110E-05-5.83991E-06
 -1      6555 1.00458E-04 1.59110E-05-6.01307E-06
 -1      6556 1.00458E-04 1.59110E-05-6.18623E-06
 -1      6557 1.00458E-04 1.59110E-05-6.35939E-06
 -1      6558 1.00458E-04 1.59110E-05-6.53255E-06
 -1      6559 1.00458E-04 1.59110E-05-6.70571E-06
 -1      6560 1.00458E-04 1.59110E-05-6.87887E-06
 -1      6561 1.00458E-04 1.59110E-05-7.05203E-06
 -1      6562 1.00458E-04 1.59110E-05-7.22519E-06
 -1      6563 9.67323E-05 3.14302E-05-5.66675E-06
 -1      6564 9.67323E-05 3.14302E-05-5.83991E-06
 -1      6565 9.67323E-05 3.14302E-05-6.01307E-06
 -1      6566 9.67323E-05 3.14302E-05-6.18623E-06
 -1      6567 9.67323E-05 3.14302E-05-6.35939E-06
 -1      6568 9.67323E-05 3.14302E-05-6.53255E-06
 -1      6569 9.67323E-05 3.14302E-05-6.70571E-06
 -1      6570 9.67323E-05 3.14302E-05-6.87887E-06
 -1      6571 9.67323E-05 3.14302E-05-7.05203E-06
 -1      6572 9.67323E-05 3.14302E-05-7.22519E-06
 -1      6573 9.06246E-05 4.61755E-05-5.66675E-06
 -1      6574 9.06246E-05 4.61755E-05-5.83991E-06
 -1      6575 9.06246E-05 4.61755E-05-6.01307E-06
 -1      6576 9.06246E-05 4.61755E-05-6.18623E-06
 -1      6577 9.06246E-05 4.61755E-05-6.35939E-06
 -1      6578 9.06246E-05 4.61755E-05-6.53255E-06
 -1      6579 9.06246E-05 4.61755E-05-6.70571E-06
 -1      6580 9.06246E-05 4.61755E-05-6.87887E-06
 -1      6581 9.06246E-05 4.61755E-05-7.05203E-06
 -1      6582 9.06246E-05 4.61755E-05-7.22519E-06
 -1      6583 8.22854E-05 5.97839E-05-5.66675E-06
 -1      6584 8.22854E-05 5.97839E-05-5.83991E-06
 -1      6585 8.22854E-05 5.97839E-05-6.01307E-06
 -1      6586 8.22854E-05 5.97839E-05-6.18623E-06
 -1      6587 8.22854E-05 5.97839E-05-6.35939E-06
 -1      6588 8.22854E-05 5.97839E-05-6.53255E-06
 -1      6589 8.22854E-05 5.97839E-05-6.70571E-06
 -1      6590 8.22854E-05 5.97839E-05-6.87887E-06
 -1      6591 8.22854E-05 5.97839E-05-7.05203E-06
 -1      6592 8.22854E-05 5.97839E-05-7.22519E-06
 -1      6593 7.19201E-05 7.19201E-05-5.66675E-06
 -1      6594 7.19201E-05 7.19201E-05-5.83991E-06
 -1      6595 7.19201E-05 7.19201E-05-6.01307E-06
 -1      6596 7.19201E-05 7.19201E-05-6.18623E-06
 -1      6597 7.19201E-05 7.19201E-05-6.35939E-06
 -1      6598 7.19201E-05 7.19201E-05-6.53255E-06
 -1      6599 7.19201E-05 7.19201E-05-6.70571E-06
 -1      6600 7.19201E-05 7.19201E-05-6.87887E-06
 -1      6601 7.19201E-05 7.19201E-05-7.05203E-06
 -1      6602 7.19201E-05 7.19201E-05-7.22519E-06
 -1      6603 5.97839E-05 8.22854E-05-5.66675E-06
 -1      6604 5.97839E-05 8.22854E-05-5.83991E-06
 -1      6605 5.97839E-05 8.22854E-05-6.01307E-06
 -1      6606 5.97839E-05 8.22854E-05-6.18623E-06
 -1      6607 5.97839E-05 8.22854E-05-6.35939E-06
 -1      6608 5.97839E-05 8.22854E-05-6.53255E-06
 -1      6609 5.97839E-05 8.22854E-05-6.70571E-06
 -1      6610 5.97839E-05 8.22854E-05-6.87887E-06
 -1      6611 5.97839E-05 8.22854E-05-7.05203E-06
 -1      6612 5.97839E-05 8.22854E-05-7.22519E-06
 -1      6613 4.61755E-05 9.06246E-05-5.66675E-06
 -1      6614 4.61755E-05 9.06246E-05-5.83991E-06
 -1      6615 4.61755E-05 9.06246E-05-6.01307E-06
 -1      6616 4.61755E-05 9.06246E-05-6.18623E-06
 -1      6617 4.61755E-05 9.06246E-05-6.35939E-06
 -1      6618 4.61755E-05 9.06246E-05-6.53255E-06
 -1      6619 4.61755E-05 9.06246E-05-6.70571E-06
 -1      6620 4.61755E-05 9.06246E-05-6.87887E-06
 -1      6621 4.61755E-05 9.06246E-05-7.05203E-06
 -1      6622 4.61755E-05 9.06246E-05-7.22519E-06
 -1      6623 3.14302E-05 9.67323E-05-5.66675E-06
 -1      6624 3.14302E-05 9.67323E-05-5.83991E-06
 -1      6625 3.14302E-05 9.67323E-05-6.01307E-06
 -1      6626 3.14302E-05 9.67323E-05-6.18623E-06
 -1      6627 3.14302E-05 9.67323E-05-6.35939E-06
 -1      6628 3.14302E-05 9.67323E-05-6.53255E-06
 -1      6629 3.14302E-05 9.67323E-05-6.70571E-06
 -1      6630 3.14302E-05 9.67323E-05-6.87887E-06
 -1      6631 3.14302E-05 9.67323E-05-7.05203E-06
 -1      6632 3.14302E-05 9.67323E-05-7.22519E-06
 -1      6633 1.59110E-05 1.00458E-04-5.66675E-06
 -1      6634 1.59110E-05 1.00458E-04-5.83991E-06
 -1      6635 1.59110E-05 1.00458E-04-6.01307E-06
 -1      6636 1.59110E-05 1.00458E-04-6.18623E-06
 -1      6637 1.59110E-05 1.00458E-04-6.35939E-06
 -1      6638 1.59110E-05 1.00458E-04-6.53255E-06
 -1      6639 1.59110E-05 1.00458E-04-6.70571E-06
 -1      6640 1.59110E-05 1.00458E-04-6.87887E-06
 -1      6641 1.59110E-05 1.00458E-04-7.05203E-06
 -1      6642 1.59110E-05 1.00458E-04-7.22519E-06
 -1      6643 9.62394E-05 1.52428E-05-5.66675E-06
 -1      6644 9.62394E-05 1.52428E-05-5.83991E-06
 -1      6645 9.62394E-05 1.52428E-05-6.01307E-06
 -1      6646 9.62394E-05 1.52428E-05-6.18623E-06
 -1      6647 9.62394E-05 1.52428E-05-6.35939E-06
 -1      6648 9.62394E-05 1.52428E-05-6.53255E-06
 -1      6649 9.62394E-05 1.52428E-05-6.70571E-06
 -1      6650 9.62394E-05 1.52428E-05-6.87887E-06
 -1      6651 9.62394E-05 1.52428E-05-7.05203E-06
 -1      6652 9.62394E-05 1.52428E-05-7.22519E-06
 -1      6653 9.26700E-05 3.01103E-05-5.66675E-06
 -1      6654 9.26700E-05 3.01103E-05-5.83991E-06
 -1      6655 9.26700E-05 3.01103E-05-6.01307E-06
 -1      6656 9.26700E-05 3.01103E-05-6.18623E-06
 -1      6657 9.26700E-05 3.01103E-05-6.35939E-06
 -1      6658 9.26700E-05 3.01103E-05-6.53255E-06
 -1      6659 9.26700E-05 3.01103E-05-6.70571E-06
 -1      6660 9.26700E-05 3.01103E-05-6.87887E-06
 -1      6661 9.26700E-05 3.01103E-05-7.05203E-06
 -1      6662 9.26700E-05 3.01103E-05-7.22519E-06
 -1      6663 8.68188E-05 4.42364E-05-5.66675E-06
 -1      6664 8.68188E-05 4.42364E-05-5.83991E-06
 -1      6665 8.68188E-05 4.42364E-05-6.01307E-06
 -1      6666 8.68188E-05 4.42364E-05-6.18623E-06
 -1      6667 8.68188E-05 4.42364E-05-6.35939E-06
 -1      6668 8.68188E-05 4.42364E-05-6.53255E-06
 -1      6669 8.68188E-05 4.42364E-05-6.70571E-06
 -1      6670 8.68188E-05 4.42364E-05-6.87887E-06
 -1      6671 8.68188E-05 4.42364E-05-7.05203E-06
 -1      6672 8.68188E-05 4.42364E-05-7.22519E-06
 -1      6673 7.88298E-05 5.72732E-05-5.66675E-06
 -1      6674 7.88298E-05 5.72732E-05-5.83991E-06
 -1      6675 7.88298E-05 5.72732E-05-6.01307E-06
 -1      6676 7.88298E-05 5.72732E-05-6.18623E-06
 -1      6677 7.88298E-05 5.72732E-05-6.35939E-06
 -1      6678 7.88298E-05 5.72732E-05-6.53255E-06
 -1      6679 7.88298E-05 5.72732E-05-6.70571E-06
 -1      6680 7.88298E-05 5.72732E-05-6.87887E-06
 -1      6681 7.88298E-05 5.72732E-05-7.05203E-06
 -1      6682 7.88298E-05 5.72732E-05-7.22519E-06
 -1      6683 6.88998E-05 6.88998E-05-5.66675E-06
 -1      6684 6.88998E-05 6.88998E-05-5.83991E-06
 -1      6685 6.88998E-05 6.88998E-05-6.01307E-06
 -1      6686 6.88998E-05 6.88998E-05-6.18623E-06
 -1      6687 6.88998E-05 6.88998E-05-6.35939E-06
 -1      6688 6.88998E-05 6.88998E-05-6.53255E-06
 -1      6689 6.88998E-05 6.88998E-05-6.70571E-06
 -1      6690 6.88998E-05 6.88998E-05-6.87887E-06
 -1      6691 6.88998E-05 6.88998E-05-7.05203E-06
 -1      6692 6.88998E-05 6.88998E-05-7.22519E-06
 -1      6693 5.72732E-05 7.88298E-05-5.66675E-06
 -1      6694 5.72732E-05 7.88298E-05-5.83991E-06
 -1      6695 5.72732E-05 7.88298E-05-6.01307E-06
 -1      6696 5.72732E-05 7.88298E-05-6.18623E-06
 -1      6697 5.72732E-05 7.88298E-05-6.35939E-06
 -1      6698 5.72732E-05 7.88298E-05-6.53255E-06
 -1      6699 5.72732E-05 7.88298E-05-6.70571E-06
 -1      6700 5.72732E-05 7.88298E-05-6.87887E-06
 -1      6701 5.72732E-05 7.88298E-05-7.05203E-06
 -1      6702 5.72732E-05 7.88298E-05-7.22519E-06
 -1      6703 4.42364E-05 8.68188E-05-5.66675E-06
 -1      6704 4.42364E-05 8.68188E-05-5.83991E-06
 -1      6705 4.42364E-05 8.68188E-05-6.01307E-06
 -1      6706 4.42364E-05 8.68188E-05-6.18623E-06
 -1      6707 4.42364E-05 8.68188E-05-6.35939E-06
 -1      6708 4.42364E-05 8.68188E-05-6.53255E-06
 -1      6709 4.42364E-05 8.68188E-05-6.70571E-06
 -1      6710 4.42364E-05 8.68188E-05-6.87887E-06
 -1      6711 4.42364E-05 8.68188E-05-7.05203E-06
 -1      6712 4.42364E-05 8.68188E-05-7.22519E-06
 -1      6713 3.01103E-05 9.26700E-05-5.66675E-06
 -1      6714 3.01103E-05 9.26700E-05-5.83991E-06
 -1      6715 3.01103E-05 9.26700E-05-6.01307E-06
 -1      6716 3.01103E-05 9.26700E-05-6.18623E-06
 -1      6717 3.01103E-05 9.26700E-05-6.35939E-06
 -1      6718 3.01103E-05 9.26700E-05-6.53255E-06
 -1      6719 3.01103E-05 9.26700E-05-6.70571E-06
 -1      6720 3.01103E-05 9.26700E-05-6.87887E-06
 -1      6721 3.01103E-05 9.26700E-05-7.05203E-06
 -1      6722 3.01103E-05 9.26700E-05-7.22519E-06
 -1      6723 1.52428E-05 9.62394E-05-5.66675E-06
 -1      6724 1.52428E-05 9.62394E-05-5.83991E-06
 -1      6725 1.52428E-05 9.62394E-05-6.01307E-06
 -1      6726 1.52428E-05 9.62394E-05-6.18623E-06
 -1      6727 1.52428E-05 9.62394E-05-6.35939E-06
 -1      6728 1.52428E-05 9.62394E-05-6.53255E-06
 -1      6729 1.52428E-05 9.62394E-05-6.70571E-06
 -1      6730 1.52428E-05 9.62394E-05-6.87887E-06
 -1      6731 1.52428E-05 9.62394E-05-7.05203E-06
 -1      6732 1.52428E-05 9.62394E-05-7.22519E-06
 -1      6733 9.24974E-05 1.46502E-05-5.66675E-06
 -1      6734 9.24974E-05 1.46502E-05-5.83991E-06
 -1      6735 9.24974E-05 1.46502E-05-6.01307E-06
 -1      6736 9.24974E-05 1.46502E-05-6.18623E-06
 -1      6737 9.24974E-05 1.46502E-05-6.35939E-06
 -1      6738 9.24974E-05 1.46502E-05-6.53255E-06
 -1      6739 9.24974E-05 1.46502E-05-6.70571E-06
 -1      6740 9.24974E-05 1.46502E-05-6.87887E-06
 -1      6741 9.24974E-05 1.46502E-05-7.05203E-06
 -1      6742 9.24974E-05 1.46502E-05-7.22519E-06
 -1      6743 8.90668E-05 2.89396E-05-5.66675E-06
 -1      6744 8.90668E-05 2.89396E-05-5.83991E-06
 -1      6745 8.90668E-05 2.89396E-05-6.01307E-06
 -1      6746 8.90668E-05 2.89396E-05-6.18623E-06
 -1      6747 8.90668E-05 2.89396E-05-6.35939E-06
 -1      6748 8.90668E-05 2.89396E-05-6.53255E-06
 -1      6749 8.90668E-05 2.89396E-05-6.70571E-06
 -1      6750 8.90668E-05 2.89396E-05-6.87887E-06
 -1      6751 8.90668E-05 2.89396E-05-7.05203E-06
 -1      6752 8.90668E-05 2.89396E-05-7.22519E-06
 -1      6753 8.34431E-05 4.25164E-05-5.66675E-06
 -1      6754 8.34431E-05 4.25164E-05-5.83991E-06
 -1      6755 8.34431E-05 4.25164E-05-6.01307E-06
 -1      6756 8.34431E-05 4.25164E-05-6.18623E-06
 -1      6757 8.34431E-05 4.25164E-05-6.35939E-06
 -1      6758 8.34431E-05 4.25164E-05-6.53255E-06
 -1      6759 8.34431E-05 4.25164E-05-6.70571E-06
 -1      6760 8.34431E-05 4.25164E-05-6.87887E-06
 -1      6761 8.34431E-05 4.25164E-05-7.05203E-06
 -1      6762 8.34431E-05 4.25164E-05-7.22519E-06
 -1      6763 7.57648E-05 5.50463E-05-5.66675E-06
 -1      6764 7.57648E-05 5.50463E-05-5.83991E-06
 -1      6765 7.57648E-05 5.50463E-05-6.01307E-06
 -1      6766 7.57648E-05 5.50463E-05-6.18623E-06
 -1      6767 7.57648E-05 5.50463E-05-6.35939E-06
 -1      6768 7.57648E-05 5.50463E-05-6.53255E-06
 -1      6769 7.57648E-05 5.50463E-05-6.70571E-06
 -1      6770 7.57648E-05 5.50463E-05-6.87887E-06
 -1      6771 7.57648E-05 5.50463E-05-7.05203E-06
 -1      6772 7.57648E-05 5.50463E-05-7.22519E-06
 -1      6773 6.62208E-05 6.62208E-05-5.66675E-06
 -1      6774 6.62208E-05 6.62208E-05-5.83991E-06
 -1      6775 6.62208E-05 6.62208E-05-6.01307E-06
 -1      6776 6.62208E-05 6.62208E-05-6.18623E-06
 -1      6777 6.62208E-05 6.62208E-05-6.35939E-06
 -1      6778 6.62208E-05 6.62208E-05-6.53255E-06
 -1      6779 6.62208E-05 6.62208E-05-6.70571E-06
 -1      6780 6.62208E-05 6.62208E-05-6.87887E-06
 -1      6781 6.62208E-05 6.62208E-05-7.05203E-06
 -1      6782 6.62208E-05 6.62208E-05-7.22519E-06
 -1      6783 5.50463E-05 7.57648E-05-5.66675E-06
 -1      6784 5.50463E-05 7.57648E-05-5.83991E-06
 -1      6785 5.50463E-05 7.57648E-05-6.01307E-06
 -1      6786 5.50463E-05 7.57648E-05-6.18623E-06
 -1      6787 5.50463E-05 7.57648E-05-6.35939E-06
 -1      6788 5.50463E-05 7.57648E-05-6.53255E-06
 -1      6789 5.50463E-05 7.57648E-05-6.70571E-06
 -1      6790 5.50463E-05 7.57648E-05-6.87887E-06
 -1      6791 5.50463E-05 7.57648E-05-7.05203E-06
 -1      6792 5.50463E-05 7.57648E-05-7.22519E-06
 -1      6793 4.25164E-05 8.34431E-05-5.66675E-06
 -1      6794 4.25164E-05 8.34431E-05-5.83991E-06
 -1      6795 4.25164E-05 8.34431E-05-6.01307E-06
 -1      6796 4.25164E-05 8.34431E-05-6.18623E-06
 -1      6797 4.25164E-05 8.34431E-05-6.35939E-06
 -1      6798 4.25164E-05 8.34431E-05-6.53255E-06
 -1      6799 4.25164E-05 8.34431E-05-6.70571E-06
 -1      6800 4.25164E-05 8.34431E-05-6.87887E-06
 -1      6801 4.25164E-05 8.34431E-05-7.05203E-06
 -1      6802 4.25164E-05 8.34431E-05-7.22519E-06
 -1      6803 2.89396E-05 8.90668E-05-5.66675E-06
 -1      6804 2.89396E-05 8.90668E-05-5.83991E-06
 -1      6805 2.89396E-05 8.90668E-05-6.01307E-06
 -1      6806 2.89396E-05 8.90668E-05-6.18623E-06
 -1      6807 2.89396E-05 8.90668E-05-6.35939E-06
 -1      6808 2.89396E-05 8.90668E-05-6.53255E-06
 -1      6809 2.89396E-05 8.90668E-05-6.70571E-06
 -1      6810 2.89396E-05 8.90668E-05-6.87887E-06
 -1      6811 2.89396E-05 8.90668E-05-7.05203E-06
 -1      6812 2.89396E-05 8.90668E-05-7.22519E-06
 -1      6813 1.46502E-05 9.24974E-05-5.66675E-06
 -1      6814 1.46502E-05 9.24974E-05-5.83991E-06
 -1      6815 1.46502E-05 9.24974E-05-6.01307E-06
 -1      6816 1.46502E-05 9.24974E-05-6.18623E-06
 -1      6817 1.46502E-05 9.24974E-05-6.35939E-06
 -1      6818 1.46502E-05 9.24974E-05-6.53255E-06
 -1      6819 1.46502E-05 9.24974E-05-6.70571E-06
 -1      6820 1.46502E-05 9.24974E-05-6.87887E-06
 -1      6821 1.46502E-05 9.24974E-05-7.05203E-06
 -1      6822 1.46502E-05 9.24974E-05-7.22519E-06
 -1      6823 8.91641E-05 1.41222E-05-5.66675E-06
 -1      6824 8.91641E-05 1.41222E-05-5.83991E-06
 -1      6825 8.91641E-05 1.41222E-05-6.01307E-06
 -1      6826 8.91641E-05 1.41222E-05-6.18623E-06
 -1      6827 8.91641E-05 1.41222E-05-6.35939E-06
 -1      6828 8.91641E-05 1.41222E-05-6.53255E-06
 -1      6829 8.91641E-05 1.41222E-05-6.70571E-06
 -1      6830 8.91641E-05 1.41222E-05-6.87887E-06
 -1      6831 8.91641E-05 1.41222E-05-7.05203E-06
 -1      6832 8.91641E-05 1.41222E-05-7.22519E-06
 -1      6833 8.58571E-05 2.78967E-05-5.66675E-06
 -1      6834 8.58571E-05 2.78967E-05-5.83991E-06
 -1      6835 8.58571E-05 2.78967E-05-6.01307E-06
 -1      6836 8.58571E-05 2.78967E-05-6.18623E-06
 -1      6837 8.58571E-05 2.78967E-05-6.35939E-06
 -1      6838 8.58571E-05 2.78967E-05-6.53255E-06
 -1      6839 8.58571E-05 2.78967E-05-6.70571E-06
 -1      6840 8.58571E-05 2.78967E-05-6.87887E-06
 -1      6841 8.58571E-05 2.78967E-05-7.05203E-06
 -1      6842 8.58571E-05 2.78967E-05-7.22519E-06
 -1      6843 8.04361E-05 4.09842E-05-5.66675E-06
 -1      6844 8.04361E-05 4.09842E-05-5.83991E-06
 -1      6845 8.04361E-05 4.09842E-05-6.01307E-06
 -1      6846 8.04361E-05 4.09842E-05-6.18623E-06
 -1      6847 8.04361E-05 4.09842E-05-6.35939E-06
 -1      6848 8.04361E-05 4.09842E-05-6.53255E-06
 -1      6849 8.04361E-05 4.09842E-05-6.70571E-06
 -1      6850 8.04361E-05 4.09842E-05-6.87887E-06
 -1      6851 8.04361E-05 4.09842E-05-7.05203E-06
 -1      6852 8.04361E-05 4.09842E-05-7.22519E-06
 -1      6853 7.30344E-05 5.30626E-05-5.66675E-06
 -1      6854 7.30344E-05 5.30626E-05-5.83991E-06
 -1      6855 7.30344E-05 5.30626E-05-6.01307E-06
 -1      6856 7.30344E-05 5.30626E-05-6.18623E-06
 -1      6857 7.30344E-05 5.30626E-05-6.35939E-06
 -1      6858 7.30344E-05 5.30626E-05-6.53255E-06
 -1      6859 7.30344E-05 5.30626E-05-6.70571E-06
 -1      6860 7.30344E-05 5.30626E-05-6.87887E-06
 -1      6861 7.30344E-05 5.30626E-05-7.05203E-06
 -1      6862 7.30344E-05 5.30626E-05-7.22519E-06
 -1      6863 6.38344E-05 6.38344E-05-5.66675E-06
 -1      6864 6.38344E-05 6.38344E-05-5.83991E-06
 -1      6865 6.38344E-05 6.38344E-05-6.01307E-06
 -1      6866 6.38344E-05 6.38344E-05-6.18623E-06
 -1      6867 6.38344E-05 6.38344E-05-6.35939E-06
 -1      6868 6.38344E-05 6.38344E-05-6.53255E-06
 -1      6869 6.38344E-05 6.38344E-05-6.70571E-06
 -1      6870 6.38344E-05 6.38344E-05-6.87887E-06
 -1      6871 6.38344E-05 6.38344E-05-7.05203E-06
 -1      6872 6.38344E-05 6.38344E-05-7.22519E-06
 -1      6873 5.30626E-05 7.30344E-05-5.66675E-06
 -1      6874 5.30626E-05 7.30344E-05-5.83991E-06
 -1      6875 5.30626E-05 7.30344E-05-6.01307E-06
 -1      6876 5.30626E-05 7.30344E-05-6.18623E-06
 -1      6877 5.30626E-05 7.30344E-05-6.35939E-06
 -1      6878 5.30626E-05 7.30344E-05-6.53255E-06
 -1      6879 5.30626E-05 7.30344E-05-6.70571E-06
 -1      6880 5.30626E-05 7.30344E-05-6.87887E-06
 -1      6881 5.30626E-05 7.30344E-05-7.05203E-06
 -1      6882 5.30626E-05 7.30344E-05-7.22519E-06
 -1      6883 4.09842E-05 8.04361E-05-5.66675E-06
 -1      6884 4.09842E-05 8.04361E-05-5.83991E-06
 -1      6885 4.09842E-05 8.04361E-05-6.01307E-06
 -1      6886 4.09842E-05 8.04361E-05-6.18623E-06
 -1      6887 4.09842E-05 8.04361E-05-6.35939E-06
 -1      6888 4.09842E-05 8.04361E-05-6.53255E-06
 -1      6889 4.09842E-05 8.04361E-05-6.70571E-06
 -1      6890 4.09842E-05 8.04361E-05-6.87887E-06
 -1      6891 4.09842E-05 8.04361E-05-7.05203E-06
 -1      6892 4.09842E-05 8.04361E-05-7.22519E-06
 -1      6893 2.78967E-05 8.58571E-05-5.66675E-06
 -1      6894 2.78967E-05 8.58571E-05-5.83991E-06
 -1      6895 2.78967E-05 8.58571E-05-6.01307E-06
 -1      6896 2.78967E-05 8.58571E-05-6.18623E-06
 -1      6897 2.78967E-05 8.58571E-05-6.35939E-06
 -1      6898 2.78967E-05 8.58571E-05-6.53255E-06
 -1      6899 2.78967E-05 8.58571E-05-6.70571E-06
 -1      6900 2.78967E-05 8.58571E-05-6.87887E-06
 -1      6901 2.78967E-05 8.58571E-05-7.05203E-06
 -1      6902 2.78967E-05 8.58571E-05-7.22519E-06
 -1      6903 1.41222E-05 8.91641E-05-5.66675E-06
 -1      6904 1.41222E-05 8.91641E-05-5.83991E-06
 -1      6905 1.41222E-05 8.91641E-05-6.01307E-06
 -1      6906 1.41222E-05 8.91641E-05-6.18623E-06
 -1      6907 1.41222E-05 8.91641E-05-6.35939E-06
 -1      6908 1.41222E-05 8.91641E-05-6.53255E-06
 -1      6909 1.41222E-05 8.91641E-05-6.70571E-06
 -1      6910 1.41222E-05 8.91641E-05-6.87887E-06
 -1      6911 1.41222E-05 8.91641E-05-7.05203E-06
 -1      6912 1.41222E-05 8.91641E-05-7.22519E-06
 -1      6913 8.61836E-05 1.36501E-05-5.66675E-06
 -1      6914 8.61836E-05 1.36501E-05-5.83991E-06
 -1      6915 8.61836E-05 1.36501E-05-6.01307E-06
 -1      6916 8.61836E-05 1.36501E-05-6.18623E-06
 -1      6917 8.61836E-05 1.36501E-05-6.35939E-06
 -1      6918 8.61836E-05 1.36501E-05-6.53255E-06
 -1      6919 8.61836E-05 1.36501E-05-6.70571E-06
 -1      6920 8.61836E-05 1.36501E-05-6.87887E-06
 -1      6921 8.61836E-05 1.36501E-05-7.05203E-06
 -1      6922 8.61836E-05 1.36501E-05-7.22519E-06
 -1      6923 8.29872E-05 2.69642E-05-5.66675E-06
 -1      6924 8.29872E-05 2.69642E-05-5.83991E-06
 -1      6925 8.29872E-05 2.69642E-05-6.01307E-06
 -1      6926 8.29872E-05 2.69642E-05-6.18623E-06
 -1      6927 8.29872E-05 2.69642E-05-6.35939E-06
 -1      6928 8.29872E-05 2.69642E-05-6.53255E-06
 -1      6929 8.29872E-05 2.69642E-05-6.70571E-06
 -1      6930 8.29872E-05 2.69642E-05-6.87887E-06
 -1      6931 8.29872E-05 2.69642E-05-7.05203E-06
 -1      6932 8.29872E-05 2.69642E-05-7.22519E-06
 -1      6933 7.77474E-05 3.96143E-05-5.66675E-06
 -1      6934 7.77474E-05 3.96143E-05-5.83991E-06
 -1      6935 7.77474E-05 3.96143E-05-6.01307E-06
 -1      6936 7.77474E-05 3.96143E-05-6.18623E-06
 -1      6937 7.77474E-05 3.96143E-05-6.35939E-06
 -1      6938 7.77474E-05 3.96143E-05-6.53255E-06
 -1      6939 7.77474E-05 3.96143E-05-6.70571E-06
 -1      6940 7.77474E-05 3.96143E-05-6.87887E-06
 -1      6941 7.77474E-05 3.96143E-05-7.05203E-06
 -1      6942 7.77474E-05 3.96143E-05-7.22519E-06
 -1      6943 7.05931E-05 5.12889E-05-5.66675E-06
 -1      6944 7.05931E-05 5.12889E-05-5.83991E-06
 -1      6945 7.05931E-05 5.12889E-05-6.01307E-06
 -1      6946 7.05931E-05 5.12889E-05-6.18623E-06
 -1      6947 7.05931E-05 5.12889E-05-6.35939E-06
 -1      6948 7.05931E-05 5.12889E-05-6.53255E-06
 -1      6949 7.05931E-05 5.12889E-05-6.70571E-06
 -1      6950 7.05931E-05 5.12889E-05-6.87887E-06
 -1      6951 7.05931E-05 5.12889E-05-7.05203E-06
 -1      6952 7.05931E-05 5.12889E-05-7.22519E-06
 -1      6953 6.17007E-05 6.17007E-05-5.66675E-06
 -1      6954 6.17007E-05 6.17007E-05-5.83991E-06
 -1      6955 6.17007E-05 6.17007E-05-6.01307E-06
 -1      6956 6.17007E-05 6.17007E-05-6.18623E-06
 -1      6957 6.17007E-05 6.17007E-05-6.35939E-06
 -1      6958 6.17007E-05 6.17007E-05-6.53255E-06
 -1      6959 6.17007E-05 6.17007E-05-6.70571E-06
 -1      6960 6.17007E-05 6.17007E-05-6.87887E-06
 -1      6961 6.17007E-05 6.17007E-05-7.05203E-06
 -1      6962 6.17007E-05 6.17007E-05-7.22519E-06
 -1      6963 5.12889E-05 7.05931E-05-5.66675E-06
 -1      6964 5.12889E-05 7.05931E-05-5.83991E-06
 -1      6965 5.12889E-05 7.05931E-05-6.01307E-06
 -1      6966 5.12889E-05 7.05931E-05-6.18623E-06
 -1      6967 5.12889E-05 7.05931E-05-6.35939E-06
 -1      6968 5.12889E-05 7.05931E-05-6.53255E-06
 -1      6969 5.12889E-05 7.05931E-05-6.70571E-06
 -1      6970 5.12889E-05 7.05931E-05-6.87887E-06
 -1      6971 5.12889E-05 7.05931E-05-7.05203E-06
 -1      6972 5.12889E-05 7.05931E-05-7.22519E-06
 -1      6973 3.96143E-05 7.77474E-05-5.66675E-06
 -1      6974 3.96143E-05 7.77474E-05-5.83991E-06
 -1      6975 3.96143E-05 7.77474E-05-6.01307E-06
 -1      6976 3.96143E-05 7.77474E-05-6.18623E-06
 -1      6977 3.96143E-05 7.77474E-05-6.35939E-06
 -1      6978 3.96143E-05 7.77474E-05-6.53255E-06
 -1      6979 3.96143E-05 7.77474E-05-6.70571E-06
 -1      6980 3.96143E-05 7.77474E-05-6.87887E-06
 -1      6981 3.96143E-05 7.77474E-05-7.05203E-06
 -1      6982 3.96143E-05 7.77474E-05-7.22519E-06
 -1      6983 2.69642E-05 8.29872E-05-5.66675E-06
 -1      6984 2.69642E-05 8.29872E-05-5.83991E-06
 -1      6985 2.69642E-05 8.29872E-05-6.01307E-06
 -1      6986 2.69642E-05 8.29872E-05-6.18623E-06
 -1      6987 2.69642E-05 8.29872E-05-6.35939E-06
 -1      6988 2.69642E-05 8.29872E-05-6.53255E-06
 -1      6989 2.69642E-05 8.29872E-05-6.70571E-06
 -1      6990 2.69642E-05 8.29872E-05-6.87887E-06
 -1      6991 2.69642E-05 8.29872E-05-7.05203E-06
 -1      6992 2.69642E-05 8.29872E-05-7.22519E-06
 -1      6993 1.36501E-05 8.61836E-05-5.66675E-06
 -1      6994 1.36501E-05 8.61836E-05-5.83991E-06
 -1      6995 1.36501E-05 8.61836E-05-6.01307E-06
 -1      6996 1.36501E-05 8.61836E-05-6.18623E-06
 -1      6997 1.36501E-05 8.61836E-05-6.35939E-06
 -1      6998 1.36501E-05 8.61836E-05-6.53255E-06
 -1      6999 1.36501E-05 8.61836E-05-6.70571E-06
 -1      7000 1.36501E-05 8.61836E-05-6.87887E-06
 -1      7001 1.36501E-05 8.61836E-05-7.05203E-06
 -1      7002 1.36501E-05 8.61836E-05-7.22519E-06
 -1      7003 8.35101E-05 1.32267E-05-5.66675E-06
 -1      7004 8.35101E-05 1.32267E-05-5.83991E-06
 -1      7005 8.35101E-05 1.32267E-05-6.01307E-06
 -1      7006 8.35101E-05 1.32267E-05-6.18623E-06
 -1      7007 8.35101E-05 1.32267E-05-6.35939E-06
 -1      7008 8.35101E-05 1.32267E-05-6.53255E-06
 -1      7009 8.35101E-05 1.32267E-05-6.70571E-06
 -1      7010 8.35101E-05 1.32267E-05-6.87887E-06
 -1      7011 8.35101E-05 1.32267E-05-7.05203E-06
 -1      7012 8.35101E-05 1.32267E-05-7.22519E-06
 -1      7013 8.04128E-05 2.61277E-05-5.66675E-06
 -1      7014 8.04128E-05 2.61277E-05-5.83991E-06
 -1      7015 8.04128E-05 2.61277E-05-6.01307E-06
 -1      7016 8.04128E-05 2.61277E-05-6.18623E-06
 -1      7017 8.04128E-05 2.61277E-05-6.35939E-06
 -1      7018 8.04128E-05 2.61277E-05-6.53255E-06
 -1      7019 8.04128E-05 2.61277E-05-6.70571E-06
 -1      7020 8.04128E-05 2.61277E-05-6.87887E-06
 -1      7021 8.04128E-05 2.61277E-05-7.05203E-06
 -1      7022 8.04128E-05 2.61277E-05-7.22519E-06
 -1      7023 7.53355E-05 3.83854E-05-5.66675E-06
 -1      7024 7.53355E-05 3.83854E-05-5.83991E-06
 -1      7025 7.53355E-05 3.83854E-05-6.01307E-06
 -1      7026 7.53355E-05 3.83854E-05-6.18623E-06
 -1      7027 7.53355E-05 3.83854E-05-6.35939E-06
 -1      7028 7.53355E-05 3.83854E-05-6.53255E-06
 -1      7029 7.53355E-05 3.83854E-05-6.70571E-06
 -1      7030 7.53355E-05 3.83854E-05-6.87887E-06
 -1      7031 7.53355E-05 3.83854E-05-7.05203E-06
 -1      7032 7.53355E-05 3.83854E-05-7.22519E-06
 -1      7033 6.84032E-05 4.96979E-05-5.66675E-06
 -1      7034 6.84032E-05 4.96979E-05-5.83991E-06
 -1      7035 6.84032E-05 4.96979E-05-6.01307E-06
 -1      7036 6.84032E-05 4.96979E-05-6.18623E-06
 -1      7037 6.84032E-05 4.96979E-05-6.35939E-06
 -1      7038 6.84032E-05 4.96979E-05-6.53255E-06
 -1      7039 6.84032E-05 4.96979E-05-6.70571E-06
 -1      7040 6.84032E-05 4.96979E-05-6.87887E-06
 -1      7041 6.84032E-05 4.96979E-05-7.05203E-06
 -1      7042 6.84032E-05 4.96979E-05-7.22519E-06
 -1      7043 5.97866E-05 5.97866E-05-5.66675E-06
 -1      7044 5.97866E-05 5.97866E-05-5.83991E-06
 -1      7045 5.97866E-05 5.97866E-05-6.01307E-06
 -1      7046 5.97866E-05 5.97866E-05-6.18623E-06
 -1      7047 5.97866E-05 5.97866E-05-6.35939E-06
 -1      7048 5.97866E-05 5.97866E-05-6.53255E-06
 -1      7049 5.97866E-05 5.97866E-05-6.70571E-06
 -1      7050 5.97866E-05 5.97866E-05-6.87887E-06
 -1      7051 5.97866E-05 5.97866E-05-7.05203E-06
 -1      7052 5.97866E-05 5.97866E-05-7.22519E-06
 -1      7053 4.96979E-05 6.84032E-05-5.66675E-06
 -1      7054 4.96979E-05 6.84032E-05-5.83991E-06
 -1      7055 4.96979E-05 6.84032E-05-6.01307E-06
 -1      7056 4.96979E-05 6.84032E-05-6.18623E-06
 -1      7057 4.96979E-05 6.84032E-05-6.35939E-06
 -1      7058 4.96979E-05 6.84032E-05-6.53255E-06
 -1      7059 4.96979E-05 6.84032E-05-6.70571E-06
 -1      7060 4.96979E-05 6.84032E-05-6.87887E-06
 -1      7061 4.96979E-05 6.84032E-05-7.05203E-06
 -1      7062 4.96979E-05 6.84032E-05-7.22519E-06
 -1      7063 3.83854E-05 7.53355E-05-5.66675E-06
 -1      7064 3.83854E-05 7.53355E-05-5.83991E-06
 -1      7065 3.83854E-05 7.53355E-05-6.01307E-06
 -1      7066 3.83854E-05 7.53355E-05-6.18623E-06
 -1      7067 3.83854E-05 7.53355E-05-6.35939E-06
 -1      7068 3.83854E-05 7.53355E-05-6.53255E-06
 -1      7069 3.83854E-05 7.53355E-05-6.70571E-06
 -1      7070 3.83854E-05 7.53355E-05-6.87887E-06
 -1      7071 3.83854E-05 7.53355E-05-7.05203E-06
 -1      7072 3.83854E-05 7.53355E-05-7.22519E-06
 -1      7073 2.61277E-05 8.04128E-05-5.66675E-06
 -1      7074 2.61277E-05 8.04128E-05-5.83991E-06
 -1      7075 2.61277E-05 8.04128E-05-6.01307E-06
 -1      7076 2.61277E-05 8.04128E-05-6.18623E-06
 -1      7077 2.61277E-05 8.04128E-05-6.35939E-06
 -1      7078 2.61277E-05 8.04128E-05-6.53255E-06
 -1      7079 2.61277E-05 8.04128E-05-6.70571E-06
 -1      7080 2.61277E-05 8.04128E-05-6.87887E-06
 -1      7081 2.61277E-05 8.04128E-05-7.05203E-06
 -1      7082 2.61277E-05 8.04128E-05-7.22519E-06
 -1      7083 1.32267E-05 8.35101E-05-5.66675E-06
 -1      7084 1.32267E-05 8.35101E-05-5.83991E-06
 -1      7085 1.32267E-05 8.35101E-05-6.01307E-06
 -1      7086 1.32267E-05 8.35101E-05-6.18623E-06
 -1      7087 1.32267E-05 8.35101E-05-6.35939E-06
 -1      7088 1.32267E-05 8.35101E-05-6.53255E-06
 -1      7089 1.32267E-05 8.35101E-05-6.70571E-06
 -1      7090 1.32267E-05 8.35101E-05-6.87887E-06
 -1      7091 1.32267E-05 8.35101E-05-7.05203E-06
 -1      7092 1.32267E-05 8.35101E-05-7.22519E-06
 -1      7093 8.11051E-05 1.28458E-05-5.66675E-06
 -1      7094 8.11051E-05 1.28458E-05-5.83991E-06
 -1      7095 8.11051E-05 1.28458E-05-6.01307E-06
 -1      7096 8.11051E-05 1.28458E-05-6.18623E-06
 -1      7097 8.11051E-05 1.28458E-05-6.35939E-06
 -1      7098 8.11051E-05 1.28458E-05-6.53255E-06
 -1      7099 8.11051E-05 1.28458E-05-6.70571E-06
 -1      7100 8.11051E-05 1.28458E-05-6.87887E-06
 -1      7101 8.11051E-05 1.28458E-05-7.05203E-06
 -1      7102 8.11051E-05 1.28458E-05-7.22519E-06
 -1      7103 7.80970E-05 2.53753E-05-5.66675E-06
 -1      7104 7.80970E-05 2.53753E-05-5.83991E-06
 -1      7105 7.80970E-05 2.53753E-05-6.01307E-06
 -1      7106 7.80970E-05 2.53753E-05-6.18623E-06
 -1      7107 7.80970E-05 2.53753E-05-6.35939E-06
 -1      7108 7.80970E-05 2.53753E-05-6.53255E-06
 -1      7109 7.80970E-05 2.53753E-05-6.70571E-06
 -1      7110 7.80970E-05 2.53753E-05-6.87887E-06
 -1      7111 7.80970E-05 2.53753E-05-7.05203E-06
 -1      7112 7.80970E-05 2.53753E-05-7.22519E-06
 -1      7113 7.31659E-05 3.72799E-05-5.66675E-06
 -1      7114 7.31659E-05 3.72799E-05-5.83991E-06
 -1      7115 7.31659E-05 3.72799E-05-6.01307E-06
 -1      7116 7.31659E-05 3.72799E-05-6.18623E-06
 -1      7117 7.31659E-05 3.72799E-05-6.35939E-06
 -1      7118 7.31659E-05 3.72799E-05-6.53255E-06
 -1      7119 7.31659E-05 3.72799E-05-6.70571E-06
 -1      7120 7.31659E-05 3.72799E-05-6.87887E-06
 -1      7121 7.31659E-05 3.72799E-05-7.05203E-06
 -1      7122 7.31659E-05 3.72799E-05-7.22519E-06
 -1      7123 6.64333E-05 4.82666E-05-5.66675E-06
 -1      7124 6.64333E-05 4.82666E-05-5.83991E-06
 -1      7125 6.64333E-05 4.82666E-05-6.01307E-06
 -1      7126 6.64333E-05 4.82666E-05-6.18623E-06
 -1      7127 6.64333E-05 4.82666E-05-6.35939E-06
 -1      7128 6.64333E-05 4.82666E-05-6.53255E-06
 -1      7129 6.64333E-05 4.82666E-05-6.70571E-06
 -1      7130 6.64333E-05 4.82666E-05-6.87887E-06
 -1      7131 6.64333E-05 4.82666E-05-7.05203E-06
 -1      7132 6.64333E-05 4.82666E-05-7.22519E-06
 -1      7133 5.80648E-05 5.80648E-05-5.66675E-06
 -1      7134 5.80648E-05 5.80648E-05-5.83991E-06
 -1      7135 5.80648E-05 5.80648E-05-6.01307E-06
 -1      7136 5.80648E-05 5.80648E-05-6.18623E-06
 -1      7137 5.80648E-05 5.80648E-05-6.35939E-06
 -1      7138 5.80648E-05 5.80648E-05-6.53255E-06
 -1      7139 5.80648E-05 5.80648E-05-6.70571E-06
 -1      7140 5.80648E-05 5.80648E-05-6.87887E-06
 -1      7141 5.80648E-05 5.80648E-05-7.05203E-06
 -1      7142 5.80648E-05 5.80648E-05-7.22519E-06
 -1      7143 4.82666E-05 6.64333E-05-5.66675E-06
 -1      7144 4.82666E-05 6.64333E-05-5.83991E-06
 -1      7145 4.82666E-05 6.64333E-05-6.01307E-06
 -1      7146 4.82666E-05 6.64333E-05-6.18623E-06
 -1      7147 4.82666E-05 6.64333E-05-6.35939E-06
 -1      7148 4.82666E-05 6.64333E-05-6.53255E-06
 -1      7149 4.82666E-05 6.64333E-05-6.70571E-06
 -1      7150 4.82666E-05 6.64333E-05-6.87887E-06
 -1      7151 4.82666E-05 6.64333E-05-7.05203E-06
 -1      7152 4.82666E-05 6.64333E-05-7.22519E-06
 -1      7153 3.72799E-05 7.31659E-05-5.66675E-06
 -1      7154 3.72799E-05 7.31659E-05-5.83991E-06
 -1      7155 3.72799E-05 7.31659E-05-6.01307E-06
 -1      7156 3.72799E-05 7.31659E-05-6.18623E-06
 -1      7157 3.72799E-05 7.31659E-05-6.35939E-06
 -1      7158 3.72799E-05 7.31659E-05-6.53255E-06
 -1      7159 3.72799E-05 7.31659E-05-6.70571E-06
 -1      7160 3.72799E-05 7.31659E-05-6.87887E-06
 -1      7161 3.72799E-05 7.31659E-05-7.05203E-06
 -1      7162 3.72799E-05 7.31659E-05-7.22519E-06
 -1      7163 2.53753E-05 7.80970E-05-5.66675E-06
 -1      7164 2.53753E-05 7.80970E-05-5.83991E-06
 -1      7165 2.53753E-05 7.80970E-05-6.01307E-06
 -1      7166 2.53753E-05 7.80970E-05-6.18623E-06
 -1      7167 2.53753E-05 7.80970E-05-6.35939E-06
 -1      7168 2.53753E-05 7.80970E-05-6.53255E-06
 -1      7169 2.53753E-05 7.80970E-05-6.70571E-06
 -1      7170 2.53753E-05 7.80970E-05-6.87887E-06
 -1      7171 2.53753E-05 7.80970E-05-7.05203E-06
 -1      7172 2.53753E-05 7.80970E-05-7.22519E-06
 -1      7173 1.28458E-05 8.11051E-05-5.66675E-06
 -1      7174 1.28458E-05 8.11051E-05-5.83991E-06
 -1      7175 1.28458E-05 8.11051E-05-6.01307E-06
 -1      7176 1.28458E-05 8.11051E-05-6.18623E-06
 -1      7177 1.28458E-05 8.11051E-05-6.35939E-06
 -1      7178 1.28458E-05 8.11051E-05-6.53255E-06
 -1      7179 1.28458E-05 8.11051E-05-6.70571E-06
 -1      7180 1.28458E-05 8.11051E-05-6.87887E-06
 -1      7181 1.28458E-05 8.11051E-05-7.05203E-06
 -1      7182 1.28458E-05 8.11051E-05-7.22519E-06
 -1      7183 7.89363E-05 1.25023E-05-5.66675E-06
 -1      7184 7.89363E-05 1.25023E-05-5.83991E-06
 -1      7185 7.89363E-05 1.25023E-05-6.01307E-06
 -1      7186 7.89363E-05 1.25023E-05-6.18623E-06
 -1      7187 7.89363E-05 1.25023E-05-6.35939E-06
 -1      7188 7.89363E-05 1.25023E-05-6.53255E-06
 -1      7189 7.89363E-05 1.25023E-05-6.70571E-06
 -1      7190 7.89363E-05 1.25023E-05-6.87887E-06
 -1      7191 7.89363E-05 1.25023E-05-7.05203E-06
 -1      7192 7.89363E-05 1.25023E-05-7.22519E-06
 -1      7193 7.60087E-05 2.46967E-05-5.66675E-06
 -1      7194 7.60087E-05 2.46967E-05-5.83991E-06
 -1      7195 7.60087E-05 2.46967E-05-6.01307E-06
 -1      7196 7.60087E-05 2.46967E-05-6.18623E-06
 -1      7197 7.60087E-05 2.46967E-05-6.35939E-06
 -1      7198 7.60087E-05 2.46967E-05-6.53255E-06
 -1      7199 7.60087E-05 2.46967E-05-6.70571E-06
 -1      7200 7.60087E-05 2.46967E-05-6.87887E-06
 -1      7201 7.60087E-05 2.46967E-05-7.05203E-06
 -1      7202 7.60087E-05 2.46967E-05-7.22519E-06
 -1      7203 7.12095E-05 3.62831E-05-5.66675E-06
 -1      7204 7.12095E-05 3.62831E-05-5.83991E-06
 -1      7205 7.12095E-05 3.62831E-05-6.01307E-06
 -1      7206 7.12095E-05 3.62831E-05-6.18623E-06
 -1      7207 7.12095E-05 3.62831E-05-6.35939E-06
 -1      7208 7.12095E-05 3.62831E-05-6.53255E-06
 -1      7209 7.12095E-05 3.62831E-05-6.70571E-06
 -1      7210 7.12095E-05 3.62831E-05-6.87887E-06
 -1      7211 7.12095E-05 3.62831E-05-7.05203E-06
 -1      7212 7.12095E-05 3.62831E-05-7.22519E-06
 -1      7213 6.46569E-05 4.69760E-05-5.66675E-06
 -1      7214 6.46569E-05 4.69760E-05-5.83991E-06
 -1      7215 6.46569E-05 4.69760E-05-6.01307E-06
 -1      7216 6.46569E-05 4.69760E-05-6.18623E-06
 -1      7217 6.46569E-05 4.69760E-05-6.35939E-06
 -1      7218 6.46569E-05 4.69760E-05-6.53255E-06
 -1      7219 6.46569E-05 4.69760E-05-6.70571E-06
 -1      7220 6.46569E-05 4.69760E-05-6.87887E-06
 -1      7221 6.46569E-05 4.69760E-05-7.05203E-06
 -1      7222 6.46569E-05 4.69760E-05-7.22519E-06
 -1      7223 5.65122E-05 5.65122E-05-5.66675E-06
 -1      7224 5.65122E-05 5.65122E-05-5.83991E-06
 -1      7225 5.65122E-05 5.65122E-05-6.01307E-06
 -1      7226 5.65122E-05 5.65122E-05-6.18623E-06
 -1      7227 5.65122E-05 5.65122E-05-6.35939E-06
 -1      7228 5.65122E-05 5.65122E-05-6.53255E-06
 -1      7229 5.65122E-05 5.65122E-05-6.70571E-06
 -1      7230 5.65122E-05 5.65122E-05-6.87887E-06
 -1      7231 5.65122E-05 5.65122E-05-7.05203E-06
 -1      7232 5.65122E-05 5.65122E-05-7.22519E-06
 -1      7233 4.69760E-05 6.46569E-05-5.66675E-06
 -1      7234 4.69760E-05 6.46569E-05-5.83991E-06
 -1      7235 4.69760E-05 6.46569E-05-6.01307E-06
 -1      7236 4.69760E-05 6.46569E-05-6.18623E-06
 -1      7237 4.69760E-05 6.46569E-05-6.35939E-06
 -1      7238 4.69760E-05 6.46569E-05-6.53255E-06
 -1      7239 4.69760E-05 6.46569E-05-6.70571E-06
 -1      7240 4.69760E-05 6.46569E-05-6.87887E-06
 -1      7241 4.69760E-05 6.46569E-05-7.05203E-06
 -1      7242 4.69760E-05 6.46569E-05-7.22519E-06
 -1      7243 3.62831E-05 7.12095E-05-5.66675E-06
 -1      7244 3.62831E-05 7.12095E-05-5.83991E-06
 -1      7245 3.62831E-05 7.12095E-05-6.01307E-06
 -1      7246 3.62831E-05 7.12095E-05-6.18623E-06
 -1      7247 3.62831E-05 7.12095E-05-6.35939E-06
 -1      7248 3.62831E-05 7.12095E-05-6.53255E-06
 -1      7249 3.62831E-05 7.12095E-05-6.70571E-06
 -1      7250 3.62831E-05 7.12095E-05-6.87887E-06
 -1      7251 3.62831E-05 7.12095E-05-7.05203E-06
 -1      7252 3.62831E-05 7.12095E-05-7.22519E-06
 -1      7253 2.46967E-05 7.60087E-05-5.66675E-06
 -1      7254 2.46967E-05 7.60087E-05-5.83991E-06
 -1      7255 2.46967E-05 7.60087E-05-6.01307E-06
 -1      7256 2.46967E-05 7.60087E-05-6.18623E-06
 -1      7257 2.46967E-05 7.60087E-05-6.35939E-06
 -1      7258 2.46967E-05 7.60087E-05-6.53255E-06
 -1      7259 2.46967E-05 7.60087E-05-6.70571E-06
 -1      7260 2.46967E-05 7.60087E-05-6.87887E-06
 -1      7261 2.46967E-05 7.60087E-05-7.05203E-06
 -1      7262 2.46967E-05 7.60087E-05-7.22519E-06
 -1      7263 1.25023E-05 7.89363E-05-5.66675E-06
 -1      7264 1.25023E-05 7.89363E-05-5.83991E-06
 -1      7265 1.25023E-05 7.89363E-05-6.01307E-06
 -1      7266 1.25023E-05 7.89363E-05-6.18623E-06
 -1      7267 1.25023E-05 7.89363E-05-6.35939E-06
 -1      7268 1.25023E-05 7.89363E-05-6.53255E-06
 -1      7269 1.25023E-05 7.89363E-05-6.70571E-06
 -1      7270 1.25023E-05 7.89363E-05-6.87887E-06
 -1      7271 1.25023E-05 7.89363E-05-7.05203E-06
 -1      7272 1.25023E-05 7.89363E-05-7.22519E-06
 -1      7273 7.69766E-05 1.21919E-05-5.66675E-06
 -1      7274 7.69766E-05 1.21919E-05-5.83991E-06
 -1      7275 7.69766E-05 1.21919E-05-6.01307E-06
 -1      7276 7.69766E-05 1.21919E-05-6.18623E-06
 -1      7277 7.69766E-05 1.21919E-05-6.35939E-06
 -1      7278 7.69766E-05 1.21919E-05-6.53255E-06
 -1      7279 7.69766E-05 1.21919E-05-6.70571E-06
 -1      7280 7.69766E-05 1.21919E-05-6.87887E-06
 -1      7281 7.69766E-05 1.21919E-05-7.05203E-06
 -1      7282 7.69766E-05 1.21919E-05-7.22519E-06
 -1      7283 7.41217E-05 2.40836E-05-5.66675E-06
 -1      7284 7.41217E-05 2.40836E-05-5.83991E-06
 -1      7285 7.41217E-05 2.40836E-05-6.01307E-06
 -1      7286 7.41217E-05 2.40836E-05-6.18623E-06
 -1      7287 7.41217E-05 2.40836E-05-6.35939E-06
 -1      7288 7.41217E-05 2.40836E-05-6.53255E-06
 -1      7289 7.41217E-05 2.40836E-05-6.70571E-06
 -1      7290 7.41217E-05 2.40836E-05-6.87887E-06
 -1      7291 7.41217E-05 2.40836E-05-7.05203E-06
 -1      7292 7.41217E-05 2.40836E-05-7.22519E-06
 -1      7293 6.94416E-05 3.53823E-05-5.66675E-06
 -1      7294 6.94416E-05 3.53823E-05-5.83991E-06
 -1      7295 6.94416E-05 3.53823E-05-6.01307E-06
 -1      7296 6.94416E-05 3.53823E-05-6.18623E-06
 -1      7297 6.94416E-05 3.53823E-05-6.35939E-06
 -1      7298 6.94416E-05 3.53823E-05-6.53255E-06
 -1      7299 6.94416E-05 3.53823E-05-6.70571E-06
 -1      7300 6.94416E-05 3.53823E-05-6.87887E-06
 -1      7301 6.94416E-05 3.53823E-05-7.05203E-06
 -1      7302 6.94416E-05 3.53823E-05-7.22519E-06
 -1      7303 6.30517E-05 4.58097E-05-5.66675E-06
 -1      7304 6.30517E-05 4.58097E-05-5.83991E-06
 -1      7305 6.30517E-05 4.58097E-05-6.01307E-06
 -1      7306 6.30517E-05 4.58097E-05-6.18623E-06
 -1      7307 6.30517E-05 4.58097E-05-6.35939E-06
 -1      7308 6.30517E-05 4.58097E-05-6.53255E-06
 -1      7309 6.30517E-05 4.58097E-05-6.70571E-06
 -1      7310 6.30517E-05 4.58097E-05-6.87887E-06
 -1      7311 6.30517E-05 4.58097E-05-7.05203E-06
 -1      7312 6.30517E-05 4.58097E-05-7.22519E-06
 -1      7313 5.51092E-05 5.51092E-05-5.66675E-06
 -1      7314 5.51092E-05 5.51092E-05-5.83991E-06
 -1      7315 5.51092E-05 5.51092E-05-6.01307E-06
 -1      7316 5.51092E-05 5.51092E-05-6.18623E-06
 -1      7317 5.51092E-05 5.51092E-05-6.35939E-06
 -1      7318 5.51092E-05 5.51092E-05-6.53255E-06
 -1      7319 5.51092E-05 5.51092E-05-6.70571E-06
 -1      7320 5.51092E-05 5.51092E-05-6.87887E-06
 -1      7321 5.51092E-05 5.51092E-05-7.05203E-06
 -1      7322 5.51092E-05 5.51092E-05-7.22519E-06
 -1      7323 4.58097E-05 6.30517E-05-5.66675E-06
 -1      7324 4.58097E-05 6.30517E-05-5.83991E-06
 -1      7325 4.58097E-05 6.30517E-05-6.01307E-06
 -1      7326 4.58097E-05 6.30517E-05-6.18623E-06
 -1      7327 4.58097E-05 6.30517E-05-6.35939E-06
 -1      7328 4.58097E-05 6.30517E-05-6.53255E-06
 -1      7329 4.58097E-05 6.30517E-05-6.70571E-06
 -1      7330 4.58097E-05 6.30517E-05-6.87887E-06
 -1      7331 4.58097E-05 6.30517E-05-7.05203E-06
 -1      7332 4.58097E-05 6.30517E-05-7.22519E-06
 -1      7333 3.53823E-05 6.94416E-05-5.66675E-06
 -1      7334 3.53823E-05 6.94416E-05-5.83991E-06
 -1      7335 3.53823E-05 6.94416E-05-6.01307E-06
 -1      7336 3.53823E-05 6.94416E-05-6.18623E-06
 -1      7337 3.53823E-05 6.94416E-05-6.35939E-06
 -1      7338 3.53823E-05 6.94416E-05-6.53255E-06
 -1      7339 3.53823E-05 6.94416E-05-6.70571E-06
 -1      7340 3.53823E-05 6.94416E-05-6.87887E-06
 -1      7341 3.53823E-05 6.94416E-05-7.05203E-06
 -1      7342 3.53823E-05 6.94416E-05-7.22519E-06
 -1      7343 2.40836E-05 7.41217E-05-5.66675E-06
 -1      7344 2.40836E-05 7.41217E-05-5.83991E-06
 -1      7345 2.40836E-05 7.41217E-05-6.01307E-06
 -1      7346 2.40836E-05 7.41217E-05-6.18623E-06
 -1      7347 2.40836E-05 7.41217E-05-6.35939E-06
 -1      7348 2.40836E-05 7.41217E-05-6.53255E-06
 -1      7349 2.40836E-05 7.41217E-05-6.70571E-06
 -1      7350 2.40836E-05 7.41217E-05-6.87887E-06
 -1      7351 2.40836E-05 7.41217E-05-7.05203E-06
 -1      7352 2.40836E-05 7.41217E-05-7.22519E-06
 -1      7353 1.21919E-05 7.69766E-05-5.66675E-06
 -1      7354 1.21919E-05 7.69766E-05-5.83991E-06
 -1      7355 1.21919E-05 7.69766E-05-6.01307E-06
 -1      7356 1.21919E-05 7.69766E-05-6.18623E-06
 -1      7357 1.21919E-05 7.69766E-05-6.35939E-06
 -1      7358 1.21919E-05 7.69766E-05-6.53255E-06
 -1      7359 1.21919E-05 7.69766E-05-6.70571E-06
 -1      7360 1.21919E-05 7.69766E-05-6.87887E-06
 -1      7361 1.21919E-05 7.69766E-05-7.05203E-06
 -1      7362 1.21919E-05 7.69766E-05-7.22519E-06
 -1      7363 7.52028E-05 1.19109E-05-5.66675E-06
 -1      7364 7.52028E-05 1.19109E-05-5.83991E-06
 -1      7365 7.52028E-05 1.19109E-05-6.01307E-06
 -1      7366 7.52028E-05 1.19109E-05-6.18623E-06
 -1      7367 7.52028E-05 1.19109E-05-6.35939E-06
 -1      7368 7.52028E-05 1.19109E-05-6.53255E-06
 -1      7369 7.52028E-05 1.19109E-05-6.70571E-06
 -1      7370 7.52028E-05 1.19109E-05-6.87887E-06
 -1      7371 7.52028E-05 1.19109E-05-7.05203E-06
 -1      7372 7.52028E-05 1.19109E-05-7.22519E-06
 -1      7373 7.24136E-05 2.35286E-05-5.66675E-06
 -1      7374 7.24136E-05 2.35286E-05-5.83991E-06
 -1      7375 7.24136E-05 2.35286E-05-6.01307E-06
 -1      7376 7.24136E-05 2.35286E-05-6.18623E-06
 -1      7377 7.24136E-05 2.35286E-05-6.35939E-06
 -1      7378 7.24136E-05 2.35286E-05-6.53255E-06
 -1      7379 7.24136E-05 2.35286E-05-6.70571E-06
 -1      7380 7.24136E-05 2.35286E-05-6.87887E-06
 -1      7381 7.24136E-05 2.35286E-05-7.05203E-06
 -1      7382 7.24136E-05 2.35286E-05-7.22519E-06
 -1      7383 6.78414E-05 3.45669E-05-5.66675E-06
 -1      7384 6.78414E-05 3.45669E-05-5.83991E-06
 -1      7385 6.78414E-05 3.45669E-05-6.01307E-06
 -1      7386 6.78414E-05 3.45669E-05-6.18623E-06
 -1      7387 6.78414E-05 3.45669E-05-6.35939E-06
 -1      7388 6.78414E-05 3.45669E-05-6.53255E-06
 -1      7389 6.78414E-05 3.45669E-05-6.70571E-06
 -1      7390 6.78414E-05 3.45669E-05-6.87887E-06
 -1      7391 6.78414E-05 3.45669E-05-7.05203E-06
 -1      7392 6.78414E-05 3.45669E-05-7.22519E-06
 -1      7393 6.15987E-05 4.47541E-05-5.66675E-06
 -1      7394 6.15987E-05 4.47541E-05-5.83991E-06
 -1      7395 6.15987E-05 4.47541E-05-6.01307E-06
 -1      7396 6.15987E-05 4.47541E-05-6.18623E-06
 -1      7397 6.15987E-05 4.47541E-05-6.35939E-06
 -1      7398 6.15987E-05 4.47541E-05-6.53255E-06
 -1      7399 6.15987E-05 4.47541E-05-6.70571E-06
 -1      7400 6.15987E-05 4.47541E-05-6.87887E-06
 -1      7401 6.15987E-05 4.47541E-05-7.05203E-06
 -1      7402 6.15987E-05 4.47541E-05-7.22519E-06
 -1      7403 5.38392E-05 5.38392E-05-5.66675E-06
 -1      7404 5.38392E-05 5.38392E-05-5.83991E-06
 -1      7405 5.38392E-05 5.38392E-05-6.01307E-06
 -1      7406 5.38392E-05 5.38392E-05-6.18623E-06
 -1      7407 5.38392E-05 5.38392E-05-6.35939E-06
 -1      7408 5.38392E-05 5.38392E-05-6.53255E-06
 -1      7409 5.38392E-05 5.38392E-05-6.70571E-06
 -1      7410 5.38392E-05 5.38392E-05-6.87887E-06
 -1      7411 5.38392E-05 5.38392E-05-7.05203E-06
 -1      7412 5.38392E-05 5.38392E-05-7.22519E-06
 -1      7413 4.47541E-05 6.15987E-05-5.66675E-06
 -1      7414 4.47541E-05 6.15987E-05-5.83991E-06
 -1      7415 4.47541E-05 6.15987E-05-6.01307E-06
 -1      7416 4.47541E-05 6.15987E-05-6.18623E-06
 -1      7417 4.47541E-05 6.15987E-05-6.35939E-06
 -1      7418 4.47541E-05 6.15987E-05-6.53255E-06
 -1      7419 4.47541E-05 6.15987E-05-6.70571E-06
 -1      7420 4.47541E-05 6.15987E-05-6.87887E-06
 -1      7421 4.47541E-05 6.15987E-05-7.05203E-06
 -1      7422 4.47541E-05 6.15987E-05-7.22519E-06
 -1      7423 3.45669E-05 6.78414E-05-5.66675E-06
 -1      7424 3.45669E-05 6.78414E-05-5.83991E-06
 -1      7425 3.45669E-05 6.78414E-05-6.01307E-06
 -1      7426 3.45669E-05 6.78414E-05-6.18623E-06
 -1      7427 3.45669E-05 6.78414E-05-6.35939E-06
 -1      7428 3.45669E-05 6.78414E-05-6.53255E-06
 -1      7429 3.45669E-05 6.78414E-05-6.70571E-06
 -1      7430 3.45669E-05 6.78414E-05-6.87887E-06
 -1      7431 3.45669E-05 6.78414E-05-7.05203E-06
 -1      7432 3.45669E-05 6.78414E-05-7.22519E-06
 -1      7433 2.35286E-05 7.24136E-05-5.66675E-06
 -1      7434 2.35286E-05 7.24136E-05-5.83991E-06
 -1      7435 2.35286E-05 7.24136E-05-6.01307E-06
 -1      7436 2.35286E-05 7.24136E-05-6.18623E-06
 -1      7437 2.35286E-05 7.24136E-05-6.35939E-06
 -1      7438 2.35286E-05 7.24136E-05-6.53255E-06
 -1      7439 2.35286E-05 7.24136E-05-6.70571E-06
 -1      7440 2.35286E-05 7.24136E-05-6.87887E-06
 -1      7441 2.35286E-05 7.24136E-05-7.05203E-06
 -1      7442 2.35286E-05 7.24136E-05-7.22519E-06
 -1      7443 1.19109E-05 7.52028E-05-5.66675E-06
 -1      7444 1.19109E-05 7.52028E-05-5.83991E-06
 -1      7445 1.19109E-05 7.52028E-05-6.01307E-06
 -1      7446 1.19109E-05 7.52028E-05-6.18623E-06
 -1      7447 1.19109E-05 7.52028E-05-6.35939E-06
 -1      7448 1.19109E-05 7.52028E-05-6.53255E-06
 -1      7449 1.19109E-05 7.52028E-05-6.70571E-06
 -1      7450 1.19109E-05 7.52028E-05-6.87887E-06
 -1      7451 1.19109E-05 7.52028E-05-7.05203E-06
 -1      7452 1.19109E-05 7.52028E-05-7.22519E-06
 -1      7453 7.35948E-05 1.16563E-05-5.66675E-06
 -1      7454 7.35948E-05 1.16563E-05-5.83991E-06
 -1      7455 7.35948E-05 1.16563E-05-6.01307E-06
 -1      7456 7.35948E-05 1.16563E-05-6.18623E-06
 -1      7457 7.35948E-05 1.16563E-05-6.35939E-06
 -1      7458 7.35948E-05 1.16563E-05-6.53255E-06
 -1      7459 7.35948E-05 1.16563E-05-6.70571E-06
 -1      7460 7.35948E-05 1.16563E-05-6.87887E-06
 -1      7461 7.35948E-05 1.16563E-05-7.05203E-06
 -1      7462 7.35948E-05 1.16563E-05-7.22519E-06
 -1      7463 7.08653E-05 2.30255E-05-5.66675E-06
 -1      7464 7.08653E-05 2.30255E-05-5.83991E-06
 -1      7465 7.08653E-05 2.30255E-05-6.01307E-06
 -1      7466 7.08653E-05 2.30255E-05-6.18623E-06
 -1      7467 7.08653E-05 2.30255E-05-6.35939E-06
 -1      7468 7.08653E-05 2.30255E-05-6.53255E-06
 -1      7469 7.08653E-05 2.30255E-05-6.70571E-06
 -1      7470 7.08653E-05 2.30255E-05-6.87887E-06
 -1      7471 7.08653E-05 2.30255E-05-7.05203E-06
 -1      7472 7.08653E-05 2.30255E-05-7.22519E-06
 -1      7473 6.63908E-05 3.38278E-05-5.66675E-06
 -1      7474 6.63908E-05 3.38278E-05-5.83991E-06
 -1      7475 6.63908E-05 3.38278E-05-6.01307E-06
 -1      7476 6.63908E-05 3.38278E-05-6.18623E-06
 -1      7477 6.63908E-05 3.38278E-05-6.35939E-06
 -1      7478 6.63908E-05 3.38278E-05-6.53255E-06
 -1      7479 6.63908E-05 3.38278E-05-6.70571E-06
 -1      7480 6.63908E-05 3.38278E-05-6.87887E-06
 -1      7481 6.63908E-05 3.38278E-05-7.05203E-06
 -1      7482 6.63908E-05 3.38278E-05-7.22519E-06
 -1      7483 6.02816E-05 4.37971E-05-5.66675E-06
 -1      7484 6.02816E-05 4.37971E-05-5.83991E-06
 -1      7485 6.02816E-05 4.37971E-05-6.01307E-06
 -1      7486 6.02816E-05 4.37971E-05-6.18623E-06
 -1      7487 6.02816E-05 4.37971E-05-6.35939E-06
 -1      7488 6.02816E-05 4.37971E-05-6.53255E-06
 -1      7489 6.02816E-05 4.37971E-05-6.70571E-06
 -1      7490 6.02816E-05 4.37971E-05-6.87887E-06
 -1      7491 6.02816E-05 4.37971E-05-7.05203E-06
 -1      7492 6.02816E-05 4.37971E-05-7.22519E-06
 -1      7493 5.26880E-05 5.26880E-05-5.66675E-06
 -1      7494 5.26880E-05 5.26880E-05-5.83991E-06
 -1      7495 5.26880E-05 5.26880E-05-6.01307E-06
 -1      7496 5.26880E-05 5.26880E-05-6.18623E-06
 -1      7497 5.26880E-05 5.26880E-05-6.35939E-06
 -1      7498 5.26880E-05 5.26880E-05-6.53255E-06
 -1      7499 5.26880E-05 5.26880E-05-6.70571E-06
 -1      7500 5.26880E-05 5.26880E-05-6.87887E-06
 -1      7501 5.26880E-05 5.26880E-05-7.05203E-06
 -1      7502 5.26880E-05 5.26880E-05-7.22519E-06
 -1      7503 4.37971E-05 6.02816E-05-5.66675E-06
 -1      7504 4.37971E-05 6.02816E-05-5.83991E-06
 -1      7505 4.37971E-05 6.02816E-05-6.01307E-06
 -1      7506 4.37971E-05 6.02816E-05-6.18623E-06
 -1      7507 4.37971E-05 6.02816E-05-6.35939E-06
 -1      7508 4.37971E-05 6.02816E-05-6.53255E-06
 -1      7509 4.37971E-05 6.02816E-05-6.70571E-06
 -1      7510 4.37971E-05 6.02816E-05-6.87887E-06
 -1      7511 4.37971E-05 6.02816E-05-7.05203E-06
 -1      7512 4.37971E-05 6.02816E-05-7.22519E-06
 -1      7513 3.38278E-05 6.63908E-05-5.66675E-06
 -1      7514 3.38278E-05 6.63908E-05-5.83991E-06
 -1      7515 3.38278E-05 6.63908E-05-6.01307E-06
 -1      7516 3.38278E-05 6.63908E-05-6.18623E-06
 -1      7517 3.38278E-05 6.63908E-05-6.35939E-06
 -1      7518 3.38278E-05 6.63908E-05-6.53255E-06
 -1      7519 3.38278E-05 6.63908E-05-6.70571E-06
 -1      7520 3.38278E-05 6.63908E-05-6.87887E-06
 -1      7521 3.38278E-05 6.63908E-05-7.05203E-06
 -1      7522 3.38278E-05 6.63908E-05-7.22519E-06
 -1      7523 2.30255E-05 7.08653E-05-5.66675E-06
 -1      7524 2.30255E-05 7.08653E-05-5.83991E-06
 -1      7525 2.30255E-05 7.08653E-05-6.01307E-06
 -1      7526 2.30255E-05 7.08653E-05-6.18623E-06
 -1      7527 2.30255E-05 7.08653E-05-6.35939E-06
 -1      7528 2.30255E-05 7.08653E-05-6.53255E-06
 -1      7529 2.30255E-05 7.08653E-05-6.70571E-06
 -1      7530 2.30255E-05 7.08653E-05-6.87887E-06
 -1      7531 2.30255E-05 7.08653E-05-7.05203E-06
 -1      7532 2.30255E-05 7.08653E-05-7.22519E-06
 -1      7533 1.16563E-05 7.35948E-05-5.66675E-06
 -1      7534 1.16563E-05 7.35948E-05-5.83991E-06
 -1      7535 1.16563E-05 7.35948E-05-6.01307E-06
 -1      7536 1.16563E-05 7.35948E-05-6.18623E-06
 -1      7537 1.16563E-05 7.35948E-05-6.35939E-06
 -1      7538 1.16563E-05 7.35948E-05-6.53255E-06
 -1      7539 1.16563E-05 7.35948E-05-6.70571E-06
 -1      7540 1.16563E-05 7.35948E-05-6.87887E-06
 -1      7541 1.16563E-05 7.35948E-05-7.05203E-06
 -1      7542 1.16563E-05 7.35948E-05-7.22519E-06
 -1      7543 7.21355E-05 1.14251E-05-5.66675E-06
 -1      7544 7.21355E-05 1.14251E-05-5.83991E-06
 -1      7545 7.21355E-05 1.14251E-05-6.01307E-06
 -1      7546 7.21355E-05 1.14251E-05-6.18623E-06
 -1      7547 7.21355E-05 1.14251E-05-6.35939E-06
 -1      7548 7.21355E-05 1.14251E-05-6.53255E-06
 -1      7549 7.21355E-05 1.14251E-05-6.70571E-06
 -1      7550 7.21355E-05 1.14251E-05-6.87887E-06
 -1      7551 7.21355E-05 1.14251E-05-7.05203E-06
 -1      7552 7.21355E-05 1.14251E-05-7.22519E-06
 -1      7553 6.94601E-05 2.25690E-05-5.66675E-06
 -1      7554 6.94601E-05 2.25690E-05-5.83991E-06
 -1      7555 6.94601E-05 2.25690E-05-6.01307E-06
 -1      7556 6.94601E-05 2.25690E-05-6.18623E-06
 -1      7557 6.94601E-05 2.25690E-05-6.35939E-06
 -1      7558 6.94601E-05 2.25690E-05-6.53255E-06
 -1      7559 6.94601E-05 2.25690E-05-6.70571E-06
 -1      7560 6.94601E-05 2.25690E-05-6.87887E-06
 -1      7561 6.94601E-05 2.25690E-05-7.05203E-06
 -1      7562 6.94601E-05 2.25690E-05-7.22519E-06
 -1      7563 6.50744E-05 3.31571E-05-5.66675E-06
 -1      7564 6.50744E-05 3.31571E-05-5.83991E-06
 -1      7565 6.50744E-05 3.31571E-05-6.01307E-06
 -1      7566 6.50744E-05 3.31571E-05-6.18623E-06
 -1      7567 6.50744E-05 3.31571E-05-6.35939E-06
 -1      7568 6.50744E-05 3.31571E-05-6.53255E-06
 -1      7569 6.50744E-05 3.31571E-05-6.70571E-06
 -1      7570 6.50744E-05 3.31571E-05-6.87887E-06
 -1      7571 6.50744E-05 3.31571E-05-7.05203E-06
 -1      7572 6.50744E-05 3.31571E-05-7.22519E-06
 -1      7573 5.90863E-05 4.29287E-05-5.66675E-06
 -1      7574 5.90863E-05 4.29287E-05-5.83991E-06
 -1      7575 5.90863E-05 4.29287E-05-6.01307E-06
 -1      7576 5.90863E-05 4.29287E-05-6.18623E-06
 -1      7577 5.90863E-05 4.29287E-05-6.35939E-06
 -1      7578 5.90863E-05 4.29287E-05-6.53255E-06
 -1      7579 5.90863E-05 4.29287E-05-6.70571E-06
 -1      7580 5.90863E-05 4.29287E-05-6.87887E-06
 -1      7581 5.90863E-05 4.29287E-05-7.05203E-06
 -1      7582 5.90863E-05 4.29287E-05-7.22519E-06
 -1      7583 5.16433E-05 5.16433E-05-5.66675E-06
 -1      7584 5.16433E-05 5.16433E-05-5.83991E-06
 -1      7585 5.16433E-05 5.16433E-05-6.01307E-06
 -1      7586 5.16433E-05 5.16433E-05-6.18623E-06
 -1      7587 5.16433E-05 5.16433E-05-6.35939E-06
 -1      7588 5.16433E-05 5.16433E-05-6.53255E-06
 -1      7589 5.16433E-05 5.16433E-05-6.70571E-06
 -1      7590 5.16433E-05 5.16433E-05-6.87887E-06
 -1      7591 5.16433E-05 5.16433E-05-7.05203E-06
 -1      7592 5.16433E-05 5.16433E-05-7.22519E-06
 -1      7593 4.29287E-05 5.90863E-05-5.66675E-06
 -1      7594 4.29287E-05 5.90863E-05-5.83991E-06
 -1      7595 4.29287E-05 5.90863E-05-6.01307E-06
 -1      7596 4.29287E-05 5.90863E-05-6.18623E-06
 -1      7597 4.29287E-05 5.90863E-05-6.35939E-06
 -1      7598 4.29287E-05 5.90863E-05-6.53255E-06
 -1      7599 4.29287E-05 5.90863E-05-6.70571E-06
 -1      7600 4.29287E-05 5.90863E-05-6.87887E-06
 -1      7601 4.29287E-05 5.90863E-05-7.05203E-06
 -1      7602 4.29287E-05 5.90863E-05-7.22519E-06
 -1      7603 3.31571E-05 6.50744E-05-5.66675E-06
 -1      7604 3.31571E-05 6.50744E-05-5.83991E-06
 -1      7605 3.31571E-05 6.50744E-05-6.01307E-06
 -1      7606 3.31571E-05 6.50744E-05-6.18623E-06
 -1      7607 3.31571E-05 6.50744E-05-6.35939E-06
 -1      7608 3.31571E-05 6.50744E-05-6.53255E-06
 -1      7609 3.31571E-05 6.50744E-05-6.70571E-06
 -1      7610 3.31571E-05 6.50744E-05-6.87887E-06
 -1      7611 3.31571E-05 6.50744E-05-7.05203E-06
 -1      7612 3.31571E-05 6.50744E-05-7.22519E-06
 -1      7613 2.25690E-05 6.94601E-05-5.66675E-06
 -1      7614 2.25690E-05 6.94601E-05-5.83991E-06
 -1      7615 2.25690E-05 6.94601E-05-6.01307E-06
 -1      7616 2.25690E-05 6.94601E-05-6.18623E-06
 -1      7617 2.25690E-05 6.94601E-05-6.35939E-06
 -1      7618 2.25690E-05 6.94601E-05-6.53255E-06
 -1      7619 2.25690E-05 6.94601E-05-6.70571E-06
 -1      7620 2.25690E-05 6.94601E-05-6.87887E-06
 -1      7621 2.25690E-05 6.94601E-05-7.05203E-06
 -1      7622 2.25690E-05 6.94601E-05-7.22519E-06
 -1      7623 1.14251E-05 7.21355E-05-5.66675E-06
 -1      7624 1.14251E-05 7.21355E-05-5.83991E-06
 -1      7625 1.14251E-05 7.21355E-05-6.01307E-06
 -1      7626 1.14251E-05 7.21355E-05-6.18623E-06
 -1      7627 1.14251E-05 7.21355E-05-6.35939E-06
 -1      7628 1.14251E-05 7.21355E-05-6.53255E-06
 -1      7629 1.14251E-05 7.21355E-05-6.70571E-06
 -1      7630 1.14251E-05 7.21355E-05-6.87887E-06
 -1      7631 1.14251E-05 7.21355E-05-7.05203E-06
 -1      7632 1.14251E-05 7.21355E-05-7.22519E-06
 -1      7633 7.08102E-05 1.12152E-05-5.66675E-06
 -1      7634 7.08102E-05 1.12152E-05-5.83991E-06
 -1      7635 7.08102E-05 1.12152E-05-6.01307E-06
 -1      7636 7.08102E-05 1.12152E-05-6.18623E-06
 -1      7637 7.08102E-05 1.12152E-05-6.35939E-06
 -1      7638 7.08102E-05 1.12152E-05-6.53255E-06
 -1      7639 7.08102E-05 1.12152E-05-6.70571E-06
 -1      7640 7.08102E-05 1.12152E-05-6.87887E-06
 -1      7641 7.08102E-05 1.12152E-05-7.05203E-06
 -1      7642 7.08102E-05 1.12152E-05-7.22519E-06
 -1      7643 6.81839E-05 2.21543E-05-5.66675E-06
 -1      7644 6.81839E-05 2.21543E-05-5.83991E-06
 -1      7645 6.81839E-05 2.21543E-05-6.01307E-06
 -1      7646 6.81839E-05 2.21543E-05-6.18623E-06
 -1      7647 6.81839E-05 2.21543E-05-6.35939E-06
 -1      7648 6.81839E-05 2.21543E-05-6.53255E-06
 -1      7649 6.81839E-05 2.21543E-05-6.70571E-06
 -1      7650 6.81839E-05 2.21543E-05-6.87887E-06
 -1      7651 6.81839E-05 2.21543E-05-7.05203E-06
 -1      7652 6.81839E-05 2.21543E-05-7.22519E-06
 -1      7653 6.38788E-05 3.25479E-05-5.66675E-06
 -1      7654 6.38788E-05 3.25479E-05-5.83991E-06
 -1      7655 6.38788E-05 3.25479E-05-6.01307E-06
 -1      7656 6.38788E-05 3.25479E-05-6.18623E-06
 -1      7657 6.38788E-05 3.25479E-05-6.35939E-06
 -1      7658 6.38788E-05 3.25479E-05-6.53255E-06
 -1      7659 6.38788E-05 3.25479E-05-6.70571E-06
 -1      7660 6.38788E-05 3.25479E-05-6.87887E-06
 -1      7661 6.38788E-05 3.25479E-05-7.05203E-06
 -1      7662 6.38788E-05 3.25479E-05-7.22519E-06
 -1      7663 5.80007E-05 4.21400E-05-5.66675E-06
 -1      7664 5.80007E-05 4.21400E-05-5.83991E-06
 -1      7665 5.80007E-05 4.21400E-05-6.01307E-06
 -1      7666 5.80007E-05 4.21400E-05-6.18623E-06
 -1      7667 5.80007E-05 4.21400E-05-6.35939E-06
 -1      7668 5.80007E-05 4.21400E-05-6.53255E-06
 -1      7669 5.80007E-05 4.21400E-05-6.70571E-06
 -1      7670 5.80007E-05 4.21400E-05-6.87887E-06
 -1      7671 5.80007E-05 4.21400E-05-7.05203E-06
 -1      7672 5.80007E-05 4.21400E-05-7.22519E-06
 -1      7673 5.06945E-05 5.06945E-05-5.66675E-06
 -1      7674 5.06945E-05 5.06945E-05-5.83991E-06
 -1      7675 5.06945E-05 5.06945E-05-6.01307E-06
 -1      7676 5.06945E-05 5.06945E-05-6.18623E-06
 -1      7677 5.06945E-05 5.06945E-05-6.35939E-06
 -1      7678 5.06945E-05 5.06945E-05-6.53255E-06
 -1      7679 5.06945E-05 5.06945E-05-6.70571E-06
 -1      7680 5.06945E-05 5.06945E-05-6.87887E-06
 -1      7681 5.06945E-05 5.06945E-05-7.05203E-06
 -1      7682 5.06945E-05 5.06945E-05-7.22519E-06
 -1      7683 4.21400E-05 5.80007E-05-5.66675E-06
 -1      7684 4.21400E-05 5.80007E-05-5.83991E-06
 -1      7685 4.21400E-05 5.80007E-05-6.01307E-06
 -1      7686 4.21400E-05 5.80007E-05-6.18623E-06
 -1      7687 4.21400E-05 5.80007E-05-6.35939E-06
 -1      7688 4.21400E-05 5.80007E-05-6.53255E-06
 -1      7689 4.21400E-05 5.80007E-05-6.70571E-06
 -1      7690 4.21400E-05 5.80007E-05-6.87887E-06
 -1      7691 4.21400E-05 5.80007E-05-7.05203E-06
 -1      7692 4.21400E-05 5.80007E-05-7.22519E-06
 -1      7693 3.25479E-05 6.38788E-05-5.66675E-06
 -1      7694 3.25479E-05 6.38788E-05-5.83991E-06
 -1      7695 3.25479E-05 6.38788E-05-6.01307E-06
 -1      7696 3.25479E-05 6.38788E-05-6.18623E-06
 -1      7697 3.25479E-05 6.38788E-05-6.35939E-06
 -1      7698 3.25479E-05 6.38788E-05-6.53255E-06
 -1      7699 3.25479E-05 6.38788E-05-6.70571E-06
 -1      7700 3.25479E-05 6.38788E-05-6.87887E-06
 -1      7701 3.25479E-05 6.38788E-05-7.05203E-06
 -1      7702 3.25479E-05 6.38788E-05-7.22519E-06
 -1      7703 2.21543E-05 6.81839E-05-5.66675E-06
 -1      7704 2.21543E-05 6.81839E-05-5.83991E-06
 -1      7705 2.21543E-05 6.81839E-05-6.01307E-06
 -1      7706 2.21543E-05 6.81839E-05-6.18623E-06
 -1      7707 2.21543E-05 6.81839E-05-6.35939E-06
 -1      7708 2.21543E-05 6.81839E-05-6.53255E-06
 -1      7709 2.21543E-05 6.81839E-05-6.70571E-06
 -1      7710 2.21543E-05 6.81839E-05-6.87887E-06
 -1      7711 2.21543E-05 6.81839E-05-7.05203E-06
 -1      7712 2.21543E-05 6.81839E-05-7.22519E-06
 -1      7713 1.12152E-05 7.08102E-05-5.66675E-06
 -1      7714 1.12152E-05 7.08102E-05-5.83991E-06
 -1      7715 1.12152E-05 7.08102E-05-6.01307E-06
 -1      7716 1.12152E-05 7.08102E-05-6.18623E-06
 -1      7717 1.12152E-05 7.08102E-05-6.35939E-06
 -1      7718 1.12152E-05 7.08102E-05-6.53255E-06
 -1      7719 1.12152E-05 7.08102E-05-6.70571E-06
 -1      7720 1.12152E-05 7.08102E-05-6.87887E-06
 -1      7721 1.12152E-05 7.08102E-05-7.05203E-06
 -1      7722 1.12152E-05 7.08102E-05-7.22519E-06
 -1      7723 6.96057E-05 1.10245E-05-5.66675E-06
 -1      7724 6.96057E-05 1.10245E-05-5.83991E-06
 -1      7725 6.96057E-05 1.10245E-05-6.01307E-06
 -1      7726 6.96057E-05 1.10245E-05-6.18623E-06
 -1      7727 6.96057E-05 1.10245E-05-6.35939E-06
 -1      7728 6.96057E-05 1.10245E-05-6.53255E-06
 -1      7729 6.96057E-05 1.10245E-05-6.70571E-06
 -1      7730 6.96057E-05 1.10245E-05-6.87887E-06
 -1      7731 6.96057E-05 1.10245E-05-7.05203E-06
 -1      7732 6.96057E-05 1.10245E-05-7.22519E-06
 -1      7733 6.70241E-05 2.17775E-05-5.66675E-06
 -1      7734 6.70241E-05 2.17775E-05-5.83991E-06
 -1      7735 6.70241E-05 2.17775E-05-6.01307E-06
 -1      7736 6.70241E-05 2.17775E-05-6.18623E-06
 -1      7737 6.70241E-05 2.17775E-05-6.35939E-06
 -1      7738 6.70241E-05 2.17775E-05-6.53255E-06
 -1      7739 6.70241E-05 2.17775E-05-6.70571E-06
 -1      7740 6.70241E-05 2.17775E-05-6.87887E-06
 -1      7741 6.70241E-05 2.17775E-05-7.05203E-06
 -1      7742 6.70241E-05 2.17775E-05-7.22519E-06
 -1      7743 6.27922E-05 3.19942E-05-5.66675E-06
 -1      7744 6.27922E-05 3.19942E-05-5.83991E-06
 -1      7745 6.27922E-05 3.19942E-05-6.01307E-06
 -1      7746 6.27922E-05 3.19942E-05-6.18623E-06
 -1      7747 6.27922E-05 3.19942E-05-6.35939E-06
 -1      7748 6.27922E-05 3.19942E-05-6.53255E-06
 -1      7749 6.27922E-05 3.19942E-05-6.70571E-06
 -1      7750 6.27922E-05 3.19942E-05-6.87887E-06
 -1      7751 6.27922E-05 3.19942E-05-7.05203E-06
 -1      7752 6.27922E-05 3.19942E-05-7.22519E-06
 -1      7753 5.70141E-05 4.14232E-05-5.66675E-06
 -1      7754 5.70141E-05 4.14232E-05-5.83991E-06
 -1      7755 5.70141E-05 4.14232E-05-6.01307E-06
 -1      7756 5.70141E-05 4.14232E-05-6.18623E-06
 -1      7757 5.70141E-05 4.14232E-05-6.35939E-06
 -1      7758 5.70141E-05 4.14232E-05-6.53255E-06
 -1      7759 5.70141E-05 4.14232E-05-6.70571E-06
 -1      7760 5.70141E-05 4.14232E-05-6.87887E-06
 -1      7761 5.70141E-05 4.14232E-05-7.05203E-06
 -1      7762 5.70141E-05 4.14232E-05-7.22519E-06
 -1      7763 4.98322E-05 4.98322E-05-5.66675E-06
 -1      7764 4.98322E-05 4.98322E-05-5.83991E-06
 -1      7765 4.98322E-05 4.98322E-05-6.01307E-06
 -1      7766 4.98322E-05 4.98322E-05-6.18623E-06
 -1      7767 4.98322E-05 4.98322E-05-6.35939E-06
 -1      7768 4.98322E-05 4.98322E-05-6.53255E-06
 -1      7769 4.98322E-05 4.98322E-05-6.70571E-06
 -1      7770 4.98322E-05 4.98322E-05-6.87887E-06
 -1      7771 4.98322E-05 4.98322E-05-7.05203E-06
 -1      7772 4.98322E-05 4.98322E-05-7.22519E-06
 -1      7773 4.14232E-05 5.70141E-05-5.66675E-06
 -1      7774 4.14232E-05 5.70141E-05-5.83991E-06
 -1      7775 4.14232E-05 5.70141E-05-6.01307E-06
 -1      7776 4.14232E-05 5.70141E-05-6.18623E-06
 -1      7777 4.14232E-05 5.70141E-05-6.35939E-06
 -1      7778 4.14232E-05 5.70141E-05-6.53255E-06
 -1      7779 4.14232E-05 5.70141E-05-6.70571E-06
 -1      7780 4.14232E-05 5.70141E-05-6.87887E-06
 -1      7781 4.14232E-05 5.70141E-05-7.05203E-06
 -1      7782 4.14232E-05 5.70141E-05-7.22519E-06
 -1      7783 3.19942E-05 6.27922E-05-5.66675E-06
 -1      7784 3.19942E-05 6.27922E-05-5.83991E-06
 -1      7785 3.19942E-05 6.27922E-05-6.01307E-06
 -1      7786 3.19942E-05 6.27922E-05-6.18623E-06
 -1      7787 3.19942E-05 6.27922E-05-6.35939E-06
 -1      7788 3.19942E-05 6.27922E-05-6.53255E-06
 -1      7789 3.19942E-05 6.27922E-05-6.70571E-06
 -1      7790 3.19942E-05 6.27922E-05-6.87887E-06
 -1      7791 3.19942E-05 6.27922E-05-7.05203E-06
 -1      7792 3.19942E-05 6.27922E-05-7.22519E-06
 -1      7793 2.17775E-05 6.70241E-05-5.66675E-06
 -1      7794 2.17775E-05 6.70241E-05-5.83991E-06
 -1      7795 2.17775E-05 6.70241E-05-6.01307E-06
 -1      7796 2.17775E-05 6.70241E-05-6.18623E-06
 -1      7797 2.17775E-05 6.70241E-05-6.35939E-06
 -1      7798 2.17775E-05 6.70241E-05-6.53255E-06
 -1      7799 2.17775E-05 6.70241E-05-6.70571E-06
 -1      7800 2.17775E-05 6.70241E-05-6.87887E-06
 -1      7801 2.17775E-05 6.70241E-05-7.05203E-06
 -1      7802 2.17775E-05 6.70241E-05-7.22519E-06
 -1      7803 1.10245E-05 6.96057E-05-5.66675E-06
 -1      7804 1.10245E-05 6.96057E-05-5.83991E-06
 -1      7805 1.10245E-05 6.96057E-05-6.01307E-06
 -1      7806 1.10245E-05 6.96057E-05-6.18623E-06
 -1      7807 1.10245E-05 6.96057E-05-6.35939E-06
 -1      7808 1.10245E-05 6.96057E-05-6.53255E-06
 -1      7809 1.10245E-05 6.96057E-05-6.70571E-06
 -1      7810 1.10245E-05 6.96057E-05-6.87887E-06
 -1      7811 1.10245E-05 6.96057E-05-7.05203E-06
 -1      7812 1.10245E-05 6.96057E-05-7.22519E-06
 -1      7813 6.85108E-05 1.08510E-05-5.66675E-06
 -1      7814 6.85108E-05 1.08510E-05-5.83991E-06
 -1      7815 6.85108E-05 1.08510E-05-6.01307E-06
 -1      7816 6.85108E-05 1.08510E-05-6.18623E-06
 -1      7817 6.85108E-05 1.08510E-05-6.35939E-06
 -1      7818 6.85108E-05 1.08510E-05-6.53255E-06
 -1      7819 6.85108E-05 1.08510E-05-6.70571E-06
 -1      7820 6.85108E-05 1.08510E-05-6.87887E-06
 -1      7821 6.85108E-05 1.08510E-05-7.05203E-06
 -1      7822 6.85108E-05 1.08510E-05-7.22519E-06
 -1      7823 6.59698E-05 2.14349E-05-5.66675E-06
 -1      7824 6.59698E-05 2.14349E-05-5.83991E-06
 -1      7825 6.59698E-05 2.14349E-05-6.01307E-06
 -1      7826 6.59698E-05 2.14349E-05-6.18623E-06
 -1      7827 6.59698E-05 2.14349E-05-6.35939E-06
 -1      7828 6.59698E-05 2.14349E-05-6.53255E-06
 -1      7829 6.59698E-05 2.14349E-05-6.70571E-06
 -1      7830 6.59698E-05 2.14349E-05-6.87887E-06
 -1      7831 6.59698E-05 2.14349E-05-7.05203E-06
 -1      7832 6.59698E-05 2.14349E-05-7.22519E-06
 -1      7833 6.18045E-05 3.14910E-05-5.66675E-06
 -1      7834 6.18045E-05 3.14910E-05-5.83991E-06
 -1      7835 6.18045E-05 3.14910E-05-6.01307E-06
 -1      7836 6.18045E-05 3.14910E-05-6.18623E-06
 -1      7837 6.18045E-05 3.14910E-05-6.35939E-06
 -1      7838 6.18045E-05 3.14910E-05-6.53255E-06
 -1      7839 6.18045E-05 3.14910E-05-6.70571E-06
 -1      7840 6.18045E-05 3.14910E-05-6.87887E-06
 -1      7841 6.18045E-05 3.14910E-05-7.05203E-06
 -1      7842 6.18045E-05 3.14910E-05-7.22519E-06
 -1      7843 5.61173E-05 4.07716E-05-5.66675E-06
 -1      7844 5.61173E-05 4.07716E-05-5.83991E-06
 -1      7845 5.61173E-05 4.07716E-05-6.01307E-06
 -1      7846 5.61173E-05 4.07716E-05-6.18623E-06
 -1      7847 5.61173E-05 4.07716E-05-6.35939E-06
 -1      7848 5.61173E-05 4.07716E-05-6.53255E-06
 -1      7849 5.61173E-05 4.07716E-05-6.70571E-06
 -1      7850 5.61173E-05 4.07716E-05-6.87887E-06
 -1      7851 5.61173E-05 4.07716E-05-7.05203E-06
 -1      7852 5.61173E-05 4.07716E-05-7.22519E-06
 -1      7853 4.90483E-05 4.90483E-05-5.66675E-06
 -1      7854 4.90483E-05 4.90483E-05-5.83991E-06
 -1      7855 4.90483E-05 4.90483E-05-6.01307E-06
 -1      7856 4.90483E-05 4.90483E-05-6.18623E-06
 -1      7857 4.90483E-05 4.90483E-05-6.35939E-06
 -1      7858 4.90483E-05 4.90483E-05-6.53255E-06
 -1      7859 4.90483E-05 4.90483E-05-6.70571E-06
 -1      7860 4.90483E-05 4.90483E-05-6.87887E-06
 -1      7861 4.90483E-05 4.90483E-05-7.05203E-06
 -1      7862 4.90483E-05 4.90483E-05-7.22519E-06
 -1      7863 4.07716E-05 5.61173E-05-5.66675E-06
 -1      7864 4.07716E-05 5.61173E-05-5.83991E-06
 -1      7865 4.07716E-05 5.61173E-05-6.01307E-06
 -1      7866 4.07716E-05 5.61173E-05-6.18623E-06
 -1      7867 4.07716E-05 5.61173E-05-6.35939E-06
 -1      7868 4.07716E-05 5.61173E-05-6.53255E-06
 -1      7869 4.07716E-05 5.61173E-05-6.70571E-06
 -1      7870 4.07716E-05 5.61173E-05-6.87887E-06
 -1      7871 4.07716E-05 5.61173E-05-7.05203E-06
 -1      7872 4.07716E-05 5.61173E-05-7.22519E-06
 -1      7873 3.14910E-05 6.18045E-05-5.66675E-06
 -1      7874 3.14910E-05 6.18045E-05-5.83991E-06
 -1      7875 3.14910E-05 6.18045E-05-6.01307E-06
 -1      7876 3.14910E-05 6.18045E-05-6.18623E-06
 -1      7877 3.14910E-05 6.18045E-05-6.35939E-06
 -1      7878 3.14910E-05 6.18045E-05-6.53255E-06
 -1      7879 3.14910E-05 6.18045E-05-6.70571E-06
 -1      7880 3.14910E-05 6.18045E-05-6.87887E-06
 -1      7881 3.14910E-05 6.18045E-05-7.05203E-06
 -1      7882 3.14910E-05 6.18045E-05-7.22519E-06
 -1      7883 2.14349E-05 6.59698E-05-5.66675E-06
 -1      7884 2.14349E-05 6.59698E-05-5.83991E-06
 -1      7885 2.14349E-05 6.59698E-05-6.01307E-06
 -1      7886 2.14349E-05 6.59698E-05-6.18623E-06
 -1      7887 2.14349E-05 6.59698E-05-6.35939E-06
 -1      7888 2.14349E-05 6.59698E-05-6.53255E-06
 -1      7889 2.14349E-05 6.59698E-05-6.70571E-06
 -1      7890 2.14349E-05 6.59698E-05-6.87887E-06
 -1      7891 2.14349E-05 6.59698E-05-7.05203E-06
 -1      7892 2.14349E-05 6.59698E-05-7.22519E-06
 -1      7893 1.08510E-05 6.85108E-05-5.66675E-06
 -1      7894 1.08510E-05 6.85108E-05-5.83991E-06
 -1      7895 1.08510E-05 6.85108E-05-6.01307E-06
 -1      7896 1.08510E-05 6.85108E-05-6.18623E-06
 -1      7897 1.08510E-05 6.85108E-05-6.35939E-06
 -1      7898 1.08510E-05 6.85108E-05-6.53255E-06
 -1      7899 1.08510E-05 6.85108E-05-6.70571E-06
 -1      7900 1.08510E-05 6.85108E-05-6.87887E-06
 -1      7901 1.08510E-05 6.85108E-05-7.05203E-06
 -1      7902 1.08510E-05 6.85108E-05-7.22519E-06
 -1      7903 6.75155E-05 1.06934E-05-5.66675E-06
 -1      7904 6.75155E-05 1.06934E-05-5.83991E-06
 -1      7905 6.75155E-05 1.06934E-05-6.01307E-06
 -1      7906 6.75155E-05 1.06934E-05-6.18623E-06
 -1      7907 6.75155E-05 1.06934E-05-6.35939E-06
 -1      7908 6.75155E-05 1.06934E-05-6.53255E-06
 -1      7909 6.75155E-05 1.06934E-05-6.70571E-06
 -1      7910 6.75155E-05 1.06934E-05-6.87887E-06
 -1      7911 6.75155E-05 1.06934E-05-7.05203E-06
 -1      7912 6.75155E-05 1.06934E-05-7.22519E-06
 -1      7913 6.50115E-05 2.11235E-05-5.66675E-06
 -1      7914 6.50115E-05 2.11235E-05-5.83991E-06
 -1      7915 6.50115E-05 2.11235E-05-6.01307E-06
 -1      7916 6.50115E-05 2.11235E-05-6.18623E-06
 -1      7917 6.50115E-05 2.11235E-05-6.35939E-06
 -1      7918 6.50115E-05 2.11235E-05-6.53255E-06
 -1      7919 6.50115E-05 2.11235E-05-6.70571E-06
 -1      7920 6.50115E-05 2.11235E-05-6.87887E-06
 -1      7921 6.50115E-05 2.11235E-05-7.05203E-06
 -1      7922 6.50115E-05 2.11235E-05-7.22519E-06
 -1      7923 6.09066E-05 3.10335E-05-5.66675E-06
 -1      7924 6.09066E-05 3.10335E-05-5.83991E-06
 -1      7925 6.09066E-05 3.10335E-05-6.01307E-06
 -1      7926 6.09066E-05 3.10335E-05-6.18623E-06
 -1      7927 6.09066E-05 3.10335E-05-6.35939E-06
 -1      7928 6.09066E-05 3.10335E-05-6.53255E-06
 -1      7929 6.09066E-05 3.10335E-05-6.70571E-06
 -1      7930 6.09066E-05 3.10335E-05-6.87887E-06
 -1      7931 6.09066E-05 3.10335E-05-7.05203E-06
 -1      7932 6.09066E-05 3.10335E-05-7.22519E-06
 -1      7933 5.53021E-05 4.01793E-05-5.66675E-06
 -1      7934 5.53021E-05 4.01793E-05-5.83991E-06
 -1      7935 5.53021E-05 4.01793E-05-6.01307E-06
 -1      7936 5.53021E-05 4.01793E-05-6.18623E-06
 -1      7937 5.53021E-05 4.01793E-05-6.35939E-06
 -1      7938 5.53021E-05 4.01793E-05-6.53255E-06
 -1      7939 5.53021E-05 4.01793E-05-6.70571E-06
 -1      7940 5.53021E-05 4.01793E-05-6.87887E-06
 -1      7941 5.53021E-05 4.01793E-05-7.05203E-06
 -1      7942 5.53021E-05 4.01793E-05-7.22519E-06
 -1      7943 4.83358E-05 4.83358E-05-5.66675E-06
 -1      7944 4.83358E-05 4.83358E-05-5.83991E-06
 -1      7945 4.83358E-05 4.83358E-05-6.01307E-06
 -1      7946 4.83358E-05 4.83358E-05-6.18623E-06
 -1      7947 4.83358E-05 4.83358E-05-6.35939E-06
 -1      7948 4.83358E-05 4.83358E-05-6.53255E-06
 -1      7949 4.83358E-05 4.83358E-05-6.70571E-06
 -1      7950 4.83358E-05 4.83358E-05-6.87887E-06
 -1      7951 4.83358E-05 4.83358E-05-7.05203E-06
 -1      7952 4.83358E-05 4.83358E-05-7.22519E-06
 -1      7953 4.01793E-05 5.53021E-05-5.66675E-06
 -1      7954 4.01793E-05 5.53021E-05-5.83991E-06
 -1      7955 4.01793E-05 5.53021E-05-6.01307E-06
 -1      7956 4.01793E-05 5.53021E-05-6.18623E-06
 -1      7957 4.01793E-05 5.53021E-05-6.35939E-06
 -1      7958 4.01793E-05 5.53021E-05-6.53255E-06
 -1      7959 4.01793E-05 5.53021E-05-6.70571E-06
 -1      7960 4.01793E-05 5.53021E-05-6.87887E-06
 -1      7961 4.01793E-05 5.53021E-05-7.05203E-06
 -1      7962 4.01793E-05 5.53021E-05-7.22519E-06
 -1      7963 3.10335E-05 6.09066E-05-5.66675E-06
 -1      7964 3.10335E-05 6.09066E-05-5.83991E-06
 -1      7965 3.10335E-05 6.09066E-05-6.01307E-06
 -1      7966 3.10335E-05 6.09066E-05-6.18623E-06
 -1      7967 3.10335E-05 6.09066E-05-6.35939E-06
 -1      7968 3.10335E-05 6.09066E-05-6.53255E-06
 -1      7969 3.10335E-05 6.09066E-05-6.70571E-06
 -1      7970 3.10335E-05 6.09066E-05-6.87887E-06
 -1      7971 3.10335E-05 6.09066E-05-7.05203E-06
 -1      7972 3.10335E-05 6.09066E-05-7.22519E-06
 -1      7973 2.11235E-05 6.50115E-05-5.66675E-06
 -1      7974 2.11235E-05 6.50115E-05-5.83991E-06
 -1      7975 2.11235E-05 6.50115E-05-6.01307E-06
 -1      7976 2.11235E-05 6.50115E-05-6.18623E-06
 -1      7977 2.11235E-05 6.50115E-05-6.35939E-06
 -1      7978 2.11235E-05 6.50115E-05-6.53255E-06
 -1      7979 2.11235E-05 6.50115E-05-6.70571E-06
 -1      7980 2.11235E-05 6.50115E-05-6.87887E-06
 -1      7981 2.11235E-05 6.50115E-05-7.05203E-06
 -1      7982 2.11235E-05 6.50115E-05-7.22519E-06
 -1      7983 1.06934E-05 6.75155E-05-5.66675E-06
 -1      7984 1.06934E-05 6.75155E-05-5.83991E-06
 -1      7985 1.06934E-05 6.75155E-05-6.01307E-06
 -1      7986 1.06934E-05 6.75155E-05-6.18623E-06
 -1      7987 1.06934E-05 6.75155E-05-6.35939E-06
 -1      7988 1.06934E-05 6.75155E-05-6.53255E-06
 -1      7989 1.06934E-05 6.75155E-05-6.70571E-06
 -1      7990 1.06934E-05 6.75155E-05-6.87887E-06
 -1      7991 1.06934E-05 6.75155E-05-7.05203E-06
 -1      7992 1.06934E-05 6.75155E-05-7.22519E-06
 -1      7993 6.66110E-05 1.05502E-05-5.66675E-06
 -1      7994 6.66110E-05 1.05502E-05-5.83991E-06
 -1      7995 6.66110E-05 1.05502E-05-6.01307E-06
 -1      7996 6.66110E-05 1.05502E-05-6.18623E-06
 -1      7997 6.66110E-05 1.05502E-05-6.35939E-06
 -1      7998 6.66110E-05 1.05502E-05-6.53255E-06
 -1      7999 6.66110E-05 1.05502E-05-6.70571E-06
 -1      8000 6.66110E-05 1.05502E-05-6.87887E-06
 -1      8001 6.66110E-05 1.05502E-05-7.05203E-06
 -1      8002 6.66110E-05 1.05502E-05-7.22519E-06
 -1      8003 6.41405E-05 2.08405E-05-5.66675E-06
 -1      8004 6.41405E-05 2.08405E-05-5.83991E-06
 -1      8005 6.41405E-05 2.08405E-05-6.01307E-06
 -1      8006 6.41405E-05 2.08405E-05-6.18623E-06
 -1      8007 6.41405E-05 2.08405E-05-6.35939E-06
 -1      8008 6.41405E-05 2.08405E-05-6.53255E-06
 -1      8009 6.41405E-05 2.08405E-05-6.70571E-06
 -1      8010 6.41405E-05 2.08405E-05-6.87887E-06
 -1      8011 6.41405E-05 2.08405E-05-7.05203E-06
 -1      8012 6.41405E-05 2.08405E-05-7.22519E-06
 -1      8013 6.00907E-05 3.06177E-05-5.66675E-06
 -1      8014 6.00907E-05 3.06177E-05-5.83991E-06
 -1      8015 6.00907E-05 3.06177E-05-6.01307E-06
 -1      8016 6.00907E-05 3.06177E-05-6.18623E-06
 -1      8017 6.00907E-05 3.06177E-05-6.35939E-06
 -1      8018 6.00907E-05 3.06177E-05-6.53255E-06
 -1      8019 6.00907E-05 3.06177E-05-6.70571E-06
 -1      8020 6.00907E-05 3.06177E-05-6.87887E-06
 -1      8021 6.00907E-05 3.06177E-05-7.05203E-06
 -1      8022 6.00907E-05 3.06177E-05-7.22519E-06
 -1      8023 5.45612E-05 3.96410E-05-5.66675E-06
 -1      8024 5.45612E-05 3.96410E-05-5.83991E-06
 -1      8025 5.45612E-05 3.96410E-05-6.01307E-06
 -1      8026 5.45612E-05 3.96410E-05-6.18623E-06
 -1      8027 5.45612E-05 3.96410E-05-6.35939E-06
 -1      8028 5.45612E-05 3.96410E-05-6.53255E-06
 -1      8029 5.45612E-05 3.96410E-05-6.70571E-06
 -1      8030 5.45612E-05 3.96410E-05-6.87887E-06
 -1      8031 5.45612E-05 3.96410E-05-7.05203E-06
 -1      8032 5.45612E-05 3.96410E-05-7.22519E-06
 -1      8033 4.76882E-05 4.76882E-05-5.66675E-06
 -1      8034 4.76882E-05 4.76882E-05-5.83991E-06
 -1      8035 4.76882E-05 4.76882E-05-6.01307E-06
 -1      8036 4.76882E-05 4.76882E-05-6.18623E-06
 -1      8037 4.76882E-05 4.76882E-05-6.35939E-06
 -1      8038 4.76882E-05 4.76882E-05-6.53255E-06
 -1      8039 4.76882E-05 4.76882E-05-6.70571E-06
 -1      8040 4.76882E-05 4.76882E-05-6.87887E-06
 -1      8041 4.76882E-05 4.76882E-05-7.05203E-06
 -1      8042 4.76882E-05 4.76882E-05-7.22519E-06
 -1      8043 3.96410E-05 5.45612E-05-5.66675E-06
 -1      8044 3.96410E-05 5.45612E-05-5.83991E-06
 -1      8045 3.96410E-05 5.45612E-05-6.01307E-06
 -1      8046 3.96410E-05 5.45612E-05-6.18623E-06
 -1      8047 3.96410E-05 5.45612E-05-6.35939E-06
 -1      8048 3.96410E-05 5.45612E-05-6.53255E-06
 -1      8049 3.96410E-05 5.45612E-05-6.70571E-06
 -1      8050 3.96410E-05 5.45612E-05-6.87887E-06
 -1      8051 3.96410E-05 5.45612E-05-7.05203E-06
 -1      8052 3.96410E-05 5.45612E-05-7.22519E-06
 -1      8053 3.06177E-05 6.00907E-05-5.66675E-06
 -1      8054 3.06177E-05 6.00907E-05-5.83991E-06
 -1      8055 3.06177E-05 6.00907E-05-6.01307E-06
 -1      8056 3.06177E-05 6.00907E-05-6.18623E-06
 -1      8057 3.06177E-05 6.00907E-05-6.35939E-06
 -1      8058 3.06177E-05 6.00907E-05-6.53255E-06
 -1      8059 3.06177E-05 6.00907E-05-6.70571E-06
 -1      8060 3.06177E-05 6.00907E-05-6.87887E-06
 -1      8061 3.06177E-05 6.00907E-05-7.05203E-06
 -1      8062 3.06177E-05 6.00907E-05-7.22519E-06
 -1      8063 2.08405E-05 6.41405E-05-5.66675E-06
 -1      8064 2.08405E-05 6.41405E-05-5.83991E-06
 -1      8065 2.08405E-05 6.41405E-05-6.01307E-06
 -1      8066 2.08405E-05 6.41405E-05-6.18623E-06
 -1      8067 2.08405E-05 6.41405E-05-6.35939E-06
 -1      8068 2.08405E-05 6.41405E-05-6.53255E-06
 -1      8069 2.08405E-05 6.41405E-05-6.70571E-06
 -1      8070 2.08405E-05 6.41405E-05-6.87887E-06
 -1      8071 2.08405E-05 6.41405E-05-7.05203E-06
 -1      8072 2.08405E-05 6.41405E-05-7.22519E-06
 -1      8073 1.05502E-05 6.66110E-05-5.66675E-06
 -1      8074 1.05502E-05 6.66110E-05-5.83991E-06
 -1      8075 1.05502E-05 6.66110E-05-6.01307E-06
 -1      8076 1.05502E-05 6.66110E-05-6.18623E-06
 -1      8077 1.05502E-05 6.66110E-05-6.35939E-06
 -1      8078 1.05502E-05 6.66110E-05-6.53255E-06
 -1      8079 1.05502E-05 6.66110E-05-6.70571E-06
 -1      8080 1.05502E-05 6.66110E-05-6.87887E-06
 -1      8081 1.05502E-05 6.66110E-05-7.05203E-06
 -1      8082 1.05502E-05 6.66110E-05-7.22519E-06
 -1      8083 6.57897E-05 1.04201E-05-5.66675E-06
 -1      8084 6.57897E-05 1.04201E-05-5.83991E-06
 -1      8085 6.57897E-05 1.04201E-05-6.01307E-06
 -1      8086 6.57897E-05 1.04201E-05-6.18623E-06
 -1      8087 6.57897E-05 1.04201E-05-6.35939E-06
 -1      8088 6.57897E-05 1.04201E-05-6.53255E-06
 -1      8089 6.57897E-05 1.04201E-05-6.70571E-06
 -1      8090 6.57897E-05 1.04201E-05-6.87887E-06
 -1      8091 6.57897E-05 1.04201E-05-7.05203E-06
 -1      8092 6.57897E-05 1.04201E-05-7.22519E-06
 -1      8093 6.33496E-05 2.05835E-05-5.66675E-06
 -1      8094 6.33496E-05 2.05835E-05-5.83991E-06
 -1      8095 6.33496E-05 2.05835E-05-6.01307E-06
 -1      8096 6.33496E-05 2.05835E-05-6.18623E-06
 -1      8097 6.33496E-05 2.05835E-05-6.35939E-06
 -1      8098 6.33496E-05 2.05835E-05-6.53255E-06
 -1      8099 6.33496E-05 2.05835E-05-6.70571E-06
 -1      8100 6.33496E-05 2.05835E-05-6.87887E-06
 -1      8101 6.33496E-05 2.05835E-05-7.05203E-06
 -1      8102 6.33496E-05 2.05835E-05-7.22519E-06
 -1      8103 5.93497E-05 3.02402E-05-5.66675E-06
 -1      8104 5.93497E-05 3.02402E-05-5.83991E-06
 -1      8105 5.93497E-05 3.02402E-05-6.01307E-06
 -1      8106 5.93497E-05 3.02402E-05-6.18623E-06
 -1      8107 5.93497E-05 3.02402E-05-6.35939E-06
 -1      8108 5.93497E-05 3.02402E-05-6.53255E-06
 -1      8109 5.93497E-05 3.02402E-05-6.70571E-06
 -1      8110 5.93497E-05 3.02402E-05-6.87887E-06
 -1      8111 5.93497E-05 3.02402E-05-7.05203E-06
 -1      8112 5.93497E-05 3.02402E-05-7.22519E-06
 -1      8113 5.38884E-05 3.91522E-05-5.66675E-06
 -1      8114 5.38884E-05 3.91522E-05-5.83991E-06
 -1      8115 5.38884E-05 3.91522E-05-6.01307E-06
 -1      8116 5.38884E-05 3.91522E-05-6.18623E-06
 -1      8117 5.38884E-05 3.91522E-05-6.35939E-06
 -1      8118 5.38884E-05 3.91522E-05-6.53255E-06
 -1      8119 5.38884E-05 3.91522E-05-6.70571E-06
 -1      8120 5.38884E-05 3.91522E-05-6.87887E-06
 -1      8121 5.38884E-05 3.91522E-05-7.05203E-06
 -1      8122 5.38884E-05 3.91522E-05-7.22519E-06
 -1      8123 4.71002E-05 4.71002E-05-5.66675E-06
 -1      8124 4.71002E-05 4.71002E-05-5.83991E-06
 -1      8125 4.71002E-05 4.71002E-05-6.01307E-06
 -1      8126 4.71002E-05 4.71002E-05-6.18623E-06
 -1      8127 4.71002E-05 4.71002E-05-6.35939E-06
 -1      8128 4.71002E-05 4.71002E-05-6.53255E-06
 -1      8129 4.71002E-05 4.71002E-05-6.70571E-06
 -1      8130 4.71002E-05 4.71002E-05-6.87887E-06
 -1      8131 4.71002E-05 4.71002E-05-7.05203E-06
 -1      8132 4.71002E-05 4.71002E-05-7.22519E-06
 -1      8133 3.91522E-05 5.38884E-05-5.66675E-06
 -1      8134 3.91522E-05 5.38884E-05-5.83991E-06
 -1      8135 3.91522E-05 5.38884E-05-6.01307E-06
 -1      8136 3.91522E-05 5.38884E-05-6.18623E-06
 -1      8137 3.91522E-05 5.38884E-05-6.35939E-06
 -1      8138 3.91522E-05 5.38884E-05-6.53255E-06
 -1      8139 3.91522E-05 5.38884E-05-6.70571E-06
 -1      8140 3.91522E-05 5.38884E-05-6.87887E-06
 -1      8141 3.91522E-05 5.38884E-05-7.05203E-06
 -1      8142 3.91522E-05 5.38884E-05-7.22519E-06
 -1      8143 3.02402E-05 5.93497E-05-5.66675E-06
 -1      8144 3.02402E-05 5.93497E-05-5.83991E-06
 -1      8145 3.02402E-05 5.93497E-05-6.01307E-06
 -1      8146 3.02402E-05 5.93497E-05-6.18623E-06
 -1      8147 3.02402E-05 5.93497E-05-6.35939E-06
 -1      8148 3.02402E-05 5.93497E-05-6.53255E-06
 -1      8149 3.02402E-05 5.93497E-05-6.70571E-06
 -1      8150 3.02402E-05 5.93497E-05-6.87887E-06
 -1      8151 3.02402E-05 5.93497E-05-7.05203E-06
 -1      8152 3.02402E-05 5.93497E-05-7.22519E-06
 -1      8153 2.05835E-05 6.33496E-05-5.66675E-06
 -1      8154 2.05835E-05 6.33496E-05-5.83991E-06
 -1      8155 2.05835E-05 6.33496E-05-6.01307E-06
 -1      8156 2.05835E-05 6.33496E-05-6.18623E-06
 -1      8157 2.05835E-05 6.33496E-05-6.35939E-06
 -1      8158 2.05835E-05 6.33496E-05-6.53255E-06
 -1      8159 2.05835E-05 6.33496E-05-6.70571E-06
 -1      8160 2.05835E-05 6.33496E-05-6.87887E-06
 -1      8161 2.05835E-05 6.33496E-05-7.05203E-06
 -1      8162 2.05835E-05 6.33496E-05-7.22519E-06
 -1      8163 1.04201E-05 6.57897E-05-5.66675E-06
 -1      8164 1.04201E-05 6.57897E-05-5.83991E-06
 -1      8165 1.04201E-05 6.57897E-05-6.01307E-06
 -1      8166 1.04201E-05 6.57897E-05-6.18623E-06
 -1      8167 1.04201E-05 6.57897E-05-6.35939E-06
 -1      8168 1.04201E-05 6.57897E-05-6.53255E-06
 -1      8169 1.04201E-05 6.57897E-05-6.70571E-06
 -1      8170 1.04201E-05 6.57897E-05-6.87887E-06
 -1      8171 1.04201E-05 6.57897E-05-7.05203E-06
 -1      8172 1.04201E-05 6.57897E-05-7.22519E-06
 -1      8173 6.50442E-05 1.03020E-05-5.66675E-06
 -1      8174 6.50442E-05 1.03020E-05-5.83991E-06
 -1      8175 6.50442E-05 1.03020E-05-6.01307E-06
 -1      8176 6.50442E-05 1.03020E-05-6.18623E-06
 -1      8177 6.50442E-05 1.03020E-05-6.35939E-06
 -1      8178 6.50442E-05 1.03020E-05-6.53255E-06
 -1      8179 6.50442E-05 1.03020E-05-6.70571E-06
 -1      8180 6.50442E-05 1.03020E-05-6.87887E-06
 -1      8181 6.50442E-05 1.03020E-05-7.05203E-06
 -1      8182 6.50442E-05 1.03020E-05-7.22519E-06
 -1      8183 6.26318E-05 2.03503E-05-5.66675E-06
 -1      8184 6.26318E-05 2.03503E-05-5.83991E-06
 -1      8185 6.26318E-05 2.03503E-05-6.01307E-06
 -1      8186 6.26318E-05 2.03503E-05-6.18623E-06
 -1      8187 6.26318E-05 2.03503E-05-6.35939E-06
 -1      8188 6.26318E-05 2.03503E-05-6.53255E-06
 -1      8189 6.26318E-05 2.03503E-05-6.70571E-06
 -1      8190 6.26318E-05 2.03503E-05-6.87887E-06
 -1      8191 6.26318E-05 2.03503E-05-7.05203E-06
 -1      8192 6.26318E-05 2.03503E-05-7.22519E-06
 -1      8193 5.86772E-05 2.98975E-05-5.66675E-06
 -1      8194 5.86772E-05 2.98975E-05-5.83991E-06
 -1      8195 5.86772E-05 2.98975E-05-6.01307E-06
 -1      8196 5.86772E-05 2.98975E-05-6.18623E-06
 -1      8197 5.86772E-05 2.98975E-05-6.35939E-06
 -1      8198 5.86772E-05 2.98975E-05-6.53255E-06
 -1      8199 5.86772E-05 2.98975E-05-6.70571E-06
 -1      8200 5.86772E-05 2.98975E-05-6.87887E-06
 -1      8201 5.86772E-05 2.98975E-05-7.05203E-06
 -1      8202 5.86772E-05 2.98975E-05-7.22519E-06
 -1      8203 5.32778E-05 3.87086E-05-5.66675E-06
 -1      8204 5.32778E-05 3.87086E-05-5.83991E-06
 -1      8205 5.32778E-05 3.87086E-05-6.01307E-06
 -1      8206 5.32778E-05 3.87086E-05-6.18623E-06
 -1      8207 5.32778E-05 3.87086E-05-6.35939E-06
 -1      8208 5.32778E-05 3.87086E-05-6.53255E-06
 -1      8209 5.32778E-05 3.87086E-05-6.70571E-06
 -1      8210 5.32778E-05 3.87086E-05-6.87887E-06
 -1      8211 5.32778E-05 3.87086E-05-7.05203E-06
 -1      8212 5.32778E-05 3.87086E-05-7.22519E-06
 -1      8213 4.65665E-05 4.65665E-05-5.66675E-06
 -1      8214 4.65665E-05 4.65665E-05-5.83991E-06
 -1      8215 4.65665E-05 4.65665E-05-6.01307E-06
 -1      8216 4.65665E-05 4.65665E-05-6.18623E-06
 -1      8217 4.65665E-05 4.65665E-05-6.35939E-06
 -1      8218 4.65665E-05 4.65665E-05-6.53255E-06
 -1      8219 4.65665E-05 4.65665E-05-6.70571E-06
 -1      8220 4.65665E-05 4.65665E-05-6.87887E-06
 -1      8221 4.65665E-05 4.65665E-05-7.05203E-06
 -1      8222 4.65665E-05 4.65665E-05-7.22519E-06
 -1      8223 3.87086E-05 5.32778E-05-5.66675E-06
 -1      8224 3.87086E-05 5.32778E-05-5.83991E-06
 -1      8225 3.87086E-05 5.32778E-05-6.01307E-06
 -1      8226 3.87086E-05 5.32778E-05-6.18623E-06
 -1      8227 3.87086E-05 5.32778E-05-6.35939E-06
 -1      8228 3.87086E-05 5.32778E-05-6.53255E-06
 -1      8229 3.87086E-05 5.32778E-05-6.70571E-06
 -1      8230 3.87086E-05 5.32778E-05-6.87887E-06
 -1      8231 3.87086E-05 5.32778E-05-7.05203E-06
 -1      8232 3.87086E-05 5.32778E-05-7.22519E-06
 -1      8233 2.98975E-05 5.86772E-05-5.66675E-06
 -1      8234 2.98975E-05 5.86772E-05-5.83991E-06
 -1      8235 2.98975E-05 5.86772E-05-6.01307E-06
 -1      8236 2.98975E-05 5.86772E-05-6.18623E-06
 -1      8237 2.98975E-05 5.86772E-05-6.35939E-06
 -1      8238 2.98975E-05 5.86772E-05-6.53255E-06
 -1      8239 2.98975E-05 5.86772E-05-6.70571E-06
 -1      8240 2.98975E-05 5.86772E-05-6.87887E-06
 -1      8241 2.98975E-05 5.86772E-05-7.05203E-06
 -1      8242 2.98975E-05 5.86772E-05-7.22519E-06
 -1      8243 2.03503E-05 6.26318E-05-5.66675E-06
 -1      8244 2.03503E-05 6.26318E-05-5.83991E-06
 -1      8245 2.03503E-05 6.26318E-05-6.01307E-06
 -1      8246 2.03503E-05 6.26318E-05-6.18623E-06
 -1      8247 2.03503E-05 6.26318E-05-6.35939E-06
 -1      8248 2.03503E-05 6.26318E-05-6.53255E-06
 -1      8249 2.03503E-05 6.26318E-05-6.70571E-06
 -1      8250 2.03503E-05 6.26318E-05-6.87887E-06
 -1      8251 2.03503E-05 6.26318E-05-7.05203E-06
 -1      8252 2.03503E-05 6.26318E-05-7.22519E-06
 -1      8253 1.03020E-05 6.50442E-05-5.66675E-06
 -1      8254 1.03020E-05 6.50442E-05-5.83991E-06
 -1      8255 1.03020E-05 6.50442E-05-6.01307E-06
 -1      8256 1.03020E-05 6.50442E-05-6.18623E-06
 -1      8257 1.03020E-05 6.50442E-05-6.35939E-06
 -1      8258 1.03020E-05 6.50442E-05-6.53255E-06
 -1      8259 1.03020E-05 6.50442E-05-6.70571E-06
 -1      8260 1.03020E-05 6.50442E-05-6.87887E-06
 -1      8261 1.03020E-05 6.50442E-05-7.05203E-06
 -1      8262 1.03020E-05 6.50442E-05-7.22519E-06
 -1      8263 6.43696E-05 1.01951E-05-5.66675E-06
 -1      8264 6.43696E-05 1.01951E-05-5.83991E-06
 -1      8265 6.43696E-05 1.01951E-05-6.01307E-06
 -1      8266 6.43696E-05 1.01951E-05-6.18623E-06
 -1      8267 6.43696E-05 1.01951E-05-6.35939E-06
 -1      8268 6.43696E-05 1.01951E-05-6.53255E-06
 -1      8269 6.43696E-05 1.01951E-05-6.70571E-06
 -1      8270 6.43696E-05 1.01951E-05-6.87887E-06
 -1      8271 6.43696E-05 1.01951E-05-7.05203E-06
 -1      8272 6.43696E-05 1.01951E-05-7.22519E-06
 -1      8273 6.19822E-05 2.01392E-05-5.66675E-06
 -1      8274 6.19822E-05 2.01392E-05-5.83991E-06
 -1      8275 6.19822E-05 2.01392E-05-6.01307E-06
 -1      8276 6.19822E-05 2.01392E-05-6.18623E-06
 -1      8277 6.19822E-05 2.01392E-05-6.35939E-06
 -1      8278 6.19822E-05 2.01392E-05-6.53255E-06
 -1      8279 6.19822E-05 2.01392E-05-6.70571E-06
 -1      8280 6.19822E-05 2.01392E-05-6.87887E-06
 -1      8281 6.19822E-05 2.01392E-05-7.05203E-06
 -1      8282 6.19822E-05 2.01392E-05-7.22519E-06
 -1      8283 5.80686E-05 2.95875E-05-5.66675E-06
 -1      8284 5.80686E-05 2.95875E-05-5.83991E-06
 -1      8285 5.80686E-05 2.95875E-05-6.01307E-06
 -1      8286 5.80686E-05 2.95875E-05-6.18623E-06
 -1      8287 5.80686E-05 2.95875E-05-6.35939E-06
 -1      8288 5.80686E-05 2.95875E-05-6.53255E-06
 -1      8289 5.80686E-05 2.95875E-05-6.70571E-06
 -1      8290 5.80686E-05 2.95875E-05-6.87887E-06
 -1      8291 5.80686E-05 2.95875E-05-7.05203E-06
 -1      8292 5.80686E-05 2.95875E-05-7.22519E-06
 -1      8293 5.27252E-05 3.83071E-05-5.66675E-06
 -1      8294 5.27252E-05 3.83071E-05-5.83991E-06
 -1      8295 5.27252E-05 3.83071E-05-6.01307E-06
 -1      8296 5.27252E-05 3.83071E-05-6.18623E-06
 -1      8297 5.27252E-05 3.83071E-05-6.35939E-06
 -1      8298 5.27252E-05 3.83071E-05-6.53255E-06
 -1      8299 5.27252E-05 3.83071E-05-6.70571E-06
 -1      8300 5.27252E-05 3.83071E-05-6.87887E-06
 -1      8301 5.27252E-05 3.83071E-05-7.05203E-06
 -1      8302 5.27252E-05 3.83071E-05-7.22519E-06
 -1      8303 4.60835E-05 4.60835E-05-5.66675E-06
 -1      8304 4.60835E-05 4.60835E-05-5.83991E-06
 -1      8305 4.60835E-05 4.60835E-05-6.01307E-06
 -1      8306 4.60835E-05 4.60835E-05-6.18623E-06
 -1      8307 4.60835E-05 4.60835E-05-6.35939E-06
 -1      8308 4.60835E-05 4.60835E-05-6.53255E-06
 -1      8309 4.60835E-05 4.60835E-05-6.70571E-06
 -1      8310 4.60835E-05 4.60835E-05-6.87887E-06
 -1      8311 4.60835E-05 4.60835E-05-7.05203E-06
 -1      8312 4.60835E-05 4.60835E-05-7.22519E-06
 -1      8313 3.83071E-05 5.27252E-05-5.66675E-06
 -1      8314 3.83071E-05 5.27252E-05-5.83991E-06
 -1      8315 3.83071E-05 5.27252E-05-6.01307E-06
 -1      8316 3.83071E-05 5.27252E-05-6.18623E-06
 -1      8317 3.83071E-05 5.27252E-05-6.35939E-06
 -1      8318 3.83071E-05 5.27252E-05-6.53255E-06
 -1      8319 3.83071E-05 5.27252E-05-6.70571E-06
 -1      8320 3.83071E-05 5.27252E-05-6.87887E-06
 -1      8321 3.83071E-05 5.27252E-05-7.05203E-06
 -1      8322 3.83071E-05 5.27252E-05-7.22519E-06
 -1      8323 2.95875E-05 5.80686E-05-5.66675E-06
 -1      8324 2.95875E-05 5.80686E-05-5.83991E-06
 -1      8325 2.95875E-05 5.80686E-05-6.01307E-06
 -1      8326 2.95875E-05 5.80686E-05-6.18623E-06
 -1      8327 2.95875E-05 5.80686E-05-6.35939E-06
 -1      8328 2.95875E-05 5.80686E-05-6.53255E-06
 -1      8329 2.95875E-05 5.80686E-05-6.70571E-06
 -1      8330 2.95875E-05 5.80686E-05-6.87887E-06
 -1      8331 2.95875E-05 5.80686E-05-7.05203E-06
 -1      8332 2.95875E-05 5.80686E-05-7.22519E-06
 -1      8333 2.01392E-05 6.19822E-05-5.66675E-06
 -1      8334 2.01392E-05 6.19822E-05-5.83991E-06
 -1      8335 2.01392E-05 6.19822E-05-6.01307E-06
 -1      8336 2.01392E-05 6.19822E-05-6.18623E-06
 -1      8337 2.01392E-05 6.19822E-05-6.35939E-06
 -1      8338 2.01392E-05 6.19822E-05-6.53255E-06
 -1      8339 2.01392E-05 6.19822E-05-6.70571E-06
 -1      8340 2.01392E-05 6.19822E-05-6.87887E-06
 -1      8341 2.01392E-05 6.19822E-05-7.05203E-06
 -1      8342 2.01392E-05 6.19822E-05-7.22519E-06
 -1      8343 1.01951E-05 6.43696E-05-5.66675E-06
 -1      8344 1.01951E-05 6.43696E-05-5.83991E-06
 -1      8345 1.01951E-05 6.43696E-05-6.01307E-06
 -1      8346 1.01951E-05 6.43696E-05-6.18623E-06
 -1      8347 1.01951E-05 6.43696E-05-6.35939E-06
 -1      8348 1.01951E-05 6.43696E-05-6.53255E-06
 -1      8349 1.01951E-05 6.43696E-05-6.70571E-06
 -1      8350 1.01951E-05 6.43696E-05-6.87887E-06
 -1      8351 1.01951E-05 6.43696E-05-7.05203E-06
 -1      8352 1.01951E-05 6.43696E-05-7.22519E-06
 -1      8353 6.37555E-05 1.00979E-05-5.66674E-06
 -1      8354 6.37555E-05 1.00979E-05-5.83990E-06
 -1      8355 6.37555E-05 1.00979E-05-6.01306E-06
 -1      8356 6.37555E-05 1.00979E-05-6.18623E-06
 -1      8357 6.37555E-05 1.00979E-05-6.35939E-06
 -1      8358 6.37555E-05 1.00979E-05-6.53255E-06
 -1      8359 6.37555E-05 1.00979E-05-6.70571E-06
 -1      8360 6.37555E-05 1.00979E-05-6.87887E-06
 -1      8361 6.37555E-05 1.00979E-05-7.05203E-06
 -1      8362 6.37555E-05 1.00979E-05-7.22519E-06
 -1      8363 6.13910E-05 1.99471E-05-5.66674E-06
 -1      8364 6.13910E-05 1.99471E-05-5.83990E-06
 -1      8365 6.13910E-05 1.99471E-05-6.01306E-06
 -1      8366 6.13910E-05 1.99471E-05-6.18623E-06
 -1      8367 6.13910E-05 1.99471E-05-6.35939E-06
 -1      8368 6.13910E-05 1.99471E-05-6.53255E-06
 -1      8369 6.13910E-05 1.99471E-05-6.70571E-06
 -1      8370 6.13910E-05 1.99471E-05-6.87887E-06
 -1      8371 6.13910E-05 1.99471E-05-7.05203E-06
 -1      8372 6.13910E-05 1.99471E-05-7.22519E-06
 -1      8373 5.75147E-05 2.93052E-05-5.66674E-06
 -1      8374 5.75147E-05 2.93052E-05-5.83990E-06
 -1      8375 5.75147E-05 2.93052E-05-6.01306E-06
 -1      8376 5.75147E-05 2.93052E-05-6.18623E-06
 -1      8377 5.75147E-05 2.93052E-05-6.35939E-06
 -1      8378 5.75147E-05 2.93052E-05-6.53255E-06
 -1      8379 5.75147E-05 2.93052E-05-6.70571E-06
 -1      8380 5.75147E-05 2.93052E-05-6.87887E-06
 -1      8381 5.75147E-05 2.93052E-05-7.05203E-06
 -1      8382 5.75147E-05 2.93052E-05-7.22519E-06
 -1      8383 5.22223E-05 3.79417E-05-5.66674E-06
 -1      8384 5.22223E-05 3.79417E-05-5.83990E-06
 -1      8385 5.22223E-05 3.79417E-05-6.01306E-06
 -1      8386 5.22223E-05 3.79417E-05-6.18623E-06
 -1      8387 5.22223E-05 3.79417E-05-6.35939E-06
 -1      8388 5.22223E-05 3.79417E-05-6.53255E-06
 -1      8389 5.22223E-05 3.79417E-05-6.70571E-06
 -1      8390 5.22223E-05 3.79417E-05-6.87887E-06
 -1      8391 5.22223E-05 3.79417E-05-7.05203E-06
 -1      8392 5.22223E-05 3.79417E-05-7.22519E-06
 -1      8393 4.56439E-05 4.56439E-05-5.66674E-06
 -1      8394 4.56439E-05 4.56439E-05-5.83990E-06
 -1      8395 4.56439E-05 4.56439E-05-6.01306E-06
 -1      8396 4.56439E-05 4.56439E-05-6.18623E-06
 -1      8397 4.56439E-05 4.56439E-05-6.35939E-06
 -1      8398 4.56439E-05 4.56439E-05-6.53255E-06
 -1      8399 4.56439E-05 4.56439E-05-6.70571E-06
 -1      8400 4.56439E-05 4.56439E-05-6.87887E-06
 -1      8401 4.56439E-05 4.56439E-05-7.05203E-06
 -1      8402 4.56439E-05 4.56439E-05-7.22519E-06
 -1      8403 3.79417E-05 5.22223E-05-5.66674E-06
 -1      8404 3.79417E-05 5.22223E-05-5.83990E-06
 -1      8405 3.79417E-05 5.22223E-05-6.01306E-06
 -1      8406 3.79417E-05 5.22223E-05-6.18623E-06
 -1      8407 3.79417E-05 5.22223E-05-6.35939E-06
 -1      8408 3.79417E-05 5.22223E-05-6.53255E-06
 -1      8409 3.79417E-05 5.22223E-05-6.70571E-06
 -1      8410 3.79417E-05 5.22223E-05-6.87887E-06
 -1      8411 3.79417E-05 5.22223E-05-7.05203E-06
 -1      8412 3.79417E-05 5.22223E-05-7.22519E-06
 -1      8413 2.93052E-05 5.75147E-05-5.66674E-06
 -1      8414 2.93052E-05 5.75147E-05-5.83990E-06
 -1      8415 2.93052E-05 5.75147E-05-6.01306E-06
 -1      8416 2.93052E-05 5.75147E-05-6.18623E-06
 -1      8417 2.93052E-05 5.75147E-05-6.35939E-06
 -1      8418 2.93052E-05 5.75147E-05-6.53255E-06
 -1      8419 2.93052E-05 5.75147E-05-6.70571E-06
 -1      8420 2.93052E-05 5.75147E-05-6.87887E-06
 -1      8421 2.93052E-05 5.75147E-05-7.05203E-06
 -1      8422 2.93052E-05 5.75147E-05-7.22519E-06
 -1      8423 1.99471E-05 6.13910E-05-5.66674E-06
 -1      8424 1.99471E-05 6.13910E-05-5.83990E-06
 -1      8425 1.99471E-05 6.13910E-05-6.01306E-06
 -1      8426 1.99471E-05 6.13910E-05-6.18623E-06
 -1      8427 1.99471E-05 6.13910E-05-6.35939E-06
 -1      8428 1.99471E-05 6.13910E-05-6.53255E-06
 -1      8429 1.99471E-05 6.13910E-05-6.70571E-06
 -1      8430 1.99471E-05 6.13910E-05-6.87887E-06
 -1      8431 1.99471E-05 6.13910E-05-7.05203E-06
 -1      8432 1.99471E-05 6.13910E-05-7.22519E-06
 -1      8433 1.00979E-05 6.37555E-05-5.66674E-06
 -1      8434 1.00979E-05 6.37555E-05-5.83990E-06
 -1      8435 1.00979E-05 6.37555E-05-6.01306E-06
 -1      8436 1.00979E-05 6.37555E-05-6.18623E-06
 -1      8437 1.00979E-05 6.37555E-05-6.35939E-06
 -1      8438 1.00979E-05 6.37555E-05-6.53255E-06
 -1      8439 1.00979E-05 6.37555E-05-6.70571E-06
 -1      8440 1.00979E-05 6.37555E-05-6.87887E-06
 -1      8441 1.00979E-05 6.37555E-05-7.05203E-06
 -1      8442 1.00979E-05 6.37555E-05-7.22519E-06
 -1      8443 6.32166E-05 1.00125E-05-5.66674E-06
 -1      8444 6.32166E-05 1.00125E-05-5.83990E-06
 -1      8445 6.32166E-05 1.00125E-05-6.01306E-06
 -1      8446 6.32166E-05 1.00125E-05-6.18623E-06
 -1      8447 6.32166E-05 1.00125E-05-6.35939E-06
 -1      8448 6.32166E-05 1.00125E-05-6.53255E-06
 -1      8449 6.32166E-05 1.00125E-05-6.70571E-06
 -1      8450 6.32166E-05 1.00125E-05-6.87887E-06
 -1      8451 6.32166E-05 1.00125E-05-7.05203E-06
 -1      8452 6.32166E-05 1.00125E-05-7.22519E-06
 -1      8453 6.08720E-05 1.97785E-05-5.66674E-06
 -1      8454 6.08720E-05 1.97785E-05-5.83990E-06
 -1      8455 6.08720E-05 1.97785E-05-6.01306E-06
 -1      8456 6.08720E-05 1.97785E-05-6.18623E-06
 -1      8457 6.08720E-05 1.97785E-05-6.35939E-06
 -1      8458 6.08720E-05 1.97785E-05-6.53255E-06
 -1      8459 6.08720E-05 1.97785E-05-6.70571E-06
 -1      8460 6.08720E-05 1.97785E-05-6.87887E-06
 -1      8461 6.08720E-05 1.97785E-05-7.05203E-06
 -1      8462 6.08720E-05 1.97785E-05-7.22519E-06
 -1      8463 5.70285E-05 2.90575E-05-5.66674E-06
 -1      8464 5.70285E-05 2.90575E-05-5.83990E-06
 -1      8465 5.70285E-05 2.90575E-05-6.01306E-06
 -1      8466 5.70285E-05 2.90575E-05-6.18623E-06
 -1      8467 5.70285E-05 2.90575E-05-6.35939E-06
 -1      8468 5.70285E-05 2.90575E-05-6.53255E-06
 -1      8469 5.70285E-05 2.90575E-05-6.70571E-06
 -1      8470 5.70285E-05 2.90575E-05-6.87887E-06
 -1      8471 5.70285E-05 2.90575E-05-7.05203E-06
 -1      8472 5.70285E-05 2.90575E-05-7.22519E-06
 -1      8473 5.17808E-05 3.76210E-05-5.66674E-06
 -1      8474 5.17808E-05 3.76210E-05-5.83990E-06
 -1      8475 5.17808E-05 3.76210E-05-6.01306E-06
 -1      8476 5.17808E-05 3.76210E-05-6.18623E-06
 -1      8477 5.17808E-05 3.76210E-05-6.35939E-06
 -1      8478 5.17808E-05 3.76210E-05-6.53255E-06
 -1      8479 5.17808E-05 3.76210E-05-6.70571E-06
 -1      8480 5.17808E-05 3.76210E-05-6.87887E-06
 -1      8481 5.17808E-05 3.76210E-05-7.05203E-06
 -1      8482 5.17808E-05 3.76210E-05-7.22519E-06
 -1      8483 4.52581E-05 4.52581E-05-5.66674E-06
 -1      8484 4.52581E-05 4.52581E-05-5.83990E-06
 -1      8485 4.52581E-05 4.52581E-05-6.01306E-06
 -1      8486 4.52581E-05 4.52581E-05-6.18623E-06
 -1      8487 4.52581E-05 4.52581E-05-6.35939E-06
 -1      8488 4.52581E-05 4.52581E-05-6.53255E-06
 -1      8489 4.52581E-05 4.52581E-05-6.70571E-06
 -1      8490 4.52581E-05 4.52581E-05-6.87887E-06
 -1      8491 4.52581E-05 4.52581E-05-7.05203E-06
 -1      8492 4.52581E-05 4.52581E-05-7.22519E-06
 -1      8493 3.76210E-05 5.17808E-05-5.66674E-06
 -1      8494 3.76210E-05 5.17808E-05-5.83990E-06
 -1      8495 3.76210E-05 5.17808E-05-6.01306E-06
 -1      8496 3.76210E-05 5.17808E-05-6.18623E-06
 -1      8497 3.76210E-05 5.17808E-05-6.35939E-06
 -1      8498 3.76210E-05 5.17808E-05-6.53255E-06
 -1      8499 3.76210E-05 5.17808E-05-6.70571E-06
 -1      8500 3.76210E-05 5.17808E-05-6.87887E-06
 -1      8501 3.76210E-05 5.17808E-05-7.05203E-06
 -1      8502 3.76210E-05 5.17808E-05-7.22519E-06
 -1      8503 2.90575E-05 5.70285E-05-5.66674E-06
 -1      8504 2.90575E-05 5.70285E-05-5.83990E-06
 -1      8505 2.90575E-05 5.70285E-05-6.01306E-06
 -1      8506 2.90575E-05 5.70285E-05-6.18623E-06
 -1      8507 2.90575E-05 5.70285E-05-6.35939E-06
 -1      8508 2.90575E-05 5.70285E-05-6.53255E-06
 -1      8509 2.90575E-05 5.70285E-05-6.70571E-06
 -1      8510 2.90575E-05 5.70285E-05-6.87887E-06
 -1      8511 2.90575E-05 5.70285E-05-7.05203E-06
 -1      8512 2.90575E-05 5.70285E-05-7.22519E-06
 -1      8513 1.97785E-05 6.08720E-05-5.66674E-06
 -1      8514 1.97785E-05 6.08720E-05-5.83990E-06
 -1      8515 1.97785E-05 6.08720E-05-6.01306E-06
 -1      8516 1.97785E-05 6.08720E-05-6.18623E-06
 -1      8517 1.97785E-05 6.08720E-05-6.35939E-06
 -1      8518 1.97785E-05 6.08720E-05-6.53255E-06
 -1      8519 1.97785E-05 6.08720E-05-6.70571E-06
 -1      8520 1.97785E-05 6.08720E-05-6.87887E-06
 -1      8521 1.97785E-05 6.08720E-05-7.05203E-06
 -1      8522 1.97785E-05 6.08720E-05-7.22519E-06
 -1      8523 1.00125E-05 6.32166E-05-5.66674E-06
 -1      8524 1.00125E-05 6.32166E-05-5.83990E-06
 -1      8525 1.00125E-05 6.32166E-05-6.01306E-06
 -1      8526 1.00125E-05 6.32166E-05-6.18623E-06
 -1      8527 1.00125E-05 6.32166E-05-6.35939E-06
 -1      8528 1.00125E-05 6.32166E-05-6.53255E-06
 -1      8529 1.00125E-05 6.32166E-05-6.70571E-06
 -1      8530 1.00125E-05 6.32166E-05-6.87887E-06
 -1      8531 1.00125E-05 6.32166E-05-7.05203E-06
 -1      8532 1.00125E-05 6.32166E-05-7.22519E-06
 -1      8533 1.54251E-04 2.44310E-05-5.58017E-06
 -1      8534 1.56149E-04 1.22892E-05-5.66674E-06
 -1      8535 1.61037E-04 2.55057E-05-5.66673E-06
 -1      8540 1.54251E-04 2.44310E-05-5.75332E-06
 -1      8541 1.56149E-04 1.22892E-05-5.83990E-06
 -1      8542 1.61037E-04 2.55057E-05-5.83990E-06
 -1      8547 1.54251E-04 2.44310E-05-5.92649E-06
 -1      8548 1.56149E-04 1.22892E-05-6.01307E-06
 -1      8549 1.61037E-04 2.55057E-05-6.01306E-06
 -1      8554 1.54251E-04 2.44310E-05-6.09965E-06
 -1      8555 1.56149E-04 1.22892E-05-6.18623E-06
 -1      8556 1.61037E-04 2.55057E-05-6.18622E-06
 -1      8561 1.54251E-04 2.44310E-05-6.27281E-06
 -1      8562 1.56149E-04 1.22892E-05-6.35939E-06
 -1      8563 1.61037E-04 2.55057E-05-6.35939E-06
 -1      8568 1.54251E-04 2.44310E-05-6.44597E-06
 -1      8569 1.56149E-04 1.22892E-05-6.53255E-06
 -1      8570 1.61037E-04 2.55057E-05-6.53255E-06
 -1      8575 1.54251E-04 2.44310E-05-6.61913E-06
 -1      8576 1.56149E-04 1.22892E-05-6.70571E-06
 -1      8577 1.61037E-04 2.55057E-05-6.70571E-06
 -1      8582 1.54251E-04 2.44310E-05-6.79229E-06
 -1      8583 1.56149E-04 1.22892E-05-6.87887E-06
 -1      8584 1.61037E-04 2.55057E-05-6.87887E-06
 -1      8589 1.54251E-04 2.44310E-05-6.96545E-06
 -1      8590 1.56149E-04 1.22892E-05-7.05203E-06
 -1      8591 1.61037E-04 2.55057E-05-7.05203E-06
 -1      8596 1.54251E-04 2.44310E-05-7.13861E-06
 -1      8597 1.56149E-04 1.22892E-05-7.22519E-06
 -1      8598 1.61037E-04 2.55057E-05-7.22520E-06
 -1      8603 1.54251E-04 2.44310E-05-7.31177E-06
 -1      8607 1.48530E-04 4.82605E-05-5.58017E-06
 -1      8608 1.52304E-04 3.65649E-05-5.66674E-06
 -1      8609 1.55064E-04 5.03834E-05-5.66673E-06
 -1      8614 1.48530E-04 4.82605E-05-5.75332E-06
 -1      8615 1.52304E-04 3.65649E-05-5.83990E-06
 -1      8616 1.55064E-04 5.03834E-05-5.83990E-06
 -1      8621 1.48530E-04 4.82605E-05-5.92649E-06
 -1      8622 1.52304E-04 3.65649E-05-6.01307E-06
 -1      8623 1.55064E-04 5.03834E-05-6.01306E-06
 -1      8628 1.48530E-04 4.82605E-05-6.09965E-06
 -1      8629 1.52304E-04 3.65649E-05-6.18623E-06
 -1      8630 1.55064E-04 5.03834E-05-6.18622E-06
 -1      8635 1.48530E-04 4.82605E-05-6.27281E-06
 -1      8636 1.52304E-04 3.65649E-05-6.35939E-06
 -1      8637 1.55064E-04 5.03834E-05-6.35939E-06
 -1      8642 1.48530E-04 4.82605E-05-6.44597E-06
 -1      8643 1.52304E-04 3.65649E-05-6.53255E-06
 -1      8644 1.55064E-04 5.03834E-05-6.53255E-06
 -1      8649 1.48530E-04 4.82605E-05-6.61913E-06
 -1      8650 1.52304E-04 3.65649E-05-6.70571E-06
 -1      8651 1.55064E-04 5.03834E-05-6.70571E-06
 -1      8656 1.48530E-04 4.82605E-05-6.79229E-06
 -1      8657 1.52304E-04 3.65649E-05-6.87887E-06
 -1      8658 1.55064E-04 5.03834E-05-6.87887E-06
 -1      8663 1.48530E-04 4.82605E-05-6.96545E-06
 -1      8664 1.52304E-04 3.65649E-05-7.05203E-06
 -1      8665 1.55064E-04 5.03834E-05-7.05203E-06
 -1      8670 1.48530E-04 4.82605E-05-7.13861E-06
 -1      8671 1.52304E-04 3.65649E-05-7.22519E-06
 -1      8672 1.55064E-04 5.03834E-05-7.22520E-06
 -1      8677 1.48530E-04 4.82605E-05-7.31177E-06
 -1      8681 1.39152E-04 7.09016E-05-5.58017E-06
 -1      8682 1.44709E-04 5.99403E-05-5.66674E-06
 -1      8683 1.45273E-04 7.40204E-05-5.66673E-06
 -1      8688 1.39152E-04 7.09016E-05-5.75332E-06
 -1      8689 1.44709E-04 5.99403E-05-5.83990E-06
 -1      8690 1.45273E-04 7.40204E-05-5.83990E-06
 -1      8695 1.39152E-04 7.09016E-05-5.92649E-06
 -1      8696 1.44709E-04 5.99403E-05-6.01307E-06
 -1      8697 1.45273E-04 7.40204E-05-6.01306E-06
 -1      8702 1.39152E-04 7.09016E-05-6.09965E-06
 -1      8703 1.44709E-04 5.99403E-05-6.18623E-06
 -1      8704 1.45273E-04 7.40204E-05-6.18622E-06
 -1      8709 1.39152E-04 7.09016E-05-6.27281E-06
 -1      8710 1.44709E-04 5.99403E-05-6.35939E-06
 -1      8711 1.45273E-04 7.40204E-05-6.35939E-06
 -1      8716 1.39152E-04 7.09016E-05-6.44597E-06
 -1      8717 1.44709E-04 5.99403E-05-6.53255E-06
 -1      8718 1.45273E-04 7.40204E-05-6.53255E-06
 -1      8723 1.39152E-04 7.09016E-05-6.61913E-06
 -1      8724 1.44709E-04 5.99403E-05-6.70571E-06
 -1      8725 1.45273E-04 7.40204E-05-6.70571E-06
 -1      8730 1.39152E-04 7.09016E-05-6.79229E-06
 -1      8731 1.44709E-04 5.99403E-05-6.87887E-06
 -1      8732 1.45273E-04 7.40204E-05-6.87887E-06
 -1      8737 1.39152E-04 7.09016E-05-6.96545E-06
 -1      8738 1.44709E-04 5.99403E-05-7.05203E-06
 -1      8739 1.45273E-04 7.40204E-05-7.05203E-06
 -1      8744 1.39152E-04 7.09016E-05-7.13861E-06
 -1      8745 1.44709E-04 5.99403E-05-7.22519E-06
 -1      8746 1.45273E-04 7.40204E-05-7.22520E-06
 -1      8751 1.39152E-04 7.09016E-05-7.31177E-06
 -1      8755 1.26348E-04 9.17969E-05-5.58017E-06
 -1      8756 1.33550E-04 8.18398E-05-5.66674E-06
 -1      8757 1.31905E-04 9.58348E-05-5.66673E-06
 -1      8762 1.26348E-04 9.17969E-05-5.75332E-06
 -1      8763 1.33550E-04 8.18398E-05-5.83990E-06
 -1      8764 1.31905E-04 9.58348E-05-5.83990E-06
 -1      8769 1.26348E-04 9.17969E-05-5.92649E-06
 -1      8770 1.33550E-04 8.18398E-05-6.01307E-06
 -1      8771 1.31905E-04 9.58348E-05-6.01306E-06
 -1      8776 1.26348E-04 9.17969E-05-6.09965E-06
 -1      8777 1.33550E-04 8.18398E-05-6.18623E-06
 -1      8778 1.31905E-04 9.58348E-05-6.18622E-06
 -1      8783 1.26348E-04 9.17969E-05-6.27281E-06
 -1      8784 1.33550E-04 8.18398E-05-6.35939E-06
 -1      8785 1.31905E-04 9.58348E-05-6.35939E-06
 -1      8790 1.26348E-04 9.17969E-05-6.44597E-06
 -1      8791 1.33550E-04 8.18398E-05-6.53255E-06
 -1      8792 1.31905E-04 9.58348E-05-6.53255E-06
 -1      8797 1.26348E-04 9.17969E-05-6.61913E-06
 -1      8798 1.33550E-04 8.18398E-05-6.70571E-06
 -1      8799 1.31905E-04 9.58348E-05-6.70571E-06
 -1      8804 1.26348E-04 9.17969E-05-6.79229E-06
 -1      8805 1.33550E-04 8.18398E-05-6.87887E-06
 -1      8806 1.31905E-04 9.58348E-05-6.87887E-06
 -1      8811 1.26348E-04 9.17969E-05-6.96545E-06
 -1      8812 1.33550E-04 8.18398E-05-7.05203E-06
 -1      8813 1.31905E-04 9.58348E-05-7.05203E-06
 -1      8818 1.26348E-04 9.17969E-05-7.13861E-06
 -1      8819 1.33550E-04 8.18398E-05-7.22519E-06
 -1      8820 1.31905E-04 9.58348E-05-7.22520E-06
 -1      8825 1.26348E-04 9.17969E-05-7.31177E-06
 -1      8829 1.10432E-04 1.10432E-04-5.58017E-06
 -1      8830 1.19104E-04 1.01724E-04-5.66674E-06
 -1      8831 1.15289E-04 1.15289E-04-5.66673E-06
 -1      8836 1.10432E-04 1.10432E-04-5.75332E-06
 -1      8837 1.19104E-04 1.01724E-04-5.83990E-06
 -1      8838 1.15289E-04 1.15289E-04-5.83990E-06
 -1      8843 1.10432E-04 1.10432E-04-5.92649E-06
 -1      8844 1.19104E-04 1.01724E-04-6.01307E-06
 -1      8845 1.15289E-04 1.15289E-04-6.01306E-06
 -1      8850 1.10432E-04 1.10432E-04-6.09965E-06
 -1      8851 1.19104E-04 1.01724E-04-6.18623E-06
 -1      8852 1.15289E-04 1.15289E-04-6.18622E-06
 -1      8857 1.10432E-04 1.10432E-04-6.27281E-06
 -1      8858 1.19104E-04 1.01724E-04-6.35939E-06
 -1      8859 1.15289E-04 1.15289E-04-6.35939E-06
 -1      8864 1.10432E-04 1.10432E-04-6.44597E-06
 -1      8865 1.19104E-04 1.01724E-04-6.53255E-06
 -1      8866 1.15289E-04 1.15289E-04-6.53255E-06
 -1      8871 1.10432E-04 1.10432E-04-6.61913E-06
 -1      8872 1.19104E-04 1.01724E-04-6.70571E-06
 -1      8873 1.15289E-04 1.15289E-04-6.70571E-06
 -1      8878 1.10432E-04 1.10432E-04-6.79229E-06
 -1      8879 1.19104E-04 1.01724E-04-6.87887E-06
 -1      8880 1.15289E-04 1.15289E-04-6.87887E-06
 -1      8885 1.10432E-04 1.10432E-04-6.96545E-06
 -1      8886 1.19104E-04 1.01724E-04-7.05203E-06
 -1      8887 1.15289E-04 1.15289E-04-7.05203E-06
 -1      8892 1.10432E-04 1.10432E-04-7.13861E-06
 -1      8893 1.19104E-04 1.01724E-04-7.22519E-06
 -1      8894 1.15289E-04 1.15289E-04-7.22520E-06
 -1      8899 1.10432E-04 1.10432E-04-7.31177E-06
 -1      8903 9.17969E-05 1.26348E-04-5.58017E-06
 -1      8904 1.01724E-04 1.19104E-04-5.66674E-06
 -1      8905 9.58348E-05 1.31905E-04-5.66673E-06
 -1      8910 9.17969E-05 1.26348E-04-5.75332E-06
 -1      8911 1.01724E-04 1.19104E-04-5.83990E-06
 -1      8912 9.58348E-05 1.31905E-04-5.83990E-06
 -1      8917 9.17969E-05 1.26348E-04-5.92649E-06
 -1      8918 1.01724E-04 1.19104E-04-6.01307E-06
 -1      8919 9.58348E-05 1.31905E-04-6.01306E-06
 -1      8924 9.17969E-05 1.26348E-04-6.09965E-06
 -1      8925 1.01724E-04 1.19104E-04-6.18623E-06
 -1      8926 9.58348E-05 1.31905E-04-6.18622E-06
 -1      8931 9.17969E-05 1.26348E-04-6.27281E-06
 -1      8932 1.01724E-04 1.19104E-04-6.35939E-06
 -1      8933 9.58348E-05 1.31905E-04-6.35939E-06
 -1      8938 9.17969E-05 1.26348E-04-6.44597E-06
 -1      8939 1.01724E-04 1.19104E-04-6.53255E-06
 -1      8940 9.58348E-05 1.31905E-04-6.53255E-06
 -1      8945 9.17969E-05 1.26348E-04-6.61913E-06
 -1      8946 1.01724E-04 1.19104E-04-6.70571E-06
 -1      8947 9.58348E-05 1.31905E-04-6.70571E-06
 -1      8952 9.17969E-05 1.26348E-04-6.79229E-06
 -1      8953 1.01724E-04 1.19104E-04-6.87887E-06
 -1      8954 9.58348E-05 1.31905E-04-6.87887E-06
 -1      8959 9.17969E-05 1.26348E-04-6.96545E-06
 -1      8960 1.01724E-04 1.19104E-04-7.05203E-06
 -1      8961 9.58348E-05 1.31905E-04-7.05203E-06
 -1      8966 9.17969E-05 1.26348E-04-7.13861E-06
 -1      8967 1.01724E-04 1.19104E-04-7.22519E-06
 -1      8968 9.58348E-05 1.31905E-04-7.22520E-06
 -1      8973 9.17969E-05 1.26348E-04-7.31177E-06
 -1      8977 7.09016E-05 1.39152E-04-5.58017E-06
 -1      8978 8.18398E-05 1.33550E-04-5.66674E-06
 -1      8979 7.40204E-05 1.45273E-04-5.66673E-06
 -1      8984 7.09016E-05 1.39152E-04-5.75332E-06
 -1      8985 8.18398E-05 1.33550E-04-5.83990E-06
 -1      8986 7.40204E-05 1.45273E-04-5.83990E-06
 -1      8991 7.09016E-05 1.39152E-04-5.92649E-06
 -1      8992 8.18398E-05 1.33550E-04-6.01307E-06
 -1      8993 7.40204E-05 1.45273E-04-6.01306E-06
 -1      8998 7.09016E-05 1.39152E-04-6.09965E-06
 -1      8999 8.18398E-05 1.33550E-04-6.18623E-06
 -1      9000 7.40204E-05 1.45273E-04-6.18622E-06
 -1      9005 7.09016E-05 1.39152E-04-6.27281E-06
 -1      9006 8.18398E-05 1.33550E-04-6.35939E-06
 -1      9007 7.40204E-05 1.45273E-04-6.35939E-06
 -1      9012 7.09016E-05 1.39152E-04-6.44597E-06
 -1      9013 8.18398E-05 1.33550E-04-6.53255E-06
 -1      9014 7.40204E-05 1.45273E-04-6.53255E-06
 -1      9019 7.09016E-05 1.39152E-04-6.61913E-06
 -1      9020 8.18398E-05 1.33550E-04-6.70571E-06
 -1      9021 7.40204E-05 1.45273E-04-6.70571E-06
 -1      9026 7.09016E-05 1.39152E-04-6.79229E-06
 -1      9027 8.18398E-05 1.33550E-04-6.87887E-06
 -1      9028 7.40204E-05 1.45273E-04-6.87887E-06
 -1      9033 7.09016E-05 1.39152E-04-6.96545E-06
 -1      9034 8.18398E-05 1.33550E-04-7.05203E-06
 -1      9035 7.40204E-05 1.45273E-04-7.05203E-06
 -1      9040 7.09016E-05 1.39152E-04-7.13861E-06
 -1      9041 8.18398E-05 1.33550E-04-7.22519E-06
 -1      9042 7.40204E-05 1.45273E-04-7.22520E-06
 -1      9047 7.09016E-05 1.39152E-04-7.31177E-06
 -1      9051 4.82605E-05 1.48530E-04-5.58017E-06
 -1      9052 5.99403E-05 1.44709E-04-5.66674E-06
 -1      9053 5.03834E-05 1.55064E-04-5.66673E-06
 -1      9058 4.82605E-05 1.48530E-04-5.75332E-06
 -1      9059 5.99403E-05 1.44709E-04-5.83990E-06
 -1      9060 5.03834E-05 1.55064E-04-5.83990E-06
 -1      9065 4.82605E-05 1.48530E-04-5.92649E-06
 -1      9066 5.99403E-05 1.44709E-04-6.01307E-06
 -1      9067 5.03834E-05 1.55064E-04-6.01306E-06
 -1      9072 4.82605E-05 1.48530E-04-6.09965E-06
 -1      9073 5.99403E-05 1.44709E-04-6.18623E-06
 -1      9074 5.03834E-05 1.55064E-04-6.18622E-06
 -1      9079 4.82605E-05 1.48530E-04-6.27281E-06
 -1      9080 5.99403E-05 1.44709E-04-6.35939E-06
 -1      9081 5.03834E-05 1.55064E-04-6.35939E-06
 -1      9086 4.82605E-05 1.48530E-04-6.44597E-06
 -1      9087 5.99403E-05 1.44709E-04-6.53255E-06
 -1      9088 5.03834E-05 1.55064E-04-6.53255E-06
 -1      9093 4.82605E-05 1.48530E-04-6.61913E-06
 -1      9094 5.99403E-05 1.44709E-04-6.70571E-06
 -1      9095 5.03834E-05 1.55064E-04-6.70571E-06
 -1      9100 4.82605E-05 1.48530E-04-6.79229E-06
 -1      9101 5.99403E-05 1.44709E-04-6.87887E-06
 -1      9102 5.03834E-05 1.55064E-04-6.87887E-06
 -1      9107 4.82605E-05 1.48530E-04-6.96545E-06
 -1      9108 5.99403E-05 1.44709E-04-7.05203E-06
 -1      9109 5.03834E-05 1.55064E-04-7.05203E-06
 -1      9114 4.82605E-05 1.48530E-04-7.13861E-06
 -1      9115 5.99403E-05 1.44709E-04-7.22519E-06
 -1      9116 5.03834E-05 1.55064E-04-7.22520E-06
 -1      9121 4.82605E-05 1.48530E-04-7.31177E-06
 -1      9125 2.44310E-05 1.54251E-04-5.58017E-06
 -1      9126 3.65649E-05 1.52304E-04-5.66674E-06
 -1      9127 2.55057E-05 1.61037E-04-5.66673E-06
 -1      9132 2.44310E-05 1.54251E-04-5.75332E-06
 -1      9133 3.65649E-05 1.52304E-04-5.83990E-06
 -1      9134 2.55057E-05 1.61037E-04-5.83990E-06
 -1      9139 2.44310E-05 1.54251E-04-5.92649E-06
 -1      9140 3.65649E-05 1.52304E-04-6.01307E-06
 -1      9141 2.55057E-05 1.61037E-04-6.01306E-06
 -1      9146 2.44310E-05 1.54251E-04-6.09965E-06
 -1      9147 3.65649E-05 1.52304E-04-6.18623E-06
 -1      9148 2.55057E-05 1.61037E-04-6.18622E-06
 -1      9153 2.44310E-05 1.54251E-04-6.27281E-06
 -1      9154 3.65649E-05 1.52304E-04-6.35939E-06
 -1      9155 2.55057E-05 1.61037E-04-6.35939E-06
 -1      9160 2.44310E-05 1.54251E-04-6.44597E-06
 -1      9161 3.65649E-05 1.52304E-04-6.53255E-06
 -1      9162 2.55057E-05 1.61037E-04-6.53255E-06
 -1      9167 2.44310E-05 1.54251E-04-6.61913E-06
 -1      9168 3.65649E-05 1.52304E-04-6.70571E-06
 -1      9169 2.55057E-05 1.61037E-04-6.70571E-06
 -1      9174 2.44310E-05 1.54251E-04-6.79229E-06
 -1      9175 3.65649E-05 1.52304E-04-6.87887E-06
 -1      9176 2.55057E-05 1.61037E-04-6.87887E-06
 -1      9181 2.44310E-05 1.54251E-04-6.96545E-06
 -1      9182 3.65649E-05 1.52304E-04-7.05203E-06
 -1      9183 2.55057E-05 1.61037E-04-7.05203E-06
 -1      9188 2.44310E-05 1.54251E-04-7.13861E-06
 -1      9189 3.65649E-05 1.52304E-04-7.22519E-06
 -1      9190 2.55057E-05 1.61037E-04-7.22520E-06
 -1      9195 2.44310E-05 1.54251E-04-7.31177E-06
 -1      9199 1.22892E-05 1.56149E-04-5.66674E-06
 -1      9203 1.22892E-05 1.56149E-04-5.83990E-06
 -1      9207 1.22892E-05 1.56149E-04-6.01307E-06
 -1      9211 1.22892E-05 1.56149E-04-6.18623E-06
 -1      9215 1.22892E-05 1.56149E-04-6.35939E-06
 -1      9219 1.22892E-05 1.56149E-04-6.53255E-06
 -1      9223 1.22892E-05 1.56149E-04-6.70571E-06
 -1      9227 1.22892E-05 1.56149E-04-6.87887E-06
 -1      9231 1.22892E-05 1.56149E-04-7.05203E-06
 -1      9235 1.22892E-05 1.56149E-04-7.22519E-06
 -1      9241 1.42459E-04 2.25633E-05-5.58016E-06
 -1      9242 1.44189E-04 1.13479E-05-5.66675E-06
 -1      9243 1.48086E-04 2.34545E-05-5.66676E-06
 -1      9248 1.42459E-04 2.25633E-05-5.75333E-06
 -1      9249 1.44189E-04 1.13479E-05-5.83991E-06
 -1      9250 1.48086E-04 2.34545E-05-5.83991E-06
 -1      9255 1.42459E-04 2.25633E-05-5.92649E-06
 -1      9256 1.44189E-04 1.13479E-05-6.01307E-06
 -1      9257 1.48086E-04 2.34545E-05-6.01307E-06
 -1      9262 1.42459E-04 2.25633E-05-6.09965E-06
 -1      9263 1.44189E-04 1.13479E-05-6.18623E-06
 -1      9264 1.48086E-04 2.34545E-05-6.18623E-06
 -1      9269 1.42459E-04 2.25633E-05-6.27281E-06
 -1      9270 1.44189E-04 1.13479E-05-6.35939E-06
 -1      9271 1.48086E-04 2.34545E-05-6.35939E-06
 -1      9276 1.42459E-04 2.25633E-05-6.44597E-06
 -1      9277 1.44189E-04 1.13479E-05-6.53255E-06
 -1      9278 1.48086E-04 2.34545E-05-6.53255E-06
 -1      9283 1.42459E-04 2.25633E-05-6.61913E-06
 -1      9284 1.44189E-04 1.13479E-05-6.70570E-06
 -1      9285 1.48086E-04 2.34545E-05-6.70570E-06
 -1      9290 1.42459E-04 2.25633E-05-6.79228E-06
 -1      9291 1.44189E-04 1.13479E-05-6.87886E-06
 -1      9292 1.48086E-04 2.34545E-05-6.87886E-06
 -1      9297 1.42459E-04 2.25633E-05-6.96544E-06
 -1      9298 1.44189E-04 1.13479E-05-7.05202E-06
 -1      9299 1.48086E-04 2.34545E-05-7.05202E-06
 -1      9304 1.42459E-04 2.25633E-05-7.13860E-06
 -1      9305 1.44189E-04 1.13479E-05-7.22519E-06
 -1      9306 1.48086E-04 2.34545E-05-7.22517E-06
 -1      9311 1.42459E-04 2.25633E-05-7.31177E-06
 -1      9315 1.37176E-04 4.45711E-05-5.58016E-06
 -1      9316 1.40639E-04 3.37644E-05-5.66675E-06
 -1      9317 1.42593E-04 4.63314E-05-5.66676E-06
 -1      9322 1.37176E-04 4.45711E-05-5.75333E-06
 -1      9323 1.40639E-04 3.37644E-05-5.83991E-06
 -1      9324 1.42593E-04 4.63314E-05-5.83991E-06
 -1      9329 1.37176E-04 4.45711E-05-5.92649E-06
 -1      9330 1.40639E-04 3.37644E-05-6.01307E-06
 -1      9331 1.42593E-04 4.63314E-05-6.01307E-06
 -1      9336 1.37176E-04 4.45711E-05-6.09965E-06
 -1      9337 1.40639E-04 3.37644E-05-6.18623E-06
 -1      9338 1.42593E-04 4.63314E-05-6.18623E-06
 -1      9343 1.37176E-04 4.45711E-05-6.27281E-06
 -1      9344 1.40639E-04 3.37644E-05-6.35939E-06
 -1      9345 1.42593E-04 4.63314E-05-6.35939E-06
 -1      9350 1.37176E-04 4.45711E-05-6.44597E-06
 -1      9351 1.40639E-04 3.37644E-05-6.53255E-06
 -1      9352 1.42593E-04 4.63314E-05-6.53255E-06
 -1      9357 1.37176E-04 4.45711E-05-6.61913E-06
 -1      9358 1.40639E-04 3.37644E-05-6.70570E-06
 -1      9359 1.42593E-04 4.63314E-05-6.70570E-06
 -1      9364 1.37176E-04 4.45711E-05-6.79228E-06
 -1      9365 1.40639E-04 3.37644E-05-6.87886E-06
 -1      9366 1.42593E-04 4.63314E-05-6.87886E-06
 -1      9371 1.37176E-04 4.45711E-05-6.96544E-06
 -1      9372 1.40639E-04 3.37644E-05-7.05202E-06
 -1      9373 1.42593E-04 4.63314E-05-7.05202E-06
 -1      9378 1.37176E-04 4.45711E-05-7.13860E-06
 -1      9379 1.40639E-04 3.37644E-05-7.22519E-06
 -1      9380 1.42593E-04 4.63314E-05-7.22517E-06
 -1      9385 1.37176E-04 4.45711E-05-7.31177E-06
 -1      9389 1.28514E-04 6.54814E-05-5.58016E-06
 -1      9390 1.33625E-04 5.53495E-05-5.66675E-06
 -1      9391 1.33590E-04 6.80675E-05-5.66676E-06
 -1      9396 1.28514E-04 6.54814E-05-5.75333E-06
 -1      9397 1.33625E-04 5.53495E-05-5.83991E-06
 -1      9398 1.33590E-04 6.80675E-05-5.83991E-06
 -1      9403 1.28514E-04 6.54814E-05-5.92649E-06
 -1      9404 1.33625E-04 5.53495E-05-6.01307E-06
 -1      9405 1.33590E-04 6.80675E-05-6.01307E-06
 -1      9410 1.28514E-04 6.54814E-05-6.09965E-06
 -1      9411 1.33625E-04 5.53495E-05-6.18623E-06
 -1      9412 1.33590E-04 6.80675E-05-6.18623E-06
 -1      9417 1.28514E-04 6.54814E-05-6.27281E-06
 -1      9418 1.33625E-04 5.53495E-05-6.35939E-06
 -1      9419 1.33590E-04 6.80675E-05-6.35939E-06
 -1      9424 1.28514E-04 6.54814E-05-6.44597E-06
 -1      9425 1.33625E-04 5.53495E-05-6.53255E-06
 -1      9426 1.33590E-04 6.80675E-05-6.53255E-06
 -1      9431 1.28514E-04 6.54814E-05-6.61913E-06
 -1      9432 1.33625E-04 5.53495E-05-6.70570E-06
 -1      9433 1.33590E-04 6.80675E-05-6.70570E-06
 -1      9438 1.28514E-04 6.54814E-05-6.79228E-06
 -1      9439 1.33625E-04 5.53495E-05-6.87886E-06
 -1      9440 1.33590E-04 6.80675E-05-6.87886E-06
 -1      9445 1.28514E-04 6.54814E-05-6.96544E-06
 -1      9446 1.33625E-04 5.53495E-05-7.05202E-06
 -1      9447 1.33590E-04 6.80675E-05-7.05202E-06
 -1      9452 1.28514E-04 6.54814E-05-7.13860E-06
 -1      9453 1.33625E-04 5.53495E-05-7.22519E-06
 -1      9454 1.33590E-04 6.80675E-05-7.22517E-06
 -1      9459 1.28514E-04 6.54814E-05-7.31177E-06
 -1      9463 1.16689E-04 8.47792E-05-5.58016E-06
 -1      9464 1.23322E-04 7.55717E-05-5.66675E-06
 -1      9465 1.21297E-04 8.81276E-05-5.66676E-06
 -1      9470 1.16689E-04 8.47792E-05-5.75333E-06
 -1      9471 1.23322E-04 7.55717E-05-5.83991E-06
 -1      9472 1.21297E-04 8.81276E-05-5.83991E-06
 -1      9477 1.16689E-04 8.47792E-05-5.92649E-06
 -1      9478 1.23322E-04 7.55717E-05-6.01307E-06
 -1      9479 1.21297E-04 8.81276E-05-6.01307E-06
 -1      9484 1.16689E-04 8.47792E-05-6.09965E-06
 -1      9485 1.23322E-04 7.55717E-05-6.18623E-06
 -1      9486 1.21297E-04 8.81276E-05-6.18623E-06
 -1      9491 1.16689E-04 8.47793E-05-6.27281E-06
 -1      9492 1.23322E-04 7.55717E-05-6.35939E-06
 -1      9493 1.21297E-04 8.81276E-05-6.35939E-06
 -1      9498 1.16689E-04 8.47793E-05-6.44597E-06
 -1      9499 1.23322E-04 7.55717E-05-6.53255E-06
 -1      9500 1.21297E-04 8.81276E-05-6.53255E-06
 -1      9505 1.16689E-04 8.47793E-05-6.61913E-06
 -1      9506 1.23322E-04 7.55717E-05-6.70570E-06
 -1      9507 1.21297E-04 8.81276E-05-6.70570E-06
 -1      9512 1.16689E-04 8.47792E-05-6.79228E-06
 -1      9513 1.23322E-04 7.55717E-05-6.87886E-06
 -1      9514 1.21297E-04 8.81276E-05-6.87886E-06
 -1      9519 1.16689E-04 8.47792E-05-6.96544E-06
 -1      9520 1.23322E-04 7.55717E-05-7.05202E-06
 -1      9521 1.21297E-04 8.81276E-05-7.05202E-06
 -1      9526 1.16689E-04 8.47792E-05-7.13860E-06
 -1      9527 1.23322E-04 7.55717E-05-7.22519E-06
 -1      9528 1.21297E-04 8.81276E-05-7.22517E-06
 -1      9533 1.16689E-04 8.47792E-05-7.31177E-06
 -1      9537 1.01990E-04 1.01990E-04-5.58016E-06
 -1      9538 1.09981E-04 9.39330E-05-5.66675E-06
 -1      9539 1.06018E-04 1.06018E-04-5.66676E-06
 -1      9544 1.01990E-04 1.01990E-04-5.75333E-06
 -1      9545 1.09981E-04 9.39330E-05-5.83991E-06
 -1      9546 1.06018E-04 1.06018E-04-5.83991E-06
 -1      9551 1.01990E-04 1.01990E-04-5.92649E-06
 -1      9552 1.09981E-04 9.39330E-05-6.01307E-06
 -1      9553 1.06018E-04 1.06018E-04-6.01307E-06
 -1      9558 1.01990E-04 1.01990E-04-6.09965E-06
 -1      9559 1.09981E-04 9.39330E-05-6.18623E-06
 -1      9560 1.06018E-04 1.06018E-04-6.18623E-06
 -1      9565 1.01990E-04 1.01990E-04-6.27281E-06
 -1      9566 1.09981E-04 9.39330E-05-6.35939E-06
 -1      9567 1.06018E-04 1.06018E-04-6.35939E-06
 -1      9572 1.01990E-04 1.01990E-04-6.44597E-06
 -1      9573 1.09981E-04 9.39330E-05-6.53255E-06
 -1      9574 1.06018E-04 1.06018E-04-6.53255E-06
 -1      9579 1.01990E-04 1.01990E-04-6.61913E-06
 -1      9580 1.09981E-04 9.39330E-05-6.70570E-06
 -1      9581 1.06018E-04 1.06018E-04-6.70570E-06
 -1      9586 1.01990E-04 1.01990E-04-6.79228E-06
 -1      9587 1.09981E-04 9.39330E-05-6.87886E-06
 -1      9588 1.06018E-04 1.06018E-04-6.87886E-06
 -1      9593 1.01990E-04 1.01990E-04-6.96544E-06
 -1      9594 1.09981E-04 9.39330E-05-7.05202E-06
 -1      9595 1.06018E-04 1.06018E-04-7.05202E-06
 -1      9600 1.01990E-04 1.01990E-04-7.13860E-06
 -1      9601 1.09981E-04 9.39330E-05-7.22519E-06
 -1      9602 1.06018E-04 1.06018E-04-7.22517E-06
 -1      9607 1.01990E-04 1.01990E-04-7.31177E-06
 -1      9611 8.47792E-05 1.16689E-04-5.58016E-06
 -1      9612 9.39330E-05 1.09981E-04-5.66675E-06
 -1      9613 8.81276E-05 1.21297E-04-5.66676E-06
 -1      9618 8.47792E-05 1.16689E-04-5.75333E-06
 -1      9619 9.39330E-05 1.09981E-04-5.83991E-06
 -1      9620 8.81276E-05 1.21297E-04-5.83991E-06
 -1      9625 8.47792E-05 1.16689E-04-5.92649E-06
 -1      9626 9.39330E-05 1.09981E-04-6.01307E-06
 -1      9627 8.81276E-05 1.21297E-04-6.01307E-06
 -1      9632 8.47792E-05 1.16689E-04-6.09965E-06
 -1      9633 9.39330E-05 1.09981E-04-6.18623E-06
 -1      9634 8.81276E-05 1.21297E-04-6.18623E-06
 -1      9639 8.47793E-05 1.16689E-04-6.27281E-06
 -1      9640 9.39330E-05 1.09981E-04-6.35939E-06
 -1      9641 8.81276E-05 1.21297E-04-6.35939E-06
 -1      9646 8.47793E-05 1.16689E-04-6.44597E-06
 -1      9647 9.39330E-05 1.09981E-04-6.53255E-06
 -1      9648 8.81276E-05 1.21297E-04-6.53255E-06
 -1      9653 8.47793E-05 1.16689E-04-6.61913E-06
 -1      9654 9.39330E-05 1.09981E-04-6.70570E-06
 -1      9655 8.81276E-05 1.21297E-04-6.70570E-06
 -1      9660 8.47792E-05 1.16689E-04-6.79228E-06
 -1      9661 9.39330E-05 1.09981E-04-6.87886E-06
 -1      9662 8.81276E-05 1.21297E-04-6.87886E-06
 -1      9667 8.47792E-05 1.16689E-04-6.96544E-06
 -1      9668 9.39330E-05 1.09981E-04-7.05202E-06
 -1      9669 8.81276E-05 1.21297E-04-7.05202E-06
 -1      9674 8.47792E-05 1.16689E-04-7.13860E-06
 -1      9675 9.39330E-05 1.09981E-04-7.22519E-06
 -1      9676 8.81276E-05 1.21297E-04-7.22517E-06
 -1      9681 8.47792E-05 1.16689E-04-7.31177E-06
 -1      9685 6.54814E-05 1.28514E-04-5.58016E-06
 -1      9686 7.55717E-05 1.23322E-04-5.66675E-06
 -1      9687 6.80675E-05 1.33590E-04-5.66676E-06
 -1      9692 6.54814E-05 1.28514E-04-5.75333E-06
 -1      9693 7.55717E-05 1.23322E-04-5.83991E-06
 -1      9694 6.80675E-05 1.33590E-04-5.83991E-06
 -1      9699 6.54814E-05 1.28514E-04-5.92649E-06
 -1      9700 7.55717E-05 1.23322E-04-6.01307E-06
 -1      9701 6.80675E-05 1.33590E-04-6.01307E-06
 -1      9706 6.54814E-05 1.28514E-04-6.09965E-06
 -1      9707 7.55717E-05 1.23322E-04-6.18623E-06
 -1      9708 6.80675E-05 1.33590E-04-6.18623E-06
 -1      9713 6.54814E-05 1.28514E-04-6.27281E-06
 -1      9714 7.55717E-05 1.23322E-04-6.35939E-06
 -1      9715 6.80675E-05 1.33590E-04-6.35939E-06
 -1      9720 6.54814E-05 1.28514E-04-6.44597E-06
 -1      9721 7.55717E-05 1.23322E-04-6.53255E-06
 -1      9722 6.80675E-05 1.33590E-04-6.53255E-06
 -1      9727 6.54814E-05 1.28514E-04-6.61913E-06
 -1      9728 7.55717E-05 1.23322E-04-6.70570E-06
 -1      9729 6.80675E-05 1.33590E-04-6.70570E-06
 -1      9734 6.54814E-05 1.28514E-04-6.79228E-06
 -1      9735 7.55717E-05 1.23322E-04-6.87886E-06
 -1      9736 6.80675E-05 1.33590E-04-6.87886E-06
 -1      9741 6.54814E-05 1.28514E-04-6.96544E-06
 -1      9742 7.55717E-05 1.23322E-04-7.05202E-06
 -1      9743 6.80675E-05 1.33590E-04-7.05202E-06
 -1      9748 6.54814E-05 1.28514E-04-7.13860E-06
 -1      9749 7.55717E-05 1.23322E-04-7.22519E-06
 -1      9750 6.80675E-05 1.33590E-04-7.22517E-06
 -1      9755 6.54814E-05 1.28514E-04-7.31177E-06
 -1      9759 4.45711E-05 1.37176E-04-5.58016E-06
 -1      9760 5.53495E-05 1.33625E-04-5.66675E-06
 -1      9761 4.63314E-05 1.42593E-04-5.66676E-06
 -1      9766 4.45711E-05 1.37176E-04-5.75333E-06
 -1      9767 5.53495E-05 1.33625E-04-5.83991E-06
 -1      9768 4.63314E-05 1.42593E-04-5.83991E-06
 -1      9773 4.45711E-05 1.37176E-04-5.92649E-06
 -1      9774 5.53495E-05 1.33625E-04-6.01307E-06
 -1      9775 4.63314E-05 1.42593E-04-6.01307E-06
 -1      9780 4.45711E-05 1.37176E-04-6.09965E-06
 -1      9781 5.53495E-05 1.33625E-04-6.18623E-06
 -1      9782 4.63314E-05 1.42593E-04-6.18623E-06
 -1      9787 4.45711E-05 1.37176E-04-6.27281E-06
 -1      9788 5.53495E-05 1.33625E-04-6.35939E-06
 -1      9789 4.63314E-05 1.42593E-04-6.35939E-06
 -1      9794 4.45711E-05 1.37176E-04-6.44597E-06
 -1      9795 5.53495E-05 1.33625E-04-6.53255E-06
 -1      9796 4.63314E-05 1.42593E-04-6.53255E-06
 -1      9801 4.45711E-05 1.37176E-04-6.61913E-06
 -1      9802 5.53495E-05 1.33625E-04-6.70570E-06
 -1      9803 4.63314E-05 1.42593E-04-6.70570E-06
 -1      9808 4.45711E-05 1.37176E-04-6.79228E-06
 -1      9809 5.53495E-05 1.33625E-04-6.87886E-06
 -1      9810 4.63314E-05 1.42593E-04-6.87886E-06
 -1      9815 4.45711E-05 1.37176E-04-6.96544E-06
 -1      9816 5.53495E-05 1.33625E-04-7.05202E-06
 -1      9817 4.63314E-05 1.42593E-04-7.05202E-06
 -1      9822 4.45711E-05 1.37176E-04-7.13860E-06
 -1      9823 5.53495E-05 1.33625E-04-7.22519E-06
 -1      9824 4.63314E-05 1.42593E-04-7.22517E-06
 -1      9829 4.45711E-05 1.37176E-04-7.31177E-06
 -1      9833 2.25633E-05 1.42459E-04-5.58016E-06
 -1      9834 3.37644E-05 1.40639E-04-5.66675E-06
 -1      9835 2.34545E-05 1.48086E-04-5.66676E-06
 -1      9840 2.25633E-05 1.42459E-04-5.75333E-06
 -1      9841 3.37644E-05 1.40639E-04-5.83991E-06
 -1      9842 2.34545E-05 1.48086E-04-5.83991E-06
 -1      9847 2.25633E-05 1.42459E-04-5.92649E-06
 -1      9848 3.37644E-05 1.40639E-04-6.01307E-06
 -1      9849 2.34545E-05 1.48086E-04-6.01307E-06
 -1      9854 2.25633E-05 1.42459E-04-6.09965E-06
 -1      9855 3.37644E-05 1.40639E-04-6.18623E-06
 -1      9856 2.34545E-05 1.48086E-04-6.18623E-06
 -1      9861 2.25633E-05 1.42459E-04-6.27281E-06
 -1      9862 3.37644E-05 1.40639E-04-6.35939E-06
 -1      9863 2.34545E-05 1.48086E-04-6.35939E-06
 -1      9868 2.25633E-05 1.42459E-04-6.44597E-06
 -1      9869 3.37644E-05 1.40639E-04-6.53255E-06
 -1      9870 2.34545E-05 1.48086E-04-6.53255E-06
 -1      9875 2.25633E-05 1.42459E-04-6.61913E-06
 -1      9876 3.37644E-05 1.40639E-04-6.70570E-06
 -1      9877 2.34545E-05 1.48086E-04-6.70570E-06
 -1      9882 2.25633E-05 1.42459E-04-6.79228E-06
 -1      9883 3.37644E-05 1.40639E-04-6.87886E-06
 -1      9884 2.34545E-05 1.48086E-04-6.87886E-06
 -1      9889 2.25633E-05 1.42459E-04-6.96544E-06
 -1      9890 3.37644E-05 1.40639E-04-7.05202E-06
 -1      9891 2.34545E-05 1.48086E-04-7.05202E-06
 -1      9896 2.25633E-05 1.42459E-04-7.13860E-06
 -1      9897 3.37644E-05 1.40639E-04-7.22519E-06
 -1      9898 2.34545E-05 1.48086E-04-7.22517E-06
 -1      9903 2.25633E-05 1.42459E-04-7.31177E-06
 -1      9907 1.13479E-05 1.44189E-04-5.66675E-06
 -1      9911 1.13479E-05 1.44189E-04-5.83991E-06
 -1      9915 1.13479E-05 1.44189E-04-6.01307E-06
 -1      9919 1.13479E-05 1.44189E-04-6.18623E-06
 -1      9923 1.13479E-05 1.44189E-04-6.35939E-06
 -1      9927 1.13479E-05 1.44189E-04-6.53255E-06
 -1      9931 1.13479E-05 1.44189E-04-6.70570E-06
 -1      9935 1.13479E-05 1.44189E-04-6.87886E-06
 -1      9939 1.13479E-05 1.44189E-04-7.05202E-06
 -1      9943 1.13479E-05 1.44189E-04-7.22519E-06
 -1      9949 1.32553E-04 2.09943E-05-5.58017E-06
 -1      9950 1.34161E-04 1.05587E-05-5.66675E-06
 -1      9951 1.37296E-04 2.17456E-05-5.66674E-06
 -1      9956 1.32553E-04 2.09943E-05-5.75333E-06
 -1      9957 1.34161E-04 1.05587E-05-5.83990E-06
 -1      9958 1.37296E-04 2.17456E-05-5.83990E-06
 -1      9963 1.32553E-04 2.09943E-05-5.92648E-06
 -1      9964 1.34161E-04 1.05587E-05-6.01306E-06
 -1      9965 1.37296E-04 2.17456E-05-6.01307E-06
 -1      9970 1.32553E-04 2.09943E-05-6.09965E-06
 -1      9971 1.34161E-04 1.05587E-05-6.18623E-06
 -1      9972 1.37296E-04 2.17456E-05-6.18623E-06
 -1      9977 1.32553E-04 2.09943E-05-6.27281E-06
 -1      9978 1.34161E-04 1.05587E-05-6.35939E-06
 -1      9979 1.37296E-04 2.17456E-05-6.35939E-06
 -1      9984 1.32553E-04 2.09943E-05-6.44597E-06
 -1      9985 1.34161E-04 1.05587E-05-6.53255E-06
 -1      9986 1.37296E-04 2.17456E-05-6.53255E-06
 -1      9991 1.32553E-04 2.09943E-05-6.61913E-06
 -1      9992 1.34161E-04 1.05587E-05-6.70571E-06
 -1      9993 1.37296E-04 2.17456E-05-6.70571E-06
 -1      9998 1.32553E-04 2.09943E-05-6.79229E-06
 -1      9999 1.34161E-04 1.05587E-05-6.87887E-06
 -1     10000 1.37296E-04 2.17456E-05-6.87887E-06
 -1     10005 1.32553E-04 2.09943E-05-6.96545E-06
 -1     10006 1.34161E-04 1.05587E-05-7.05203E-06
 -1     10007 1.37296E-04 2.17456E-05-7.05203E-06
 -1     10012 1.32553E-04 2.09943E-05-7.13861E-06
 -1     10013 1.34161E-04 1.05587E-05-7.22519E-06
 -1     10014 1.37296E-04 2.17456E-05-7.22519E-06
 -1     10019 1.32553E-04 2.09943E-05-7.31177E-06
 -1     10023 1.27637E-04 4.14717E-05-5.58017E-06
 -1     10024 1.30858E-04 3.14161E-05-5.66675E-06
 -1     10025 1.32204E-04 4.29557E-05-5.66674E-06
 -1     10030 1.27637E-04 4.14717E-05-5.75333E-06
 -1     10031 1.30858E-04 3.14161E-05-5.83990E-06
 -1     10032 1.32204E-04 4.29557E-05-5.83990E-06
 -1     10037 1.27637E-04 4.14717E-05-5.92648E-06
 -1     10038 1.30858E-04 3.14161E-05-6.01306E-06
 -1     10039 1.32204E-04 4.29557E-05-6.01307E-06
 -1     10044 1.27637E-04 4.14717E-05-6.09965E-06
 -1     10045 1.30858E-04 3.14161E-05-6.18623E-06
 -1     10046 1.32204E-04 4.29557E-05-6.18623E-06
 -1     10051 1.27637E-04 4.14717E-05-6.27281E-06
 -1     10052 1.30858E-04 3.14161E-05-6.35939E-06
 -1     10053 1.32204E-04 4.29557E-05-6.35939E-06
 -1     10058 1.27637E-04 4.14717E-05-6.44597E-06
 -1     10059 1.30858E-04 3.14161E-05-6.53255E-06
 -1     10060 1.32204E-04 4.29557E-05-6.53255E-06
 -1     10065 1.27637E-04 4.14717E-05-6.61913E-06
 -1     10066 1.30858E-04 3.14161E-05-6.70571E-06
 -1     10067 1.32204E-04 4.29557E-05-6.70571E-06
 -1     10072 1.27637E-04 4.14717E-05-6.79229E-06
 -1     10073 1.30858E-04 3.14161E-05-6.87887E-06
 -1     10074 1.32204E-04 4.29557E-05-6.87887E-06
 -1     10079 1.27637E-04 4.14717E-05-6.96545E-06
 -1     10080 1.30858E-04 3.14161E-05-7.05203E-06
 -1     10081 1.32204E-04 4.29557E-05-7.05203E-06
 -1     10086 1.27637E-04 4.14717E-05-7.13861E-06
 -1     10087 1.30858E-04 3.14161E-05-7.22519E-06
 -1     10088 1.32204E-04 4.29557E-05-7.22519E-06
 -1     10093 1.27637E-04 4.14717E-05-7.31177E-06
 -1     10097 1.19578E-04 6.09280E-05-5.58017E-06
 -1     10098 1.24332E-04 5.15000E-05-5.66675E-06
 -1     10099 1.23857E-04 6.31082E-05-5.66674E-06
 -1     10104 1.19578E-04 6.09280E-05-5.75333E-06
 -1     10105 1.24332E-04 5.15000E-05-5.83990E-06
 -1     10106 1.23857E-04 6.31082E-05-5.83990E-06
 -1     10111 1.19578E-04 6.09280E-05-5.92648E-06
 -1     10112 1.24332E-04 5.15000E-05-6.01306E-06
 -1     10113 1.23857E-04 6.31082E-05-6.01307E-06
 -1     10118 1.19578E-04 6.09280E-05-6.09965E-06
 -1     10119 1.24332E-04 5.15000E-05-6.18623E-06
 -1     10120 1.23857E-04 6.31082E-05-6.18623E-06
 -1     10125 1.19578E-04 6.09280E-05-6.27281E-06
 -1     10126 1.24332E-04 5.15000E-05-6.35939E-06
 -1     10127 1.23857E-04 6.31082E-05-6.35939E-06
 -1     10132 1.19578E-04 6.09280E-05-6.44597E-06
 -1     10133 1.24332E-04 5.15000E-05-6.53255E-06
 -1     10134 1.23857E-04 6.31082E-05-6.53255E-06
 -1     10139 1.19578E-04 6.09280E-05-6.61913E-06
 -1     10140 1.24332E-04 5.15000E-05-6.70571E-06
 -1     10141 1.23857E-04 6.31082E-05-6.70571E-06
 -1     10146 1.19578E-04 6.09280E-05-6.79229E-06
 -1     10147 1.24332E-04 5.15000E-05-6.87887E-06
 -1     10148 1.23857E-04 6.31082E-05-6.87887E-06
 -1     10153 1.19578E-04 6.09280E-05-6.96545E-06
 -1     10154 1.24332E-04 5.15000E-05-7.05203E-06
 -1     10155 1.23857E-04 6.31082E-05-7.05203E-06
 -1     10160 1.19578E-04 6.09280E-05-7.13861E-06
 -1     10161 1.24332E-04 5.15000E-05-7.22519E-06
 -1     10162 1.23857E-04 6.31082E-05-7.22519E-06
 -1     10167 1.19578E-04 6.09280E-05-7.31177E-06
 -1     10171 1.08574E-04 7.88839E-05-5.58017E-06
 -1     10172 1.14745E-04 7.03158E-05-5.66675E-06
 -1     10173 1.12460E-04 8.17067E-05-5.66674E-06
 -1     10178 1.08574E-04 7.88839E-05-5.75333E-06
 -1     10179 1.14745E-04 7.03158E-05-5.83990E-06
 -1     10180 1.12460E-04 8.17067E-05-5.83990E-06
 -1     10185 1.08574E-04 7.88839E-05-5.92648E-06
 -1     10186 1.14745E-04 7.03158E-05-6.01306E-06
 -1     10187 1.12460E-04 8.17067E-05-6.01307E-06
 -1     10192 1.08574E-04 7.88839E-05-6.09965E-06
 -1     10193 1.14745E-04 7.03158E-05-6.18623E-06
 -1     10194 1.12460E-04 8.17067E-05-6.18623E-06
 -1     10199 1.08574E-04 7.88839E-05-6.27281E-06
 -1     10200 1.14745E-04 7.03158E-05-6.35939E-06
 -1     10201 1.12460E-04 8.17067E-05-6.35939E-06
 -1     10206 1.08574E-04 7.88839E-05-6.44597E-06
 -1     10207 1.14745E-04 7.03158E-05-6.53255E-06
 -1     10208 1.12460E-04 8.17067E-05-6.53255E-06
 -1     10213 1.08574E-04 7.88839E-05-6.61913E-06
 -1     10214 1.14745E-04 7.03158E-05-6.70571E-06
 -1     10215 1.12460E-04 8.17067E-05-6.70571E-06
 -1     10220 1.08574E-04 7.88839E-05-6.79229E-06
 -1     10221 1.14745E-04 7.03158E-05-6.87887E-06
 -1     10222 1.12460E-04 8.17067E-05-6.87887E-06
 -1     10227 1.08574E-04 7.88839E-05-6.96545E-06
 -1     10228 1.14745E-04 7.03158E-05-7.05203E-06
 -1     10229 1.12460E-04 8.17067E-05-7.05203E-06
 -1     10234 1.08574E-04 7.88839E-05-7.13861E-06
 -1     10235 1.14745E-04 7.03158E-05-7.22519E-06
 -1     10236 1.12460E-04 8.17067E-05-7.22519E-06
 -1     10241 1.08574E-04 7.88839E-05-7.31177E-06
 -1     10245 9.48975E-05 9.48975E-05-5.58017E-06
 -1     10246 1.02332E-04 8.74001E-05-5.66675E-06
 -1     10247 9.82933E-05 9.82933E-05-5.66674E-06
 -1     10252 9.48975E-05 9.48975E-05-5.75333E-06
 -1     10253 1.02332E-04 8.74001E-05-5.83990E-06
 -1     10254 9.82933E-05 9.82933E-05-5.83990E-06
 -1     10259 9.48975E-05 9.48975E-05-5.92648E-06
 -1     10260 1.02332E-04 8.74001E-05-6.01306E-06
 -1     10261 9.82933E-05 9.82933E-05-6.01307E-06
 -1     10266 9.48975E-05 9.48975E-05-6.09965E-06
 -1     10267 1.02332E-04 8.74001E-05-6.18623E-06
 -1     10268 9.82933E-05 9.82933E-05-6.18623E-06
 -1     10273 9.48975E-05 9.48975E-05-6.27281E-06
 -1     10274 1.02332E-04 8.74001E-05-6.35939E-06
 -1     10275 9.82933E-05 9.82933E-05-6.35939E-06
 -1     10280 9.48975E-05 9.48975E-05-6.44597E-06
 -1     10281 1.02332E-04 8.74001E-05-6.53255E-06
 -1     10282 9.82933E-05 9.82933E-05-6.53255E-06
 -1     10287 9.48975E-05 9.48975E-05-6.61913E-06
 -1     10288 1.02332E-04 8.74001E-05-6.70571E-06
 -1     10289 9.82933E-05 9.82933E-05-6.70571E-06
 -1     10294 9.48975E-05 9.48975E-05-6.79229E-06
 -1     10295 1.02332E-04 8.74001E-05-6.87887E-06
 -1     10296 9.82933E-05 9.82933E-05-6.87887E-06
 -1     10301 9.48975E-05 9.48975E-05-6.96545E-06
 -1     10302 1.02332E-04 8.74001E-05-7.05203E-06
 -1     10303 9.82933E-05 9.82933E-05-7.05203E-06
 -1     10308 9.48975E-05 9.48975E-05-7.13861E-06
 -1     10309 1.02332E-04 8.74001E-05-7.22519E-06
 -1     10310 9.82933E-05 9.82933E-05-7.22519E-06
 -1     10315 9.48975E-05 9.48975E-05-7.31177E-06
 -1     10319 7.88839E-05 1.08574E-04-5.58017E-06
 -1     10320 8.74001E-05 1.02332E-04-5.66675E-06
 -1     10321 8.17067E-05 1.12460E-04-5.66674E-06
 -1     10326 7.88839E-05 1.08574E-04-5.75333E-06
 -1     10327 8.74001E-05 1.02332E-04-5.83990E-06
 -1     10328 8.17067E-05 1.12460E-04-5.83990E-06
 -1     10333 7.88839E-05 1.08574E-04-5.92648E-06
 -1     10334 8.74001E-05 1.02332E-04-6.01306E-06
 -1     10335 8.17067E-05 1.12460E-04-6.01307E-06
 -1     10340 7.88839E-05 1.08574E-04-6.09965E-06
 -1     10341 8.74001E-05 1.02332E-04-6.18623E-06
 -1     10342 8.17067E-05 1.12460E-04-6.18623E-06
 -1     10347 7.88839E-05 1.08574E-04-6.27281E-06
 -1     10348 8.74001E-05 1.02332E-04-6.35939E-06
 -1     10349 8.17067E-05 1.12460E-04-6.35939E-06
 -1     10354 7.88839E-05 1.08574E-04-6.44597E-06
 -1     10355 8.74001E-05 1.02332E-04-6.53255E-06
 -1     10356 8.17067E-05 1.12460E-04-6.53255E-06
 -1     10361 7.88839E-05 1.08574E-04-6.61913E-06
 -1     10362 8.74001E-05 1.02332E-04-6.70571E-06
 -1     10363 8.17067E-05 1.12460E-04-6.70571E-06
 -1     10368 7.88839E-05 1.08574E-04-6.79229E-06
 -1     10369 8.74001E-05 1.02332E-04-6.87887E-06
 -1     10370 8.17067E-05 1.12460E-04-6.87887E-06
 -1     10375 7.88839E-05 1.08574E-04-6.96545E-06
 -1     10376 8.74001E-05 1.02332E-04-7.05203E-06
 -1     10377 8.17067E-05 1.12460E-04-7.05203E-06
 -1     10382 7.88839E-05 1.08574E-04-7.13861E-06
 -1     10383 8.74001E-05 1.02332E-04-7.22519E-06
 -1     10384 8.17067E-05 1.12460E-04-7.22519E-06
 -1     10389 7.88839E-05 1.08574E-04-7.31177E-06
 -1     10393 6.09280E-05 1.19578E-04-5.58017E-06
 -1     10394 7.03158E-05 1.14745E-04-5.66675E-06
 -1     10395 6.31082E-05 1.23857E-04-5.66674E-06
 -1     10400 6.09280E-05 1.19578E-04-5.75333E-06
 -1     10401 7.03158E-05 1.14745E-04-5.83990E-06
 -1     10402 6.31082E-05 1.23857E-04-5.83990E-06
 -1     10407 6.09280E-05 1.19578E-04-5.92648E-06
 -1     10408 7.03158E-05 1.14745E-04-6.01306E-06
 -1     10409 6.31082E-05 1.23857E-04-6.01307E-06
 -1     10414 6.09280E-05 1.19578E-04-6.09965E-06
 -1     10415 7.03158E-05 1.14745E-04-6.18623E-06
 -1     10416 6.31082E-05 1.23857E-04-6.18623E-06
 -1     10421 6.09280E-05 1.19578E-04-6.27281E-06
 -1     10422 7.03158E-05 1.14745E-04-6.35939E-06
 -1     10423 6.31082E-05 1.23857E-04-6.35939E-06
 -1     10428 6.09280E-05 1.19578E-04-6.44597E-06
 -1     10429 7.03158E-05 1.14745E-04-6.53255E-06
 -1     10430 6.31082E-05 1.23857E-04-6.53255E-06
 -1     10435 6.09280E-05 1.19578E-04-6.61913E-06
 -1     10436 7.03158E-05 1.14745E-04-6.70571E-06
 -1     10437 6.31082E-05 1.23857E-04-6.70571E-06
 -1     10442 6.09280E-05 1.19578E-04-6.79229E-06
 -1     10443 7.03158E-05 1.14745E-04-6.87887E-06
 -1     10444 6.31082E-05 1.23857E-04-6.87887E-06
 -1     10449 6.09280E-05 1.19578E-04-6.96545E-06
 -1     10450 7.03158E-05 1.14745E-04-7.05203E-06
 -1     10451 6.31082E-05 1.23857E-04-7.05203E-06
 -1     10456 6.09280E-05 1.19578E-04-7.13861E-06
 -1     10457 7.03158E-05 1.14745E-04-7.22519E-06
 -1     10458 6.31082E-05 1.23857E-04-7.22519E-06
 -1     10463 6.09280E-05 1.19578E-04-7.31177E-06
 -1     10467 4.14717E-05 1.27637E-04-5.58017E-06
 -1     10468 5.15000E-05 1.24332E-04-5.66675E-06
 -1     10469 4.29557E-05 1.32204E-04-5.66674E-06
 -1     10474 4.14717E-05 1.27637E-04-5.75333E-06
 -1     10475 5.15000E-05 1.24332E-04-5.83990E-06
 -1     10476 4.29557E-05 1.32204E-04-5.83990E-06
 -1     10481 4.14717E-05 1.27637E-04-5.92648E-06
 -1     10482 5.15000E-05 1.24332E-04-6.01306E-06
 -1     10483 4.29557E-05 1.32204E-04-6.01307E-06
 -1     10488 4.14717E-05 1.27637E-04-6.09965E-06
 -1     10489 5.15000E-05 1.24332E-04-6.18623E-06
 -1     10490 4.29557E-05 1.32204E-04-6.18623E-06
 -1     10495 4.14717E-05 1.27637E-04-6.27281E-06
 -1     10496 5.15000E-05 1.24332E-04-6.35939E-06
 -1     10497 4.29557E-05 1.32204E-04-6.35939E-06
 -1     10502 4.14717E-05 1.27637E-04-6.44597E-06
 -1     10503 5.15000E-05 1.24332E-04-6.53255E-06
 -1     10504 4.29557E-05 1.32204E-04-6.53255E-06
 -1     10509 4.14717E-05 1.27637E-04-6.61913E-06
 -1     10510 5.15000E-05 1.24332E-04-6.70571E-06
 -1     10511 4.29557E-05 1.32204E-04-6.70571E-06
 -1     10516 4.14717E-05 1.27637E-04-6.79229E-06
 -1     10517 5.15000E-05 1.24332E-04-6.87887E-06
 -1     10518 4.29557E-05 1.32204E-04-6.87887E-06
 -1     10523 4.14717E-05 1.27637E-04-6.96545E-06
 -1     10524 5.15000E-05 1.24332E-04-7.05203E-06
 -1     10525 4.29557E-05 1.32204E-04-7.05203E-06
 -1     10530 4.14717E-05 1.27637E-04-7.13861E-06
 -1     10531 5.15000E-05 1.24332E-04-7.22519E-06
 -1     10532 4.29557E-05 1.32204E-04-7.22519E-06
 -1     10537 4.14717E-05 1.27637E-04-7.31177E-06
 -1     10541 2.09943E-05 1.32553E-04-5.58017E-06
 -1     10542 3.14161E-05 1.30858E-04-5.66675E-06
 -1     10543 2.17456E-05 1.37296E-04-5.66674E-06
 -1     10548 2.09943E-05 1.32553E-04-5.75333E-06
 -1     10549 3.14161E-05 1.30858E-04-5.83990E-06
 -1     10550 2.17456E-05 1.37296E-04-5.83990E-06
 -1     10555 2.09943E-05 1.32553E-04-5.92648E-06
 -1     10556 3.14161E-05 1.30858E-04-6.01306E-06
 -1     10557 2.17456E-05 1.37296E-04-6.01307E-06
 -1     10562 2.09943E-05 1.32553E-04-6.09965E-06
 -1     10563 3.14161E-05 1.30858E-04-6.18623E-06
 -1     10564 2.17456E-05 1.37296E-04-6.18623E-06
 -1     10569 2.09943E-05 1.32553E-04-6.27281E-06
 -1     10570 3.14161E-05 1.30858E-04-6.35939E-06
 -1     10571 2.17456E-05 1.37296E-04-6.35939E-06
 -1     10576 2.09943E-05 1.32553E-04-6.44597E-06
 -1     10577 3.14161E-05 1.30858E-04-6.53255E-06
 -1     10578 2.17456E-05 1.37296E-04-6.53255E-06
 -1     10583 2.09943E-05 1.32553E-04-6.61913E-06
 -1     10584 3.14161E-05 1.30858E-04-6.70571E-06
 -1     10585 2.17456E-05 1.37296E-04-6.70571E-06
 -1     10590 2.09943E-05 1.32553E-04-6.79229E-06
 -1     10591 3.14161E-05 1.30858E-04-6.87887E-06
 -1     10592 2.17456E-05 1.37296E-04-6.87887E-06
 -1     10597 2.09943E-05 1.32553E-04-6.96545E-06
 -1     10598 3.14161E-05 1.30858E-04-7.05203E-06
 -1     10599 2.17456E-05 1.37296E-04-7.05203E-06
 -1     10604 2.09943E-05 1.32553E-04-7.13861E-06
 -1     10605 3.14161E-05 1.30858E-04-7.22519E-06
 -1     10606 2.17456E-05 1.37296E-04-7.22519E-06
 -1     10611 2.09943E-05 1.32553E-04-7.31177E-06
 -1     10615 1.05587E-05 1.34161E-04-5.66675E-06
 -1     10619 1.05587E-05 1.34161E-04-5.83990E-06
 -1     10623 1.05587E-05 1.34161E-04-6.01306E-06
 -1     10627 1.05587E-05 1.34161E-04-6.18623E-06
 -1     10631 1.05587E-05 1.34161E-04-6.35939E-06
 -1     10635 1.05587E-05 1.34161E-04-6.53255E-06
 -1     10639 1.05587E-05 1.34161E-04-6.70571E-06
 -1     10643 1.05587E-05 1.34161E-04-6.87887E-06
 -1     10647 1.05587E-05 1.34161E-04-7.05203E-06
 -1     10651 1.05587E-05 1.34161E-04-7.22519E-06
 -1     10657 1.24144E-04 1.96625E-05-5.58017E-06
 -1     10658 1.25643E-04 9.88829E-06-5.66675E-06
 -1     10659 1.28182E-04 2.03020E-05-5.66675E-06
 -1     10664 1.24144E-04 1.96625E-05-5.75333E-06
 -1     10665 1.25643E-04 9.88829E-06-5.83991E-06
 -1     10666 1.28182E-04 2.03020E-05-5.83991E-06
 -1     10671 1.24144E-04 1.96625E-05-5.92649E-06
 -1     10672 1.25643E-04 9.88829E-06-6.01307E-06
 -1     10673 1.28182E-04 2.03020E-05-6.01307E-06
 -1     10678 1.24144E-04 1.96625E-05-6.09965E-06
 -1     10679 1.25643E-04 9.88829E-06-6.18623E-06
 -1     10680 1.28182E-04 2.03020E-05-6.18623E-06
 -1     10685 1.24144E-04 1.96625E-05-6.27281E-06
 -1     10686 1.25643E-04 9.88829E-06-6.35939E-06
 -1     10687 1.28182E-04 2.03020E-05-6.35939E-06
 -1     10692 1.24144E-04 1.96625E-05-6.44597E-06
 -1     10693 1.25643E-04 9.88829E-06-6.53255E-06
 -1     10694 1.28182E-04 2.03020E-05-6.53255E-06
 -1     10699 1.24144E-04 1.96625E-05-6.61913E-06
 -1     10700 1.25643E-04 9.88829E-06-6.70571E-06
 -1     10701 1.28182E-04 2.03020E-05-6.70571E-06
 -1     10706 1.24144E-04 1.96625E-05-6.79229E-06
 -1     10707 1.25643E-04 9.88829E-06-6.87887E-06
 -1     10708 1.28182E-04 2.03020E-05-6.87887E-06
 -1     10713 1.24144E-04 1.96625E-05-6.96545E-06
 -1     10714 1.25643E-04 9.88829E-06-7.05203E-06
 -1     10715 1.28182E-04 2.03020E-05-7.05203E-06
 -1     10720 1.24144E-04 1.96625E-05-7.13861E-06
 -1     10721 1.25643E-04 9.88829E-06-7.22519E-06
 -1     10722 1.28182E-04 2.03020E-05-7.22519E-06
 -1     10727 1.24144E-04 1.96625E-05-7.31177E-06
 -1     10731 1.19540E-04 3.88408E-05-5.58017E-06
 -1     10732 1.22549E-04 2.94214E-05-5.66675E-06
 -1     10733 1.23428E-04 4.01041E-05-5.66675E-06
 -1     10738 1.19540E-04 3.88408E-05-5.75333E-06
 -1     10739 1.22549E-04 2.94214E-05-5.83991E-06
 -1     10740 1.23428E-04 4.01041E-05-5.83991E-06
 -1     10745 1.19540E-04 3.88408E-05-5.92649E-06
 -1     10746 1.22549E-04 2.94214E-05-6.01307E-06
 -1     10747 1.23428E-04 4.01041E-05-6.01307E-06
 -1     10752 1.19540E-04 3.88408E-05-6.09965E-06
 -1     10753 1.22549E-04 2.94214E-05-6.18623E-06
 -1     10754 1.23428E-04 4.01041E-05-6.18623E-06
 -1     10759 1.19540E-04 3.88408E-05-6.27281E-06
 -1     10760 1.22549E-04 2.94214E-05-6.35939E-06
 -1     10761 1.23428E-04 4.01041E-05-6.35939E-06
 -1     10766 1.19540E-04 3.88408E-05-6.44597E-06
 -1     10767 1.22549E-04 2.94214E-05-6.53255E-06
 -1     10768 1.23428E-04 4.01041E-05-6.53255E-06
 -1     10773 1.19540E-04 3.88408E-05-6.61913E-06
 -1     10774 1.22549E-04 2.94214E-05-6.70571E-06
 -1     10775 1.23428E-04 4.01041E-05-6.70571E-06
 -1     10780 1.19540E-04 3.88408E-05-6.79229E-06
 -1     10781 1.22549E-04 2.94214E-05-6.87887E-06
 -1     10782 1.23428E-04 4.01041E-05-6.87887E-06
 -1     10787 1.19540E-04 3.88408E-05-6.96545E-06
 -1     10788 1.22549E-04 2.94214E-05-7.05203E-06
 -1     10789 1.23428E-04 4.01041E-05-7.05203E-06
 -1     10794 1.19540E-04 3.88408E-05-7.13861E-06
 -1     10795 1.22549E-04 2.94214E-05-7.22519E-06
 -1     10796 1.23428E-04 4.01041E-05-7.22519E-06
 -1     10801 1.19540E-04 3.88408E-05-7.31177E-06
 -1     10805 1.11992E-04 5.70627E-05-5.58017E-06
 -1     10806 1.16438E-04 4.82300E-05-5.66675E-06
 -1     10807 1.15635E-04 5.89188E-05-5.66675E-06
 -1     10812 1.11992E-04 5.70627E-05-5.75333E-06
 -1     10813 1.16438E-04 4.82300E-05-5.83991E-06
 -1     10814 1.15635E-04 5.89188E-05-5.83991E-06
 -1     10819 1.11992E-04 5.70627E-05-5.92649E-06
 -1     10820 1.16438E-04 4.82300E-05-6.01307E-06
 -1     10821 1.15635E-04 5.89188E-05-6.01307E-06
 -1     10826 1.11992E-04 5.70627E-05-6.09965E-06
 -1     10827 1.16438E-04 4.82300E-05-6.18623E-06
 -1     10828 1.15635E-04 5.89188E-05-6.18623E-06
 -1     10833 1.11992E-04 5.70627E-05-6.27281E-06
 -1     10834 1.16438E-04 4.82300E-05-6.35939E-06
 -1     10835 1.15635E-04 5.89188E-05-6.35939E-06
 -1     10840 1.11992E-04 5.70627E-05-6.44597E-06
 -1     10841 1.16438E-04 4.82300E-05-6.53255E-06
 -1     10842 1.15635E-04 5.89188E-05-6.53255E-06
 -1     10847 1.11992E-04 5.70627E-05-6.61913E-06
 -1     10848 1.16438E-04 4.82300E-05-6.70571E-06
 -1     10849 1.15635E-04 5.89188E-05-6.70571E-06
 -1     10854 1.11992E-04 5.70627E-05-6.79229E-06
 -1     10855 1.16438E-04 4.82300E-05-6.87887E-06
 -1     10856 1.15635E-04 5.89188E-05-6.87887E-06
 -1     10861 1.11992E-04 5.70627E-05-6.96545E-06
 -1     10862 1.16438E-04 4.82300E-05-7.05203E-06
 -1     10863 1.15635E-04 5.89188E-05-7.05203E-06
 -1     10868 1.11992E-04 5.70627E-05-7.13861E-06
 -1     10869 1.16438E-04 4.82300E-05-7.22519E-06
 -1     10870 1.15635E-04 5.89188E-05-7.22519E-06
 -1     10875 1.11992E-04 5.70627E-05-7.31177E-06
 -1     10879 1.01687E-04 7.38796E-05-5.58017E-06
 -1     10880 1.07459E-04 6.58511E-05-5.66675E-06
 -1     10881 1.04994E-04 7.62826E-05-5.66675E-06
 -1     10886 1.01687E-04 7.38796E-05-5.75333E-06
 -1     10887 1.07459E-04 6.58511E-05-5.83991E-06
 -1     10888 1.04994E-04 7.62826E-05-5.83991E-06
 -1     10893 1.01687E-04 7.38796E-05-5.92649E-06
 -1     10894 1.07459E-04 6.58511E-05-6.01307E-06
 -1     10895 1.04994E-04 7.62826E-05-6.01307E-06
 -1     10900 1.01687E-04 7.38796E-05-6.09965E-06
 -1     10901 1.07459E-04 6.58511E-05-6.18623E-06
 -1     10902 1.04994E-04 7.62826E-05-6.18623E-06
 -1     10907 1.01687E-04 7.38796E-05-6.27281E-06
 -1     10908 1.07459E-04 6.58511E-05-6.35939E-06
 -1     10909 1.04994E-04 7.62826E-05-6.35939E-06
 -1     10914 1.01687E-04 7.38796E-05-6.44597E-06
 -1     10915 1.07459E-04 6.58511E-05-6.53255E-06
 -1     10916 1.04994E-04 7.62826E-05-6.53255E-06
 -1     10921 1.01687E-04 7.38796E-05-6.61913E-06
 -1     10922 1.07459E-04 6.58511E-05-6.70571E-06
 -1     10923 1.04994E-04 7.62826E-05-6.70571E-06
 -1     10928 1.01687E-04 7.38796E-05-6.79229E-06
 -1     10929 1.07459E-04 6.58511E-05-6.87887E-06
 -1     10930 1.04994E-04 7.62826E-05-6.87887E-06
 -1     10935 1.01687E-04 7.38796E-05-6.96545E-06
 -1     10936 1.07459E-04 6.58511E-05-7.05203E-06
 -1     10937 1.04994E-04 7.62826E-05-7.05203E-06
 -1     10942 1.01687E-04 7.38796E-05-7.13861E-06
 -1     10943 1.07459E-04 6.58511E-05-7.22519E-06
 -1     10944 1.04994E-04 7.62826E-05-7.22519E-06
 -1     10949 1.01687E-04 7.38796E-05-7.31177E-06
 -1     10953 8.88773E-05 8.88773E-05-5.58017E-06
 -1     10954 9.58349E-05 8.18507E-05-5.66675E-06
 -1     10955 9.17681E-05 9.17681E-05-5.66675E-06
 -1     10960 8.88773E-05 8.88773E-05-5.75333E-06
 -1     10961 9.58349E-05 8.18507E-05-5.83991E-06
 -1     10962 9.17681E-05 9.17681E-05-5.83991E-06
 -1     10967 8.88773E-05 8.88773E-05-5.92649E-06
 -1     10968 9.58349E-05 8.18507E-05-6.01307E-06
 -1     10969 9.17681E-05 9.17681E-05-6.01307E-06
 -1     10974 8.88773E-05 8.88773E-05-6.09965E-06
 -1     10975 9.58349E-05 8.18507E-05-6.18623E-06
 -1     10976 9.17681E-05 9.17681E-05-6.18623E-06
 -1     10981 8.88773E-05 8.88773E-05-6.27281E-06
 -1     10982 9.58349E-05 8.18507E-05-6.35939E-06
 -1     10983 9.17681E-05 9.17681E-05-6.35939E-06
 -1     10988 8.88773E-05 8.88773E-05-6.44597E-06
 -1     10989 9.58349E-05 8.18507E-05-6.53255E-06
 -1     10990 9.17681E-05 9.17681E-05-6.53255E-06
 -1     10995 8.88773E-05 8.88773E-05-6.61913E-06
 -1     10996 9.58349E-05 8.18507E-05-6.70571E-06
 -1     10997 9.17681E-05 9.17681E-05-6.70571E-06
 -1     11002 8.88773E-05 8.88773E-05-6.79229E-06
 -1     11003 9.58349E-05 8.18507E-05-6.87887E-06
 -1     11004 9.17681E-05 9.17681E-05-6.87887E-06
 -1     11009 8.88773E-05 8.88773E-05-6.96545E-06
 -1     11010 9.58349E-05 8.18507E-05-7.05203E-06
 -1     11011 9.17681E-05 9.17681E-05-7.05203E-06
 -1     11016 8.88773E-05 8.88773E-05-7.13861E-06
 -1     11017 9.58349E-05 8.18507E-05-7.22519E-06
 -1     11018 9.17681E-05 9.17681E-05-7.22519E-06
 -1     11023 8.88773E-05 8.88773E-05-7.31177E-06
 -1     11027 7.38796E-05 1.01687E-04-5.58017E-06
 -1     11028 8.18507E-05 9.58349E-05-5.66675E-06
 -1     11029 7.62826E-05 1.04994E-04-5.66675E-06
 -1     11034 7.38796E-05 1.01687E-04-5.75333E-06
 -1     11035 8.18507E-05 9.58349E-05-5.83991E-06
 -1     11036 7.62826E-05 1.04994E-04-5.83991E-06
 -1     11041 7.38796E-05 1.01687E-04-5.92649E-06
 -1     11042 8.18507E-05 9.58349E-05-6.01307E-06
 -1     11043 7.62826E-05 1.04994E-04-6.01307E-06
 -1     11048 7.38796E-05 1.01687E-04-6.09965E-06
 -1     11049 8.18507E-05 9.58349E-05-6.18623E-06
 -1     11050 7.62826E-05 1.04994E-04-6.18623E-06
 -1     11055 7.38796E-05 1.01687E-04-6.27281E-06
 -1     11056 8.18507E-05 9.58349E-05-6.35939E-06
 -1     11057 7.62826E-05 1.04994E-04-6.35939E-06
 -1     11062 7.38796E-05 1.01687E-04-6.44597E-06
 -1     11063 8.18507E-05 9.58349E-05-6.53255E-06
 -1     11064 7.62826E-05 1.04994E-04-6.53255E-06
 -1     11069 7.38796E-05 1.01687E-04-6.61913E-06
 -1     11070 8.18507E-05 9.58349E-05-6.70571E-06
 -1     11071 7.62826E-05 1.04994E-04-6.70571E-06
 -1     11076 7.38796E-05 1.01687E-04-6.79229E-06
 -1     11077 8.18507E-05 9.58349E-05-6.87887E-06
 -1     11078 7.62826E-05 1.04994E-04-6.87887E-06
 -1     11083 7.38796E-05 1.01687E-04-6.96545E-06
 -1     11084 8.18507E-05 9.58349E-05-7.05203E-06
 -1     11085 7.62826E-05 1.04994E-04-7.05203E-06
 -1     11090 7.38796E-05 1.01687E-04-7.13861E-06
 -1     11091 8.18507E-05 9.58349E-05-7.22519E-06
 -1     11092 7.62826E-05 1.04994E-04-7.22519E-06
 -1     11097 7.38796E-05 1.01687E-04-7.31177E-06
 -1     11101 5.70627E-05 1.11992E-04-5.58017E-06
 -1     11102 6.58511E-05 1.07459E-04-5.66675E-06
 -1     11103 5.89188E-05 1.15635E-04-5.66675E-06
 -1     11108 5.70627E-05 1.11992E-04-5.75333E-06
 -1     11109 6.58511E-05 1.07459E-04-5.83991E-06
 -1     11110 5.89188E-05 1.15635E-04-5.83991E-06
 -1     11115 5.70627E-05 1.11992E-04-5.92649E-06
 -1     11116 6.58511E-05 1.07459E-04-6.01307E-06
 -1     11117 5.89188E-05 1.15635E-04-6.01307E-06
 -1     11122 5.70627E-05 1.11992E-04-6.09965E-06
 -1     11123 6.58511E-05 1.07459E-04-6.18623E-06
 -1     11124 5.89188E-05 1.15635E-04-6.18623E-06
 -1     11129 5.70627E-05 1.11992E-04-6.27281E-06
 -1     11130 6.58511E-05 1.07459E-04-6.35939E-06
 -1     11131 5.89188E-05 1.15635E-04-6.35939E-06
 -1     11136 5.70627E-05 1.11992E-04-6.44597E-06
 -1     11137 6.58511E-05 1.07459E-04-6.53255E-06
 -1     11138 5.89188E-05 1.15635E-04-6.53255E-06
 -1     11143 5.70627E-05 1.11992E-04-6.61913E-06
 -1     11144 6.58511E-05 1.07459E-04-6.70571E-06
 -1     11145 5.89188E-05 1.15635E-04-6.70571E-06
 -1     11150 5.70627E-05 1.11992E-04-6.79229E-06
 -1     11151 6.58511E-05 1.07459E-04-6.87887E-06
 -1     11152 5.89188E-05 1.15635E-04-6.87887E-06
 -1     11157 5.70627E-05 1.11992E-04-6.96545E-06
 -1     11158 6.58511E-05 1.07459E-04-7.05203E-06
 -1     11159 5.89188E-05 1.15635E-04-7.05203E-06
 -1     11164 5.70627E-05 1.11992E-04-7.13861E-06
 -1     11165 6.58511E-05 1.07459E-04-7.22519E-06
 -1     11166 5.89188E-05 1.15635E-04-7.22519E-06
 -1     11171 5.70627E-05 1.11992E-04-7.31177E-06
 -1     11175 3.88408E-05 1.19540E-04-5.58017E-06
 -1     11176 4.82300E-05 1.16438E-04-5.66675E-06
 -1     11177 4.01041E-05 1.23428E-04-5.66675E-06
 -1     11182 3.88408E-05 1.19540E-04-5.75333E-06
 -1     11183 4.82300E-05 1.16438E-04-5.83991E-06
 -1     11184 4.01041E-05 1.23428E-04-5.83991E-06
 -1     11189 3.88408E-05 1.19540E-04-5.92649E-06
 -1     11190 4.82300E-05 1.16438E-04-6.01307E-06
 -1     11191 4.01041E-05 1.23428E-04-6.01307E-06
 -1     11196 3.88408E-05 1.19540E-04-6.09965E-06
 -1     11197 4.82300E-05 1.16438E-04-6.18623E-06
 -1     11198 4.01041E-05 1.23428E-04-6.18623E-06
 -1     11203 3.88408E-05 1.19540E-04-6.27281E-06
 -1     11204 4.82300E-05 1.16438E-04-6.35939E-06
 -1     11205 4.01041E-05 1.23428E-04-6.35939E-06
 -1     11210 3.88408E-05 1.19540E-04-6.44597E-06
 -1     11211 4.82300E-05 1.16438E-04-6.53255E-06
 -1     11212 4.01041E-05 1.23428E-04-6.53255E-06
 -1     11217 3.88408E-05 1.19540E-04-6.61913E-06
 -1     11218 4.82300E-05 1.16438E-04-6.70571E-06
 -1     11219 4.01041E-05 1.23428E-04-6.70571E-06
 -1     11224 3.88408E-05 1.19540E-04-6.79229E-06
 -1     11225 4.82300E-05 1.16438E-04-6.87887E-06
 -1     11226 4.01041E-05 1.23428E-04-6.87887E-06
 -1     11231 3.88408E-05 1.19540E-04-6.96545E-06
 -1     11232 4.82300E-05 1.16438E-04-7.05203E-06
 -1     11233 4.01041E-05 1.23428E-04-7.05203E-06
 -1     11238 3.88408E-05 1.19540E-04-7.13861E-06
 -1     11239 4.82300E-05 1.16438E-04-7.22519E-06
 -1     11240 4.01041E-05 1.23428E-04-7.22519E-06
 -1     11245 3.88408E-05 1.19540E-04-7.31177E-06
 -1     11249 1.96625E-05 1.24144E-04-5.58017E-06
 -1     11250 2.94214E-05 1.22549E-04-5.66675E-06
 -1     11251 2.03020E-05 1.28182E-04-5.66675E-06
 -1     11256 1.96625E-05 1.24144E-04-5.75333E-06
 -1     11257 2.94214E-05 1.22549E-04-5.83991E-06
 -1     11258 2.03020E-05 1.28182E-04-5.83991E-06
 -1     11263 1.96625E-05 1.24144E-04-5.92649E-06
 -1     11264 2.94214E-05 1.22549E-04-6.01307E-06
 -1     11265 2.03020E-05 1.28182E-04-6.01307E-06
 -1     11270 1.96625E-05 1.24144E-04-6.09965E-06
 -1     11271 2.94214E-05 1.22549E-04-6.18623E-06
 -1     11272 2.03020E-05 1.28182E-04-6.18623E-06
 -1     11277 1.96625E-05 1.24144E-04-6.27281E-06
 -1     11278 2.94214E-05 1.22549E-04-6.35939E-06
 -1     11279 2.03020E-05 1.28182E-04-6.35939E-06
 -1     11284 1.96625E-05 1.24144E-04-6.44597E-06
 -1     11285 2.94214E-05 1.22549E-04-6.53255E-06
 -1     11286 2.03020E-05 1.28182E-04-6.53255E-06
 -1     11291 1.96625E-05 1.24144E-04-6.61913E-06
 -1     11292 2.94214E-05 1.22549E-04-6.70571E-06
 -1     11293 2.03020E-05 1.28182E-04-6.70571E-06
 -1     11298 1.96625E-05 1.24144E-04-6.79229E-06
 -1     11299 2.94214E-05 1.22549E-04-6.87887E-06
 -1     11300 2.03020E-05 1.28182E-04-6.87887E-06
 -1     11305 1.96625E-05 1.24144E-04-6.96545E-06
 -1     11306 2.94214E-05 1.22549E-04-7.05203E-06
 -1     11307 2.03020E-05 1.28182E-04-7.05203E-06
 -1     11312 1.96625E-05 1.24144E-04-7.13861E-06
 -1     11313 2.94214E-05 1.22549E-04-7.22519E-06
 -1     11314 2.03020E-05 1.28182E-04-7.22519E-06
 -1     11319 1.96625E-05 1.24144E-04-7.31177E-06
 -1     11323 9.88829E-06 1.25643E-04-5.66675E-06
 -1     11327 9.88829E-06 1.25643E-04-5.83991E-06
 -1     11331 9.88829E-06 1.25643E-04-6.01307E-06
 -1     11335 9.88829E-06 1.25643E-04-6.18623E-06
 -1     11339 9.88829E-06 1.25643E-04-6.35939E-06
 -1     11343 9.88829E-06 1.25643E-04-6.53255E-06
 -1     11347 9.88829E-06 1.25643E-04-6.70571E-06
 -1     11351 9.88829E-06 1.25643E-04-6.87887E-06
 -1     11355 9.88829E-06 1.25643E-04-7.05203E-06
 -1     11359 9.88829E-06 1.25643E-04-7.22519E-06
 -1     11365 1.16928E-04 1.85196E-05-5.58017E-06
 -1     11366 1.18334E-04 9.31310E-06-5.66675E-06
 -1     11367 1.20402E-04 1.90698E-05-5.66674E-06
 -1     11372 1.16928E-04 1.85196E-05-5.75333E-06
 -1     11373 1.18334E-04 9.31310E-06-5.83991E-06
 -1     11374 1.20402E-04 1.90698E-05-5.83991E-06
 -1     11379 1.16928E-04 1.85196E-05-5.92649E-06
 -1     11380 1.18334E-04 9.31310E-06-6.01307E-06
 -1     11381 1.20402E-04 1.90698E-05-6.01307E-06
 -1     11386 1.16928E-04 1.85196E-05-6.09965E-06
 -1     11387 1.18334E-04 9.31310E-06-6.18623E-06
 -1     11388 1.20402E-04 1.90698E-05-6.18623E-06
 -1     11393 1.16928E-04 1.85196E-05-6.27281E-06
 -1     11394 1.18334E-04 9.31310E-06-6.35939E-06
 -1     11395 1.20402E-04 1.90698E-05-6.35939E-06
 -1     11400 1.16928E-04 1.85196E-05-6.44597E-06
 -1     11401 1.18334E-04 9.31310E-06-6.53255E-06
 -1     11402 1.20402E-04 1.90698E-05-6.53255E-06
 -1     11407 1.16928E-04 1.85196E-05-6.61913E-06
 -1     11408 1.18334E-04 9.31310E-06-6.70571E-06
 -1     11409 1.20402E-04 1.90698E-05-6.70571E-06
 -1     11414 1.16928E-04 1.85196E-05-6.79229E-06
 -1     11415 1.18334E-04 9.31310E-06-6.87887E-06
 -1     11416 1.20402E-04 1.90698E-05-6.87887E-06
 -1     11421 1.16928E-04 1.85196E-05-6.96545E-06
 -1     11422 1.18334E-04 9.31310E-06-7.05203E-06
 -1     11423 1.20402E-04 1.90698E-05-7.05203E-06
 -1     11428 1.16928E-04 1.85196E-05-7.13861E-06
 -1     11429 1.18334E-04 9.31310E-06-7.22519E-06
 -1     11430 1.20402E-04 1.90698E-05-7.22519E-06
 -1     11435 1.16928E-04 1.85196E-05-7.31177E-06
 -1     11439 1.12592E-04 3.65832E-05-5.58017E-06
 -1     11440 1.15420E-04 2.77100E-05-5.66675E-06
 -1     11441 1.15936E-04 3.76700E-05-5.66674E-06
 -1     11446 1.12592E-04 3.65832E-05-5.75333E-06
 -1     11447 1.15420E-04 2.77100E-05-5.83991E-06
 -1     11448 1.15936E-04 3.76700E-05-5.83991E-06
 -1     11453 1.12592E-04 3.65832E-05-5.92649E-06
 -1     11454 1.15420E-04 2.77100E-05-6.01307E-06
 -1     11455 1.15936E-04 3.76700E-05-6.01307E-06
 -1     11460 1.12592E-04 3.65832E-05-6.09965E-06
 -1     11461 1.15420E-04 2.77100E-05-6.18623E-06
 -1     11462 1.15936E-04 3.76700E-05-6.18623E-06
 -1     11467 1.12592E-04 3.65832E-05-6.27281E-06
 -1     11468 1.15420E-04 2.77100E-05-6.35939E-06
 -1     11469 1.15936E-04 3.76700E-05-6.35939E-06
 -1     11474 1.12592E-04 3.65832E-05-6.44597E-06
 -1     11475 1.15420E-04 2.77100E-05-6.53255E-06
 -1     11476 1.15936E-04 3.76700E-05-6.53255E-06
 -1     11481 1.12592E-04 3.65832E-05-6.61913E-06
 -1     11482 1.15420E-04 2.77100E-05-6.70571E-06
 -1     11483 1.15936E-04 3.76700E-05-6.70571E-06
 -1     11488 1.12592E-04 3.65832E-05-6.79229E-06
 -1     11489 1.15420E-04 2.77100E-05-6.87887E-06
 -1     11490 1.15936E-04 3.76700E-05-6.87887E-06
 -1     11495 1.12592E-04 3.65832E-05-6.96545E-06
 -1     11496 1.15420E-04 2.77100E-05-7.05203E-06
 -1     11497 1.15936E-04 3.76700E-05-7.05203E-06
 -1     11502 1.12592E-04 3.65832E-05-7.13861E-06
 -1     11503 1.15420E-04 2.77100E-05-7.22519E-06
 -1     11504 1.15936E-04 3.76700E-05-7.22519E-06
 -1     11509 1.12592E-04 3.65832E-05-7.31177E-06
 -1     11513 1.05483E-04 5.37460E-05-5.58017E-06
 -1     11514 1.09665E-04 4.54245E-05-5.66675E-06
 -1     11515 1.08616E-04 5.53426E-05-5.66674E-06
 -1     11520 1.05483E-04 5.37460E-05-5.75333E-06
 -1     11521 1.09665E-04 4.54245E-05-5.83991E-06
 -1     11522 1.08616E-04 5.53426E-05-5.83991E-06
 -1     11527 1.05483E-04 5.37460E-05-5.92649E-06
 -1     11528 1.09665E-04 4.54245E-05-6.01307E-06
 -1     11529 1.08616E-04 5.53426E-05-6.01307E-06
 -1     11534 1.05483E-04 5.37460E-05-6.09965E-06
 -1     11535 1.09665E-04 4.54245E-05-6.18623E-06
 -1     11536 1.08616E-04 5.53426E-05-6.18623E-06
 -1     11541 1.05483E-04 5.37460E-05-6.27281E-06
 -1     11542 1.09665E-04 4.54245E-05-6.35939E-06
 -1     11543 1.08616E-04 5.53426E-05-6.35939E-06
 -1     11548 1.05483E-04 5.37460E-05-6.44597E-06
 -1     11549 1.09665E-04 4.54245E-05-6.53255E-06
 -1     11550 1.08616E-04 5.53426E-05-6.53255E-06
 -1     11555 1.05483E-04 5.37460E-05-6.61913E-06
 -1     11556 1.09665E-04 4.54245E-05-6.70571E-06
 -1     11557 1.08616E-04 5.53426E-05-6.70571E-06
 -1     11562 1.05483E-04 5.37460E-05-6.79229E-06
 -1     11563 1.09665E-04 4.54245E-05-6.87887E-06
 -1     11564 1.08616E-04 5.53426E-05-6.87887E-06
 -1     11569 1.05483E-04 5.37460E-05-6.96545E-06
 -1     11570 1.09665E-04 4.54245E-05-7.05203E-06
 -1     11571 1.08616E-04 5.53426E-05-7.05203E-06
 -1     11576 1.05483E-04 5.37460E-05-7.13861E-06
 -1     11577 1.09665E-04 4.54245E-05-7.22519E-06
 -1     11578 1.08616E-04 5.53426E-05-7.22519E-06
 -1     11583 1.05483E-04 5.37460E-05-7.31177E-06
 -1     11587 9.57761E-05 6.95854E-05-5.58017E-06
 -1     11588 1.01208E-04 6.20206E-05-5.66675E-06
 -1     11589 9.86212E-05 7.16525E-05-5.66674E-06
 -1     11594 9.57761E-05 6.95854E-05-5.75333E-06
 -1     11595 1.01208E-04 6.20206E-05-5.83991E-06
 -1     11596 9.86212E-05 7.16525E-05-5.83991E-06
 -1     11601 9.57761E-05 6.95854E-05-5.92649E-06
 -1     11602 1.01208E-04 6.20206E-05-6.01307E-06
 -1     11603 9.86212E-05 7.16525E-05-6.01307E-06
 -1     11608 9.57761E-05 6.95854E-05-6.09965E-06
 -1     11609 1.01208E-04 6.20206E-05-6.18623E-06
 -1     11610 9.86212E-05 7.16525E-05-6.18623E-06
 -1     11615 9.57761E-05 6.95854E-05-6.27281E-06
 -1     11616 1.01208E-04 6.20206E-05-6.35939E-06
 -1     11617 9.86212E-05 7.16525E-05-6.35939E-06
 -1     11622 9.57761E-05 6.95854E-05-6.44597E-06
 -1     11623 1.01208E-04 6.20206E-05-6.53255E-06
 -1     11624 9.86212E-05 7.16525E-05-6.53255E-06
 -1     11629 9.57761E-05 6.95854E-05-6.61913E-06
 -1     11630 1.01208E-04 6.20206E-05-6.70571E-06
 -1     11631 9.86212E-05 7.16525E-05-6.70571E-06
 -1     11636 9.57761E-05 6.95854E-05-6.79229E-06
 -1     11637 1.01208E-04 6.20206E-05-6.87887E-06
 -1     11638 9.86212E-05 7.16525E-05-6.87887E-06
 -1     11643 9.57761E-05 6.95854E-05-6.96545E-06
 -1     11644 1.01208E-04 6.20206E-05-7.05203E-06
 -1     11645 9.86212E-05 7.16525E-05-7.05203E-06
 -1     11650 9.57761E-05 6.95854E-05-7.13861E-06
 -1     11651 1.01208E-04 6.20206E-05-7.22519E-06
 -1     11652 9.86212E-05 7.16525E-05-7.22519E-06
 -1     11657 9.57761E-05 6.95854E-05-7.31177E-06
 -1     11661 8.37114E-05 8.37114E-05-5.58017E-06
 -1     11662 9.02602E-05 7.70895E-05-5.66675E-06
 -1     11663 8.61981E-05 8.61981E-05-5.66674E-06
 -1     11668 8.37114E-05 8.37114E-05-5.75333E-06
 -1     11669 9.02602E-05 7.70895E-05-5.83991E-06
 -1     11670 8.61981E-05 8.61981E-05-5.83991E-06
 -1     11675 8.37114E-05 8.37114E-05-5.92649E-06
 -1     11676 9.02602E-05 7.70895E-05-6.01307E-06
 -1     11677 8.61981E-05 8.61981E-05-6.01307E-06
 -1     11682 8.37114E-05 8.37114E-05-6.09965E-06
 -1     11683 9.02602E-05 7.70895E-05-6.18623E-06
 -1     11684 8.61981E-05 8.61981E-05-6.18623E-06
 -1     11689 8.37114E-05 8.37114E-05-6.27281E-06
 -1     11690 9.02602E-05 7.70895E-05-6.35939E-06
 -1     11691 8.61981E-05 8.61981E-05-6.35939E-06
 -1     11696 8.37114E-05 8.37114E-05-6.44597E-06
 -1     11697 9.02602E-05 7.70895E-05-6.53255E-06
 -1     11698 8.61981E-05 8.61981E-05-6.53255E-06
 -1     11703 8.37114E-05 8.37114E-05-6.61913E-06
 -1     11704 9.02602E-05 7.70895E-05-6.70571E-06
 -1     11705 8.61981E-05 8.61981E-05-6.70571E-06
 -1     11710 8.37114E-05 8.37114E-05-6.79229E-06
 -1     11711 9.02602E-05 7.70895E-05-6.87887E-06
 -1     11712 8.61981E-05 8.61981E-05-6.87887E-06
 -1     11717 8.37114E-05 8.37114E-05-6.96545E-06
 -1     11718 9.02602E-05 7.70895E-05-7.05203E-06
 -1     11719 8.61981E-05 8.61981E-05-7.05203E-06
 -1     11724 8.37114E-05 8.37114E-05-7.13861E-06
 -1     11725 9.02602E-05 7.70895E-05-7.22519E-06
 -1     11726 8.61981E-05 8.61981E-05-7.22519E-06
 -1     11731 8.37114E-05 8.37114E-05-7.31177E-06
 -1     11735 6.95854E-05 9.57761E-05-5.58017E-06
 -1     11736 7.70895E-05 9.02602E-05-5.66675E-06
 -1     11737 7.16525E-05 9.86212E-05-5.66674E-06
 -1     11742 6.95854E-05 9.57761E-05-5.75333E-06
 -1     11743 7.70895E-05 9.02602E-05-5.83991E-06
 -1     11744 7.16525E-05 9.86212E-05-5.83991E-06
 -1     11749 6.95854E-05 9.57761E-05-5.92649E-06
 -1     11750 7.70895E-05 9.02602E-05-6.01307E-06
 -1     11751 7.16525E-05 9.86212E-05-6.01307E-06
 -1     11756 6.95854E-05 9.57761E-05-6.09965E-06
 -1     11757 7.70895E-05 9.02602E-05-6.18623E-06
 -1     11758 7.16525E-05 9.86212E-05-6.18623E-06
 -1     11763 6.95854E-05 9.57761E-05-6.27281E-06
 -1     11764 7.70895E-05 9.02602E-05-6.35939E-06
 -1     11765 7.16525E-05 9.86212E-05-6.35939E-06
 -1     11770 6.95854E-05 9.57761E-05-6.44597E-06
 -1     11771 7.70895E-05 9.02602E-05-6.53255E-06
 -1     11772 7.16525E-05 9.86212E-05-6.53255E-06
 -1     11777 6.95854E-05 9.57761E-05-6.61913E-06
 -1     11778 7.70895E-05 9.02602E-05-6.70571E-06
 -1     11779 7.16525E-05 9.86212E-05-6.70571E-06
 -1     11784 6.95854E-05 9.57761E-05-6.79229E-06
 -1     11785 7.70895E-05 9.02602E-05-6.87887E-06
 -1     11786 7.16525E-05 9.86212E-05-6.87887E-06
 -1     11791 6.95854E-05 9.57761E-05-6.96545E-06
 -1     11792 7.70895E-05 9.02602E-05-7.05203E-06
 -1     11793 7.16525E-05 9.86212E-05-7.05203E-06
 -1     11798 6.95854E-05 9.57761E-05-7.13861E-06
 -1     11799 7.70895E-05 9.02602E-05-7.22519E-06
 -1     11800 7.16525E-05 9.86212E-05-7.22519E-06
 -1     11805 6.95854E-05 9.57761E-05-7.31177E-06
 -1     11809 5.37460E-05 1.05483E-04-5.58017E-06
 -1     11810 6.20206E-05 1.01208E-04-5.66675E-06
 -1     11811 5.53426E-05 1.08616E-04-5.66674E-06
 -1     11816 5.37460E-05 1.05483E-04-5.75333E-06
 -1     11817 6.20206E-05 1.01208E-04-5.83991E-06
 -1     11818 5.53426E-05 1.08616E-04-5.83991E-06
 -1     11823 5.37460E-05 1.05483E-04-5.92649E-06
 -1     11824 6.20206E-05 1.01208E-04-6.01307E-06
 -1     11825 5.53426E-05 1.08616E-04-6.01307E-06
 -1     11830 5.37460E-05 1.05483E-04-6.09965E-06
 -1     11831 6.20206E-05 1.01208E-04-6.18623E-06
 -1     11832 5.53426E-05 1.08616E-04-6.18623E-06
 -1     11837 5.37460E-05 1.05483E-04-6.27281E-06
 -1     11838 6.20206E-05 1.01208E-04-6.35939E-06
 -1     11839 5.53426E-05 1.08616E-04-6.35939E-06
 -1     11844 5.37460E-05 1.05483E-04-6.44597E-06
 -1     11845 6.20206E-05 1.01208E-04-6.53255E-06
 -1     11846 5.53426E-05 1.08616E-04-6.53255E-06
 -1     11851 5.37460E-05 1.05483E-04-6.61913E-06
 -1     11852 6.20206E-05 1.01208E-04-6.70571E-06
 -1     11853 5.53426E-05 1.08616E-04-6.70571E-06
 -1     11858 5.37460E-05 1.05483E-04-6.79229E-06
 -1     11859 6.20206E-05 1.01208E-04-6.87887E-06
 -1     11860 5.53426E-05 1.08616E-04-6.87887E-06
 -1     11865 5.37460E-05 1.05483E-04-6.96545E-06
 -1     11866 6.20206E-05 1.01208E-04-7.05203E-06
 -1     11867 5.53426E-05 1.08616E-04-7.05203E-06
 -1     11872 5.37460E-05 1.05483E-04-7.13861E-06
 -1     11873 6.20206E-05 1.01208E-04-7.22519E-06
 -1     11874 5.53426E-05 1.08616E-04-7.22519E-06
 -1     11879 5.37460E-05 1.05483E-04-7.31177E-06
 -1     11883 3.65832E-05 1.12592E-04-5.58017E-06
 -1     11884 4.54245E-05 1.09665E-04-5.66675E-06
 -1     11885 3.76700E-05 1.15936E-04-5.66674E-06
 -1     11890 3.65832E-05 1.12592E-04-5.75333E-06
 -1     11891 4.54245E-05 1.09665E-04-5.83991E-06
 -1     11892 3.76700E-05 1.15936E-04-5.83991E-06
 -1     11897 3.65832E-05 1.12592E-04-5.92649E-06
 -1     11898 4.54245E-05 1.09665E-04-6.01307E-06
 -1     11899 3.76700E-05 1.15936E-04-6.01307E-06
 -1     11904 3.65832E-05 1.12592E-04-6.09965E-06
 -1     11905 4.54245E-05 1.09665E-04-6.18623E-06
 -1     11906 3.76700E-05 1.15936E-04-6.18623E-06
 -1     11911 3.65832E-05 1.12592E-04-6.27281E-06
 -1     11912 4.54245E-05 1.09665E-04-6.35939E-06
 -1     11913 3.76700E-05 1.15936E-04-6.35939E-06
 -1     11918 3.65832E-05 1.12592E-04-6.44597E-06
 -1     11919 4.54245E-05 1.09665E-04-6.53255E-06
 -1     11920 3.76700E-05 1.15936E-04-6.53255E-06
 -1     11925 3.65832E-05 1.12592E-04-6.61913E-06
 -1     11926 4.54245E-05 1.09665E-04-6.70571E-06
 -1     11927 3.76700E-05 1.15936E-04-6.70571E-06
 -1     11932 3.65832E-05 1.12592E-04-6.79229E-06
 -1     11933 4.54245E-05 1.09665E-04-6.87887E-06
 -1     11934 3.76700E-05 1.15936E-04-6.87887E-06
 -1     11939 3.65832E-05 1.12592E-04-6.96545E-06
 -1     11940 4.54245E-05 1.09665E-04-7.05203E-06
 -1     11941 3.76700E-05 1.15936E-04-7.05203E-06
 -1     11946 3.65832E-05 1.12592E-04-7.13861E-06
 -1     11947 4.54245E-05 1.09665E-04-7.22519E-06
 -1     11948 3.76700E-05 1.15936E-04-7.22519E-06
 -1     11953 3.65832E-05 1.12592E-04-7.31177E-06
 -1     11957 1.85196E-05 1.16928E-04-5.58017E-06
 -1     11958 2.77100E-05 1.15420E-04-5.66675E-06
 -1     11959 1.90698E-05 1.20402E-04-5.66674E-06
 -1     11964 1.85196E-05 1.16928E-04-5.75333E-06
 -1     11965 2.77100E-05 1.15420E-04-5.83991E-06
 -1     11966 1.90698E-05 1.20402E-04-5.83991E-06
 -1     11971 1.85196E-05 1.16928E-04-5.92649E-06
 -1     11972 2.77100E-05 1.15420E-04-6.01307E-06
 -1     11973 1.90698E-05 1.20402E-04-6.01307E-06
 -1     11978 1.85196E-05 1.16928E-04-6.09965E-06
 -1     11979 2.77100E-05 1.15420E-04-6.18623E-06
 -1     11980 1.90698E-05 1.20402E-04-6.18623E-06
 -1     11985 1.85196E-05 1.16928E-04-6.27281E-06
 -1     11986 2.77100E-05 1.15420E-04-6.35939E-06
 -1     11987 1.90698E-05 1.20402E-04-6.35939E-06
 -1     11992 1.85196E-05 1.16928E-04-6.44597E-06
 -1     11993 2.77100E-05 1.15420E-04-6.53255E-06
 -1     11994 1.90698E-05 1.20402E-04-6.53255E-06
 -1     11999 1.85196E-05 1.16928E-04-6.61913E-06
 -1     12000 2.77100E-05 1.15420E-04-6.70571E-06
 -1     12001 1.90698E-05 1.20402E-04-6.70571E-06
 -1     12006 1.85196E-05 1.16928E-04-6.79229E-06
 -1     12007 2.77100E-05 1.15420E-04-6.87887E-06
 -1     12008 1.90698E-05 1.20402E-04-6.87887E-06
 -1     12013 1.85196E-05 1.16928E-04-6.96545E-06
 -1     12014 2.77100E-05 1.15420E-04-7.05203E-06
 -1     12015 1.90698E-05 1.20402E-04-7.05203E-06
 -1     12020 1.85196E-05 1.16928E-04-7.13861E-06
 -1     12021 2.77100E-05 1.15420E-04-7.22519E-06
 -1     12022 1.90698E-05 1.20402E-04-7.22519E-06
 -1     12027 1.85196E-05 1.16928E-04-7.31177E-06
 -1     12031 9.31310E-06 1.18334E-04-5.66675E-06
 -1     12035 9.31310E-06 1.18334E-04-5.83991E-06
 -1     12039 9.31310E-06 1.18334E-04-6.01307E-06
 -1     12043 9.31310E-06 1.18334E-04-6.18623E-06
 -1     12047 9.31310E-06 1.18334E-04-6.35939E-06
 -1     12051 9.31310E-06 1.18334E-04-6.53255E-06
 -1     12055 9.31310E-06 1.18334E-04-6.70571E-06
 -1     12059 9.31310E-06 1.18334E-04-6.87887E-06
 -1     12063 9.31310E-06 1.18334E-04-7.05203E-06
 -1     12067 9.31310E-06 1.18334E-04-7.22519E-06
 -1     12073 1.10683E-04 1.75305E-05-5.58017E-06
 -1     12074 1.12008E-04 8.81522E-06-5.66675E-06
 -1     12075 1.13696E-04 1.80077E-05-5.66675E-06
 -1     12080 1.10683E-04 1.75305E-05-5.75333E-06
 -1     12081 1.12008E-04 8.81522E-06-5.83991E-06
 -1     12082 1.13696E-04 1.80077E-05-5.83991E-06
 -1     12087 1.10683E-04 1.75305E-05-5.92649E-06
 -1     12088 1.12008E-04 8.81522E-06-6.01307E-06
 -1     12089 1.13696E-04 1.80077E-05-6.01307E-06
 -1     12094 1.10683E-04 1.75305E-05-6.09965E-06
 -1     12095 1.12008E-04 8.81522E-06-6.18623E-06
 -1     12096 1.13696E-04 1.80077E-05-6.18623E-06
 -1     12101 1.10683E-04 1.75305E-05-6.27281E-06
 -1     12102 1.12008E-04 8.81522E-06-6.35939E-06
 -1     12103 1.13696E-04 1.80077E-05-6.35939E-06
 -1     12108 1.10683E-04 1.75305E-05-6.44597E-06
 -1     12109 1.12008E-04 8.81522E-06-6.53255E-06
 -1     12110 1.13696E-04 1.80077E-05-6.53255E-06
 -1     12115 1.10683E-04 1.75305E-05-6.61913E-06
 -1     12116 1.12008E-04 8.81522E-06-6.70571E-06
 -1     12117 1.13696E-04 1.80077E-05-6.70571E-06
 -1     12122 1.10683E-04 1.75305E-05-6.79229E-06
 -1     12123 1.12008E-04 8.81522E-06-6.87887E-06
 -1     12124 1.13696E-04 1.80077E-05-6.87887E-06
 -1     12129 1.10683E-04 1.75305E-05-6.96545E-06
 -1     12130 1.12008E-04 8.81522E-06-7.05203E-06
 -1     12131 1.13696E-04 1.80077E-05-7.05203E-06
 -1     12136 1.10683E-04 1.75305E-05-7.13861E-06
 -1     12137 1.12008E-04 8.81522E-06-7.22519E-06
 -1     12138 1.13696E-04 1.80077E-05-7.22519E-06
 -1     12143 1.10683E-04 1.75305E-05-7.31177E-06
 -1     12147 1.06578E-04 3.46294E-05-5.58017E-06
 -1     12148 1.09250E-04 2.62286E-05-5.66675E-06
 -1     12149 1.09479E-04 3.55719E-05-5.66675E-06
 -1     12154 1.06578E-04 3.46294E-05-5.75333E-06
 -1     12155 1.09250E-04 2.62286E-05-5.83991E-06
 -1     12156 1.09479E-04 3.55719E-05-5.83991E-06
 -1     12161 1.06578E-04 3.46294E-05-5.92649E-06
 -1     12162 1.09250E-04 2.62286E-05-6.01307E-06
 -1     12163 1.09479E-04 3.55719E-05-6.01307E-06
 -1     12168 1.06578E-04 3.46294E-05-6.09965E-06
 -1     12169 1.09250E-04 2.62286E-05-6.18623E-06
 -1     12170 1.09479E-04 3.55719E-05-6.18623E-06
 -1     12175 1.06578E-04 3.46294E-05-6.27281E-06
 -1     12176 1.09250E-04 2.62286E-05-6.35939E-06
 -1     12177 1.09479E-04 3.55719E-05-6.35939E-06
 -1     12182 1.06578E-04 3.46294E-05-6.44597E-06
 -1     12183 1.09250E-04 2.62286E-05-6.53255E-06
 -1     12184 1.09479E-04 3.55719E-05-6.53255E-06
 -1     12189 1.06578E-04 3.46294E-05-6.61913E-06
 -1     12190 1.09250E-04 2.62286E-05-6.70571E-06
 -1     12191 1.09479E-04 3.55719E-05-6.70571E-06
 -1     12196 1.06578E-04 3.46294E-05-6.79229E-06
 -1     12197 1.09250E-04 2.62286E-05-6.87887E-06
 -1     12198 1.09479E-04 3.55719E-05-6.87887E-06
 -1     12203 1.06578E-04 3.46294E-05-6.96545E-06
 -1     12204 1.09250E-04 2.62286E-05-7.05203E-06
 -1     12205 1.09479E-04 3.55719E-05-7.05203E-06
 -1     12210 1.06578E-04 3.46294E-05-7.13861E-06
 -1     12211 1.09250E-04 2.62286E-05-7.22519E-06
 -1     12212 1.09479E-04 3.55719E-05-7.22519E-06
 -1     12217 1.06578E-04 3.46294E-05-7.31177E-06
 -1     12221 9.98490E-05 5.08756E-05-5.58017E-06
 -1     12222 1.03802E-04 4.29961E-05-5.66675E-06
 -1     12223 1.02567E-04 5.22602E-05-5.66675E-06
 -1     12228 9.98490E-05 5.08756E-05-5.75333E-06
 -1     12229 1.03802E-04 4.29961E-05-5.83991E-06
 -1     12230 1.02567E-04 5.22602E-05-5.83991E-06
 -1     12235 9.98490E-05 5.08756E-05-5.92649E-06
 -1     12236 1.03802E-04 4.29961E-05-6.01307E-06
 -1     12237 1.02567E-04 5.22602E-05-6.01307E-06
 -1     12242 9.98490E-05 5.08756E-05-6.09965E-06
 -1     12243 1.03802E-04 4.29961E-05-6.18623E-06
 -1     12244 1.02567E-04 5.22602E-05-6.18623E-06
 -1     12249 9.98490E-05 5.08756E-05-6.27281E-06
 -1     12250 1.03802E-04 4.29961E-05-6.35939E-06
 -1     12251 1.02567E-04 5.22602E-05-6.35939E-06
 -1     12256 9.98490E-05 5.08756E-05-6.44597E-06
 -1     12257 1.03802E-04 4.29961E-05-6.53255E-06
 -1     12258 1.02567E-04 5.22602E-05-6.53255E-06
 -1     12263 9.98490E-05 5.08756E-05-6.61913E-06
 -1     12264 1.03802E-04 4.29961E-05-6.70571E-06
 -1     12265 1.02567E-04 5.22602E-05-6.70571E-06
 -1     12270 9.98490E-05 5.08756E-05-6.79229E-06
 -1     12271 1.03802E-04 4.29961E-05-6.87887E-06
 -1     12272 1.02567E-04 5.22602E-05-6.87887E-06
 -1     12277 9.98490E-05 5.08756E-05-6.96545E-06
 -1     12278 1.03802E-04 4.29961E-05-7.05203E-06
 -1     12279 1.02567E-04 5.22602E-05-7.05203E-06
 -1     12284 9.98490E-05 5.08756E-05-7.13861E-06
 -1     12285 1.03802E-04 4.29961E-05-7.22519E-06
 -1     12286 1.02567E-04 5.22602E-05-7.22519E-06
 -1     12291 9.98490E-05 5.08756E-05-7.31177E-06
 -1     12295 9.06610E-05 6.58691E-05-5.58017E-06
 -1     12296 9.57978E-05 5.87050E-05-5.66675E-06
 -1     12297 9.31284E-05 6.76618E-05-5.66675E-06
 -1     12302 9.06610E-05 6.58691E-05-5.75333E-06
 -1     12303 9.57978E-05 5.87050E-05-5.83991E-06
 -1     12304 9.31284E-05 6.76618E-05-5.83991E-06
 -1     12309 9.06610E-05 6.58691E-05-5.92649E-06
 -1     12310 9.57978E-05 5.87050E-05-6.01307E-06
 -1     12311 9.31284E-05 6.76618E-05-6.01307E-06
 -1     12316 9.06610E-05 6.58691E-05-6.09965E-06
 -1     12317 9.57978E-05 5.87050E-05-6.18623E-06
 -1     12318 9.31284E-05 6.76618E-05-6.18623E-06
 -1     12323 9.06610E-05 6.58691E-05-6.27281E-06
 -1     12324 9.57978E-05 5.87050E-05-6.35939E-06
 -1     12325 9.31284E-05 6.76618E-05-6.35939E-06
 -1     12330 9.06610E-05 6.58691E-05-6.44597E-06
 -1     12331 9.57978E-05 5.87050E-05-6.53255E-06
 -1     12332 9.31284E-05 6.76618E-05-6.53255E-06
 -1     12337 9.06610E-05 6.58691E-05-6.61913E-06
 -1     12338 9.57978E-05 5.87050E-05-6.70571E-06
 -1     12339 9.31284E-05 6.76618E-05-6.70571E-06
 -1     12344 9.06610E-05 6.58691E-05-6.79229E-06
 -1     12345 9.57978E-05 5.87050E-05-6.87887E-06
 -1     12346 9.31284E-05 6.76618E-05-6.87887E-06
 -1     12351 9.06610E-05 6.58691E-05-6.96545E-06
 -1     12352 9.57978E-05 5.87050E-05-7.05203E-06
 -1     12353 9.31284E-05 6.76618E-05-7.05203E-06
 -1     12358 9.06610E-05 6.58691E-05-7.13861E-06
 -1     12359 9.57978E-05 5.87050E-05-7.22519E-06
 -1     12360 9.31284E-05 6.76618E-05-7.22519E-06
 -1     12365 9.06610E-05 6.58691E-05-7.31177E-06
 -1     12369 7.92406E-05 7.92406E-05-5.58017E-06
 -1     12370 8.54349E-05 7.29683E-05-5.66675E-06
 -1     12371 8.13972E-05 8.13972E-05-5.66675E-06
 -1     12376 7.92406E-05 7.92406E-05-5.75333E-06
 -1     12377 8.54349E-05 7.29683E-05-5.83991E-06
 -1     12378 8.13972E-05 8.13972E-05-5.83991E-06
 -1     12383 7.92406E-05 7.92406E-05-5.92649E-06
 -1     12384 8.54349E-05 7.29683E-05-6.01307E-06
 -1     12385 8.13972E-05 8.13972E-05-6.01307E-06
 -1     12390 7.92406E-05 7.92406E-05-6.09965E-06
 -1     12391 8.54349E-05 7.29683E-05-6.18623E-06
 -1     12392 8.13972E-05 8.13972E-05-6.18623E-06
 -1     12397 7.92406E-05 7.92406E-05-6.27281E-06
 -1     12398 8.54349E-05 7.29683E-05-6.35939E-06
 -1     12399 8.13972E-05 8.13972E-05-6.35939E-06
 -1     12404 7.92406E-05 7.92406E-05-6.44597E-06
 -1     12405 8.54349E-05 7.29683E-05-6.53255E-06
 -1     12406 8.13972E-05 8.13972E-05-6.53255E-06
 -1     12411 7.92406E-05 7.92406E-05-6.61913E-06
 -1     12412 8.54349E-05 7.29683E-05-6.70571E-06
 -1     12413 8.13972E-05 8.13972E-05-6.70571E-06
 -1     12418 7.92406E-05 7.92406E-05-6.79229E-06
 -1     12419 8.54349E-05 7.29683E-05-6.87887E-06
 -1     12420 8.13972E-05 8.13972E-05-6.87887E-06
 -1     12425 7.92406E-05 7.92406E-05-6.96545E-06
 -1     12426 8.54349E-05 7.29683E-05-7.05203E-06
 -1     12427 8.13972E-05 8.13972E-05-7.05203E-06
 -1     12432 7.92406E-05 7.92406E-05-7.13861E-06
 -1     12433 8.54349E-05 7.29683E-05-7.22519E-06
 -1     12434 8.13972E-05 8.13972E-05-7.22519E-06
 -1     12439 7.92406E-05 7.92406E-05-7.31177E-06
 -1     12443 6.58691E-05 9.06610E-05-5.58017E-06
 -1     12444 7.29683E-05 8.54349E-05-5.66675E-06
 -1     12445 6.76618E-05 9.31284E-05-5.66675E-06
 -1     12450 6.58691E-05 9.06610E-05-5.75333E-06
 -1     12451 7.29683E-05 8.54349E-05-5.83991E-06
 -1     12452 6.76618E-05 9.31284E-05-5.83991E-06
 -1     12457 6.58691E-05 9.06610E-05-5.92649E-06
 -1     12458 7.29683E-05 8.54349E-05-6.01307E-06
 -1     12459 6.76618E-05 9.31284E-05-6.01307E-06
 -1     12464 6.58691E-05 9.06610E-05-6.09965E-06
 -1     12465 7.29683E-05 8.54349E-05-6.18623E-06
 -1     12466 6.76618E-05 9.31284E-05-6.18623E-06
 -1     12471 6.58691E-05 9.06610E-05-6.27281E-06
 -1     12472 7.29683E-05 8.54349E-05-6.35939E-06
 -1     12473 6.76618E-05 9.31284E-05-6.35939E-06
 -1     12478 6.58691E-05 9.06610E-05-6.44597E-06
 -1     12479 7.29683E-05 8.54349E-05-6.53255E-06
 -1     12480 6.76618E-05 9.31284E-05-6.53255E-06
 -1     12485 6.58691E-05 9.06610E-05-6.61913E-06
 -1     12486 7.29683E-05 8.54349E-05-6.70571E-06
 -1     12487 6.76618E-05 9.31284E-05-6.70571E-06
 -1     12492 6.58691E-05 9.06610E-05-6.79229E-06
 -1     12493 7.29683E-05 8.54349E-05-6.87887E-06
 -1     12494 6.76618E-05 9.31284E-05-6.87887E-06
 -1     12499 6.58691E-05 9.06610E-05-6.96545E-06
 -1     12500 7.29683E-05 8.54349E-05-7.05203E-06
 -1     12501 6.76618E-05 9.31284E-05-7.05203E-06
 -1     12506 6.58691E-05 9.06610E-05-7.13861E-06
 -1     12507 7.29683E-05 8.54349E-05-7.22519E-06
 -1     12508 6.76618E-05 9.31284E-05-7.22519E-06
 -1     12513 6.58691E-05 9.06610E-05-7.31177E-06
 -1     12517 5.08756E-05 9.98490E-05-5.58017E-06
 -1     12518 5.87050E-05 9.57978E-05-5.66675E-06
 -1     12519 5.22602E-05 1.02567E-04-5.66675E-06
 -1     12524 5.08756E-05 9.98490E-05-5.75333E-06
 -1     12525 5.87050E-05 9.57978E-05-5.83991E-06
 -1     12526 5.22602E-05 1.02567E-04-5.83991E-06
 -1     12531 5.08756E-05 9.98490E-05-5.92649E-06
 -1     12532 5.87050E-05 9.57978E-05-6.01307E-06
 -1     12533 5.22602E-05 1.02567E-04-6.01307E-06
 -1     12538 5.08756E-05 9.98490E-05-6.09965E-06
 -1     12539 5.87050E-05 9.57978E-05-6.18623E-06
 -1     12540 5.22602E-05 1.02567E-04-6.18623E-06
 -1     12545 5.08756E-05 9.98490E-05-6.27281E-06
 -1     12546 5.87050E-05 9.57978E-05-6.35939E-06
 -1     12547 5.22602E-05 1.02567E-04-6.35939E-06
 -1     12552 5.08756E-05 9.98490E-05-6.44597E-06
 -1     12553 5.87050E-05 9.57978E-05-6.53255E-06
 -1     12554 5.22602E-05 1.02567E-04-6.53255E-06
 -1     12559 5.08756E-05 9.98490E-05-6.61913E-06
 -1     12560 5.87050E-05 9.57978E-05-6.70571E-06
 -1     12561 5.22602E-05 1.02567E-04-6.70571E-06
 -1     12566 5.08756E-05 9.98490E-05-6.79229E-06
 -1     12567 5.87050E-05 9.57978E-05-6.87887E-06
 -1     12568 5.22602E-05 1.02567E-04-6.87887E-06
 -1     12573 5.08756E-05 9.98490E-05-6.96545E-06
 -1     12574 5.87050E-05 9.57978E-05-7.05203E-06
 -1     12575 5.22602E-05 1.02567E-04-7.05203E-06
 -1     12580 5.08756E-05 9.98490E-05-7.13861E-06
 -1     12581 5.87050E-05 9.57978E-05-7.22519E-06
 -1     12582 5.22602E-05 1.02567E-04-7.22519E-06
 -1     12587 5.08756E-05 9.98490E-05-7.31177E-06
 -1     12591 3.46294E-05 1.06578E-04-5.58017E-06
 -1     12592 4.29961E-05 1.03802E-04-5.66675E-06
 -1     12593 3.55719E-05 1.09479E-04-5.66675E-06
 -1     12598 3.46294E-05 1.06578E-04-5.75333E-06
 -1     12599 4.29961E-05 1.03802E-04-5.83991E-06
 -1     12600 3.55719E-05 1.09479E-04-5.83991E-06
 -1     12605 3.46294E-05 1.06578E-04-5.92649E-06
 -1     12606 4.29961E-05 1.03802E-04-6.01307E-06
 -1     12607 3.55719E-05 1.09479E-04-6.01307E-06
 -1     12612 3.46294E-05 1.06578E-04-6.09965E-06
 -1     12613 4.29961E-05 1.03802E-04-6.18623E-06
 -1     12614 3.55719E-05 1.09479E-04-6.18623E-06
 -1     12619 3.46294E-05 1.06578E-04-6.27281E-06
 -1     12620 4.29961E-05 1.03802E-04-6.35939E-06
 -1     12621 3.55719E-05 1.09479E-04-6.35939E-06
 -1     12626 3.46294E-05 1.06578E-04-6.44597E-06
 -1     12627 4.29961E-05 1.03802E-04-6.53255E-06
 -1     12628 3.55719E-05 1.09479E-04-6.53255E-06
 -1     12633 3.46294E-05 1.06578E-04-6.61913E-06
 -1     12634 4.29961E-05 1.03802E-04-6.70571E-06
 -1     12635 3.55719E-05 1.09479E-04-6.70571E-06
 -1     12640 3.46294E-05 1.06578E-04-6.79229E-06
 -1     12641 4.29961E-05 1.03802E-04-6.87887E-06
 -1     12642 3.55719E-05 1.09479E-04-6.87887E-06
 -1     12647 3.46294E-05 1.06578E-04-6.96545E-06
 -1     12648 4.29961E-05 1.03802E-04-7.05203E-06
 -1     12649 3.55719E-05 1.09479E-04-7.05203E-06
 -1     12654 3.46294E-05 1.06578E-04-7.13861E-06
 -1     12655 4.29961E-05 1.03802E-04-7.22519E-06
 -1     12656 3.55719E-05 1.09479E-04-7.22519E-06
 -1     12661 3.46294E-05 1.06578E-04-7.31177E-06
 -1     12665 1.75305E-05 1.10683E-04-5.58017E-06
 -1     12666 2.62286E-05 1.09250E-04-5.66675E-06
 -1     12667 1.80077E-05 1.13696E-04-5.66675E-06
 -1     12672 1.75305E-05 1.10683E-04-5.75333E-06
 -1     12673 2.62286E-05 1.09250E-04-5.83991E-06
 -1     12674 1.80077E-05 1.13696E-04-5.83991E-06
 -1     12679 1.75305E-05 1.10683E-04-5.92649E-06
 -1     12680 2.62286E-05 1.09250E-04-6.01307E-06
 -1     12681 1.80077E-05 1.13696E-04-6.01307E-06
 -1     12686 1.75305E-05 1.10683E-04-6.09965E-06
 -1     12687 2.62286E-05 1.09250E-04-6.18623E-06
 -1     12688 1.80077E-05 1.13696E-04-6.18623E-06
 -1     12693 1.75305E-05 1.10683E-04-6.27281E-06
 -1     12694 2.62286E-05 1.09250E-04-6.35939E-06
 -1     12695 1.80077E-05 1.13696E-04-6.35939E-06
 -1     12700 1.75305E-05 1.10683E-04-6.44597E-06
 -1     12701 2.62286E-05 1.09250E-04-6.53255E-06
 -1     12702 1.80077E-05 1.13696E-04-6.53255E-06
 -1     12707 1.75305E-05 1.10683E-04-6.61913E-06
 -1     12708 2.62286E-05 1.09250E-04-6.70571E-06
 -1     12709 1.80077E-05 1.13696E-04-6.70571E-06
 -1     12714 1.75305E-05 1.10683E-04-6.79229E-06
 -1     12715 2.62286E-05 1.09250E-04-6.87887E-06
 -1     12716 1.80077E-05 1.13696E-04-6.87887E-06
 -1     12721 1.75305E-05 1.10683E-04-6.96545E-06
 -1     12722 2.62286E-05 1.09250E-04-7.05203E-06
 -1     12723 1.80077E-05 1.13696E-04-7.05203E-06
 -1     12728 1.75305E-05 1.10683E-04-7.13861E-06
 -1     12729 2.62286E-05 1.09250E-04-7.22519E-06
 -1     12730 1.80077E-05 1.13696E-04-7.22519E-06
 -1     12735 1.75305E-05 1.10683E-04-7.31177E-06
 -1     12739 8.81522E-06 1.12008E-04-5.66675E-06
 -1     12743 8.81522E-06 1.12008E-04-5.83991E-06
 -1     12747 8.81522E-06 1.12008E-04-6.01307E-06
 -1     12751 8.81522E-06 1.12008E-04-6.18623E-06
 -1     12755 8.81522E-06 1.12008E-04-6.35939E-06
 -1     12759 8.81522E-06 1.12008E-04-6.53255E-06
 -1     12763 8.81522E-06 1.12008E-04-6.70571E-06
 -1     12767 8.81522E-06 1.12008E-04-6.87887E-06
 -1     12771 8.81522E-06 1.12008E-04-7.05203E-06
 -1     12775 8.81522E-06 1.12008E-04-7.22519E-06
 -1     12781 1.05238E-04 1.66680E-05-5.58017E-06
 -1     12782 1.06491E-04 8.38103E-06-5.66675E-06
 -1     12783 1.07869E-04 1.70848E-05-5.66675E-06
 -1     12788 1.05238E-04 1.66680E-05-5.75333E-06
 -1     12789 1.06491E-04 8.38103E-06-5.83991E-06
 -1     12790 1.07869E-04 1.70848E-05-5.83991E-06
 -1     12795 1.05238E-04 1.66680E-05-5.92649E-06
 -1     12796 1.06491E-04 8.38103E-06-6.01307E-06
 -1     12797 1.07869E-04 1.70848E-05-6.01307E-06
 -1     12802 1.05238E-04 1.66680E-05-6.09965E-06
 -1     12803 1.06491E-04 8.38103E-06-6.18623E-06
 -1     12804 1.07869E-04 1.70848E-05-6.18623E-06
 -1     12809 1.05238E-04 1.66680E-05-6.27281E-06
 -1     12810 1.06491E-04 8.38103E-06-6.35939E-06
 -1     12811 1.07869E-04 1.70848E-05-6.35939E-06
 -1     12816 1.05238E-04 1.66680E-05-6.44597E-06
 -1     12817 1.06491E-04 8.38103E-06-6.53255E-06
 -1     12818 1.07869E-04 1.70848E-05-6.53255E-06
 -1     12823 1.05238E-04 1.66680E-05-6.61913E-06
 -1     12824 1.06491E-04 8.38103E-06-6.70571E-06
 -1     12825 1.07869E-04 1.70848E-05-6.70571E-06
 -1     12830 1.05238E-04 1.66680E-05-6.79229E-06
 -1     12831 1.06491E-04 8.38103E-06-6.87887E-06
 -1     12832 1.07869E-04 1.70848E-05-6.87887E-06
 -1     12837 1.05238E-04 1.66680E-05-6.96545E-06
 -1     12838 1.06491E-04 8.38103E-06-7.05203E-06
 -1     12839 1.07869E-04 1.70848E-05-7.05203E-06
 -1     12844 1.05238E-04 1.66680E-05-7.13861E-06
 -1     12845 1.06491E-04 8.38103E-06-7.22519E-06
 -1     12846 1.07869E-04 1.70848E-05-7.22519E-06
 -1     12851 1.05238E-04 1.66680E-05-7.31177E-06
 -1     12855 1.01335E-04 3.29256E-05-5.58017E-06
 -1     12856 1.03869E-04 2.49367E-05-5.66675E-06
 -1     12857 1.03869E-04 3.37490E-05-5.66675E-06
 -1     12862 1.01335E-04 3.29256E-05-5.75333E-06
 -1     12863 1.03869E-04 2.49367E-05-5.83991E-06
 -1     12864 1.03869E-04 3.37490E-05-5.83991E-06
 -1     12869 1.01335E-04 3.29256E-05-5.92649E-06
 -1     12870 1.03869E-04 2.49367E-05-6.01307E-06
 -1     12871 1.03869E-04 3.37490E-05-6.01307E-06
 -1     12876 1.01335E-04 3.29256E-05-6.09965E-06
 -1     12877 1.03869E-04 2.49367E-05-6.18623E-06
 -1     12878 1.03869E-04 3.37490E-05-6.18623E-06
 -1     12883 1.01335E-04 3.29256E-05-6.27281E-06
 -1     12884 1.03869E-04 2.49367E-05-6.35939E-06
 -1     12885 1.03869E-04 3.37490E-05-6.35939E-06
 -1     12890 1.01335E-04 3.29256E-05-6.44597E-06
 -1     12891 1.03869E-04 2.49367E-05-6.53255E-06
 -1     12892 1.03869E-04 3.37490E-05-6.53255E-06
 -1     12897 1.01335E-04 3.29256E-05-6.61913E-06
 -1     12898 1.03869E-04 2.49367E-05-6.70571E-06
 -1     12899 1.03869E-04 3.37490E-05-6.70571E-06
 -1     12904 1.01335E-04 3.29256E-05-6.79229E-06
 -1     12905 1.03869E-04 2.49367E-05-6.87887E-06
 -1     12906 1.03869E-04 3.37490E-05-6.87887E-06
 -1     12911 1.01335E-04 3.29256E-05-6.96545E-06
 -1     12912 1.03869E-04 2.49367E-05-7.05203E-06
 -1     12913 1.03869E-04 3.37490E-05-7.05203E-06
 -1     12918 1.01335E-04 3.29256E-05-7.13861E-06
 -1     12919 1.03869E-04 2.49367E-05-7.22519E-06
 -1     12920 1.03869E-04 3.37490E-05-7.22519E-06
 -1     12925 1.01335E-04 3.29256E-05-7.31177E-06
 -1     12929 9.49364E-05 4.83725E-05-5.58017E-06
 -1     12930 9.86892E-05 4.08784E-05-5.66675E-06
 -1     12931 9.73104E-05 4.95821E-05-5.66675E-06
 -1     12936 9.49364E-05 4.83725E-05-5.75333E-06
 -1     12937 9.86892E-05 4.08784E-05-5.83991E-06
 -1     12938 9.73104E-05 4.95821E-05-5.83991E-06
 -1     12943 9.49364E-05 4.83725E-05-5.92649E-06
 -1     12944 9.86892E-05 4.08784E-05-6.01307E-06
 -1     12945 9.73104E-05 4.95821E-05-6.01307E-06
 -1     12950 9.49364E-05 4.83725E-05-6.09965E-06
 -1     12951 9.86892E-05 4.08784E-05-6.18623E-06
 -1     12952 9.73104E-05 4.95821E-05-6.18623E-06
 -1     12957 9.49364E-05 4.83725E-05-6.27281E-06
 -1     12958 9.86892E-05 4.08784E-05-6.35939E-06
 -1     12959 9.73104E-05 4.95821E-05-6.35939E-06
 -1     12964 9.49364E-05 4.83725E-05-6.44597E-06
 -1     12965 9.86892E-05 4.08784E-05-6.53255E-06
 -1     12966 9.73104E-05 4.95821E-05-6.53255E-06
 -1     12971 9.49364E-05 4.83725E-05-6.61913E-06
 -1     12972 9.86892E-05 4.08784E-05-6.70571E-06
 -1     12973 9.73104E-05 4.95821E-05-6.70571E-06
 -1     12978 9.49364E-05 4.83725E-05-6.79229E-06
 -1     12979 9.86892E-05 4.08784E-05-6.87887E-06
 -1     12980 9.73104E-05 4.95821E-05-6.87887E-06
 -1     12985 9.49364E-05 4.83725E-05-6.96545E-06
 -1     12986 9.86892E-05 4.08784E-05-7.05203E-06
 -1     12987 9.73104E-05 4.95821E-05-7.05203E-06
 -1     12992 9.49364E-05 4.83725E-05-7.13861E-06
 -1     12993 9.86892E-05 4.08784E-05-7.22519E-06
 -1     12994 9.73104E-05 4.95821E-05-7.22519E-06
 -1     12999 9.49364E-05 4.83725E-05-7.31177E-06
 -1     13003 8.62004E-05 6.26283E-05-5.58017E-06
 -1     13004 9.10793E-05 5.58135E-05-5.66675E-06
 -1     13005 8.83560E-05 6.41944E-05-5.66675E-06
 -1     13010 8.62004E-05 6.26283E-05-5.75333E-06
 -1     13011 9.10793E-05 5.58135E-05-5.83991E-06
 -1     13012 8.83560E-05 6.41944E-05-5.83991E-06
 -1     13017 8.62004E-05 6.26283E-05-5.92649E-06
 -1     13018 9.10793E-05 5.58135E-05-6.01307E-06
 -1     13019 8.83560E-05 6.41944E-05-6.01307E-06
 -1     13024 8.62004E-05 6.26283E-05-6.09965E-06
 -1     13025 9.10793E-05 5.58135E-05-6.18623E-06
 -1     13026 8.83560E-05 6.41944E-05-6.18623E-06
 -1     13031 8.62004E-05 6.26283E-05-6.27281E-06
 -1     13032 9.10793E-05 5.58135E-05-6.35939E-06
 -1     13033 8.83560E-05 6.41944E-05-6.35939E-06
 -1     13038 8.62004E-05 6.26283E-05-6.44597E-06
 -1     13039 9.10793E-05 5.58135E-05-6.53255E-06
 -1     13040 8.83560E-05 6.41944E-05-6.53255E-06
 -1     13045 8.62004E-05 6.26283E-05-6.61913E-06
 -1     13046 9.10793E-05 5.58135E-05-6.70571E-06
 -1     13047 8.83560E-05 6.41944E-05-6.70571E-06
 -1     13052 8.62004E-05 6.26283E-05-6.79229E-06
 -1     13053 9.10793E-05 5.58135E-05-6.87887E-06
 -1     13054 8.83560E-05 6.41944E-05-6.87887E-06
 -1     13059 8.62004E-05 6.26283E-05-6.96545E-06
 -1     13060 9.10793E-05 5.58135E-05-7.05203E-06
 -1     13061 8.83560E-05 6.41944E-05-7.05203E-06
 -1     13066 8.62004E-05 6.26283E-05-7.13861E-06
 -1     13067 9.10793E-05 5.58135E-05-7.22519E-06
 -1     13068 8.83560E-05 6.41944E-05-7.22519E-06
 -1     13073 8.62004E-05 6.26283E-05-7.31177E-06
 -1     13077 7.53419E-05 7.53419E-05-5.58017E-06
 -1     13078 8.12268E-05 6.93743E-05-5.66675E-06
 -1     13079 7.72260E-05 7.72260E-05-5.66675E-06
 -1     13084 7.53419E-05 7.53419E-05-5.75333E-06
 -1     13085 8.12268E-05 6.93743E-05-5.83991E-06
 -1     13086 7.72260E-05 7.72260E-05-5.83991E-06
 -1     13091 7.53419E-05 7.53419E-05-5.92649E-06
 -1     13092 8.12268E-05 6.93743E-05-6.01307E-06
 -1     13093 7.72260E-05 7.72260E-05-6.01307E-06
 -1     13098 7.53419E-05 7.53419E-05-6.09965E-06
 -1     13099 8.12268E-05 6.93743E-05-6.18623E-06
 -1     13100 7.72260E-05 7.72260E-05-6.18623E-06
 -1     13105 7.53419E-05 7.53419E-05-6.27281E-06
 -1     13106 8.12268E-05 6.93743E-05-6.35939E-06
 -1     13107 7.72260E-05 7.72260E-05-6.35939E-06
 -1     13112 7.53419E-05 7.53419E-05-6.44597E-06
 -1     13113 8.12268E-05 6.93743E-05-6.53255E-06
 -1     13114 7.72260E-05 7.72260E-05-6.53255E-06
 -1     13119 7.53419E-05 7.53419E-05-6.61913E-06
 -1     13120 8.12268E-05 6.93743E-05-6.70571E-06
 -1     13121 7.72260E-05 7.72260E-05-6.70571E-06
 -1     13126 7.53419E-05 7.53419E-05-6.79229E-06
 -1     13127 8.12268E-05 6.93743E-05-6.87887E-06
 -1     13128 7.72260E-05 7.72260E-05-6.87887E-06
 -1     13133 7.53419E-05 7.53419E-05-6.96545E-06
 -1     13134 8.12268E-05 6.93743E-05-7.05203E-06
 -1     13135 7.72260E-05 7.72260E-05-7.05203E-06
 -1     13140 7.53419E-05 7.53419E-05-7.13861E-06
 -1     13141 8.12268E-05 6.93743E-05-7.22519E-06
 -1     13142 7.72260E-05 7.72260E-05-7.22519E-06
 -1     13147 7.53419E-05 7.53419E-05-7.31177E-06
 -1     13151 6.26283E-05 8.62004E-05-5.58017E-06
 -1     13152 6.93743E-05 8.12268E-05-5.66675E-06
 -1     13153 6.41944E-05 8.83560E-05-5.66675E-06
 -1     13158 6.26283E-05 8.62004E-05-5.75333E-06
 -1     13159 6.93743E-05 8.12268E-05-5.83991E-06
 -1     13160 6.41944E-05 8.83560E-05-5.83991E-06
 -1     13165 6.26283E-05 8.62004E-05-5.92649E-06
 -1     13166 6.93743E-05 8.12268E-05-6.01307E-06
 -1     13167 6.41944E-05 8.83560E-05-6.01307E-06
 -1     13172 6.26283E-05 8.62004E-05-6.09965E-06
 -1     13173 6.93743E-05 8.12268E-05-6.18623E-06
 -1     13174 6.41944E-05 8.83560E-05-6.18623E-06
 -1     13179 6.26283E-05 8.62004E-05-6.27281E-06
 -1     13180 6.93743E-05 8.12268E-05-6.35939E-06
 -1     13181 6.41944E-05 8.83560E-05-6.35939E-06
 -1     13186 6.26283E-05 8.62004E-05-6.44597E-06
 -1     13187 6.93743E-05 8.12268E-05-6.53255E-06
 -1     13188 6.41944E-05 8.83560E-05-6.53255E-06
 -1     13193 6.26283E-05 8.62004E-05-6.61913E-06
 -1     13194 6.93743E-05 8.12268E-05-6.70571E-06
 -1     13195 6.41944E-05 8.83560E-05-6.70571E-06
 -1     13200 6.26283E-05 8.62004E-05-6.79229E-06
 -1     13201 6.93743E-05 8.12268E-05-6.87887E-06
 -1     13202 6.41944E-05 8.83560E-05-6.87887E-06
 -1     13207 6.26283E-05 8.62004E-05-6.96545E-06
 -1     13208 6.93743E-05 8.12268E-05-7.05203E-06
 -1     13209 6.41944E-05 8.83560E-05-7.05203E-06
 -1     13214 6.26283E-05 8.62004E-05-7.13861E-06
 -1     13215 6.93743E-05 8.12268E-05-7.22519E-06
 -1     13216 6.41944E-05 8.83560E-05-7.22519E-06
 -1     13221 6.26283E-05 8.62004E-05-7.31177E-06
 -1     13225 4.83725E-05 9.49364E-05-5.58017E-06
 -1     13226 5.58135E-05 9.10793E-05-5.66675E-06
 -1     13227 4.95821E-05 9.73104E-05-5.66675E-06
 -1     13232 4.83725E-05 9.49364E-05-5.75333E-06
 -1     13233 5.58135E-05 9.10793E-05-5.83991E-06
 -1     13234 4.95821E-05 9.73104E-05-5.83991E-06
 -1     13239 4.83725E-05 9.49364E-05-5.92649E-06
 -1     13240 5.58135E-05 9.10793E-05-6.01307E-06
 -1     13241 4.95821E-05 9.73104E-05-6.01307E-06
 -1     13246 4.83725E-05 9.49364E-05-6.09965E-06
 -1     13247 5.58135E-05 9.10793E-05-6.18623E-06
 -1     13248 4.95821E-05 9.73104E-05-6.18623E-06
 -1     13253 4.83725E-05 9.49364E-05-6.27281E-06
 -1     13254 5.58135E-05 9.10793E-05-6.35939E-06
 -1     13255 4.95821E-05 9.73104E-05-6.35939E-06
 -1     13260 4.83725E-05 9.49364E-05-6.44597E-06
 -1     13261 5.58135E-05 9.10793E-05-6.53255E-06
 -1     13262 4.95821E-05 9.73104E-05-6.53255E-06
 -1     13267 4.83725E-05 9.49364E-05-6.61913E-06
 -1     13268 5.58135E-05 9.10793E-05-6.70571E-06
 -1     13269 4.95821E-05 9.73104E-05-6.70571E-06
 -1     13274 4.83725E-05 9.49364E-05-6.79229E-06
 -1     13275 5.58135E-05 9.10793E-05-6.87887E-06
 -1     13276 4.95821E-05 9.73104E-05-6.87887E-06
 -1     13281 4.83725E-05 9.49364E-05-6.96545E-06
 -1     13282 5.58135E-05 9.10793E-05-7.05203E-06
 -1     13283 4.95821E-05 9.73104E-05-7.05203E-06
 -1     13288 4.83725E-05 9.49364E-05-7.13861E-06
 -1     13289 5.58135E-05 9.10793E-05-7.22519E-06
 -1     13290 4.95821E-05 9.73104E-05-7.22519E-06
 -1     13295 4.83725E-05 9.49364E-05-7.31177E-06
 -1     13299 3.29256E-05 1.01335E-04-5.58017E-06
 -1     13300 4.08784E-05 9.86892E-05-5.66675E-06
 -1     13301 3.37490E-05 1.03869E-04-5.66675E-06
 -1     13306 3.29256E-05 1.01335E-04-5.75333E-06
 -1     13307 4.08784E-05 9.86892E-05-5.83991E-06
 -1     13308 3.37490E-05 1.03869E-04-5.83991E-06
 -1     13313 3.29256E-05 1.01335E-04-5.92649E-06
 -1     13314 4.08784E-05 9.86892E-05-6.01307E-06
 -1     13315 3.37490E-05 1.03869E-04-6.01307E-06
 -1     13320 3.29256E-05 1.01335E-04-6.09965E-06
 -1     13321 4.08784E-05 9.86892E-05-6.18623E-06
 -1     13322 3.37490E-05 1.03869E-04-6.18623E-06
 -1     13327 3.29256E-05 1.01335E-04-6.27281E-06
 -1     13328 4.08784E-05 9.86892E-05-6.35939E-06
 -1     13329 3.37490E-05 1.03869E-04-6.35939E-06
 -1     13334 3.29256E-05 1.01335E-04-6.44597E-06
 -1     13335 4.08784E-05 9.86892E-05-6.53255E-06
 -1     13336 3.37490E-05 1.03869E-04-6.53255E-06
 -1     13341 3.29256E-05 1.01335E-04-6.61913E-06
 -1     13342 4.08784E-05 9.86892E-05-6.70571E-06
 -1     13343 3.37490E-05 1.03869E-04-6.70571E-06
 -1     13348 3.29256E-05 1.01335E-04-6.79229E-06
 -1     13349 4.08784E-05 9.86892E-05-6.87887E-06
 -1     13350 3.37490E-05 1.03869E-04-6.87887E-06
 -1     13355 3.29256E-05 1.01335E-04-6.96545E-06
 -1     13356 4.08784E-05 9.86892E-05-7.05203E-06
 -1     13357 3.37490E-05 1.03869E-04-7.05203E-06
 -1     13362 3.29256E-05 1.01335E-04-7.13861E-06
 -1     13363 4.08784E-05 9.86892E-05-7.22519E-06
 -1     13364 3.37490E-05 1.03869E-04-7.22519E-06
 -1     13369 3.29256E-05 1.01335E-04-7.31177E-06
 -1     13373 1.66680E-05 1.05238E-04-5.58017E-06
 -1     13374 2.49367E-05 1.03869E-04-5.66675E-06
 -1     13375 1.70848E-05 1.07869E-04-5.66675E-06
 -1     13380 1.66680E-05 1.05238E-04-5.75333E-06
 -1     13381 2.49367E-05 1.03869E-04-5.83991E-06
 -1     13382 1.70848E-05 1.07869E-04-5.83991E-06
 -1     13387 1.66680E-05 1.05238E-04-5.92649E-06
 -1     13388 2.49367E-05 1.03869E-04-6.01307E-06
 -1     13389 1.70848E-05 1.07869E-04-6.01307E-06
 -1     13394 1.66680E-05 1.05238E-04-6.09965E-06
 -1     13395 2.49367E-05 1.03869E-04-6.18623E-06
 -1     13396 1.70848E-05 1.07869E-04-6.18623E-06
 -1     13401 1.66680E-05 1.05238E-04-6.27281E-06
 -1     13402 2.49367E-05 1.03869E-04-6.35939E-06
 -1     13403 1.70848E-05 1.07869E-04-6.35939E-06
 -1     13408 1.66680E-05 1.05238E-04-6.44597E-06
 -1     13409 2.49367E-05 1.03869E-04-6.53255E-06
 -1     13410 1.70848E-05 1.07869E-04-6.53255E-06
 -1     13415 1.66680E-05 1.05238E-04-6.61913E-06
 -1     13416 2.49367E-05 1.03869E-04-6.70571E-06
 -1     13417 1.70848E-05 1.07869E-04-6.70571E-06
 -1     13422 1.66680E-05 1.05238E-04-6.79229E-06
 -1     13423 2.49367E-05 1.03869E-04-6.87887E-06
 -1     13424 1.70848E-05 1.07869E-04-6.87887E-06
 -1     13429 1.66680E-05 1.05238E-04-6.96545E-06
 -1     13430 2.49367E-05 1.03869E-04-7.05203E-06
 -1     13431 1.70848E-05 1.07869E-04-7.05203E-06
 -1     13436 1.66680E-05 1.05238E-04-7.13861E-06
 -1     13437 2.49367E-05 1.03869E-04-7.22519E-06
 -1     13438 1.70848E-05 1.07869E-04-7.22519E-06
 -1     13443 1.66680E-05 1.05238E-04-7.31177E-06
 -1     13447 8.38103E-06 1.06491E-04-5.66675E-06
 -1     13451 8.38103E-06 1.06491E-04-5.83991E-06
 -1     13455 8.38103E-06 1.06491E-04-6.01307E-06
 -1     13459 8.38103E-06 1.06491E-04-6.18623E-06
 -1     13463 8.38103E-06 1.06491E-04-6.35939E-06
 -1     13467 8.38103E-06 1.06491E-04-6.53255E-06
 -1     13471 8.38103E-06 1.06491E-04-6.70571E-06
 -1     13475 8.38103E-06 1.06491E-04-6.87887E-06
 -1     13479 8.38103E-06 1.06491E-04-7.05203E-06
 -1     13483 8.38103E-06 1.06491E-04-7.22519E-06
 -1     13489 1.00458E-04 1.59110E-05-5.58017E-06
 -1     13490 1.01649E-04 7.99991E-06-5.66675E-06
 -1     13491 1.02772E-04 1.62774E-05-5.66675E-06
 -1     13496 1.00458E-04 1.59110E-05-5.75333E-06
 -1     13497 1.01649E-04 7.99991E-06-5.83991E-06
 -1     13498 1.02772E-04 1.62774E-05-5.83991E-06
 -1     13503 1.00458E-04 1.59110E-05-5.92649E-06
 -1     13504 1.01649E-04 7.99991E-06-6.01307E-06
 -1     13505 1.02772E-04 1.62774E-05-6.01307E-06
 -1     13510 1.00458E-04 1.59110E-05-6.09965E-06
 -1     13511 1.01649E-04 7.99991E-06-6.18623E-06
 -1     13512 1.02772E-04 1.62774E-05-6.18623E-06
 -1     13517 1.00458E-04 1.59110E-05-6.27281E-06
 -1     13518 1.01649E-04 7.99991E-06-6.35939E-06
 -1     13519 1.02772E-04 1.62774E-05-6.35939E-06
 -1     13524 1.00458E-04 1.59110E-05-6.44597E-06
 -1     13525 1.01649E-04 7.99991E-06-6.53255E-06
 -1     13526 1.02772E-04 1.62774E-05-6.53255E-06
 -1     13531 1.00458E-04 1.59110E-05-6.61913E-06
 -1     13532 1.01649E-04 7.99991E-06-6.70571E-06
 -1     13533 1.02772E-04 1.62774E-05-6.70571E-06
 -1     13538 1.00458E-04 1.59110E-05-6.79229E-06
 -1     13539 1.01649E-04 7.99991E-06-6.87887E-06
 -1     13540 1.02772E-04 1.62774E-05-6.87887E-06
 -1     13545 1.00458E-04 1.59110E-05-6.96545E-06
 -1     13546 1.01649E-04 7.99991E-06-7.05203E-06
 -1     13547 1.02772E-04 1.62774E-05-7.05203E-06
 -1     13552 1.00458E-04 1.59110E-05-7.13861E-06
 -1     13553 1.01649E-04 7.99991E-06-7.22519E-06
 -1     13554 1.02772E-04 1.62774E-05-7.22519E-06
 -1     13559 1.00458E-04 1.59110E-05-7.31177E-06
 -1     13563 9.67323E-05 3.14302E-05-5.58017E-06
 -1     13564 9.91456E-05 2.38028E-05-5.66675E-06
 -1     13565 9.89599E-05 3.21540E-05-5.66675E-06
 -1     13570 9.67323E-05 3.14302E-05-5.75333E-06
 -1     13571 9.91456E-05 2.38028E-05-5.83991E-06
 -1     13572 9.89599E-05 3.21540E-05-5.83991E-06
 -1     13577 9.67323E-05 3.14302E-05-5.92649E-06
 -1     13578 9.91456E-05 2.38028E-05-6.01307E-06
 -1     13579 9.89599E-05 3.21540E-05-6.01307E-06
 -1     13584 9.67323E-05 3.14302E-05-6.09965E-06
 -1     13585 9.91456E-05 2.38028E-05-6.18623E-06
 -1     13586 9.89599E-05 3.21540E-05-6.18623E-06
 -1     13591 9.67323E-05 3.14302E-05-6.27281E-06
 -1     13592 9.91456E-05 2.38028E-05-6.35939E-06
 -1     13593 9.89599E-05 3.21540E-05-6.35939E-06
 -1     13598 9.67323E-05 3.14302E-05-6.44597E-06
 -1     13599 9.91456E-05 2.38028E-05-6.53255E-06
 -1     13600 9.89599E-05 3.21540E-05-6.53255E-06
 -1     13605 9.67323E-05 3.14302E-05-6.61913E-06
 -1     13606 9.91456E-05 2.38028E-05-6.70571E-06
 -1     13607 9.89599E-05 3.21540E-05-6.70571E-06
 -1     13612 9.67323E-05 3.14302E-05-6.79229E-06
 -1     13613 9.91456E-05 2.38028E-05-6.87887E-06
 -1     13614 9.89599E-05 3.21540E-05-6.87887E-06
 -1     13619 9.67323E-05 3.14302E-05-6.96545E-06
 -1     13620 9.91456E-05 2.38028E-05-7.05203E-06
 -1     13621 9.89599E-05 3.21540E-05-7.05203E-06
 -1     13626 9.67323E-05 3.14302E-05-7.13861E-06
 -1     13627 9.91456E-05 2.38028E-05-7.22519E-06
 -1     13628 9.89599E-05 3.21540E-05-7.22519E-06
 -1     13633 9.67323E-05 3.14302E-05-7.31177E-06
 -1     13637 9.06246E-05 4.61755E-05-5.58017E-06
 -1     13638 9.42014E-05 3.90195E-05-5.66675E-06
 -1     13639 9.27115E-05 4.72389E-05-5.66675E-06
 -1     13644 9.06246E-05 4.61755E-05-5.75333E-06
 -1     13645 9.42014E-05 3.90195E-05-5.83991E-06
 -1     13646 9.27115E-05 4.72389E-05-5.83991E-06
 -1     13651 9.06246E-05 4.61755E-05-5.92649E-06
 -1     13652 9.42014E-05 3.90195E-05-6.01307E-06
 -1     13653 9.27115E-05 4.72389E-05-6.01307E-06
 -1     13658 9.06246E-05 4.61755E-05-6.09965E-06
 -1     13659 9.42014E-05 3.90195E-05-6.18623E-06
 -1     13660 9.27115E-05 4.72389E-05-6.18623E-06
 -1     13665 9.06246E-05 4.61755E-05-6.27281E-06
 -1     13666 9.42014E-05 3.90195E-05-6.35939E-06
 -1     13667 9.27115E-05 4.72389E-05-6.35939E-06
 -1     13672 9.06246E-05 4.61755E-05-6.44597E-06
 -1     13673 9.42014E-05 3.90195E-05-6.53255E-06
 -1     13674 9.27115E-05 4.72389E-05-6.53255E-06
 -1     13679 9.06246E-05 4.61755E-05-6.61913E-06
 -1     13680 9.42014E-05 3.90195E-05-6.70571E-06
 -1     13681 9.27115E-05 4.72389E-05-6.70571E-06
 -1     13686 9.06246E-05 4.61755E-05-6.79229E-06
 -1     13687 9.42014E-05 3.90195E-05-6.87887E-06
 -1     13688 9.27115E-05 4.72389E-05-6.87887E-06
 -1     13693 9.06246E-05 4.61755E-05-6.96545E-06
 -1     13694 9.42014E-05 3.90195E-05-7.05203E-06
 -1     13695 9.27115E-05 4.72389E-05-7.05203E-06
 -1     13700 9.06246E-05 4.61755E-05-7.13861E-06
 -1     13701 9.42014E-05 3.90195E-05-7.22519E-06
 -1     13702 9.27115E-05 4.72389E-05-7.22519E-06
 -1     13707 9.06246E-05 4.61755E-05-7.31177E-06
 -1     13711 8.22854E-05 5.97839E-05-5.58017E-06
 -1     13712 8.69376E-05 5.32754E-05-5.66675E-06
 -1     13713 8.41803E-05 6.11606E-05-5.66675E-06
 -1     13718 8.22854E-05 5.97839E-05-5.75333E-06
 -1     13719 8.69376E-05 5.32754E-05-5.83991E-06
 -1     13720 8.41803E-05 6.11606E-05-5.83991E-06
 -1     13725 8.22854E-05 5.97839E-05-5.92649E-06
 -1     13726 8.69376E-05 5.32754E-05-6.01307E-06
 -1     13727 8.41803E-05 6.11606E-05-6.01307E-06
 -1     13732 8.22854E-05 5.97839E-05-6.09965E-06
 -1     13733 8.69376E-05 5.32754E-05-6.18623E-06
 -1     13734 8.41803E-05 6.11606E-05-6.18623E-06
 -1     13739 8.22854E-05 5.97839E-05-6.27281E-06
 -1     13740 8.69376E-05 5.32754E-05-6.35939E-06
 -1     13741 8.41803E-05 6.11606E-05-6.35939E-06
 -1     13746 8.22854E-05 5.97839E-05-6.44597E-06
 -1     13747 8.69376E-05 5.32754E-05-6.53255E-06
 -1     13748 8.41803E-05 6.11606E-05-6.53255E-06
 -1     13753 8.22854E-05 5.97839E-05-6.61913E-06
 -1     13754 8.69376E-05 5.32754E-05-6.70571E-06
 -1     13755 8.41803E-05 6.11606E-05-6.70571E-06
 -1     13760 8.22854E-05 5.97839E-05-6.79229E-06
 -1     13761 8.69376E-05 5.32754E-05-6.87887E-06
 -1     13762 8.41803E-05 6.11606E-05-6.87887E-06
 -1     13767 8.22854E-05 5.97839E-05-6.96545E-06
 -1     13768 8.69376E-05 5.32754E-05-7.05203E-06
 -1     13769 8.41803E-05 6.11606E-05-7.05203E-06
 -1     13774 8.22854E-05 5.97839E-05-7.13861E-06
 -1     13775 8.69376E-05 5.32754E-05-7.22519E-06
 -1     13776 8.41803E-05 6.11606E-05-7.22519E-06
 -1     13781 8.22854E-05 5.97839E-05-7.31177E-06
 -1     13785 7.19201E-05 7.19201E-05-5.58017E-06
 -1     13786 7.75332E-05 6.62196E-05-5.66675E-06
 -1     13787 7.35763E-05 7.35763E-05-5.66675E-06
 -1     13792 7.19201E-05 7.19201E-05-5.75333E-06
 -1     13793 7.75332E-05 6.62196E-05-5.83991E-06
 -1     13794 7.35763E-05 7.35763E-05-5.83991E-06
 -1     13799 7.19201E-05 7.19201E-05-5.92649E-06
 -1     13800 7.75332E-05 6.62196E-05-6.01307E-06
 -1     13801 7.35763E-05 7.35763E-05-6.01307E-06
 -1     13806 7.19201E-05 7.19201E-05-6.09965E-06
 -1     13807 7.75332E-05 6.62196E-05-6.18623E-06
 -1     13808 7.35763E-05 7.35763E-05-6.18623E-06
 -1     13813 7.19201E-05 7.19201E-05-6.27281E-06
 -1     13814 7.75332E-05 6.62196E-05-6.35939E-06
 -1     13815 7.35763E-05 7.35763E-05-6.35939E-06
 -1     13820 7.19201E-05 7.19201E-05-6.44597E-06
 -1     13821 7.75332E-05 6.62196E-05-6.53255E-06
 -1     13822 7.35763E-05 7.35763E-05-6.53255E-06
 -1     13827 7.19201E-05 7.19201E-05-6.61913E-06
 -1     13828 7.75332E-05 6.62196E-05-6.70571E-06
 -1     13829 7.35763E-05 7.35763E-05-6.70571E-06
 -1     13834 7.19201E-05 7.19201E-05-6.79229E-06
 -1     13835 7.75332E-05 6.62196E-05-6.87887E-06
 -1     13836 7.35763E-05 7.35763E-05-6.87887E-06
 -1     13841 7.19201E-05 7.19201E-05-6.96545E-06
 -1     13842 7.75332E-05 6.62196E-05-7.05203E-06
 -1     13843 7.35763E-05 7.35763E-05-7.05203E-06
 -1     13848 7.19201E-05 7.19201E-05-7.13861E-06
 -1     13849 7.75332E-05 6.62196E-05-7.22519E-06
 -1     13850 7.35763E-05 7.35763E-05-7.22519E-06
 -1     13855 7.19201E-05 7.19201E-05-7.31177E-06
 -1     13859 5.97839E-05 8.22854E-05-5.58017E-06
 -1     13860 6.62196E-05 7.75332E-05-5.66675E-06
 -1     13861 6.11606E-05 8.41803E-05-5.66675E-06
 -1     13866 5.97839E-05 8.22854E-05-5.75333E-06
 -1     13867 6.62196E-05 7.75332E-05-5.83991E-06
 -1     13868 6.11606E-05 8.41803E-05-5.83991E-06
 -1     13873 5.97839E-05 8.22854E-05-5.92649E-06
 -1     13874 6.62196E-05 7.75332E-05-6.01307E-06
 -1     13875 6.11606E-05 8.41803E-05-6.01307E-06
 -1     13880 5.97839E-05 8.22854E-05-6.09965E-06
 -1     13881 6.62196E-05 7.75332E-05-6.18623E-06
 -1     13882 6.11606E-05 8.41803E-05-6.18623E-06
 -1     13887 5.97839E-05 8.22854E-05-6.27281E-06
 -1     13888 6.62196E-05 7.75332E-05-6.35939E-06
 -1     13889 6.11606E-05 8.41803E-05-6.35939E-06
 -1     13894 5.97839E-05 8.22854E-05-6.44597E-06
 -1     13895 6.62196E-05 7.75332E-05-6.53255E-06
 -1     13896 6.11606E-05 8.41803E-05-6.53255E-06
 -1     13901 5.97839E-05 8.22854E-05-6.61913E-06
 -1     13902 6.62196E-05 7.75332E-05-6.70571E-06
 -1     13903 6.11606E-05 8.41803E-05-6.70571E-06
 -1     13908 5.97839E-05 8.22854E-05-6.79229E-06
 -1     13909 6.62196E-05 7.75332E-05-6.87887E-06
 -1     13910 6.11606E-05 8.41803E-05-6.87887E-06
 -1     13915 5.97839E-05 8.22854E-05-6.96545E-06
 -1     13916 6.62196E-05 7.75332E-05-7.05203E-06
 -1     13917 6.11606E-05 8.41803E-05-7.05203E-06
 -1     13922 5.97839E-05 8.22854E-05-7.13861E-06
 -1     13923 6.62196E-05 7.75332E-05-7.22519E-06
 -1     13924 6.11606E-05 8.41803E-05-7.22519E-06
 -1     13929 5.97839E-05 8.22854E-05-7.31177E-06
 -1     13933 4.61755E-05 9.06246E-05-5.58017E-06
 -1     13934 5.32754E-05 8.69376E-05-5.66675E-06
 -1     13935 4.72389E-05 9.27115E-05-5.66675E-06
 -1     13940 4.61755E-05 9.06246E-05-5.75333E-06
 -1     13941 5.32754E-05 8.69376E-05-5.83991E-06
 -1     13942 4.72389E-05 9.27115E-05-5.83991E-06
 -1     13947 4.61755E-05 9.06246E-05-5.92649E-06
 -1     13948 5.32754E-05 8.69376E-05-6.01307E-06
 -1     13949 4.72389E-05 9.27115E-05-6.01307E-06
 -1     13954 4.61755E-05 9.06246E-05-6.09965E-06
 -1     13955 5.32754E-05 8.69376E-05-6.18623E-06
 -1     13956 4.72389E-05 9.27115E-05-6.18623E-06
 -1     13961 4.61755E-05 9.06246E-05-6.27281E-06
 -1     13962 5.32754E-05 8.69376E-05-6.35939E-06
 -1     13963 4.72389E-05 9.27115E-05-6.35939E-06
 -1     13968 4.61755E-05 9.06246E-05-6.44597E-06
 -1     13969 5.32754E-05 8.69376E-05-6.53255E-06
 -1     13970 4.72389E-05 9.27115E-05-6.53255E-06
 -1     13975 4.61755E-05 9.06246E-05-6.61913E-06
 -1     13976 5.32754E-05 8.69376E-05-6.70571E-06
 -1     13977 4.72389E-05 9.27115E-05-6.70571E-06
 -1     13982 4.61755E-05 9.06246E-05-6.79229E-06
 -1     13983 5.32754E-05 8.69376E-05-6.87887E-06
 -1     13984 4.72389E-05 9.27115E-05-6.87887E-06
 -1     13989 4.61755E-05 9.06246E-05-6.96545E-06
 -1     13990 5.32754E-05 8.69376E-05-7.05203E-06
 -1     13991 4.72389E-05 9.27115E-05-7.05203E-06
 -1     13996 4.61755E-05 9.06246E-05-7.13861E-06
 -1     13997 5.32754E-05 8.69376E-05-7.22519E-06
 -1     13998 4.72389E-05 9.27115E-05-7.22519E-06
 -1     14003 4.61755E-05 9.06246E-05-7.31177E-06
 -1     14007 3.14302E-05 9.67323E-05-5.58017E-06
 -1     14008 3.90195E-05 9.42014E-05-5.66675E-06
 -1     14009 3.21540E-05 9.89599E-05-5.66675E-06
 -1     14014 3.14302E-05 9.67323E-05-5.75333E-06
 -1     14015 3.90195E-05 9.42014E-05-5.83991E-06
 -1     14016 3.21540E-05 9.89599E-05-5.83991E-06
 -1     14021 3.14302E-05 9.67323E-05-5.92649E-06
 -1     14022 3.90195E-05 9.42014E-05-6.01307E-06
 -1     14023 3.21540E-05 9.89599E-05-6.01307E-06
 -1     14028 3.14302E-05 9.67323E-05-6.09965E-06
 -1     14029 3.90195E-05 9.42014E-05-6.18623E-06
 -1     14030 3.21540E-05 9.89599E-05-6.18623E-06
 -1     14035 3.14302E-05 9.67323E-05-6.27281E-06
 -1     14036 3.90195E-05 9.42014E-05-6.35939E-06
 -1     14037 3.21540E-05 9.89599E-05-6.35939E-06
 -1     14042 3.14302E-05 9.67323E-05-6.44597E-06
 -1     14043 3.90195E-05 9.42014E-05-6.53255E-06
 -1     14044 3.21540E-05 9.89599E-05-6.53255E-06
 -1     14049 3.14302E-05 9.67323E-05-6.61913E-06
 -1     14050 3.90195E-05 9.42014E-05-6.70571E-06
 -1     14051 3.21540E-05 9.89599E-05-6.70571E-06
 -1     14056 3.14302E-05 9.67323E-05-6.79229E-06
 -1     14057 3.90195E-05 9.42014E-05-6.87887E-06
 -1     14058 3.21540E-05 9.89599E-05-6.87887E-06
 -1     14063 3.14302E-05 9.67323E-05-6.96545E-06
 -1     14064 3.90195E-05 9.42014E-05-7.05203E-06
 -1     14065 3.21540E-05 9.89599E-05-7.05203E-06
 -1     14070 3.14302E-05 9.67323E-05-7.13861E-06
 -1     14071 3.90195E-05 9.42014E-05-7.22519E-06
 -1     14072 3.21540E-05 9.89599E-05-7.22519E-06
 -1     14077 3.14302E-05 9.67323E-05-7.31177E-06
 -1     14081 1.59110E-05 1.00458E-04-5.58017E-06
 -1     14082 2.38028E-05 9.91456E-05-5.66675E-06
 -1     14083 1.62774E-05 1.02772E-04-5.66675E-06
 -1     14088 1.59110E-05 1.00458E-04-5.75333E-06
 -1     14089 2.38028E-05 9.91456E-05-5.83991E-06
 -1     14090 1.62774E-05 1.02772E-04-5.83991E-06
 -1     14095 1.59110E-05 1.00458E-04-5.92649E-06
 -1     14096 2.38028E-05 9.91456E-05-6.01307E-06
 -1     14097 1.62774E-05 1.02772E-04-6.01307E-06
 -1     14102 1.59110E-05 1.00458E-04-6.09965E-06
 -1     14103 2.38028E-05 9.91456E-05-6.18623E-06
 -1     14104 1.62774E-05 1.02772E-04-6.18623E-06
 -1     14109 1.59110E-05 1.00458E-04-6.27281E-06
 -1     14110 2.38028E-05 9.91456E-05-6.35939E-06
 -1     14111 1.62774E-05 1.02772E-04-6.35939E-06
 -1     14116 1.59110E-05 1.00458E-04-6.44597E-06
 -1     14117 2.38028E-05 9.91456E-05-6.53255E-06
 -1     14118 1.62774E-05 1.02772E-04-6.53255E-06
 -1     14123 1.59110E-05 1.00458E-04-6.61913E-06
 -1     14124 2.38028E-05 9.91456E-05-6.70571E-06
 -1     14125 1.62774E-05 1.02772E-04-6.70571E-06
 -1     14130 1.59110E-05 1.00458E-04-6.79229E-06
 -1     14131 2.38028E-05 9.91456E-05-6.87887E-06
 -1     14132 1.62774E-05 1.02772E-04-6.87887E-06
 -1     14137 1.59110E-05 1.00458E-04-6.96545E-06
 -1     14138 2.38028E-05 9.91456E-05-7.05203E-06
 -1     14139 1.62774E-05 1.02772E-04-7.05203E-06
 -1     14144 1.59110E-05 1.00458E-04-7.13861E-06
 -1     14145 2.38028E-05 9.91456E-05-7.22519E-06
 -1     14146 1.62774E-05 1.02772E-04-7.22519E-06
 -1     14151 1.59110E-05 1.00458E-04-7.31177E-06
 -1     14155 7.99991E-06 1.01649E-04-5.66675E-06
 -1     14159 7.99991E-06 1.01649E-04-5.83991E-06
 -1     14163 7.99991E-06 1.01649E-04-6.01307E-06
 -1     14167 7.99991E-06 1.01649E-04-6.18623E-06
 -1     14171 7.99991E-06 1.01649E-04-6.35939E-06
 -1     14175 7.99991E-06 1.01649E-04-6.53255E-06
 -1     14179 7.99991E-06 1.01649E-04-6.70571E-06
 -1     14183 7.99991E-06 1.01649E-04-6.87887E-06
 -1     14187 7.99991E-06 1.01649E-04-7.05203E-06
 -1     14191 7.99991E-06 1.01649E-04-7.22519E-06
 -1     14197 9.62394E-05 1.52428E-05-5.58017E-06
 -1     14198 9.73738E-05 7.66349E-06-5.66675E-06
 -1     14199 9.82841E-05 1.55667E-05-5.66675E-06
 -1     14204 9.62394E-05 1.52428E-05-5.75333E-06
 -1     14205 9.73738E-05 7.66349E-06-5.83991E-06
 -1     14206 9.82841E-05 1.55667E-05-5.83991E-06
 -1     14211 9.62394E-05 1.52428E-05-5.92649E-06
 -1     14212 9.73738E-05 7.66349E-06-6.01307E-06
 -1     14213 9.82841E-05 1.55667E-05-6.01307E-06
 -1     14218 9.62394E-05 1.52428E-05-6.09965E-06
 -1     14219 9.73738E-05 7.66349E-06-6.18623E-06
 -1     14220 9.82841E-05 1.55667E-05-6.18623E-06
 -1     14225 9.62394E-05 1.52428E-05-6.27281E-06
 -1     14226 9.73738E-05 7.66349E-06-6.35939E-06
 -1     14227 9.82841E-05 1.55667E-05-6.35939E-06
 -1     14232 9.62394E-05 1.52428E-05-6.44597E-06
 -1     14233 9.73738E-05 7.66349E-06-6.53255E-06
 -1     14234 9.82841E-05 1.55667E-05-6.53255E-06
 -1     14239 9.62394E-05 1.52428E-05-6.61913E-06
 -1     14240 9.73738E-05 7.66349E-06-6.70571E-06
 -1     14241 9.82841E-05 1.55667E-05-6.70571E-06
 -1     14246 9.62394E-05 1.52428E-05-6.79229E-06
 -1     14247 9.73738E-05 7.66349E-06-6.87887E-06
 -1     14248 9.82841E-05 1.55667E-05-6.87887E-06
 -1     14253 9.62394E-05 1.52428E-05-6.96545E-06
 -1     14254 9.73738E-05 7.66349E-06-7.05203E-06
 -1     14255 9.82841E-05 1.55667E-05-7.05203E-06
 -1     14260 9.62394E-05 1.52428E-05-7.13861E-06
 -1     14261 9.73738E-05 7.66349E-06-7.22519E-06
 -1     14262 9.82841E-05 1.55667E-05-7.22519E-06
 -1     14267 9.62394E-05 1.52428E-05-7.31177E-06
 -1     14271 9.26700E-05 3.01103E-05-5.58017E-06
 -1     14272 9.49762E-05 2.28018E-05-5.66675E-06
 -1     14273 9.46389E-05 3.07500E-05-5.66675E-06
 -1     14278 9.26700E-05 3.01103E-05-5.75333E-06
 -1     14279 9.49762E-05 2.28018E-05-5.83991E-06
 -1     14280 9.46389E-05 3.07500E-05-5.83991E-06
 -1     14285 9.26700E-05 3.01103E-05-5.92649E-06
 -1     14286 9.49762E-05 2.28018E-05-6.01307E-06
 -1     14287 9.46389E-05 3.07500E-05-6.01307E-06
 -1     14292 9.26700E-05 3.01103E-05-6.09965E-06
 -1     14293 9.49762E-05 2.28018E-05-6.18623E-06
 -1     14294 9.46389E-05 3.07500E-05-6.18623E-06
 -1     14299 9.26700E-05 3.01103E-05-6.27281E-06
 -1     14300 9.49762E-05 2.28018E-05-6.35939E-06
 -1     14301 9.46389E-05 3.07500E-05-6.35939E-06
 -1     14306 9.26700E-05 3.01103E-05-6.44597E-06
 -1     14307 9.49762E-05 2.28018E-05-6.53255E-06
 -1     14308 9.46389E-05 3.07500E-05-6.53255E-06
 -1     14313 9.26700E-05 3.01103E-05-6.61913E-06
 -1     14314 9.49762E-05 2.28018E-05-6.70571E-06
 -1     14315 9.46389E-05 3.07500E-05-6.70571E-06
 -1     14320 9.26700E-05 3.01103E-05-6.79229E-06
 -1     14321 9.49762E-05 2.28018E-05-6.87887E-06
 -1     14322 9.46389E-05 3.07500E-05-6.87887E-06
 -1     14327 9.26700E-05 3.01103E-05-6.96545E-06
 -1     14328 9.49762E-05 2.28018E-05-7.05203E-06
 -1     14329 9.46389E-05 3.07500E-05-7.05203E-06
 -1     14334 9.26700E-05 3.01103E-05-7.13861E-06
 -1     14335 9.49762E-05 2.28018E-05-7.22519E-06
 -1     14336 9.46389E-05 3.07500E-05-7.22519E-06
 -1     14341 9.26700E-05 3.01103E-05-7.31177E-06
 -1     14345 8.68188E-05 4.42364E-05-5.58017E-06
 -1     14346 9.02399E-05 3.73786E-05-5.66675E-06
 -1     14347 8.86634E-05 4.51762E-05-5.66675E-06
 -1     14352 8.68188E-05 4.42364E-05-5.75333E-06
 -1     14353 9.02399E-05 3.73786E-05-5.83991E-06
 -1     14354 8.86634E-05 4.51762E-05-5.83991E-06
 -1     14359 8.68188E-05 4.42364E-05-5.92649E-06
 -1     14360 9.02399E-05 3.73786E-05-6.01307E-06
 -1     14361 8.86634E-05 4.51762E-05-6.01307E-06
 -1     14366 8.68188E-05 4.42364E-05-6.09965E-06
 -1     14367 9.02399E-05 3.73786E-05-6.18623E-06
 -1     14368 8.86634E-05 4.51762E-05-6.18623E-06
 -1     14373 8.68188E-05 4.42364E-05-6.27281E-06
 -1     14374 9.02399E-05 3.73786E-05-6.35939E-06
 -1     14375 8.86634E-05 4.51762E-05-6.35939E-06
 -1     14380 8.68188E-05 4.42364E-05-6.44597E-06
 -1     14381 9.02399E-05 3.73786E-05-6.53255E-06
 -1     14382 8.86634E-05 4.51762E-05-6.53255E-06
 -1     14387 8.68188E-05 4.42364E-05-6.61913E-06
 -1     14388 9.02399E-05 3.73786E-05-6.70571E-06
 -1     14389 8.86634E-05 4.51762E-05-6.70571E-06
 -1     14394 8.68188E-05 4.42364E-05-6.79229E-06
 -1     14395 9.02399E-05 3.73786E-05-6.87887E-06
 -1     14396 8.86634E-05 4.51762E-05-6.87887E-06
 -1     14401 8.68188E-05 4.42364E-05-6.96545E-06
 -1     14402 9.02399E-05 3.73786E-05-7.05203E-06
 -1     14403 8.86634E-05 4.51762E-05-7.05203E-06
 -1     14408 8.68188E-05 4.42364E-05-7.13861E-06
 -1     14409 9.02399E-05 3.73786E-05-7.22519E-06
 -1     14410 8.86634E-05 4.51762E-05-7.22519E-06
 -1     14415 8.68188E-05 4.42364E-05-7.31177E-06
 -1     14419 7.88298E-05 5.72732E-05-5.58017E-06
 -1     14420 8.32816E-05 5.10350E-05-5.66675E-06
 -1     14421 8.05046E-05 5.84900E-05-5.66675E-06
 -1     14426 7.88298E-05 5.72732E-05-5.75333E-06
 -1     14427 8.32816E-05 5.10350E-05-5.83991E-06
 -1     14428 8.05046E-05 5.84900E-05-5.83991E-06
 -1     14433 7.88298E-05 5.72732E-05-5.92649E-06
 -1     14434 8.32816E-05 5.10350E-05-6.01307E-06
 -1     14435 8.05046E-05 5.84900E-05-6.01307E-06
 -1     14440 7.88298E-05 5.72732E-05-6.09965E-06
 -1     14441 8.32816E-05 5.10350E-05-6.18623E-06
 -1     14442 8.05046E-05 5.84900E-05-6.18623E-06
 -1     14447 7.88298E-05 5.72732E-05-6.27281E-06
 -1     14448 8.32816E-05 5.10350E-05-6.35939E-06
 -1     14449 8.05046E-05 5.84900E-05-6.35939E-06
 -1     14454 7.88298E-05 5.72732E-05-6.44597E-06
 -1     14455 8.32816E-05 5.10350E-05-6.53255E-06
 -1     14456 8.05046E-05 5.84900E-05-6.53255E-06
 -1     14461 7.88298E-05 5.72732E-05-6.61913E-06
 -1     14462 8.32816E-05 5.10350E-05-6.70571E-06
 -1     14463 8.05046E-05 5.84900E-05-6.70571E-06
 -1     14468 7.88298E-05 5.72732E-05-6.79229E-06
 -1     14469 8.32816E-05 5.10350E-05-6.87887E-06
 -1     14470 8.05046E-05 5.84900E-05-6.87887E-06
 -1     14475 7.88298E-05 5.72732E-05-6.96545E-06
 -1     14476 8.32816E-05 5.10350E-05-7.05203E-06
 -1     14477 8.05046E-05 5.84900E-05-7.05203E-06
 -1     14482 7.88298E-05 5.72732E-05-7.13861E-06
 -1     14483 8.32816E-05 5.10350E-05-7.22519E-06
 -1     14484 8.05046E-05 5.84900E-05-7.22519E-06
 -1     14489 7.88298E-05 5.72732E-05-7.31177E-06
 -1     14493 6.88998E-05 6.88998E-05-5.58017E-06
 -1     14494 7.42726E-05 6.34348E-05-5.66675E-06
 -1     14495 7.03636E-05 7.03636E-05-5.66675E-06
 -1     14500 6.88998E-05 6.88998E-05-5.75333E-06
 -1     14501 7.42726E-05 6.34348E-05-5.83991E-06
 -1     14502 7.03636E-05 7.03636E-05-5.83991E-06
 -1     14507 6.88998E-05 6.88998E-05-5.92649E-06
 -1     14508 7.42726E-05 6.34348E-05-6.01307E-06
 -1     14509 7.03636E-05 7.03636E-05-6.01307E-06
 -1     14514 6.88998E-05 6.88998E-05-6.09965E-06
 -1     14515 7.42726E-05 6.34348E-05-6.18623E-06
 -1     14516 7.03636E-05 7.03636E-05-6.18623E-06
 -1     14521 6.88998E-05 6.88998E-05-6.27281E-06
 -1     14522 7.42726E-05 6.34348E-05-6.35939E-06
 -1     14523 7.03636E-05 7.03636E-05-6.35939E-06
 -1     14528 6.88998E-05 6.88998E-05-6.44597E-06
 -1     14529 7.42726E-05 6.34348E-05-6.53255E-06
 -1     14530 7.03636E-05 7.03636E-05-6.53255E-06
 -1     14535 6.88998E-05 6.88998E-05-6.61913E-06
 -1     14536 7.42726E-05 6.34348E-05-6.70571E-06
 -1     14537 7.03636E-05 7.03636E-05-6.70571E-06
 -1     14542 6.88998E-05 6.88998E-05-6.79229E-06
 -1     14543 7.42726E-05 6.34348E-05-6.87887E-06
 -1     14544 7.03636E-05 7.03636E-05-6.87887E-06
 -1     14549 6.88998E-05 6.88998E-05-6.96545E-06
 -1     14550 7.42726E-05 6.34348E-05-7.05203E-06
 -1     14551 7.03636E-05 7.03636E-05-7.05203E-06
 -1     14556 6.88998E-05 6.88998E-05-7.13861E-06
 -1     14557 7.42726E-05 6.34348E-05-7.22519E-06
 -1     14558 7.03636E-05 7.03636E-05-7.22519E-06
 -1     14563 6.88998E-05 6.88998E-05-7.31177E-06
 -1     14567 5.72732E-05 7.88298E-05-5.58017E-06
 -1     14568 6.34348E-05 7.42726E-05-5.66675E-06
 -1     14569 5.84900E-05 8.05046E-05-5.66675E-06
 -1     14574 5.72732E-05 7.88298E-05-5.75333E-06
 -1     14575 6.34348E-05 7.42726E-05-5.83991E-06
 -1     14576 5.84900E-05 8.05046E-05-5.83991E-06
 -1     14581 5.72732E-05 7.88298E-05-5.92649E-06
 -1     14582 6.34348E-05 7.42726E-05-6.01307E-06
 -1     14583 5.84900E-05 8.05046E-05-6.01307E-06
 -1     14588 5.72732E-05 7.88298E-05-6.09965E-06
 -1     14589 6.34348E-05 7.42726E-05-6.18623E-06
 -1     14590 5.84900E-05 8.05046E-05-6.18623E-06
 -1     14595 5.72732E-05 7.88298E-05-6.27281E-06
 -1     14596 6.34348E-05 7.42726E-05-6.35939E-06
 -1     14597 5.84900E-05 8.05046E-05-6.35939E-06
 -1     14602 5.72732E-05 7.88298E-05-6.44597E-06
 -1     14603 6.34348E-05 7.42726E-05-6.53255E-06
 -1     14604 5.84900E-05 8.05046E-05-6.53255E-06
 -1     14609 5.72732E-05 7.88298E-05-6.61913E-06
 -1     14610 6.34348E-05 7.42726E-05-6.70571E-06
 -1     14611 5.84900E-05 8.05046E-05-6.70571E-06
 -1     14616 5.72732E-05 7.88298E-05-6.79229E-06
 -1     14617 6.34348E-05 7.42726E-05-6.87887E-06
 -1     14618 5.84900E-05 8.05046E-05-6.87887E-06
 -1     14623 5.72732E-05 7.88298E-05-6.96545E-06
 -1     14624 6.34348E-05 7.42726E-05-7.05203E-06
 -1     14625 5.84900E-05 8.05046E-05-7.05203E-06
 -1     14630 5.72732E-05 7.88298E-05-7.13861E-06
 -1     14631 6.34348E-05 7.42726E-05-7.22519E-06
 -1     14632 5.84900E-05 8.05046E-05-7.22519E-06
 -1     14637 5.72732E-05 7.88298E-05-7.31177E-06
 -1     14641 4.42364E-05 8.68188E-05-5.58017E-06
 -1     14642 5.10350E-05 8.32816E-05-5.66675E-06
 -1     14643 4.51762E-05 8.86634E-05-5.66675E-06
 -1     14648 4.42364E-05 8.68188E-05-5.75333E-06
 -1     14649 5.10350E-05 8.32816E-05-5.83991E-06
 -1     14650 4.51762E-05 8.86634E-05-5.83991E-06
 -1     14655 4.42364E-05 8.68188E-05-5.92649E-06
 -1     14656 5.10350E-05 8.32816E-05-6.01307E-06
 -1     14657 4.51762E-05 8.86634E-05-6.01307E-06
 -1     14662 4.42364E-05 8.68188E-05-6.09965E-06
 -1     14663 5.10350E-05 8.32816E-05-6.18623E-06
 -1     14664 4.51762E-05 8.86634E-05-6.18623E-06
 -1     14669 4.42364E-05 8.68188E-05-6.27281E-06
 -1     14670 5.10350E-05 8.32816E-05-6.35939E-06
 -1     14671 4.51762E-05 8.86634E-05-6.35939E-06
 -1     14676 4.42364E-05 8.68188E-05-6.44597E-06
 -1     14677 5.10350E-05 8.32816E-05-6.53255E-06
 -1     14678 4.51762E-05 8.86634E-05-6.53255E-06
 -1     14683 4.42364E-05 8.68188E-05-6.61913E-06
 -1     14684 5.10350E-05 8.32816E-05-6.70571E-06
 -1     14685 4.51762E-05 8.86634E-05-6.70571E-06
 -1     14690 4.42364E-05 8.68188E-05-6.79229E-06
 -1     14691 5.10350E-05 8.32816E-05-6.87887E-06
 -1     14692 4.51762E-05 8.86634E-05-6.87887E-06
 -1     14697 4.42364E-05 8.68188E-05-6.96545E-06
 -1     14698 5.10350E-05 8.32816E-05-7.05203E-06
 -1     14699 4.51762E-05 8.86634E-05-7.05203E-06
 -1     14704 4.42364E-05 8.68188E-05-7.13861E-06
 -1     14705 5.10350E-05 8.32816E-05-7.22519E-06
 -1     14706 4.51762E-05 8.86634E-05-7.22519E-06
 -1     14711 4.42364E-05 8.68188E-05-7.31177E-06
 -1     14715 3.01103E-05 9.26700E-05-5.58017E-06
 -1     14716 3.73786E-05 9.02399E-05-5.66675E-06
 -1     14717 3.07500E-05 9.46389E-05-5.66675E-06
 -1     14722 3.01103E-05 9.26700E-05-5.75333E-06
 -1     14723 3.73786E-05 9.02399E-05-5.83991E-06
 -1     14724 3.07500E-05 9.46389E-05-5.83991E-06
 -1     14729 3.01103E-05 9.26700E-05-5.92649E-06
 -1     14730 3.73786E-05 9.02399E-05-6.01307E-06
 -1     14731 3.07500E-05 9.46389E-05-6.01307E-06
 -1     14736 3.01103E-05 9.26700E-05-6.09965E-06
 -1     14737 3.73786E-05 9.02399E-05-6.18623E-06
 -1     14738 3.07500E-05 9.46389E-05-6.18623E-06
 -1     14743 3.01103E-05 9.26700E-05-6.27281E-06
 -1     14744 3.73786E-05 9.02399E-05-6.35939E-06
 -1     14745 3.07500E-05 9.46389E-05-6.35939E-06
 -1     14750 3.01103E-05 9.26700E-05-6.44597E-06
 -1     14751 3.73786E-05 9.02399E-05-6.53255E-06
 -1     14752 3.07500E-05 9.46389E-05-6.53255E-06
 -1     14757 3.01103E-05 9.26700E-05-6.61913E-06
 -1     14758 3.73786E-05 9.02399E-05-6.70571E-06
 -1     14759 3.07500E-05 9.46389E-05-6.70571E-06
 -1     14764 3.01103E-05 9.26700E-05-6.79229E-06
 -1     14765 3.73786E-05 9.02399E-05-6.87887E-06
 -1     14766 3.07500E-05 9.46389E-05-6.87887E-06
 -1     14771 3.01103E-05 9.26700E-05-6.96545E-06
 -1     14772 3.73786E-05 9.02399E-05-7.05203E-06
 -1     14773 3.07500E-05 9.46389E-05-7.05203E-06
 -1     14778 3.01103E-05 9.26700E-05-7.13861E-06
 -1     14779 3.73786E-05 9.02399E-05-7.22519E-06
 -1     14780 3.07500E-05 9.46389E-05-7.22519E-06
 -1     14785 3.01103E-05 9.26700E-05-7.31177E-06
 -1     14789 1.52428E-05 9.62394E-05-5.58017E-06
 -1     14790 2.28018E-05 9.49762E-05-5.66675E-06
 -1     14791 1.55667E-05 9.82841E-05-5.66675E-06
 -1     14796 1.52428E-05 9.62394E-05-5.75333E-06
 -1     14797 2.28018E-05 9.49762E-05-5.83991E-06
 -1     14798 1.55667E-05 9.82841E-05-5.83991E-06
 -1     14803 1.52428E-05 9.62394E-05-5.92649E-06
 -1     14804 2.28018E-05 9.49762E-05-6.01307E-06
 -1     14805 1.55667E-05 9.82841E-05-6.01307E-06
 -1     14810 1.52428E-05 9.62394E-05-6.09965E-06
 -1     14811 2.28018E-05 9.49762E-05-6.18623E-06
 -1     14812 1.55667E-05 9.82841E-05-6.18623E-06
 -1     14817 1.52428E-05 9.62394E-05-6.27281E-06
 -1     14818 2.28018E-05 9.49762E-05-6.35939E-06
 -1     14819 1.55667E-05 9.82841E-05-6.35939E-06
 -1     14824 1.52428E-05 9.62394E-05-6.44597E-06
 -1     14825 2.28018E-05 9.49762E-05-6.53255E-06
 -1     14826 1.55667E-05 9.82841E-05-6.53255E-06
 -1     14831 1.52428E-05 9.62394E-05-6.61913E-06
 -1     14832 2.28018E-05 9.49762E-05-6.70571E-06
 -1     14833 1.55667E-05 9.82841E-05-6.70571E-06
 -1     14838 1.52428E-05 9.62394E-05-6.79229E-06
 -1     14839 2.28018E-05 9.49762E-05-6.87887E-06
 -1     14840 1.55667E-05 9.82841E-05-6.87887E-06
 -1     14845 1.52428E-05 9.62394E-05-6.96545E-06
 -1     14846 2.28018E-05 9.49762E-05-7.05203E-06
 -1     14847 1.55667E-05 9.82841E-05-7.05203E-06
 -1     14852 1.52428E-05 9.62394E-05-7.13861E-06
 -1     14853 2.28018E-05 9.49762E-05-7.22519E-06
 -1     14854 1.55667E-05 9.82841E-05-7.22519E-06
 -1     14859 1.52428E-05 9.62394E-05-7.31177E-06
 -1     14863 7.66349E-06 9.73738E-05-5.66675E-06
 -1     14867 7.66349E-06 9.73738E-05-5.83991E-06
 -1     14871 7.66349E-06 9.73738E-05-6.01307E-06
 -1     14875 7.66349E-06 9.73738E-05-6.18623E-06
 -1     14879 7.66349E-06 9.73738E-05-6.35939E-06
 -1     14883 7.66349E-06 9.73738E-05-6.53255E-06
 -1     14887 7.66349E-06 9.73738E-05-6.70571E-06
 -1     14891 7.66349E-06 9.73738E-05-6.87887E-06
 -1     14895 7.66349E-06 9.73738E-05-7.05203E-06
 -1     14899 7.66349E-06 9.73738E-05-7.22519E-06
 -1     14905 9.24974E-05 1.46502E-05-5.58017E-06
 -1     14906 9.35818E-05 7.36505E-06-5.66675E-06
 -1     14907 9.43132E-05 1.49377E-05-5.66675E-06
 -1     14912 9.24974E-05 1.46502E-05-5.75333E-06
 -1     14913 9.35818E-05 7.36505E-06-5.83991E-06
 -1     14914 9.43132E-05 1.49377E-05-5.83991E-06
 -1     14919 9.24974E-05 1.46502E-05-5.92649E-06
 -1     14920 9.35818E-05 7.36505E-06-6.01307E-06
 -1     14921 9.43132E-05 1.49377E-05-6.01307E-06
 -1     14926 9.24974E-05 1.46502E-05-6.09965E-06
 -1     14927 9.35818E-05 7.36505E-06-6.18623E-06
 -1     14928 9.43132E-05 1.49377E-05-6.18623E-06
 -1     14933 9.24974E-05 1.46502E-05-6.27281E-06
 -1     14934 9.35818E-05 7.36505E-06-6.35939E-06
 -1     14935 9.43132E-05 1.49377E-05-6.35939E-06
 -1     14940 9.24974E-05 1.46502E-05-6.44597E-06
 -1     14941 9.35818E-05 7.36505E-06-6.53255E-06
 -1     14942 9.43132E-05 1.49377E-05-6.53255E-06
 -1     14947 9.24974E-05 1.46502E-05-6.61913E-06
 -1     14948 9.35818E-05 7.36505E-06-6.70571E-06
 -1     14949 9.43132E-05 1.49377E-05-6.70571E-06
 -1     14954 9.24974E-05 1.46502E-05-6.79229E-06
 -1     14955 9.35818E-05 7.36505E-06-6.87887E-06
 -1     14956 9.43132E-05 1.49377E-05-6.87887E-06
 -1     14961 9.24974E-05 1.46502E-05-6.96545E-06
 -1     14962 9.35818E-05 7.36505E-06-7.05203E-06
 -1     14963 9.43132E-05 1.49377E-05-7.05203E-06
 -1     14968 9.24974E-05 1.46502E-05-7.13861E-06
 -1     14969 9.35818E-05 7.36505E-06-7.22519E-06
 -1     14970 9.43132E-05 1.49377E-05-7.22519E-06
 -1     14975 9.24974E-05 1.46502E-05-7.31177E-06
 -1     14979 8.90668E-05 2.89396E-05-5.58017E-06
 -1     14980 9.12775E-05 2.19138E-05-5.66675E-06
 -1     14981 9.08152E-05 2.95077E-05-5.66675E-06
 -1     14986 8.90668E-05 2.89396E-05-5.75333E-06
 -1     14987 9.12775E-05 2.19138E-05-5.83991E-06
 -1     14988 9.08152E-05 2.95077E-05-5.83991E-06
 -1     14993 8.90668E-05 2.89396E-05-5.92649E-06
 -1     14994 9.12775E-05 2.19138E-05-6.01307E-06
 -1     14995 9.08152E-05 2.95077E-05-6.01307E-06
 -1     15000 8.90668E-05 2.89396E-05-6.09965E-06
 -1     15001 9.12775E-05 2.19138E-05-6.18623E-06
 -1     15002 9.08152E-05 2.95077E-05-6.18623E-06
 -1     15007 8.90668E-05 2.89396E-05-6.27281E-06
 -1     15008 9.12775E-05 2.19138E-05-6.35939E-06
 -1     15009 9.08152E-05 2.95077E-05-6.35939E-06
 -1     15014 8.90668E-05 2.89396E-05-6.44597E-06
 -1     15015 9.12775E-05 2.19138E-05-6.53255E-06
 -1     15016 9.08152E-05 2.95077E-05-6.53255E-06
 -1     15021 8.90668E-05 2.89396E-05-6.61913E-06
 -1     15022 9.12775E-05 2.19138E-05-6.70571E-06
 -1     15023 9.08152E-05 2.95077E-05-6.70571E-06
 -1     15028 8.90668E-05 2.89396E-05-6.79229E-06
 -1     15029 9.12775E-05 2.19138E-05-6.87887E-06
 -1     15030 9.08152E-05 2.95077E-05-6.87887E-06
 -1     15035 8.90668E-05 2.89396E-05-6.96545E-06
 -1     15036 9.12775E-05 2.19138E-05-7.05203E-06
 -1     15037 9.08152E-05 2.95077E-05-7.05203E-06
 -1     15042 8.90668E-05 2.89396E-05-7.13861E-06
 -1     15043 9.12775E-05 2.19138E-05-7.22519E-06
 -1     15044 9.08152E-05 2.95077E-05-7.22519E-06
 -1     15049 8.90668E-05 2.89396E-05-7.31177E-06
 -1     15053 8.34431E-05 4.25164E-05-5.58017E-06
 -1     15054 8.67257E-05 3.59229E-05-5.66675E-06
 -1     15055 8.50811E-05 4.33510E-05-5.66675E-06
 -1     15060 8.34431E-05 4.25164E-05-5.75333E-06
 -1     15061 8.67257E-05 3.59229E-05-5.83991E-06
 -1     15062 8.50811E-05 4.33510E-05-5.83991E-06
 -1     15067 8.34431E-05 4.25164E-05-5.92649E-06
 -1     15068 8.67257E-05 3.59229E-05-6.01307E-06
 -1     15069 8.50811E-05 4.33510E-05-6.01307E-06
 -1     15074 8.34431E-05 4.25164E-05-6.09965E-06
 -1     15075 8.67257E-05 3.59229E-05-6.18623E-06
 -1     15076 8.50811E-05 4.33510E-05-6.18623E-06
 -1     15081 8.34431E-05 4.25164E-05-6.27281E-06
 -1     15082 8.67257E-05 3.59229E-05-6.35939E-06
 -1     15083 8.50811E-05 4.33510E-05-6.35939E-06
 -1     15088 8.34431E-05 4.25164E-05-6.44597E-06
 -1     15089 8.67257E-05 3.59229E-05-6.53255E-06
 -1     15090 8.50811E-05 4.33510E-05-6.53255E-06
 -1     15095 8.34431E-05 4.25164E-05-6.61913E-06
 -1     15096 8.67257E-05 3.59229E-05-6.70571E-06
 -1     15097 8.50811E-05 4.33510E-05-6.70571E-06
 -1     15102 8.34431E-05 4.25164E-05-6.79229E-06
 -1     15103 8.67257E-05 3.59229E-05-6.87887E-06
 -1     15104 8.50811E-05 4.33510E-05-6.87887E-06
 -1     15109 8.34431E-05 4.25164E-05-6.96545E-06
 -1     15110 8.67257E-05 3.59229E-05-7.05203E-06
 -1     15111 8.50811E-05 4.33510E-05-7.05203E-06
 -1     15116 8.34431E-05 4.25164E-05-7.13861E-06
 -1     15117 8.67257E-05 3.59229E-05-7.22519E-06
 -1     15118 8.50811E-05 4.33510E-05-7.22519E-06
 -1     15123 8.34431E-05 4.25164E-05-7.31177E-06
 -1     15127 7.57648E-05 5.50463E-05-5.58017E-06
 -1     15128 8.00383E-05 4.90476E-05-5.66675E-06
 -1     15129 7.72521E-05 5.61269E-05-5.66675E-06
 -1     15134 7.57648E-05 5.50463E-05-5.75333E-06
 -1     15135 8.00383E-05 4.90476E-05-5.83991E-06
 -1     15136 7.72521E-05 5.61269E-05-5.83991E-06
 -1     15141 7.57648E-05 5.50463E-05-5.92649E-06
 -1     15142 8.00383E-05 4.90476E-05-6.01307E-06
 -1     15143 7.72521E-05 5.61269E-05-6.01307E-06
 -1     15148 7.57648E-05 5.50463E-05-6.09965E-06
 -1     15149 8.00383E-05 4.90476E-05-6.18623E-06
 -1     15150 7.72521E-05 5.61269E-05-6.18623E-06
 -1     15155 7.57648E-05 5.50463E-05-6.27281E-06
 -1     15156 8.00383E-05 4.90476E-05-6.35939E-06
 -1     15157 7.72521E-05 5.61269E-05-6.35939E-06
 -1     15162 7.57648E-05 5.50463E-05-6.44597E-06
 -1     15163 8.00383E-05 4.90476E-05-6.53255E-06
 -1     15164 7.72521E-05 5.61269E-05-6.53255E-06
 -1     15169 7.57648E-05 5.50463E-05-6.61913E-06
 -1     15170 8.00383E-05 4.90476E-05-6.70571E-06
 -1     15171 7.72521E-05 5.61269E-05-6.70571E-06
 -1     15176 7.57648E-05 5.50463E-05-6.79229E-06
 -1     15177 8.00383E-05 4.90476E-05-6.87887E-06
 -1     15178 7.72521E-05 5.61269E-05-6.87887E-06
 -1     15183 7.57648E-05 5.50463E-05-6.96545E-06
 -1     15184 8.00383E-05 4.90476E-05-7.05203E-06
 -1     15185 7.72521E-05 5.61269E-05-7.05203E-06
 -1     15190 7.57648E-05 5.50463E-05-7.13861E-06
 -1     15191 8.00383E-05 4.90476E-05-7.22519E-06
 -1     15192 7.72521E-05 5.61269E-05-7.22519E-06
 -1     15197 7.57648E-05 5.50463E-05-7.31177E-06
 -1     15201 6.62208E-05 6.62208E-05-5.58017E-06
 -1     15202 7.13802E-05 6.09644E-05-5.66675E-06
 -1     15203 6.75208E-05 6.75208E-05-5.66675E-06
 -1     15208 6.62208E-05 6.62208E-05-5.75333E-06
 -1     15209 7.13802E-05 6.09644E-05-5.83991E-06
 -1     15210 6.75208E-05 6.75208E-05-5.83991E-06
 -1     15215 6.62208E-05 6.62208E-05-5.92649E-06
 -1     15216 7.13802E-05 6.09644E-05-6.01307E-06
 -1     15217 6.75208E-05 6.75208E-05-6.01307E-06
 -1     15222 6.62208E-05 6.62208E-05-6.09965E-06
 -1     15223 7.13802E-05 6.09644E-05-6.18623E-06
 -1     15224 6.75208E-05 6.75208E-05-6.18623E-06
 -1     15229 6.62208E-05 6.62208E-05-6.27281E-06
 -1     15230 7.13802E-05 6.09644E-05-6.35939E-06
 -1     15231 6.75208E-05 6.75208E-05-6.35939E-06
 -1     15236 6.62208E-05 6.62208E-05-6.44597E-06
 -1     15237 7.13802E-05 6.09644E-05-6.53255E-06
 -1     15238 6.75208E-05 6.75208E-05-6.53255E-06
 -1     15243 6.62208E-05 6.62208E-05-6.61913E-06
 -1     15244 7.13802E-05 6.09644E-05-6.70571E-06
 -1     15245 6.75208E-05 6.75208E-05-6.70571E-06
 -1     15250 6.62208E-05 6.62208E-05-6.79229E-06
 -1     15251 7.13802E-05 6.09644E-05-6.87887E-06
 -1     15252 6.75208E-05 6.75208E-05-6.87887E-06
 -1     15257 6.62208E-05 6.62208E-05-6.96545E-06
 -1     15258 7.13802E-05 6.09644E-05-7.05203E-06
 -1     15259 6.75208E-05 6.75208E-05-7.05203E-06
 -1     15264 6.62208E-05 6.62208E-05-7.13861E-06
 -1     15265 7.13802E-05 6.09644E-05-7.22519E-06
 -1     15266 6.75208E-05 6.75208E-05-7.22519E-06
 -1     15271 6.62208E-05 6.62208E-05-7.31177E-06
 -1     15275 5.50463E-05 7.57648E-05-5.58017E-06
 -1     15276 6.09644E-05 7.13802E-05-5.66675E-06
 -1     15277 5.61269E-05 7.72521E-05-5.66675E-06
 -1     15282 5.50463E-05 7.57648E-05-5.75333E-06
 -1     15283 6.09644E-05 7.13802E-05-5.83991E-06
 -1     15284 5.61269E-05 7.72521E-05-5.83991E-06
 -1     15289 5.50463E-05 7.57648E-05-5.92649E-06
 -1     15290 6.09644E-05 7.13802E-05-6.01307E-06
 -1     15291 5.61269E-05 7.72521E-05-6.01307E-06
 -1     15296 5.50463E-05 7.57648E-05-6.09965E-06
 -1     15297 6.09644E-05 7.13802E-05-6.18623E-06
 -1     15298 5.61269E-05 7.72521E-05-6.18623E-06
 -1     15303 5.50463E-05 7.57648E-05-6.27281E-06
 -1     15304 6.09644E-05 7.13802E-05-6.35939E-06
 -1     15305 5.61269E-05 7.72521E-05-6.35939E-06
 -1     15310 5.50463E-05 7.57648E-05-6.44597E-06
 -1     15311 6.09644E-05 7.13802E-05-6.53255E-06
 -1     15312 5.61269E-05 7.72521E-05-6.53255E-06
 -1     15317 5.50463E-05 7.57648E-05-6.61913E-06
 -1     15318 6.09644E-05 7.13802E-05-6.70571E-06
 -1     15319 5.61269E-05 7.72521E-05-6.70571E-06
 -1     15324 5.50463E-05 7.57648E-05-6.79229E-06
 -1     15325 6.09644E-05 7.13802E-05-6.87887E-06
 -1     15326 5.61269E-05 7.72521E-05-6.87887E-06
 -1     15331 5.50463E-05 7.57648E-05-6.96545E-06
 -1     15332 6.09644E-05 7.13802E-05-7.05203E-06
 -1     15333 5.61269E-05 7.72521E-05-7.05203E-06
 -1     15338 5.50463E-05 7.57648E-05-7.13861E-06
 -1     15339 6.09644E-05 7.13802E-05-7.22519E-06
 -1     15340 5.61269E-05 7.72521E-05-7.22519E-06
 -1     15345 5.50463E-05 7.57648E-05-7.31177E-06
 -1     15349 4.25164E-05 8.34431E-05-5.58017E-06
 -1     15350 4.90476E-05 8.00383E-05-5.66675E-06
 -1     15351 4.33510E-05 8.50811E-05-5.66675E-06
 -1     15356 4.25164E-05 8.34431E-05-5.75333E-06
 -1     15357 4.90476E-05 8.00383E-05-5.83991E-06
 -1     15358 4.33510E-05 8.50811E-05-5.83991E-06
 -1     15363 4.25164E-05 8.34431E-05-5.92649E-06
 -1     15364 4.90476E-05 8.00383E-05-6.01307E-06
 -1     15365 4.33510E-05 8.50811E-05-6.01307E-06
 -1     15370 4.25164E-05 8.34431E-05-6.09965E-06
 -1     15371 4.90476E-05 8.00383E-05-6.18623E-06
 -1     15372 4.33510E-05 8.50811E-05-6.18623E-06
 -1     15377 4.25164E-05 8.34431E-05-6.27281E-06
 -1     15378 4.90476E-05 8.00383E-05-6.35939E-06
 -1     15379 4.33510E-05 8.50811E-05-6.35939E-06
 -1     15384 4.25164E-05 8.34431E-05-6.44597E-06
 -1     15385 4.90476E-05 8.00383E-05-6.53255E-06
 -1     15386 4.33510E-05 8.50811E-05-6.53255E-06
 -1     15391 4.25164E-05 8.34431E-05-6.61913E-06
 -1     15392 4.90476E-05 8.00383E-05-6.70571E-06
 -1     15393 4.33510E-05 8.50811E-05-6.70571E-06
 -1     15398 4.25164E-05 8.34431E-05-6.79229E-06
 -1     15399 4.90476E-05 8.00383E-05-6.87887E-06
 -1     15400 4.33510E-05 8.50811E-05-6.87887E-06
 -1     15405 4.25164E-05 8.34431E-05-6.96545E-06
 -1     15406 4.90476E-05 8.00383E-05-7.05203E-06
 -1     15407 4.33510E-05 8.50811E-05-7.05203E-06
 -1     15412 4.25164E-05 8.34431E-05-7.13861E-06
 -1     15413 4.90476E-05 8.00383E-05-7.22519E-06
 -1     15414 4.33510E-05 8.50811E-05-7.22519E-06
 -1     15419 4.25164E-05 8.34431E-05-7.31177E-06
 -1     15423 2.89396E-05 8.90668E-05-5.58017E-06
 -1     15424 3.59229E-05 8.67257E-05-5.66675E-06
 -1     15425 2.95077E-05 9.08152E-05-5.66675E-06
 -1     15430 2.89396E-05 8.90668E-05-5.75333E-06
 -1     15431 3.59229E-05 8.67257E-05-5.83991E-06
 -1     15432 2.95077E-05 9.08152E-05-5.83991E-06
 -1     15437 2.89396E-05 8.90668E-05-5.92649E-06
 -1     15438 3.59229E-05 8.67257E-05-6.01307E-06
 -1     15439 2.95077E-05 9.08152E-05-6.01307E-06
 -1     15444 2.89396E-05 8.90668E-05-6.09965E-06
 -1     15445 3.59229E-05 8.67257E-05-6.18623E-06
 -1     15446 2.95077E-05 9.08152E-05-6.18623E-06
 -1     15451 2.89396E-05 8.90668E-05-6.27281E-06
 -1     15452 3.59229E-05 8.67257E-05-6.35939E-06
 -1     15453 2.95077E-05 9.08152E-05-6.35939E-06
 -1     15458 2.89396E-05 8.90668E-05-6.44597E-06
 -1     15459 3.59229E-05 8.67257E-05-6.53255E-06
 -1     15460 2.95077E-05 9.08152E-05-6.53255E-06
 -1     15465 2.89396E-05 8.90668E-05-6.61913E-06
 -1     15466 3.59229E-05 8.67257E-05-6.70571E-06
 -1     15467 2.95077E-05 9.08152E-05-6.70571E-06
 -1     15472 2.89396E-05 8.90668E-05-6.79229E-06
 -1     15473 3.59229E-05 8.67257E-05-6.87887E-06
 -1     15474 2.95077E-05 9.08152E-05-6.87887E-06
 -1     15479 2.89396E-05 8.90668E-05-6.96545E-06
 -1     15480 3.59229E-05 8.67257E-05-7.05203E-06
 -1     15481 2.95077E-05 9.08152E-05-7.05203E-06
 -1     15486 2.89396E-05 8.90668E-05-7.13861E-06
 -1     15487 3.59229E-05 8.67257E-05-7.22519E-06
 -1     15488 2.95077E-05 9.08152E-05-7.22519E-06
 -1     15493 2.89396E-05 8.90668E-05-7.31177E-06
 -1     15497 1.46502E-05 9.24974E-05-5.58017E-06
 -1     15498 2.19138E-05 9.12775E-05-5.66675E-06
 -1     15499 1.49377E-05 9.43132E-05-5.66675E-06
 -1     15504 1.46502E-05 9.24974E-05-5.75333E-06
 -1     15505 2.19138E-05 9.12775E-05-5.83991E-06
 -1     15506 1.49377E-05 9.43132E-05-5.83991E-06
 -1     15511 1.46502E-05 9.24974E-05-5.92649E-06
 -1     15512 2.19138E-05 9.12775E-05-6.01307E-06
 -1     15513 1.49377E-05 9.43132E-05-6.01307E-06
 -1     15518 1.46502E-05 9.24974E-05-6.09965E-06
 -1     15519 2.19138E-05 9.12775E-05-6.18623E-06
 -1     15520 1.49377E-05 9.43132E-05-6.18623E-06
 -1     15525 1.46502E-05 9.24974E-05-6.27281E-06
 -1     15526 2.19138E-05 9.12775E-05-6.35939E-06
 -1     15527 1.49377E-05 9.43132E-05-6.35939E-06
 -1     15532 1.46502E-05 9.24974E-05-6.44597E-06
 -1     15533 2.19138E-05 9.12775E-05-6.53255E-06
 -1     15534 1.49377E-05 9.43132E-05-6.53255E-06
 -1     15539 1.46502E-05 9.24974E-05-6.61913E-06
 -1     15540 2.19138E-05 9.12775E-05-6.70571E-06
 -1     15541 1.49377E-05 9.43132E-05-6.70571E-06
 -1     15546 1.46502E-05 9.24974E-05-6.79229E-06
 -1     15547 2.19138E-05 9.12775E-05-6.87887E-06
 -1     15548 1.49377E-05 9.43132E-05-6.87887E-06
 -1     15553 1.46502E-05 9.24974E-05-6.96545E-06
 -1     15554 2.19138E-05 9.12775E-05-7.05203E-06
 -1     15555 1.49377E-05 9.43132E-05-7.05203E-06
 -1     15560 1.46502E-05 9.24974E-05-7.13861E-06
 -1     15561 2.19138E-05 9.12775E-05-7.22519E-06
 -1     15562 1.49377E-05 9.43132E-05-7.22519E-06
 -1     15567 1.46502E-05 9.24974E-05-7.31177E-06
 -1     15571 7.36505E-06 9.35818E-05-5.66675E-06
 -1     15575 7.36505E-06 9.35818E-05-5.83991E-06
 -1     15579 7.36505E-06 9.35818E-05-6.01307E-06
 -1     15583 7.36505E-06 9.35818E-05-6.18623E-06
 -1     15587 7.36505E-06 9.35818E-05-6.35939E-06
 -1     15591 7.36505E-06 9.35818E-05-6.53255E-06
 -1     15595 7.36505E-06 9.35818E-05-6.70571E-06
 -1     15599 7.36505E-06 9.35818E-05-6.87887E-06
 -1     15603 7.36505E-06 9.35818E-05-7.05203E-06
 -1     15607 7.36505E-06 9.35818E-05-7.22519E-06
 -1     15613 8.91641E-05 1.41222E-05-5.58017E-06
 -1     15614 9.02035E-05 7.09917E-06-5.66675E-06
 -1     15615 9.07832E-05 1.43786E-05-5.66675E-06
 -1     15620 8.91641E-05 1.41222E-05-5.75333E-06
 -1     15621 9.02035E-05 7.09917E-06-5.83991E-06
 -1     15622 9.07832E-05 1.43786E-05-5.83991E-06
 -1     15627 8.91641E-05 1.41222E-05-5.92649E-06
 -1     15628 9.02035E-05 7.09917E-06-6.01307E-06
 -1     15629 9.07832E-05 1.43786E-05-6.01307E-06
 -1     15634 8.91641E-05 1.41222E-05-6.09965E-06
 -1     15635 9.02035E-05 7.09917E-06-6.18623E-06
 -1     15636 9.07832E-05 1.43786E-05-6.18623E-06
 -1     15641 8.91641E-05 1.41222E-05-6.27281E-06
 -1     15642 9.02035E-05 7.09917E-06-6.35939E-06
 -1     15643 9.07832E-05 1.43786E-05-6.35939E-06
 -1     15648 8.91641E-05 1.41222E-05-6.44597E-06
 -1     15649 9.02035E-05 7.09917E-06-6.53255E-06
 -1     15650 9.07832E-05 1.43786E-05-6.53255E-06
 -1     15655 8.91641E-05 1.41222E-05-6.61913E-06
 -1     15656 9.02035E-05 7.09917E-06-6.70571E-06
 -1     15657 9.07832E-05 1.43786E-05-6.70571E-06
 -1     15662 8.91641E-05 1.41222E-05-6.79229E-06
 -1     15663 9.02035E-05 7.09917E-06-6.87887E-06
 -1     15664 9.07832E-05 1.43786E-05-6.87887E-06
 -1     15669 8.91641E-05 1.41222E-05-6.96545E-06
 -1     15670 9.02035E-05 7.09917E-06-7.05203E-06
 -1     15671 9.07832E-05 1.43786E-05-7.05203E-06
 -1     15676 8.91641E-05 1.41222E-05-7.13861E-06
 -1     15677 9.02035E-05 7.09917E-06-7.22519E-06
 -1     15678 9.07832E-05 1.43786E-05-7.22519E-06
 -1     15683 8.91641E-05 1.41222E-05-7.31177E-06
 -1     15687 8.58571E-05 2.78967E-05-5.58017E-06
 -1     15688 8.79824E-05 2.11227E-05-5.66675E-06
 -1     15689 8.74162E-05 2.84032E-05-5.66675E-06
 -1     15694 8.58571E-05 2.78967E-05-5.75333E-06
 -1     15695 8.79824E-05 2.11227E-05-5.83991E-06
 -1     15696 8.74162E-05 2.84032E-05-5.83991E-06
 -1     15701 8.58571E-05 2.78967E-05-5.92649E-06
 -1     15702 8.79824E-05 2.11227E-05-6.01307E-06
 -1     15703 8.74162E-05 2.84032E-05-6.01307E-06
 -1     15708 8.58571E-05 2.78967E-05-6.09965E-06
 -1     15709 8.79824E-05 2.11227E-05-6.18623E-06
 -1     15710 8.74162E-05 2.84032E-05-6.18623E-06
 -1     15715 8.58571E-05 2.78967E-05-6.27281E-06
 -1     15716 8.79824E-05 2.11227E-05-6.35939E-06
 -1     15717 8.74162E-05 2.84032E-05-6.35939E-06
 -1     15722 8.58571E-05 2.78967E-05-6.44597E-06
 -1     15723 8.79824E-05 2.11227E-05-6.53255E-06
 -1     15724 8.74162E-05 2.84032E-05-6.53255E-06
 -1     15729 8.58571E-05 2.78967E-05-6.61913E-06
 -1     15730 8.79824E-05 2.11227E-05-6.70571E-06
 -1     15731 8.74162E-05 2.84032E-05-6.70571E-06
 -1     15736 8.58571E-05 2.78967E-05-6.79229E-06
 -1     15737 8.79824E-05 2.11227E-05-6.87887E-06
 -1     15738 8.74162E-05 2.84032E-05-6.87887E-06
 -1     15743 8.58571E-05 2.78967E-05-6.96545E-06
 -1     15744 8.79824E-05 2.11227E-05-7.05203E-06
 -1     15745 8.74162E-05 2.84032E-05-7.05203E-06
 -1     15750 8.58571E-05 2.78967E-05-7.13861E-06
 -1     15751 8.79824E-05 2.11227E-05-7.22519E-06
 -1     15752 8.74162E-05 2.84032E-05-7.22519E-06
 -1     15757 8.58571E-05 2.78967E-05-7.31177E-06
 -1     15761 8.04361E-05 4.09842E-05-5.58017E-06
 -1     15762 8.35949E-05 3.46261E-05-5.66675E-06
 -1     15763 8.18967E-05 4.17285E-05-5.66675E-06
 -1     15768 8.04361E-05 4.09842E-05-5.75333E-06
 -1     15769 8.35949E-05 3.46261E-05-5.83991E-06
 -1     15770 8.18967E-05 4.17285E-05-5.83991E-06
 -1     15775 8.04361E-05 4.09842E-05-5.92649E-06
 -1     15776 8.35949E-05 3.46261E-05-6.01307E-06
 -1     15777 8.18967E-05 4.17285E-05-6.01307E-06
 -1     15782 8.04361E-05 4.09842E-05-6.09965E-06
 -1     15783 8.35949E-05 3.46261E-05-6.18623E-06
 -1     15784 8.18967E-05 4.17285E-05-6.18623E-06
 -1     15789 8.04361E-05 4.09842E-05-6.27281E-06
 -1     15790 8.35949E-05 3.46261E-05-6.35939E-06
 -1     15791 8.18967E-05 4.17285E-05-6.35939E-06
 -1     15796 8.04361E-05 4.09842E-05-6.44597E-06
 -1     15797 8.35949E-05 3.46261E-05-6.53255E-06
 -1     15798 8.18967E-05 4.17285E-05-6.53255E-06
 -1     15803 8.04361E-05 4.09842E-05-6.61913E-06
 -1     15804 8.35949E-05 3.46261E-05-6.70571E-06
 -1     15805 8.18967E-05 4.17285E-05-6.70571E-06
 -1     15810 8.04361E-05 4.09842E-05-6.79229E-06
 -1     15811 8.35949E-05 3.46261E-05-6.87887E-06
 -1     15812 8.18967E-05 4.17285E-05-6.87887E-06
 -1     15817 8.04361E-05 4.09842E-05-6.96545E-06
 -1     15818 8.35949E-05 3.46261E-05-7.05203E-06
 -1     15819 8.18967E-05 4.17285E-05-7.05203E-06
 -1     15824 8.04361E-05 4.09842E-05-7.13861E-06
 -1     15825 8.35949E-05 3.46261E-05-7.22519E-06
 -1     15826 8.18967E-05 4.17285E-05-7.22519E-06
 -1     15831 8.04361E-05 4.09842E-05-7.31177E-06
 -1     15835 7.30344E-05 5.30626E-05-5.58017E-06
 -1     15836 7.71490E-05 4.72769E-05-5.66675E-06
 -1     15837 7.43607E-05 5.40262E-05-5.66675E-06
 -1     15842 7.30344E-05 5.30626E-05-5.75333E-06
 -1     15843 7.71490E-05 4.72769E-05-5.83991E-06
 -1     15844 7.43607E-05 5.40262E-05-5.83991E-06
 -1     15849 7.30344E-05 5.30626E-05-5.92649E-06
 -1     15850 7.71490E-05 4.72769E-05-6.01307E-06
 -1     15851 7.43607E-05 5.40262E-05-6.01307E-06
 -1     15856 7.30344E-05 5.30626E-05-6.09965E-06
 -1     15857 7.71490E-05 4.72769E-05-6.18623E-06
 -1     15858 7.43607E-05 5.40262E-05-6.18623E-06
 -1     15863 7.30344E-05 5.30626E-05-6.27281E-06
 -1     15864 7.71490E-05 4.72769E-05-6.35939E-06
 -1     15865 7.43607E-05 5.40262E-05-6.35939E-06
 -1     15870 7.30344E-05 5.30626E-05-6.44597E-06
 -1     15871 7.71490E-05 4.72769E-05-6.53255E-06
 -1     15872 7.43607E-05 5.40262E-05-6.53255E-06
 -1     15877 7.30344E-05 5.30626E-05-6.61913E-06
 -1     15878 7.71490E-05 4.72769E-05-6.70571E-06
 -1     15879 7.43607E-05 5.40262E-05-6.70571E-06
 -1     15884 7.30344E-05 5.30626E-05-6.79229E-06
 -1     15885 7.71490E-05 4.72769E-05-6.87887E-06
 -1     15886 7.43607E-05 5.40262E-05-6.87887E-06
 -1     15891 7.30344E-05 5.30626E-05-6.96545E-06
 -1     15892 7.71490E-05 4.72769E-05-7.05203E-06
 -1     15893 7.43607E-05 5.40262E-05-7.05203E-06
 -1     15898 7.30344E-05 5.30626E-05-7.13861E-06
 -1     15899 7.71490E-05 4.72769E-05-7.22519E-06
 -1     15900 7.43607E-05 5.40262E-05-7.22519E-06
 -1     15905 7.30344E-05 5.30626E-05-7.31177E-06
 -1     15909 6.38344E-05 6.38344E-05-5.58017E-06
 -1     15910 6.88034E-05 5.87636E-05-5.66675E-06
 -1     15911 6.49936E-05 6.49936E-05-5.66675E-06
 -1     15916 6.38344E-05 6.38344E-05-5.75333E-06
 -1     15917 6.88034E-05 5.87636E-05-5.83991E-06
 -1     15918 6.49936E-05 6.49936E-05-5.83991E-06
 -1     15923 6.38344E-05 6.38344E-05-5.92649E-06
 -1     15924 6.88034E-05 5.87636E-05-6.01307E-06
 -1     15925 6.49936E-05 6.49936E-05-6.01307E-06
 -1     15930 6.38344E-05 6.38344E-05-6.09965E-06
 -1     15931 6.88034E-05 5.87636E-05-6.18623E-06
 -1     15932 6.49936E-05 6.49936E-05-6.18623E-06
 -1     15937 6.38344E-05 6.38344E-05-6.27281E-06
 -1     15938 6.88034E-05 5.87636E-05-6.35939E-06
 -1     15939 6.49936E-05 6.49936E-05-6.35939E-06
 -1     15944 6.38344E-05 6.38344E-05-6.44597E-06
 -1     15945 6.88034E-05 5.87636E-05-6.53255E-06
 -1     15946 6.49936E-05 6.49936E-05-6.53255E-06
 -1     15951 6.38344E-05 6.38344E-05-6.61913E-06
 -1     15952 6.88034E-05 5.87636E-05-6.70571E-06
 -1     15953 6.49936E-05 6.49936E-05-6.70571E-06
 -1     15958 6.38344E-05 6.38344E-05-6.79229E-06
 -1     15959 6.88034E-05 5.87636E-05-6.87887E-06
 -1     15960 6.49936E-05 6.49936E-05-6.87887E-06
 -1     15965 6.38344E-05 6.38344E-05-6.96545E-06
 -1     15966 6.88034E-05 5.87636E-05-7.05203E-06
 -1     15967 6.49936E-05 6.49936E-05-7.05203E-06
 -1     15972 6.38344E-05 6.38344E-05-7.13861E-06
 -1     15973 6.88034E-05 5.87636E-05-7.22519E-06
 -1     15974 6.49936E-05 6.49936E-05-7.22519E-06
 -1     15979 6.38344E-05 6.38344E-05-7.31177E-06
 -1     15983 5.30626E-05 7.30344E-05-5.58017E-06
 -1     15984 5.87636E-05 6.88034E-05-5.66675E-06
 -1     15985 5.40262E-05 7.43607E-05-5.66675E-06
 -1     15990 5.30626E-05 7.30344E-05-5.75333E-06
 -1     15991 5.87636E-05 6.88034E-05-5.83991E-06
 -1     15992 5.40262E-05 7.43607E-05-5.83991E-06
 -1     15997 5.30626E-05 7.30344E-05-5.92649E-06
 -1     15998 5.87636E-05 6.88034E-05-6.01307E-06
 -1     15999 5.40262E-05 7.43607E-05-6.01307E-06
 -1     16004 5.30626E-05 7.30344E-05-6.09965E-06
 -1     16005 5.87636E-05 6.88034E-05-6.18623E-06
 -1     16006 5.40262E-05 7.43607E-05-6.18623E-06
 -1     16011 5.30626E-05 7.30344E-05-6.27281E-06
 -1     16012 5.87636E-05 6.88034E-05-6.35939E-06
 -1     16013 5.40262E-05 7.43607E-05-6.35939E-06
 -1     16018 5.30626E-05 7.30344E-05-6.44597E-06
 -1     16019 5.87636E-05 6.88034E-05-6.53255E-06
 -1     16020 5.40262E-05 7.43607E-05-6.53255E-06
 -1     16025 5.30626E-05 7.30344E-05-6.61913E-06
 -1     16026 5.87636E-05 6.88034E-05-6.70571E-06
 -1     16027 5.40262E-05 7.43607E-05-6.70571E-06
 -1     16032 5.30626E-05 7.30344E-05-6.79229E-06
 -1     16033 5.87636E-05 6.88034E-05-6.87887E-06
 -1     16034 5.40262E-05 7.43607E-05-6.87887E-06
 -1     16039 5.30626E-05 7.30344E-05-6.96545E-06
 -1     16040 5.87636E-05 6.88034E-05-7.05203E-06
 -1     16041 5.40262E-05 7.43607E-05-7.05203E-06
 -1     16046 5.30626E-05 7.30344E-05-7.13861E-06
 -1     16047 5.87636E-05 6.88034E-05-7.22519E-06
 -1     16048 5.40262E-05 7.43607E-05-7.22519E-06
 -1     16053 5.30626E-05 7.30344E-05-7.31177E-06
 -1     16057 4.09842E-05 8.04361E-05-5.58017E-06
 -1     16058 4.72769E-05 7.71490E-05-5.66675E-06
 -1     16059 4.17285E-05 8.18967E-05-5.66675E-06
 -1     16064 4.09842E-05 8.04361E-05-5.75333E-06
 -1     16065 4.72769E-05 7.71490E-05-5.83991E-06
 -1     16066 4.17285E-05 8.18967E-05-5.83991E-06
 -1     16071 4.09842E-05 8.04361E-05-5.92649E-06
 -1     16072 4.72769E-05 7.71490E-05-6.01307E-06
 -1     16073 4.17285E-05 8.18967E-05-6.01307E-06
 -1     16078 4.09842E-05 8.04361E-05-6.09965E-06
 -1     16079 4.72769E-05 7.71490E-05-6.18623E-06
 -1     16080 4.17285E-05 8.18967E-05-6.18623E-06
 -1     16085 4.09842E-05 8.04361E-05-6.27281E-06
 -1     16086 4.72769E-05 7.71490E-05-6.35939E-06
 -1     16087 4.17285E-05 8.18967E-05-6.35939E-06
 -1     16092 4.09842E-05 8.04361E-05-6.44597E-06
 -1     16093 4.72769E-05 7.71490E-05-6.53255E-06
 -1     16094 4.17285E-05 8.18967E-05-6.53255E-06
 -1     16099 4.09842E-05 8.04361E-05-6.61913E-06
 -1     16100 4.72769E-05 7.71490E-05-6.70571E-06
 -1     16101 4.17285E-05 8.18967E-05-6.70571E-06
 -1     16106 4.09842E-05 8.04361E-05-6.79229E-06
 -1     16107 4.72769E-05 7.71490E-05-6.87887E-06
 -1     16108 4.17285E-05 8.18967E-05-6.87887E-06
 -1     16113 4.09842E-05 8.04361E-05-6.96545E-06
 -1     16114 4.72769E-05 7.71490E-05-7.05203E-06
 -1     16115 4.17285E-05 8.18967E-05-7.05203E-06
 -1     16120 4.09842E-05 8.04361E-05-7.13861E-06
 -1     16121 4.72769E-05 7.71490E-05-7.22519E-06
 -1     16122 4.17285E-05 8.18967E-05-7.22519E-06
 -1     16127 4.09842E-05 8.04361E-05-7.31177E-06
 -1     16131 2.78967E-05 8.58571E-05-5.58017E-06
 -1     16132 3.46261E-05 8.35949E-05-5.66675E-06
 -1     16133 2.84032E-05 8.74162E-05-5.66675E-06
 -1     16138 2.78967E-05 8.58571E-05-5.75333E-06
 -1     16139 3.46261E-05 8.35949E-05-5.83991E-06
 -1     16140 2.84032E-05 8.74162E-05-5.83991E-06
 -1     16145 2.78967E-05 8.58571E-05-5.92649E-06
 -1     16146 3.46261E-05 8.35949E-05-6.01307E-06
 -1     16147 2.84032E-05 8.74162E-05-6.01307E-06
 -1     16152 2.78967E-05 8.58571E-05-6.09965E-06
 -1     16153 3.46261E-05 8.35949E-05-6.18623E-06
 -1     16154 2.84032E-05 8.74162E-05-6.18623E-06
 -1     16159 2.78967E-05 8.58571E-05-6.27281E-06
 -1     16160 3.46261E-05 8.35949E-05-6.35939E-06
 -1     16161 2.84032E-05 8.74162E-05-6.35939E-06
 -1     16166 2.78967E-05 8.58571E-05-6.44597E-06
 -1     16167 3.46261E-05 8.35949E-05-6.53255E-06
 -1     16168 2.84032E-05 8.74162E-05-6.53255E-06
 -1     16173 2.78967E-05 8.58571E-05-6.61913E-06
 -1     16174 3.46261E-05 8.35949E-05-6.70571E-06
 -1     16175 2.84032E-05 8.74162E-05-6.70571E-06
 -1     16180 2.78967E-05 8.58571E-05-6.79229E-06
 -1     16181 3.46261E-05 8.35949E-05-6.87887E-06
 -1     16182 2.84032E-05 8.74162E-05-6.87887E-06
 -1     16187 2.78967E-05 8.58571E-05-6.96545E-06
 -1     16188 3.46261E-05 8.35949E-05-7.05203E-06
 -1     16189 2.84032E-05 8.74162E-05-7.05203E-06
 -1     16194 2.78967E-05 8.58571E-05-7.13861E-06
 -1     16195 3.46261E-05 8.35949E-05-7.22519E-06
 -1     16196 2.84032E-05 8.74162E-05-7.22519E-06
 -1     16201 2.78967E-05 8.58571E-05-7.31177E-06
 -1     16205 1.41222E-05 8.91641E-05-5.58017E-06
 -1     16206 2.11227E-05 8.79824E-05-5.66675E-06
 -1     16207 1.43786E-05 9.07832E-05-5.66675E-06
 -1     16212 1.41222E-05 8.91641E-05-5.75333E-06
 -1     16213 2.11227E-05 8.79824E-05-5.83991E-06
 -1     16214 1.43786E-05 9.07832E-05-5.83991E-06
 -1     16219 1.41222E-05 8.91641E-05-5.92649E-06
 -1     16220 2.11227E-05 8.79824E-05-6.01307E-06
 -1     16221 1.43786E-05 9.07832E-05-6.01307E-06
 -1     16226 1.41222E-05 8.91641E-05-6.09965E-06
 -1     16227 2.11227E-05 8.79824E-05-6.18623E-06
 -1     16228 1.43786E-05 9.07832E-05-6.18623E-06
 -1     16233 1.41222E-05 8.91641E-05-6.27281E-06
 -1     16234 2.11227E-05 8.79824E-05-6.35939E-06
 -1     16235 1.43786E-05 9.07832E-05-6.35939E-06
 -1     16240 1.41222E-05 8.91641E-05-6.44597E-06
 -1     16241 2.11227E-05 8.79824E-05-6.53255E-06
 -1     16242 1.43786E-05 9.07832E-05-6.53255E-06
 -1     16247 1.41222E-05 8.91641E-05-6.61913E-06
 -1     16248 2.11227E-05 8.79824E-05-6.70571E-06
 -1     16249 1.43786E-05 9.07832E-05-6.70571E-06
 -1     16254 1.41222E-05 8.91641E-05-6.79229E-06
 -1     16255 2.11227E-05 8.79824E-05-6.87887E-06
 -1     16256 1.43786E-05 9.07832E-05-6.87887E-06
 -1     16261 1.41222E-05 8.91641E-05-6.96545E-06
 -1     16262 2.11227E-05 8.79824E-05-7.05203E-06
 -1     16263 1.43786E-05 9.07832E-05-7.05203E-06
 -1     16268 1.41222E-05 8.91641E-05-7.13861E-06
 -1     16269 2.11227E-05 8.79824E-05-7.22519E-06
 -1     16270 1.43786E-05 9.07832E-05-7.22519E-06
 -1     16275 1.41222E-05 8.91641E-05-7.31177E-06
 -1     16279 7.09917E-06 9.02035E-05-5.66675E-06
 -1     16283 7.09917E-06 9.02035E-05-5.83991E-06
 -1     16287 7.09917E-06 9.02035E-05-6.01307E-06
 -1     16291 7.09917E-06 9.02035E-05-6.18623E-06
 -1     16295 7.09917E-06 9.02035E-05-6.35939E-06
 -1     16299 7.09917E-06 9.02035E-05-6.53255E-06
 -1     16303 7.09917E-06 9.02035E-05-6.70571E-06
 -1     16307 7.09917E-06 9.02035E-05-6.87887E-06
 -1     16311 7.09917E-06 9.02035E-05-7.05203E-06
 -1     16315 7.09917E-06 9.02035E-05-7.22519E-06
 -1     16321 8.61836E-05 1.36501E-05-5.58017E-06
 -1     16322 8.71825E-05 6.86141E-06-5.66675E-06
 -1     16323 8.76326E-05 1.38796E-05-5.66675E-06
 -1     16328 8.61836E-05 1.36501E-05-5.75333E-06
 -1     16329 8.71825E-05 6.86141E-06-5.83991E-06
 -1     16330 8.76326E-05 1.38796E-05-5.83991E-06
 -1     16335 8.61836E-05 1.36501E-05-5.92649E-06
 -1     16336 8.71825E-05 6.86141E-06-6.01307E-06
 -1     16337 8.76326E-05 1.38796E-05-6.01307E-06
 -1     16342 8.61836E-05 1.36501E-05-6.09965E-06
 -1     16343 8.71825E-05 6.86141E-06-6.18623E-06
 -1     16344 8.76326E-05 1.38796E-05-6.18623E-06
 -1     16349 8.61836E-05 1.36501E-05-6.27281E-06
 -1     16350 8.71825E-05 6.86141E-06-6.35939E-06
 -1     16351 8.76326E-05 1.38796E-05-6.35939E-06
 -1     16356 8.61836E-05 1.36501E-05-6.44597E-06
 -1     16357 8.71825E-05 6.86141E-06-6.53255E-06
 -1     16358 8.76326E-05 1.38796E-05-6.53255E-06
 -1     16363 8.61836E-05 1.36501E-05-6.61913E-06
 -1     16364 8.71825E-05 6.86141E-06-6.70571E-06
 -1     16365 8.76326E-05 1.38796E-05-6.70571E-06
 -1     16370 8.61836E-05 1.36501E-05-6.79229E-06
 -1     16371 8.71825E-05 6.86141E-06-6.87887E-06
 -1     16372 8.76326E-05 1.38796E-05-6.87887E-06
 -1     16377 8.61836E-05 1.36501E-05-6.96545E-06
 -1     16378 8.71825E-05 6.86141E-06-7.05203E-06
 -1     16379 8.76326E-05 1.38796E-05-7.05203E-06
 -1     16384 8.61836E-05 1.36501E-05-7.13861E-06
 -1     16385 8.71825E-05 6.86141E-06-7.22519E-06
 -1     16386 8.76326E-05 1.38796E-05-7.22519E-06
 -1     16391 8.61836E-05 1.36501E-05-7.31177E-06
 -1     16395 8.29872E-05 2.69642E-05-5.58017E-06
 -1     16396 8.50358E-05 2.04153E-05-5.66675E-06
 -1     16397 8.43825E-05 2.74175E-05-5.66675E-06
 -1     16402 8.29872E-05 2.69642E-05-5.75333E-06
 -1     16403 8.50358E-05 2.04153E-05-5.83991E-06
 -1     16404 8.43825E-05 2.74175E-05-5.83991E-06
 -1     16409 8.29872E-05 2.69642E-05-5.92649E-06
 -1     16410 8.50358E-05 2.04153E-05-6.01307E-06
 -1     16411 8.43825E-05 2.74175E-05-6.01307E-06
 -1     16416 8.29872E-05 2.69642E-05-6.09965E-06
 -1     16417 8.50358E-05 2.04153E-05-6.18623E-06
 -1     16418 8.43825E-05 2.74175E-05-6.18623E-06
 -1     16423 8.29872E-05 2.69642E-05-6.27281E-06
 -1     16424 8.50358E-05 2.04153E-05-6.35939E-06
 -1     16425 8.43825E-05 2.74175E-05-6.35939E-06
 -1     16430 8.29872E-05 2.69642E-05-6.44597E-06
 -1     16431 8.50358E-05 2.04153E-05-6.53255E-06
 -1     16432 8.43825E-05 2.74175E-05-6.53255E-06
 -1     16437 8.29872E-05 2.69642E-05-6.61913E-06
 -1     16438 8.50358E-05 2.04153E-05-6.70571E-06
 -1     16439 8.43825E-05 2.74175E-05-6.70571E-06
 -1     16444 8.29872E-05 2.69642E-05-6.79229E-06
 -1     16445 8.50358E-05 2.04153E-05-6.87887E-06
 -1     16446 8.43825E-05 2.74175E-05-6.87887E-06
 -1     16451 8.29872E-05 2.69642E-05-6.96545E-06
 -1     16452 8.50358E-05 2.04153E-05-7.05203E-06
 -1     16453 8.43825E-05 2.74175E-05-7.05203E-06
 -1     16458 8.29872E-05 2.69642E-05-7.13861E-06
 -1     16459 8.50358E-05 2.04153E-05-7.22519E-06
 -1     16460 8.43825E-05 2.74175E-05-7.22519E-06
 -1     16465 8.29872E-05 2.69642E-05-7.31177E-06
 -1     16469 7.77474E-05 3.96143E-05-5.58017E-06
 -1     16470 8.07952E-05 3.34665E-05-5.66675E-06
 -1     16471 7.90546E-05 4.02803E-05-5.66675E-06
 -1     16476 7.77474E-05 3.96143E-05-5.75333E-06
 -1     16477 8.07952E-05 3.34665E-05-5.83991E-06
 -1     16478 7.90546E-05 4.02803E-05-5.83991E-06
 -1     16483 7.77474E-05 3.96143E-05-5.92649E-06
 -1     16484 8.07952E-05 3.34665E-05-6.01307E-06
 -1     16485 7.90546E-05 4.02803E-05-6.01307E-06
 -1     16490 7.77474E-05 3.96143E-05-6.09965E-06
 -1     16491 8.07952E-05 3.34665E-05-6.18623E-06
 -1     16492 7.90546E-05 4.02803E-05-6.18623E-06
 -1     16497 7.77474E-05 3.96143E-05-6.27281E-06
 -1     16498 8.07952E-05 3.34665E-05-6.35939E-06
 -1     16499 7.90546E-05 4.02803E-05-6.35939E-06
 -1     16504 7.77474E-05 3.96143E-05-6.44597E-06
 -1     16505 8.07952E-05 3.34665E-05-6.53255E-06
 -1     16506 7.90546E-05 4.02803E-05-6.53255E-06
 -1     16511 7.77474E-05 3.96143E-05-6.61913E-06
 -1     16512 8.07952E-05 3.34665E-05-6.70571E-06
 -1     16513 7.90546E-05 4.02803E-05-6.70571E-06
 -1     16518 7.77474E-05 3.96143E-05-6.79229E-06
 -1     16519 8.07952E-05 3.34665E-05-6.87887E-06
 -1     16520 7.90546E-05 4.02803E-05-6.87887E-06
 -1     16525 7.77474E-05 3.96143E-05-6.96545E-06
 -1     16526 8.07952E-05 3.34665E-05-7.05203E-06
 -1     16527 7.90546E-05 4.02803E-05-7.05203E-06
 -1     16532 7.77474E-05 3.96143E-05-7.13861E-06
 -1     16533 8.07952E-05 3.34665E-05-7.22519E-06
 -1     16534 7.90546E-05 4.02803E-05-7.22519E-06
 -1     16539 7.77474E-05 3.96143E-05-7.31177E-06
 -1     16543 7.05931E-05 5.12889E-05-5.58017E-06
 -1     16544 7.45652E-05 4.56936E-05-5.66675E-06
 -1     16545 7.17800E-05 5.21512E-05-5.66675E-06
 -1     16550 7.05931E-05 5.12889E-05-5.75333E-06
 -1     16551 7.45652E-05 4.56936E-05-5.83991E-06
 -1     16552 7.17800E-05 5.21512E-05-5.83991E-06
 -1     16557 7.05931E-05 5.12889E-05-5.92649E-06
 -1     16558 7.45652E-05 4.56936E-05-6.01307E-06
 -1     16559 7.17800E-05 5.21512E-05-6.01307E-06
 -1     16564 7.05931E-05 5.12889E-05-6.09965E-06
 -1     16565 7.45652E-05 4.56936E-05-6.18623E-06
 -1     16566 7.17800E-05 5.21512E-05-6.18623E-06
 -1     16571 7.05931E-05 5.12889E-05-6.27281E-06
 -1     16572 7.45652E-05 4.56936E-05-6.35939E-06
 -1     16573 7.17800E-05 5.21512E-05-6.35939E-06
 -1     16578 7.05931E-05 5.12889E-05-6.44597E-06
 -1     16579 7.45652E-05 4.56936E-05-6.53255E-06
 -1     16580 7.17800E-05 5.21512E-05-6.53255E-06
 -1     16585 7.05931E-05 5.12889E-05-6.61913E-06
 -1     16586 7.45652E-05 4.56936E-05-6.70571E-06
 -1     16587 7.17800E-05 5.21512E-05-6.70571E-06
 -1     16592 7.05931E-05 5.12889E-05-6.79229E-06
 -1     16593 7.45652E-05 4.56936E-05-6.87887E-06
 -1     16594 7.17800E-05 5.21512E-05-6.87887E-06
 -1     16599 7.05931E-05 5.12889E-05-6.96545E-06
 -1     16600 7.45652E-05 4.56936E-05-7.05203E-06
 -1     16601 7.17800E-05 5.21512E-05-7.05203E-06
 -1     16606 7.05931E-05 5.12889E-05-7.13861E-06
 -1     16607 7.45652E-05 4.56936E-05-7.22519E-06
 -1     16608 7.17800E-05 5.21512E-05-7.22519E-06
 -1     16613 7.05931E-05 5.12889E-05-7.31177E-06
 -1     16617 6.17007E-05 6.17007E-05-5.58017E-06
 -1     16618 6.64991E-05 5.67956E-05-5.66675E-06
 -1     16619 6.27380E-05 6.27380E-05-5.66675E-06
 -1     16624 6.17007E-05 6.17007E-05-5.75333E-06
 -1     16625 6.64991E-05 5.67956E-05-5.83991E-06
 -1     16626 6.27380E-05 6.27380E-05-5.83991E-06
 -1     16631 6.17007E-05 6.17007E-05-5.92649E-06
 -1     16632 6.64991E-05 5.67956E-05-6.01307E-06
 -1     16633 6.27380E-05 6.27380E-05-6.01307E-06
 -1     16638 6.17007E-05 6.17007E-05-6.09965E-06
 -1     16639 6.64991E-05 5.67956E-05-6.18623E-06
 -1     16640 6.27380E-05 6.27380E-05-6.18623E-06
 -1     16645 6.17007E-05 6.17007E-05-6.27281E-06
 -1     16646 6.64991E-05 5.67956E-05-6.35939E-06
 -1     16647 6.27380E-05 6.27380E-05-6.35939E-06
 -1     16652 6.17007E-05 6.17007E-05-6.44597E-06
 -1     16653 6.64991E-05 5.67956E-05-6.53255E-06
 -1     16654 6.27380E-05 6.27380E-05-6.53255E-06
 -1     16659 6.17007E-05 6.17007E-05-6.61913E-06
 -1     16660 6.64991E-05 5.67956E-05-6.70571E-06
 -1     16661 6.27380E-05 6.27380E-05-6.70571E-06
 -1     16666 6.17007E-05 6.17007E-05-6.79229E-06
 -1     16667 6.64991E-05 5.67956E-05-6.87887E-06
 -1     16668 6.27380E-05 6.27380E-05-6.87887E-06
 -1     16673 6.17007E-05 6.17007E-05-6.96545E-06
 -1     16674 6.64991E-05 5.67956E-05-7.05203E-06
 -1     16675 6.27380E-05 6.27380E-05-7.05203E-06
 -1     16680 6.17007E-05 6.17007E-05-7.13861E-06
 -1     16681 6.64991E-05 5.67956E-05-7.22519E-06
 -1     16682 6.27380E-05 6.27380E-05-7.22519E-06
 -1     16687 6.17007E-05 6.17007E-05-7.31177E-06
 -1     16691 5.12889E-05 7.05931E-05-5.58017E-06
 -1     16692 5.67956E-05 6.64991E-05-5.66675E-06
 -1     16693 5.21512E-05 7.17800E-05-5.66675E-06
 -1     16698 5.12889E-05 7.05931E-05-5.75333E-06
 -1     16699 5.67956E-05 6.64991E-05-5.83991E-06
 -1     16700 5.21512E-05 7.17800E-05-5.83991E-06
 -1     16705 5.12889E-05 7.05931E-05-5.92649E-06
 -1     16706 5.67956E-05 6.64991E-05-6.01307E-06
 -1     16707 5.21512E-05 7.17800E-05-6.01307E-06
 -1     16712 5.12889E-05 7.05931E-05-6.09965E-06
 -1     16713 5.67956E-05 6.64991E-05-6.18623E-06
 -1     16714 5.21512E-05 7.17800E-05-6.18623E-06
 -1     16719 5.12889E-05 7.05931E-05-6.27281E-06
 -1     16720 5.67956E-05 6.64991E-05-6.35939E-06
 -1     16721 5.21512E-05 7.17800E-05-6.35939E-06
 -1     16726 5.12889E-05 7.05931E-05-6.44597E-06
 -1     16727 5.67956E-05 6.64991E-05-6.53255E-06
 -1     16728 5.21512E-05 7.17800E-05-6.53255E-06
 -1     16733 5.12889E-05 7.05931E-05-6.61913E-06
 -1     16734 5.67956E-05 6.64991E-05-6.70571E-06
 -1     16735 5.21512E-05 7.17800E-05-6.70571E-06
 -1     16740 5.12889E-05 7.05931E-05-6.79229E-06
 -1     16741 5.67956E-05 6.64991E-05-6.87887E-06
 -1     16742 5.21512E-05 7.17800E-05-6.87887E-06
 -1     16747 5.12889E-05 7.05931E-05-6.96545E-06
 -1     16748 5.67956E-05 6.64991E-05-7.05203E-06
 -1     16749 5.21512E-05 7.17800E-05-7.05203E-06
 -1     16754 5.12889E-05 7.05931E-05-7.13861E-06
 -1     16755 5.67956E-05 6.64991E-05-7.22519E-06
 -1     16756 5.21512E-05 7.17800E-05-7.22519E-06
 -1     16761 5.12889E-05 7.05931E-05-7.31177E-06
 -1     16765 3.96143E-05 7.77474E-05-5.58017E-06
 -1     16766 4.56936E-05 7.45652E-05-5.66675E-06
 -1     16767 4.02803E-05 7.90546E-05-5.66675E-06
 -1     16772 3.96143E-05 7.77474E-05-5.75333E-06
 -1     16773 4.56936E-05 7.45652E-05-5.83991E-06
 -1     16774 4.02803E-05 7.90546E-05-5.83991E-06
 -1     16779 3.96143E-05 7.77474E-05-5.92649E-06
 -1     16780 4.56936E-05 7.45652E-05-6.01307E-06
 -1     16781 4.02803E-05 7.90546E-05-6.01307E-06
 -1     16786 3.96143E-05 7.77474E-05-6.09965E-06
 -1     16787 4.56936E-05 7.45652E-05-6.18623E-06
 -1     16788 4.02803E-05 7.90546E-05-6.18623E-06
 -1     16793 3.96143E-05 7.77474E-05-6.27281E-06
 -1     16794 4.56936E-05 7.45652E-05-6.35939E-06
 -1     16795 4.02803E-05 7.90546E-05-6.35939E-06
 -1     16800 3.96143E-05 7.77474E-05-6.44597E-06
 -1     16801 4.56936E-05 7.45652E-05-6.53255E-06
 -1     16802 4.02803E-05 7.90546E-05-6.53255E-06
 -1     16807 3.96143E-05 7.77474E-05-6.61913E-06
 -1     16808 4.56936E-05 7.45652E-05-6.70571E-06
 -1     16809 4.02803E-05 7.90546E-05-6.70571E-06
 -1     16814 3.96143E-05 7.77474E-05-6.79229E-06
 -1     16815 4.56936E-05 7.45652E-05-6.87887E-06
 -1     16816 4.02803E-05 7.90546E-05-6.87887E-06
 -1     16821 3.96143E-05 7.77474E-05-6.96545E-06
 -1     16822 4.56936E-05 7.45652E-05-7.05203E-06
 -1     16823 4.02803E-05 7.90546E-05-7.05203E-06
 -1     16828 3.96143E-05 7.77474E-05-7.13861E-06
 -1     16829 4.56936E-05 7.45652E-05-7.22519E-06
 -1     16830 4.02803E-05 7.90546E-05-7.22519E-06
 -1     16835 3.96143E-05 7.77474E-05-7.31177E-06
 -1     16839 2.69642E-05 8.29872E-05-5.58017E-06
 -1     16840 3.34665E-05 8.07952E-05-5.66675E-06
 -1     16841 2.74175E-05 8.43825E-05-5.66675E-06
 -1     16846 2.69642E-05 8.29872E-05-5.75333E-06
 -1     16847 3.34665E-05 8.07952E-05-5.83991E-06
 -1     16848 2.74175E-05 8.43825E-05-5.83991E-06
 -1     16853 2.69642E-05 8.29872E-05-5.92649E-06
 -1     16854 3.34665E-05 8.07952E-05-6.01307E-06
 -1     16855 2.74175E-05 8.43825E-05-6.01307E-06
 -1     16860 2.69642E-05 8.29872E-05-6.09965E-06
 -1     16861 3.34665E-05 8.07952E-05-6.18623E-06
 -1     16862 2.74175E-05 8.43825E-05-6.18623E-06
 -1     16867 2.69642E-05 8.29872E-05-6.27281E-06
 -1     16868 3.34665E-05 8.07952E-05-6.35939E-06
 -1     16869 2.74175E-05 8.43825E-05-6.35939E-06
 -1     16874 2.69642E-05 8.29872E-05-6.44597E-06
 -1     16875 3.34665E-05 8.07952E-05-6.53255E-06
 -1     16876 2.74175E-05 8.43825E-05-6.53255E-06
 -1     16881 2.69642E-05 8.29872E-05-6.61913E-06
 -1     16882 3.34665E-05 8.07952E-05-6.70571E-06
 -1     16883 2.74175E-05 8.43825E-05-6.70571E-06
 -1     16888 2.69642E-05 8.29872E-05-6.79229E-06
 -1     16889 3.34665E-05 8.07952E-05-6.87887E-06
 -1     16890 2.74175E-05 8.43825E-05-6.87887E-06
 -1     16895 2.69642E-05 8.29872E-05-6.96545E-06
 -1     16896 3.34665E-05 8.07952E-05-7.05203E-06
 -1     16897 2.74175E-05 8.43825E-05-7.05203E-06
 -1     16902 2.69642E-05 8.29872E-05-7.13861E-06
 -1     16903 3.34665E-05 8.07952E-05-7.22519E-06
 -1     16904 2.74175E-05 8.43825E-05-7.22519E-06
 -1     16909 2.69642E-05 8.29872E-05-7.31177E-06
 -1     16913 1.36501E-05 8.61836E-05-5.58017E-06
 -1     16914 2.04153E-05 8.50358E-05-5.66675E-06
 -1     16915 1.38796E-05 8.76326E-05-5.66675E-06
 -1     16920 1.36501E-05 8.61836E-05-5.75333E-06
 -1     16921 2.04153E-05 8.50358E-05-5.83991E-06
 -1     16922 1.38796E-05 8.76326E-05-5.83991E-06
 -1     16927 1.36501E-05 8.61836E-05-5.92649E-06
 -1     16928 2.04153E-05 8.50358E-05-6.01307E-06
 -1     16929 1.38796E-05 8.76326E-05-6.01307E-06
 -1     16934 1.36501E-05 8.61836E-05-6.09965E-06
 -1     16935 2.04153E-05 8.50358E-05-6.18623E-06
 -1     16936 1.38796E-05 8.76326E-05-6.18623E-06
 -1     16941 1.36501E-05 8.61836E-05-6.27281E-06
 -1     16942 2.04153E-05 8.50358E-05-6.35939E-06
 -1     16943 1.38796E-05 8.76326E-05-6.35939E-06
 -1     16948 1.36501E-05 8.61836E-05-6.44597E-06
 -1     16949 2.04153E-05 8.50358E-05-6.53255E-06
 -1     16950 1.38796E-05 8.76326E-05-6.53255E-06
 -1     16955 1.36501E-05 8.61836E-05-6.61913E-06
 -1     16956 2.04153E-05 8.50358E-05-6.70571E-06
 -1     16957 1.38796E-05 8.76326E-05-6.70571E-06
 -1     16962 1.36501E-05 8.61836E-05-6.79229E-06
 -1     16963 2.04153E-05 8.50358E-05-6.87887E-06
 -1     16964 1.38796E-05 8.76326E-05-6.87887E-06
 -1     16969 1.36501E-05 8.61836E-05-6.96545E-06
 -1     16970 2.04153E-05 8.50358E-05-7.05203E-06
 -1     16971 1.38796E-05 8.76326E-05-7.05203E-06
 -1     16976 1.36501E-05 8.61836E-05-7.13861E-06
 -1     16977 2.04153E-05 8.50358E-05-7.22519E-06
 -1     16978 1.38796E-05 8.76326E-05-7.22519E-06
 -1     16983 1.36501E-05 8.61836E-05-7.31177E-06
 -1     16987 6.86141E-06 8.71825E-05-5.66675E-06
 -1     16991 6.86141E-06 8.71825E-05-5.83991E-06
 -1     16995 6.86141E-06 8.71825E-05-6.01307E-06
 -1     16999 6.86141E-06 8.71825E-05-6.18623E-06
 -1     17003 6.86141E-06 8.71825E-05-6.35939E-06
 -1     17007 6.86141E-06 8.71825E-05-6.53255E-06
 -1     17011 6.86141E-06 8.71825E-05-6.70571E-06
 -1     17015 6.86141E-06 8.71825E-05-6.87887E-06
 -1     17019 6.86141E-06 8.71825E-05-7.05203E-06
 -1     17023 6.86141E-06 8.71825E-05-7.22519E-06
 -1     17029 8.35101E-05 1.32267E-05-5.58017E-06
 -1     17030 8.44723E-05 6.64811E-06-5.66675E-06
 -1     17031 8.48109E-05 1.34327E-05-5.66675E-06
 -1     17036 8.35101E-05 1.32267E-05-5.75333E-06
 -1     17037 8.44723E-05 6.64811E-06-5.83991E-06
 -1     17038 8.48109E-05 1.34327E-05-5.83991E-06
 -1     17043 8.35101E-05 1.32267E-05-5.92649E-06
 -1     17044 8.44723E-05 6.64811E-06-6.01307E-06
 -1     17045 8.48109E-05 1.34327E-05-6.01307E-06
 -1     17050 8.35101E-05 1.32267E-05-6.09965E-06
 -1     17051 8.44723E-05 6.64811E-06-6.18623E-06
 -1     17052 8.48109E-05 1.34327E-05-6.18623E-06
 -1     17057 8.35101E-05 1.32267E-05-6.27281E-06
 -1     17058 8.44723E-05 6.64811E-06-6.35939E-06
 -1     17059 8.48109E-05 1.34327E-05-6.35939E-06
 -1     17064 8.35101E-05 1.32267E-05-6.44597E-06
 -1     17065 8.44723E-05 6.64811E-06-6.53255E-06
 -1     17066 8.48109E-05 1.34327E-05-6.53255E-06
 -1     17071 8.35101E-05 1.32267E-05-6.61913E-06
 -1     17072 8.44723E-05 6.64811E-06-6.70571E-06
 -1     17073 8.48109E-05 1.34327E-05-6.70571E-06
 -1     17078 8.35101E-05 1.32267E-05-6.79229E-06
 -1     17079 8.44723E-05 6.64811E-06-6.87887E-06
 -1     17080 8.48109E-05 1.34327E-05-6.87887E-06
 -1     17085 8.35101E-05 1.32267E-05-6.96545E-06
 -1     17086 8.44723E-05 6.64811E-06-7.05203E-06
 -1     17087 8.48109E-05 1.34327E-05-7.05203E-06
 -1     17092 8.35101E-05 1.32267E-05-7.13861E-06
 -1     17093 8.44723E-05 6.64811E-06-7.22519E-06
 -1     17094 8.48109E-05 1.34327E-05-7.22519E-06
 -1     17099 8.35101E-05 1.32267E-05-7.31177E-06
 -1     17103 8.04128E-05 2.61277E-05-5.58017E-06
 -1     17104 8.23923E-05 1.97806E-05-5.66675E-06
 -1     17105 8.16654E-05 2.65347E-05-5.66675E-06
 -1     17110 8.04128E-05 2.61277E-05-5.75333E-06
 -1     17111 8.23923E-05 1.97806E-05-5.83991E-06
 -1     17112 8.16654E-05 2.65347E-05-5.83991E-06
 -1     17117 8.04128E-05 2.61277E-05-5.92649E-06
 -1     17118 8.23923E-05 1.97806E-05-6.01307E-06
 -1     17119 8.16654E-05 2.65347E-05-6.01307E-06
 -1     17124 8.04128E-05 2.61277E-05-6.09965E-06
 -1     17125 8.23923E-05 1.97806E-05-6.18623E-06
 -1     17126 8.16654E-05 2.65347E-05-6.18623E-06
 -1     17131 8.04128E-05 2.61277E-05-6.27281E-06
 -1     17132 8.23923E-05 1.97806E-05-6.35939E-06
 -1     17133 8.16654E-05 2.65347E-05-6.35939E-06
 -1     17138 8.04128E-05 2.61277E-05-6.44597E-06
 -1     17139 8.23923E-05 1.97806E-05-6.53255E-06
 -1     17140 8.16654E-05 2.65347E-05-6.53255E-06
 -1     17145 8.04128E-05 2.61277E-05-6.61913E-06
 -1     17146 8.23923E-05 1.97806E-05-6.70571E-06
 -1     17147 8.16654E-05 2.65347E-05-6.70571E-06
 -1     17152 8.04128E-05 2.61277E-05-6.79229E-06
 -1     17153 8.23923E-05 1.97806E-05-6.87887E-06
 -1     17154 8.16654E-05 2.65347E-05-6.87887E-06
 -1     17159 8.04128E-05 2.61277E-05-6.96545E-06
 -1     17160 8.23923E-05 1.97806E-05-7.05203E-06
 -1     17161 8.16654E-05 2.65347E-05-7.05203E-06
 -1     17166 8.04128E-05 2.61277E-05-7.13861E-06
 -1     17167 8.23923E-05 1.97806E-05-7.22519E-06
 -1     17168 8.16654E-05 2.65347E-05-7.22519E-06
 -1     17173 8.04128E-05 2.61277E-05-7.31177E-06
 -1     17177 7.53355E-05 3.83854E-05-5.58017E-06
 -1     17178 7.82835E-05 3.24261E-05-5.66675E-06
 -1     17179 7.65090E-05 3.89833E-05-5.66675E-06
 -1     17184 7.53355E-05 3.83854E-05-5.75333E-06
 -1     17185 7.82835E-05 3.24261E-05-5.83991E-06
 -1     17186 7.65090E-05 3.89833E-05-5.83991E-06
 -1     17191 7.53355E-05 3.83854E-05-5.92649E-06
 -1     17192 7.82835E-05 3.24261E-05-6.01307E-06
 -1     17193 7.65090E-05 3.89833E-05-6.01307E-06
 -1     17198 7.53355E-05 3.83854E-05-6.09965E-06
 -1     17199 7.82835E-05 3.24261E-05-6.18623E-06
 -1     17200 7.65090E-05 3.89833E-05-6.18623E-06
 -1     17205 7.53355E-05 3.83854E-05-6.27281E-06
 -1     17206 7.82835E-05 3.24261E-05-6.35939E-06
 -1     17207 7.65090E-05 3.89833E-05-6.35939E-06
 -1     17212 7.53355E-05 3.83854E-05-6.44597E-06
 -1     17213 7.82835E-05 3.24261E-05-6.53255E-06
 -1     17214 7.65090E-05 3.89833E-05-6.53255E-06
 -1     17219 7.53355E-05 3.83854E-05-6.61913E-06
 -1     17220 7.82835E-05 3.24261E-05-6.70571E-06
 -1     17221 7.65090E-05 3.89833E-05-6.70571E-06
 -1     17226 7.53355E-05 3.83854E-05-6.79229E-06
 -1     17227 7.82835E-05 3.24261E-05-6.87887E-06
 -1     17228 7.65090E-05 3.89833E-05-6.87887E-06
 -1     17233 7.53355E-05 3.83854E-05-6.96545E-06
 -1     17234 7.82835E-05 3.24261E-05-7.05203E-06
 -1     17235 7.65090E-05 3.89833E-05-7.05203E-06
 -1     17240 7.53355E-05 3.83854E-05-7.13861E-06
 -1     17241 7.82835E-05 3.24261E-05-7.22519E-06
 -1     17242 7.65090E-05 3.89833E-05-7.22519E-06
 -1     17247 7.53355E-05 3.83854E-05-7.31177E-06
 -1     17251 6.84032E-05 4.96979E-05-5.58017E-06
 -1     17252 7.22471E-05 4.42731E-05-5.66675E-06
 -1     17253 6.94687E-05 5.04720E-05-5.66675E-06
 -1     17258 6.84032E-05 4.96979E-05-5.75333E-06
 -1     17259 7.22471E-05 4.42731E-05-5.83991E-06
 -1     17260 6.94687E-05 5.04720E-05-5.83991E-06
 -1     17265 6.84032E-05 4.96979E-05-5.92649E-06
 -1     17266 7.22471E-05 4.42731E-05-6.01307E-06
 -1     17267 6.94687E-05 5.04720E-05-6.01307E-06
 -1     17272 6.84032E-05 4.96979E-05-6.09965E-06
 -1     17273 7.22471E-05 4.42731E-05-6.18623E-06
 -1     17274 6.94687E-05 5.04720E-05-6.18623E-06
 -1     17279 6.84032E-05 4.96979E-05-6.27281E-06
 -1     17280 7.22471E-05 4.42731E-05-6.35939E-06
 -1     17281 6.94687E-05 5.04720E-05-6.35939E-06
 -1     17286 6.84032E-05 4.96979E-05-6.44597E-06
 -1     17287 7.22471E-05 4.42731E-05-6.53255E-06
 -1     17288 6.94687E-05 5.04720E-05-6.53255E-06
 -1     17293 6.84032E-05 4.96979E-05-6.61913E-06
 -1     17294 7.22471E-05 4.42731E-05-6.70571E-06
 -1     17295 6.94687E-05 5.04720E-05-6.70571E-06
 -1     17300 6.84032E-05 4.96979E-05-6.79229E-06
 -1     17301 7.22471E-05 4.42731E-05-6.87887E-06
 -1     17302 6.94687E-05 5.04720E-05-6.87887E-06
 -1     17307 6.84032E-05 4.96979E-05-6.96545E-06
 -1     17308 7.22471E-05 4.42731E-05-7.05203E-06
 -1     17309 6.94687E-05 5.04720E-05-7.05203E-06
 -1     17314 6.84032E-05 4.96979E-05-7.13861E-06
 -1     17315 7.22471E-05 4.42731E-05-7.22519E-06
 -1     17316 6.94687E-05 5.04720E-05-7.22519E-06
 -1     17321 6.84032E-05 4.96979E-05-7.31177E-06
 -1     17325 5.97866E-05 5.97866E-05-5.58017E-06
 -1     17326 6.44318E-05 5.50300E-05-5.66675E-06
 -1     17327 6.07179E-05 6.07179E-05-5.66675E-06
 -1     17332 5.97866E-05 5.97866E-05-5.75333E-06
 -1     17333 6.44318E-05 5.50300E-05-5.83991E-06
 -1     17334 6.07179E-05 6.07179E-05-5.83991E-06
 -1     17339 5.97866E-05 5.97866E-05-5.92649E-06
 -1     17340 6.44318E-05 5.50300E-05-6.01307E-06
 -1     17341 6.07179E-05 6.07179E-05-6.01307E-06
 -1     17346 5.97866E-05 5.97866E-05-6.09965E-06
 -1     17347 6.44318E-05 5.50300E-05-6.18623E-06
 -1     17348 6.07179E-05 6.07179E-05-6.18623E-06
 -1     17353 5.97866E-05 5.97866E-05-6.27281E-06
 -1     17354 6.44318E-05 5.50300E-05-6.35939E-06
 -1     17355 6.07179E-05 6.07179E-05-6.35939E-06
 -1     17360 5.97866E-05 5.97866E-05-6.44597E-06
 -1     17361 6.44318E-05 5.50300E-05-6.53255E-06
 -1     17362 6.07179E-05 6.07179E-05-6.53255E-06
 -1     17367 5.97866E-05 5.97866E-05-6.61913E-06
 -1     17368 6.44318E-05 5.50300E-05-6.70571E-06
 -1     17369 6.07179E-05 6.07179E-05-6.70571E-06
 -1     17374 5.97866E-05 5.97866E-05-6.79229E-06
 -1     17375 6.44318E-05 5.50300E-05-6.87887E-06
 -1     17376 6.07179E-05 6.07179E-05-6.87887E-06
 -1     17381 5.97866E-05 5.97866E-05-6.96545E-06
 -1     17382 6.44318E-05 5.50300E-05-7.05203E-06
 -1     17383 6.07179E-05 6.07179E-05-7.05203E-06
 -1     17388 5.97866E-05 5.97866E-05-7.13861E-06
 -1     17389 6.44318E-05 5.50300E-05-7.22519E-06
 -1     17390 6.07179E-05 6.07179E-05-7.22519E-06
 -1     17395 5.97866E-05 5.97866E-05-7.31177E-06
 -1     17399 4.96979E-05 6.84032E-05-5.58017E-06
 -1     17400 5.50300E-05 6.44318E-05-5.66675E-06
 -1     17401 5.04720E-05 6.94687E-05-5.66675E-06
 -1     17406 4.96979E-05 6.84032E-05-5.75333E-06
 -1     17407 5.50300E-05 6.44318E-05-5.83991E-06
 -1     17408 5.04720E-05 6.94687E-05-5.83991E-06
 -1     17413 4.96979E-05 6.84032E-05-5.92649E-06
 -1     17414 5.50300E-05 6.44318E-05-6.01307E-06
 -1     17415 5.04720E-05 6.94687E-05-6.01307E-06
 -1     17420 4.96979E-05 6.84032E-05-6.09965E-06
 -1     17421 5.50300E-05 6.44318E-05-6.18623E-06
 -1     17422 5.04720E-05 6.94687E-05-6.18623E-06
 -1     17427 4.96979E-05 6.84032E-05-6.27281E-06
 -1     17428 5.50300E-05 6.44318E-05-6.35939E-06
 -1     17429 5.04720E-05 6.94687E-05-6.35939E-06
 -1     17434 4.96979E-05 6.84032E-05-6.44597E-06
 -1     17435 5.50300E-05 6.44318E-05-6.53255E-06
 -1     17436 5.04720E-05 6.94687E-05-6.53255E-06
 -1     17441 4.96979E-05 6.84032E-05-6.61913E-06
 -1     17442 5.50300E-05 6.44318E-05-6.70571E-06
 -1     17443 5.04720E-05 6.94687E-05-6.70571E-06
 -1     17448 4.96979E-05 6.84032E-05-6.79229E-06
 -1     17449 5.50300E-05 6.44318E-05-6.87887E-06
 -1     17450 5.04720E-05 6.94687E-05-6.87887E-06
 -1     17455 4.96979E-05 6.84032E-05-6.96545E-06
 -1     17456 5.50300E-05 6.44318E-05-7.05203E-06
 -1     17457 5.04720E-05 6.94687E-05-7.05203E-06
 -1     17462 4.96979E-05 6.84032E-05-7.13861E-06
 -1     17463 5.50300E-05 6.44318E-05-7.22519E-06
 -1     17464 5.04720E-05 6.94687E-05-7.22519E-06
 -1     17469 4.96979E-05 6.84032E-05-7.31177E-06
 -1     17473 3.83854E-05 7.53355E-05-5.58017E-06
 -1     17474 4.42731E-05 7.22471E-05-5.66675E-06
 -1     17475 3.89833E-05 7.65090E-05-5.66675E-06
 -1     17480 3.83854E-05 7.53355E-05-5.75333E-06
 -1     17481 4.42731E-05 7.22471E-05-5.83991E-06
 -1     17482 3.89833E-05 7.65090E-05-5.83991E-06
 -1     17487 3.83854E-05 7.53355E-05-5.92649E-06
 -1     17488 4.42731E-05 7.22471E-05-6.01307E-06
 -1     17489 3.89833E-05 7.65090E-05-6.01307E-06
 -1     17494 3.83854E-05 7.53355E-05-6.09965E-06
 -1     17495 4.42731E-05 7.22471E-05-6.18623E-06
 -1     17496 3.89833E-05 7.65090E-05-6.18623E-06
 -1     17501 3.83854E-05 7.53355E-05-6.27281E-06
 -1     17502 4.42731E-05 7.22471E-05-6.35939E-06
 -1     17503 3.89833E-05 7.65090E-05-6.35939E-06
 -1     17508 3.83854E-05 7.53355E-05-6.44597E-06
 -1     17509 4.42731E-05 7.22471E-05-6.53255E-06
 -1     17510 3.89833E-05 7.65090E-05-6.53255E-06
 -1     17515 3.83854E-05 7.53355E-05-6.61913E-06
 -1     17516 4.42731E-05 7.22471E-05-6.70571E-06
 -1     17517 3.89833E-05 7.65090E-05-6.70571E-06
 -1     17522 3.83854E-05 7.53355E-05-6.79229E-06
 -1     17523 4.42731E-05 7.22471E-05-6.87887E-06
 -1     17524 3.89833E-05 7.65090E-05-6.87887E-06
 -1     17529 3.83854E-05 7.53355E-05-6.96545E-06
 -1     17530 4.42731E-05 7.22471E-05-7.05203E-06
 -1     17531 3.89833E-05 7.65090E-05-7.05203E-06
 -1     17536 3.83854E-05 7.53355E-05-7.13861E-06
 -1     17537 4.42731E-05 7.22471E-05-7.22519E-06
 -1     17538 3.89833E-05 7.65090E-05-7.22519E-06
 -1     17543 3.83854E-05 7.53355E-05-7.31177E-06
 -1     17547 2.61277E-05 8.04128E-05-5.58017E-06
 -1     17548 3.24261E-05 7.82835E-05-5.66675E-06
 -1     17549 2.65347E-05 8.16654E-05-5.66675E-06
 -1     17554 2.61277E-05 8.04128E-05-5.75333E-06
 -1     17555 3.24261E-05 7.82835E-05-5.83991E-06
 -1     17556 2.65347E-05 8.16654E-05-5.83991E-06
 -1     17561 2.61277E-05 8.04128E-05-5.92649E-06
 -1     17562 3.24261E-05 7.82835E-05-6.01307E-06
 -1     17563 2.65347E-05 8.16654E-05-6.01307E-06
 -1     17568 2.61277E-05 8.04128E-05-6.09965E-06
 -1     17569 3.24261E-05 7.82835E-05-6.18623E-06
 -1     17570 2.65347E-05 8.16654E-05-6.18623E-06
 -1     17575 2.61277E-05 8.04128E-05-6.27281E-06
 -1     17576 3.24261E-05 7.82835E-05-6.35939E-06
 -1     17577 2.65347E-05 8.16654E-05-6.35939E-06
 -1     17582 2.61277E-05 8.04128E-05-6.44597E-06
 -1     17583 3.24261E-05 7.82835E-05-6.53255E-06
 -1     17584 2.65347E-05 8.16654E-05-6.53255E-06
 -1     17589 2.61277E-05 8.04128E-05-6.61913E-06
 -1     17590 3.24261E-05 7.82835E-05-6.70571E-06
 -1     17591 2.65347E-05 8.16654E-05-6.70571E-06
 -1     17596 2.61277E-05 8.04128E-05-6.79229E-06
 -1     17597 3.24261E-05 7.82835E-05-6.87887E-06
 -1     17598 2.65347E-05 8.16654E-05-6.87887E-06
 -1     17603 2.61277E-05 8.04128E-05-6.96545E-06
 -1     17604 3.24261E-05 7.82835E-05-7.05203E-06
 -1     17605 2.65347E-05 8.16654E-05-7.05203E-06
 -1     17610 2.61277E-05 8.04128E-05-7.13861E-06
 -1     17611 3.24261E-05 7.82835E-05-7.22519E-06
 -1     17612 2.65347E-05 8.16654E-05-7.22519E-06
 -1     17617 2.61277E-05 8.04128E-05-7.31177E-06
 -1     17621 1.32267E-05 8.35101E-05-5.58017E-06
 -1     17622 1.97806E-05 8.23923E-05-5.66675E-06
 -1     17623 1.34327E-05 8.48109E-05-5.66675E-06
 -1     17628 1.32267E-05 8.35101E-05-5.75333E-06
 -1     17629 1.97806E-05 8.23923E-05-5.83991E-06
 -1     17630 1.34327E-05 8.48109E-05-5.83991E-06
 -1     17635 1.32267E-05 8.35101E-05-5.92649E-06
 -1     17636 1.97806E-05 8.23923E-05-6.01307E-06
 -1     17637 1.34327E-05 8.48109E-05-6.01307E-06
 -1     17642 1.32267E-05 8.35101E-05-6.09965E-06
 -1     17643 1.97806E-05 8.23923E-05-6.18623E-06
 -1     17644 1.34327E-05 8.48109E-05-6.18623E-06
 -1     17649 1.32267E-05 8.35101E-05-6.27281E-06
 -1     17650 1.97806E-05 8.23923E-05-6.35939E-06
 -1     17651 1.34327E-05 8.48109E-05-6.35939E-06
 -1     17656 1.32267E-05 8.35101E-05-6.44597E-06
 -1     17657 1.97806E-05 8.23923E-05-6.53255E-06
 -1     17658 1.34327E-05 8.48109E-05-6.53255E-06
 -1     17663 1.32267E-05 8.35101E-05-6.61913E-06
 -1     17664 1.97806E-05 8.23923E-05-6.70571E-06
 -1     17665 1.34327E-05 8.48109E-05-6.70571E-06
 -1     17670 1.32267E-05 8.35101E-05-6.79229E-06
 -1     17671 1.97806E-05 8.23923E-05-6.87887E-06
 -1     17672 1.34327E-05 8.48109E-05-6.87887E-06
 -1     17677 1.32267E-05 8.35101E-05-6.96545E-06
 -1     17678 1.97806E-05 8.23923E-05-7.05203E-06
 -1     17679 1.34327E-05 8.48109E-05-7.05203E-06
 -1     17684 1.32267E-05 8.35101E-05-7.13861E-06
 -1     17685 1.97806E-05 8.23923E-05-7.22519E-06
 -1     17686 1.34327E-05 8.48109E-05-7.22519E-06
 -1     17691 1.32267E-05 8.35101E-05-7.31177E-06
 -1     17695 6.64811E-06 8.44723E-05-5.66675E-06
 -1     17699 6.64811E-06 8.44723E-05-5.83991E-06
 -1     17703 6.64811E-06 8.44723E-05-6.01307E-06
 -1     17707 6.64811E-06 8.44723E-05-6.18623E-06
 -1     17711 6.64811E-06 8.44723E-05-6.35939E-06
 -1     17715 6.64811E-06 8.44723E-05-6.53255E-06
 -1     17719 6.64811E-06 8.44723E-05-6.70571E-06
 -1     17723 6.64811E-06 8.44723E-05-6.87887E-06
 -1     17727 6.64811E-06 8.44723E-05-7.05203E-06
 -1     17731 6.64811E-06 8.44723E-05-7.22519E-06
 -1     17737 8.11051E-05 1.28458E-05-5.58017E-06
 -1     17738 8.20338E-05 6.45620E-06-5.66675E-06
 -1     17739 8.22760E-05 1.30312E-05-5.66675E-06
 -1     17744 8.11051E-05 1.28458E-05-5.75333E-06
 -1     17745 8.20338E-05 6.45620E-06-5.83991E-06
 -1     17746 8.22760E-05 1.30312E-05-5.83991E-06
 -1     17751 8.11051E-05 1.28458E-05-5.92649E-06
 -1     17752 8.20338E-05 6.45620E-06-6.01307E-06
 -1     17753 8.22760E-05 1.30312E-05-6.01307E-06
 -1     17758 8.11051E-05 1.28458E-05-6.09965E-06
 -1     17759 8.20338E-05 6.45620E-06-6.18623E-06
 -1     17760 8.22760E-05 1.30312E-05-6.18623E-06
 -1     17765 8.11051E-05 1.28458E-05-6.27281E-06
 -1     17766 8.20338E-05 6.45620E-06-6.35939E-06
 -1     17767 8.22760E-05 1.30312E-05-6.35939E-06
 -1     17772 8.11051E-05 1.28458E-05-6.44597E-06
 -1     17773 8.20338E-05 6.45620E-06-6.53255E-06
 -1     17774 8.22760E-05 1.30312E-05-6.53255E-06
 -1     17779 8.11051E-05 1.28458E-05-6.61913E-06
 -1     17780 8.20338E-05 6.45620E-06-6.70571E-06
 -1     17781 8.22760E-05 1.30312E-05-6.70571E-06
 -1     17786 8.11051E-05 1.28458E-05-6.79229E-06
 -1     17787 8.20338E-05 6.45620E-06-6.87887E-06
 -1     17788 8.22760E-05 1.30312E-05-6.87887E-06
 -1     17793 8.11051E-05 1.28458E-05-6.96545E-06
 -1     17794 8.20338E-05 6.45620E-06-7.05203E-06
 -1     17795 8.22760E-05 1.30312E-05-7.05203E-06
 -1     17800 8.11051E-05 1.28458E-05-7.13861E-06
 -1     17801 8.20338E-05 6.45620E-06-7.22519E-06
 -1     17802 8.22760E-05 1.30312E-05-7.22519E-06
 -1     17807 8.11051E-05 1.28458E-05-7.31177E-06
 -1     17811 7.80970E-05 2.53753E-05-5.58017E-06
 -1     17812 8.00139E-05 1.92096E-05-5.66675E-06
 -1     17813 7.92245E-05 2.57416E-05-5.66675E-06
 -1     17818 7.80970E-05 2.53753E-05-5.75333E-06
 -1     17819 8.00139E-05 1.92096E-05-5.83991E-06
 -1     17820 7.92245E-05 2.57416E-05-5.83991E-06
 -1     17825 7.80970E-05 2.53753E-05-5.92649E-06
 -1     17826 8.00139E-05 1.92096E-05-6.01307E-06
 -1     17827 7.92245E-05 2.57416E-05-6.01307E-06
 -1     17832 7.80970E-05 2.53753E-05-6.09965E-06
 -1     17833 8.00139E-05 1.92096E-05-6.18623E-06
 -1     17834 7.92245E-05 2.57416E-05-6.18623E-06
 -1     17839 7.80970E-05 2.53753E-05-6.27281E-06
 -1     17840 8.00139E-05 1.92096E-05-6.35939E-06
 -1     17841 7.92245E-05 2.57416E-05-6.35939E-06
 -1     17846 7.80970E-05 2.53753E-05-6.44597E-06
 -1     17847 8.00139E-05 1.92096E-05-6.53255E-06
 -1     17848 7.92245E-05 2.57416E-05-6.53255E-06
 -1     17853 7.80970E-05 2.53753E-05-6.61913E-06
 -1     17854 8.00139E-05 1.92096E-05-6.70571E-06
 -1     17855 7.92245E-05 2.57416E-05-6.70571E-06
 -1     17860 7.80970E-05 2.53753E-05-6.79229E-06
 -1     17861 8.00139E-05 1.92096E-05-6.87887E-06
 -1     17862 7.92245E-05 2.57416E-05-6.87887E-06
 -1     17867 7.80970E-05 2.53753E-05-6.96545E-06
 -1     17868 8.00139E-05 1.92096E-05-7.05203E-06
 -1     17869 7.92245E-05 2.57416E-05-7.05203E-06
 -1     17874 7.80970E-05 2.53753E-05-7.13861E-06
 -1     17875 8.00139E-05 1.92096E-05-7.22519E-06
 -1     17876 7.92245E-05 2.57416E-05-7.22519E-06
 -1     17881 7.80970E-05 2.53753E-05-7.31177E-06
 -1     17885 7.31659E-05 3.72799E-05-5.58017E-06
 -1     17886 7.60237E-05 3.14901E-05-5.66675E-06
 -1     17887 7.42223E-05 3.78181E-05-5.66675E-06
 -1     17892 7.31659E-05 3.72799E-05-5.75333E-06
 -1     17893 7.60237E-05 3.14901E-05-5.83991E-06
 -1     17894 7.42223E-05 3.78181E-05-5.83991E-06
 -1     17899 7.31659E-05 3.72799E-05-5.92649E-06
 -1     17900 7.60237E-05 3.14901E-05-6.01307E-06
 -1     17901 7.42223E-05 3.78181E-05-6.01307E-06
 -1     17906 7.31659E-05 3.72799E-05-6.09965E-06
 -1     17907 7.60237E-05 3.14901E-05-6.18623E-06
 -1     17908 7.42223E-05 3.78181E-05-6.18623E-06
 -1     17913 7.31659E-05 3.72799E-05-6.27281E-06
 -1     17914 7.60237E-05 3.14901E-05-6.35939E-06
 -1     17915 7.42223E-05 3.78181E-05-6.35939E-06
 -1     17920 7.31659E-05 3.72799E-05-6.44597E-06
 -1     17921 7.60237E-05 3.14901E-05-6.53255E-06
 -1     17922 7.42223E-05 3.78181E-05-6.53255E-06
 -1     17927 7.31659E-05 3.72799E-05-6.61913E-06
 -1     17928 7.60237E-05 3.14901E-05-6.70571E-06
 -1     17929 7.42223E-05 3.78181E-05-6.70571E-06
 -1     17934 7.31659E-05 3.72799E-05-6.79229E-06
 -1     17935 7.60237E-05 3.14901E-05-6.87887E-06
 -1     17936 7.42223E-05 3.78181E-05-6.87887E-06
 -1     17941 7.31659E-05 3.72799E-05-6.96545E-06
 -1     17942 7.60237E-05 3.14901E-05-7.05203E-06
 -1     17943 7.42223E-05 3.78181E-05-7.05203E-06
 -1     17948 7.31659E-05 3.72799E-05-7.13861E-06
 -1     17949 7.60237E-05 3.14901E-05-7.22519E-06
 -1     17950 7.42223E-05 3.78181E-05-7.22519E-06
 -1     17955 7.31659E-05 3.72799E-05-7.31177E-06
 -1     17959 6.64333E-05 4.82666E-05-5.58017E-06
 -1     17960 7.01616E-05 4.29951E-05-5.66675E-06
 -1     17961 6.73924E-05 4.89635E-05-5.66675E-06
 -1     17966 6.64333E-05 4.82666E-05-5.75333E-06
 -1     17967 7.01616E-05 4.29951E-05-5.83991E-06
 -1     17968 6.73924E-05 4.89635E-05-5.83991E-06
 -1     17973 6.64333E-05 4.82666E-05-5.92649E-06
 -1     17974 7.01616E-05 4.29951E-05-6.01307E-06
 -1     17975 6.73924E-05 4.89635E-05-6.01307E-06
 -1     17980 6.64333E-05 4.82666E-05-6.09965E-06
 -1     17981 7.01616E-05 4.29951E-05-6.18623E-06
 -1     17982 6.73924E-05 4.89635E-05-6.18623E-06
 -1     17987 6.64333E-05 4.82666E-05-6.27281E-06
 -1     17988 7.01616E-05 4.29951E-05-6.35939E-06
 -1     17989 6.73924E-05 4.89635E-05-6.35939E-06
 -1     17994 6.64333E-05 4.82666E-05-6.44597E-06
 -1     17995 7.01616E-05 4.29951E-05-6.53255E-06
 -1     17996 6.73924E-05 4.89635E-05-6.53255E-06
 -1     18001 6.64333E-05 4.82666E-05-6.61913E-06
 -1     18002 7.01616E-05 4.29951E-05-6.70571E-06
 -1     18003 6.73924E-05 4.89635E-05-6.70571E-06
 -1     18008 6.64333E-05 4.82666E-05-6.79229E-06
 -1     18009 7.01616E-05 4.29951E-05-6.87887E-06
 -1     18010 6.73924E-05 4.89635E-05-6.87887E-06
 -1     18015 6.64333E-05 4.82666E-05-6.96545E-06
 -1     18016 7.01616E-05 4.29951E-05-7.05203E-06
 -1     18017 6.73924E-05 4.89635E-05-7.05203E-06
 -1     18022 6.64333E-05 4.82666E-05-7.13861E-06
 -1     18023 7.01616E-05 4.29951E-05-7.22519E-06
 -1     18024 6.73924E-05 4.89635E-05-7.22519E-06
 -1     18029 6.64333E-05 4.82666E-05-7.31177E-06
 -1     18033 5.80648E-05 5.80648E-05-5.58017E-06
 -1     18034 6.25719E-05 5.34415E-05-5.66675E-06
 -1     18035 5.89031E-05 5.89031E-05-5.66675E-06
 -1     18040 5.80648E-05 5.80648E-05-5.75333E-06
 -1     18041 6.25719E-05 5.34415E-05-5.83991E-06
 -1     18042 5.89031E-05 5.89031E-05-5.83991E-06
 -1     18047 5.80648E-05 5.80648E-05-5.92649E-06
 -1     18048 6.25719E-05 5.34415E-05-6.01307E-06
 -1     18049 5.89031E-05 5.89031E-05-6.01307E-06
 -1     18054 5.80648E-05 5.80648E-05-6.09965E-06
 -1     18055 6.25719E-05 5.34415E-05-6.18623E-06
 -1     18056 5.89031E-05 5.89031E-05-6.18623E-06
 -1     18061 5.80648E-05 5.80648E-05-6.27281E-06
 -1     18062 6.25719E-05 5.34415E-05-6.35939E-06
 -1     18063 5.89031E-05 5.89031E-05-6.35939E-06
 -1     18068 5.80648E-05 5.80648E-05-6.44597E-06
 -1     18069 6.25719E-05 5.34415E-05-6.53255E-06
 -1     18070 5.89031E-05 5.89031E-05-6.53255E-06
 -1     18075 5.80648E-05 5.80648E-05-6.61913E-06
 -1     18076 6.25719E-05 5.34415E-05-6.70571E-06
 -1     18077 5.89031E-05 5.89031E-05-6.70571E-06
 -1     18082 5.80648E-05 5.80648E-05-6.79229E-06
 -1     18083 6.25719E-05 5.34415E-05-6.87887E-06
 -1     18084 5.89031E-05 5.89031E-05-6.87887E-06
 -1     18089 5.80648E-05 5.80648E-05-6.96545E-06
 -1     18090 6.25719E-05 5.34415E-05-7.05203E-06
 -1     18091 5.89031E-05 5.89031E-05-7.05203E-06
 -1     18096 5.80648E-05 5.80648E-05-7.13861E-06
 -1     18097 6.25719E-05 5.34415E-05-7.22519E-06
 -1     18098 5.89031E-05 5.89031E-05-7.22519E-06
 -1     18103 5.80648E-05 5.80648E-05-7.31177E-06
 -1     18107 4.82666E-05 6.64333E-05-5.58017E-06
 -1     18108 5.34415E-05 6.25719E-05-5.66675E-06
 -1     18109 4.89635E-05 6.73924E-05-5.66675E-06
 -1     18114 4.82666E-05 6.64333E-05-5.75333E-06
 -1     18115 5.34415E-05 6.25719E-05-5.83991E-06
 -1     18116 4.89635E-05 6.73924E-05-5.83991E-06
 -1     18121 4.82666E-05 6.64333E-05-5.92649E-06
 -1     18122 5.34415E-05 6.25719E-05-6.01307E-06
 -1     18123 4.89635E-05 6.73924E-05-6.01307E-06
 -1     18128 4.82666E-05 6.64333E-05-6.09965E-06
 -1     18129 5.34415E-05 6.25719E-05-6.18623E-06
 -1     18130 4.89635E-05 6.73924E-05-6.18623E-06
 -1     18135 4.82666E-05 6.64333E-05-6.27281E-06
 -1     18136 5.34415E-05 6.25719E-05-6.35939E-06
 -1     18137 4.89635E-05 6.73924E-05-6.35939E-06
 -1     18142 4.82666E-05 6.64333E-05-6.44597E-06
 -1     18143 5.34415E-05 6.25719E-05-6.53255E-06
 -1     18144 4.89635E-05 6.73924E-05-6.53255E-06
 -1     18149 4.82666E-05 6.64333E-05-6.61913E-06
 -1     18150 5.34415E-05 6.25719E-05-6.70571E-06
 -1     18151 4.89635E-05 6.73924E-05-6.70571E-06
 -1     18156 4.82666E-05 6.64333E-05-6.79229E-06
 -1     18157 5.34415E-05 6.25719E-05-6.87887E-06
 -1     18158 4.89635E-05 6.73924E-05-6.87887E-06
 -1     18163 4.82666E-05 6.64333E-05-6.96545E-06
 -1     18164 5.34415E-05 6.25719E-05-7.05203E-06
 -1     18165 4.89635E-05 6.73924E-05-7.05203E-06
 -1     18170 4.82666E-05 6.64333E-05-7.13861E-06
 -1     18171 5.34415E-05 6.25719E-05-7.22519E-06
 -1     18172 4.89635E-05 6.73924E-05-7.22519E-06
 -1     18177 4.82666E-05 6.64333E-05-7.31177E-06
 -1     18181 3.72799E-05 7.31659E-05-5.58017E-06
 -1     18182 4.29951E-05 7.01616E-05-5.66675E-06
 -1     18183 3.78181E-05 7.42223E-05-5.66675E-06
 -1     18188 3.72799E-05 7.31659E-05-5.75333E-06
 -1     18189 4.29951E-05 7.01616E-05-5.83991E-06
 -1     18190 3.78181E-05 7.42223E-05-5.83991E-06
 -1     18195 3.72799E-05 7.31659E-05-5.92649E-06
 -1     18196 4.29951E-05 7.01616E-05-6.01307E-06
 -1     18197 3.78181E-05 7.42223E-05-6.01307E-06
 -1     18202 3.72799E-05 7.31659E-05-6.09965E-06
 -1     18203 4.29951E-05 7.01616E-05-6.18623E-06
 -1     18204 3.78181E-05 7.42223E-05-6.18623E-06
 -1     18209 3.72799E-05 7.31659E-05-6.27281E-06
 -1     18210 4.29951E-05 7.01616E-05-6.35939E-06
 -1     18211 3.78181E-05 7.42223E-05-6.35939E-06
 -1     18216 3.72799E-05 7.31659E-05-6.44597E-06
 -1     18217 4.29951E-05 7.01616E-05-6.53255E-06
 -1     18218 3.78181E-05 7.42223E-05-6.53255E-06
 -1     18223 3.72799E-05 7.31659E-05-6.61913E-06
 -1     18224 4.29951E-05 7.01616E-05-6.70571E-06
 -1     18225 3.78181E-05 7.42223E-05-6.70571E-06
 -1     18230 3.72799E-05 7.31659E-05-6.79229E-06
 -1     18231 4.29951E-05 7.01616E-05-6.87887E-06
 -1     18232 3.78181E-05 7.42223E-05-6.87887E-06
 -1     18237 3.72799E-05 7.31659E-05-6.96545E-06
 -1     18238 4.29951E-05 7.01616E-05-7.05203E-06
 -1     18239 3.78181E-05 7.42223E-05-7.05203E-06
 -1     18244 3.72799E-05 7.31659E-05-7.13861E-06
 -1     18245 4.29951E-05 7.01616E-05-7.22519E-06
 -1     18246 3.78181E-05 7.42223E-05-7.22519E-06
 -1     18251 3.72799E-05 7.31659E-05-7.31177E-06
 -1     18255 2.53753E-05 7.80970E-05-5.58017E-06
 -1     18256 3.14901E-05 7.60237E-05-5.66675E-06
 -1     18257 2.57416E-05 7.92245E-05-5.66675E-06
 -1     18262 2.53753E-05 7.80970E-05-5.75333E-06
 -1     18263 3.14901E-05 7.60237E-05-5.83991E-06
 -1     18264 2.57416E-05 7.92245E-05-5.83991E-06
 -1     18269 2.53753E-05 7.80970E-05-5.92649E-06
 -1     18270 3.14901E-05 7.60237E-05-6.01307E-06
 -1     18271 2.57416E-05 7.92245E-05-6.01307E-06
 -1     18276 2.53753E-05 7.80970E-05-6.09965E-06
 -1     18277 3.14901E-05 7.60237E-05-6.18623E-06
 -1     18278 2.57416E-05 7.92245E-05-6.18623E-06
 -1     18283 2.53753E-05 7.80970E-05-6.27281E-06
 -1     18284 3.14901E-05 7.60237E-05-6.35939E-06
 -1     18285 2.57416E-05 7.92245E-05-6.35939E-06
 -1     18290 2.53753E-05 7.80970E-05-6.44597E-06
 -1     18291 3.14901E-05 7.60237E-05-6.53255E-06
 -1     18292 2.57416E-05 7.92245E-05-6.53255E-06
 -1     18297 2.53753E-05 7.80970E-05-6.61913E-06
 -1     18298 3.14901E-05 7.60237E-05-6.70571E-06
 -1     18299 2.57416E-05 7.92245E-05-6.70571E-06
 -1     18304 2.53753E-05 7.80970E-05-6.79229E-06
 -1     18305 3.14901E-05 7.60237E-05-6.87887E-06
 -1     18306 2.57416E-05 7.92245E-05-6.87887E-06
 -1     18311 2.53753E-05 7.80970E-05-6.96545E-06
 -1     18312 3.14901E-05 7.60237E-05-7.05203E-06
 -1     18313 2.57416E-05 7.92245E-05-7.05203E-06
 -1     18318 2.53753E-05 7.80970E-05-7.13861E-06
 -1     18319 3.14901E-05 7.60237E-05-7.22519E-06
 -1     18320 2.57416E-05 7.92245E-05-7.22519E-06
 -1     18325 2.53753E-05 7.80970E-05-7.31177E-06
 -1     18329 1.28458E-05 8.11051E-05-5.58017E-06
 -1     18330 1.92096E-05 8.00139E-05-5.66675E-06
 -1     18331 1.30312E-05 8.22760E-05-5.66675E-06
 -1     18336 1.28458E-05 8.11051E-05-5.75333E-06
 -1     18337 1.92096E-05 8.00139E-05-5.83991E-06
 -1     18338 1.30312E-05 8.22760E-05-5.83991E-06
 -1     18343 1.28458E-05 8.11051E-05-5.92649E-06
 -1     18344 1.92096E-05 8.00139E-05-6.01307E-06
 -1     18345 1.30312E-05 8.22760E-05-6.01307E-06
 -1     18350 1.28458E-05 8.11051E-05-6.09965E-06
 -1     18351 1.92096E-05 8.00139E-05-6.18623E-06
 -1     18352 1.30312E-05 8.22760E-05-6.18623E-06
 -1     18357 1.28458E-05 8.11051E-05-6.27281E-06
 -1     18358 1.92096E-05 8.00139E-05-6.35939E-06
 -1     18359 1.30312E-05 8.22760E-05-6.35939E-06
 -1     18364 1.28458E-05 8.11051E-05-6.44597E-06
 -1     18365 1.92096E-05 8.00139E-05-6.53255E-06
 -1     18366 1.30312E-05 8.22760E-05-6.53255E-06
 -1     18371 1.28458E-05 8.11051E-05-6.61913E-06
 -1     18372 1.92096E-05 8.00139E-05-6.70571E-06
 -1     18373 1.30312E-05 8.22760E-05-6.70571E-06
 -1     18378 1.28458E-05 8.11051E-05-6.79229E-06
 -1     18379 1.92096E-05 8.00139E-05-6.87887E-06
 -1     18380 1.30312E-05 8.22760E-05-6.87887E-06
 -1     18385 1.28458E-05 8.11051E-05-6.96545E-06
 -1     18386 1.92096E-05 8.00139E-05-7.05203E-06
 -1     18387 1.30312E-05 8.22760E-05-7.05203E-06
 -1     18392 1.28458E-05 8.11051E-05-7.13861E-06
 -1     18393 1.92096E-05 8.00139E-05-7.22519E-06
 -1     18394 1.30312E-05 8.22760E-05-7.22519E-06
 -1     18399 1.28458E-05 8.11051E-05-7.31177E-06
 -1     18403 6.45620E-06 8.20338E-05-5.66675E-06
 -1     18407 6.45620E-06 8.20338E-05-5.83991E-06
 -1     18411 6.45620E-06 8.20338E-05-6.01307E-06
 -1     18415 6.45620E-06 8.20338E-05-6.18623E-06
 -1     18419 6.45620E-06 8.20338E-05-6.35939E-06
 -1     18423 6.45620E-06 8.20338E-05-6.53255E-06
 -1     18427 6.45620E-06 8.20338E-05-6.70571E-06
 -1     18431 6.45620E-06 8.20338E-05-6.87887E-06
 -1     18435 6.45620E-06 8.20338E-05-7.05203E-06
 -1     18439 6.45620E-06 8.20338E-05-7.22519E-06
 -1     18445 7.89363E-05 1.25023E-05-5.58017E-06
 -1     18446 7.98347E-05 6.28313E-06-5.66675E-06
 -1     18447 7.99929E-05 1.26696E-05-5.66675E-06
 -1     18452 7.89363E-05 1.25023E-05-5.75333E-06
 -1     18453 7.98347E-05 6.28313E-06-5.83991E-06
 -1     18454 7.99929E-05 1.26696E-05-5.83991E-06
 -1     18459 7.89363E-05 1.25023E-05-5.92649E-06
 -1     18460 7.98347E-05 6.28313E-06-6.01307E-06
 -1     18461 7.99929E-05 1.26696E-05-6.01307E-06
 -1     18466 7.89363E-05 1.25023E-05-6.09965E-06
 -1     18467 7.98347E-05 6.28313E-06-6.18623E-06
 -1     18468 7.99929E-05 1.26696E-05-6.18623E-06
 -1     18473 7.89363E-05 1.25023E-05-6.27281E-06
 -1     18474 7.98347E-05 6.28313E-06-6.35939E-06
 -1     18475 7.99929E-05 1.26696E-05-6.35939E-06
 -1     18480 7.89363E-05 1.25023E-05-6.44597E-06
 -1     18481 7.98347E-05 6.28313E-06-6.53255E-06
 -1     18482 7.99929E-05 1.26696E-05-6.53255E-06
 -1     18487 7.89363E-05 1.25023E-05-6.61913E-06
 -1     18488 7.98347E-05 6.28313E-06-6.70571E-06
 -1     18489 7.99929E-05 1.26696E-05-6.70571E-06
 -1     18494 7.89363E-05 1.25023E-05-6.79229E-06
 -1     18495 7.98347E-05 6.28313E-06-6.87887E-06
 -1     18496 7.99929E-05 1.26696E-05-6.87887E-06
 -1     18501 7.89363E-05 1.25023E-05-6.96545E-06
 -1     18502 7.98347E-05 6.28313E-06-7.05203E-06
 -1     18503 7.99929E-05 1.26696E-05-7.05203E-06
 -1     18508 7.89363E-05 1.25023E-05-7.13861E-06
 -1     18509 7.98347E-05 6.28313E-06-7.22519E-06
 -1     18510 7.99929E-05 1.26696E-05-7.22519E-06
 -1     18515 7.89363E-05 1.25023E-05-7.31177E-06
 -1     18519 7.60087E-05 2.46967E-05-5.58017E-06
 -1     18520 7.78689E-05 1.86947E-05-5.66675E-06
 -1     18521 7.70260E-05 2.50273E-05-5.66675E-06
 -1     18526 7.60087E-05 2.46967E-05-5.75333E-06
 -1     18527 7.78689E-05 1.86947E-05-5.83991E-06
 -1     18528 7.70260E-05 2.50273E-05-5.83991E-06
 -1     18533 7.60087E-05 2.46967E-05-5.92649E-06
 -1     18534 7.78689E-05 1.86947E-05-6.01307E-06
 -1     18535 7.70260E-05 2.50273E-05-6.01307E-06
 -1     18540 7.60087E-05 2.46967E-05-6.09965E-06
 -1     18541 7.78689E-05 1.86947E-05-6.18623E-06
 -1     18542 7.70260E-05 2.50273E-05-6.18623E-06
 -1     18547 7.60087E-05 2.46967E-05-6.27281E-06
 -1     18548 7.78689E-05 1.86947E-05-6.35939E-06
 -1     18549 7.70260E-05 2.50273E-05-6.35939E-06
 -1     18554 7.60087E-05 2.46967E-05-6.44597E-06
 -1     18555 7.78689E-05 1.86947E-05-6.53255E-06
 -1     18556 7.70260E-05 2.50273E-05-6.53255E-06
 -1     18561 7.60087E-05 2.46967E-05-6.61913E-06
 -1     18562 7.78689E-05 1.86947E-05-6.70571E-06
 -1     18563 7.70260E-05 2.50273E-05-6.70571E-06
 -1     18568 7.60087E-05 2.46967E-05-6.79229E-06
 -1     18569 7.78689E-05 1.86947E-05-6.87887E-06
 -1     18570 7.70260E-05 2.50273E-05-6.87887E-06
 -1     18575 7.60087E-05 2.46967E-05-6.96545E-06
 -1     18576 7.78689E-05 1.86947E-05-7.05203E-06
 -1     18577 7.70260E-05 2.50273E-05-7.05203E-06
 -1     18582 7.60087E-05 2.46967E-05-7.13861E-06
 -1     18583 7.78689E-05 1.86947E-05-7.22519E-06
 -1     18584 7.70260E-05 2.50273E-05-7.22519E-06
 -1     18589 7.60087E-05 2.46967E-05-7.31177E-06
 -1     18593 7.12095E-05 3.62831E-05-5.58017E-06
 -1     18594 7.39857E-05 3.06459E-05-5.66675E-06
 -1     18595 7.21626E-05 3.67687E-05-5.66675E-06
 -1     18600 7.12095E-05 3.62831E-05-5.75333E-06
 -1     18601 7.39857E-05 3.06459E-05-5.83991E-06
 -1     18602 7.21626E-05 3.67687E-05-5.83991E-06
 -1     18607 7.12095E-05 3.62831E-05-5.92649E-06
 -1     18608 7.39857E-05 3.06459E-05-6.01307E-06
 -1     18609 7.21626E-05 3.67687E-05-6.01307E-06
 -1     18614 7.12095E-05 3.62831E-05-6.09965E-06
 -1     18615 7.39857E-05 3.06459E-05-6.18623E-06
 -1     18616 7.21626E-05 3.67687E-05-6.18623E-06
 -1     18621 7.12095E-05 3.62831E-05-6.27281E-06
 -1     18622 7.39857E-05 3.06459E-05-6.35939E-06
 -1     18623 7.21626E-05 3.67687E-05-6.35939E-06
 -1     18628 7.12095E-05 3.62831E-05-6.44597E-06
 -1     18629 7.39857E-05 3.06459E-05-6.53255E-06
 -1     18630 7.21626E-05 3.67687E-05-6.53255E-06
 -1     18635 7.12095E-05 3.62831E-05-6.61913E-06
 -1     18636 7.39857E-05 3.06459E-05-6.70571E-06
 -1     18637 7.21626E-05 3.67687E-05-6.70571E-06
 -1     18642 7.12095E-05 3.62831E-05-6.79229E-06
 -1     18643 7.39857E-05 3.06459E-05-6.87887E-06
 -1     18644 7.21626E-05 3.67687E-05-6.87887E-06
 -1     18649 7.12095E-05 3.62831E-05-6.96545E-06
 -1     18650 7.39857E-05 3.06459E-05-7.05203E-06
 -1     18651 7.21626E-05 3.67687E-05-7.05203E-06
 -1     18656 7.12095E-05 3.62831E-05-7.13861E-06
 -1     18657 7.39857E-05 3.06459E-05-7.22519E-06
 -1     18658 7.21626E-05 3.67687E-05-7.22519E-06
 -1     18663 7.12095E-05 3.62831E-05-7.31177E-06
 -1     18667 6.46569E-05 4.69760E-05-5.58017E-06
 -1     18668 6.82807E-05 4.18425E-05-5.66675E-06
 -1     18669 6.55223E-05 4.76047E-05-5.66675E-06
 -1     18674 6.46569E-05 4.69760E-05-5.75333E-06
 -1     18675 6.82807E-05 4.18425E-05-5.83991E-06
 -1     18676 6.55223E-05 4.76047E-05-5.83991E-06
 -1     18681 6.46569E-05 4.69760E-05-5.92649E-06
 -1     18682 6.82807E-05 4.18425E-05-6.01307E-06
 -1     18683 6.55223E-05 4.76047E-05-6.01307E-06
 -1     18688 6.46569E-05 4.69760E-05-6.09965E-06
 -1     18689 6.82807E-05 4.18425E-05-6.18623E-06
 -1     18690 6.55223E-05 4.76047E-05-6.18623E-06
 -1     18695 6.46569E-05 4.69760E-05-6.27281E-06
 -1     18696 6.82807E-05 4.18425E-05-6.35939E-06
 -1     18697 6.55223E-05 4.76047E-05-6.35939E-06
 -1     18702 6.46569E-05 4.69760E-05-6.44597E-06
 -1     18703 6.82807E-05 4.18425E-05-6.53255E-06
 -1     18704 6.55223E-05 4.76047E-05-6.53255E-06
 -1     18709 6.46569E-05 4.69760E-05-6.61913E-06
 -1     18710 6.82807E-05 4.18425E-05-6.70571E-06
 -1     18711 6.55223E-05 4.76047E-05-6.70571E-06
 -1     18716 6.46569E-05 4.69760E-05-6.79229E-06
 -1     18717 6.82807E-05 4.18425E-05-6.87887E-06
 -1     18718 6.55223E-05 4.76047E-05-6.87887E-06
 -1     18723 6.46569E-05 4.69760E-05-6.96545E-06
 -1     18724 6.82807E-05 4.18425E-05-7.05203E-06
 -1     18725 6.55223E-05 4.76047E-05-7.05203E-06
 -1     18730 6.46569E-05 4.69760E-05-7.13861E-06
 -1     18731 6.82807E-05 4.18425E-05-7.22519E-06
 -1     18732 6.55223E-05 4.76047E-05-7.22519E-06
 -1     18737 6.46569E-05 4.69760E-05-7.31177E-06
 -1     18741 5.65122E-05 5.65122E-05-5.58017E-06
 -1     18742 6.08945E-05 5.20088E-05-5.66675E-06
 -1     18743 5.72686E-05 5.72686E-05-5.66675E-06
 -1     18748 5.65122E-05 5.65122E-05-5.75333E-06
 -1     18749 6.08945E-05 5.20088E-05-5.83991E-06
 -1     18750 5.72686E-05 5.72686E-05-5.83991E-06
 -1     18755 5.65122E-05 5.65122E-05-5.92649E-06
 -1     18756 6.08945E-05 5.20088E-05-6.01307E-06
 -1     18757 5.72686E-05 5.72686E-05-6.01307E-06
 -1     18762 5.65122E-05 5.65122E-05-6.09965E-06
 -1     18763 6.08945E-05 5.20088E-05-6.18623E-06
 -1     18764 5.72686E-05 5.72686E-05-6.18623E-06
 -1     18769 5.65122E-05 5.65122E-05-6.27281E-06
 -1     18770 6.08945E-05 5.20088E-05-6.35939E-06
 -1     18771 5.72686E-05 5.72686E-05-6.35939E-06
 -1     18776 5.65122E-05 5.65122E-05-6.44597E-06
 -1     18777 6.08945E-05 5.20088E-05-6.53255E-06
 -1     18778 5.72686E-05 5.72686E-05-6.53255E-06
 -1     18783 5.65122E-05 5.65122E-05-6.61913E-06
 -1     18784 6.08945E-05 5.20088E-05-6.70571E-06
 -1     18785 5.72686E-05 5.72686E-05-6.70571E-06
 -1     18790 5.65122E-05 5.65122E-05-6.79229E-06
 -1     18791 6.08945E-05 5.20088E-05-6.87887E-06
 -1     18792 5.72686E-05 5.72686E-05-6.87887E-06
 -1     18797 5.65122E-05 5.65122E-05-6.96545E-06
 -1     18798 6.08945E-05 5.20088E-05-7.05203E-06
 -1     18799 5.72686E-05 5.72686E-05-7.05203E-06
 -1     18804 5.65122E-05 5.65122E-05-7.13861E-06
 -1     18805 6.08945E-05 5.20088E-05-7.22519E-06
 -1     18806 5.72686E-05 5.72686E-05-7.22519E-06
 -1     18811 5.65122E-05 5.65122E-05-7.31177E-06
 -1     18815 4.69760E-05 6.46569E-05-5.58017E-06
 -1     18816 5.20088E-05 6.08945E-05-5.66675E-06
 -1     18817 4.76047E-05 6.55223E-05-5.66675E-06
 -1     18822 4.69760E-05 6.46569E-05-5.75333E-06
 -1     18823 5.20088E-05 6.08945E-05-5.83991E-06
 -1     18824 4.76047E-05 6.55223E-05-5.83991E-06
 -1     18829 4.69760E-05 6.46569E-05-5.92649E-06
 -1     18830 5.20088E-05 6.08945E-05-6.01307E-06
 -1     18831 4.76047E-05 6.55223E-05-6.01307E-06
 -1     18836 4.69760E-05 6.46569E-05-6.09965E-06
 -1     18837 5.20088E-05 6.08945E-05-6.18623E-06
 -1     18838 4.76047E-05 6.55223E-05-6.18623E-06
 -1     18843 4.69760E-05 6.46569E-05-6.27281E-06
 -1     18844 5.20088E-05 6.08945E-05-6.35939E-06
 -1     18845 4.76047E-05 6.55223E-05-6.35939E-06
 -1     18850 4.69760E-05 6.46569E-05-6.44597E-06
 -1     18851 5.20088E-05 6.08945E-05-6.53255E-06
 -1     18852 4.76047E-05 6.55223E-05-6.53255E-06
 -1     18857 4.69760E-05 6.46569E-05-6.61913E-06
 -1     18858 5.20088E-05 6.08945E-05-6.70571E-06
 -1     18859 4.76047E-05 6.55223E-05-6.70571E-06
 -1     18864 4.69760E-05 6.46569E-05-6.79229E-06
 -1     18865 5.20088E-05 6.08945E-05-6.87887E-06
 -1     18866 4.76047E-05 6.55223E-05-6.87887E-06
 -1     18871 4.69760E-05 6.46569E-05-6.96545E-06
 -1     18872 5.20088E-05 6.08945E-05-7.05203E-06
 -1     18873 4.76047E-05 6.55223E-05-7.05203E-06
 -1     18878 4.69760E-05 6.46569E-05-7.13861E-06
 -1     18879 5.20088E-05 6.08945E-05-7.22519E-06
 -1     18880 4.76047E-05 6.55223E-05-7.22519E-06
 -1     18885 4.69760E-05 6.46569E-05-7.31177E-06
 -1     18889 3.62831E-05 7.12095E-05-5.58017E-06
 -1     18890 4.18425E-05 6.82807E-05-5.66675E-06
 -1     18891 3.67687E-05 7.21626E-05-5.66675E-06
 -1     18896 3.62831E-05 7.12095E-05-5.75333E-06
 -1     18897 4.18425E-05 6.82807E-05-5.83991E-06
 -1     18898 3.67687E-05 7.21626E-05-5.83991E-06
 -1     18903 3.62831E-05 7.12095E-05-5.92649E-06
 -1     18904 4.18425E-05 6.82807E-05-6.01307E-06
 -1     18905 3.67687E-05 7.21626E-05-6.01307E-06
 -1     18910 3.62831E-05 7.12095E-05-6.09965E-06
 -1     18911 4.18425E-05 6.82807E-05-6.18623E-06
 -1     18912 3.67687E-05 7.21626E-05-6.18623E-06
 -1     18917 3.62831E-05 7.12095E-05-6.27281E-06
 -1     18918 4.18425E-05 6.82807E-05-6.35939E-06
 -1     18919 3.67687E-05 7.21626E-05-6.35939E-06
 -1     18924 3.62831E-05 7.12095E-05-6.44597E-06
 -1     18925 4.18425E-05 6.82807E-05-6.53255E-06
 -1     18926 3.67687E-05 7.21626E-05-6.53255E-06
 -1     18931 3.62831E-05 7.12095E-05-6.61913E-06
 -1     18932 4.18425E-05 6.82807E-05-6.70571E-06
 -1     18933 3.67687E-05 7.21626E-05-6.70571E-06
 -1     18938 3.62831E-05 7.12095E-05-6.79229E-06
 -1     18939 4.18425E-05 6.82807E-05-6.87887E-06
 -1     18940 3.67687E-05 7.21626E-05-6.87887E-06
 -1     18945 3.62831E-05 7.12095E-05-6.96545E-06
 -1     18946 4.18425E-05 6.82807E-05-7.05203E-06
 -1     18947 3.67687E-05 7.21626E-05-7.05203E-06
 -1     18952 3.62831E-05 7.12095E-05-7.13861E-06
 -1     18953 4.18425E-05 6.82807E-05-7.22519E-06
 -1     18954 3.67687E-05 7.21626E-05-7.22519E-06
 -1     18959 3.62831E-05 7.12095E-05-7.31177E-06
 -1     18963 2.46967E-05 7.60087E-05-5.58017E-06
 -1     18964 3.06459E-05 7.39857E-05-5.66675E-06
 -1     18965 2.50273E-05 7.70260E-05-5.66675E-06
 -1     18970 2.46967E-05 7.60087E-05-5.75333E-06
 -1     18971 3.06459E-05 7.39857E-05-5.83991E-06
 -1     18972 2.50273E-05 7.70260E-05-5.83991E-06
 -1     18977 2.46967E-05 7.60087E-05-5.92649E-06
 -1     18978 3.06459E-05 7.39857E-05-6.01307E-06
 -1     18979 2.50273E-05 7.70260E-05-6.01307E-06
 -1     18984 2.46967E-05 7.60087E-05-6.09965E-06
 -1     18985 3.06459E-05 7.39857E-05-6.18623E-06
 -1     18986 2.50273E-05 7.70260E-05-6.18623E-06
 -1     18991 2.46967E-05 7.60087E-05-6.27281E-06
 -1     18992 3.06459E-05 7.39857E-05-6.35939E-06
 -1     18993 2.50273E-05 7.70260E-05-6.35939E-06
 -1     18998 2.46967E-05 7.60087E-05-6.44597E-06
 -1     18999 3.06459E-05 7.39857E-05-6.53255E-06
 -1     19000 2.50273E-05 7.70260E-05-6.53255E-06
 -1     19005 2.46967E-05 7.60087E-05-6.61913E-06
 -1     19006 3.06459E-05 7.39857E-05-6.70571E-06
 -1     19007 2.50273E-05 7.70260E-05-6.70571E-06
 -1     19012 2.46967E-05 7.60087E-05-6.79229E-06
 -1     19013 3.06459E-05 7.39857E-05-6.87887E-06
 -1     19014 2.50273E-05 7.70260E-05-6.87887E-06
 -1     19019 2.46967E-05 7.60087E-05-6.96545E-06
 -1     19020 3.06459E-05 7.39857E-05-7.05203E-06
 -1     19021 2.50273E-05 7.70260E-05-7.05203E-06
 -1     19026 2.46967E-05 7.60087E-05-7.13861E-06
 -1     19027 3.06459E-05 7.39857E-05-7.22519E-06
 -1     19028 2.50273E-05 7.70260E-05-7.22519E-06
 -1     19033 2.46967E-05 7.60087E-05-7.31177E-06
 -1     19037 1.25023E-05 7.89363E-05-5.58017E-06
 -1     19038 1.86947E-05 7.78689E-05-5.66675E-06
 -1     19039 1.26696E-05 7.99929E-05-5.66675E-06
 -1     19044 1.25023E-05 7.89363E-05-5.75333E-06
 -1     19045 1.86947E-05 7.78689E-05-5.83991E-06
 -1     19046 1.26696E-05 7.99929E-05-5.83991E-06
 -1     19051 1.25023E-05 7.89363E-05-5.92649E-06
 -1     19052 1.86947E-05 7.78689E-05-6.01307E-06
 -1     19053 1.26696E-05 7.99929E-05-6.01307E-06
 -1     19058 1.25023E-05 7.89363E-05-6.09965E-06
 -1     19059 1.86947E-05 7.78689E-05-6.18623E-06
 -1     19060 1.26696E-05 7.99929E-05-6.18623E-06
 -1     19065 1.25023E-05 7.89363E-05-6.27281E-06
 -1     19066 1.86947E-05 7.78689E-05-6.35939E-06
 -1     19067 1.26696E-05 7.99929E-05-6.35939E-06
 -1     19072 1.25023E-05 7.89363E-05-6.44597E-06
 -1     19073 1.86947E-05 7.78689E-05-6.53255E-06
 -1     19074 1.26696E-05 7.99929E-05-6.53255E-06
 -1     19079 1.25023E-05 7.89363E-05-6.61913E-06
 -1     19080 1.86947E-05 7.78689E-05-6.70571E-06
 -1     19081 1.26696E-05 7.99929E-05-6.70571E-06
 -1     19086 1.25023E-05 7.89363E-05-6.79229E-06
 -1     19087 1.86947E-05 7.78689E-05-6.87887E-06
 -1     19088 1.26696E-05 7.99929E-05-6.87887E-06
 -1     19093 1.25023E-05 7.89363E-05-6.96545E-06
 -1     19094 1.86947E-05 7.78689E-05-7.05203E-06
 -1     19095 1.26696E-05 7.99929E-05-7.05203E-06
 -1     19100 1.25023E-05 7.89363E-05-7.13861E-06
 -1     19101 1.86947E-05 7.78689E-05-7.22519E-06
 -1     19102 1.26696E-05 7.99929E-05-7.22519E-06
 -1     19107 1.25023E-05 7.89363E-05-7.31177E-06
 -1     19111 6.28313E-06 7.98347E-05-5.66675E-06
 -1     19115 6.28313E-06 7.98347E-05-5.83991E-06
 -1     19119 6.28313E-06 7.98347E-05-6.01307E-06
 -1     19123 6.28313E-06 7.98347E-05-6.18623E-06
 -1     19127 6.28313E-06 7.98347E-05-6.35939E-06
 -1     19131 6.28313E-06 7.98347E-05-6.53255E-06
 -1     19135 6.28313E-06 7.98347E-05-6.70571E-06
 -1     19139 6.28313E-06 7.98347E-05-6.87887E-06
 -1     19143 6.28313E-06 7.98347E-05-7.05203E-06
 -1     19147 6.28313E-06 7.98347E-05-7.22519E-06
 -1     19153 7.69766E-05 1.21919E-05-5.58017E-06
 -1     19154 7.78472E-05 6.12670E-06-5.66675E-06
 -1     19155 7.79318E-05 1.23432E-05-5.66675E-06
 -1     19160 7.69766E-05 1.21919E-05-5.75333E-06
 -1     19161 7.78472E-05 6.12670E-06-5.83991E-06
 -1     19162 7.79318E-05 1.23432E-05-5.83991E-06
 -1     19167 7.69766E-05 1.21919E-05-5.92649E-06
 -1     19168 7.78472E-05 6.12670E-06-6.01307E-06
 -1     19169 7.79318E-05 1.23432E-05-6.01307E-06
 -1     19174 7.69766E-05 1.21919E-05-6.09965E-06
 -1     19175 7.78472E-05 6.12670E-06-6.18623E-06
 -1     19176 7.79318E-05 1.23432E-05-6.18623E-06
 -1     19181 7.69766E-05 1.21919E-05-6.27281E-06
 -1     19182 7.78472E-05 6.12670E-06-6.35939E-06
 -1     19183 7.79318E-05 1.23432E-05-6.35939E-06
 -1     19188 7.69766E-05 1.21919E-05-6.44597E-06
 -1     19189 7.78472E-05 6.12670E-06-6.53255E-06
 -1     19190 7.79318E-05 1.23432E-05-6.53255E-06
 -1     19195 7.69766E-05 1.21919E-05-6.61913E-06
 -1     19196 7.78472E-05 6.12670E-06-6.70571E-06
 -1     19197 7.79318E-05 1.23432E-05-6.70571E-06
 -1     19202 7.69766E-05 1.21919E-05-6.79229E-06
 -1     19203 7.78472E-05 6.12670E-06-6.87887E-06
 -1     19204 7.79318E-05 1.23432E-05-6.87887E-06
 -1     19209 7.69766E-05 1.21919E-05-6.96545E-06
 -1     19210 7.78472E-05 6.12670E-06-7.05203E-06
 -1     19211 7.79318E-05 1.23432E-05-7.05203E-06
 -1     19216 7.69766E-05 1.21919E-05-7.13861E-06
 -1     19217 7.78472E-05 6.12670E-06-7.22519E-06
 -1     19218 7.79318E-05 1.23432E-05-7.22519E-06
 -1     19223 7.69766E-05 1.21919E-05-7.31177E-06
 -1     19227 7.41217E-05 2.40836E-05-5.58017E-06
 -1     19228 7.59303E-05 1.82293E-05-5.66675E-06
 -1     19229 7.50414E-05 2.43824E-05-5.66675E-06
 -1     19234 7.41217E-05 2.40836E-05-5.75333E-06
 -1     19235 7.59303E-05 1.82293E-05-5.83991E-06
 -1     19236 7.50414E-05 2.43824E-05-5.83991E-06
 -1     19241 7.41217E-05 2.40836E-05-5.92649E-06
 -1     19242 7.59303E-05 1.82293E-05-6.01307E-06
 -1     19243 7.50414E-05 2.43824E-05-6.01307E-06
 -1     19248 7.41217E-05 2.40836E-05-6.09965E-06
 -1     19249 7.59303E-05 1.82293E-05-6.18623E-06
 -1     19250 7.50414E-05 2.43824E-05-6.18623E-06
 -1     19255 7.41217E-05 2.40836E-05-6.27281E-06
 -1     19256 7.59303E-05 1.82293E-05-6.35939E-06
 -1     19257 7.50414E-05 2.43824E-05-6.35939E-06
 -1     19262 7.41217E-05 2.40836E-05-6.44597E-06
 -1     19263 7.59303E-05 1.82293E-05-6.53255E-06
 -1     19264 7.50414E-05 2.43824E-05-6.53255E-06
 -1     19269 7.41217E-05 2.40836E-05-6.61913E-06
 -1     19270 7.59303E-05 1.82293E-05-6.70571E-06
 -1     19271 7.50414E-05 2.43824E-05-6.70571E-06
 -1     19276 7.41217E-05 2.40836E-05-6.79229E-06
 -1     19277 7.59303E-05 1.82293E-05-6.87887E-06
 -1     19278 7.50414E-05 2.43824E-05-6.87887E-06
 -1     19283 7.41217E-05 2.40836E-05-6.96545E-06
 -1     19284 7.59303E-05 1.82293E-05-7.05203E-06
 -1     19285 7.50414E-05 2.43824E-05-7.05203E-06
 -1     19290 7.41217E-05 2.40836E-05-7.13861E-06
 -1     19291 7.59303E-05 1.82293E-05-7.22519E-06
 -1     19292 7.50414E-05 2.43824E-05-7.22519E-06
 -1     19297 7.41217E-05 2.40836E-05-7.31177E-06
 -1     19301 6.94416E-05 3.53823E-05-5.58017E-06
 -1     19302 7.21438E-05 2.98829E-05-5.66675E-06
 -1     19303 7.03033E-05 3.58213E-05-5.66675E-06
 -1     19308 6.94416E-05 3.53823E-05-5.75333E-06
 -1     19309 7.21438E-05 2.98829E-05-5.83991E-06
 -1     19310 7.03033E-05 3.58213E-05-5.83991E-06
 -1     19315 6.94416E-05 3.53823E-05-5.92649E-06
 -1     19316 7.21438E-05 2.98829E-05-6.01307E-06
 -1     19317 7.03033E-05 3.58213E-05-6.01307E-06
 -1     19322 6.94416E-05 3.53823E-05-6.09965E-06
 -1     19323 7.21438E-05 2.98829E-05-6.18623E-06
 -1     19324 7.03033E-05 3.58213E-05-6.18623E-06
 -1     19329 6.94416E-05 3.53823E-05-6.27281E-06
 -1     19330 7.21438E-05 2.98829E-05-6.35939E-06
 -1     19331 7.03033E-05 3.58213E-05-6.35939E-06
 -1     19336 6.94416E-05 3.53823E-05-6.44597E-06
 -1     19337 7.21438E-05 2.98829E-05-6.53255E-06
 -1     19338 7.03033E-05 3.58213E-05-6.53255E-06
 -1     19343 6.94416E-05 3.53823E-05-6.61913E-06
 -1     19344 7.21438E-05 2.98829E-05-6.70571E-06
 -1     19345 7.03033E-05 3.58213E-05-6.70571E-06
 -1     19350 6.94416E-05 3.53823E-05-6.79229E-06
 -1     19351 7.21438E-05 2.98829E-05-6.87887E-06
 -1     19352 7.03033E-05 3.58213E-05-6.87887E-06
 -1     19357 6.94416E-05 3.53823E-05-6.96545E-06
 -1     19358 7.21438E-05 2.98829E-05-7.05203E-06
 -1     19359 7.03033E-05 3.58213E-05-7.05203E-06
 -1     19364 6.94416E-05 3.53823E-05-7.13861E-06
 -1     19365 7.21438E-05 2.98829E-05-7.22519E-06
 -1     19366 7.03033E-05 3.58213E-05-7.22519E-06
 -1     19371 6.94416E-05 3.53823E-05-7.31177E-06
 -1     19375 6.30517E-05 4.58097E-05-5.58017E-06
 -1     19376 6.65809E-05 4.08008E-05-5.66675E-06
 -1     19377 6.38340E-05 4.63782E-05-5.66675E-06
 -1     19382 6.30517E-05 4.58097E-05-5.75333E-06
 -1     19383 6.65809E-05 4.08008E-05-5.83991E-06
 -1     19384 6.38340E-05 4.63782E-05-5.83991E-06
 -1     19389 6.30517E-05 4.58097E-05-5.92649E-06
 -1     19390 6.65809E-05 4.08008E-05-6.01307E-06
 -1     19391 6.38340E-05 4.63782E-05-6.01307E-06
 -1     19396 6.30517E-05 4.58097E-05-6.09965E-06
 -1     19397 6.65809E-05 4.08008E-05-6.18623E-06
 -1     19398 6.38340E-05 4.63782E-05-6.18623E-06
 -1     19403 6.30517E-05 4.58097E-05-6.27281E-06
 -1     19404 6.65809E-05 4.08008E-05-6.35939E-06
 -1     19405 6.38340E-05 4.63782E-05-6.35939E-06
 -1     19410 6.30517E-05 4.58097E-05-6.44597E-06
 -1     19411 6.65809E-05 4.08008E-05-6.53255E-06
 -1     19412 6.38340E-05 4.63782E-05-6.53255E-06
 -1     19417 6.30517E-05 4.58097E-05-6.61913E-06
 -1     19418 6.65809E-05 4.08008E-05-6.70571E-06
 -1     19419 6.38340E-05 4.63782E-05-6.70571E-06
 -1     19424 6.30517E-05 4.58097E-05-6.79229E-06
 -1     19425 6.65809E-05 4.08008E-05-6.87887E-06
 -1     19426 6.38340E-05 4.63782E-05-6.87887E-06
 -1     19431 6.30517E-05 4.58097E-05-6.96545E-06
 -1     19432 6.65809E-05 4.08008E-05-7.05203E-06
 -1     19433 6.38340E-05 4.63782E-05-7.05203E-06
 -1     19438 6.30517E-05 4.58097E-05-7.13861E-06
 -1     19439 6.65809E-05 4.08008E-05-7.22519E-06
 -1     19440 6.38340E-05 4.63782E-05-7.22519E-06
 -1     19445 6.30517E-05 4.58097E-05-7.31177E-06
 -1     19449 5.51092E-05 5.51092E-05-5.58017E-06
 -1     19450 5.93785E-05 5.07140E-05-5.66675E-06
 -1     19451 5.57930E-05 5.57930E-05-5.66675E-06
 -1     19456 5.51092E-05 5.51092E-05-5.75333E-06
 -1     19457 5.93785E-05 5.07140E-05-5.83991E-06
 -1     19458 5.57930E-05 5.57930E-05-5.83991E-06
 -1     19463 5.51092E-05 5.51092E-05-5.92649E-06
 -1     19464 5.93785E-05 5.07140E-05-6.01307E-06
 -1     19465 5.57930E-05 5.57930E-05-6.01307E-06
 -1     19470 5.51092E-05 5.51092E-05-6.09965E-06
 -1     19471 5.93785E-05 5.07140E-05-6.18623E-06
 -1     19472 5.57930E-05 5.57930E-05-6.18623E-06
 -1     19477 5.51092E-05 5.51092E-05-6.27281E-06
 -1     19478 5.93785E-05 5.07140E-05-6.35939E-06
 -1     19479 5.57930E-05 5.57930E-05-6.35939E-06
 -1     19484 5.51092E-05 5.51092E-05-6.44597E-06
 -1     19485 5.93785E-05 5.07140E-05-6.53255E-06
 -1     19486 5.57930E-05 5.57930E-05-6.53255E-06
 -1     19491 5.51092E-05 5.51092E-05-6.61913E-06
 -1     19492 5.93785E-05 5.07140E-05-6.70571E-06
 -1     19493 5.57930E-05 5.57930E-05-6.70571E-06
 -1     19498 5.51092E-05 5.51092E-05-6.79229E-06
 -1     19499 5.93785E-05 5.07140E-05-6.87887E-06
 -1     19500 5.57930E-05 5.57930E-05-6.87887E-06
 -1     19505 5.51092E-05 5.51092E-05-6.96545E-06
 -1     19506 5.93785E-05 5.07140E-05-7.05203E-06
 -1     19507 5.57930E-05 5.57930E-05-7.05203E-06
 -1     19512 5.51092E-05 5.51092E-05-7.13861E-06
 -1     19513 5.93785E-05 5.07140E-05-7.22519E-06
 -1     19514 5.57930E-05 5.57930E-05-7.22519E-06
 -1     19519 5.51092E-05 5.51092E-05-7.31177E-06
 -1     19523 4.58097E-05 6.30517E-05-5.58017E-06
 -1     19524 5.07140E-05 5.93785E-05-5.66675E-06
 -1     19525 4.63782E-05 6.38340E-05-5.66675E-06
 -1     19530 4.58097E-05 6.30517E-05-5.75333E-06
 -1     19531 5.07140E-05 5.93785E-05-5.83991E-06
 -1     19532 4.63782E-05 6.38340E-05-5.83991E-06
 -1     19537 4.58097E-05 6.30517E-05-5.92649E-06
 -1     19538 5.07140E-05 5.93785E-05-6.01307E-06
 -1     19539 4.63782E-05 6.38340E-05-6.01307E-06
 -1     19544 4.58097E-05 6.30517E-05-6.09965E-06
 -1     19545 5.07140E-05 5.93785E-05-6.18623E-06
 -1     19546 4.63782E-05 6.38340E-05-6.18623E-06
 -1     19551 4.58097E-05 6.30517E-05-6.27281E-06
 -1     19552 5.07140E-05 5.93785E-05-6.35939E-06
 -1     19553 4.63782E-05 6.38340E-05-6.35939E-06
 -1     19558 4.58097E-05 6.30517E-05-6.44597E-06
 -1     19559 5.07140E-05 5.93785E-05-6.53255E-06
 -1     19560 4.63782E-05 6.38340E-05-6.53255E-06
 -1     19565 4.58097E-05 6.30517E-05-6.61913E-06
 -1     19566 5.07140E-05 5.93785E-05-6.70571E-06
 -1     19567 4.63782E-05 6.38340E-05-6.70571E-06
 -1     19572 4.58097E-05 6.30517E-05-6.79229E-06
 -1     19573 5.07140E-05 5.93785E-05-6.87887E-06
 -1     19574 4.63782E-05 6.38340E-05-6.87887E-06
 -1     19579 4.58097E-05 6.30517E-05-6.96545E-06
 -1     19580 5.07140E-05 5.93785E-05-7.05203E-06
 -1     19581 4.63782E-05 6.38340E-05-7.05203E-06
 -1     19586 4.58097E-05 6.30517E-05-7.13861E-06
 -1     19587 5.07140E-05 5.93785E-05-7.22519E-06
 -1     19588 4.63782E-05 6.38340E-05-7.22519E-06
 -1     19593 4.58097E-05 6.30517E-05-7.31177E-06
 -1     19597 3.53823E-05 6.94416E-05-5.58017E-06
 -1     19598 4.08008E-05 6.65809E-05-5.66675E-06
 -1     19599 3.58213E-05 7.03033E-05-5.66675E-06
 -1     19604 3.53823E-05 6.94416E-05-5.75333E-06
 -1     19605 4.08008E-05 6.65809E-05-5.83991E-06
 -1     19606 3.58213E-05 7.03033E-05-5.83991E-06
 -1     19611 3.53823E-05 6.94416E-05-5.92649E-06
 -1     19612 4.08008E-05 6.65809E-05-6.01307E-06
 -1     19613 3.58213E-05 7.03033E-05-6.01307E-06
 -1     19618 3.53823E-05 6.94416E-05-6.09965E-06
 -1     19619 4.08008E-05 6.65809E-05-6.18623E-06
 -1     19620 3.58213E-05 7.03033E-05-6.18623E-06
 -1     19625 3.53823E-05 6.94416E-05-6.27281E-06
 -1     19626 4.08008E-05 6.65809E-05-6.35939E-06
 -1     19627 3.58213E-05 7.03033E-05-6.35939E-06
 -1     19632 3.53823E-05 6.94416E-05-6.44597E-06
 -1     19633 4.08008E-05 6.65809E-05-6.53255E-06
 -1     19634 3.58213E-05 7.03033E-05-6.53255E-06
 -1     19639 3.53823E-05 6.94416E-05-6.61913E-06
 -1     19640 4.08008E-05 6.65809E-05-6.70571E-06
 -1     19641 3.58213E-05 7.03033E-05-6.70571E-06
 -1     19646 3.53823E-05 6.94416E-05-6.79229E-06
 -1     19647 4.08008E-05 6.65809E-05-6.87887E-06
 -1     19648 3.58213E-05 7.03033E-05-6.87887E-06
 -1     19653 3.53823E-05 6.94416E-05-6.96545E-06
 -1     19654 4.08008E-05 6.65809E-05-7.05203E-06
 -1     19655 3.58213E-05 7.03033E-05-7.05203E-06
 -1     19660 3.53823E-05 6.94416E-05-7.13861E-06
 -1     19661 4.08008E-05 6.65809E-05-7.22519E-06
 -1     19662 3.58213E-05 7.03033E-05-7.22519E-06
 -1     19667 3.53823E-05 6.94416E-05-7.31177E-06
 -1     19671 2.40836E-05 7.41217E-05-5.58017E-06
 -1     19672 2.98829E-05 7.21438E-05-5.66675E-06
 -1     19673 2.43824E-05 7.50414E-05-5.66675E-06
 -1     19678 2.40836E-05 7.41217E-05-5.75333E-06
 -1     19679 2.98829E-05 7.21438E-05-5.83991E-06
 -1     19680 2.43824E-05 7.50414E-05-5.83991E-06
 -1     19685 2.40836E-05 7.41217E-05-5.92649E-06
 -1     19686 2.98829E-05 7.21438E-05-6.01307E-06
 -1     19687 2.43824E-05 7.50414E-05-6.01307E-06
 -1     19692 2.40836E-05 7.41217E-05-6.09965E-06
 -1     19693 2.98829E-05 7.21438E-05-6.18623E-06
 -1     19694 2.43824E-05 7.50414E-05-6.18623E-06
 -1     19699 2.40836E-05 7.41217E-05-6.27281E-06
 -1     19700 2.98829E-05 7.21438E-05-6.35939E-06
 -1     19701 2.43824E-05 7.50414E-05-6.35939E-06
 -1     19706 2.40836E-05 7.41217E-05-6.44597E-06
 -1     19707 2.98829E-05 7.21438E-05-6.53255E-06
 -1     19708 2.43824E-05 7.50414E-05-6.53255E-06
 -1     19713 2.40836E-05 7.41217E-05-6.61913E-06
 -1     19714 2.98829E-05 7.21438E-05-6.70571E-06
 -1     19715 2.43824E-05 7.50414E-05-6.70571E-06
 -1     19720 2.40836E-05 7.41217E-05-6.79229E-06
 -1     19721 2.98829E-05 7.21438E-05-6.87887E-06
 -1     19722 2.43824E-05 7.50414E-05-6.87887E-06
 -1     19727 2.40836E-05 7.41217E-05-6.96545E-06
 -1     19728 2.98829E-05 7.21438E-05-7.05203E-06
 -1     19729 2.43824E-05 7.50414E-05-7.05203E-06
 -1     19734 2.40836E-05 7.41217E-05-7.13861E-06
 -1     19735 2.98829E-05 7.21438E-05-7.22519E-06
 -1     19736 2.43824E-05 7.50414E-05-7.22519E-06
 -1     19741 2.40836E-05 7.41217E-05-7.31177E-06
 -1     19745 1.21919E-05 7.69766E-05-5.58017E-06
 -1     19746 1.82293E-05 7.59303E-05-5.66675E-06
 -1     19747 1.23432E-05 7.79318E-05-5.66675E-06
 -1     19752 1.21919E-05 7.69766E-05-5.75333E-06
 -1     19753 1.82293E-05 7.59303E-05-5.83991E-06
 -1     19754 1.23432E-05 7.79318E-05-5.83991E-06
 -1     19759 1.21919E-05 7.69766E-05-5.92649E-06
 -1     19760 1.82293E-05 7.59303E-05-6.01307E-06
 -1     19761 1.23432E-05 7.79318E-05-6.01307E-06
 -1     19766 1.21919E-05 7.69766E-05-6.09965E-06
 -1     19767 1.82293E-05 7.59303E-05-6.18623E-06
 -1     19768 1.23432E-05 7.79318E-05-6.18623E-06
 -1     19773 1.21919E-05 7.69766E-05-6.27281E-06
 -1     19774 1.82293E-05 7.59303E-05-6.35939E-06
 -1     19775 1.23432E-05 7.79318E-05-6.35939E-06
 -1     19780 1.21919E-05 7.69766E-05-6.44597E-06
 -1     19781 1.82293E-05 7.59303E-05-6.53255E-06
 -1     19782 1.23432E-05 7.79318E-05-6.53255E-06
 -1     19787 1.21919E-05 7.69766E-05-6.61913E-06
 -1     19788 1.82293E-05 7.59303E-05-6.70571E-06
 -1     19789 1.23432E-05 7.79318E-05-6.70571E-06
 -1     19794 1.21919E-05 7.69766E-05-6.79229E-06
 -1     19795 1.82293E-05 7.59303E-05-6.87887E-06
 -1     19796 1.23432E-05 7.79318E-05-6.87887E-06
 -1     19801 1.21919E-05 7.69766E-05-6.96545E-06
 -1     19802 1.82293E-05 7.59303E-05-7.05203E-06
 -1     19803 1.23432E-05 7.79318E-05-7.05203E-06
 -1     19808 1.21919E-05 7.69766E-05-7.13861E-06
 -1     19809 1.82293E-05 7.59303E-05-7.22519E-06
 -1     19810 1.23432E-05 7.79318E-05-7.22519E-06
 -1     19815 1.21919E-05 7.69766E-05-7.31177E-06
 -1     19819 6.12670E-06 7.78472E-05-5.66675E-06
 -1     19823 6.12670E-06 7.78472E-05-5.83991E-06
 -1     19827 6.12670E-06 7.78472E-05-6.01307E-06
 -1     19831 6.12670E-06 7.78472E-05-6.18623E-06
 -1     19835 6.12670E-06 7.78472E-05-6.35939E-06
 -1     19839 6.12670E-06 7.78472E-05-6.53255E-06
 -1     19843 6.12670E-06 7.78472E-05-6.70571E-06
 -1     19847 6.12670E-06 7.78472E-05-6.87887E-06
 -1     19851 6.12670E-06 7.78472E-05-7.05203E-06
 -1     19855 6.12670E-06 7.78472E-05-7.22519E-06
 -1     19861 7.52028E-05 1.19109E-05-5.58017E-06
 -1     19862 7.60477E-05 5.98509E-06-5.66675E-06
 -1     19863 7.60677E-05 1.20479E-05-5.66675E-06
 -1     19868 7.52028E-05 1.19109E-05-5.75333E-06
 -1     19869 7.60477E-05 5.98509E-06-5.83991E-06
 -1     19870 7.60677E-05 1.20479E-05-5.83991E-06
 -1     19875 7.52028E-05 1.19109E-05-5.92649E-06
 -1     19876 7.60477E-05 5.98509E-06-6.01307E-06
 -1     19877 7.60677E-05 1.20479E-05-6.01307E-06
 -1     19882 7.52028E-05 1.19109E-05-6.09965E-06
 -1     19883 7.60477E-05 5.98509E-06-6.18623E-06
 -1     19884 7.60677E-05 1.20479E-05-6.18623E-06
 -1     19889 7.52028E-05 1.19109E-05-6.27281E-06
 -1     19890 7.60477E-05 5.98509E-06-6.35939E-06
 -1     19891 7.60677E-05 1.20479E-05-6.35939E-06
 -1     19896 7.52028E-05 1.19109E-05-6.44597E-06
 -1     19897 7.60477E-05 5.98509E-06-6.53255E-06
 -1     19898 7.60677E-05 1.20479E-05-6.53255E-06
 -1     19903 7.52028E-05 1.19109E-05-6.61913E-06
 -1     19904 7.60477E-05 5.98509E-06-6.70571E-06
 -1     19905 7.60677E-05 1.20479E-05-6.70571E-06
 -1     19910 7.52028E-05 1.19109E-05-6.79229E-06
 -1     19911 7.60477E-05 5.98509E-06-6.87887E-06
 -1     19912 7.60677E-05 1.20479E-05-6.87887E-06
 -1     19917 7.52028E-05 1.19109E-05-6.96545E-06
 -1     19918 7.60477E-05 5.98509E-06-7.05203E-06
 -1     19919 7.60677E-05 1.20479E-05-7.05203E-06
 -1     19924 7.52028E-05 1.19109E-05-7.13861E-06
 -1     19925 7.60477E-05 5.98509E-06-7.22519E-06
 -1     19926 7.60677E-05 1.20479E-05-7.22519E-06
 -1     19931 7.52028E-05 1.19109E-05-7.31177E-06
 -1     19935 7.24136E-05 2.35286E-05-5.58017E-06
 -1     19936 7.41752E-05 1.78079E-05-5.66675E-06
 -1     19937 7.32465E-05 2.37992E-05-5.66675E-06
 -1     19942 7.24136E-05 2.35286E-05-5.75333E-06
 -1     19943 7.41752E-05 1.78079E-05-5.83991E-06
 -1     19944 7.32465E-05 2.37992E-05-5.83991E-06
 -1     19949 7.24136E-05 2.35286E-05-5.92649E-06
 -1     19950 7.41752E-05 1.78079E-05-6.01307E-06
 -1     19951 7.32465E-05 2.37992E-05-6.01307E-06
 -1     19956 7.24136E-05 2.35286E-05-6.09965E-06
 -1     19957 7.41752E-05 1.78079E-05-6.18623E-06
 -1     19958 7.32465E-05 2.37992E-05-6.18623E-06
 -1     19963 7.24136E-05 2.35286E-05-6.27281E-06
 -1     19964 7.41752E-05 1.78079E-05-6.35939E-06
 -1     19965 7.32465E-05 2.37992E-05-6.35939E-06
 -1     19970 7.24136E-05 2.35286E-05-6.44597E-06
 -1     19971 7.41752E-05 1.78079E-05-6.53255E-06
 -1     19972 7.32465E-05 2.37992E-05-6.53255E-06
 -1     19977 7.24136E-05 2.35286E-05-6.61913E-06
 -1     19978 7.41752E-05 1.78079E-05-6.70571E-06
 -1     19979 7.32465E-05 2.37992E-05-6.70571E-06
 -1     19984 7.24136E-05 2.35286E-05-6.79229E-06
 -1     19985 7.41752E-05 1.78079E-05-6.87887E-06
 -1     19986 7.32465E-05 2.37992E-05-6.87887E-06
 -1     19991 7.24136E-05 2.35286E-05-6.96545E-06
 -1     19992 7.41752E-05 1.78079E-05-7.05203E-06
 -1     19993 7.32465E-05 2.37992E-05-7.05203E-06
 -1     19998 7.24136E-05 2.35286E-05-7.13861E-06
 -1     19999 7.41752E-05 1.78079E-05-7.22519E-06
 -1     20000 7.32465E-05 2.37992E-05-7.22519E-06
 -1     20005 7.24136E-05 2.35286E-05-7.31177E-06
 -1     20009 6.78414E-05 3.45669E-05-5.58017E-06
 -1     20010 7.04762E-05 2.91922E-05-5.66675E-06
 -1     20011 6.86217E-05 3.49645E-05-5.66675E-06
 -1     20016 6.78414E-05 3.45669E-05-5.75333E-06
 -1     20017 7.04762E-05 2.91922E-05-5.83991E-06
 -1     20018 6.86217E-05 3.49645E-05-5.83991E-06
 -1     20023 6.78414E-05 3.45669E-05-5.92649E-06
 -1     20024 7.04762E-05 2.91922E-05-6.01307E-06
 -1     20025 6.86217E-05 3.49645E-05-6.01307E-06
 -1     20030 6.78414E-05 3.45669E-05-6.09965E-06
 -1     20031 7.04762E-05 2.91922E-05-6.18623E-06
 -1     20032 6.86217E-05 3.49645E-05-6.18623E-06
 -1     20037 6.78414E-05 3.45669E-05-6.27281E-06
 -1     20038 7.04762E-05 2.91922E-05-6.35939E-06
 -1     20039 6.86217E-05 3.49645E-05-6.35939E-06
 -1     20044 6.78414E-05 3.45669E-05-6.44597E-06
 -1     20045 7.04762E-05 2.91922E-05-6.53255E-06
 -1     20046 6.86217E-05 3.49645E-05-6.53255E-06
 -1     20051 6.78414E-05 3.45669E-05-6.61913E-06
 -1     20052 7.04762E-05 2.91922E-05-6.70571E-06
 -1     20053 6.86217E-05 3.49645E-05-6.70571E-06
 -1     20058 6.78414E-05 3.45669E-05-6.79229E-06
 -1     20059 7.04762E-05 2.91922E-05-6.87887E-06
 -1     20060 6.86217E-05 3.49645E-05-6.87887E-06
 -1     20065 6.78414E-05 3.45669E-05-6.96545E-06
 -1     20066 7.04762E-05 2.91922E-05-7.05203E-06
 -1     20067 6.86217E-05 3.49645E-05-7.05203E-06
 -1     20072 6.78414E-05 3.45669E-05-7.13861E-06
 -1     20073 7.04762E-05 2.91922E-05-7.22519E-06
 -1     20074 6.86217E-05 3.49645E-05-7.22519E-06
 -1     20079 6.78414E-05 3.45669E-05-7.31177E-06
 -1     20083 6.15987E-05 4.47541E-05-5.58017E-06
 -1     20084 6.50419E-05 3.98577E-05-5.66675E-06
 -1     20085 6.23072E-05 4.52688E-05-5.66675E-06
 -1     20090 6.15987E-05 4.47541E-05-5.75333E-06
 -1     20091 6.50419E-05 3.98577E-05-5.83991E-06
 -1     20092 6.23072E-05 4.52688E-05-5.83991E-06
 -1     20097 6.15987E-05 4.47541E-05-5.92649E-06
 -1     20098 6.50419E-05 3.98577E-05-6.01307E-06
 -1     20099 6.23072E-05 4.52688E-05-6.01307E-06
 -1     20104 6.15987E-05 4.47541E-05-6.09965E-06
 -1     20105 6.50419E-05 3.98577E-05-6.18623E-06
 -1     20106 6.23072E-05 4.52688E-05-6.18623E-06
 -1     20111 6.15987E-05 4.47541E-05-6.27281E-06
 -1     20112 6.50419E-05 3.98577E-05-6.35939E-06
 -1     20113 6.23072E-05 4.52688E-05-6.35939E-06
 -1     20118 6.15987E-05 4.47541E-05-6.44597E-06
 -1     20119 6.50419E-05 3.98577E-05-6.53255E-06
 -1     20120 6.23072E-05 4.52688E-05-6.53255E-06
 -1     20125 6.15987E-05 4.47541E-05-6.61913E-06
 -1     20126 6.50419E-05 3.98577E-05-6.70571E-06
 -1     20127 6.23072E-05 4.52688E-05-6.70571E-06
 -1     20132 6.15987E-05 4.47541E-05-6.79229E-06
 -1     20133 6.50419E-05 3.98577E-05-6.87887E-06
 -1     20134 6.23072E-05 4.52688E-05-6.87887E-06
 -1     20139 6.15987E-05 4.47541E-05-6.96545E-06
 -1     20140 6.50419E-05 3.98577E-05-7.05203E-06
 -1     20141 6.23072E-05 4.52688E-05-7.05203E-06
 -1     20146 6.15987E-05 4.47541E-05-7.13861E-06
 -1     20147 6.50419E-05 3.98577E-05-7.22519E-06
 -1     20148 6.23072E-05 4.52688E-05-7.22519E-06
 -1     20153 6.15987E-05 4.47541E-05-7.31177E-06
 -1     20157 5.38392E-05 5.38392E-05-5.58017E-06
 -1     20158 5.80060E-05 4.95418E-05-5.66675E-06
 -1     20159 5.44585E-05 5.44585E-05-5.66675E-06
 -1     20164 5.38392E-05 5.38392E-05-5.75333E-06
 -1     20165 5.80060E-05 4.95418E-05-5.83991E-06
 -1     20166 5.44585E-05 5.44585E-05-5.83991E-06
 -1     20171 5.38392E-05 5.38392E-05-5.92649E-06
 -1     20172 5.80060E-05 4.95418E-05-6.01307E-06
 -1     20173 5.44585E-05 5.44585E-05-6.01307E-06
 -1     20178 5.38392E-05 5.38392E-05-6.09965E-06
 -1     20179 5.80060E-05 4.95418E-05-6.18623E-06
 -1     20180 5.44585E-05 5.44585E-05-6.18623E-06
 -1     20185 5.38392E-05 5.38392E-05-6.27281E-06
 -1     20186 5.80060E-05 4.95418E-05-6.35939E-06
 -1     20187 5.44585E-05 5.44585E-05-6.35939E-06
 -1     20192 5.38392E-05 5.38392E-05-6.44597E-06
 -1     20193 5.80060E-05 4.95418E-05-6.53255E-06
 -1     20194 5.44585E-05 5.44585E-05-6.53255E-06
 -1     20199 5.38392E-05 5.38392E-05-6.61913E-06
 -1     20200 5.80060E-05 4.95418E-05-6.70571E-06
 -1     20201 5.44585E-05 5.44585E-05-6.70571E-06
 -1     20206 5.38392E-05 5.38392E-05-6.79229E-06
 -1     20207 5.80060E-05 4.95418E-05-6.87887E-06
 -1     20208 5.44585E-05 5.44585E-05-6.87887E-06
 -1     20213 5.38392E-05 5.38392E-05-6.96545E-06
 -1     20214 5.80060E-05 4.95418E-05-7.05203E-06
 -1     20215 5.44585E-05 5.44585E-05-7.05203E-06
 -1     20220 5.38392E-05 5.38392E-05-7.13861E-06
 -1     20221 5.80060E-05 4.95418E-05-7.22519E-06
 -1     20222 5.44585E-05 5.44585E-05-7.22519E-06
 -1     20227 5.38392E-05 5.38392E-05-7.31177E-06
 -1     20231 4.47541E-05 6.15987E-05-5.58017E-06
 -1     20232 4.95418E-05 5.80060E-05-5.66675E-06
 -1     20233 4.52688E-05 6.23072E-05-5.66675E-06
 -1     20238 4.47541E-05 6.15987E-05-5.75333E-06
 -1     20239 4.95418E-05 5.80060E-05-5.83991E-06
 -1     20240 4.52688E-05 6.23072E-05-5.83991E-06
 -1     20245 4.47541E-05 6.15987E-05-5.92649E-06
 -1     20246 4.95418E-05 5.80060E-05-6.01307E-06
 -1     20247 4.52688E-05 6.23072E-05-6.01307E-06
 -1     20252 4.47541E-05 6.15987E-05-6.09965E-06
 -1     20253 4.95418E-05 5.80060E-05-6.18623E-06
 -1     20254 4.52688E-05 6.23072E-05-6.18623E-06
 -1     20259 4.47541E-05 6.15987E-05-6.27281E-06
 -1     20260 4.95418E-05 5.80060E-05-6.35939E-06
 -1     20261 4.52688E-05 6.23072E-05-6.35939E-06
 -1     20266 4.47541E-05 6.15987E-05-6.44597E-06
 -1     20267 4.95418E-05 5.80060E-05-6.53255E-06
 -1     20268 4.52688E-05 6.23072E-05-6.53255E-06
 -1     20273 4.47541E-05 6.15987E-05-6.61913E-06
 -1     20274 4.95418E-05 5.80060E-05-6.70571E-06
 -1     20275 4.52688E-05 6.23072E-05-6.70571E-06
 -1     20280 4.47541E-05 6.15987E-05-6.79229E-06
 -1     20281 4.95418E-05 5.80060E-05-6.87887E-06
 -1     20282 4.52688E-05 6.23072E-05-6.87887E-06
 -1     20287 4.47541E-05 6.15987E-05-6.96545E-06
 -1     20288 4.95418E-05 5.80060E-05-7.05203E-06
 -1     20289 4.52688E-05 6.23072E-05-7.05203E-06
 -1     20294 4.47541E-05 6.15987E-05-7.13861E-06
 -1     20295 4.95418E-05 5.80060E-05-7.22519E-06
 -1     20296 4.52688E-05 6.23072E-05-7.22519E-06
 -1     20301 4.47541E-05 6.15987E-05-7.31177E-06
 -1     20305 3.45669E-05 6.78414E-05-5.58017E-06
 -1     20306 3.98577E-05 6.50419E-05-5.66675E-06
 -1     20307 3.49645E-05 6.86217E-05-5.66675E-06
 -1     20312 3.45669E-05 6.78414E-05-5.75333E-06
 -1     20313 3.98577E-05 6.50419E-05-5.83991E-06
 -1     20314 3.49645E-05 6.86217E-05-5.83991E-06
 -1     20319 3.45669E-05 6.78414E-05-5.92649E-06
 -1     20320 3.98577E-05 6.50419E-05-6.01307E-06
 -1     20321 3.49645E-05 6.86217E-05-6.01307E-06
 -1     20326 3.45669E-05 6.78414E-05-6.09965E-06
 -1     20327 3.98577E-05 6.50419E-05-6.18623E-06
 -1     20328 3.49645E-05 6.86217E-05-6.18623E-06
 -1     20333 3.45669E-05 6.78414E-05-6.27281E-06
 -1     20334 3.98577E-05 6.50419E-05-6.35939E-06
 -1     20335 3.49645E-05 6.86217E-05-6.35939E-06
 -1     20340 3.45669E-05 6.78414E-05-6.44597E-06
 -1     20341 3.98577E-05 6.50419E-05-6.53255E-06
 -1     20342 3.49645E-05 6.86217E-05-6.53255E-06
 -1     20347 3.45669E-05 6.78414E-05-6.61913E-06
 -1     20348 3.98577E-05 6.50419E-05-6.70571E-06
 -1     20349 3.49645E-05 6.86217E-05-6.70571E-06
 -1     20354 3.45669E-05 6.78414E-05-6.79229E-06
 -1     20355 3.98577E-05 6.50419E-05-6.87887E-06
 -1     20356 3.49645E-05 6.86217E-05-6.87887E-06
 -1     20361 3.45669E-05 6.78414E-05-6.96545E-06
 -1     20362 3.98577E-05 6.50419E-05-7.05203E-06
 -1     20363 3.49645E-05 6.86217E-05-7.05203E-06
 -1     20368 3.45669E-05 6.78414E-05-7.13861E-06
 -1     20369 3.98577E-05 6.50419E-05-7.22519E-06
 -1     20370 3.49645E-05 6.86217E-05-7.22519E-06
 -1     20375 3.45669E-05 6.78414E-05-7.31177E-06
 -1     20379 2.35286E-05 7.24136E-05-5.58017E-06
 -1     20380 2.91922E-05 7.04762E-05-5.66675E-06
 -1     20381 2.37992E-05 7.32465E-05-5.66675E-06
 -1     20386 2.35286E-05 7.24136E-05-5.75333E-06
 -1     20387 2.91922E-05 7.04762E-05-5.83991E-06
 -1     20388 2.37992E-05 7.32465E-05-5.83991E-06
 -1     20393 2.35286E-05 7.24136E-05-5.92649E-06
 -1     20394 2.91922E-05 7.04762E-05-6.01307E-06
 -1     20395 2.37992E-05 7.32465E-05-6.01307E-06
 -1     20400 2.35286E-05 7.24136E-05-6.09965E-06
 -1     20401 2.91922E-05 7.04762E-05-6.18623E-06
 -1     20402 2.37992E-05 7.32465E-05-6.18623E-06
 -1     20407 2.35286E-05 7.24136E-05-6.27281E-06
 -1     20408 2.91922E-05 7.04762E-05-6.35939E-06
 -1     20409 2.37992E-05 7.32465E-05-6.35939E-06
 -1     20414 2.35286E-05 7.24136E-05-6.44597E-06
 -1     20415 2.91922E-05 7.04762E-05-6.53255E-06
 -1     20416 2.37992E-05 7.32465E-05-6.53255E-06
 -1     20421 2.35286E-05 7.24136E-05-6.61913E-06
 -1     20422 2.91922E-05 7.04762E-05-6.70571E-06
 -1     20423 2.37992E-05 7.32465E-05-6.70571E-06
 -1     20428 2.35286E-05 7.24136E-05-6.79229E-06
 -1     20429 2.91922E-05 7.04762E-05-6.87887E-06
 -1     20430 2.37992E-05 7.32465E-05-6.87887E-06
 -1     20435 2.35286E-05 7.24136E-05-6.96545E-06
 -1     20436 2.91922E-05 7.04762E-05-7.05203E-06
 -1     20437 2.37992E-05 7.32465E-05-7.05203E-06
 -1     20442 2.35286E-05 7.24136E-05-7.13861E-06
 -1     20443 2.91922E-05 7.04762E-05-7.22519E-06
 -1     20444 2.37992E-05 7.32465E-05-7.22519E-06
 -1     20449 2.35286E-05 7.24136E-05-7.31177E-06
 -1     20453 1.19109E-05 7.52028E-05-5.58017E-06
 -1     20454 1.78079E-05 7.41752E-05-5.66675E-06
 -1     20455 1.20479E-05 7.60677E-05-5.66675E-06
 -1     20460 1.19109E-05 7.52028E-05-5.75333E-06
 -1     20461 1.78079E-05 7.41752E-05-5.83991E-06
 -1     20462 1.20479E-05 7.60677E-05-5.83991E-06
 -1     20467 1.19109E-05 7.52028E-05-5.92649E-06
 -1     20468 1.78079E-05 7.41752E-05-6.01307E-06
 -1     20469 1.20479E-05 7.60677E-05-6.01307E-06
 -1     20474 1.19109E-05 7.52028E-05-6.09965E-06
 -1     20475 1.78079E-05 7.41752E-05-6.18623E-06
 -1     20476 1.20479E-05 7.60677E-05-6.18623E-06
 -1     20481 1.19109E-05 7.52028E-05-6.27281E-06
 -1     20482 1.78079E-05 7.41752E-05-6.35939E-06
 -1     20483 1.20479E-05 7.60677E-05-6.35939E-06
 -1     20488 1.19109E-05 7.52028E-05-6.44597E-06
 -1     20489 1.78079E-05 7.41752E-05-6.53255E-06
 -1     20490 1.20479E-05 7.60677E-05-6.53255E-06
 -1     20495 1.19109E-05 7.52028E-05-6.61913E-06
 -1     20496 1.78079E-05 7.41752E-05-6.70571E-06
 -1     20497 1.20479E-05 7.60677E-05-6.70571E-06
 -1     20502 1.19109E-05 7.52028E-05-6.79229E-06
 -1     20503 1.78079E-05 7.41752E-05-6.87887E-06
 -1     20504 1.20479E-05 7.60677E-05-6.87887E-06
 -1     20509 1.19109E-05 7.52028E-05-6.96545E-06
 -1     20510 1.78079E-05 7.41752E-05-7.05203E-06
 -1     20511 1.20479E-05 7.60677E-05-7.05203E-06
 -1     20516 1.19109E-05 7.52028E-05-7.13861E-06
 -1     20517 1.78079E-05 7.41752E-05-7.22519E-06
 -1     20518 1.20479E-05 7.60677E-05-7.22519E-06
 -1     20523 1.19109E-05 7.52028E-05-7.31177E-06
 -1     20527 5.98509E-06 7.60477E-05-5.66675E-06
 -1     20531 5.98509E-06 7.60477E-05-5.83991E-06
 -1     20535 5.98509E-06 7.60477E-05-6.01307E-06
 -1     20539 5.98509E-06 7.60477E-05-6.18623E-06
 -1     20543 5.98509E-06 7.60477E-05-6.35939E-06
 -1     20547 5.98509E-06 7.60477E-05-6.53255E-06
 -1     20551 5.98509E-06 7.60477E-05-6.70571E-06
 -1     20555 5.98509E-06 7.60477E-05-6.87887E-06
 -1     20559 5.98509E-06 7.60477E-05-7.05203E-06
 -1     20563 5.98509E-06 7.60477E-05-7.22519E-06
 -1     20569 7.35948E-05 1.16563E-05-5.58017E-06
 -1     20570 7.44163E-05 5.85669E-06-5.66675E-06
 -1     20571 7.43791E-05 1.17805E-05-5.66675E-06
 -1     20576 7.35948E-05 1.16563E-05-5.75333E-06
 -1     20577 7.44163E-05 5.85669E-06-5.83991E-06
 -1     20578 7.43791E-05 1.17805E-05-5.83991E-06
 -1     20583 7.35948E-05 1.16563E-05-5.92649E-06
 -1     20584 7.44163E-05 5.85669E-06-6.01307E-06
 -1     20585 7.43791E-05 1.17805E-05-6.01307E-06
 -1     20590 7.35948E-05 1.16563E-05-6.09965E-06
 -1     20591 7.44163E-05 5.85669E-06-6.18623E-06
 -1     20592 7.43791E-05 1.17805E-05-6.18623E-06
 -1     20597 7.35948E-05 1.16563E-05-6.27281E-06
 -1     20598 7.44163E-05 5.85669E-06-6.35939E-06
 -1     20599 7.43791E-05 1.17805E-05-6.35939E-06
 -1     20604 7.35948E-05 1.16563E-05-6.44597E-06
 -1     20605 7.44163E-05 5.85669E-06-6.53255E-06
 -1     20606 7.43791E-05 1.17805E-05-6.53255E-06
 -1     20611 7.35948E-05 1.16563E-05-6.61913E-06
 -1     20612 7.44163E-05 5.85669E-06-6.70571E-06
 -1     20613 7.43791E-05 1.17805E-05-6.70571E-06
 -1     20618 7.35948E-05 1.16563E-05-6.79229E-06
 -1     20619 7.44163E-05 5.85669E-06-6.87887E-06
 -1     20620 7.43791E-05 1.17805E-05-6.87887E-06
 -1     20625 7.35948E-05 1.16563E-05-6.96545E-06
 -1     20626 7.44163E-05 5.85669E-06-7.05203E-06
 -1     20627 7.43791E-05 1.17805E-05-7.05203E-06
 -1     20632 7.35948E-05 1.16563E-05-7.13861E-06
 -1     20633 7.44163E-05 5.85669E-06-7.22519E-06
 -1     20634 7.43791E-05 1.17805E-05-7.22519E-06
 -1     20639 7.35948E-05 1.16563E-05-7.31177E-06
 -1     20643 7.08653E-05 2.30255E-05-5.58017E-06
 -1     20644 7.25839E-05 1.74259E-05-5.66675E-06
 -1     20645 7.16205E-05 2.32709E-05-5.66675E-06
 -1     20650 7.08653E-05 2.30255E-05-5.75333E-06
 -1     20651 7.25839E-05 1.74259E-05-5.83991E-06
 -1     20652 7.16205E-05 2.32709E-05-5.83991E-06
 -1     20657 7.08653E-05 2.30255E-05-5.92649E-06
 -1     20658 7.25839E-05 1.74259E-05-6.01307E-06
 -1     20659 7.16205E-05 2.32709E-05-6.01307E-06
 -1     20664 7.08653E-05 2.30255E-05-6.09965E-06
 -1     20665 7.25839E-05 1.74259E-05-6.18623E-06
 -1     20666 7.16205E-05 2.32709E-05-6.18623E-06
 -1     20671 7.08653E-05 2.30255E-05-6.27281E-06
 -1     20672 7.25839E-05 1.74259E-05-6.35939E-06
 -1     20673 7.16205E-05 2.32709E-05-6.35939E-06
 -1     20678 7.08653E-05 2.30255E-05-6.44597E-06
 -1     20679 7.25839E-05 1.74259E-05-6.53255E-06
 -1     20680 7.16205E-05 2.32709E-05-6.53255E-06
 -1     20685 7.08653E-05 2.30255E-05-6.61913E-06
 -1     20686 7.25839E-05 1.74259E-05-6.70571E-06
 -1     20687 7.16205E-05 2.32709E-05-6.70571E-06
 -1     20692 7.08653E-05 2.30255E-05-6.79229E-06
 -1     20693 7.25839E-05 1.74259E-05-6.87887E-06
 -1     20694 7.16205E-05 2.32709E-05-6.87887E-06
 -1     20699 7.08653E-05 2.30255E-05-6.96545E-06
 -1     20700 7.25839E-05 1.74259E-05-7.05203E-06
 -1     20701 7.16205E-05 2.32709E-05-7.05203E-06
 -1     20706 7.08653E-05 2.30255E-05-7.13861E-06
 -1     20707 7.25839E-05 1.74259E-05-7.22519E-06
 -1     20708 7.16205E-05 2.32709E-05-7.22519E-06
 -1     20713 7.08653E-05 2.30255E-05-7.31177E-06
 -1     20717 6.63908E-05 3.38278E-05-5.58017E-06
 -1     20718 6.89643E-05 2.85659E-05-5.66675E-06
 -1     20719 6.70983E-05 3.41883E-05-5.66675E-06
 -1     20724 6.63908E-05 3.38278E-05-5.75333E-06
 -1     20725 6.89643E-05 2.85659E-05-5.83991E-06
 -1     20726 6.70983E-05 3.41883E-05-5.83991E-06
 -1     20731 6.63908E-05 3.38278E-05-5.92649E-06
 -1     20732 6.89643E-05 2.85659E-05-6.01307E-06
 -1     20733 6.70983E-05 3.41883E-05-6.01307E-06
 -1     20738 6.63908E-05 3.38278E-05-6.09965E-06
 -1     20739 6.89643E-05 2.85659E-05-6.18623E-06
 -1     20740 6.70983E-05 3.41883E-05-6.18623E-06
 -1     20745 6.63908E-05 3.38278E-05-6.27281E-06
 -1     20746 6.89643E-05 2.85659E-05-6.35939E-06
 -1     20747 6.70983E-05 3.41883E-05-6.35939E-06
 -1     20752 6.63908E-05 3.38278E-05-6.44597E-06
 -1     20753 6.89643E-05 2.85659E-05-6.53255E-06
 -1     20754 6.70983E-05 3.41883E-05-6.53255E-06
 -1     20759 6.63908E-05 3.38278E-05-6.61913E-06
 -1     20760 6.89643E-05 2.85659E-05-6.70571E-06
 -1     20761 6.70983E-05 3.41883E-05-6.70571E-06
 -1     20766 6.63908E-05 3.38278E-05-6.79229E-06
 -1     20767 6.89643E-05 2.85659E-05-6.87887E-06
 -1     20768 6.70983E-05 3.41883E-05-6.87887E-06
 -1     20773 6.63908E-05 3.38278E-05-6.96545E-06
 -1     20774 6.89643E-05 2.85659E-05-7.05203E-06
 -1     20775 6.70983E-05 3.41883E-05-7.05203E-06
 -1     20780 6.63908E-05 3.38278E-05-7.13861E-06
 -1     20781 6.89643E-05 2.85659E-05-7.22519E-06
 -1     20782 6.70983E-05 3.41883E-05-7.22519E-06
 -1     20787 6.63908E-05 3.38278E-05-7.31177E-06
 -1     20791 6.02816E-05 4.37971E-05-5.58017E-06
 -1     20792 6.36465E-05 3.90026E-05-5.66675E-06
 -1     20793 6.09240E-05 4.42639E-05-5.66675E-06
 -1     20798 6.02816E-05 4.37971E-05-5.75333E-06
 -1     20799 6.36465E-05 3.90026E-05-5.83991E-06
 -1     20800 6.09240E-05 4.42639E-05-5.83991E-06
 -1     20805 6.02816E-05 4.37971E-05-5.92649E-06
 -1     20806 6.36465E-05 3.90026E-05-6.01307E-06
 -1     20807 6.09240E-05 4.42639E-05-6.01307E-06
 -1     20812 6.02816E-05 4.37971E-05-6.09965E-06
 -1     20813 6.36465E-05 3.90026E-05-6.18623E-06
 -1     20814 6.09240E-05 4.42639E-05-6.18623E-06
 -1     20819 6.02816E-05 4.37971E-05-6.27281E-06
 -1     20820 6.36465E-05 3.90026E-05-6.35939E-06
 -1     20821 6.09240E-05 4.42639E-05-6.35939E-06
 -1     20826 6.02816E-05 4.37971E-05-6.44597E-06
 -1     20827 6.36465E-05 3.90026E-05-6.53255E-06
 -1     20828 6.09240E-05 4.42639E-05-6.53255E-06
 -1     20833 6.02816E-05 4.37971E-05-6.61913E-06
 -1     20834 6.36465E-05 3.90026E-05-6.70571E-06
 -1     20835 6.09240E-05 4.42639E-05-6.70571E-06
 -1     20840 6.02816E-05 4.37971E-05-6.79229E-06
 -1     20841 6.36465E-05 3.90026E-05-6.87887E-06
 -1     20842 6.09240E-05 4.42639E-05-6.87887E-06
 -1     20847 6.02816E-05 4.37971E-05-6.96545E-06
 -1     20848 6.36465E-05 3.90026E-05-7.05203E-06
 -1     20849 6.09240E-05 4.42639E-05-7.05203E-06
 -1     20854 6.02816E-05 4.37971E-05-7.13861E-06
 -1     20855 6.36465E-05 3.90026E-05-7.22519E-06
 -1     20856 6.09240E-05 4.42639E-05-7.22519E-06
 -1     20861 6.02816E-05 4.37971E-05-7.31177E-06
 -1     20865 5.26880E-05 5.26880E-05-5.58017E-06
 -1     20866 5.67616E-05 4.84790E-05-5.66675E-06
 -1     20867 5.32495E-05 5.32495E-05-5.66675E-06
 -1     20872 5.26880E-05 5.26880E-05-5.75333E-06
 -1     20873 5.67616E-05 4.84790E-05-5.83991E-06
 -1     20874 5.32495E-05 5.32495E-05-5.83991E-06
 -1     20879 5.26880E-05 5.26880E-05-5.92649E-06
 -1     20880 5.67616E-05 4.84790E-05-6.01307E-06
 -1     20881 5.32495E-05 5.32495E-05-6.01307E-06
 -1     20886 5.26880E-05 5.26880E-05-6.09965E-06
 -1     20887 5.67616E-05 4.84790E-05-6.18623E-06
 -1     20888 5.32495E-05 5.32495E-05-6.18623E-06
 -1     20893 5.26880E-05 5.26880E-05-6.27281E-06
 -1     20894 5.67616E-05 4.84790E-05-6.35939E-06
 -1     20895 5.32495E-05 5.32495E-05-6.35939E-06
 -1     20900 5.26880E-05 5.26880E-05-6.44597E-06
 -1     20901 5.67616E-05 4.84790E-05-6.53255E-06
 -1     20902 5.32495E-05 5.32495E-05-6.53255E-06
 -1     20907 5.26880E-05 5.26880E-05-6.61913E-06
 -1     20908 5.67616E-05 4.84790E-05-6.70571E-06
 -1     20909 5.32495E-05 5.32495E-05-6.70571E-06
 -1     20914 5.26880E-05 5.26880E-05-6.79229E-06
 -1     20915 5.67616E-05 4.84790E-05-6.87887E-06
 -1     20916 5.32495E-05 5.32495E-05-6.87887E-06
 -1     20921 5.26880E-05 5.26880E-05-6.96545E-06
 -1     20922 5.67616E-05 4.84790E-05-7.05203E-06
 -1     20923 5.32495E-05 5.32495E-05-7.05203E-06
 -1     20928 5.26880E-05 5.26880E-05-7.13861E-06
 -1     20929 5.67616E-05 4.84790E-05-7.22519E-06
 -1     20930 5.32495E-05 5.32495E-05-7.22519E-06
 -1     20935 5.26880E-05 5.26880E-05-7.31177E-06
 -1     20939 4.37971E-05 6.02816E-05-5.58017E-06
 -1     20940 4.84790E-05 5.67616E-05-5.66675E-06
 -1     20941 4.42639E-05 6.09240E-05-5.66675E-06
 -1     20946 4.37971E-05 6.02816E-05-5.75333E-06
 -1     20947 4.84790E-05 5.67616E-05-5.83991E-06
 -1     20948 4.42639E-05 6.09240E-05-5.83991E-06
 -1     20953 4.37971E-05 6.02816E-05-5.92649E-06
 -1     20954 4.84790E-05 5.67616E-05-6.01307E-06
 -1     20955 4.42639E-05 6.09240E-05-6.01307E-06
 -1     20960 4.37971E-05 6.02816E-05-6.09965E-06
 -1     20961 4.84790E-05 5.67616E-05-6.18623E-06
 -1     20962 4.42639E-05 6.09240E-05-6.18623E-06
 -1     20967 4.37971E-05 6.02816E-05-6.27281E-06
 -1     20968 4.84790E-05 5.67616E-05-6.35939E-06
 -1     20969 4.42639E-05 6.09240E-05-6.35939E-06
 -1     20974 4.37971E-05 6.02816E-05-6.44597E-06
 -1     20975 4.84790E-05 5.67616E-05-6.53255E-06
 -1     20976 4.42639E-05 6.09240E-05-6.53255E-06
 -1     20981 4.37971E-05 6.02816E-05-6.61913E-06
 -1     20982 4.84790E-05 5.67616E-05-6.70571E-06
 -1     20983 4.42639E-05 6.09240E-05-6.70571E-06
 -1     20988 4.37971E-05 6.02816E-05-6.79229E-06
 -1     20989 4.84790E-05 5.67616E-05-6.87887E-06
 -1     20990 4.42639E-05 6.09240E-05-6.87887E-06
 -1     20995 4.37971E-05 6.02816E-05-6.96545E-06
 -1     20996 4.84790E-05 5.67616E-05-7.05203E-06
 -1     20997 4.42639E-05 6.09240E-05-7.05203E-06
 -1     21002 4.37971E-05 6.02816E-05-7.13861E-06
 -1     21003 4.84790E-05 5.67616E-05-7.22519E-06
 -1     21004 4.42639E-05 6.09240E-05-7.22519E-06
 -1     21009 4.37971E-05 6.02816E-05-7.31177E-06
 -1     21013 3.38278E-05 6.63908E-05-5.58017E-06
 -1     21014 3.90026E-05 6.36465E-05-5.66675E-06
 -1     21015 3.41883E-05 6.70983E-05-5.66675E-06
 -1     21020 3.38278E-05 6.63908E-05-5.75333E-06
 -1     21021 3.90026E-05 6.36465E-05-5.83991E-06
 -1     21022 3.41883E-05 6.70983E-05-5.83991E-06
 -1     21027 3.38278E-05 6.63908E-05-5.92649E-06
 -1     21028 3.90026E-05 6.36465E-05-6.01307E-06
 -1     21029 3.41883E-05 6.70983E-05-6.01307E-06
 -1     21034 3.38278E-05 6.63908E-05-6.09965E-06
 -1     21035 3.90026E-05 6.36465E-05-6.18623E-06
 -1     21036 3.41883E-05 6.70983E-05-6.18623E-06
 -1     21041 3.38278E-05 6.63908E-05-6.27281E-06
 -1     21042 3.90026E-05 6.36465E-05-6.35939E-06
 -1     21043 3.41883E-05 6.70983E-05-6.35939E-06
 -1     21048 3.38278E-05 6.63908E-05-6.44597E-06
 -1     21049 3.90026E-05 6.36465E-05-6.53255E-06
 -1     21050 3.41883E-05 6.70983E-05-6.53255E-06
 -1     21055 3.38278E-05 6.63908E-05-6.61913E-06
 -1     21056 3.90026E-05 6.36465E-05-6.70571E-06
 -1     21057 3.41883E-05 6.70983E-05-6.70571E-06
 -1     21062 3.38278E-05 6.63908E-05-6.79229E-06
 -1     21063 3.90026E-05 6.36465E-05-6.87887E-06
 -1     21064 3.41883E-05 6.70983E-05-6.87887E-06
 -1     21069 3.38278E-05 6.63908E-05-6.96545E-06
 -1     21070 3.90026E-05 6.36465E-05-7.05203E-06
 -1     21071 3.41883E-05 6.70983E-05-7.05203E-06
 -1     21076 3.38278E-05 6.63908E-05-7.13861E-06
 -1     21077 3.90026E-05 6.36465E-05-7.22519E-06
 -1     21078 3.41883E-05 6.70983E-05-7.22519E-06
 -1     21083 3.38278E-05 6.63908E-05-7.31177E-06
 -1     21087 2.30255E-05 7.08653E-05-5.58017E-06
 -1     21088 2.85659E-05 6.89643E-05-5.66675E-06
 -1     21089 2.32709E-05 7.16205E-05-5.66675E-06
 -1     21094 2.30255E-05 7.08653E-05-5.75333E-06
 -1     21095 2.85659E-05 6.89643E-05-5.83991E-06
 -1     21096 2.32709E-05 7.16205E-05-5.83991E-06
 -1     21101 2.30255E-05 7.08653E-05-5.92649E-06
 -1     21102 2.85659E-05 6.89643E-05-6.01307E-06
 -1     21103 2.32709E-05 7.16205E-05-6.01307E-06
 -1     21108 2.30255E-05 7.08653E-05-6.09965E-06
 -1     21109 2.85659E-05 6.89643E-05-6.18623E-06
 -1     21110 2.32709E-05 7.16205E-05-6.18623E-06
 -1     21115 2.30255E-05 7.08653E-05-6.27281E-06
 -1     21116 2.85659E-05 6.89643E-05-6.35939E-06
 -1     21117 2.32709E-05 7.16205E-05-6.35939E-06
 -1     21122 2.30255E-05 7.08653E-05-6.44597E-06
 -1     21123 2.85659E-05 6.89643E-05-6.53255E-06
 -1     21124 2.32709E-05 7.16205E-05-6.53255E-06
 -1     21129 2.30255E-05 7.08653E-05-6.61913E-06
 -1     21130 2.85659E-05 6.89643E-05-6.70571E-06
 -1     21131 2.32709E-05 7.16205E-05-6.70571E-06
 -1     21136 2.30255E-05 7.08653E-05-6.79229E-06
 -1     21137 2.85659E-05 6.89643E-05-6.87887E-06
 -1     21138 2.32709E-05 7.16205E-05-6.87887E-06
 -1     21143 2.30255E-05 7.08653E-05-6.96545E-06
 -1     21144 2.85659E-05 6.89643E-05-7.05203E-06
 -1     21145 2.32709E-05 7.16205E-05-7.05203E-06
 -1     21150 2.30255E-05 7.08653E-05-7.13861E-06
 -1     21151 2.85659E-05 6.89643E-05-7.22519E-06
 -1     21152 2.32709E-05 7.16205E-05-7.22519E-06
 -1     21157 2.30255E-05 7.08653E-05-7.31177E-06
 -1     21161 1.16563E-05 7.35948E-05-5.58017E-06
 -1     21162 1.74259E-05 7.25839E-05-5.66675E-06
 -1     21163 1.17805E-05 7.43791E-05-5.66675E-06
 -1     21168 1.16563E-05 7.35948E-05-5.75333E-06
 -1     21169 1.74259E-05 7.25839E-05-5.83991E-06
 -1     21170 1.17805E-05 7.43791E-05-5.83991E-06
 -1     21175 1.16563E-05 7.35948E-05-5.92649E-06
 -1     21176 1.74259E-05 7.25839E-05-6.01307E-06
 -1     21177 1.17805E-05 7.43791E-05-6.01307E-06
 -1     21182 1.16563E-05 7.35948E-05-6.09965E-06
 -1     21183 1.74259E-05 7.25839E-05-6.18623E-06
 -1     21184 1.17805E-05 7.43791E-05-6.18623E-06
 -1     21189 1.16563E-05 7.35948E-05-6.27281E-06
 -1     21190 1.74259E-05 7.25839E-05-6.35939E-06
 -1     21191 1.17805E-05 7.43791E-05-6.35939E-06
 -1     21196 1.16563E-05 7.35948E-05-6.44597E-06
 -1     21197 1.74259E-05 7.25839E-05-6.53255E-06
 -1     21198 1.17805E-05 7.43791E-05-6.53255E-06
 -1     21203 1.16563E-05 7.35948E-05-6.61913E-06
 -1     21204 1.74259E-05 7.25839E-05-6.70571E-06
 -1     21205 1.17805E-05 7.43791E-05-6.70571E-06
 -1     21210 1.16563E-05 7.35948E-05-6.79229E-06
 -1     21211 1.74259E-05 7.25839E-05-6.87887E-06
 -1     21212 1.17805E-05 7.43791E-05-6.87887E-06
 -1     21217 1.16563E-05 7.35948E-05-6.96545E-06
 -1     21218 1.74259E-05 7.25839E-05-7.05203E-06
 -1     21219 1.17805E-05 7.43791E-05-7.05203E-06
 -1     21224 1.16563E-05 7.35948E-05-7.13861E-06
 -1     21225 1.74259E-05 7.25839E-05-7.22519E-06
 -1     21226 1.17805E-05 7.43791E-05-7.22519E-06
 -1     21231 1.16563E-05 7.35948E-05-7.31177E-06
 -1     21235 5.85669E-06 7.44163E-05-5.66675E-06
 -1     21239 5.85669E-06 7.44163E-05-5.83991E-06
 -1     21243 5.85669E-06 7.44163E-05-6.01307E-06
 -1     21247 5.85669E-06 7.44163E-05-6.18623E-06
 -1     21251 5.85669E-06 7.44163E-05-6.35939E-06
 -1     21255 5.85669E-06 7.44163E-05-6.53255E-06
 -1     21259 5.85669E-06 7.44163E-05-6.70571E-06
 -1     21263 5.85669E-06 7.44163E-05-6.87887E-06
 -1     21267 5.85669E-06 7.44163E-05-7.05203E-06
 -1     21271 5.85669E-06 7.44163E-05-7.22519E-06
 -1     21277 7.21355E-05 1.14251E-05-5.58017E-06
 -1     21278 7.29355E-05 5.74015E-06-5.66675E-06
 -1     21279 7.28475E-05 1.15379E-05-5.66675E-06
 -1     21284 7.21355E-05 1.14251E-05-5.75333E-06
 -1     21285 7.29355E-05 5.74015E-06-5.83991E-06
 -1     21286 7.28475E-05 1.15379E-05-5.83991E-06
 -1     21291 7.21355E-05 1.14251E-05-5.92649E-06
 -1     21292 7.29355E-05 5.74015E-06-6.01307E-06
 -1     21293 7.28475E-05 1.15379E-05-6.01307E-06
 -1     21298 7.21355E-05 1.14251E-05-6.09965E-06
 -1     21299 7.29355E-05 5.74015E-06-6.18623E-06
 -1     21300 7.28475E-05 1.15379E-05-6.18623E-06
 -1     21305 7.21355E-05 1.14251E-05-6.27281E-06
 -1     21306 7.29355E-05 5.74015E-06-6.35939E-06
 -1     21307 7.28475E-05 1.15379E-05-6.35939E-06
 -1     21312 7.21355E-05 1.14251E-05-6.44597E-06
 -1     21313 7.29355E-05 5.74015E-06-6.53255E-06
 -1     21314 7.28475E-05 1.15379E-05-6.53255E-06
 -1     21319 7.21355E-05 1.14251E-05-6.61913E-06
 -1     21320 7.29355E-05 5.74015E-06-6.70571E-06
 -1     21321 7.28475E-05 1.15379E-05-6.70571E-06
 -1     21326 7.21355E-05 1.14251E-05-6.79229E-06
 -1     21327 7.29355E-05 5.74015E-06-6.87887E-06
 -1     21328 7.28475E-05 1.15379E-05-6.87887E-06
 -1     21333 7.21355E-05 1.14251E-05-6.96545E-06
 -1     21334 7.29355E-05 5.74015E-06-7.05203E-06
 -1     21335 7.28475E-05 1.15379E-05-7.05203E-06
 -1     21340 7.21355E-05 1.14251E-05-7.13861E-06
 -1     21341 7.29355E-05 5.74015E-06-7.22519E-06
 -1     21342 7.28475E-05 1.15379E-05-7.22519E-06
 -1     21347 7.21355E-05 1.14251E-05-7.31177E-06
 -1     21351 6.94601E-05 2.25690E-05-5.58017E-06
 -1     21352 7.11395E-05 1.70791E-05-5.66675E-06
 -1     21353 7.01457E-05 2.27917E-05-5.66675E-06
 -1     21358 6.94601E-05 2.25690E-05-5.75333E-06
 -1     21359 7.11395E-05 1.70791E-05-5.83991E-06
 -1     21360 7.01457E-05 2.27917E-05-5.83991E-06
 -1     21365 6.94601E-05 2.25690E-05-5.92649E-06
 -1     21366 7.11395E-05 1.70791E-05-6.01307E-06
 -1     21367 7.01457E-05 2.27917E-05-6.01307E-06
 -1     21372 6.94601E-05 2.25690E-05-6.09965E-06
 -1     21373 7.11395E-05 1.70791E-05-6.18623E-06
 -1     21374 7.01457E-05 2.27917E-05-6.18623E-06
 -1     21379 6.94601E-05 2.25690E-05-6.27281E-06
 -1     21380 7.11395E-05 1.70791E-05-6.35939E-06
 -1     21381 7.01457E-05 2.27917E-05-6.35939E-06
 -1     21386 6.94601E-05 2.25690E-05-6.44597E-06
 -1     21387 7.11395E-05 1.70791E-05-6.53255E-06
 -1     21388 7.01457E-05 2.27917E-05-6.53255E-06
 -1     21393 6.94601E-05 2.25690E-05-6.61913E-06
 -1     21394 7.11395E-05 1.70791E-05-6.70571E-06
 -1     21395 7.01457E-05 2.27917E-05-6.70571E-06
 -1     21400 6.94601E-05 2.25690E-05-6.79229E-06
 -1     21401 7.11395E-05 1.70791E-05-6.87887E-06
 -1     21402 7.01457E-05 2.27917E-05-6.87887E-06
 -1     21407 6.94601E-05 2.25690E-05-6.96545E-06
 -1     21408 7.11395E-05 1.70791E-05-7.05203E-06
 -1     21409 7.01457E-05 2.27917E-05-7.05203E-06
 -1     21414 6.94601E-05 2.25690E-05-7.13861E-06
 -1     21415 7.11395E-05 1.70791E-05-7.22519E-06
 -1     21416 7.01457E-05 2.27917E-05-7.22519E-06
 -1     21421 6.94601E-05 2.25690E-05-7.31177E-06
 -1     21425 6.50744E-05 3.31571E-05-5.58017E-06
 -1     21426 6.75919E-05 2.79975E-05-5.66675E-06
 -1     21427 6.57167E-05 3.34843E-05-5.66675E-06
 -1     21432 6.50744E-05 3.31571E-05-5.75333E-06
 -1     21433 6.75919E-05 2.79975E-05-5.83991E-06
 -1     21434 6.57167E-05 3.34843E-05-5.83991E-06
 -1     21439 6.50744E-05 3.31571E-05-5.92649E-06
 -1     21440 6.75919E-05 2.79975E-05-6.01307E-06
 -1     21441 6.57167E-05 3.34843E-05-6.01307E-06
 -1     21446 6.50744E-05 3.31571E-05-6.09965E-06
 -1     21447 6.75919E-05 2.79975E-05-6.18623E-06
 -1     21448 6.57167E-05 3.34843E-05-6.18623E-06
 -1     21453 6.50744E-05 3.31571E-05-6.27281E-06
 -1     21454 6.75919E-05 2.79975E-05-6.35939E-06
 -1     21455 6.57167E-05 3.34843E-05-6.35939E-06
 -1     21460 6.50744E-05 3.31571E-05-6.44597E-06
 -1     21461 6.75919E-05 2.79975E-05-6.53255E-06
 -1     21462 6.57167E-05 3.34843E-05-6.53255E-06
 -1     21467 6.50744E-05 3.31571E-05-6.61913E-06
 -1     21468 6.75919E-05 2.79975E-05-6.70571E-06
 -1     21469 6.57167E-05 3.34843E-05-6.70571E-06
 -1     21474 6.50744E-05 3.31571E-05-6.79229E-06
 -1     21475 6.75919E-05 2.79975E-05-6.87887E-06
 -1     21476 6.57167E-05 3.34843E-05-6.87887E-06
 -1     21481 6.50744E-05 3.31571E-05-6.96545E-06
 -1     21482 6.75919E-05 2.79975E-05-7.05203E-06
 -1     21483 6.57167E-05 3.34843E-05-7.05203E-06
 -1     21488 6.50744E-05 3.31571E-05-7.13861E-06
 -1     21489 6.75919E-05 2.79975E-05-7.22519E-06
 -1     21490 6.57167E-05 3.34843E-05-7.22519E-06
 -1     21495 6.50744E-05 3.31571E-05-7.31177E-06
 -1     21499 5.90863E-05 4.29287E-05-5.58017E-06
 -1     21500 6.23800E-05 3.82265E-05-5.66675E-06
 -1     21501 5.96695E-05 4.33524E-05-5.66675E-06
 -1     21506 5.90863E-05 4.29287E-05-5.75333E-06
 -1     21507 6.23800E-05 3.82265E-05-5.83991E-06
 -1     21508 5.96695E-05 4.33524E-05-5.83991E-06
 -1     21513 5.90863E-05 4.29287E-05-5.92649E-06
 -1     21514 6.23800E-05 3.82265E-05-6.01307E-06
 -1     21515 5.96695E-05 4.33524E-05-6.01307E-06
 -1     21520 5.90863E-05 4.29287E-05-6.09965E-06
 -1     21521 6.23800E-05 3.82265E-05-6.18623E-06
 -1     21522 5.96695E-05 4.33524E-05-6.18623E-06
 -1     21527 5.90863E-05 4.29287E-05-6.27281E-06
 -1     21528 6.23800E-05 3.82265E-05-6.35939E-06
 -1     21529 5.96695E-05 4.33524E-05-6.35939E-06
 -1     21534 5.90863E-05 4.29287E-05-6.44597E-06
 -1     21535 6.23800E-05 3.82265E-05-6.53255E-06
 -1     21536 5.96695E-05 4.33524E-05-6.53255E-06
 -1     21541 5.90863E-05 4.29287E-05-6.61913E-06
 -1     21542 6.23800E-05 3.82265E-05-6.70571E-06
 -1     21543 5.96695E-05 4.33524E-05-6.70571E-06
 -1     21548 5.90863E-05 4.29287E-05-6.79229E-06
 -1     21549 6.23800E-05 3.82265E-05-6.87887E-06
 -1     21550 5.96695E-05 4.33524E-05-6.87887E-06
 -1     21555 5.90863E-05 4.29287E-05-6.96545E-06
 -1     21556 6.23800E-05 3.82265E-05-7.05203E-06
 -1     21557 5.96695E-05 4.33524E-05-7.05203E-06
 -1     21562 5.90863E-05 4.29287E-05-7.13861E-06
 -1     21563 6.23800E-05 3.82265E-05-7.22519E-06
 -1     21564 5.96695E-05 4.33524E-05-7.22519E-06
 -1     21569 5.90863E-05 4.29287E-05-7.31177E-06
 -1     21573 5.16433E-05 5.16433E-05-5.58017E-06
 -1     21574 5.56321E-05 4.75143E-05-5.66675E-06
 -1     21575 5.21530E-05 5.21530E-05-5.66675E-06
 -1     21580 5.16433E-05 5.16433E-05-5.75333E-06
 -1     21581 5.56321E-05 4.75143E-05-5.83991E-06
 -1     21582 5.21530E-05 5.21530E-05-5.83991E-06
 -1     21587 5.16433E-05 5.16433E-05-5.92649E-06
 -1     21588 5.56321E-05 4.75143E-05-6.01307E-06
 -1     21589 5.21530E-05 5.21530E-05-6.01307E-06
 -1     21594 5.16433E-05 5.16433E-05-6.09965E-06
 -1     21595 5.56321E-05 4.75143E-05-6.18623E-06
 -1     21596 5.21530E-05 5.21530E-05-6.18623E-06
 -1     21601 5.16433E-05 5.16433E-05-6.27281E-06
 -1     21602 5.56321E-05 4.75143E-05-6.35939E-06
 -1     21603 5.21530E-05 5.21530E-05-6.35939E-06
 -1     21608 5.16433E-05 5.16433E-05-6.44597E-06
 -1     21609 5.56321E-05 4.75143E-05-6.53255E-06
 -1     21610 5.21530E-05 5.21530E-05-6.53255E-06
 -1     21615 5.16433E-05 5.16433E-05-6.61913E-06
 -1     21616 5.56321E-05 4.75143E-05-6.70571E-06
 -1     21617 5.21530E-05 5.21530E-05-6.70571E-06
 -1     21622 5.16433E-05 5.16433E-05-6.79229E-06
 -1     21623 5.56321E-05 4.75143E-05-6.87887E-06
 -1     21624 5.21530E-05 5.21530E-05-6.87887E-06
 -1     21629 5.16433E-05 5.16433E-05-6.96545E-06
 -1     21630 5.56321E-05 4.75143E-05-7.05203E-06
 -1     21631 5.21530E-05 5.21530E-05-7.05203E-06
 -1     21636 5.16433E-05 5.16433E-05-7.13861E-06
 -1     21637 5.56321E-05 4.75143E-05-7.22519E-06
 -1     21638 5.21530E-05 5.21530E-05-7.22519E-06
 -1     21643 5.16433E-05 5.16433E-05-7.31177E-06
 -1     21647 4.29287E-05 5.90863E-05-5.58017E-06
 -1     21648 4.75143E-05 5.56321E-05-5.66675E-06
 -1     21649 4.33524E-05 5.96695E-05-5.66675E-06
 -1     21654 4.29287E-05 5.90863E-05-5.75333E-06
 -1     21655 4.75143E-05 5.56321E-05-5.83991E-06
 -1     21656 4.33524E-05 5.96695E-05-5.83991E-06
 -1     21661 4.29287E-05 5.90863E-05-5.92649E-06
 -1     21662 4.75143E-05 5.56321E-05-6.01307E-06
 -1     21663 4.33524E-05 5.96695E-05-6.01307E-06
 -1     21668 4.29287E-05 5.90863E-05-6.09965E-06
 -1     21669 4.75143E-05 5.56321E-05-6.18623E-06
 -1     21670 4.33524E-05 5.96695E-05-6.18623E-06
 -1     21675 4.29287E-05 5.90863E-05-6.27281E-06
 -1     21676 4.75143E-05 5.56321E-05-6.35939E-06
 -1     21677 4.33524E-05 5.96695E-05-6.35939E-06
 -1     21682 4.29287E-05 5.90863E-05-6.44597E-06
 -1     21683 4.75143E-05 5.56321E-05-6.53255E-06
 -1     21684 4.33524E-05 5.96695E-05-6.53255E-06
 -1     21689 4.29287E-05 5.90863E-05-6.61913E-06
 -1     21690 4.75143E-05 5.56321E-05-6.70571E-06
 -1     21691 4.33524E-05 5.96695E-05-6.70571E-06
 -1     21696 4.29287E-05 5.90863E-05-6.79229E-06
 -1     21697 4.75143E-05 5.56321E-05-6.87887E-06
 -1     21698 4.33524E-05 5.96695E-05-6.87887E-06
 -1     21703 4.29287E-05 5.90863E-05-6.96545E-06
 -1     21704 4.75143E-05 5.56321E-05-7.05203E-06
 -1     21705 4.33524E-05 5.96695E-05-7.05203E-06
 -1     21710 4.29287E-05 5.90863E-05-7.13861E-06
 -1     21711 4.75143E-05 5.56321E-05-7.22519E-06
 -1     21712 4.33524E-05 5.96695E-05-7.22519E-06
 -1     21717 4.29287E-05 5.90863E-05-7.31177E-06
 -1     21721 3.31571E-05 6.50744E-05-5.58017E-06
 -1     21722 3.82265E-05 6.23800E-05-5.66675E-06
 -1     21723 3.34843E-05 6.57167E-05-5.66675E-06
 -1     21728 3.31571E-05 6.50744E-05-5.75333E-06
 -1     21729 3.82265E-05 6.23800E-05-5.83991E-06
 -1     21730 3.34843E-05 6.57167E-05-5.83991E-06
 -1     21735 3.31571E-05 6.50744E-05-5.92649E-06
 -1     21736 3.82265E-05 6.23800E-05-6.01307E-06
 -1     21737 3.34843E-05 6.57167E-05-6.01307E-06
 -1     21742 3.31571E-05 6.50744E-05-6.09965E-06
 -1     21743 3.82265E-05 6.23800E-05-6.18623E-06
 -1     21744 3.34843E-05 6.57167E-05-6.18623E-06
 -1     21749 3.31571E-05 6.50744E-05-6.27281E-06
 -1     21750 3.82265E-05 6.23800E-05-6.35939E-06
 -1     21751 3.34843E-05 6.57167E-05-6.35939E-06
 -1     21756 3.31571E-05 6.50744E-05-6.44597E-06
 -1     21757 3.82265E-05 6.23800E-05-6.53255E-06
 -1     21758 3.34843E-05 6.57167E-05-6.53255E-06
 -1     21763 3.31571E-05 6.50744E-05-6.61913E-06
 -1     21764 3.82265E-05 6.23800E-05-6.70571E-06
 -1     21765 3.34843E-05 6.57167E-05-6.70571E-06
 -1     21770 3.31571E-05 6.50744E-05-6.79229E-06
 -1     21771 3.82265E-05 6.23800E-05-6.87887E-06
 -1     21772 3.34843E-05 6.57167E-05-6.87887E-06
 -1     21777 3.31571E-05 6.50744E-05-6.96545E-06
 -1     21778 3.82265E-05 6.23800E-05-7.05203E-06
 -1     21779 3.34843E-05 6.57167E-05-7.05203E-06
 -1     21784 3.31571E-05 6.50744E-05-7.13861E-06
 -1     21785 3.82265E-05 6.23800E-05-7.22519E-06
 -1     21786 3.34843E-05 6.57167E-05-7.22519E-06
 -1     21791 3.31571E-05 6.50744E-05-7.31177E-06
 -1     21795 2.25690E-05 6.94601E-05-5.58017E-06
 -1     21796 2.79975E-05 6.75919E-05-5.66675E-06
 -1     21797 2.27917E-05 7.01457E-05-5.66675E-06
 -1     21802 2.25690E-05 6.94601E-05-5.75333E-06
 -1     21803 2.79975E-05 6.75919E-05-5.83991E-06
 -1     21804 2.27917E-05 7.01457E-05-5.83991E-06
 -1     21809 2.25690E-05 6.94601E-05-5.92649E-06
 -1     21810 2.79975E-05 6.75919E-05-6.01307E-06
 -1     21811 2.27917E-05 7.01457E-05-6.01307E-06
 -1     21816 2.25690E-05 6.94601E-05-6.09965E-06
 -1     21817 2.79975E-05 6.75919E-05-6.18623E-06
 -1     21818 2.27917E-05 7.01457E-05-6.18623E-06
 -1     21823 2.25690E-05 6.94601E-05-6.27281E-06
 -1     21824 2.79975E-05 6.75919E-05-6.35939E-06
 -1     21825 2.27917E-05 7.01457E-05-6.35939E-06
 -1     21830 2.25690E-05 6.94601E-05-6.44597E-06
 -1     21831 2.79975E-05 6.75919E-05-6.53255E-06
 -1     21832 2.27917E-05 7.01457E-05-6.53255E-06
 -1     21837 2.25690E-05 6.94601E-05-6.61913E-06
 -1     21838 2.79975E-05 6.75919E-05-6.70571E-06
 -1     21839 2.27917E-05 7.01457E-05-6.70571E-06
 -1     21844 2.25690E-05 6.94601E-05-6.79229E-06
 -1     21845 2.79975E-05 6.75919E-05-6.87887E-06
 -1     21846 2.27917E-05 7.01457E-05-6.87887E-06
 -1     21851 2.25690E-05 6.94601E-05-6.96545E-06
 -1     21852 2.79975E-05 6.75919E-05-7.05203E-06
 -1     21853 2.27917E-05 7.01457E-05-7.05203E-06
 -1     21858 2.25690E-05 6.94601E-05-7.13861E-06
 -1     21859 2.79975E-05 6.75919E-05-7.22519E-06
 -1     21860 2.27917E-05 7.01457E-05-7.22519E-06
 -1     21865 2.25690E-05 6.94601E-05-7.31177E-06
 -1     21869 1.14251E-05 7.21355E-05-5.58017E-06
 -1     21870 1.70791E-05 7.11396E-05-5.66675E-06
 -1     21871 1.15379E-05 7.28475E-05-5.66675E-06
 -1     21876 1.14251E-05 7.21355E-05-5.75333E-06
 -1     21877 1.70791E-05 7.11396E-05-5.83991E-06
 -1     21878 1.15379E-05 7.28475E-05-5.83991E-06
 -1     21883 1.14251E-05 7.21355E-05-5.92649E-06
 -1     21884 1.70791E-05 7.11396E-05-6.01307E-06
 -1     21885 1.15379E-05 7.28475E-05-6.01307E-06
 -1     21890 1.14251E-05 7.21355E-05-6.09965E-06
 -1     21891 1.70791E-05 7.11396E-05-6.18623E-06
 -1     21892 1.15379E-05 7.28475E-05-6.18623E-06
 -1     21897 1.14251E-05 7.21355E-05-6.27281E-06
 -1     21898 1.70791E-05 7.11396E-05-6.35939E-06
 -1     21899 1.15379E-05 7.28475E-05-6.35939E-06
 -1     21904 1.14251E-05 7.21355E-05-6.44597E-06
 -1     21905 1.70791E-05 7.11396E-05-6.53255E-06
 -1     21906 1.15379E-05 7.28475E-05-6.53255E-06
 -1     21911 1.14251E-05 7.21355E-05-6.61913E-06
 -1     21912 1.70791E-05 7.11396E-05-6.70571E-06
 -1     21913 1.15379E-05 7.28475E-05-6.70571E-06
 -1     21918 1.14251E-05 7.21355E-05-6.79229E-06
 -1     21919 1.70791E-05 7.11396E-05-6.87887E-06
 -1     21920 1.15379E-05 7.28475E-05-6.87887E-06
 -1     21925 1.14251E-05 7.21355E-05-6.96545E-06
 -1     21926 1.70791E-05 7.11396E-05-7.05203E-06
 -1     21927 1.15379E-05 7.28475E-05-7.05203E-06
 -1     21932 1.14251E-05 7.21355E-05-7.13861E-06
 -1     21933 1.70791E-05 7.11396E-05-7.22519E-06
 -1     21934 1.15379E-05 7.28475E-05-7.22519E-06
 -1     21939 1.14251E-05 7.21355E-05-7.31177E-06
 -1     21943 5.74015E-06 7.29355E-05-5.66675E-06
 -1     21947 5.74015E-06 7.29355E-05-5.83991E-06
 -1     21951 5.74015E-06 7.29355E-05-6.01307E-06
 -1     21955 5.74015E-06 7.29355E-05-6.18623E-06
 -1     21959 5.74015E-06 7.29355E-05-6.35939E-06
 -1     21963 5.74015E-06 7.29355E-05-6.53255E-06
 -1     21967 5.74015E-06 7.29355E-05-6.70571E-06
 -1     21971 5.74015E-06 7.29355E-05-6.87887E-06
 -1     21975 5.74015E-06 7.29355E-05-7.05203E-06
 -1     21979 5.74015E-06 7.29355E-05-7.22519E-06
 -1     21985 7.08102E-05 1.12152E-05-5.58017E-06
 -1     21986 7.15901E-05 5.63427E-06-5.66675E-06
 -1     21987 7.14569E-05 1.13177E-05-5.66675E-06
 -1     21992 7.08102E-05 1.12152E-05-5.75333E-06
 -1     21993 7.15901E-05 5.63427E-06-5.83991E-06
 -1     21994 7.14569E-05 1.13177E-05-5.83991E-06
 -1     21999 7.08102E-05 1.12152E-05-5.92649E-06
 -1     22000 7.15901E-05 5.63427E-06-6.01307E-06
 -1     22001 7.14569E-05 1.13177E-05-6.01307E-06
 -1     22006 7.08102E-05 1.12152E-05-6.09965E-06
 -1     22007 7.15901E-05 5.63427E-06-6.18623E-06
 -1     22008 7.14569E-05 1.13177E-05-6.18623E-06
 -1     22013 7.08102E-05 1.12152E-05-6.27281E-06
 -1     22014 7.15901E-05 5.63427E-06-6.35939E-06
 -1     22015 7.14569E-05 1.13177E-05-6.35939E-06
 -1     22020 7.08102E-05 1.12152E-05-6.44597E-06
 -1     22021 7.15901E-05 5.63427E-06-6.53255E-06
 -1     22022 7.14569E-05 1.13177E-05-6.53255E-06
 -1     22027 7.08102E-05 1.12152E-05-6.61913E-06
 -1     22028 7.15901E-05 5.63427E-06-6.70571E-06
 -1     22029 7.14569E-05 1.13177E-05-6.70571E-06
 -1     22034 7.08102E-05 1.12152E-05-6.79229E-06
 -1     22035 7.15901E-05 5.63427E-06-6.87887E-06
 -1     22036 7.14569E-05 1.13177E-05-6.87887E-06
 -1     22041 7.08102E-05 1.12152E-05-6.96545E-06
 -1     22042 7.15901E-05 5.63427E-06-7.05203E-06
 -1     22043 7.14569E-05 1.13177E-05-7.05203E-06
 -1     22048 7.08102E-05 1.12152E-05-7.13861E-06
 -1     22049 7.15901E-05 5.63427E-06-7.22519E-06
 -1     22050 7.14569E-05 1.13177E-05-7.22519E-06
 -1     22055 7.08102E-05 1.12152E-05-7.31177E-06
 -1     22059 6.81839E-05 2.21543E-05-5.58017E-06
 -1     22060 6.98274E-05 1.67641E-05-5.66675E-06
 -1     22061 6.88067E-05 2.23566E-05-5.66675E-06
 -1     22066 6.81839E-05 2.21543E-05-5.75333E-06
 -1     22067 6.98274E-05 1.67641E-05-5.83991E-06
 -1     22068 6.88067E-05 2.23566E-05-5.83991E-06
 -1     22073 6.81839E-05 2.21543E-05-5.92649E-06
 -1     22074 6.98274E-05 1.67641E-05-6.01307E-06
 -1     22075 6.88067E-05 2.23566E-05-6.01307E-06
 -1     22080 6.81839E-05 2.21543E-05-6.09965E-06
 -1     22081 6.98274E-05 1.67641E-05-6.18623E-06
 -1     22082 6.88067E-05 2.23566E-05-6.18623E-06
 -1     22087 6.81839E-05 2.21543E-05-6.27281E-06
 -1     22088 6.98274E-05 1.67641E-05-6.35939E-06
 -1     22089 6.88067E-05 2.23566E-05-6.35939E-06
 -1     22094 6.81839E-05 2.21543E-05-6.44597E-06
 -1     22095 6.98274E-05 1.67641E-05-6.53255E-06
 -1     22096 6.88067E-05 2.23566E-05-6.53255E-06
 -1     22101 6.81839E-05 2.21543E-05-6.61913E-06
 -1     22102 6.98274E-05 1.67641E-05-6.70571E-06
 -1     22103 6.88067E-05 2.23566E-05-6.70571E-06
 -1     22108 6.81839E-05 2.21543E-05-6.79229E-06
 -1     22109 6.98274E-05 1.67641E-05-6.87887E-06
 -1     22110 6.88067E-05 2.23566E-05-6.87887E-06
 -1     22115 6.81839E-05 2.21543E-05-6.96545E-06
 -1     22116 6.98274E-05 1.67641E-05-7.05203E-06
 -1     22117 6.88067E-05 2.23566E-05-7.05203E-06
 -1     22122 6.81839E-05 2.21543E-05-7.13861E-06
 -1     22123 6.98274E-05 1.67641E-05-7.22519E-06
 -1     22124 6.88067E-05 2.23566E-05-7.22519E-06
 -1     22129 6.81839E-05 2.21543E-05-7.31177E-06
 -1     22133 6.38788E-05 3.25479E-05-5.58017E-06
 -1     22134 6.63452E-05 2.74811E-05-5.66675E-06
 -1     22135 6.44622E-05 3.28451E-05-5.66675E-06
 -1     22140 6.38788E-05 3.25479E-05-5.75333E-06
 -1     22141 6.63452E-05 2.74811E-05-5.83991E-06
 -1     22142 6.44622E-05 3.28451E-05-5.83991E-06
 -1     22147 6.38788E-05 3.25479E-05-5.92649E-06
 -1     22148 6.63452E-05 2.74811E-05-6.01307E-06
 -1     22149 6.44622E-05 3.28451E-05-6.01307E-06
 -1     22154 6.38788E-05 3.25479E-05-6.09965E-06
 -1     22155 6.63452E-05 2.74811E-05-6.18623E-06
 -1     22156 6.44622E-05 3.28451E-05-6.18623E-06
 -1     22161 6.38788E-05 3.25479E-05-6.27281E-06
 -1     22162 6.63452E-05 2.74811E-05-6.35939E-06
 -1     22163 6.44622E-05 3.28451E-05-6.35939E-06
 -1     22168 6.38788E-05 3.25479E-05-6.44597E-06
 -1     22169 6.63452E-05 2.74811E-05-6.53255E-06
 -1     22170 6.44622E-05 3.28451E-05-6.53255E-06
 -1     22175 6.38788E-05 3.25479E-05-6.61913E-06
 -1     22176 6.63452E-05 2.74811E-05-6.70571E-06
 -1     22177 6.44622E-05 3.28451E-05-6.70571E-06
 -1     22182 6.38788E-05 3.25479E-05-6.79229E-06
 -1     22183 6.63452E-05 2.74811E-05-6.87887E-06
 -1     22184 6.44622E-05 3.28451E-05-6.87887E-06
 -1     22189 6.38788E-05 3.25479E-05-6.96545E-06
 -1     22190 6.63452E-05 2.74811E-05-7.05203E-06
 -1     22191 6.44622E-05 3.28451E-05-7.05203E-06
 -1     22196 6.38788E-05 3.25479E-05-7.13861E-06
 -1     22197 6.63452E-05 2.74811E-05-7.22519E-06
 -1     22198 6.44622E-05 3.28451E-05-7.22519E-06
 -1     22203 6.38788E-05 3.25479E-05-7.31177E-06
 -1     22207 5.80007E-05 4.21400E-05-5.58017E-06
 -1     22208 6.12294E-05 3.75214E-05-5.66675E-06
 -1     22209 5.85304E-05 4.25249E-05-5.66675E-06
 -1     22214 5.80007E-05 4.21400E-05-5.75333E-06
 -1     22215 6.12294E-05 3.75214E-05-5.83991E-06
 -1     22216 5.85304E-05 4.25249E-05-5.83991E-06
 -1     22221 5.80007E-05 4.21400E-05-5.92649E-06
 -1     22222 6.12294E-05 3.75214E-05-6.01307E-06
 -1     22223 5.85304E-05 4.25249E-05-6.01307E-06
 -1     22228 5.80007E-05 4.21400E-05-6.09965E-06
 -1     22229 6.12294E-05 3.75214E-05-6.18623E-06
 -1     22230 5.85304E-05 4.25249E-05-6.18623E-06
 -1     22235 5.80007E-05 4.21400E-05-6.27281E-06
 -1     22236 6.12294E-05 3.75214E-05-6.35939E-06
 -1     22237 5.85304E-05 4.25249E-05-6.35939E-06
 -1     22242 5.80007E-05 4.21400E-05-6.44597E-06
 -1     22243 6.12294E-05 3.75214E-05-6.53255E-06
 -1     22244 5.85304E-05 4.25249E-05-6.53255E-06
 -1     22249 5.80007E-05 4.21400E-05-6.61913E-06
 -1     22250 6.12294E-05 3.75214E-05-6.70571E-06
 -1     22251 5.85304E-05 4.25249E-05-6.70571E-06
 -1     22256 5.80007E-05 4.21400E-05-6.79229E-06
 -1     22257 6.12294E-05 3.75214E-05-6.87887E-06
 -1     22258 5.85304E-05 4.25249E-05-6.87887E-06
 -1     22263 5.80007E-05 4.21400E-05-6.96545E-06
 -1     22264 6.12294E-05 3.75214E-05-7.05203E-06
 -1     22265 5.85304E-05 4.25249E-05-7.05203E-06
 -1     22270 5.80007E-05 4.21400E-05-7.13861E-06
 -1     22271 6.12294E-05 3.75214E-05-7.22519E-06
 -1     22272 5.85304E-05 4.25249E-05-7.22519E-06
 -1     22277 5.80007E-05 4.21400E-05-7.31177E-06
 -1     22281 5.06945E-05 5.06945E-05-5.58017E-06
 -1     22282 5.46059E-05 4.66379E-05-5.66675E-06
 -1     22283 5.11575E-05 5.11575E-05-5.66675E-06
 -1     22288 5.06945E-05 5.06945E-05-5.75333E-06
 -1     22289 5.46059E-05 4.66379E-05-5.83991E-06
 -1     22290 5.11575E-05 5.11575E-05-5.83991E-06
 -1     22295 5.06945E-05 5.06945E-05-5.92649E-06
 -1     22296 5.46059E-05 4.66379E-05-6.01307E-06
 -1     22297 5.11575E-05 5.11575E-05-6.01307E-06
 -1     22302 5.06945E-05 5.06945E-05-6.09965E-06
 -1     22303 5.46059E-05 4.66379E-05-6.18623E-06
 -1     22304 5.11575E-05 5.11575E-05-6.18623E-06
 -1     22309 5.06945E-05 5.06945E-05-6.27281E-06
 -1     22310 5.46059E-05 4.66379E-05-6.35939E-06
 -1     22311 5.11575E-05 5.11575E-05-6.35939E-06
 -1     22316 5.06945E-05 5.06945E-05-6.44597E-06
 -1     22317 5.46059E-05 4.66379E-05-6.53255E-06
 -1     22318 5.11575E-05 5.11575E-05-6.53255E-06
 -1     22323 5.06945E-05 5.06945E-05-6.61913E-06
 -1     22324 5.46059E-05 4.66379E-05-6.70571E-06
 -1     22325 5.11575E-05 5.11575E-05-6.70571E-06
 -1     22330 5.06945E-05 5.06945E-05-6.79229E-06
 -1     22331 5.46059E-05 4.66379E-05-6.87887E-06
 -1     22332 5.11575E-05 5.11575E-05-6.87887E-06
 -1     22337 5.06945E-05 5.06945E-05-6.96545E-06
 -1     22338 5.46059E-05 4.66379E-05-7.05203E-06
 -1     22339 5.11575E-05 5.11575E-05-7.05203E-06
 -1     22344 5.06945E-05 5.06945E-05-7.13861E-06
 -1     22345 5.46059E-05 4.66379E-05-7.22519E-06
 -1     22346 5.11575E-05 5.11575E-05-7.22519E-06
 -1     22351 5.06945E-05 5.06945E-05-7.31177E-06
 -1     22355 4.21400E-05 5.80007E-05-5.58017E-06
 -1     22356 4.66379E-05 5.46059E-05-5.66675E-06
 -1     22357 4.25249E-05 5.85305E-05-5.66675E-06
 -1     22362 4.21400E-05 5.80007E-05-5.75333E-06
 -1     22363 4.66379E-05 5.46059E-05-5.83991E-06
 -1     22364 4.25249E-05 5.85305E-05-5.83991E-06
 -1     22369 4.21400E-05 5.80007E-05-5.92649E-06
 -1     22370 4.66379E-05 5.46059E-05-6.01307E-06
 -1     22371 4.25249E-05 5.85305E-05-6.01307E-06
 -1     22376 4.21400E-05 5.80007E-05-6.09965E-06
 -1     22377 4.66379E-05 5.46059E-05-6.18623E-06
 -1     22378 4.25249E-05 5.85305E-05-6.18623E-06
 -1     22383 4.21400E-05 5.80007E-05-6.27281E-06
 -1     22384 4.66379E-05 5.46059E-05-6.35939E-06
 -1     22385 4.25249E-05 5.85305E-05-6.35939E-06
 -1     22390 4.21400E-05 5.80007E-05-6.44597E-06
 -1     22391 4.66379E-05 5.46059E-05-6.53255E-06
 -1     22392 4.25249E-05 5.85305E-05-6.53255E-06
 -1     22397 4.21400E-05 5.80007E-05-6.61913E-06
 -1     22398 4.66379E-05 5.46059E-05-6.70571E-06
 -1     22399 4.25249E-05 5.85305E-05-6.70571E-06
 -1     22404 4.21400E-05 5.80007E-05-6.79229E-06
 -1     22405 4.66379E-05 5.46059E-05-6.87887E-06
 -1     22406 4.25249E-05 5.85305E-05-6.87887E-06
 -1     22411 4.21400E-05 5.80007E-05-6.96545E-06
 -1     22412 4.66379E-05 5.46059E-05-7.05203E-06
 -1     22413 4.25249E-05 5.85305E-05-7.05203E-06
 -1     22418 4.21400E-05 5.80007E-05-7.13861E-06
 -1     22419 4.66379E-05 5.46059E-05-7.22519E-06
 -1     22420 4.25249E-05 5.85305E-05-7.22519E-06
 -1     22425 4.21400E-05 5.80007E-05-7.31177E-06
 -1     22429 3.25479E-05 6.38788E-05-5.58017E-06
 -1     22430 3.75214E-05 6.12294E-05-5.66675E-06
 -1     22431 3.28451E-05 6.44622E-05-5.66675E-06
 -1     22436 3.25479E-05 6.38788E-05-5.75333E-06
 -1     22437 3.75214E-05 6.12294E-05-5.83991E-06
 -1     22438 3.28451E-05 6.44622E-05-5.83991E-06
 -1     22443 3.25479E-05 6.38788E-05-5.92649E-06
 -1     22444 3.75214E-05 6.12294E-05-6.01307E-06
 -1     22445 3.28451E-05 6.44622E-05-6.01307E-06
 -1     22450 3.25479E-05 6.38788E-05-6.09965E-06
 -1     22451 3.75214E-05 6.12294E-05-6.18623E-06
 -1     22452 3.28451E-05 6.44622E-05-6.18623E-06
 -1     22457 3.25479E-05 6.38788E-05-6.27281E-06
 -1     22458 3.75214E-05 6.12294E-05-6.35939E-06
 -1     22459 3.28451E-05 6.44622E-05-6.35939E-06
 -1     22464 3.25479E-05 6.38788E-05-6.44597E-06
 -1     22465 3.75214E-05 6.12294E-05-6.53255E-06
 -1     22466 3.28451E-05 6.44622E-05-6.53255E-06
 -1     22471 3.25479E-05 6.38788E-05-6.61913E-06
 -1     22472 3.75214E-05 6.12294E-05-6.70571E-06
 -1     22473 3.28451E-05 6.44622E-05-6.70571E-06
 -1     22478 3.25479E-05 6.38788E-05-6.79229E-06
 -1     22479 3.75214E-05 6.12294E-05-6.87887E-06
 -1     22480 3.28451E-05 6.44622E-05-6.87887E-06
 -1     22485 3.25479E-05 6.38788E-05-6.96545E-06
 -1     22486 3.75214E-05 6.12294E-05-7.05203E-06
 -1     22487 3.28451E-05 6.44622E-05-7.05203E-06
 -1     22492 3.25479E-05 6.38788E-05-7.13861E-06
 -1     22493 3.75214E-05 6.12294E-05-7.22519E-06
 -1     22494 3.28451E-05 6.44622E-05-7.22519E-06
 -1     22499 3.25479E-05 6.38788E-05-7.31177E-06
 -1     22503 2.21543E-05 6.81839E-05-5.58017E-06
 -1     22504 2.74811E-05 6.63452E-05-5.66675E-06
 -1     22505 2.23566E-05 6.88067E-05-5.66675E-06
 -1     22510 2.21543E-05 6.81839E-05-5.75333E-06
 -1     22511 2.74811E-05 6.63452E-05-5.83991E-06
 -1     22512 2.23566E-05 6.88067E-05-5.83991E-06
 -1     22517 2.21543E-05 6.81839E-05-5.92649E-06
 -1     22518 2.74811E-05 6.63452E-05-6.01307E-06
 -1     22519 2.23566E-05 6.88067E-05-6.01307E-06
 -1     22524 2.21543E-05 6.81839E-05-6.09965E-06
 -1     22525 2.74811E-05 6.63452E-05-6.18623E-06
 -1     22526 2.23566E-05 6.88067E-05-6.18623E-06
 -1     22531 2.21543E-05 6.81839E-05-6.27281E-06
 -1     22532 2.74811E-05 6.63452E-05-6.35939E-06
 -1     22533 2.23566E-05 6.88067E-05-6.35939E-06
 -1     22538 2.21543E-05 6.81839E-05-6.44597E-06
 -1     22539 2.74811E-05 6.63452E-05-6.53255E-06
 -1     22540 2.23566E-05 6.88067E-05-6.53255E-06
 -1     22545 2.21543E-05 6.81839E-05-6.61913E-06
 -1     22546 2.74811E-05 6.63452E-05-6.70571E-06
 -1     22547 2.23566E-05 6.88067E-05-6.70571E-06
 -1     22552 2.21543E-05 6.81839E-05-6.79229E-06
 -1     22553 2.74811E-05 6.63452E-05-6.87887E-06
 -1     22554 2.23566E-05 6.88067E-05-6.87887E-06
 -1     22559 2.21543E-05 6.81839E-05-6.96545E-06
 -1     22560 2.74811E-05 6.63452E-05-7.05203E-06
 -1     22561 2.23566E-05 6.88067E-05-7.05203E-06
 -1     22566 2.21543E-05 6.81839E-05-7.13861E-06
 -1     22567 2.74811E-05 6.63452E-05-7.22519E-06
 -1     22568 2.23566E-05 6.88067E-05-7.22519E-06
 -1     22573 2.21543E-05 6.81839E-05-7.31177E-06
 -1     22577 1.12152E-05 7.08102E-05-5.58017E-06
 -1     22578 1.67641E-05 6.98274E-05-5.66675E-06
 -1     22579 1.13177E-05 7.14569E-05-5.66675E-06
 -1     22584 1.12152E-05 7.08102E-05-5.75333E-06
 -1     22585 1.67641E-05 6.98274E-05-5.83991E-06
 -1     22586 1.13177E-05 7.14569E-05-5.83991E-06
 -1     22591 1.12152E-05 7.08102E-05-5.92649E-06
 -1     22592 1.67641E-05 6.98274E-05-6.01307E-06
 -1     22593 1.13177E-05 7.14569E-05-6.01307E-06
 -1     22598 1.12152E-05 7.08102E-05-6.09965E-06
 -1     22599 1.67641E-05 6.98274E-05-6.18623E-06
 -1     22600 1.13177E-05 7.14569E-05-6.18623E-06
 -1     22605 1.12152E-05 7.08102E-05-6.27281E-06
 -1     22606 1.67641E-05 6.98274E-05-6.35939E-06
 -1     22607 1.13177E-05 7.14569E-05-6.35939E-06
 -1     22612 1.12152E-05 7.08102E-05-6.44597E-06
 -1     22613 1.67641E-05 6.98274E-05-6.53255E-06
 -1     22614 1.13177E-05 7.14569E-05-6.53255E-06
 -1     22619 1.12152E-05 7.08102E-05-6.61913E-06
 -1     22620 1.67641E-05 6.98274E-05-6.70571E-06
 -1     22621 1.13177E-05 7.14569E-05-6.70571E-06
 -1     22626 1.12152E-05 7.08102E-05-6.79229E-06
 -1     22627 1.67641E-05 6.98274E-05-6.87887E-06
 -1     22628 1.13177E-05 7.14569E-05-6.87887E-06
 -1     22633 1.12152E-05 7.08102E-05-6.96545E-06
 -1     22634 1.67641E-05 6.98274E-05-7.05203E-06
 -1     22635 1.13177E-05 7.14569E-05-7.05203E-06
 -1     22640 1.12152E-05 7.08102E-05-7.13861E-06
 -1     22641 1.67641E-05 6.98274E-05-7.22519E-06
 -1     22642 1.13177E-05 7.14569E-05-7.22519E-06
 -1     22647 1.12152E-05 7.08102E-05-7.31177E-06
 -1     22651 5.63427E-06 7.15901E-05-5.66675E-06
 -1     22655 5.63427E-06 7.15901E-05-5.83991E-06
 -1     22659 5.63427E-06 7.15901E-05-6.01307E-06
 -1     22663 5.63427E-06 7.15901E-05-6.18623E-06
 -1     22667 5.63427E-06 7.15901E-05-6.35939E-06
 -1     22671 5.63427E-06 7.15901E-05-6.53255E-06
 -1     22675 5.63427E-06 7.15901E-05-6.70571E-06
 -1     22679 5.63427E-06 7.15901E-05-6.87887E-06
 -1     22683 5.63427E-06 7.15901E-05-7.05203E-06
 -1     22687 5.63427E-06 7.15901E-05-7.22519E-06
 -1     22693 6.96057E-05 1.10245E-05-5.58017E-06
 -1     22694 7.03673E-05 5.53802E-06-5.66675E-06
 -1     22695 7.01935E-05 1.11176E-05-5.66675E-06
 -1     22700 6.96057E-05 1.10245E-05-5.75333E-06
 -1     22701 7.03673E-05 5.53802E-06-5.83991E-06
 -1     22702 7.01935E-05 1.11176E-05-5.83991E-06
 -1     22707 6.96057E-05 1.10245E-05-5.92649E-06
 -1     22708 7.03673E-05 5.53802E-06-6.01307E-06
 -1     22709 7.01935E-05 1.11176E-05-6.01307E-06
 -1     22714 6.96057E-05 1.10245E-05-6.09965E-06
 -1     22715 7.03673E-05 5.53802E-06-6.18623E-06
 -1     22716 7.01935E-05 1.11176E-05-6.18623E-06
 -1     22721 6.96057E-05 1.10245E-05-6.27281E-06
 -1     22722 7.03673E-05 5.53802E-06-6.35939E-06
 -1     22723 7.01935E-05 1.11176E-05-6.35939E-06
 -1     22728 6.96057E-05 1.10245E-05-6.44597E-06
 -1     22729 7.03673E-05 5.53802E-06-6.53255E-06
 -1     22730 7.01935E-05 1.11176E-05-6.53255E-06
 -1     22735 6.96057E-05 1.10245E-05-6.61913E-06
 -1     22736 7.03673E-05 5.53802E-06-6.70571E-06
 -1     22737 7.01935E-05 1.11176E-05-6.70571E-06
 -1     22742 6.96057E-05 1.10245E-05-6.79229E-06
 -1     22743 7.03673E-05 5.53802E-06-6.87887E-06
 -1     22744 7.01935E-05 1.11176E-05-6.87887E-06
 -1     22749 6.96057E-05 1.10245E-05-6.96545E-06
 -1     22750 7.03673E-05 5.53802E-06-7.05203E-06
 -1     22751 7.01935E-05 1.11176E-05-7.05203E-06
 -1     22756 6.96057E-05 1.10245E-05-7.13861E-06
 -1     22757 7.03673E-05 5.53802E-06-7.22519E-06
 -1     22758 7.01935E-05 1.11176E-05-7.22519E-06
 -1     22763 6.96057E-05 1.10245E-05-7.31177E-06
 -1     22767 6.70241E-05 2.17775E-05-5.58017E-06
 -1     22768 6.86346E-05 1.64777E-05-5.66675E-06
 -1     22769 6.75901E-05 2.19614E-05-5.66675E-06
 -1     22774 6.70241E-05 2.17775E-05-5.75333E-06
 -1     22775 6.86346E-05 1.64777E-05-5.83991E-06
 -1     22776 6.75901E-05 2.19614E-05-5.83991E-06
 -1     22781 6.70241E-05 2.17775E-05-5.92649E-06
 -1     22782 6.86346E-05 1.64777E-05-6.01307E-06
 -1     22783 6.75901E-05 2.19614E-05-6.01307E-06
 -1     22788 6.70241E-05 2.17775E-05-6.09965E-06
 -1     22789 6.86346E-05 1.64777E-05-6.18623E-06
 -1     22790 6.75901E-05 2.19614E-05-6.18623E-06
 -1     22795 6.70241E-05 2.17775E-05-6.27281E-06
 -1     22796 6.86346E-05 1.64777E-05-6.35939E-06
 -1     22797 6.75901E-05 2.19614E-05-6.35939E-06
 -1     22802 6.70241E-05 2.17775E-05-6.44597E-06
 -1     22803 6.86346E-05 1.64777E-05-6.53255E-06
 -1     22804 6.75901E-05 2.19614E-05-6.53255E-06
 -1     22809 6.70241E-05 2.17775E-05-6.61913E-06
 -1     22810 6.86346E-05 1.64777E-05-6.70571E-06
 -1     22811 6.75901E-05 2.19614E-05-6.70571E-06
 -1     22816 6.70241E-05 2.17775E-05-6.79229E-06
 -1     22817 6.86346E-05 1.64777E-05-6.87887E-06
 -1     22818 6.75901E-05 2.19614E-05-6.87887E-06
 -1     22823 6.70241E-05 2.17775E-05-6.96545E-06
 -1     22824 6.86346E-05 1.64777E-05-7.05203E-06
 -1     22825 6.75901E-05 2.19614E-05-7.05203E-06
 -1     22830 6.70241E-05 2.17775E-05-7.13861E-06
 -1     22831 6.86346E-05 1.64777E-05-7.22519E-06
 -1     22832 6.75901E-05 2.19614E-05-7.22519E-06
 -1     22837 6.70241E-05 2.17775E-05-7.31177E-06
 -1     22841 6.27922E-05 3.19942E-05-5.58017E-06
 -1     22842 6.52119E-05 2.70116E-05-5.66675E-06
 -1     22843 6.33225E-05 3.22644E-05-5.66675E-06
 -1     22848 6.27922E-05 3.19942E-05-5.75333E-06
 -1     22849 6.52119E-05 2.70116E-05-5.83991E-06
 -1     22850 6.33225E-05 3.22644E-05-5.83991E-06
 -1     22855 6.27922E-05 3.19942E-05-5.92649E-06
 -1     22856 6.52119E-05 2.70116E-05-6.01307E-06
 -1     22857 6.33225E-05 3.22644E-05-6.01307E-06
 -1     22862 6.27922E-05 3.19942E-05-6.09965E-06
 -1     22863 6.52119E-05 2.70116E-05-6.18623E-06
 -1     22864 6.33225E-05 3.22644E-05-6.18623E-06
 -1     22869 6.27922E-05 3.19942E-05-6.27281E-06
 -1     22870 6.52119E-05 2.70116E-05-6.35939E-06
 -1     22871 6.33225E-05 3.22644E-05-6.35939E-06
 -1     22876 6.27922E-05 3.19942E-05-6.44597E-06
 -1     22877 6.52119E-05 2.70116E-05-6.53255E-06
 -1     22878 6.33225E-05 3.22644E-05-6.53255E-06
 -1     22883 6.27922E-05 3.19942E-05-6.61913E-06
 -1     22884 6.52119E-05 2.70116E-05-6.70571E-06
 -1     22885 6.33225E-05 3.22644E-05-6.70571E-06
 -1     22890 6.27922E-05 3.19942E-05-6.79229E-06
 -1     22891 6.52119E-05 2.70116E-05-6.87887E-06
 -1     22892 6.33225E-05 3.22644E-05-6.87887E-06
 -1     22897 6.27922E-05 3.19942E-05-6.96545E-06
 -1     22898 6.52119E-05 2.70116E-05-7.05203E-06
 -1     22899 6.33225E-05 3.22644E-05-7.05203E-06
 -1     22904 6.27922E-05 3.19942E-05-7.13861E-06
 -1     22905 6.52119E-05 2.70116E-05-7.22519E-06
 -1     22906 6.33225E-05 3.22644E-05-7.22519E-06
 -1     22911 6.27922E-05 3.19942E-05-7.31177E-06
 -1     22915 5.70141E-05 4.14232E-05-5.58017E-06
 -1     22916 6.01835E-05 3.68805E-05-5.66675E-06
 -1     22917 5.74956E-05 4.17730E-05-5.66675E-06
 -1     22922 5.70141E-05 4.14232E-05-5.75333E-06
 -1     22923 6.01835E-05 3.68805E-05-5.83991E-06
 -1     22924 5.74956E-05 4.17730E-05-5.83991E-06
 -1     22929 5.70141E-05 4.14232E-05-5.92649E-06
 -1     22930 6.01835E-05 3.68805E-05-6.01307E-06
 -1     22931 5.74956E-05 4.17730E-05-6.01307E-06
 -1     22936 5.70141E-05 4.14232E-05-6.09965E-06
 -1     22937 6.01835E-05 3.68805E-05-6.18623E-06
 -1     22938 5.74956E-05 4.17730E-05-6.18623E-06
 -1     22943 5.70141E-05 4.14232E-05-6.27281E-06
 -1     22944 6.01835E-05 3.68805E-05-6.35939E-06
 -1     22945 5.74956E-05 4.17730E-05-6.35939E-06
 -1     22950 5.70141E-05 4.14232E-05-6.44597E-06
 -1     22951 6.01835E-05 3.68805E-05-6.53255E-06
 -1     22952 5.74956E-05 4.17730E-05-6.53255E-06
 -1     22957 5.70141E-05 4.14232E-05-6.61913E-06
 -1     22958 6.01835E-05 3.68805E-05-6.70571E-06
 -1     22959 5.74956E-05 4.17730E-05-6.70571E-06
 -1     22964 5.70141E-05 4.14232E-05-6.79229E-06
 -1     22965 6.01835E-05 3.68805E-05-6.87887E-06
 -1     22966 5.74956E-05 4.17730E-05-6.87887E-06
 -1     22971 5.70141E-05 4.14232E-05-6.96545E-06
 -1     22972 6.01835E-05 3.68805E-05-7.05203E-06
 -1     22973 5.74956E-05 4.17730E-05-7.05203E-06
 -1     22978 5.70141E-05 4.14232E-05-7.13861E-06
 -1     22979 6.01835E-05 3.68805E-05-7.22519E-06
 -1     22980 5.74956E-05 4.17730E-05-7.22519E-06
 -1     22985 5.70141E-05 4.14232E-05-7.31177E-06
 -1     22989 4.98322E-05 4.98322E-05-5.58017E-06
 -1     22990 5.36731E-05 4.58412E-05-5.66675E-06
 -1     22991 5.02530E-05 5.02530E-05-5.66675E-06
 -1     22996 4.98322E-05 4.98322E-05-5.75333E-06
 -1     22997 5.36731E-05 4.58412E-05-5.83991E-06
 -1     22998 5.02530E-05 5.02530E-05-5.83991E-06
 -1     23003 4.98322E-05 4.98322E-05-5.92649E-06
 -1     23004 5.36731E-05 4.58412E-05-6.01307E-06
 -1     23005 5.02530E-05 5.02530E-05-6.01307E-06
 -1     23010 4.98322E-05 4.98322E-05-6.09965E-06
 -1     23011 5.36731E-05 4.58412E-05-6.18623E-06
 -1     23012 5.02530E-05 5.02530E-05-6.18623E-06
 -1     23017 4.98322E-05 4.98322E-05-6.27281E-06
 -1     23018 5.36731E-05 4.58412E-05-6.35939E-06
 -1     23019 5.02530E-05 5.02530E-05-6.35939E-06
 -1     23024 4.98322E-05 4.98322E-05-6.44597E-06
 -1     23025 5.36731E-05 4.58412E-05-6.53255E-06
 -1     23026 5.02530E-05 5.02530E-05-6.53255E-06
 -1     23031 4.98322E-05 4.98322E-05-6.61913E-06
 -1     23032 5.36731E-05 4.58412E-05-6.70571E-06
 -1     23033 5.02530E-05 5.02530E-05-6.70571E-06
 -1     23038 4.98322E-05 4.98322E-05-6.79229E-06
 -1     23039 5.36731E-05 4.58412E-05-6.87887E-06
 -1     23040 5.02530E-05 5.02530E-05-6.87887E-06
 -1     23045 4.98322E-05 4.98322E-05-6.96545E-06
 -1     23046 5.36731E-05 4.58412E-05-7.05203E-06
 -1     23047 5.02530E-05 5.02530E-05-7.05203E-06
 -1     23052 4.98322E-05 4.98322E-05-7.13861E-06
 -1     23053 5.36731E-05 4.58412E-05-7.22519E-06
 -1     23054 5.02530E-05 5.02530E-05-7.22519E-06
 -1     23059 4.98322E-05 4.98322E-05-7.31177E-06
 -1     23063 4.14232E-05 5.70141E-05-5.58017E-06
 -1     23064 4.58412E-05 5.36731E-05-5.66675E-06
 -1     23065 4.17730E-05 5.74956E-05-5.66675E-06
 -1     23070 4.14232E-05 5.70141E-05-5.75333E-06
 -1     23071 4.58412E-05 5.36731E-05-5.83991E-06
 -1     23072 4.17730E-05 5.74956E-05-5.83991E-06
 -1     23077 4.14232E-05 5.70141E-05-5.92649E-06
 -1     23078 4.58412E-05 5.36731E-05-6.01307E-06
 -1     23079 4.17730E-05 5.74956E-05-6.01307E-06
 -1     23084 4.14232E-05 5.70141E-05-6.09965E-06
 -1     23085 4.58412E-05 5.36731E-05-6.18623E-06
 -1     23086 4.17730E-05 5.74956E-05-6.18623E-06
 -1     23091 4.14232E-05 5.70141E-05-6.27281E-06
 -1     23092 4.58412E-05 5.36731E-05-6.35939E-06
 -1     23093 4.17730E-05 5.74956E-05-6.35939E-06
 -1     23098 4.14232E-05 5.70141E-05-6.44597E-06
 -1     23099 4.58412E-05 5.36731E-05-6.53255E-06
 -1     23100 4.17730E-05 5.74956E-05-6.53255E-06
 -1     23105 4.14232E-05 5.70141E-05-6.61913E-06
 -1     23106 4.58412E-05 5.36731E-05-6.70571E-06
 -1     23107 4.17730E-05 5.74956E-05-6.70571E-06
 -1     23112 4.14232E-05 5.70141E-05-6.79229E-06
 -1     23113 4.58412E-05 5.36731E-05-6.87887E-06
 -1     23114 4.17730E-05 5.74956E-05-6.87887E-06
 -1     23119 4.14232E-05 5.70141E-05-6.96545E-06
 -1     23120 4.58412E-05 5.36731E-05-7.05203E-06
 -1     23121 4.17730E-05 5.74956E-05-7.05203E-06
 -1     23126 4.14232E-05 5.70141E-05-7.13861E-06
 -1     23127 4.58412E-05 5.36731E-05-7.22519E-06
 -1     23128 4.17730E-05 5.74956E-05-7.22519E-06
 -1     23133 4.14232E-05 5.70141E-05-7.31177E-06
 -1     23137 3.19942E-05 6.27922E-05-5.58017E-06
 -1     23138 3.68805E-05 6.01835E-05-5.66675E-06
 -1     23139 3.22644E-05 6.33225E-05-5.66675E-06
 -1     23144 3.19942E-05 6.27922E-05-5.75333E-06
 -1     23145 3.68805E-05 6.01835E-05-5.83991E-06
 -1     23146 3.22644E-05 6.33225E-05-5.83991E-06
 -1     23151 3.19942E-05 6.27922E-05-5.92649E-06
 -1     23152 3.68805E-05 6.01835E-05-6.01307E-06
 -1     23153 3.22644E-05 6.33225E-05-6.01307E-06
 -1     23158 3.19942E-05 6.27922E-05-6.09965E-06
 -1     23159 3.68805E-05 6.01835E-05-6.18623E-06
 -1     23160 3.22644E-05 6.33225E-05-6.18623E-06
 -1     23165 3.19942E-05 6.27922E-05-6.27281E-06
 -1     23166 3.68805E-05 6.01835E-05-6.35939E-06
 -1     23167 3.22644E-05 6.33225E-05-6.35939E-06
 -1     23172 3.19942E-05 6.27922E-05-6.44597E-06
 -1     23173 3.68805E-05 6.01835E-05-6.53255E-06
 -1     23174 3.22644E-05 6.33225E-05-6.53255E-06
 -1     23179 3.19942E-05 6.27922E-05-6.61913E-06
 -1     23180 3.68805E-05 6.01835E-05-6.70571E-06
 -1     23181 3.22644E-05 6.33225E-05-6.70571E-06
 -1     23186 3.19942E-05 6.27922E-05-6.79229E-06
 -1     23187 3.68805E-05 6.01835E-05-6.87887E-06
 -1     23188 3.22644E-05 6.33225E-05-6.87887E-06
 -1     23193 3.19942E-05 6.27922E-05-6.96545E-06
 -1     23194 3.68805E-05 6.01835E-05-7.05203E-06
 -1     23195 3.22644E-05 6.33225E-05-7.05203E-06
 -1     23200 3.19942E-05 6.27922E-05-7.13861E-06
 -1     23201 3.68805E-05 6.01835E-05-7.22519E-06
 -1     23202 3.22644E-05 6.33225E-05-7.22519E-06
 -1     23207 3.19942E-05 6.27922E-05-7.31177E-06
 -1     23211 2.17775E-05 6.70241E-05-5.58017E-06
 -1     23212 2.70116E-05 6.52119E-05-5.66675E-06
 -1     23213 2.19614E-05 6.75901E-05-5.66675E-06
 -1     23218 2.17775E-05 6.70241E-05-5.75333E-06
 -1     23219 2.70116E-05 6.52119E-05-5.83991E-06
 -1     23220 2.19614E-05 6.75901E-05-5.83991E-06
 -1     23225 2.17775E-05 6.70241E-05-5.92649E-06
 -1     23226 2.70116E-05 6.52119E-05-6.01307E-06
 -1     23227 2.19614E-05 6.75901E-05-6.01307E-06
 -1     23232 2.17775E-05 6.70241E-05-6.09965E-06
 -1     23233 2.70116E-05 6.52119E-05-6.18623E-06
 -1     23234 2.19614E-05 6.75901E-05-6.18623E-06
 -1     23239 2.17775E-05 6.70241E-05-6.27281E-06
 -1     23240 2.70116E-05 6.52119E-05-6.35939E-06
 -1     23241 2.19614E-05 6.75901E-05-6.35939E-06
 -1     23246 2.17775E-05 6.70241E-05-6.44597E-06
 -1     23247 2.70116E-05 6.52119E-05-6.53255E-06
 -1     23248 2.19614E-05 6.75901E-05-6.53255E-06
 -1     23253 2.17775E-05 6.70241E-05-6.61913E-06
 -1     23254 2.70116E-05 6.52119E-05-6.70571E-06
 -1     23255 2.19614E-05 6.75901E-05-6.70571E-06
 -1     23260 2.17775E-05 6.70241E-05-6.79229E-06
 -1     23261 2.70116E-05 6.52119E-05-6.87887E-06
 -1     23262 2.19614E-05 6.75901E-05-6.87887E-06
 -1     23267 2.17775E-05 6.70241E-05-6.96545E-06
 -1     23268 2.70116E-05 6.52119E-05-7.05203E-06
 -1     23269 2.19614E-05 6.75901E-05-7.05203E-06
 -1     23274 2.17775E-05 6.70241E-05-7.13861E-06
 -1     23275 2.70116E-05 6.52119E-05-7.22519E-06
 -1     23276 2.19614E-05 6.75901E-05-7.22519E-06
 -1     23281 2.17775E-05 6.70241E-05-7.31177E-06
 -1     23285 1.10245E-05 6.96057E-05-5.58017E-06
 -1     23286 1.64777E-05 6.86346E-05-5.66675E-06
 -1     23287 1.11176E-05 7.01935E-05-5.66675E-06
 -1     23292 1.10245E-05 6.96057E-05-5.75333E-06
 -1     23293 1.64777E-05 6.86346E-05-5.83991E-06
 -1     23294 1.11176E-05 7.01935E-05-5.83991E-06
 -1     23299 1.10245E-05 6.96057E-05-5.92649E-06
 -1     23300 1.64777E-05 6.86346E-05-6.01307E-06
 -1     23301 1.11176E-05 7.01935E-05-6.01307E-06
 -1     23306 1.10245E-05 6.96057E-05-6.09965E-06
 -1     23307 1.64777E-05 6.86346E-05-6.18623E-06
 -1     23308 1.11176E-05 7.01935E-05-6.18623E-06
 -1     23313 1.10245E-05 6.96057E-05-6.27281E-06
 -1     23314 1.64777E-05 6.86346E-05-6.35939E-06
 -1     23315 1.11176E-05 7.01935E-05-6.35939E-06
 -1     23320 1.10245E-05 6.96057E-05-6.44597E-06
 -1     23321 1.64777E-05 6.86346E-05-6.53255E-06
 -1     23322 1.11176E-05 7.01935E-05-6.53255E-06
 -1     23327 1.10245E-05 6.96057E-05-6.61913E-06
 -1     23328 1.64777E-05 6.86346E-05-6.70571E-06
 -1     23329 1.11176E-05 7.01935E-05-6.70571E-06
 -1     23334 1.10245E-05 6.96057E-05-6.79229E-06
 -1     23335 1.64777E-05 6.86346E-05-6.87887E-06
 -1     23336 1.11176E-05 7.01935E-05-6.87887E-06
 -1     23341 1.10245E-05 6.96057E-05-6.96545E-06
 -1     23342 1.64777E-05 6.86346E-05-7.05203E-06
 -1     23343 1.11176E-05 7.01935E-05-7.05203E-06
 -1     23348 1.10245E-05 6.96057E-05-7.13861E-06
 -1     23349 1.64777E-05 6.86346E-05-7.22519E-06
 -1     23350 1.11176E-05 7.01935E-05-7.22519E-06
 -1     23355 1.10245E-05 6.96057E-05-7.31177E-06
 -1     23359 5.53802E-06 7.03673E-05-5.66675E-06
 -1     23363 5.53802E-06 7.03673E-05-5.83991E-06
 -1     23367 5.53802E-06 7.03673E-05-6.01307E-06
 -1     23371 5.53802E-06 7.03673E-05-6.18623E-06
 -1     23375 5.53802E-06 7.03673E-05-6.35939E-06
 -1     23379 5.53802E-06 7.03673E-05-6.53255E-06
 -1     23383 5.53802E-06 7.03673E-05-6.70571E-06
 -1     23387 5.53802E-06 7.03673E-05-6.87887E-06
 -1     23391 5.53802E-06 7.03673E-05-7.05203E-06
 -1     23395 5.53802E-06 7.03673E-05-7.22519E-06
 -1     23401 6.85108E-05 1.08510E-05-5.58017E-06
 -1     23402 6.92553E-05 5.45051E-06-5.66675E-06
 -1     23403 6.90451E-05 1.09357E-05-5.66675E-06
 -1     23408 6.85108E-05 1.08510E-05-5.75333E-06
 -1     23409 6.92553E-05 5.45051E-06-5.83991E-06
 -1     23410 6.90451E-05 1.09357E-05-5.83991E-06
 -1     23415 6.85108E-05 1.08510E-05-5.92649E-06
 -1     23416 6.92553E-05 5.45051E-06-6.01307E-06
 -1     23417 6.90451E-05 1.09357E-05-6.01307E-06
 -1     23422 6.85108E-05 1.08510E-05-6.09965E-06
 -1     23423 6.92553E-05 5.45051E-06-6.18623E-06
 -1     23424 6.90451E-05 1.09357E-05-6.18623E-06
 -1     23429 6.85108E-05 1.08510E-05-6.27281E-06
 -1     23430 6.92553E-05 5.45051E-06-6.35939E-06
 -1     23431 6.90451E-05 1.09357E-05-6.35939E-06
 -1     23436 6.85108E-05 1.08510E-05-6.44597E-06
 -1     23437 6.92553E-05 5.45051E-06-6.53255E-06
 -1     23438 6.90451E-05 1.09357E-05-6.53255E-06
 -1     23443 6.85108E-05 1.08510E-05-6.61913E-06
 -1     23444 6.92553E-05 5.45051E-06-6.70571E-06
 -1     23445 6.90451E-05 1.09357E-05-6.70571E-06
 -1     23450 6.85108E-05 1.08510E-05-6.79229E-06
 -1     23451 6.92553E-05 5.45051E-06-6.87887E-06
 -1     23452 6.90451E-05 1.09357E-05-6.87887E-06
 -1     23457 6.85108E-05 1.08510E-05-6.96545E-06
 -1     23458 6.92553E-05 5.45051E-06-7.05203E-06
 -1     23459 6.90451E-05 1.09357E-05-7.05203E-06
 -1     23464 6.85108E-05 1.08510E-05-7.13861E-06
 -1     23465 6.92553E-05 5.45051E-06-7.22519E-06
 -1     23466 6.90451E-05 1.09357E-05-7.22519E-06
 -1     23471 6.85108E-05 1.08510E-05-7.31177E-06
 -1     23475 6.59698E-05 2.14349E-05-5.58017E-06
 -1     23476 6.75500E-05 1.62173E-05-5.66675E-06
 -1     23477 6.64844E-05 2.16021E-05-5.66675E-06
 -1     23482 6.59698E-05 2.14349E-05-5.75333E-06
 -1     23483 6.75500E-05 1.62173E-05-5.83991E-06
 -1     23484 6.64844E-05 2.16021E-05-5.83991E-06
 -1     23489 6.59698E-05 2.14349E-05-5.92649E-06
 -1     23490 6.75500E-05 1.62173E-05-6.01307E-06
 -1     23491 6.64844E-05 2.16021E-05-6.01307E-06
 -1     23496 6.59698E-05 2.14349E-05-6.09965E-06
 -1     23497 6.75500E-05 1.62173E-05-6.18623E-06
 -1     23498 6.64844E-05 2.16021E-05-6.18623E-06
 -1     23503 6.59698E-05 2.14349E-05-6.27281E-06
 -1     23504 6.75500E-05 1.62173E-05-6.35939E-06
 -1     23505 6.64844E-05 2.16021E-05-6.35939E-06
 -1     23510 6.59698E-05 2.14349E-05-6.44597E-06
 -1     23511 6.75500E-05 1.62173E-05-6.53255E-06
 -1     23512 6.64844E-05 2.16021E-05-6.53255E-06
 -1     23517 6.59698E-05 2.14349E-05-6.61913E-06
 -1     23518 6.75500E-05 1.62173E-05-6.70571E-06
 -1     23519 6.64844E-05 2.16021E-05-6.70571E-06
 -1     23524 6.59698E-05 2.14349E-05-6.79229E-06
 -1     23525 6.75500E-05 1.62173E-05-6.87887E-06
 -1     23526 6.64844E-05 2.16021E-05-6.87887E-06
 -1     23531 6.59698E-05 2.14349E-05-6.96545E-06
 -1     23532 6.75500E-05 1.62173E-05-7.05203E-06
 -1     23533 6.64844E-05 2.16021E-05-7.05203E-06
 -1     23538 6.59698E-05 2.14349E-05-7.13861E-06
 -1     23539 6.75500E-05 1.62173E-05-7.22519E-06
 -1     23540 6.64844E-05 2.16021E-05-7.22519E-06
 -1     23545 6.59698E-05 2.14349E-05-7.31177E-06
 -1     23549 6.18045E-05 3.14910E-05-5.58017E-06
 -1     23550 6.41814E-05 2.65848E-05-5.66675E-06
 -1     23551 6.22865E-05 3.17366E-05-5.66675E-06
 -1     23556 6.18045E-05 3.14910E-05-5.75333E-06
 -1     23557 6.41814E-05 2.65848E-05-5.83991E-06
 -1     23558 6.22865E-05 3.17366E-05-5.83991E-06
 -1     23563 6.18045E-05 3.14910E-05-5.92649E-06
 -1     23564 6.41814E-05 2.65848E-05-6.01307E-06
 -1     23565 6.22865E-05 3.17366E-05-6.01307E-06
 -1     23570 6.18045E-05 3.14910E-05-6.09965E-06
 -1     23571 6.41814E-05 2.65848E-05-6.18623E-06
 -1     23572 6.22865E-05 3.17366E-05-6.18623E-06
 -1     23577 6.18045E-05 3.14910E-05-6.27281E-06
 -1     23578 6.41814E-05 2.65848E-05-6.35939E-06
 -1     23579 6.22865E-05 3.17366E-05-6.35939E-06
 -1     23584 6.18045E-05 3.14910E-05-6.44597E-06
 -1     23585 6.41814E-05 2.65848E-05-6.53255E-06
 -1     23586 6.22865E-05 3.17366E-05-6.53255E-06
 -1     23591 6.18045E-05 3.14910E-05-6.61913E-06
 -1     23592 6.41814E-05 2.65848E-05-6.70571E-06
 -1     23593 6.22865E-05 3.17366E-05-6.70571E-06
 -1     23598 6.18045E-05 3.14910E-05-6.79229E-06
 -1     23599 6.41814E-05 2.65848E-05-6.87887E-06
 -1     23600 6.22865E-05 3.17366E-05-6.87887E-06
 -1     23605 6.18045E-05 3.14910E-05-6.96545E-06
 -1     23606 6.41814E-05 2.65848E-05-7.05203E-06
 -1     23607 6.22865E-05 3.17366E-05-7.05203E-06
 -1     23612 6.18045E-05 3.14910E-05-7.13861E-06
 -1     23613 6.41814E-05 2.65848E-05-7.22519E-06
 -1     23614 6.22865E-05 3.17366E-05-7.22519E-06
 -1     23619 6.18045E-05 3.14910E-05-7.31177E-06
 -1     23623 5.61173E-05 4.07716E-05-5.58017E-06
 -1     23624 5.92324E-05 3.62977E-05-5.66675E-06
 -1     23625 5.65550E-05 4.10896E-05-5.66675E-06
 -1     23630 5.61173E-05 4.07716E-05-5.75333E-06
 -1     23631 5.92324E-05 3.62977E-05-5.83991E-06
 -1     23632 5.65550E-05 4.10896E-05-5.83991E-06
 -1     23637 5.61173E-05 4.07716E-05-5.92649E-06
 -1     23638 5.92324E-05 3.62977E-05-6.01307E-06
 -1     23639 5.65550E-05 4.10896E-05-6.01307E-06
 -1     23644 5.61173E-05 4.07716E-05-6.09965E-06
 -1     23645 5.92324E-05 3.62977E-05-6.18623E-06
 -1     23646 5.65550E-05 4.10896E-05-6.18623E-06
 -1     23651 5.61173E-05 4.07716E-05-6.27281E-06
 -1     23652 5.92324E-05 3.62977E-05-6.35939E-06
 -1     23653 5.65550E-05 4.10896E-05-6.35939E-06
 -1     23658 5.61173E-05 4.07716E-05-6.44597E-06
 -1     23659 5.92324E-05 3.62977E-05-6.53255E-06
 -1     23660 5.65550E-05 4.10896E-05-6.53255E-06
 -1     23665 5.61173E-05 4.07716E-05-6.61913E-06
 -1     23666 5.92324E-05 3.62977E-05-6.70571E-06
 -1     23667 5.65550E-05 4.10896E-05-6.70571E-06
 -1     23672 5.61173E-05 4.07716E-05-6.79229E-06
 -1     23673 5.92324E-05 3.62977E-05-6.87887E-06
 -1     23674 5.65550E-05 4.10896E-05-6.87887E-06
 -1     23679 5.61173E-05 4.07716E-05-6.96545E-06
 -1     23680 5.92324E-05 3.62977E-05-7.05203E-06
 -1     23681 5.65550E-05 4.10896E-05-7.05203E-06
 -1     23686 5.61173E-05 4.07716E-05-7.13861E-06
 -1     23687 5.92324E-05 3.62977E-05-7.22519E-06
 -1     23688 5.65550E-05 4.10896E-05-7.22519E-06
 -1     23693 5.61173E-05 4.07716E-05-7.31177E-06
 -1     23697 4.90483E-05 4.90483E-05-5.58017E-06
 -1     23698 5.28250E-05 4.51168E-05-5.66675E-06
 -1     23699 4.94309E-05 4.94309E-05-5.66675E-06
 -1     23704 4.90483E-05 4.90483E-05-5.75333E-06
 -1     23705 5.28250E-05 4.51168E-05-5.83991E-06
 -1     23706 4.94309E-05 4.94309E-05-5.83991E-06
 -1     23711 4.90483E-05 4.90483E-05-5.92649E-06
 -1     23712 5.28250E-05 4.51168E-05-6.01307E-06
 -1     23713 4.94309E-05 4.94309E-05-6.01307E-06
 -1     23718 4.90483E-05 4.90483E-05-6.09965E-06
 -1     23719 5.28250E-05 4.51168E-05-6.18623E-06
 -1     23720 4.94309E-05 4.94309E-05-6.18623E-06
 -1     23725 4.90483E-05 4.90483E-05-6.27281E-06
 -1     23726 5.28250E-05 4.51168E-05-6.35939E-06
 -1     23727 4.94309E-05 4.94309E-05-6.35939E-06
 -1     23732 4.90483E-05 4.90483E-05-6.44597E-06
 -1     23733 5.28250E-05 4.51168E-05-6.53255E-06
 -1     23734 4.94309E-05 4.94309E-05-6.53255E-06
 -1     23739 4.90483E-05 4.90483E-05-6.61913E-06
 -1     23740 5.28250E-05 4.51168E-05-6.70571E-06
 -1     23741 4.94309E-05 4.94309E-05-6.70571E-06
 -1     23746 4.90483E-05 4.90483E-05-6.79229E-06
 -1     23747 5.28250E-05 4.51168E-05-6.87887E-06
 -1     23748 4.94309E-05 4.94309E-05-6.87887E-06
 -1     23753 4.90483E-05 4.90483E-05-6.96545E-06
 -1     23754 5.28250E-05 4.51168E-05-7.05203E-06
 -1     23755 4.94309E-05 4.94309E-05-7.05203E-06
 -1     23760 4.90483E-05 4.90483E-05-7.13861E-06
 -1     23761 5.28250E-05 4.51168E-05-7.22519E-06
 -1     23762 4.94309E-05 4.94309E-05-7.22519E-06
 -1     23767 4.90483E-05 4.90483E-05-7.31177E-06
 -1     23771 4.07716E-05 5.61173E-05-5.58017E-06
 -1     23772 4.51168E-05 5.28250E-05-5.66675E-06
 -1     23773 4.10896E-05 5.65550E-05-5.66675E-06
 -1     23778 4.07716E-05 5.61173E-05-5.75333E-06
 -1     23779 4.51168E-05 5.28250E-05-5.83991E-06
 -1     23780 4.10896E-05 5.65550E-05-5.83991E-06
 -1     23785 4.07716E-05 5.61173E-05-5.92649E-06
 -1     23786 4.51168E-05 5.28250E-05-6.01307E-06
 -1     23787 4.10896E-05 5.65550E-05-6.01307E-06
 -1     23792 4.07716E-05 5.61173E-05-6.09965E-06
 -1     23793 4.51168E-05 5.28250E-05-6.18623E-06
 -1     23794 4.10896E-05 5.65550E-05-6.18623E-06
 -1     23799 4.07716E-05 5.61173E-05-6.27281E-06
 -1     23800 4.51168E-05 5.28250E-05-6.35939E-06
 -1     23801 4.10896E-05 5.65550E-05-6.35939E-06
 -1     23806 4.07716E-05 5.61173E-05-6.44597E-06
 -1     23807 4.51168E-05 5.28250E-05-6.53255E-06
 -1     23808 4.10896E-05 5.65550E-05-6.53255E-06
 -1     23813 4.07716E-05 5.61173E-05-6.61913E-06
 -1     23814 4.51168E-05 5.28250E-05-6.70571E-06
 -1     23815 4.10896E-05 5.65550E-05-6.70571E-06
 -1     23820 4.07716E-05 5.61173E-05-6.79229E-06
 -1     23821 4.51168E-05 5.28250E-05-6.87887E-06
 -1     23822 4.10896E-05 5.65550E-05-6.87887E-06
 -1     23827 4.07716E-05 5.61173E-05-6.96545E-06
 -1     23828 4.51168E-05 5.28250E-05-7.05203E-06
 -1     23829 4.10896E-05 5.65550E-05-7.05203E-06
 -1     23834 4.07716E-05 5.61173E-05-7.13861E-06
 -1     23835 4.51168E-05 5.28250E-05-7.22519E-06
 -1     23836 4.10896E-05 5.65550E-05-7.22519E-06
 -1     23841 4.07716E-05 5.61173E-05-7.31177E-06
 -1     23845 3.14910E-05 6.18045E-05-5.58017E-06
 -1     23846 3.62977E-05 5.92324E-05-5.66675E-06
 -1     23847 3.17366E-05 6.22865E-05-5.66675E-06
 -1     23852 3.14910E-05 6.18045E-05-5.75333E-06
 -1     23853 3.62977E-05 5.92324E-05-5.83991E-06
 -1     23854 3.17366E-05 6.22865E-05-5.83991E-06
 -1     23859 3.14910E-05 6.18045E-05-5.92649E-06
 -1     23860 3.62977E-05 5.92324E-05-6.01307E-06
 -1     23861 3.17366E-05 6.22865E-05-6.01307E-06
 -1     23866 3.14910E-05 6.18045E-05-6.09965E-06
 -1     23867 3.62977E-05 5.92324E-05-6.18623E-06
 -1     23868 3.17366E-05 6.22865E-05-6.18623E-06
 -1     23873 3.14910E-05 6.18045E-05-6.27281E-06
 -1     23874 3.62977E-05 5.92324E-05-6.35939E-06
 -1     23875 3.17366E-05 6.22865E-05-6.35939E-06
 -1     23880 3.14910E-05 6.18045E-05-6.44597E-06
 -1     23881 3.62977E-05 5.92324E-05-6.53255E-06
 -1     23882 3.17366E-05 6.22865E-05-6.53255E-06
 -1     23887 3.14910E-05 6.18045E-05-6.61913E-06
 -1     23888 3.62977E-05 5.92324E-05-6.70571E-06
 -1     23889 3.17366E-05 6.22865E-05-6.70571E-06
 -1     23894 3.14910E-05 6.18045E-05-6.79229E-06
 -1     23895 3.62977E-05 5.92324E-05-6.87887E-06
 -1     23896 3.17366E-05 6.22865E-05-6.87887E-06
 -1     23901 3.14910E-05 6.18045E-05-6.96545E-06
 -1     23902 3.62977E-05 5.92324E-05-7.05203E-06
 -1     23903 3.17366E-05 6.22865E-05-7.05203E-06
 -1     23908 3.14910E-05 6.18045E-05-7.13861E-06
 -1     23909 3.62977E-05 5.92324E-05-7.22519E-06
 -1     23910 3.17366E-05 6.22865E-05-7.22519E-06
 -1     23915 3.14910E-05 6.18045E-05-7.31177E-06
 -1     23919 2.14349E-05 6.59698E-05-5.58017E-06
 -1     23920 2.65848E-05 6.41814E-05-5.66675E-06
 -1     23921 2.16021E-05 6.64844E-05-5.66675E-06
 -1     23926 2.14349E-05 6.59698E-05-5.75333E-06
 -1     23927 2.65848E-05 6.41814E-05-5.83991E-06
 -1     23928 2.16021E-05 6.64844E-05-5.83991E-06
 -1     23933 2.14349E-05 6.59698E-05-5.92649E-06
 -1     23934 2.65848E-05 6.41814E-05-6.01307E-06
 -1     23935 2.16021E-05 6.64844E-05-6.01307E-06
 -1     23940 2.14349E-05 6.59698E-05-6.09965E-06
 -1     23941 2.65848E-05 6.41814E-05-6.18623E-06
 -1     23942 2.16021E-05 6.64844E-05-6.18623E-06
 -1     23947 2.14349E-05 6.59698E-05-6.27281E-06
 -1     23948 2.65848E-05 6.41814E-05-6.35939E-06
 -1     23949 2.16021E-05 6.64844E-05-6.35939E-06
 -1     23954 2.14349E-05 6.59698E-05-6.44597E-06
 -1     23955 2.65848E-05 6.41814E-05-6.53255E-06
 -1     23956 2.16021E-05 6.64844E-05-6.53255E-06
 -1     23961 2.14349E-05 6.59698E-05-6.61913E-06
 -1     23962 2.65848E-05 6.41814E-05-6.70571E-06
 -1     23963 2.16021E-05 6.64844E-05-6.70571E-06
 -1     23968 2.14349E-05 6.59698E-05-6.79229E-06
 -1     23969 2.65848E-05 6.41814E-05-6.87887E-06
 -1     23970 2.16021E-05 6.64844E-05-6.87887E-06
 -1     23975 2.14349E-05 6.59698E-05-6.96545E-06
 -1     23976 2.65848E-05 6.41814E-05-7.05203E-06
 -1     23977 2.16021E-05 6.64844E-05-7.05203E-06
 -1     23982 2.14349E-05 6.59698E-05-7.13861E-06
 -1     23983 2.65848E-05 6.41814E-05-7.22519E-06
 -1     23984 2.16021E-05 6.64844E-05-7.22519E-06
 -1     23989 2.14349E-05 6.59698E-05-7.31177E-06
 -1     23993 1.08510E-05 6.85108E-05-5.58017E-06
 -1     23994 1.62173E-05 6.75500E-05-5.66675E-06
 -1     23995 1.09357E-05 6.90451E-05-5.66675E-06
 -1     24000 1.08510E-05 6.85108E-05-5.75333E-06
 -1     24001 1.62173E-05 6.75500E-05-5.83991E-06
 -1     24002 1.09357E-05 6.90451E-05-5.83991E-06
 -1     24007 1.08510E-05 6.85108E-05-5.92649E-06
 -1     24008 1.62173E-05 6.75500E-05-6.01307E-06
 -1     24009 1.09357E-05 6.90451E-05-6.01307E-06
 -1     24014 1.08510E-05 6.85108E-05-6.09965E-06
 -1     24015 1.62173E-05 6.75500E-05-6.18623E-06
 -1     24016 1.09357E-05 6.90451E-05-6.18623E-06
 -1     24021 1.08510E-05 6.85108E-05-6.27281E-06
 -1     24022 1.62173E-05 6.75500E-05-6.35939E-06
 -1     24023 1.09357E-05 6.90451E-05-6.35939E-06
 -1     24028 1.08510E-05 6.85108E-05-6.44597E-06
 -1     24029 1.62173E-05 6.75500E-05-6.53255E-06
 -1     24030 1.09357E-05 6.90451E-05-6.53255E-06
 -1     24035 1.08510E-05 6.85108E-05-6.61913E-06
 -1     24036 1.62173E-05 6.75500E-05-6.70571E-06
 -1     24037 1.09357E-05 6.90451E-05-6.70571E-06
 -1     24042 1.08510E-05 6.85108E-05-6.79229E-06
 -1     24043 1.62173E-05 6.75500E-05-6.87887E-06
 -1     24044 1.09357E-05 6.90451E-05-6.87887E-06
 -1     24049 1.08510E-05 6.85108E-05-6.96545E-06
 -1     24050 1.62173E-05 6.75500E-05-7.05203E-06
 -1     24051 1.09357E-05 6.90451E-05-7.05203E-06
 -1     24056 1.08510E-05 6.85108E-05-7.13861E-06
 -1     24057 1.62173E-05 6.75500E-05-7.22519E-06
 -1     24058 1.09357E-05 6.90451E-05-7.22519E-06
 -1     24063 1.08510E-05 6.85108E-05-7.31177E-06
 -1     24067 5.45051E-06 6.92553E-05-5.66675E-06
 -1     24071 5.45051E-06 6.92553E-05-5.83991E-06
 -1     24075 5.45051E-06 6.92553E-05-6.01307E-06
 -1     24079 5.45051E-06 6.92553E-05-6.18623E-06
 -1     24083 5.45051E-06 6.92553E-05-6.35939E-06
 -1     24087 5.45051E-06 6.92553E-05-6.53255E-06
 -1     24091 5.45051E-06 6.92553E-05-6.70571E-06
 -1     24095 5.45051E-06 6.92553E-05-6.87887E-06
 -1     24099 5.45051E-06 6.92553E-05-7.05203E-06
 -1     24103 5.45051E-06 6.92553E-05-7.22519E-06
 -1     24109 6.75155E-05 1.06934E-05-5.58017E-06
 -1     24110 6.82442E-05 5.37093E-06-5.66675E-06
 -1     24111 6.80012E-05 1.07703E-05-5.66675E-06
 -1     24116 6.75155E-05 1.06934E-05-5.75333E-06
 -1     24117 6.82442E-05 5.37093E-06-5.83991E-06
 -1     24118 6.80012E-05 1.07703E-05-5.83991E-06
 -1     24123 6.75155E-05 1.06934E-05-5.92649E-06
 -1     24124 6.82442E-05 5.37093E-06-6.01307E-06
 -1     24125 6.80012E-05 1.07703E-05-6.01307E-06
 -1     24130 6.75155E-05 1.06934E-05-6.09965E-06
 -1     24131 6.82442E-05 5.37093E-06-6.18623E-06
 -1     24132 6.80012E-05 1.07703E-05-6.18623E-06
 -1     24137 6.75155E-05 1.06934E-05-6.27281E-06
 -1     24138 6.82442E-05 5.37093E-06-6.35939E-06
 -1     24139 6.80012E-05 1.07703E-05-6.35939E-06
 -1     24144 6.75155E-05 1.06934E-05-6.44597E-06
 -1     24145 6.82442E-05 5.37093E-06-6.53255E-06
 -1     24146 6.80012E-05 1.07703E-05-6.53255E-06
 -1     24151 6.75155E-05 1.06934E-05-6.61913E-06
 -1     24152 6.82442E-05 5.37093E-06-6.70571E-06
 -1     24153 6.80012E-05 1.07703E-05-6.70571E-06
 -1     24158 6.75155E-05 1.06934E-05-6.79229E-06
 -1     24159 6.82442E-05 5.37093E-06-6.87887E-06
 -1     24160 6.80012E-05 1.07703E-05-6.87887E-06
 -1     24165 6.75155E-05 1.06934E-05-6.96545E-06
 -1     24166 6.82442E-05 5.37093E-06-7.05203E-06
 -1     24167 6.80012E-05 1.07703E-05-7.05203E-06
 -1     24172 6.75155E-05 1.06934E-05-7.13861E-06
 -1     24173 6.82442E-05 5.37093E-06-7.22519E-06
 -1     24174 6.80012E-05 1.07703E-05-7.22519E-06
 -1     24179 6.75155E-05 1.06934E-05-7.31177E-06
 -1     24183 6.50115E-05 2.11235E-05-5.58017E-06
 -1     24184 6.65638E-05 1.59806E-05-5.66675E-06
 -1     24185 6.54792E-05 2.12755E-05-5.66675E-06
 -1     24190 6.50115E-05 2.11235E-05-5.75333E-06
 -1     24191 6.65638E-05 1.59806E-05-5.83991E-06
 -1     24192 6.54792E-05 2.12755E-05-5.83991E-06
 -1     24197 6.50115E-05 2.11235E-05-5.92649E-06
 -1     24198 6.65638E-05 1.59806E-05-6.01307E-06
 -1     24199 6.54792E-05 2.12755E-05-6.01307E-06
 -1     24204 6.50115E-05 2.11235E-05-6.09965E-06
 -1     24205 6.65638E-05 1.59806E-05-6.18623E-06
 -1     24206 6.54792E-05 2.12755E-05-6.18623E-06
 -1     24211 6.50115E-05 2.11235E-05-6.27281E-06
 -1     24212 6.65638E-05 1.59806E-05-6.35939E-06
 -1     24213 6.54792E-05 2.12755E-05-6.35939E-06
 -1     24218 6.50115E-05 2.11235E-05-6.44597E-06
 -1     24219 6.65638E-05 1.59806E-05-6.53255E-06
 -1     24220 6.54792E-05 2.12755E-05-6.53255E-06
 -1     24225 6.50115E-05 2.11235E-05-6.61913E-06
 -1     24226 6.65638E-05 1.59806E-05-6.70571E-06
 -1     24227 6.54792E-05 2.12755E-05-6.70571E-06
 -1     24232 6.50115E-05 2.11235E-05-6.79229E-06
 -1     24233 6.65638E-05 1.59806E-05-6.87887E-06
 -1     24234 6.54792E-05 2.12755E-05-6.87887E-06
 -1     24239 6.50115E-05 2.11235E-05-6.96545E-06
 -1     24240 6.65638E-05 1.59806E-05-7.05203E-06
 -1     24241 6.54792E-05 2.12755E-05-7.05203E-06
 -1     24246 6.50115E-05 2.11235E-05-7.13861E-06
 -1     24247 6.65638E-05 1.59806E-05-7.22519E-06
 -1     24248 6.54792E-05 2.12755E-05-7.22519E-06
 -1     24253 6.50115E-05 2.11235E-05-7.31177E-06
 -1     24257 6.09066E-05 3.10335E-05-5.58017E-06
 -1     24258 6.32444E-05 2.61967E-05-5.66675E-06
 -1     24259 6.13448E-05 3.12567E-05-5.66675E-06
 -1     24264 6.09066E-05 3.10335E-05-5.75333E-06
 -1     24265 6.32444E-05 2.61967E-05-5.83991E-06
 -1     24266 6.13448E-05 3.12567E-05-5.83991E-06
 -1     24271 6.09066E-05 3.10335E-05-5.92649E-06
 -1     24272 6.32444E-05 2.61967E-05-6.01307E-06
 -1     24273 6.13448E-05 3.12567E-05-6.01307E-06
 -1     24278 6.09066E-05 3.10335E-05-6.09965E-06
 -1     24279 6.32444E-05 2.61967E-05-6.18623E-06
 -1     24280 6.13448E-05 3.12567E-05-6.18623E-06
 -1     24285 6.09066E-05 3.10335E-05-6.27281E-06
 -1     24286 6.32444E-05 2.61967E-05-6.35939E-06
 -1     24287 6.13448E-05 3.12567E-05-6.35939E-06
 -1     24292 6.09066E-05 3.10335E-05-6.44597E-06
 -1     24293 6.32444E-05 2.61967E-05-6.53255E-06
 -1     24294 6.13448E-05 3.12567E-05-6.53255E-06
 -1     24299 6.09066E-05 3.10335E-05-6.61913E-06
 -1     24300 6.32444E-05 2.61967E-05-6.70571E-06
 -1     24301 6.13448E-05 3.12567E-05-6.70571E-06
 -1     24306 6.09066E-05 3.10335E-05-6.79229E-06
 -1     24307 6.32444E-05 2.61967E-05-6.87887E-06
 -1     24308 6.13448E-05 3.12567E-05-6.87887E-06
 -1     24313 6.09066E-05 3.10335E-05-6.96545E-06
 -1     24314 6.32444E-05 2.61967E-05-7.05203E-06
 -1     24315 6.13448E-05 3.12567E-05-7.05203E-06
 -1     24320 6.09066E-05 3.10335E-05-7.13861E-06
 -1     24321 6.32444E-05 2.61967E-05-7.22519E-06
 -1     24322 6.13448E-05 3.12567E-05-7.22519E-06
 -1     24327 6.09066E-05 3.10335E-05-7.31177E-06
 -1     24331 5.53021E-05 4.01793E-05-5.58017E-06
 -1     24332 5.83677E-05 3.57677E-05-5.66675E-06
 -1     24333 5.56999E-05 4.04683E-05-5.66675E-06
 -1     24338 5.53021E-05 4.01793E-05-5.75333E-06
 -1     24339 5.83677E-05 3.57677E-05-5.83991E-06
 -1     24340 5.56999E-05 4.04683E-05-5.83991E-06
 -1     24345 5.53021E-05 4.01793E-05-5.92649E-06
 -1     24346 5.83677E-05 3.57677E-05-6.01307E-06
 -1     24347 5.56999E-05 4.04683E-05-6.01307E-06
 -1     24352 5.53021E-05 4.01793E-05-6.09965E-06
 -1     24353 5.83677E-05 3.57677E-05-6.18623E-06
 -1     24354 5.56999E-05 4.04683E-05-6.18623E-06
 -1     24359 5.53021E-05 4.01793E-05-6.27281E-06
 -1     24360 5.83677E-05 3.57677E-05-6.35939E-06
 -1     24361 5.56999E-05 4.04683E-05-6.35939E-06
 -1     24366 5.53021E-05 4.01793E-05-6.44597E-06
 -1     24367 5.83677E-05 3.57677E-05-6.53255E-06
 -1     24368 5.56999E-05 4.04683E-05-6.53255E-06
 -1     24373 5.53021E-05 4.01793E-05-6.61913E-06
 -1     24374 5.83677E-05 3.57677E-05-6.70571E-06
 -1     24375 5.56999E-05 4.04683E-05-6.70571E-06
 -1     24380 5.53021E-05 4.01793E-05-6.79229E-06
 -1     24381 5.83677E-05 3.57677E-05-6.87887E-06
 -1     24382 5.56999E-05 4.04683E-05-6.87887E-06
 -1     24387 5.53021E-05 4.01793E-05-6.96545E-06
 -1     24388 5.83677E-05 3.57677E-05-7.05203E-06
 -1     24389 5.56999E-05 4.04683E-05-7.05203E-06
 -1     24394 5.53021E-05 4.01793E-05-7.13861E-06
 -1     24395 5.83677E-05 3.57677E-05-7.22519E-06
 -1     24396 5.56999E-05 4.04683E-05-7.22519E-06
 -1     24401 5.53021E-05 4.01793E-05-7.31177E-06
 -1     24405 4.83358E-05 4.83358E-05-5.58017E-06
 -1     24406 5.20538E-05 4.44581E-05-5.66675E-06
 -1     24407 4.86835E-05 4.86835E-05-5.66675E-06
 -1     24412 4.83358E-05 4.83358E-05-5.75333E-06
 -1     24413 5.20538E-05 4.44581E-05-5.83991E-06
 -1     24414 4.86835E-05 4.86835E-05-5.83991E-06
 -1     24419 4.83358E-05 4.83358E-05-5.92649E-06
 -1     24420 5.20538E-05 4.44581E-05-6.01307E-06
 -1     24421 4.86835E-05 4.86835E-05-6.01307E-06
 -1     24426 4.83358E-05 4.83358E-05-6.09965E-06
 -1     24427 5.20538E-05 4.44581E-05-6.18623E-06
 -1     24428 4.86835E-05 4.86835E-05-6.18623E-06
 -1     24433 4.83358E-05 4.83358E-05-6.27281E-06
 -1     24434 5.20538E-05 4.44581E-05-6.35939E-06
 -1     24435 4.86835E-05 4.86835E-05-6.35939E-06
 -1     24440 4.83358E-05 4.83358E-05-6.44597E-06
 -1     24441 5.20538E-05 4.44581E-05-6.53255E-06
 -1     24442 4.86835E-05 4.86835E-05-6.53255E-06
 -1     24447 4.83358E-05 4.83358E-05-6.61913E-06
 -1     24448 5.20538E-05 4.44581E-05-6.70571E-06
 -1     24449 4.86835E-05 4.86835E-05-6.70571E-06
 -1     24454 4.83358E-05 4.83358E-05-6.79229E-06
 -1     24455 5.20538E-05 4.44581E-05-6.87887E-06
 -1     24456 4.86835E-05 4.86835E-05-6.87887E-06
 -1     24461 4.83358E-05 4.83358E-05-6.96545E-06
 -1     24462 5.20538E-05 4.44581E-05-7.05203E-06
 -1     24463 4.86835E-05 4.86835E-05-7.05203E-06
 -1     24468 4.83358E-05 4.83358E-05-7.13861E-06
 -1     24469 5.20538E-05 4.44581E-05-7.22519E-06
 -1     24470 4.86835E-05 4.86835E-05-7.22519E-06
 -1     24475 4.83358E-05 4.83358E-05-7.31177E-06
 -1     24479 4.01793E-05 5.53021E-05-5.58017E-06
 -1     24480 4.44581E-05 5.20538E-05-5.66675E-06
 -1     24481 4.04683E-05 5.56999E-05-5.66675E-06
 -1     24486 4.01793E-05 5.53021E-05-5.75333E-06
 -1     24487 4.44581E-05 5.20538E-05-5.83991E-06
 -1     24488 4.04683E-05 5.56999E-05-5.83991E-06
 -1     24493 4.01793E-05 5.53021E-05-5.92649E-06
 -1     24494 4.44581E-05 5.20538E-05-6.01307E-06
 -1     24495 4.04683E-05 5.56999E-05-6.01307E-06
 -1     24500 4.01793E-05 5.53021E-05-6.09965E-06
 -1     24501 4.44581E-05 5.20538E-05-6.18623E-06
 -1     24502 4.04683E-05 5.56999E-05-6.18623E-06
 -1     24507 4.01793E-05 5.53021E-05-6.27281E-06
 -1     24508 4.44581E-05 5.20538E-05-6.35939E-06
 -1     24509 4.04683E-05 5.56999E-05-6.35939E-06
 -1     24514 4.01793E-05 5.53021E-05-6.44597E-06
 -1     24515 4.44581E-05 5.20538E-05-6.53255E-06
 -1     24516 4.04683E-05 5.56999E-05-6.53255E-06
 -1     24521 4.01793E-05 5.53021E-05-6.61913E-06
 -1     24522 4.44581E-05 5.20538E-05-6.70571E-06
 -1     24523 4.04683E-05 5.56999E-05-6.70571E-06
 -1     24528 4.01793E-05 5.53021E-05-6.79229E-06
 -1     24529 4.44581E-05 5.20538E-05-6.87887E-06
 -1     24530 4.04683E-05 5.56999E-05-6.87887E-06
 -1     24535 4.01793E-05 5.53021E-05-6.96545E-06
 -1     24536 4.44581E-05 5.20538E-05-7.05203E-06
 -1     24537 4.04683E-05 5.56999E-05-7.05203E-06
 -1     24542 4.01793E-05 5.53021E-05-7.13861E-06
 -1     24543 4.44581E-05 5.20538E-05-7.22519E-06
 -1     24544 4.04683E-05 5.56999E-05-7.22519E-06
 -1     24549 4.01793E-05 5.53021E-05-7.31177E-06
 -1     24553 3.10335E-05 6.09066E-05-5.58017E-06
 -1     24554 3.57677E-05 5.83677E-05-5.66675E-06
 -1     24555 3.12567E-05 6.13448E-05-5.66675E-06
 -1     24560 3.10335E-05 6.09066E-05-5.75333E-06
 -1     24561 3.57677E-05 5.83677E-05-5.83991E-06
 -1     24562 3.12567E-05 6.13448E-05-5.83991E-06
 -1     24567 3.10335E-05 6.09066E-05-5.92649E-06
 -1     24568 3.57677E-05 5.83677E-05-6.01307E-06
 -1     24569 3.12567E-05 6.13448E-05-6.01307E-06
 -1     24574 3.10335E-05 6.09066E-05-6.09965E-06
 -1     24575 3.57677E-05 5.83677E-05-6.18623E-06
 -1     24576 3.12567E-05 6.13448E-05-6.18623E-06
 -1     24581 3.10335E-05 6.09066E-05-6.27281E-06
 -1     24582 3.57677E-05 5.83677E-05-6.35939E-06
 -1     24583 3.12567E-05 6.13448E-05-6.35939E-06
 -1     24588 3.10335E-05 6.09066E-05-6.44597E-06
 -1     24589 3.57677E-05 5.83677E-05-6.53255E-06
 -1     24590 3.12567E-05 6.13448E-05-6.53255E-06
 -1     24595 3.10335E-05 6.09066E-05-6.61913E-06
 -1     24596 3.57677E-05 5.83677E-05-6.70571E-06
 -1     24597 3.12567E-05 6.13448E-05-6.70571E-06
 -1     24602 3.10335E-05 6.09066E-05-6.79229E-06
 -1     24603 3.57677E-05 5.83677E-05-6.87887E-06
 -1     24604 3.12567E-05 6.13448E-05-6.87887E-06
 -1     24609 3.10335E-05 6.09066E-05-6.96545E-06
 -1     24610 3.57677E-05 5.83677E-05-7.05203E-06
 -1     24611 3.12567E-05 6.13448E-05-7.05203E-06
 -1     24616 3.10335E-05 6.09066E-05-7.13861E-06
 -1     24617 3.57677E-05 5.83677E-05-7.22519E-06
 -1     24618 3.12567E-05 6.13448E-05-7.22519E-06
 -1     24623 3.10335E-05 6.09066E-05-7.31177E-06
 -1     24627 2.11235E-05 6.50115E-05-5.58017E-06
 -1     24628 2.61967E-05 6.32444E-05-5.66675E-06
 -1     24629 2.12755E-05 6.54792E-05-5.66675E-06
 -1     24634 2.11235E-05 6.50115E-05-5.75333E-06
 -1     24635 2.61967E-05 6.32444E-05-5.83991E-06
 -1     24636 2.12755E-05 6.54792E-05-5.83991E-06
 -1     24641 2.11235E-05 6.50115E-05-5.92649E-06
 -1     24642 2.61967E-05 6.32444E-05-6.01307E-06
 -1     24643 2.12755E-05 6.54792E-05-6.01307E-06
 -1     24648 2.11235E-05 6.50115E-05-6.09965E-06
 -1     24649 2.61967E-05 6.32444E-05-6.18623E-06
 -1     24650 2.12755E-05 6.54792E-05-6.18623E-06
 -1     24655 2.11235E-05 6.50115E-05-6.27281E-06
 -1     24656 2.61967E-05 6.32444E-05-6.35939E-06
 -1     24657 2.12755E-05 6.54792E-05-6.35939E-06
 -1     24662 2.11235E-05 6.50115E-05-6.44597E-06
 -1     24663 2.61967E-05 6.32444E-05-6.53255E-06
 -1     24664 2.12755E-05 6.54792E-05-6.53255E-06
 -1     24669 2.11235E-05 6.50115E-05-6.61913E-06
 -1     24670 2.61967E-05 6.32444E-05-6.70571E-06
 -1     24671 2.12755E-05 6.54792E-05-6.70571E-06
 -1     24676 2.11235E-05 6.50115E-05-6.79229E-06
 -1     24677 2.61967E-05 6.32444E-05-6.87887E-06
 -1     24678 2.12755E-05 6.54792E-05-6.87887E-06
 -1     24683 2.11235E-05 6.50115E-05-6.96545E-06
 -1     24684 2.61967E-05 6.32444E-05-7.05203E-06
 -1     24685 2.12755E-05 6.54792E-05-7.05203E-06
 -1     24690 2.11235E-05 6.50115E-05-7.13861E-06
 -1     24691 2.61967E-05 6.32444E-05-7.22519E-06
 -1     24692 2.12755E-05 6.54792E-05-7.22519E-06
 -1     24697 2.11235E-05 6.50115E-05-7.31177E-06
 -1     24701 1.06934E-05 6.75155E-05-5.58017E-06
 -1     24702 1.59806E-05 6.65638E-05-5.66675E-06
 -1     24703 1.07703E-05 6.80012E-05-5.66675E-06
 -1     24708 1.06934E-05 6.75155E-05-5.75333E-06
 -1     24709 1.59806E-05 6.65638E-05-5.83991E-06
 -1     24710 1.07703E-05 6.80012E-05-5.83991E-06
 -1     24715 1.06934E-05 6.75155E-05-5.92649E-06
 -1     24716 1.59806E-05 6.65638E-05-6.01307E-06
 -1     24717 1.07703E-05 6.80012E-05-6.01307E-06
 -1     24722 1.06934E-05 6.75155E-05-6.09965E-06
 -1     24723 1.59806E-05 6.65638E-05-6.18623E-06
 -1     24724 1.07703E-05 6.80012E-05-6.18623E-06
 -1     24729 1.06934E-05 6.75155E-05-6.27281E-06
 -1     24730 1.59806E-05 6.65638E-05-6.35939E-06
 -1     24731 1.07703E-05 6.80012E-05-6.35939E-06
 -1     24736 1.06934E-05 6.75155E-05-6.44597E-06
 -1     24737 1.59806E-05 6.65638E-05-6.53255E-06
 -1     24738 1.07703E-05 6.80012E-05-6.53255E-06
 -1     24743 1.06934E-05 6.75155E-05-6.61913E-06
 -1     24744 1.59806E-05 6.65638E-05-6.70571E-06
 -1     24745 1.07703E-05 6.80012E-05-6.70571E-06
 -1     24750 1.06934E-05 6.75155E-05-6.79229E-06
 -1     24751 1.59806E-05 6.65638E-05-6.87887E-06
 -1     24752 1.07703E-05 6.80012E-05-6.87887E-06
 -1     24757 1.06934E-05 6.75155E-05-6.96545E-06
 -1     24758 1.59806E-05 6.65638E-05-7.05203E-06
 -1     24759 1.07703E-05 6.80012E-05-7.05203E-06
 -1     24764 1.06934E-05 6.75155E-05-7.13861E-06
 -1     24765 1.59806E-05 6.65638E-05-7.22519E-06
 -1     24766 1.07703E-05 6.80012E-05-7.22519E-06
 -1     24771 1.06934E-05 6.75155E-05-7.31177E-06
 -1     24775 5.37093E-06 6.82442E-05-5.66675E-06
 -1     24779 5.37093E-06 6.82442E-05-5.83991E-06
 -1     24783 5.37093E-06 6.82442E-05-6.01307E-06
 -1     24787 5.37093E-06 6.82442E-05-6.18623E-06
 -1     24791 5.37093E-06 6.82442E-05-6.35939E-06
 -1     24795 5.37093E-06 6.82442E-05-6.53255E-06
 -1     24799 5.37093E-06 6.82442E-05-6.70571E-06
 -1     24803 5.37093E-06 6.82442E-05-6.87887E-06
 -1     24807 5.37093E-06 6.82442E-05-7.05203E-06
 -1     24811 5.37093E-06 6.82442E-05-7.22519E-06
 -1     24817 6.66110E-05 1.05502E-05-5.58017E-06
 -1     24818 6.73250E-05 5.29860E-06-5.66675E-06
 -1     24819 6.70524E-05 1.06201E-05-5.66675E-06
 -1     24824 6.66110E-05 1.05502E-05-5.75333E-06
 -1     24825 6.73250E-05 5.29860E-06-5.83991E-06
 -1     24826 6.70524E-05 1.06201E-05-5.83991E-06
 -1     24831 6.66110E-05 1.05502E-05-5.92649E-06
 -1     24832 6.73250E-05 5.29860E-06-6.01307E-06
 -1     24833 6.70524E-05 1.06201E-05-6.01307E-06
 -1     24838 6.66110E-05 1.05502E-05-6.09965E-06
 -1     24839 6.73250E-05 5.29860E-06-6.18623E-06
 -1     24840 6.70524E-05 1.06201E-05-6.18623E-06
 -1     24845 6.66110E-05 1.05502E-05-6.27281E-06
 -1     24846 6.73250E-05 5.29860E-06-6.35939E-06
 -1     24847 6.70524E-05 1.06201E-05-6.35939E-06
 -1     24852 6.66110E-05 1.05502E-05-6.44597E-06
 -1     24853 6.73250E-05 5.29860E-06-6.53255E-06
 -1     24854 6.70524E-05 1.06201E-05-6.53255E-06
 -1     24859 6.66110E-05 1.05502E-05-6.61913E-06
 -1     24860 6.73250E-05 5.29860E-06-6.70571E-06
 -1     24861 6.70524E-05 1.06201E-05-6.70571E-06
 -1     24866 6.66110E-05 1.05502E-05-6.79229E-06
 -1     24867 6.73250E-05 5.29860E-06-6.87887E-06
 -1     24868 6.70524E-05 1.06201E-05-6.87887E-06
 -1     24873 6.66110E-05 1.05502E-05-6.96545E-06
 -1     24874 6.73250E-05 5.29860E-06-7.05203E-06
 -1     24875 6.70524E-05 1.06201E-05-7.05203E-06
 -1     24880 6.66110E-05 1.05502E-05-7.13861E-06
 -1     24881 6.73250E-05 5.29860E-06-7.22519E-06
 -1     24882 6.70524E-05 1.06201E-05-7.22519E-06
 -1     24887 6.66110E-05 1.05502E-05-7.31177E-06
 -1     24891 6.41405E-05 2.08405E-05-5.58017E-06
 -1     24892 6.56673E-05 1.57653E-05-5.66675E-06
 -1     24893 6.45655E-05 2.09786E-05-5.66675E-06
 -1     24898 6.41405E-05 2.08405E-05-5.75333E-06
 -1     24899 6.56673E-05 1.57653E-05-5.83991E-06
 -1     24900 6.45655E-05 2.09786E-05-5.83991E-06
 -1     24905 6.41405E-05 2.08405E-05-5.92649E-06
 -1     24906 6.56673E-05 1.57653E-05-6.01307E-06
 -1     24907 6.45655E-05 2.09786E-05-6.01307E-06
 -1     24912 6.41405E-05 2.08405E-05-6.09965E-06
 -1     24913 6.56673E-05 1.57653E-05-6.18623E-06
 -1     24914 6.45655E-05 2.09786E-05-6.18623E-06
 -1     24919 6.41405E-05 2.08405E-05-6.27281E-06
 -1     24920 6.56673E-05 1.57653E-05-6.35939E-06
 -1     24921 6.45655E-05 2.09786E-05-6.35939E-06
 -1     24926 6.41405E-05 2.08405E-05-6.44597E-06
 -1     24927 6.56673E-05 1.57653E-05-6.53255E-06
 -1     24928 6.45655E-05 2.09786E-05-6.53255E-06
 -1     24933 6.41405E-05 2.08405E-05-6.61913E-06
 -1     24934 6.56673E-05 1.57653E-05-6.70571E-06
 -1     24935 6.45655E-05 2.09786E-05-6.70571E-06
 -1     24940 6.41405E-05 2.08405E-05-6.79229E-06
 -1     24941 6.56673E-05 1.57653E-05-6.87887E-06
 -1     24942 6.45655E-05 2.09786E-05-6.87887E-06
 -1     24947 6.41405E-05 2.08405E-05-6.96545E-06
 -1     24948 6.56673E-05 1.57653E-05-7.05203E-06
 -1     24949 6.45655E-05 2.09786E-05-7.05203E-06
 -1     24954 6.41405E-05 2.08405E-05-7.13861E-06
 -1     24955 6.56673E-05 1.57653E-05-7.22519E-06
 -1     24956 6.45655E-05 2.09786E-05-7.22519E-06
 -1     24961 6.41405E-05 2.08405E-05-7.31177E-06
 -1     24965 6.00907E-05 3.06177E-05-5.58017E-06
 -1     24966 6.23926E-05 2.58438E-05-5.66675E-06
 -1     24967 6.04888E-05 3.08206E-05-5.66675E-06
 -1     24972 6.00907E-05 3.06177E-05-5.75333E-06
 -1     24973 6.23926E-05 2.58438E-05-5.83991E-06
 -1     24974 6.04888E-05 3.08206E-05-5.83991E-06
 -1     24979 6.00907E-05 3.06177E-05-5.92649E-06
 -1     24980 6.23926E-05 2.58438E-05-6.01307E-06
 -1     24981 6.04888E-05 3.08206E-05-6.01307E-06
 -1     24986 6.00907E-05 3.06177E-05-6.09965E-06
 -1     24987 6.23926E-05 2.58438E-05-6.18623E-06
 -1     24988 6.04888E-05 3.08206E-05-6.18623E-06
 -1     24993 6.00907E-05 3.06177E-05-6.27281E-06
 -1     24994 6.23926E-05 2.58438E-05-6.35939E-06
 -1     24995 6.04888E-05 3.08206E-05-6.35939E-06
 -1     25000 6.00907E-05 3.06177E-05-6.44597E-06
 -1     25001 6.23926E-05 2.58438E-05-6.53255E-06
 -1     25002 6.04888E-05 3.08206E-05-6.53255E-06
 -1     25007 6.00907E-05 3.06177E-05-6.61913E-06
 -1     25008 6.23926E-05 2.58438E-05-6.70571E-06
 -1     25009 6.04888E-05 3.08206E-05-6.70571E-06
 -1     25014 6.00907E-05 3.06177E-05-6.79229E-06
 -1     25015 6.23926E-05 2.58438E-05-6.87887E-06
 -1     25016 6.04888E-05 3.08206E-05-6.87887E-06
 -1     25021 6.00907E-05 3.06177E-05-6.96545E-06
 -1     25022 6.23926E-05 2.58438E-05-7.05203E-06
 -1     25023 6.04888E-05 3.08206E-05-7.05203E-06
 -1     25028 6.00907E-05 3.06177E-05-7.13861E-06
 -1     25029 6.23926E-05 2.58438E-05-7.22519E-06
 -1     25030 6.04888E-05 3.08206E-05-7.22519E-06
 -1     25035 6.00907E-05 3.06177E-05-7.31177E-06
 -1     25039 5.45612E-05 3.96410E-05-5.58017E-06
 -1     25040 5.75815E-05 3.52860E-05-5.66675E-06
 -1     25041 5.49227E-05 3.99037E-05-5.66675E-06
 -1     25046 5.45612E-05 3.96410E-05-5.75333E-06
 -1     25047 5.75815E-05 3.52860E-05-5.83991E-06
 -1     25048 5.49227E-05 3.99037E-05-5.83991E-06
 -1     25053 5.45612E-05 3.96410E-05-5.92649E-06
 -1     25054 5.75815E-05 3.52860E-05-6.01307E-06
 -1     25055 5.49227E-05 3.99037E-05-6.01307E-06
 -1     25060 5.45612E-05 3.96410E-05-6.09965E-06
 -1     25061 5.75815E-05 3.52860E-05-6.18623E-06
 -1     25062 5.49227E-05 3.99037E-05-6.18623E-06
 -1     25067 5.45612E-05 3.96410E-05-6.27281E-06
 -1     25068 5.75815E-05 3.52860E-05-6.35939E-06
 -1     25069 5.49227E-05 3.99037E-05-6.35939E-06
 -1     25074 5.45612E-05 3.96410E-05-6.44597E-06
 -1     25075 5.75815E-05 3.52860E-05-6.53255E-06
 -1     25076 5.49227E-05 3.99037E-05-6.53255E-06
 -1     25081 5.45612E-05 3.96410E-05-6.61913E-06
 -1     25082 5.75815E-05 3.52860E-05-6.70571E-06
 -1     25083 5.49227E-05 3.99037E-05-6.70571E-06
 -1     25088 5.45612E-05 3.96410E-05-6.79229E-06
 -1     25089 5.75815E-05 3.52860E-05-6.87887E-06
 -1     25090 5.49227E-05 3.99037E-05-6.87887E-06
 -1     25095 5.45612E-05 3.96410E-05-6.96545E-06
 -1     25096 5.75815E-05 3.52860E-05-7.05203E-06
 -1     25097 5.49227E-05 3.99037E-05-7.05203E-06
 -1     25102 5.45612E-05 3.96410E-05-7.13861E-06
 -1     25103 5.75815E-05 3.52860E-05-7.22519E-06
 -1     25104 5.49227E-05 3.99037E-05-7.22519E-06
 -1     25109 5.45612E-05 3.96410E-05-7.31177E-06
 -1     25113 4.76882E-05 4.76882E-05-5.58017E-06
 -1     25114 5.13527E-05 4.38593E-05-5.66675E-06
 -1     25115 4.80042E-05 4.80042E-05-5.66675E-06
 -1     25120 4.76882E-05 4.76882E-05-5.75333E-06
 -1     25121 5.13527E-05 4.38593E-05-5.83991E-06
 -1     25122 4.80042E-05 4.80042E-05-5.83991E-06
 -1     25127 4.76882E-05 4.76882E-05-5.92649E-06
 -1     25128 5.13527E-05 4.38593E-05-6.01307E-06
 -1     25129 4.80042E-05 4.80042E-05-6.01307E-06
 -1     25134 4.76882E-05 4.76882E-05-6.09965E-06
 -1     25135 5.13527E-05 4.38593E-05-6.18623E-06
 -1     25136 4.80042E-05 4.80042E-05-6.18623E-06
 -1     25141 4.76882E-05 4.76882E-05-6.27281E-06
 -1     25142 5.13527E-05 4.38593E-05-6.35939E-06
 -1     25143 4.80042E-05 4.80042E-05-6.35939E-06
 -1     25148 4.76882E-05 4.76882E-05-6.44597E-06
 -1     25149 5.13527E-05 4.38593E-05-6.53255E-06
 -1     25150 4.80042E-05 4.80042E-05-6.53255E-06
 -1     25155 4.76882E-05 4.76882E-05-6.61913E-06
 -1     25156 5.13527E-05 4.38593E-05-6.70571E-06
 -1     25157 4.80042E-05 4.80042E-05-6.70571E-06
 -1     25162 4.76882E-05 4.76882E-05-6.79229E-06
 -1     25163 5.13527E-05 4.38593E-05-6.87887E-06
 -1     25164 4.80042E-05 4.80042E-05-6.87887E-06
 -1     25169 4.76882E-05 4.76882E-05-6.96545E-06
 -1     25170 5.13527E-05 4.38593E-05-7.05203E-06
 -1     25171 4.80042E-05 4.80042E-05-7.05203E-06
 -1     25176 4.76882E-05 4.76882E-05-7.13861E-06
 -1     25177 5.13527E-05 4.38593E-05-7.22519E-06
 -1     25178 4.80042E-05 4.80042E-05-7.22519E-06
 -1     25183 4.76882E-05 4.76882E-05-7.31177E-06
 -1     25187 3.96410E-05 5.45612E-05-5.58017E-06
 -1     25188 4.38593E-05 5.13527E-05-5.66675E-06
 -1     25189 3.99037E-05 5.49227E-05-5.66675E-06
 -1     25194 3.96410E-05 5.45612E-05-5.75333E-06
 -1     25195 4.38593E-05 5.13527E-05-5.83991E-06
 -1     25196 3.99037E-05 5.49227E-05-5.83991E-06
 -1     25201 3.96410E-05 5.45612E-05-5.92649E-06
 -1     25202 4.38593E-05 5.13527E-05-6.01307E-06
 -1     25203 3.99037E-05 5.49227E-05-6.01307E-06
 -1     25208 3.96410E-05 5.45612E-05-6.09965E-06
 -1     25209 4.38593E-05 5.13527E-05-6.18623E-06
 -1     25210 3.99037E-05 5.49227E-05-6.18623E-06
 -1     25215 3.96410E-05 5.45612E-05-6.27281E-06
 -1     25216 4.38593E-05 5.13527E-05-6.35939E-06
 -1     25217 3.99037E-05 5.49227E-05-6.35939E-06
 -1     25222 3.96410E-05 5.45612E-05-6.44597E-06
 -1     25223 4.38593E-05 5.13527E-05-6.53255E-06
 -1     25224 3.99037E-05 5.49227E-05-6.53255E-06
 -1     25229 3.96410E-05 5.45612E-05-6.61913E-06
 -1     25230 4.38593E-05 5.13527E-05-6.70571E-06
 -1     25231 3.99037E-05 5.49227E-05-6.70571E-06
 -1     25236 3.96410E-05 5.45612E-05-6.79229E-06
 -1     25237 4.38593E-05 5.13527E-05-6.87887E-06
 -1     25238 3.99037E-05 5.49227E-05-6.87887E-06
 -1     25243 3.96410E-05 5.45612E-05-6.96545E-06
 -1     25244 4.38593E-05 5.13527E-05-7.05203E-06
 -1     25245 3.99037E-05 5.49227E-05-7.05203E-06
 -1     25250 3.96410E-05 5.45612E-05-7.13861E-06
 -1     25251 4.38593E-05 5.13527E-05-7.22519E-06
 -1     25252 3.99037E-05 5.49227E-05-7.22519E-06
 -1     25257 3.96410E-05 5.45612E-05-7.31177E-06
 -1     25261 3.06177E-05 6.00907E-05-5.58017E-06
 -1     25262 3.52860E-05 5.75815E-05-5.66675E-06
 -1     25263 3.08206E-05 6.04888E-05-5.66675E-06
 -1     25268 3.06177E-05 6.00907E-05-5.75333E-06
 -1     25269 3.52860E-05 5.75815E-05-5.83991E-06
 -1     25270 3.08206E-05 6.04888E-05-5.83991E-06
 -1     25275 3.06177E-05 6.00907E-05-5.92649E-06
 -1     25276 3.52860E-05 5.75815E-05-6.01307E-06
 -1     25277 3.08206E-05 6.04888E-05-6.01307E-06
 -1     25282 3.06177E-05 6.00907E-05-6.09965E-06
 -1     25283 3.52860E-05 5.75815E-05-6.18623E-06
 -1     25284 3.08206E-05 6.04888E-05-6.18623E-06
 -1     25289 3.06177E-05 6.00907E-05-6.27281E-06
 -1     25290 3.52860E-05 5.75815E-05-6.35939E-06
 -1     25291 3.08206E-05 6.04888E-05-6.35939E-06
 -1     25296 3.06177E-05 6.00907E-05-6.44597E-06
 -1     25297 3.52860E-05 5.75815E-05-6.53255E-06
 -1     25298 3.08206E-05 6.04888E-05-6.53255E-06
 -1     25303 3.06177E-05 6.00907E-05-6.61913E-06
 -1     25304 3.52860E-05 5.75815E-05-6.70571E-06
 -1     25305 3.08206E-05 6.04888E-05-6.70571E-06
 -1     25310 3.06177E-05 6.00907E-05-6.79229E-06
 -1     25311 3.52860E-05 5.75815E-05-6.87887E-06
 -1     25312 3.08206E-05 6.04888E-05-6.87887E-06
 -1     25317 3.06177E-05 6.00907E-05-6.96545E-06
 -1     25318 3.52860E-05 5.75815E-05-7.05203E-06
 -1     25319 3.08206E-05 6.04888E-05-7.05203E-06
 -1     25324 3.06177E-05 6.00907E-05-7.13861E-06
 -1     25325 3.52860E-05 5.75815E-05-7.22519E-06
 -1     25326 3.08206E-05 6.04888E-05-7.22519E-06
 -1     25331 3.06177E-05 6.00907E-05-7.31177E-06
 -1     25335 2.08405E-05 6.41405E-05-5.58017E-06
 -1     25336 2.58438E-05 6.23926E-05-5.66675E-06
 -1     25337 2.09786E-05 6.45655E-05-5.66675E-06
 -1     25342 2.08405E-05 6.41405E-05-5.75333E-06
 -1     25343 2.58438E-05 6.23926E-05-5.83991E-06
 -1     25344 2.09786E-05 6.45655E-05-5.83991E-06
 -1     25349 2.08405E-05 6.41405E-05-5.92649E-06
 -1     25350 2.58438E-05 6.23926E-05-6.01307E-06
 -1     25351 2.09786E-05 6.45655E-05-6.01307E-06
 -1     25356 2.08405E-05 6.41405E-05-6.09965E-06
 -1     25357 2.58438E-05 6.23926E-05-6.18623E-06
 -1     25358 2.09786E-05 6.45655E-05-6.18623E-06
 -1     25363 2.08405E-05 6.41405E-05-6.27281E-06
 -1     25364 2.58438E-05 6.23926E-05-6.35939E-06
 -1     25365 2.09786E-05 6.45655E-05-6.35939E-06
 -1     25370 2.08405E-05 6.41405E-05-6.44597E-06
 -1     25371 2.58438E-05 6.23926E-05-6.53255E-06
 -1     25372 2.09786E-05 6.45655E-05-6.53255E-06
 -1     25377 2.08405E-05 6.41405E-05-6.61913E-06
 -1     25378 2.58438E-05 6.23926E-05-6.70571E-06
 -1     25379 2.09786E-05 6.45655E-05-6.70571E-06
 -1     25384 2.08405E-05 6.41405E-05-6.79229E-06
 -1     25385 2.58438E-05 6.23926E-05-6.87887E-06
 -1     25386 2.09786E-05 6.45655E-05-6.87887E-06
 -1     25391 2.08405E-05 6.41405E-05-6.96545E-06
 -1     25392 2.58438E-05 6.23926E-05-7.05203E-06
 -1     25393 2.09786E-05 6.45655E-05-7.05203E-06
 -1     25398 2.08405E-05 6.41405E-05-7.13861E-06
 -1     25399 2.58438E-05 6.23926E-05-7.22519E-06
 -1     25400 2.09786E-05 6.45655E-05-7.22519E-06
 -1     25405 2.08405E-05 6.41405E-05-7.31177E-06
 -1     25409 1.05502E-05 6.66110E-05-5.58017E-06
 -1     25410 1.57653E-05 6.56673E-05-5.66675E-06
 -1     25411 1.06201E-05 6.70524E-05-5.66675E-06
 -1     25416 1.05502E-05 6.66110E-05-5.75333E-06
 -1     25417 1.57653E-05 6.56673E-05-5.83991E-06
 -1     25418 1.06201E-05 6.70524E-05-5.83991E-06
 -1     25423 1.05502E-05 6.66110E-05-5.92649E-06
 -1     25424 1.57653E-05 6.56673E-05-6.01307E-06
 -1     25425 1.06201E-05 6.70524E-05-6.01307E-06
 -1     25430 1.05502E-05 6.66110E-05-6.09965E-06
 -1     25431 1.57653E-05 6.56673E-05-6.18623E-06
 -1     25432 1.06201E-05 6.70524E-05-6.18623E-06
 -1     25437 1.05502E-05 6.66110E-05-6.27281E-06
 -1     25438 1.57653E-05 6.56673E-05-6.35939E-06
 -1     25439 1.06201E-05 6.70524E-05-6.35939E-06
 -1     25444 1.05502E-05 6.66110E-05-6.44597E-06
 -1     25445 1.57653E-05 6.56673E-05-6.53255E-06
 -1     25446 1.06201E-05 6.70524E-05-6.53255E-06
 -1     25451 1.05502E-05 6.66110E-05-6.61913E-06
 -1     25452 1.57653E-05 6.56673E-05-6.70571E-06
 -1     25453 1.06201E-05 6.70524E-05-6.70571E-06
 -1     25458 1.05502E-05 6.66110E-05-6.79229E-06
 -1     25459 1.57653E-05 6.56673E-05-6.87887E-06
 -1     25460 1.06201E-05 6.70524E-05-6.87887E-06
 -1     25465 1.05502E-05 6.66110E-05-6.96545E-06
 -1     25466 1.57653E-05 6.56673E-05-7.05203E-06
 -1     25467 1.06201E-05 6.70524E-05-7.05203E-06
 -1     25472 1.05502E-05 6.66110E-05-7.13861E-06
 -1     25473 1.57653E-05 6.56673E-05-7.22519E-06
 -1     25474 1.06201E-05 6.70524E-05-7.22519E-06
 -1     25479 1.05502E-05 6.66110E-05-7.31177E-06
 -1     25483 5.29860E-06 6.73250E-05-5.66675E-06
 -1     25487 5.29860E-06 6.73250E-05-5.83991E-06
 -1     25491 5.29860E-06 6.73250E-05-6.01307E-06
 -1     25495 5.29860E-06 6.73250E-05-6.18623E-06
 -1     25499 5.29860E-06 6.73250E-05-6.35939E-06
 -1     25503 5.29860E-06 6.73250E-05-6.53255E-06
 -1     25507 5.29860E-06 6.73250E-05-6.70571E-06
 -1     25511 5.29860E-06 6.73250E-05-6.87887E-06
 -1     25515 5.29860E-06 6.73250E-05-7.05203E-06
 -1     25519 5.29860E-06 6.73250E-05-7.22519E-06
 -1     25525 6.57897E-05 1.04201E-05-5.58017E-06
 -1     25526 6.64899E-05 5.23287E-06-5.66675E-06
 -1     25527 6.61904E-05 1.04835E-05-5.66675E-06
 -1     25532 6.57897E-05 1.04201E-05-5.75333E-06
 -1     25533 6.64899E-05 5.23287E-06-5.83991E-06
 -1     25534 6.61904E-05 1.04835E-05-5.83991E-06
 -1     25539 6.57897E-05 1.04201E-05-5.92649E-06
 -1     25540 6.64899E-05 5.23287E-06-6.01307E-06
 -1     25541 6.61904E-05 1.04835E-05-6.01307E-06
 -1     25546 6.57897E-05 1.04201E-05-6.09965E-06
 -1     25547 6.64899E-05 5.23287E-06-6.18623E-06
 -1     25548 6.61904E-05 1.04835E-05-6.18623E-06
 -1     25553 6.57897E-05 1.04201E-05-6.27281E-06
 -1     25554 6.64899E-05 5.23287E-06-6.35939E-06
 -1     25555 6.61904E-05 1.04835E-05-6.35939E-06
 -1     25560 6.57897E-05 1.04201E-05-6.44597E-06
 -1     25561 6.64899E-05 5.23287E-06-6.53255E-06
 -1     25562 6.61904E-05 1.04835E-05-6.53255E-06
 -1     25567 6.57897E-05 1.04201E-05-6.61913E-06
 -1     25568 6.64899E-05 5.23287E-06-6.70571E-06
 -1     25569 6.61904E-05 1.04835E-05-6.70571E-06
 -1     25574 6.57897E-05 1.04201E-05-6.79229E-06
 -1     25575 6.64899E-05 5.23287E-06-6.87887E-06
 -1     25576 6.61904E-05 1.04835E-05-6.87887E-06
 -1     25581 6.57897E-05 1.04201E-05-6.96545E-06
 -1     25582 6.64899E-05 5.23287E-06-7.05203E-06
 -1     25583 6.61904E-05 1.04835E-05-7.05203E-06
 -1     25588 6.57897E-05 1.04201E-05-7.13861E-06
 -1     25589 6.64899E-05 5.23287E-06-7.22519E-06
 -1     25590 6.61904E-05 1.04835E-05-7.22519E-06
 -1     25595 6.57897E-05 1.04201E-05-7.31177E-06
 -1     25599 6.33496E-05 2.05835E-05-5.58017E-06
 -1     25600 6.48527E-05 1.55698E-05-5.66675E-06
 -1     25601 6.37355E-05 2.07089E-05-5.66675E-06
 -1     25606 6.33496E-05 2.05835E-05-5.75333E-06
 -1     25607 6.48527E-05 1.55698E-05-5.83991E-06
 -1     25608 6.37355E-05 2.07089E-05-5.83991E-06
 -1     25613 6.33496E-05 2.05835E-05-5.92649E-06
 -1     25614 6.48527E-05 1.55698E-05-6.01307E-06
 -1     25615 6.37355E-05 2.07089E-05-6.01307E-06
 -1     25620 6.33496E-05 2.05835E-05-6.09965E-06
 -1     25621 6.48527E-05 1.55698E-05-6.18623E-06
 -1     25622 6.37355E-05 2.07089E-05-6.18623E-06
 -1     25627 6.33496E-05 2.05835E-05-6.27281E-06
 -1     25628 6.48527E-05 1.55698E-05-6.35939E-06
 -1     25629 6.37355E-05 2.07089E-05-6.35939E-06
 -1     25634 6.33496E-05 2.05835E-05-6.44597E-06
 -1     25635 6.48527E-05 1.55698E-05-6.53255E-06
 -1     25636 6.37355E-05 2.07089E-05-6.53255E-06
 -1     25641 6.33496E-05 2.05835E-05-6.61913E-06
 -1     25642 6.48527E-05 1.55698E-05-6.70571E-06
 -1     25643 6.37355E-05 2.07089E-05-6.70571E-06
 -1     25648 6.33496E-05 2.05835E-05-6.79229E-06
 -1     25649 6.48527E-05 1.55698E-05-6.87887E-06
 -1     25650 6.37355E-05 2.07089E-05-6.87887E-06
 -1     25655 6.33496E-05 2.05835E-05-6.96545E-06
 -1     25656 6.48527E-05 1.55698E-05-7.05203E-06
 -1     25657 6.37355E-05 2.07089E-05-7.05203E-06
 -1     25662 6.33496E-05 2.05835E-05-7.13861E-06
 -1     25663 6.48527E-05 1.55698E-05-7.22519E-06
 -1     25664 6.37355E-05 2.07089E-05-7.22519E-06
 -1     25669 6.33496E-05 2.05835E-05-7.31177E-06
 -1     25673 5.93497E-05 3.02402E-05-5.58017E-06
 -1     25674 6.16187E-05 2.55233E-05-5.66675E-06
 -1     25675 5.97112E-05 3.04244E-05-5.66675E-06
 -1     25680 5.93497E-05 3.02402E-05-5.75333E-06
 -1     25681 6.16187E-05 2.55233E-05-5.83991E-06
 -1     25682 5.97112E-05 3.04244E-05-5.83991E-06
 -1     25687 5.93497E-05 3.02402E-05-5.92649E-06
 -1     25688 6.16187E-05 2.55233E-05-6.01307E-06
 -1     25689 5.97112E-05 3.04244E-05-6.01307E-06
 -1     25694 5.93497E-05 3.02402E-05-6.09965E-06
 -1     25695 6.16187E-05 2.55233E-05-6.18623E-06
 -1     25696 5.97112E-05 3.04244E-05-6.18623E-06
 -1     25701 5.93497E-05 3.02402E-05-6.27281E-06
 -1     25702 6.16187E-05 2.55233E-05-6.35939E-06
 -1     25703 5.97112E-05 3.04244E-05-6.35939E-06
 -1     25708 5.93497E-05 3.02402E-05-6.44597E-06
 -1     25709 6.16187E-05 2.55233E-05-6.53255E-06
 -1     25710 5.97112E-05 3.04244E-05-6.53255E-06
 -1     25715 5.93497E-05 3.02402E-05-6.61913E-06
 -1     25716 6.16187E-05 2.55233E-05-6.70571E-06
 -1     25717 5.97112E-05 3.04244E-05-6.70571E-06
 -1     25722 5.93497E-05 3.02402E-05-6.79229E-06
 -1     25723 6.16187E-05 2.55233E-05-6.87887E-06
 -1     25724 5.97112E-05 3.04244E-05-6.87887E-06
 -1     25729 5.93497E-05 3.02402E-05-6.96545E-06
 -1     25730 6.16187E-05 2.55233E-05-7.05203E-06
 -1     25731 5.97112E-05 3.04244E-05-7.05203E-06
 -1     25736 5.93497E-05 3.02402E-05-7.13861E-06
 -1     25737 6.16187E-05 2.55233E-05-7.22519E-06
 -1     25738 5.97112E-05 3.04244E-05-7.22519E-06
 -1     25743 5.93497E-05 3.02402E-05-7.31177E-06
 -1     25747 5.38884E-05 3.91522E-05-5.58017E-06
 -1     25748 5.68673E-05 3.48483E-05-5.66675E-06
 -1     25749 5.42166E-05 3.93907E-05-5.66675E-06
 -1     25754 5.38884E-05 3.91522E-05-5.75333E-06
 -1     25755 5.68673E-05 3.48483E-05-5.83991E-06
 -1     25756 5.42166E-05 3.93907E-05-5.83991E-06
 -1     25761 5.38884E-05 3.91522E-05-5.92649E-06
 -1     25762 5.68673E-05 3.48483E-05-6.01307E-06
 -1     25763 5.42166E-05 3.93907E-05-6.01307E-06
 -1     25768 5.38884E-05 3.91522E-05-6.09965E-06
 -1     25769 5.68673E-05 3.48483E-05-6.18623E-06
 -1     25770 5.42166E-05 3.93907E-05-6.18623E-06
 -1     25775 5.38884E-05 3.91522E-05-6.27281E-06
 -1     25776 5.68673E-05 3.48483E-05-6.35939E-06
 -1     25777 5.42166E-05 3.93907E-05-6.35939E-06
 -1     25782 5.38884E-05 3.91522E-05-6.44597E-06
 -1     25783 5.68673E-05 3.48483E-05-6.53255E-06
 -1     25784 5.42166E-05 3.93907E-05-6.53255E-06
 -1     25789 5.38884E-05 3.91522E-05-6.61913E-06
 -1     25790 5.68673E-05 3.48483E-05-6.70571E-06
 -1     25791 5.42166E-05 3.93907E-05-6.70571E-06
 -1     25796 5.38884E-05 3.91522E-05-6.79229E-06
 -1     25797 5.68673E-05 3.48483E-05-6.87887E-06
 -1     25798 5.42166E-05 3.93907E-05-6.87887E-06
 -1     25803 5.38884E-05 3.91522E-05-6.96545E-06
 -1     25804 5.68673E-05 3.48483E-05-7.05203E-06
 -1     25805 5.42166E-05 3.93907E-05-7.05203E-06
 -1     25810 5.38884E-05 3.91522E-05-7.13861E-06
 -1     25811 5.68673E-05 3.48483E-05-7.22519E-06
 -1     25812 5.42166E-05 3.93907E-05-7.22519E-06
 -1     25817 5.38884E-05 3.91522E-05-7.31177E-06
 -1     25821 4.71002E-05 4.71002E-05-5.58017E-06
 -1     25822 5.07157E-05 4.33153E-05-5.66675E-06
 -1     25823 4.73871E-05 4.73871E-05-5.66675E-06
 -1     25828 4.71002E-05 4.71002E-05-5.75333E-06
 -1     25829 5.07157E-05 4.33153E-05-5.83991E-06
 -1     25830 4.73871E-05 4.73871E-05-5.83991E-06
 -1     25835 4.71002E-05 4.71002E-05-5.92649E-06
 -1     25836 5.07157E-05 4.33153E-05-6.01307E-06
 -1     25837 4.73871E-05 4.73871E-05-6.01307E-06
 -1     25842 4.71002E-05 4.71002E-05-6.09965E-06
 -1     25843 5.07157E-05 4.33153E-05-6.18623E-06
 -1     25844 4.73871E-05 4.73871E-05-6.18623E-06
 -1     25849 4.71002E-05 4.71002E-05-6.27281E-06
 -1     25850 5.07157E-05 4.33153E-05-6.35939E-06
 -1     25851 4.73871E-05 4.73871E-05-6.35939E-06
 -1     25856 4.71002E-05 4.71002E-05-6.44597E-06
 -1     25857 5.07157E-05 4.33153E-05-6.53255E-06
 -1     25858 4.73871E-05 4.73871E-05-6.53255E-06
 -1     25863 4.71002E-05 4.71002E-05-6.61913E-06
 -1     25864 5.07157E-05 4.33153E-05-6.70571E-06
 -1     25865 4.73871E-05 4.73871E-05-6.70571E-06
 -1     25870 4.71002E-05 4.71002E-05-6.79229E-06
 -1     25871 5.07157E-05 4.33153E-05-6.87887E-06
 -1     25872 4.73871E-05 4.73871E-05-6.87887E-06
 -1     25877 4.71002E-05 4.71002E-05-6.96545E-06
 -1     25878 5.07157E-05 4.33153E-05-7.05203E-06
 -1     25879 4.73871E-05 4.73871E-05-7.05203E-06
 -1     25884 4.71002E-05 4.71002E-05-7.13861E-06
 -1     25885 5.07157E-05 4.33153E-05-7.22519E-06
 -1     25886 4.73871E-05 4.73871E-05-7.22519E-06
 -1     25891 4.71002E-05 4.71002E-05-7.31177E-06
 -1     25895 3.91522E-05 5.38884E-05-5.58017E-06
 -1     25896 4.33153E-05 5.07157E-05-5.66675E-06
 -1     25897 3.93907E-05 5.42166E-05-5.66675E-06
 -1     25902 3.91522E-05 5.38884E-05-5.75333E-06
 -1     25903 4.33153E-05 5.07157E-05-5.83991E-06
 -1     25904 3.93907E-05 5.42166E-05-5.83991E-06
 -1     25909 3.91522E-05 5.38884E-05-5.92649E-06
 -1     25910 4.33153E-05 5.07157E-05-6.01307E-06
 -1     25911 3.93907E-05 5.42166E-05-6.01307E-06
 -1     25916 3.91522E-05 5.38884E-05-6.09965E-06
 -1     25917 4.33153E-05 5.07157E-05-6.18623E-06
 -1     25918 3.93907E-05 5.42166E-05-6.18623E-06
 -1     25923 3.91522E-05 5.38884E-05-6.27281E-06
 -1     25924 4.33153E-05 5.07157E-05-6.35939E-06
 -1     25925 3.93907E-05 5.42166E-05-6.35939E-06
 -1     25930 3.91522E-05 5.38884E-05-6.44597E-06
 -1     25931 4.33153E-05 5.07157E-05-6.53255E-06
 -1     25932 3.93907E-05 5.42166E-05-6.53255E-06
 -1     25937 3.91522E-05 5.38884E-05-6.61913E-06
 -1     25938 4.33153E-05 5.07157E-05-6.70571E-06
 -1     25939 3.93907E-05 5.42166E-05-6.70571E-06
 -1     25944 3.91522E-05 5.38884E-05-6.79229E-06
 -1     25945 4.33153E-05 5.07157E-05-6.87887E-06
 -1     25946 3.93907E-05 5.42166E-05-6.87887E-06
 -1     25951 3.91522E-05 5.38884E-05-6.96545E-06
 -1     25952 4.33153E-05 5.07157E-05-7.05203E-06
 -1     25953 3.93907E-05 5.42166E-05-7.05203E-06
 -1     25958 3.91522E-05 5.38884E-05-7.13861E-06
 -1     25959 4.33153E-05 5.07157E-05-7.22519E-06
 -1     25960 3.93907E-05 5.42166E-05-7.22519E-06
 -1     25965 3.91522E-05 5.38884E-05-7.31177E-06
 -1     25969 3.02402E-05 5.93497E-05-5.58017E-06
 -1     25970 3.48483E-05 5.68673E-05-5.66675E-06
 -1     25971 3.04244E-05 5.97112E-05-5.66675E-06
 -1     25976 3.02402E-05 5.93497E-05-5.75333E-06
 -1     25977 3.48483E-05 5.68673E-05-5.83991E-06
 -1     25978 3.04244E-05 5.97112E-05-5.83991E-06
 -1     25983 3.02402E-05 5.93497E-05-5.92649E-06
 -1     25984 3.48483E-05 5.68673E-05-6.01307E-06
 -1     25985 3.04244E-05 5.97112E-05-6.01307E-06
 -1     25990 3.02402E-05 5.93497E-05-6.09965E-06
 -1     25991 3.48483E-05 5.68673E-05-6.18623E-06
 -1     25992 3.04244E-05 5.97112E-05-6.18623E-06
 -1     25997 3.02402E-05 5.93497E-05-6.27281E-06
 -1     25998 3.48483E-05 5.68673E-05-6.35939E-06
 -1     25999 3.04244E-05 5.97112E-05-6.35939E-06
 -1     26004 3.02402E-05 5.93497E-05-6.44597E-06
 -1     26005 3.48483E-05 5.68673E-05-6.53255E-06
 -1     26006 3.04244E-05 5.97112E-05-6.53255E-06
 -1     26011 3.02402E-05 5.93497E-05-6.61913E-06
 -1     26012 3.48483E-05 5.68673E-05-6.70571E-06
 -1     26013 3.04244E-05 5.97112E-05-6.70571E-06
 -1     26018 3.02402E-05 5.93497E-05-6.79229E-06
 -1     26019 3.48483E-05 5.68673E-05-6.87887E-06
 -1     26020 3.04244E-05 5.97112E-05-6.87887E-06
 -1     26025 3.02402E-05 5.93497E-05-6.96545E-06
 -1     26026 3.48483E-05 5.68673E-05-7.05203E-06
 -1     26027 3.04244E-05 5.97112E-05-7.05203E-06
 -1     26032 3.02402E-05 5.93497E-05-7.13861E-06
 -1     26033 3.48483E-05 5.68673E-05-7.22519E-06
 -1     26034 3.04244E-05 5.97112E-05-7.22519E-06
 -1     26039 3.02402E-05 5.93497E-05-7.31177E-06
 -1     26043 2.05835E-05 6.33496E-05-5.58017E-06
 -1     26044 2.55233E-05 6.16187E-05-5.66675E-06
 -1     26045 2.07089E-05 6.37355E-05-5.66675E-06
 -1     26050 2.05835E-05 6.33496E-05-5.75333E-06
 -1     26051 2.55233E-05 6.16187E-05-5.83991E-06
 -1     26052 2.07089E-05 6.37355E-05-5.83991E-06
 -1     26057 2.05835E-05 6.33496E-05-5.92649E-06
 -1     26058 2.55233E-05 6.16187E-05-6.01307E-06
 -1     26059 2.07089E-05 6.37355E-05-6.01307E-06
 -1     26064 2.05835E-05 6.33496E-05-6.09965E-06
 -1     26065 2.55233E-05 6.16187E-05-6.18623E-06
 -1     26066 2.07089E-05 6.37355E-05-6.18623E-06
 -1     26071 2.05835E-05 6.33496E-05-6.27281E-06
 -1     26072 2.55233E-05 6.16187E-05-6.35939E-06
 -1     26073 2.07089E-05 6.37355E-05-6.35939E-06
 -1     26078 2.05835E-05 6.33496E-05-6.44597E-06
 -1     26079 2.55233E-05 6.16187E-05-6.53255E-06
 -1     26080 2.07089E-05 6.37355E-05-6.53255E-06
 -1     26085 2.05835E-05 6.33496E-05-6.61913E-06
 -1     26086 2.55233E-05 6.16187E-05-6.70571E-06
 -1     26087 2.07089E-05 6.37355E-05-6.70571E-06
 -1     26092 2.05835E-05 6.33496E-05-6.79229E-06
 -1     26093 2.55233E-05 6.16187E-05-6.87887E-06
 -1     26094 2.07089E-05 6.37355E-05-6.87887E-06
 -1     26099 2.05835E-05 6.33496E-05-6.96545E-06
 -1     26100 2.55233E-05 6.16187E-05-7.05203E-06
 -1     26101 2.07089E-05 6.37355E-05-7.05203E-06
 -1     26106 2.05835E-05 6.33496E-05-7.13861E-06
 -1     26107 2.55233E-05 6.16187E-05-7.22519E-06
 -1     26108 2.07089E-05 6.37355E-05-7.22519E-06
 -1     26113 2.05835E-05 6.33496E-05-7.31177E-06
 -1     26117 1.04201E-05 6.57897E-05-5.58017E-06
 -1     26118 1.55698E-05 6.48527E-05-5.66675E-06
 -1     26119 1.04835E-05 6.61904E-05-5.66675E-06
 -1     26124 1.04201E-05 6.57897E-05-5.75333E-06
 -1     26125 1.55698E-05 6.48527E-05-5.83991E-06
 -1     26126 1.04835E-05 6.61904E-05-5.83991E-06
 -1     26131 1.04201E-05 6.57897E-05-5.92649E-06
 -1     26132 1.55698E-05 6.48527E-05-6.01307E-06
 -1     26133 1.04835E-05 6.61904E-05-6.01307E-06
 -1     26138 1.04201E-05 6.57897E-05-6.09965E-06
 -1     26139 1.55698E-05 6.48527E-05-6.18623E-06
 -1     26140 1.04835E-05 6.61904E-05-6.18623E-06
 -1     26145 1.04201E-05 6.57897E-05-6.27281E-06
 -1     26146 1.55698E-05 6.48527E-05-6.35939E-06
 -1     26147 1.04835E-05 6.61904E-05-6.35939E-06
 -1     26152 1.04201E-05 6.57897E-05-6.44597E-06
 -1     26153 1.55698E-05 6.48527E-05-6.53255E-06
 -1     26154 1.04835E-05 6.61904E-05-6.53255E-06
 -1     26159 1.04201E-05 6.57897E-05-6.61913E-06
 -1     26160 1.55698E-05 6.48527E-05-6.70571E-06
 -1     26161 1.04835E-05 6.61904E-05-6.70571E-06
 -1     26166 1.04201E-05 6.57897E-05-6.79229E-06
 -1     26167 1.55698E-05 6.48527E-05-6.87887E-06
 -1     26168 1.04835E-05 6.61904E-05-6.87887E-06
 -1     26173 1.04201E-05 6.57897E-05-6.96545E-06
 -1     26174 1.55698E-05 6.48527E-05-7.05203E-06
 -1     26175 1.04835E-05 6.61904E-05-7.05203E-06
 -1     26180 1.04201E-05 6.57897E-05-7.13861E-06
 -1     26181 1.55698E-05 6.48527E-05-7.22519E-06
 -1     26182 1.04835E-05 6.61904E-05-7.22519E-06
 -1     26187 1.04201E-05 6.57897E-05-7.31177E-06
 -1     26191 5.23287E-06 6.64899E-05-5.66675E-06
 -1     26195 5.23287E-06 6.64899E-05-5.83991E-06
 -1     26199 5.23287E-06 6.64899E-05-6.01307E-06
 -1     26203 5.23287E-06 6.64899E-05-6.18623E-06
 -1     26207 5.23287E-06 6.64899E-05-6.35939E-06
 -1     26211 5.23287E-06 6.64899E-05-6.53255E-06
 -1     26215 5.23287E-06 6.64899E-05-6.70571E-06
 -1     26219 5.23287E-06 6.64899E-05-6.87887E-06
 -1     26223 5.23287E-06 6.64899E-05-7.05203E-06
 -1     26227 5.23287E-06 6.64899E-05-7.22519E-06
 -1     26233 6.50442E-05 1.03020E-05-5.58017E-06
 -1     26234 6.57320E-05 5.17322E-06-5.66675E-06
 -1     26235 6.54078E-05 1.03596E-05-5.66675E-06
 -1     26240 6.50442E-05 1.03020E-05-5.75333E-06
 -1     26241 6.57320E-05 5.17322E-06-5.83991E-06
 -1     26242 6.54078E-05 1.03596E-05-5.83991E-06
 -1     26247 6.50442E-05 1.03020E-05-5.92649E-06
 -1     26248 6.57320E-05 5.17322E-06-6.01307E-06
 -1     26249 6.54078E-05 1.03596E-05-6.01307E-06
 -1     26254 6.50442E-05 1.03020E-05-6.09965E-06
 -1     26255 6.57320E-05 5.17322E-06-6.18623E-06
 -1     26256 6.54078E-05 1.03596E-05-6.18623E-06
 -1     26261 6.50442E-05 1.03020E-05-6.27281E-06
 -1     26262 6.57320E-05 5.17322E-06-6.35939E-06
 -1     26263 6.54078E-05 1.03596E-05-6.35939E-06
 -1     26268 6.50442E-05 1.03020E-05-6.44597E-06
 -1     26269 6.57320E-05 5.17322E-06-6.53255E-06
 -1     26270 6.54078E-05 1.03596E-05-6.53255E-06
 -1     26275 6.50442E-05 1.03020E-05-6.61913E-06
 -1     26276 6.57320E-05 5.17322E-06-6.70571E-06
 -1     26277 6.54078E-05 1.03596E-05-6.70571E-06
 -1     26282 6.50442E-05 1.03020E-05-6.79229E-06
 -1     26283 6.57320E-05 5.17322E-06-6.87887E-06
 -1     26284 6.54078E-05 1.03596E-05-6.87887E-06
 -1     26289 6.50442E-05 1.03020E-05-6.96545E-06
 -1     26290 6.57320E-05 5.17322E-06-7.05203E-06
 -1     26291 6.54078E-05 1.03596E-05-7.05203E-06
 -1     26296 6.50442E-05 1.03020E-05-7.13861E-06
 -1     26297 6.57320E-05 5.17322E-06-7.22519E-06
 -1     26298 6.54078E-05 1.03596E-05-7.22519E-06
 -1     26303 6.50442E-05 1.03020E-05-7.31177E-06
 -1     26307 6.26318E-05 2.03503E-05-5.58017E-06
 -1     26308 6.41135E-05 1.53923E-05-5.66675E-06
 -1     26309 6.29819E-05 2.04641E-05-5.66675E-06
 -1     26314 6.26318E-05 2.03503E-05-5.75333E-06
 -1     26315 6.41135E-05 1.53923E-05-5.83991E-06
 -1     26316 6.29819E-05 2.04641E-05-5.83991E-06
 -1     26321 6.26318E-05 2.03503E-05-5.92649E-06
 -1     26322 6.41135E-05 1.53923E-05-6.01307E-06
 -1     26323 6.29819E-05 2.04641E-05-6.01307E-06
 -1     26328 6.26318E-05 2.03503E-05-6.09965E-06
 -1     26329 6.41135E-05 1.53923E-05-6.18623E-06
 -1     26330 6.29819E-05 2.04641E-05-6.18623E-06
 -1     26335 6.26318E-05 2.03503E-05-6.27281E-06
 -1     26336 6.41135E-05 1.53923E-05-6.35939E-06
 -1     26337 6.29819E-05 2.04641E-05-6.35939E-06
 -1     26342 6.26318E-05 2.03503E-05-6.44597E-06
 -1     26343 6.41135E-05 1.53923E-05-6.53255E-06
 -1     26344 6.29819E-05 2.04641E-05-6.53255E-06
 -1     26349 6.26318E-05 2.03503E-05-6.61913E-06
 -1     26350 6.41135E-05 1.53923E-05-6.70571E-06
 -1     26351 6.29819E-05 2.04641E-05-6.70571E-06
 -1     26356 6.26318E-05 2.03503E-05-6.79229E-06
 -1     26357 6.41135E-05 1.53923E-05-6.87887E-06
 -1     26358 6.29819E-05 2.04641E-05-6.87887E-06
 -1     26363 6.26318E-05 2.03503E-05-6.96545E-06
 -1     26364 6.41135E-05 1.53923E-05-7.05203E-06
 -1     26365 6.29819E-05 2.04641E-05-7.05203E-06
 -1     26370 6.26318E-05 2.03503E-05-7.13861E-06
 -1     26371 6.41135E-05 1.53923E-05-7.22519E-06
 -1     26372 6.29819E-05 2.04641E-05-7.22519E-06
 -1     26377 6.26318E-05 2.03503E-05-7.31177E-06
 -1     26381 5.86772E-05 2.98975E-05-5.58017E-06
 -1     26382 6.09163E-05 2.52323E-05-5.66675E-06
 -1     26383 5.90052E-05 3.00646E-05-5.66675E-06
 -1     26388 5.86772E-05 2.98975E-05-5.75333E-06
 -1     26389 6.09163E-05 2.52323E-05-5.83991E-06
 -1     26390 5.90052E-05 3.00646E-05-5.83991E-06
 -1     26395 5.86772E-05 2.98975E-05-5.92649E-06
 -1     26396 6.09163E-05 2.52323E-05-6.01307E-06
 -1     26397 5.90052E-05 3.00646E-05-6.01307E-06
 -1     26402 5.86772E-05 2.98975E-05-6.09965E-06
 -1     26403 6.09163E-05 2.52323E-05-6.18623E-06
 -1     26404 5.90052E-05 3.00646E-05-6.18623E-06
 -1     26409 5.86772E-05 2.98975E-05-6.27281E-06
 -1     26410 6.09163E-05 2.52323E-05-6.35939E-06
 -1     26411 5.90052E-05 3.00646E-05-6.35939E-06
 -1     26416 5.86772E-05 2.98975E-05-6.44597E-06
 -1     26417 6.09163E-05 2.52323E-05-6.53255E-06
 -1     26418 5.90052E-05 3.00646E-05-6.53255E-06
 -1     26423 5.86772E-05 2.98975E-05-6.61913E-06
 -1     26424 6.09163E-05 2.52323E-05-6.70571E-06
 -1     26425 5.90052E-05 3.00646E-05-6.70571E-06
 -1     26430 5.86772E-05 2.98975E-05-6.79229E-06
 -1     26431 6.09163E-05 2.52323E-05-6.87887E-06
 -1     26432 5.90052E-05 3.00646E-05-6.87887E-06
 -1     26437 5.86772E-05 2.98975E-05-6.96545E-06
 -1     26438 6.09163E-05 2.52323E-05-7.05203E-06
 -1     26439 5.90052E-05 3.00646E-05-7.05203E-06
 -1     26444 5.86772E-05 2.98975E-05-7.13861E-06
 -1     26445 6.09163E-05 2.52323E-05-7.22519E-06
 -1     26446 5.90052E-05 3.00646E-05-7.22519E-06
 -1     26451 5.86772E-05 2.98975E-05-7.31177E-06
 -1     26455 5.32778E-05 3.87086E-05-5.58017E-06
 -1     26456 5.62191E-05 3.44511E-05-5.66675E-06
 -1     26457 5.35756E-05 3.89250E-05-5.66675E-06
 -1     26462 5.32778E-05 3.87086E-05-5.75333E-06
 -1     26463 5.62191E-05 3.44511E-05-5.83991E-06
 -1     26464 5.35756E-05 3.89250E-05-5.83991E-06
 -1     26469 5.32778E-05 3.87086E-05-5.92649E-06
 -1     26470 5.62191E-05 3.44511E-05-6.01307E-06
 -1     26471 5.35756E-05 3.89250E-05-6.01307E-06
 -1     26476 5.32778E-05 3.87086E-05-6.09965E-06
 -1     26477 5.62191E-05 3.44511E-05-6.18623E-06
 -1     26478 5.35756E-05 3.89250E-05-6.18623E-06
 -1     26483 5.32778E-05 3.87086E-05-6.27281E-06
 -1     26484 5.62191E-05 3.44511E-05-6.35939E-06
 -1     26485 5.35756E-05 3.89250E-05-6.35939E-06
 -1     26490 5.32778E-05 3.87086E-05-6.44597E-06
 -1     26491 5.62191E-05 3.44511E-05-6.53255E-06
 -1     26492 5.35756E-05 3.89250E-05-6.53255E-06
 -1     26497 5.32778E-05 3.87086E-05-6.61913E-06
 -1     26498 5.62191E-05 3.44511E-05-6.70571E-06
 -1     26499 5.35756E-05 3.89250E-05-6.70571E-06
 -1     26504 5.32778E-05 3.87086E-05-6.79229E-06
 -1     26505 5.62191E-05 3.44511E-05-6.87887E-06
 -1     26506 5.35756E-05 3.89250E-05-6.87887E-06
 -1     26511 5.32778E-05 3.87086E-05-6.96545E-06
 -1     26512 5.62191E-05 3.44511E-05-7.05203E-06
 -1     26513 5.35756E-05 3.89250E-05-7.05203E-06
 -1     26518 5.32778E-05 3.87086E-05-7.13861E-06
 -1     26519 5.62191E-05 3.44511E-05-7.22519E-06
 -1     26520 5.35756E-05 3.89250E-05-7.22519E-06
 -1     26525 5.32778E-05 3.87086E-05-7.31177E-06
 -1     26529 4.65665E-05 4.65665E-05-5.58017E-06
 -1     26530 5.01376E-05 4.28215E-05-5.66675E-06
 -1     26531 4.68268E-05 4.68268E-05-5.66675E-06
 -1     26536 4.65665E-05 4.65665E-05-5.75333E-06
 -1     26537 5.01376E-05 4.28215E-05-5.83991E-06
 -1     26538 4.68268E-05 4.68268E-05-5.83991E-06
 -1     26543 4.65665E-05 4.65665E-05-5.92649E-06
 -1     26544 5.01376E-05 4.28215E-05-6.01307E-06
 -1     26545 4.68268E-05 4.68268E-05-6.01307E-06
 -1     26550 4.65665E-05 4.65665E-05-6.09965E-06
 -1     26551 5.01376E-05 4.28215E-05-6.18623E-06
 -1     26552 4.68268E-05 4.68268E-05-6.18623E-06
 -1     26557 4.65665E-05 4.65665E-05-6.27281E-06
 -1     26558 5.01376E-05 4.28215E-05-6.35939E-06
 -1     26559 4.68268E-05 4.68268E-05-6.35939E-06
 -1     26564 4.65665E-05 4.65665E-05-6.44597E-06
 -1     26565 5.01376E-05 4.28215E-05-6.53255E-06
 -1     26566 4.68268E-05 4.68268E-05-6.53255E-06
 -1     26571 4.65665E-05 4.65665E-05-6.61913E-06
 -1     26572 5.01376E-05 4.28215E-05-6.70571E-06
 -1     26573 4.68268E-05 4.68268E-05-6.70571E-06
 -1     26578 4.65665E-05 4.65665E-05-6.79229E-06
 -1     26579 5.01376E-05 4.28215E-05-6.87887E-06
 -1     26580 4.68268E-05 4.68268E-05-6.87887E-06
 -1     26585 4.65665E-05 4.65665E-05-6.96545E-06
 -1     26586 5.01376E-05 4.28215E-05-7.05203E-06
 -1     26587 4.68268E-05 4.68268E-05-7.05203E-06
 -1     26592 4.65665E-05 4.65665E-05-7.13861E-06
 -1     26593 5.01376E-05 4.28215E-05-7.22519E-06
 -1     26594 4.68268E-05 4.68268E-05-7.22519E-06
 -1     26599 4.65665E-05 4.65665E-05-7.31177E-06
 -1     26603 3.87086E-05 5.32778E-05-5.58017E-06
 -1     26604 4.28215E-05 5.01376E-05-5.66675E-06
 -1     26605 3.89250E-05 5.35756E-05-5.66675E-06
 -1     26610 3.87086E-05 5.32778E-05-5.75333E-06
 -1     26611 4.28215E-05 5.01376E-05-5.83991E-06
 -1     26612 3.89250E-05 5.35756E-05-5.83991E-06
 -1     26617 3.87086E-05 5.32778E-05-5.92649E-06
 -1     26618 4.28215E-05 5.01376E-05-6.01307E-06
 -1     26619 3.89250E-05 5.35756E-05-6.01307E-06
 -1     26624 3.87086E-05 5.32778E-05-6.09965E-06
 -1     26625 4.28215E-05 5.01376E-05-6.18623E-06
 -1     26626 3.89250E-05 5.35756E-05-6.18623E-06
 -1     26631 3.87086E-05 5.32778E-05-6.27281E-06
 -1     26632 4.28215E-05 5.01376E-05-6.35939E-06
 -1     26633 3.89250E-05 5.35756E-05-6.35939E-06
 -1     26638 3.87086E-05 5.32778E-05-6.44597E-06
 -1     26639 4.28215E-05 5.01376E-05-6.53255E-06
 -1     26640 3.89250E-05 5.35756E-05-6.53255E-06
 -1     26645 3.87086E-05 5.32778E-05-6.61913E-06
 -1     26646 4.28215E-05 5.01376E-05-6.70571E-06
 -1     26647 3.89250E-05 5.35756E-05-6.70571E-06
 -1     26652 3.87086E-05 5.32778E-05-6.79229E-06
 -1     26653 4.28215E-05 5.01376E-05-6.87887E-06
 -1     26654 3.89250E-05 5.35756E-05-6.87887E-06
 -1     26659 3.87086E-05 5.32778E-05-6.96545E-06
 -1     26660 4.28215E-05 5.01376E-05-7.05203E-06
 -1     26661 3.89250E-05 5.35756E-05-7.05203E-06
 -1     26666 3.87086E-05 5.32778E-05-7.13861E-06
 -1     26667 4.28215E-05 5.01376E-05-7.22519E-06
 -1     26668 3.89250E-05 5.35756E-05-7.22519E-06
 -1     26673 3.87086E-05 5.32778E-05-7.31177E-06
 -1     26677 2.98975E-05 5.86772E-05-5.58017E-06
 -1     26678 3.44511E-05 5.62191E-05-5.66675E-06
 -1     26679 3.00646E-05 5.90052E-05-5.66675E-06
 -1     26684 2.98975E-05 5.86772E-05-5.75333E-06
 -1     26685 3.44511E-05 5.62191E-05-5.83991E-06
 -1     26686 3.00646E-05 5.90052E-05-5.83991E-06
 -1     26691 2.98975E-05 5.86772E-05-5.92649E-06
 -1     26692 3.44511E-05 5.62191E-05-6.01307E-06
 -1     26693 3.00646E-05 5.90052E-05-6.01307E-06
 -1     26698 2.98975E-05 5.86772E-05-6.09965E-06
 -1     26699 3.44511E-05 5.62191E-05-6.18623E-06
 -1     26700 3.00646E-05 5.90052E-05-6.18623E-06
 -1     26705 2.98975E-05 5.86772E-05-6.27281E-06
 -1     26706 3.44511E-05 5.62191E-05-6.35939E-06
 -1     26707 3.00646E-05 5.90052E-05-6.35939E-06
 -1     26712 2.98975E-05 5.86772E-05-6.44597E-06
 -1     26713 3.44511E-05 5.62191E-05-6.53255E-06
 -1     26714 3.00646E-05 5.90052E-05-6.53255E-06
 -1     26719 2.98975E-05 5.86772E-05-6.61913E-06
 -1     26720 3.44511E-05 5.62191E-05-6.70571E-06
 -1     26721 3.00646E-05 5.90052E-05-6.70571E-06
 -1     26726 2.98975E-05 5.86772E-05-6.79229E-06
 -1     26727 3.44511E-05 5.62191E-05-6.87887E-06
 -1     26728 3.00646E-05 5.90052E-05-6.87887E-06
 -1     26733 2.98975E-05 5.86772E-05-6.96545E-06
 -1     26734 3.44511E-05 5.62191E-05-7.05203E-06
 -1     26735 3.00646E-05 5.90052E-05-7.05203E-06
 -1     26740 2.98975E-05 5.86772E-05-7.13861E-06
 -1     26741 3.44511E-05 5.62191E-05-7.22519E-06
 -1     26742 3.00646E-05 5.90052E-05-7.22519E-06
 -1     26747 2.98975E-05 5.86772E-05-7.31177E-06
 -1     26751 2.03503E-05 6.26318E-05-5.58017E-06
 -1     26752 2.52323E-05 6.09163E-05-5.66675E-06
 -1     26753 2.04641E-05 6.29819E-05-5.66675E-06
 -1     26758 2.03503E-05 6.26318E-05-5.75333E-06
 -1     26759 2.52323E-05 6.09163E-05-5.83991E-06
 -1     26760 2.04641E-05 6.29819E-05-5.83991E-06
 -1     26765 2.03503E-05 6.26318E-05-5.92649E-06
 -1     26766 2.52323E-05 6.09163E-05-6.01307E-06
 -1     26767 2.04641E-05 6.29819E-05-6.01307E-06
 -1     26772 2.03503E-05 6.26318E-05-6.09965E-06
 -1     26773 2.52323E-05 6.09163E-05-6.18623E-06
 -1     26774 2.04641E-05 6.29819E-05-6.18623E-06
 -1     26779 2.03503E-05 6.26318E-05-6.27281E-06
 -1     26780 2.52323E-05 6.09163E-05-6.35939E-06
 -1     26781 2.04641E-05 6.29819E-05-6.35939E-06
 -1     26786 2.03503E-05 6.26318E-05-6.44597E-06
 -1     26787 2.52323E-05 6.09163E-05-6.53255E-06
 -1     26788 2.04641E-05 6.29819E-05-6.53255E-06
 -1     26793 2.03503E-05 6.26318E-05-6.61913E-06
 -1     26794 2.52323E-05 6.09163E-05-6.70571E-06
 -1     26795 2.04641E-05 6.29819E-05-6.70571E-06
 -1     26800 2.03503E-05 6.26318E-05-6.79229E-06
 -1     26801 2.52323E-05 6.09163E-05-6.87887E-06
 -1     26802 2.04641E-05 6.29819E-05-6.87887E-06
 -1     26807 2.03503E-05 6.26318E-05-6.96545E-06
 -1     26808 2.52323E-05 6.09163E-05-7.05203E-06
 -1     26809 2.04641E-05 6.29819E-05-7.05203E-06
 -1     26814 2.03503E-05 6.26318E-05-7.13861E-06
 -1     26815 2.52323E-05 6.09163E-05-7.22519E-06
 -1     26816 2.04641E-05 6.29819E-05-7.22519E-06
 -1     26821 2.03503E-05 6.26318E-05-7.31177E-06
 -1     26825 1.03020E-05 6.50442E-05-5.58017E-06
 -1     26826 1.53923E-05 6.41135E-05-5.66675E-06
 -1     26827 1.03596E-05 6.54078E-05-5.66675E-06
 -1     26832 1.03020E-05 6.50442E-05-5.75333E-06
 -1     26833 1.53923E-05 6.41135E-05-5.83991E-06
 -1     26834 1.03596E-05 6.54078E-05-5.83991E-06
 -1     26839 1.03020E-05 6.50442E-05-5.92649E-06
 -1     26840 1.53923E-05 6.41135E-05-6.01307E-06
 -1     26841 1.03596E-05 6.54078E-05-6.01307E-06
 -1     26846 1.03020E-05 6.50442E-05-6.09965E-06
 -1     26847 1.53923E-05 6.41135E-05-6.18623E-06
 -1     26848 1.03596E-05 6.54078E-05-6.18623E-06
 -1     26853 1.03020E-05 6.50442E-05-6.27281E-06
 -1     26854 1.53923E-05 6.41135E-05-6.35939E-06
 -1     26855 1.03596E-05 6.54078E-05-6.35939E-06
 -1     26860 1.03020E-05 6.50442E-05-6.44597E-06
 -1     26861 1.53923E-05 6.41135E-05-6.53255E-06
 -1     26862 1.03596E-05 6.54078E-05-6.53255E-06
 -1     26867 1.03020E-05 6.50442E-05-6.61913E-06
 -1     26868 1.53923E-05 6.41135E-05-6.70571E-06
 -1     26869 1.03596E-05 6.54078E-05-6.70571E-06
 -1     26874 1.03020E-05 6.50442E-05-6.79229E-06
 -1     26875 1.53923E-05 6.41135E-05-6.87887E-06
 -1     26876 1.03596E-05 6.54078E-05-6.87887E-06
 -1     26881 1.03020E-05 6.50442E-05-6.96545E-06
 -1     26882 1.53923E-05 6.41135E-05-7.05203E-06
 -1     26883 1.03596E-05 6.54078E-05-7.05203E-06
 -1     26888 1.03020E-05 6.50442E-05-7.13861E-06
 -1     26889 1.53923E-05 6.41135E-05-7.22519E-06
 -1     26890 1.03596E-05 6.54078E-05-7.22519E-06
 -1     26895 1.03020E-05 6.50442E-05-7.31177E-06
 -1     26899 5.17322E-06 6.57320E-05-5.66675E-06
 -1     26903 5.17322E-06 6.57320E-05-5.83991E-06
 -1     26907 5.17322E-06 6.57320E-05-6.01307E-06
 -1     26911 5.17322E-06 6.57320E-05-6.18623E-06
 -1     26915 5.17322E-06 6.57320E-05-6.35939E-06
 -1     26919 5.17322E-06 6.57320E-05-6.53255E-06
 -1     26923 5.17322E-06 6.57320E-05-6.70571E-06
 -1     26927 5.17322E-06 6.57320E-05-6.87887E-06
 -1     26931 5.17322E-06 6.57320E-05-7.05203E-06
 -1     26935 5.17322E-06 6.57320E-05-7.22519E-06
 -1     26941 6.43696E-05 1.01951E-05-5.58017E-06
 -1     26942 6.50445E-05 5.11911E-06-5.66674E-06
 -1     26943 6.46985E-05 1.02472E-05-5.66675E-06
 -1     26948 6.43696E-05 1.01951E-05-5.75333E-06
 -1     26949 6.50445E-05 5.11911E-06-5.83991E-06
 -1     26950 6.46985E-05 1.02472E-05-5.83991E-06
 -1     26955 6.43696E-05 1.01951E-05-5.92649E-06
 -1     26956 6.50445E-05 5.11911E-06-6.01307E-06
 -1     26957 6.46985E-05 1.02472E-05-6.01307E-06
 -1     26962 6.43696E-05 1.01951E-05-6.09965E-06
 -1     26963 6.50445E-05 5.11911E-06-6.18623E-06
 -1     26964 6.46985E-05 1.02472E-05-6.18623E-06
 -1     26969 6.43696E-05 1.01951E-05-6.27281E-06
 -1     26970 6.50445E-05 5.11911E-06-6.35939E-06
 -1     26971 6.46985E-05 1.02472E-05-6.35939E-06
 -1     26976 6.43696E-05 1.01951E-05-6.44597E-06
 -1     26977 6.50445E-05 5.11911E-06-6.53255E-06
 -1     26978 6.46985E-05 1.02472E-05-6.53255E-06
 -1     26983 6.43696E-05 1.01951E-05-6.61913E-06
 -1     26984 6.50445E-05 5.11911E-06-6.70571E-06
 -1     26985 6.46985E-05 1.02472E-05-6.70571E-06
 -1     26990 6.43696E-05 1.01951E-05-6.79229E-06
 -1     26991 6.50445E-05 5.11911E-06-6.87887E-06
 -1     26992 6.46985E-05 1.02472E-05-6.87887E-06
 -1     26997 6.43696E-05 1.01951E-05-6.96545E-06
 -1     26998 6.50445E-05 5.11911E-06-7.05203E-06
 -1     26999 6.46985E-05 1.02472E-05-7.05203E-06
 -1     27004 6.43696E-05 1.01951E-05-7.13861E-06
 -1     27005 6.50445E-05 5.11911E-06-7.22519E-06
 -1     27006 6.46985E-05 1.02472E-05-7.22519E-06
 -1     27011 6.43696E-05 1.01951E-05-7.31177E-06
 -1     27015 6.19822E-05 2.01392E-05-5.58017E-06
 -1     27016 6.34428E-05 1.52313E-05-5.66674E-06
 -1     27017 6.22989E-05 2.02421E-05-5.66675E-06
 -1     27022 6.19822E-05 2.01392E-05-5.75333E-06
 -1     27023 6.34428E-05 1.52313E-05-5.83991E-06
 -1     27024 6.22989E-05 2.02421E-05-5.83991E-06
 -1     27029 6.19822E-05 2.01392E-05-5.92649E-06
 -1     27030 6.34428E-05 1.52313E-05-6.01307E-06
 -1     27031 6.22989E-05 2.02421E-05-6.01307E-06
 -1     27036 6.19822E-05 2.01392E-05-6.09965E-06
 -1     27037 6.34428E-05 1.52313E-05-6.18623E-06
 -1     27038 6.22989E-05 2.02421E-05-6.18623E-06
 -1     27043 6.19822E-05 2.01392E-05-6.27281E-06
 -1     27044 6.34428E-05 1.52313E-05-6.35939E-06
 -1     27045 6.22989E-05 2.02421E-05-6.35939E-06
 -1     27050 6.19822E-05 2.01392E-05-6.44597E-06
 -1     27051 6.34428E-05 1.52313E-05-6.53255E-06
 -1     27052 6.22989E-05 2.02421E-05-6.53255E-06
 -1     27057 6.19822E-05 2.01392E-05-6.61913E-06
 -1     27058 6.34428E-05 1.52313E-05-6.70571E-06
 -1     27059 6.22989E-05 2.02421E-05-6.70571E-06
 -1     27064 6.19822E-05 2.01392E-05-6.79229E-06
 -1     27065 6.34428E-05 1.52313E-05-6.87887E-06
 -1     27066 6.22989E-05 2.02421E-05-6.87887E-06
 -1     27071 6.19822E-05 2.01392E-05-6.96545E-06
 -1     27072 6.34428E-05 1.52313E-05-7.05203E-06
 -1     27073 6.22989E-05 2.02421E-05-7.05203E-06
 -1     27078 6.19822E-05 2.01392E-05-7.13861E-06
 -1     27079 6.34428E-05 1.52313E-05-7.22519E-06
 -1     27080 6.22989E-05 2.02421E-05-7.22519E-06
 -1     27085 6.19822E-05 2.01392E-05-7.31177E-06
 -1     27089 5.80686E-05 2.95875E-05-5.58017E-06
 -1     27090 6.02791E-05 2.49684E-05-5.66674E-06
 -1     27091 5.83653E-05 2.97386E-05-5.66675E-06
 -1     27096 5.80686E-05 2.95875E-05-5.75333E-06
 -1     27097 6.02791E-05 2.49684E-05-5.83991E-06
 -1     27098 5.83653E-05 2.97386E-05-5.83991E-06
 -1     27103 5.80686E-05 2.95875E-05-5.92649E-06
 -1     27104 6.02791E-05 2.49684E-05-6.01307E-06
 -1     27105 5.83653E-05 2.97386E-05-6.01307E-06
 -1     27110 5.80686E-05 2.95875E-05-6.09965E-06
 -1     27111 6.02791E-05 2.49684E-05-6.18623E-06
 -1     27112 5.83653E-05 2.97386E-05-6.18623E-06
 -1     27117 5.80686E-05 2.95875E-05-6.27281E-06
 -1     27118 6.02791E-05 2.49684E-05-6.35939E-06
 -1     27119 5.83653E-05 2.97386E-05-6.35939E-06
 -1     27124 5.80686E-05 2.95875E-05-6.44597E-06
 -1     27125 6.02791E-05 2.49684E-05-6.53255E-06
 -1     27126 5.83653E-05 2.97386E-05-6.53255E-06
 -1     27131 5.80686E-05 2.95875E-05-6.61913E-06
 -1     27132 6.02791E-05 2.49684E-05-6.70571E-06
 -1     27133 5.83653E-05 2.97386E-05-6.70571E-06
 -1     27138 5.80686E-05 2.95875E-05-6.79229E-06
 -1     27139 6.02791E-05 2.49684E-05-6.87887E-06
 -1     27140 5.83653E-05 2.97386E-05-6.87887E-06
 -1     27145 5.80686E-05 2.95875E-05-6.96545E-06
 -1     27146 6.02791E-05 2.49684E-05-7.05203E-06
 -1     27147 5.83653E-05 2.97386E-05-7.05203E-06
 -1     27152 5.80686E-05 2.95875E-05-7.13861E-06
 -1     27153 6.02791E-05 2.49684E-05-7.22519E-06
 -1     27154 5.83653E-05 2.97386E-05-7.22519E-06
 -1     27159 5.80686E-05 2.95875E-05-7.31177E-06
 -1     27163 5.27252E-05 3.83071E-05-5.58017E-06
 -1     27164 5.56310E-05 3.40907E-05-5.66674E-06
 -1     27165 5.29946E-05 3.85028E-05-5.66675E-06
 -1     27170 5.27252E-05 3.83071E-05-5.75333E-06
 -1     27171 5.56310E-05 3.40907E-05-5.83991E-06
 -1     27172 5.29946E-05 3.85028E-05-5.83991E-06
 -1     27177 5.27252E-05 3.83071E-05-5.92649E-06
 -1     27178 5.56310E-05 3.40907E-05-6.01307E-06
 -1     27179 5.29946E-05 3.85028E-05-6.01307E-06
 -1     27184 5.27252E-05 3.83071E-05-6.09965E-06
 -1     27185 5.56310E-05 3.40907E-05-6.18623E-06
 -1     27186 5.29946E-05 3.85028E-05-6.18623E-06
 -1     27191 5.27252E-05 3.83071E-05-6.27281E-06
 -1     27192 5.56310E-05 3.40907E-05-6.35939E-06
 -1     27193 5.29946E-05 3.85028E-05-6.35939E-06
 -1     27198 5.27252E-05 3.83071E-05-6.44597E-06
 -1     27199 5.56310E-05 3.40907E-05-6.53255E-06
 -1     27200 5.29946E-05 3.85028E-05-6.53255E-06
 -1     27205 5.27252E-05 3.83071E-05-6.61913E-06
 -1     27206 5.56310E-05 3.40907E-05-6.70571E-06
 -1     27207 5.29946E-05 3.85028E-05-6.70571E-06
 -1     27212 5.27252E-05 3.83071E-05-6.79229E-06
 -1     27213 5.56310E-05 3.40907E-05-6.87887E-06
 -1     27214 5.29946E-05 3.85028E-05-6.87887E-06
 -1     27219 5.27252E-05 3.83071E-05-6.96545E-06
 -1     27220 5.56310E-05 3.40907E-05-7.05203E-06
 -1     27221 5.29946E-05 3.85028E-05-7.05203E-06
 -1     27226 5.27252E-05 3.83071E-05-7.13861E-06
 -1     27227 5.56310E-05 3.40907E-05-7.22519E-06
 -1     27228 5.29946E-05 3.85028E-05-7.22519E-06
 -1     27233 5.27252E-05 3.83071E-05-7.31177E-06
 -1     27237 4.60835E-05 4.60835E-05-5.58017E-06
 -1     27238 4.96131E-05 4.23736E-05-5.66674E-06
 -1     27239 4.63190E-05 4.63190E-05-5.66675E-06
 -1     27244 4.60835E-05 4.60835E-05-5.75333E-06
 -1     27245 4.96131E-05 4.23736E-05-5.83991E-06
 -1     27246 4.63190E-05 4.63190E-05-5.83991E-06
 -1     27251 4.60835E-05 4.60835E-05-5.92649E-06
 -1     27252 4.96131E-05 4.23736E-05-6.01307E-06
 -1     27253 4.63190E-05 4.63190E-05-6.01307E-06
 -1     27258 4.60835E-05 4.60835E-05-6.09965E-06
 -1     27259 4.96131E-05 4.23736E-05-6.18623E-06
 -1     27260 4.63190E-05 4.63190E-05-6.18623E-06
 -1     27265 4.60835E-05 4.60835E-05-6.27281E-06
 -1     27266 4.96131E-05 4.23736E-05-6.35939E-06
 -1     27267 4.63190E-05 4.63190E-05-6.35939E-06
 -1     27272 4.60835E-05 4.60835E-05-6.44597E-06
 -1     27273 4.96131E-05 4.23736E-05-6.53255E-06
 -1     27274 4.63190E-05 4.63190E-05-6.53255E-06
 -1     27279 4.60835E-05 4.60835E-05-6.61913E-06
 -1     27280 4.96131E-05 4.23736E-05-6.70571E-06
 -1     27281 4.63190E-05 4.63190E-05-6.70571E-06
 -1     27286 4.60835E-05 4.60835E-05-6.79229E-06
 -1     27287 4.96131E-05 4.23736E-05-6.87887E-06
 -1     27288 4.63190E-05 4.63190E-05-6.87887E-06
 -1     27293 4.60835E-05 4.60835E-05-6.96545E-06
 -1     27294 4.96131E-05 4.23736E-05-7.05203E-06
 -1     27295 4.63190E-05 4.63190E-05-7.05203E-06
 -1     27300 4.60835E-05 4.60835E-05-7.13861E-06
 -1     27301 4.96131E-05 4.23736E-05-7.22519E-06
 -1     27302 4.63190E-05 4.63190E-05-7.22519E-06
 -1     27307 4.60835E-05 4.60835E-05-7.31177E-06
 -1     27311 3.83071E-05 5.27252E-05-5.58017E-06
 -1     27312 4.23736E-05 4.96131E-05-5.66674E-06
 -1     27313 3.85028E-05 5.29946E-05-5.66675E-06
 -1     27318 3.83071E-05 5.27252E-05-5.75333E-06
 -1     27319 4.23736E-05 4.96131E-05-5.83991E-06
 -1     27320 3.85028E-05 5.29946E-05-5.83991E-06
 -1     27325 3.83071E-05 5.27252E-05-5.92649E-06
 -1     27326 4.23736E-05 4.96131E-05-6.01307E-06
 -1     27327 3.85028E-05 5.29946E-05-6.01307E-06
 -1     27332 3.83071E-05 5.27252E-05-6.09965E-06
 -1     27333 4.23736E-05 4.96131E-05-6.18623E-06
 -1     27334 3.85028E-05 5.29946E-05-6.18623E-06
 -1     27339 3.83071E-05 5.27252E-05-6.27281E-06
 -1     27340 4.23736E-05 4.96131E-05-6.35939E-06
 -1     27341 3.85028E-05 5.29946E-05-6.35939E-06
 -1     27346 3.83071E-05 5.27252E-05-6.44597E-06
 -1     27347 4.23736E-05 4.96131E-05-6.53255E-06
 -1     27348 3.85028E-05 5.29946E-05-6.53255E-06
 -1     27353 3.83071E-05 5.27252E-05-6.61913E-06
 -1     27354 4.23736E-05 4.96131E-05-6.70571E-06
 -1     27355 3.85028E-05 5.29946E-05-6.70571E-06
 -1     27360 3.83071E-05 5.27252E-05-6.79229E-06
 -1     27361 4.23736E-05 4.96131E-05-6.87887E-06
 -1     27362 3.85028E-05 5.29946E-05-6.87887E-06
 -1     27367 3.83071E-05 5.27252E-05-6.96545E-06
 -1     27368 4.23736E-05 4.96131E-05-7.05203E-06
 -1     27369 3.85028E-05 5.29946E-05-7.05203E-06
 -1     27374 3.83071E-05 5.27252E-05-7.13861E-06
 -1     27375 4.23736E-05 4.96131E-05-7.22519E-06
 -1     27376 3.85028E-05 5.29946E-05-7.22519E-06
 -1     27381 3.83071E-05 5.27252E-05-7.31177E-06
 -1     27385 2.95875E-05 5.80686E-05-5.58017E-06
 -1     27386 3.40907E-05 5.56310E-05-5.66674E-06
 -1     27387 2.97386E-05 5.83653E-05-5.66675E-06
 -1     27392 2.95875E-05 5.80686E-05-5.75333E-06
 -1     27393 3.40907E-05 5.56310E-05-5.83991E-06
 -1     27394 2.97386E-05 5.83653E-05-5.83991E-06
 -1     27399 2.95875E-05 5.80686E-05-5.92649E-06
 -1     27400 3.40907E-05 5.56310E-05-6.01307E-06
 -1     27401 2.97386E-05 5.83653E-05-6.01307E-06
 -1     27406 2.95875E-05 5.80686E-05-6.09965E-06
 -1     27407 3.40907E-05 5.56310E-05-6.18623E-06
 -1     27408 2.97386E-05 5.83653E-05-6.18623E-06
 -1     27413 2.95875E-05 5.80686E-05-6.27281E-06
 -1     27414 3.40907E-05 5.56310E-05-6.35939E-06
 -1     27415 2.97386E-05 5.83653E-05-6.35939E-06
 -1     27420 2.95875E-05 5.80686E-05-6.44597E-06
 -1     27421 3.40907E-05 5.56310E-05-6.53255E-06
 -1     27422 2.97386E-05 5.83653E-05-6.53255E-06
 -1     27427 2.95875E-05 5.80686E-05-6.61913E-06
 -1     27428 3.40907E-05 5.56310E-05-6.70571E-06
 -1     27429 2.97386E-05 5.83653E-05-6.70571E-06
 -1     27434 2.95875E-05 5.80686E-05-6.79229E-06
 -1     27435 3.40907E-05 5.56310E-05-6.87887E-06
 -1     27436 2.97386E-05 5.83653E-05-6.87887E-06
 -1     27441 2.95875E-05 5.80686E-05-6.96545E-06
 -1     27442 3.40907E-05 5.56310E-05-7.05203E-06
 -1     27443 2.97386E-05 5.83653E-05-7.05203E-06
 -1     27448 2.95875E-05 5.80686E-05-7.13861E-06
 -1     27449 3.40907E-05 5.56310E-05-7.22519E-06
 -1     27450 2.97386E-05 5.83653E-05-7.22519E-06
 -1     27455 2.95875E-05 5.80686E-05-7.31177E-06
 -1     27459 2.01392E-05 6.19822E-05-5.58017E-06
 -1     27460 2.49684E-05 6.02791E-05-5.66674E-06
 -1     27461 2.02421E-05 6.22989E-05-5.66675E-06
 -1     27466 2.01392E-05 6.19822E-05-5.75333E-06
 -1     27467 2.49684E-05 6.02791E-05-5.83991E-06
 -1     27468 2.02421E-05 6.22989E-05-5.83991E-06
 -1     27473 2.01392E-05 6.19822E-05-5.92649E-06
 -1     27474 2.49684E-05 6.02791E-05-6.01307E-06
 -1     27475 2.02421E-05 6.22989E-05-6.01307E-06
 -1     27480 2.01392E-05 6.19822E-05-6.09965E-06
 -1     27481 2.49684E-05 6.02791E-05-6.18623E-06
 -1     27482 2.02421E-05 6.22989E-05-6.18623E-06
 -1     27487 2.01392E-05 6.19822E-05-6.27281E-06
 -1     27488 2.49684E-05 6.02791E-05-6.35939E-06
 -1     27489 2.02421E-05 6.22989E-05-6.35939E-06
 -1     27494 2.01392E-05 6.19822E-05-6.44597E-06
 -1     27495 2.49684E-05 6.02791E-05-6.53255E-06
 -1     27496 2.02421E-05 6.22989E-05-6.53255E-06
 -1     27501 2.01392E-05 6.19822E-05-6.61913E-06
 -1     27502 2.49684E-05 6.02791E-05-6.70571E-06
 -1     27503 2.02421E-05 6.22989E-05-6.70571E-06
 -1     27508 2.01392E-05 6.19822E-05-6.79229E-06
 -1     27509 2.49684E-05 6.02791E-05-6.87887E-06
 -1     27510 2.02421E-05 6.22989E-05-6.87887E-06
 -1     27515 2.01392E-05 6.19822E-05-6.96545E-06
 -1     27516 2.49684E-05 6.02791E-05-7.05203E-06
 -1     27517 2.02421E-05 6.22989E-05-7.05203E-06
 -1     27522 2.01392E-05 6.19822E-05-7.13861E-06
 -1     27523 2.49684E-05 6.02791E-05-7.22519E-06
 -1     27524 2.02421E-05 6.22989E-05-7.22519E-06
 -1     27529 2.01392E-05 6.19822E-05-7.31177E-06
 -1     27533 1.01951E-05 6.43696E-05-5.58017E-06
 -1     27534 1.52313E-05 6.34428E-05-5.66674E-06
 -1     27535 1.02472E-05 6.46985E-05-5.66675E-06
 -1     27540 1.01951E-05 6.43696E-05-5.75333E-06
 -1     27541 1.52313E-05 6.34428E-05-5.83991E-06
 -1     27542 1.02472E-05 6.46985E-05-5.83991E-06
 -1     27547 1.01951E-05 6.43696E-05-5.92649E-06
 -1     27548 1.52313E-05 6.34428E-05-6.01307E-06
 -1     27549 1.02472E-05 6.46985E-05-6.01307E-06
 -1     27554 1.01951E-05 6.43696E-05-6.09965E-06
 -1     27555 1.52313E-05 6.34428E-05-6.18623E-06
 -1     27556 1.02472E-05 6.46985E-05-6.18623E-06
 -1     27561 1.01951E-05 6.43696E-05-6.27281E-06
 -1     27562 1.52313E-05 6.34428E-05-6.35939E-06
 -1     27563 1.02472E-05 6.46985E-05-6.35939E-06
 -1     27568 1.01951E-05 6.43696E-05-6.44597E-06
 -1     27569 1.52313E-05 6.34428E-05-6.53255E-06
 -1     27570 1.02472E-05 6.46985E-05-6.53255E-06
 -1     27575 1.01951E-05 6.43696E-05-6.61913E-06
 -1     27576 1.52313E-05 6.34428E-05-6.70571E-06
 -1     27577 1.02472E-05 6.46985E-05-6.70571E-06
 -1     27582 1.01951E-05 6.43696E-05-6.79229E-06
 -1     27583 1.52313E-05 6.34428E-05-6.87887E-06
 -1     27584 1.02472E-05 6.46985E-05-6.87887E-06
 -1     27589 1.01951E-05 6.43696E-05-6.96545E-06
 -1     27590 1.52313E-05 6.34428E-05-7.05203E-06
 -1     27591 1.02472E-05 6.46985E-05-7.05203E-06
 -1     27596 1.01951E-05 6.43696E-05-7.13861E-06
 -1     27597 1.52313E-05 6.34428E-05-7.22519E-06
 -1     27598 1.02472E-05 6.46985E-05-7.22519E-06
 -1     27603 1.01951E-05 6.43696E-05-7.31177E-06
 -1     27607 5.11911E-06 6.50445E-05-5.66674E-06
 -1     27611 5.11911E-06 6.50445E-05-5.83991E-06
 -1     27615 5.11911E-06 6.50445E-05-6.01307E-06
 -1     27619 5.11911E-06 6.50445E-05-6.18623E-06
 -1     27623 5.11911E-06 6.50445E-05-6.35939E-06
 -1     27627 5.11911E-06 6.50445E-05-6.53255E-06
 -1     27631 5.11911E-06 6.50445E-05-6.70571E-06
 -1     27635 5.11911E-06 6.50445E-05-6.87887E-06
 -1     27639 5.11911E-06 6.50445E-05-7.05203E-06
 -1     27643 5.11911E-06 6.50445E-05-7.22519E-06
 -1     27649 6.37555E-05 1.00979E-05-5.58017E-06
 -1     27650 6.44240E-05 5.07028E-06-5.66675E-06
 -1     27651 6.40548E-05 1.01453E-05-5.66675E-06
 -1     27656 6.37555E-05 1.00979E-05-5.75332E-06
 -1     27657 6.44240E-05 5.07028E-06-5.83990E-06
 -1     27658 6.40548E-05 1.01453E-05-5.83991E-06
 -1     27663 6.37555E-05 1.00979E-05-5.92648E-06
 -1     27664 6.44240E-05 5.07028E-06-6.01306E-06
 -1     27665 6.40548E-05 1.01453E-05-6.01307E-06
 -1     27670 6.37555E-05 1.00979E-05-6.09964E-06
 -1     27671 6.44240E-05 5.07028E-06-6.18623E-06
 -1     27672 6.40548E-05 1.01453E-05-6.18623E-06
 -1     27677 6.37555E-05 1.00979E-05-6.27281E-06
 -1     27678 6.44240E-05 5.07028E-06-6.35939E-06
 -1     27679 6.40548E-05 1.01453E-05-6.35939E-06
 -1     27684 6.37555E-05 1.00979E-05-6.44597E-06
 -1     27685 6.44240E-05 5.07028E-06-6.53255E-06
 -1     27686 6.40548E-05 1.01453E-05-6.53255E-06
 -1     27691 6.37555E-05 1.00979E-05-6.61913E-06
 -1     27692 6.44240E-05 5.07028E-06-6.70571E-06
 -1     27693 6.40548E-05 1.01453E-05-6.70571E-06
 -1     27698 6.37555E-05 1.00979E-05-6.79229E-06
 -1     27699 6.44240E-05 5.07028E-06-6.87887E-06
 -1     27700 6.40548E-05 1.01453E-05-6.87887E-06
 -1     27705 6.37555E-05 1.00979E-05-6.96545E-06
 -1     27706 6.44240E-05 5.07028E-06-7.05203E-06
 -1     27707 6.40548E-05 1.01453E-05-7.05203E-06
 -1     27712 6.37555E-05 1.00979E-05-7.13861E-06
 -1     27713 6.44240E-05 5.07028E-06-7.22519E-06
 -1     27714 6.40548E-05 1.01453E-05-7.22519E-06
 -1     27719 6.37555E-05 1.00979E-05-7.31177E-06
 -1     27723 6.13910E-05 1.99471E-05-5.58017E-06
 -1     27724 6.28377E-05 1.50860E-05-5.66675E-06
 -1     27725 6.16791E-05 2.00408E-05-5.66675E-06
 -1     27730 6.13910E-05 1.99471E-05-5.75332E-06
 -1     27731 6.28377E-05 1.50860E-05-5.83990E-06
 -1     27732 6.16791E-05 2.00408E-05-5.83991E-06
 -1     27737 6.13910E-05 1.99471E-05-5.92648E-06
 -1     27738 6.28377E-05 1.50860E-05-6.01306E-06
 -1     27739 6.16791E-05 2.00408E-05-6.01307E-06
 -1     27744 6.13910E-05 1.99471E-05-6.09964E-06
 -1     27745 6.28377E-05 1.50860E-05-6.18623E-06
 -1     27746 6.16791E-05 2.00408E-05-6.18623E-06
 -1     27751 6.13910E-05 1.99471E-05-6.27281E-06
 -1     27752 6.28377E-05 1.50860E-05-6.35939E-06
 -1     27753 6.16791E-05 2.00408E-05-6.35939E-06
 -1     27758 6.13910E-05 1.99471E-05-6.44597E-06
 -1     27759 6.28377E-05 1.50860E-05-6.53255E-06
 -1     27760 6.16791E-05 2.00408E-05-6.53255E-06
 -1     27765 6.13910E-05 1.99471E-05-6.61913E-06
 -1     27766 6.28377E-05 1.50860E-05-6.70571E-06
 -1     27767 6.16791E-05 2.00408E-05-6.70571E-06
 -1     27772 6.13910E-05 1.99471E-05-6.79229E-06
 -1     27773 6.28377E-05 1.50860E-05-6.87887E-06
 -1     27774 6.16791E-05 2.00408E-05-6.87887E-06
 -1     27779 6.13910E-05 1.99471E-05-6.96545E-06
 -1     27780 6.28377E-05 1.50860E-05-7.05203E-06
 -1     27781 6.16791E-05 2.00408E-05-7.05203E-06
 -1     27786 6.13910E-05 1.99471E-05-7.13861E-06
 -1     27787 6.28377E-05 1.50860E-05-7.22519E-06
 -1     27788 6.16791E-05 2.00408E-05-7.22519E-06
 -1     27793 6.13910E-05 1.99471E-05-7.31177E-06
 -1     27797 5.75147E-05 2.93052E-05-5.58017E-06
 -1     27798 5.97041E-05 2.47303E-05-5.66675E-06
 -1     27799 5.77847E-05 2.94428E-05-5.66675E-06
 -1     27804 5.75147E-05 2.93052E-05-5.75332E-06
 -1     27805 5.97041E-05 2.47303E-05-5.83990E-06
 -1     27806 5.77847E-05 2.94428E-05-5.83991E-06
 -1     27811 5.75147E-05 2.93052E-05-5.92648E-06
 -1     27812 5.97041E-05 2.47303E-05-6.01306E-06
 -1     27813 5.77847E-05 2.94428E-05-6.01307E-06
 -1     27818 5.75147E-05 2.93052E-05-6.09964E-06
 -1     27819 5.97041E-05 2.47303E-05-6.18623E-06
 -1     27820 5.77847E-05 2.94428E-05-6.18623E-06
 -1     27825 5.75147E-05 2.93052E-05-6.27281E-06
 -1     27826 5.97041E-05 2.47303E-05-6.35939E-06
 -1     27827 5.77847E-05 2.94428E-05-6.35939E-06
 -1     27832 5.75147E-05 2.93052E-05-6.44597E-06
 -1     27833 5.97041E-05 2.47303E-05-6.53255E-06
 -1     27834 5.77847E-05 2.94428E-05-6.53255E-06
 -1     27839 5.75147E-05 2.93052E-05-6.61913E-06
 -1     27840 5.97041E-05 2.47303E-05-6.70571E-06
 -1     27841 5.77847E-05 2.94428E-05-6.70571E-06
 -1     27846 5.75147E-05 2.93052E-05-6.79229E-06
 -1     27847 5.97041E-05 2.47303E-05-6.87887E-06
 -1     27848 5.77847E-05 2.94428E-05-6.87887E-06
 -1     27853 5.75147E-05 2.93052E-05-6.96545E-06
 -1     27854 5.97041E-05 2.47303E-05-7.05203E-06
 -1     27855 5.77847E-05 2.94428E-05-7.05203E-06
 -1     27860 5.75147E-05 2.93052E-05-7.13861E-06
 -1     27861 5.97041E-05 2.47303E-05-7.22519E-06
 -1     27862 5.77847E-05 2.94428E-05-7.22519E-06
 -1     27867 5.75147E-05 2.93052E-05-7.31177E-06
 -1     27871 5.22223E-05 3.79417E-05-5.58017E-06
 -1     27872 5.51004E-05 3.37656E-05-5.66675E-06
 -1     27873 5.24674E-05 3.81198E-05-5.66675E-06
 -1     27878 5.22223E-05 3.79417E-05-5.75332E-06
 -1     27879 5.51004E-05 3.37656E-05-5.83990E-06
 -1     27880 5.24674E-05 3.81198E-05-5.83991E-06
 -1     27885 5.22223E-05 3.79417E-05-5.92648E-06
 -1     27886 5.51004E-05 3.37656E-05-6.01306E-06
 -1     27887 5.24674E-05 3.81198E-05-6.01307E-06
 -1     27892 5.22223E-05 3.79417E-05-6.09964E-06
 -1     27893 5.51004E-05 3.37656E-05-6.18623E-06
 -1     27894 5.24674E-05 3.81198E-05-6.18623E-06
 -1     27899 5.22223E-05 3.79417E-05-6.27281E-06
 -1     27900 5.51004E-05 3.37656E-05-6.35939E-06
 -1     27901 5.24674E-05 3.81198E-05-6.35939E-06
 -1     27906 5.22223E-05 3.79417E-05-6.44597E-06
 -1     27907 5.51004E-05 3.37656E-05-6.53255E-06
 -1     27908 5.24674E-05 3.81198E-05-6.53255E-06
 -1     27913 5.22223E-05 3.79417E-05-6.61913E-06
 -1     27914 5.51004E-05 3.37656E-05-6.70571E-06
 -1     27915 5.24674E-05 3.81198E-05-6.70571E-06
 -1     27920 5.22223E-05 3.79417E-05-6.79229E-06
 -1     27921 5.51004E-05 3.37656E-05-6.87887E-06
 -1     27922 5.24674E-05 3.81198E-05-6.87887E-06
 -1     27927 5.22223E-05 3.79417E-05-6.96545E-06
 -1     27928 5.51004E-05 3.37656E-05-7.05203E-06
 -1     27929 5.24674E-05 3.81198E-05-7.05203E-06
 -1     27934 5.22223E-05 3.79417E-05-7.13861E-06
 -1     27935 5.51004E-05 3.37656E-05-7.22519E-06
 -1     27936 5.24674E-05 3.81198E-05-7.22519E-06
 -1     27941 5.22223E-05 3.79417E-05-7.31177E-06
 -1     27945 4.56439E-05 4.56439E-05-5.58017E-06
 -1     27946 4.91399E-05 4.19694E-05-5.66675E-06
 -1     27947 4.58582E-05 4.58582E-05-5.66675E-06
 -1     27952 4.56439E-05 4.56439E-05-5.75332E-06
 -1     27953 4.91399E-05 4.19694E-05-5.83990E-06
 -1     27954 4.58582E-05 4.58582E-05-5.83991E-06
 -1     27959 4.56439E-05 4.56439E-05-5.92648E-06
 -1     27960 4.91399E-05 4.19694E-05-6.01306E-06
 -1     27961 4.58582E-05 4.58582E-05-6.01307E-06
 -1     27966 4.56439E-05 4.56439E-05-6.09964E-06
 -1     27967 4.91399E-05 4.19694E-05-6.18623E-06
 -1     27968 4.58582E-05 4.58582E-05-6.18623E-06
 -1     27973 4.56439E-05 4.56439E-05-6.27281E-06
 -1     27974 4.91399E-05 4.19694E-05-6.35939E-06
 -1     27975 4.58582E-05 4.58582E-05-6.35939E-06
 -1     27980 4.56439E-05 4.56439E-05-6.44597E-06
 -1     27981 4.91399E-05 4.19694E-05-6.53255E-06
 -1     27982 4.58582E-05 4.58582E-05-6.53255E-06
 -1     27987 4.56439E-05 4.56439E-05-6.61913E-06
 -1     27988 4.91399E-05 4.19694E-05-6.70571E-06
 -1     27989 4.58582E-05 4.58582E-05-6.70571E-06
 -1     27994 4.56439E-05 4.56439E-05-6.79229E-06
 -1     27995 4.91399E-05 4.19694E-05-6.87887E-06
 -1     27996 4.58582E-05 4.58582E-05-6.87887E-06
 -1     28001 4.56439E-05 4.56439E-05-6.96545E-06
 -1     28002 4.91399E-05 4.19694E-05-7.05203E-06
 -1     28003 4.58582E-05 4.58582E-05-7.05203E-06
 -1     28008 4.56439E-05 4.56439E-05-7.13861E-06
 -1     28009 4.91399E-05 4.19694E-05-7.22519E-06
 -1     28010 4.58582E-05 4.58582E-05-7.22519E-06
 -1     28015 4.56439E-05 4.56439E-05-7.31177E-06
 -1     28019 3.79417E-05 5.22223E-05-5.58017E-06
 -1     28020 4.19694E-05 4.91399E-05-5.66675E-06
 -1     28021 3.81198E-05 5.24674E-05-5.66675E-06
 -1     28026 3.79417E-05 5.22223E-05-5.75332E-06
 -1     28027 4.19694E-05 4.91399E-05-5.83990E-06
 -1     28028 3.81198E-05 5.24674E-05-5.83991E-06
 -1     28033 3.79417E-05 5.22223E-05-5.92648E-06
 -1     28034 4.19694E-05 4.91399E-05-6.01306E-06
 -1     28035 3.81198E-05 5.24674E-05-6.01307E-06
 -1     28040 3.79417E-05 5.22223E-05-6.09964E-06
 -1     28041 4.19694E-05 4.91399E-05-6.18623E-06
 -1     28042 3.81198E-05 5.24674E-05-6.18623E-06
 -1     28047 3.79417E-05 5.22223E-05-6.27281E-06
 -1     28048 4.19694E-05 4.91399E-05-6.35939E-06
 -1     28049 3.81198E-05 5.24674E-05-6.35939E-06
 -1     28054 3.79417E-05 5.22223E-05-6.44597E-06
 -1     28055 4.19694E-05 4.91399E-05-6.53255E-06
 -1     28056 3.81198E-05 5.24674E-05-6.53255E-06
 -1     28061 3.79417E-05 5.22223E-05-6.61913E-06
 -1     28062 4.19694E-05 4.91399E-05-6.70571E-06
 -1     28063 3.81198E-05 5.24674E-05-6.70571E-06
 -1     28068 3.79417E-05 5.22223E-05-6.79229E-06
 -1     28069 4.19694E-05 4.91399E-05-6.87887E-06
 -1     28070 3.81198E-05 5.24674E-05-6.87887E-06
 -1     28075 3.79417E-05 5.22223E-05-6.96545E-06
 -1     28076 4.19694E-05 4.91399E-05-7.05203E-06
 -1     28077 3.81198E-05 5.24674E-05-7.05203E-06
 -1     28082 3.79417E-05 5.22223E-05-7.13861E-06
 -1     28083 4.19694E-05 4.91399E-05-7.22519E-06
 -1     28084 3.81198E-05 5.24674E-05-7.22519E-06
 -1     28089 3.79417E-05 5.22223E-05-7.31177E-06
 -1     28093 2.93052E-05 5.75147E-05-5.58017E-06
 -1     28094 3.37656E-05 5.51004E-05-5.66675E-06
 -1     28095 2.94428E-05 5.77847E-05-5.66675E-06
 -1     28100 2.93052E-05 5.75147E-05-5.75332E-06
 -1     28101 3.37656E-05 5.51004E-05-5.83990E-06
 -1     28102 2.94428E-05 5.77847E-05-5.83991E-06
 -1     28107 2.93052E-05 5.75147E-05-5.92648E-06
 -1     28108 3.37656E-05 5.51004E-05-6.01306E-06
 -1     28109 2.94428E-05 5.77847E-05-6.01307E-06
 -1     28114 2.93052E-05 5.75147E-05-6.09964E-06
 -1     28115 3.37656E-05 5.51004E-05-6.18623E-06
 -1     28116 2.94428E-05 5.77847E-05-6.18623E-06
 -1     28121 2.93052E-05 5.75147E-05-6.27281E-06
 -1     28122 3.37656E-05 5.51004E-05-6.35939E-06
 -1     28123 2.94428E-05 5.77847E-05-6.35939E-06
 -1     28128 2.93052E-05 5.75147E-05-6.44597E-06
 -1     28129 3.37656E-05 5.51004E-05-6.53255E-06
 -1     28130 2.94428E-05 5.77847E-05-6.53255E-06
 -1     28135 2.93052E-05 5.75147E-05-6.61913E-06
 -1     28136 3.37656E-05 5.51004E-05-6.70571E-06
 -1     28137 2.94428E-05 5.77847E-05-6.70571E-06
 -1     28142 2.93052E-05 5.75147E-05-6.79229E-06
 -1     28143 3.37656E-05 5.51004E-05-6.87887E-06
 -1     28144 2.94428E-05 5.77847E-05-6.87887E-06
 -1     28149 2.93052E-05 5.75147E-05-6.96545E-06
 -1     28150 3.37656E-05 5.51004E-05-7.05203E-06
 -1     28151 2.94428E-05 5.77847E-05-7.05203E-06
 -1     28156 2.93052E-05 5.75147E-05-7.13861E-06
 -1     28157 3.37656E-05 5.51004E-05-7.22519E-06
 -1     28158 2.94428E-05 5.77847E-05-7.22519E-06
 -1     28163 2.93052E-05 5.75147E-05-7.31177E-06
 -1     28167 1.99471E-05 6.13910E-05-5.58017E-06
 -1     28168 2.47303E-05 5.97041E-05-5.66675E-06
 -1     28169 2.00408E-05 6.16791E-05-5.66675E-06
 -1     28174 1.99471E-05 6.13910E-05-5.75332E-06
 -1     28175 2.47303E-05 5.97041E-05-5.83990E-06
 -1     28176 2.00408E-05 6.16791E-05-5.83991E-06
 -1     28181 1.99471E-05 6.13910E-05-5.92648E-06
 -1     28182 2.47303E-05 5.97041E-05-6.01306E-06
 -1     28183 2.00408E-05 6.16791E-05-6.01307E-06
 -1     28188 1.99471E-05 6.13910E-05-6.09964E-06
 -1     28189 2.47303E-05 5.97041E-05-6.18623E-06
 -1     28190 2.00408E-05 6.16791E-05-6.18623E-06
 -1     28195 1.99471E-05 6.13910E-05-6.27281E-06
 -1     28196 2.47303E-05 5.97041E-05-6.35939E-06
 -1     28197 2.00408E-05 6.16791E-05-6.35939E-06
 -1     28202 1.99471E-05 6.13910E-05-6.44597E-06
 -1     28203 2.47303E-05 5.97041E-05-6.53255E-06
 -1     28204 2.00408E-05 6.16791E-05-6.53255E-06
 -1     28209 1.99471E-05 6.13910E-05-6.61913E-06
 -1     28210 2.47303E-05 5.97041E-05-6.70571E-06
 -1     28211 2.00408E-05 6.16791E-05-6.70571E-06
 -1     28216 1.99471E-05 6.13910E-05-6.79229E-06
 -1     28217 2.47303E-05 5.97041E-05-6.87887E-06
 -1     28218 2.00408E-05 6.16791E-05-6.87887E-06
 -1     28223 1.99471E-05 6.13910E-05-6.96545E-06
 -1     28224 2.47303E-05 5.97041E-05-7.05203E-06
 -1     28225 2.00408E-05 6.16791E-05-7.05203E-06
 -1     28230 1.99471E-05 6.13910E-05-7.13861E-06
 -1     28231 2.47303E-05 5.97041E-05-7.22519E-06
 -1     28232 2.00408E-05 6.16791E-05-7.22519E-06
 -1     28237 1.99471E-05 6.13910E-05-7.31177E-06
 -1     28241 1.00979E-05 6.37555E-05-5.58017E-06
 -1     28242 1.50860E-05 6.28377E-05-5.66675E-06
 -1     28243 1.01453E-05 6.40548E-05-5.66675E-06
 -1     28248 1.00979E-05 6.37555E-05-5.75332E-06
 -1     28249 1.50860E-05 6.28377E-05-5.83990E-06
 -1     28250 1.01453E-05 6.40548E-05-5.83991E-06
 -1     28255 1.00979E-05 6.37555E-05-5.92648E-06
 -1     28256 1.50860E-05 6.28377E-05-6.01306E-06
 -1     28257 1.01453E-05 6.40548E-05-6.01307E-06
 -1     28262 1.00979E-05 6.37555E-05-6.09964E-06
 -1     28263 1.50860E-05 6.28377E-05-6.18623E-06
 -1     28264 1.01453E-05 6.40548E-05-6.18623E-06
 -1     28269 1.00979E-05 6.37555E-05-6.27281E-06
 -1     28270 1.50860E-05 6.28377E-05-6.35939E-06
 -1     28271 1.01453E-05 6.40548E-05-6.35939E-06
 -1     28276 1.00979E-05 6.37555E-05-6.44597E-06
 -1     28277 1.50860E-05 6.28377E-05-6.53255E-06
 -1     28278 1.01453E-05 6.40548E-05-6.53255E-06
 -1     28283 1.00979E-05 6.37555E-05-6.61913E-06
 -1     28284 1.50860E-05 6.28377E-05-6.70571E-06
 -1     28285 1.01453E-05 6.40548E-05-6.70571E-06
 -1     28290 1.00979E-05 6.37555E-05-6.79229E-06
 -1     28291 1.50860E-05 6.28377E-05-6.87887E-06
 -1     28292 1.01453E-05 6.40548E-05-6.87887E-06
 -1     28297 1.00979E-05 6.37555E-05-6.96545E-06
 -1     28298 1.50860E-05 6.28377E-05-7.05203E-06
 -1     28299 1.01453E-05 6.40548E-05-7.05203E-06
 -1     28304 1.00979E-05 6.37555E-05-7.13861E-06
 -1     28305 1.50860E-05 6.28377E-05-7.22519E-06
 -1     28306 1.01453E-05 6.40548E-05-7.22519E-06
 -1     28311 1.00979E-05 6.37555E-05-7.31177E-06
 -1     28315 5.07028E-06 6.44240E-05-5.66675E-06
 -1     28319 5.07028E-06 6.44240E-05-5.83990E-06
 -1     28323 5.07028E-06 6.44240E-05-6.01306E-06
 -1     28327 5.07028E-06 6.44240E-05-6.18623E-06
 -1     28331 5.07028E-06 6.44240E-05-6.35939E-06
 -1     28335 5.07028E-06 6.44240E-05-6.53255E-06
 -1     28339 5.07028E-06 6.44240E-05-6.70571E-06
 -1     28343 5.07028E-06 6.44240E-05-6.87887E-06
 -1     28347 5.07028E-06 6.44240E-05-7.05203E-06
 -1     28351 5.07028E-06 6.44240E-05-7.22519E-06
 -1     28357 6.32166E-05 1.00125E-05-5.58016E-06
 -1     28358 6.38560E-05 5.02558E-06-5.66674E-06
 -1     28359 6.34789E-05 1.00541E-05-5.66674E-06
 -1     28364 6.32166E-05 1.00125E-05-5.75332E-06
 -1     28365 6.38560E-05 5.02558E-06-5.83990E-06
 -1     28366 6.34789E-05 1.00541E-05-5.83990E-06
 -1     28371 6.32166E-05 1.00125E-05-5.92648E-06
 -1     28372 6.38560E-05 5.02558E-06-6.01306E-06
 -1     28373 6.34789E-05 1.00541E-05-6.01306E-06
 -1     28378 6.32166E-05 1.00125E-05-6.09964E-06
 -1     28379 6.38560E-05 5.02558E-06-6.18623E-06
 -1     28380 6.34789E-05 1.00541E-05-6.18622E-06
 -1     28385 6.32166E-05 1.00125E-05-6.27281E-06
 -1     28386 6.38560E-05 5.02558E-06-6.35939E-06
 -1     28387 6.34789E-05 1.00541E-05-6.35939E-06
 -1     28392 6.32166E-05 1.00125E-05-6.44597E-06
 -1     28393 6.38560E-05 5.02558E-06-6.53255E-06
 -1     28394 6.34789E-05 1.00541E-05-6.53255E-06
 -1     28399 6.32166E-05 1.00125E-05-6.61913E-06
 -1     28400 6.38560E-05 5.02558E-06-6.70571E-06
 -1     28401 6.34789E-05 1.00541E-05-6.70571E-06
 -1     28406 6.32166E-05 1.00125E-05-6.79229E-06
 -1     28407 6.38560E-05 5.02558E-06-6.87887E-06
 -1     28408 6.34789E-05 1.00541E-05-6.87887E-06
 -1     28413 6.32166E-05 1.00125E-05-6.96545E-06
 -1     28414 6.38560E-05 5.02558E-06-7.05203E-06
 -1     28415 6.34789E-05 1.00541E-05-7.05203E-06
 -1     28420 6.32166E-05 1.00125E-05-7.13861E-06
 -1     28421 6.38560E-05 5.02558E-06-7.22519E-06
 -1     28422 6.34789E-05 1.00541E-05-7.22519E-06
 -1     28427 6.32166E-05 1.00125E-05-7.31177E-06
 -1     28431 6.08720E-05 1.97785E-05-5.58016E-06
 -1     28432 6.22837E-05 1.49530E-05-5.66674E-06
 -1     28433 6.11246E-05 1.98606E-05-5.66674E-06
 -1     28438 6.08720E-05 1.97785E-05-5.75332E-06
 -1     28439 6.22837E-05 1.49530E-05-5.83990E-06
 -1     28440 6.11246E-05 1.98606E-05-5.83990E-06
 -1     28445 6.08720E-05 1.97785E-05-5.92648E-06
 -1     28446 6.22837E-05 1.49530E-05-6.01306E-06
 -1     28447 6.11246E-05 1.98606E-05-6.01306E-06
 -1     28452 6.08720E-05 1.97785E-05-6.09964E-06
 -1     28453 6.22837E-05 1.49530E-05-6.18623E-06
 -1     28454 6.11246E-05 1.98606E-05-6.18622E-06
 -1     28459 6.08720E-05 1.97785E-05-6.27281E-06
 -1     28460 6.22837E-05 1.49530E-05-6.35939E-06
 -1     28461 6.11246E-05 1.98606E-05-6.35939E-06
 -1     28466 6.08720E-05 1.97785E-05-6.44597E-06
 -1     28467 6.22837E-05 1.49530E-05-6.53255E-06
 -1     28468 6.11246E-05 1.98606E-05-6.53255E-06
 -1     28473 6.08720E-05 1.97785E-05-6.61913E-06
 -1     28474 6.22837E-05 1.49530E-05-6.70571E-06
 -1     28475 6.11246E-05 1.98606E-05-6.70571E-06
 -1     28480 6.08720E-05 1.97785E-05-6.79229E-06
 -1     28481 6.22837E-05 1.49530E-05-6.87887E-06
 -1     28482 6.11246E-05 1.98606E-05-6.87887E-06
 -1     28487 6.08720E-05 1.97785E-05-6.96545E-06
 -1     28488 6.22837E-05 1.49530E-05-7.05203E-06
 -1     28489 6.11246E-05 1.98606E-05-7.05203E-06
 -1     28494 6.08720E-05 1.97785E-05-7.13861E-06
 -1     28495 6.22837E-05 1.49530E-05-7.22519E-06
 -1     28496 6.11246E-05 1.98606E-05-7.22519E-06
 -1     28501 6.08720E-05 1.97785E-05-7.31177E-06
 -1     28505 5.70285E-05 2.90575E-05-5.58016E-06
 -1     28506 5.91777E-05 2.45122E-05-5.66674E-06
 -1     28507 5.72651E-05 2.91780E-05-5.66674E-06
 -1     28512 5.70285E-05 2.90575E-05-5.75332E-06
 -1     28513 5.91777E-05 2.45122E-05-5.83990E-06
 -1     28514 5.72651E-05 2.91780E-05-5.83990E-06
 -1     28519 5.70285E-05 2.90575E-05-5.92648E-06
 -1     28520 5.91777E-05 2.45122E-05-6.01306E-06
 -1     28521 5.72651E-05 2.91780E-05-6.01306E-06
 -1     28526 5.70285E-05 2.90575E-05-6.09964E-06
 -1     28527 5.91777E-05 2.45122E-05-6.18623E-06
 -1     28528 5.72651E-05 2.91780E-05-6.18622E-06
 -1     28533 5.70285E-05 2.90575E-05-6.27281E-06
 -1     28534 5.91777E-05 2.45122E-05-6.35939E-06
 -1     28535 5.72651E-05 2.91780E-05-6.35939E-06
 -1     28540 5.70285E-05 2.90575E-05-6.44597E-06
 -1     28541 5.91777E-05 2.45122E-05-6.53255E-06
 -1     28542 5.72651E-05 2.91780E-05-6.53255E-06
 -1     28547 5.70285E-05 2.90575E-05-6.61913E-06
 -1     28548 5.91777E-05 2.45122E-05-6.70571E-06
 -1     28549 5.72651E-05 2.91780E-05-6.70571E-06
 -1     28554 5.70285E-05 2.90575E-05-6.79229E-06
 -1     28555 5.91777E-05 2.45122E-05-6.87887E-06
 -1     28556 5.72651E-05 2.91780E-05-6.87887E-06
 -1     28561 5.70285E-05 2.90575E-05-6.96545E-06
 -1     28562 5.91777E-05 2.45122E-05-7.05203E-06
 -1     28563 5.72651E-05 2.91780E-05-7.05203E-06
 -1     28568 5.70285E-05 2.90575E-05-7.13861E-06
 -1     28569 5.91777E-05 2.45122E-05-7.22519E-06
 -1     28570 5.72651E-05 2.91780E-05-7.22519E-06
 -1     28575 5.70285E-05 2.90575E-05-7.31177E-06
 -1     28579 5.17808E-05 3.76210E-05-5.58016E-06
 -1     28580 5.46146E-05 3.34679E-05-5.66674E-06
 -1     28581 5.19957E-05 3.77771E-05-5.66674E-06
 -1     28586 5.17808E-05 3.76210E-05-5.75332E-06
 -1     28587 5.46146E-05 3.34679E-05-5.83990E-06
 -1     28588 5.19957E-05 3.77771E-05-5.83990E-06
 -1     28593 5.17808E-05 3.76210E-05-5.92648E-06
 -1     28594 5.46146E-05 3.34679E-05-6.01306E-06
 -1     28595 5.19957E-05 3.77771E-05-6.01306E-06
 -1     28600 5.17808E-05 3.76210E-05-6.09964E-06
 -1     28601 5.46146E-05 3.34679E-05-6.18623E-06
 -1     28602 5.19957E-05 3.77771E-05-6.18622E-06
 -1     28607 5.17808E-05 3.76210E-05-6.27281E-06
 -1     28608 5.46146E-05 3.34679E-05-6.35939E-06
 -1     28609 5.19957E-05 3.77771E-05-6.35939E-06
 -1     28614 5.17808E-05 3.76210E-05-6.44597E-06
 -1     28615 5.46146E-05 3.34679E-05-6.53255E-06
 -1     28616 5.19957E-05 3.77771E-05-6.53255E-06
 -1     28621 5.17808E-05 3.76210E-05-6.61913E-06
 -1     28622 5.46146E-05 3.34679E-05-6.70571E-06
 -1     28623 5.19957E-05 3.77771E-05-6.70571E-06
 -1     28628 5.17808E-05 3.76210E-05-6.79229E-06
 -1     28629 5.46146E-05 3.34679E-05-6.87887E-06
 -1     28630 5.19957E-05 3.77771E-05-6.87887E-06
 -1     28635 5.17808E-05 3.76210E-05-6.96545E-06
 -1     28636 5.46146E-05 3.34679E-05-7.05203E-06
 -1     28637 5.19957E-05 3.77771E-05-7.05203E-06
 -1     28642 5.17808E-05 3.76210E-05-7.13861E-06
 -1     28643 5.46146E-05 3.34679E-05-7.22519E-06
 -1     28644 5.19957E-05 3.77771E-05-7.22519E-06
 -1     28649 5.17808E-05 3.76210E-05-7.31177E-06
 -1     28653 4.52581E-05 4.52581E-05-5.58016E-06
 -1     28654 4.87067E-05 4.15994E-05-5.66674E-06
 -1     28655 4.54459E-05 4.54459E-05-5.66674E-06
 -1     28660 4.52581E-05 4.52581E-05-5.75332E-06
 -1     28661 4.87067E-05 4.15994E-05-5.83990E-06
 -1     28662 4.54459E-05 4.54459E-05-5.83990E-06
 -1     28667 4.52581E-05 4.52581E-05-5.92648E-06
 -1     28668 4.87067E-05 4.15994E-05-6.01306E-06
 -1     28669 4.54459E-05 4.54459E-05-6.01306E-06
 -1     28674 4.52581E-05 4.52581E-05-6.09964E-06
 -1     28675 4.87067E-05 4.15994E-05-6.18623E-06
 -1     28676 4.54459E-05 4.54459E-05-6.18622E-06
 -1     28681 4.52581E-05 4.52581E-05-6.27281E-06
 -1     28682 4.87067E-05 4.15994E-05-6.35939E-06
 -1     28683 4.54459E-05 4.54459E-05-6.35939E-06
 -1     28688 4.52581E-05 4.52581E-05-6.44597E-06
 -1     28689 4.87067E-05 4.15994E-05-6.53255E-06
 -1     28690 4.54459E-05 4.54459E-05-6.53255E-06
 -1     28695 4.52581E-05 4.52581E-05-6.61913E-06
 -1     28696 4.87067E-05 4.15994E-05-6.70571E-06
 -1     28697 4.54459E-05 4.54459E-05-6.70571E-06
 -1     28702 4.52581E-05 4.52581E-05-6.79229E-06
 -1     28703 4.87067E-05 4.15994E-05-6.87887E-06
 -1     28704 4.54459E-05 4.54459E-05-6.87887E-06
 -1     28709 4.52581E-05 4.52581E-05-6.96545E-06
 -1     28710 4.87067E-05 4.15994E-05-7.05203E-06
 -1     28711 4.54459E-05 4.54459E-05-7.05203E-06
 -1     28716 4.52581E-05 4.52581E-05-7.13861E-06
 -1     28717 4.87067E-05 4.15994E-05-7.22519E-06
 -1     28718 4.54459E-05 4.54459E-05-7.22519E-06
 -1     28723 4.52581E-05 4.52581E-05-7.31177E-06
 -1     28727 3.76210E-05 5.17808E-05-5.58016E-06
 -1     28728 4.15994E-05 4.87067E-05-5.66674E-06
 -1     28729 3.77771E-05 5.19957E-05-5.66674E-06
 -1     28734 3.76210E-05 5.17808E-05-5.75332E-06
 -1     28735 4.15994E-05 4.87067E-05-5.83990E-06
 -1     28736 3.77771E-05 5.19957E-05-5.83990E-06
 -1     28741 3.76210E-05 5.17808E-05-5.92648E-06
 -1     28742 4.15994E-05 4.87067E-05-6.01306E-06
 -1     28743 3.77771E-05 5.19957E-05-6.01306E-06
 -1     28748 3.76210E-05 5.17808E-05-6.09964E-06
 -1     28749 4.15994E-05 4.87067E-05-6.18623E-06
 -1     28750 3.77771E-05 5.19957E-05-6.18622E-06
 -1     28755 3.76210E-05 5.17808E-05-6.27281E-06
 -1     28756 4.15994E-05 4.87067E-05-6.35939E-06
 -1     28757 3.77771E-05 5.19957E-05-6.35939E-06
 -1     28762 3.76210E-05 5.17808E-05-6.44597E-06
 -1     28763 4.15994E-05 4.87067E-05-6.53255E-06
 -1     28764 3.77771E-05 5.19957E-05-6.53255E-06
 -1     28769 3.76210E-05 5.17808E-05-6.61913E-06
 -1     28770 4.15994E-05 4.87067E-05-6.70571E-06
 -1     28771 3.77771E-05 5.19957E-05-6.70571E-06
 -1     28776 3.76210E-05 5.17808E-05-6.79229E-06
 -1     28777 4.15994E-05 4.87067E-05-6.87887E-06
 -1     28778 3.77771E-05 5.19957E-05-6.87887E-06
 -1     28783 3.76210E-05 5.17808E-05-6.96545E-06
 -1     28784 4.15994E-05 4.87067E-05-7.05203E-06
 -1     28785 3.77771E-05 5.19957E-05-7.05203E-06
 -1     28790 3.76210E-05 5.17808E-05-7.13861E-06
 -1     28791 4.15994E-05 4.87067E-05-7.22519E-06
 -1     28792 3.77771E-05 5.19957E-05-7.22519E-06
 -1     28797 3.76210E-05 5.17808E-05-7.31177E-06
 -1     28801 2.90575E-05 5.70285E-05-5.58016E-06
 -1     28802 3.34679E-05 5.46146E-05-5.66674E-06
 -1     28803 2.91780E-05 5.72651E-05-5.66674E-06
 -1     28808 2.90575E-05 5.70285E-05-5.75332E-06
 -1     28809 3.34679E-05 5.46146E-05-5.83990E-06
 -1     28810 2.91780E-05 5.72651E-05-5.83990E-06
 -1     28815 2.90575E-05 5.70285E-05-5.92648E-06
 -1     28816 3.34679E-05 5.46146E-05-6.01306E-06
 -1     28817 2.91780E-05 5.72651E-05-6.01306E-06
 -1     28822 2.90575E-05 5.70285E-05-6.09964E-06
 -1     28823 3.34679E-05 5.46146E-05-6.18623E-06
 -1     28824 2.91780E-05 5.72651E-05-6.18622E-06
 -1     28829 2.90575E-05 5.70285E-05-6.27281E-06
 -1     28830 3.34679E-05 5.46146E-05-6.35939E-06
 -1     28831 2.91780E-05 5.72651E-05-6.35939E-06
 -1     28836 2.90575E-05 5.70285E-05-6.44597E-06
 -1     28837 3.34679E-05 5.46146E-05-6.53255E-06
 -1     28838 2.91780E-05 5.72651E-05-6.53255E-06
 -1     28843 2.90575E-05 5.70285E-05-6.61913E-06
 -1     28844 3.34679E-05 5.46146E-05-6.70571E-06
 -1     28845 2.91780E-05 5.72651E-05-6.70571E-06
 -1     28850 2.90575E-05 5.70285E-05-6.79229E-06
 -1     28851 3.34679E-05 5.46146E-05-6.87887E-06
 -1     28852 2.91780E-05 5.72651E-05-6.87887E-06
 -1     28857 2.90575E-05 5.70285E-05-6.96545E-06
 -1     28858 3.34679E-05 5.46146E-05-7.05203E-06
 -1     28859 2.91780E-05 5.72651E-05-7.05203E-06
 -1     28864 2.90575E-05 5.70285E-05-7.13861E-06
 -1     28865 3.34679E-05 5.46146E-05-7.22519E-06
 -1     28866 2.91780E-05 5.72651E-05-7.22519E-06
 -1     28871 2.90575E-05 5.70285E-05-7.31177E-06
 -1     28875 1.97785E-05 6.08720E-05-5.58016E-06
 -1     28876 2.45122E-05 5.91777E-05-5.66674E-06
 -1     28877 1.98606E-05 6.11246E-05-5.66674E-06
 -1     28882 1.97785E-05 6.08720E-05-5.75332E-06
 -1     28883 2.45122E-05 5.91777E-05-5.83990E-06
 -1     28884 1.98606E-05 6.11246E-05-5.83990E-06
 -1     28889 1.97785E-05 6.08720E-05-5.92648E-06
 -1     28890 2.45122E-05 5.91777E-05-6.01306E-06
 -1     28891 1.98606E-05 6.11246E-05-6.01306E-06
 -1     28896 1.97785E-05 6.08720E-05-6.09964E-06
 -1     28897 2.45122E-05 5.91777E-05-6.18622E-06
 -1     28898 1.98606E-05 6.11246E-05-6.18623E-06
 -1     28903 1.97785E-05 6.08720E-05-6.27281E-06
 -1     28904 2.45122E-05 5.91777E-05-6.35939E-06
 -1     28905 1.98606E-05 6.11246E-05-6.35939E-06
 -1     28910 1.97785E-05 6.08720E-05-6.44597E-06
 -1     28911 2.45122E-05 5.91777E-05-6.53255E-06
 -1     28912 1.98606E-05 6.11246E-05-6.53255E-06
 -1     28917 1.97785E-05 6.08720E-05-6.61913E-06
 -1     28918 2.45122E-05 5.91777E-05-6.70571E-06
 -1     28919 1.98606E-05 6.11246E-05-6.70571E-06
 -1     28924 1.97785E-05 6.08720E-05-6.79229E-06
 -1     28925 2.45122E-05 5.91777E-05-6.87887E-06
 -1     28926 1.98606E-05 6.11246E-05-6.87887E-06
 -1     28931 1.97785E-05 6.08720E-05-6.96545E-06
 -1     28932 2.45122E-05 5.91777E-05-7.05203E-06
 -1     28933 1.98606E-05 6.11246E-05-7.05203E-06
 -1     28938 1.97785E-05 6.08720E-05-7.13861E-06
 -1     28939 2.45122E-05 5.91777E-05-7.22519E-06
 -1     28940 1.98606E-05 6.11246E-05-7.22519E-06
 -1     28945 1.97785E-05 6.08720E-05-7.31177E-06
 -1     28949 1.00125E-05 6.32166E-05-5.58016E-06
 -1     28950 1.49530E-05 6.22837E-05-5.66674E-06
 -1     28951 1.00541E-05 6.34789E-05-5.66674E-06
 -1     28956 1.00125E-05 6.32166E-05-5.75332E-06
 -1     28957 1.49530E-05 6.22837E-05-5.83990E-06
 -1     28958 1.00541E-05 6.34789E-05-5.83990E-06
 -1     28963 1.00125E-05 6.32166E-05-5.92648E-06
 -1     28964 1.49530E-05 6.22837E-05-6.01306E-06
 -1     28965 1.00541E-05 6.34789E-05-6.01306E-06
 -1     28970 1.00125E-05 6.32166E-05-6.09964E-06
 -1     28971 1.49530E-05 6.22837E-05-6.18622E-06
 -1     28972 1.00541E-05 6.34789E-05-6.18622E-06
 -1     28977 1.00125E-05 6.32166E-05-6.27281E-06
 -1     28978 1.49530E-05 6.22837E-05-6.35939E-06
 -1     28979 1.00541E-05 6.34789E-05-6.35939E-06
 -1     28984 1.00125E-05 6.32166E-05-6.44597E-06
 -1     28985 1.49530E-05 6.22837E-05-6.53255E-06
 -1     28986 1.00541E-05 6.34789E-05-6.53255E-06
 -1     28991 1.00125E-05 6.32166E-05-6.61913E-06
 -1     28992 1.49530E-05 6.22837E-05-6.70571E-06
 -1     28993 1.00541E-05 6.34789E-05-6.70571E-06
 -1     28998 1.00125E-05 6.32166E-05-6.79229E-06
 -1     28999 1.49530E-05 6.22837E-05-6.87887E-06
 -1     29000 1.00541E-05 6.34789E-05-6.87887E-06
 -1     29005 1.00125E-05 6.32166E-05-6.96545E-06
 -1     29006 1.49530E-05 6.22837E-05-7.05203E-06
 -1     29007 1.00541E-05 6.34789E-05-7.05203E-06
 -1     29012 1.00125E-05 6.32166E-05-7.13861E-06
 -1     29013 1.49530E-05 6.22837E-05-7.22519E-06
 -1     29014 1.00541E-05 6.34789E-05-7.22519E-06
 -1     29019 1.00125E-05 6.32166E-05-7.31177E-06
 -1     29023 5.02558E-06 6.38560E-05-5.66674E-06
 -1     29027 5.02558E-06 6.38560E-05-5.83990E-06
 -1     29031 5.02558E-06 6.38560E-05-6.01306E-06
 -1     29035 5.02558E-06 6.38560E-05-6.18623E-06
 -1     29039 5.02558E-06 6.38560E-05-6.35939E-06
 -1     29043 5.02558E-06 6.38560E-05-6.53255E-06
 -1     29047 5.02558E-06 6.38560E-05-6.70571E-06
 -1     29051 5.02558E-06 6.38560E-05-6.87887E-06
 -1     29055 5.02558E-06 6.38560E-05-7.05203E-06
 -1     29059 5.02558E-06 6.38560E-05-7.22519E-06
 -1     29065 6.29608E-05 9.97201E-06-5.66675E-06
 -1     29069 6.29608E-05 9.97201E-06-5.83991E-06
 -1     29073 6.29608E-05 9.97201E-06-6.01307E-06
 -1     29077 6.29608E-05 9.97201E-06-6.18623E-06
 -1     29081 6.29608E-05 9.97201E-06-6.35939E-06
 -1     29085 6.29608E-05 9.97201E-06-6.53255E-06
 -1     29089 6.29608E-05 9.97201E-06-6.70571E-06
 -1     29093 6.29608E-05 9.97201E-06-6.87887E-06
 -1     29097 6.29608E-05 9.97201E-06-7.05203E-06
 -1     29101 6.29608E-05 9.97201E-06-7.22518E-06
 -1     29107 6.06257E-05 1.96985E-05-5.66675E-06
 -1     29111 6.06257E-05 1.96985E-05-5.83991E-06
 -1     29115 6.06257E-05 1.96985E-05-6.01307E-06
 -1     29119 6.06257E-05 1.96985E-05-6.18623E-06
 -1     29123 6.06257E-05 1.96985E-05-6.35939E-06
 -1     29127 6.06257E-05 1.96985E-05-6.53255E-06
 -1     29131 6.06257E-05 1.96985E-05-6.70571E-06
 -1     29135 6.06257E-05 1.96985E-05-6.87887E-06
 -1     29139 6.06257E-05 1.96985E-05-7.05203E-06
 -1     29143 6.06257E-05 1.96985E-05-7.22518E-06
 -1     29149 5.67978E-05 2.89399E-05-5.66675E-06
 -1     29153 5.67978E-05 2.89399E-05-5.83991E-06
 -1     29157 5.67978E-05 2.89399E-05-6.01307E-06
 -1     29161 5.67978E-05 2.89399E-05-6.18623E-06
 -1     29165 5.67978E-05 2.89399E-05-6.35939E-06
 -1     29169 5.67978E-05 2.89399E-05-6.53255E-06
 -1     29173 5.67978E-05 2.89399E-05-6.70571E-06
 -1     29177 5.67978E-05 2.89399E-05-6.87887E-06
 -1     29181 5.67978E-05 2.89399E-05-7.05203E-06
 -1     29185 5.67978E-05 2.89399E-05-7.22518E-06
 -1     29191 5.15713E-05 3.74687E-05-5.66675E-06
 -1     29195 5.15713E-05 3.74687E-05-5.83991E-06
 -1     29199 5.15713E-05 3.74687E-05-6.01307E-06
 -1     29203 5.15713E-05 3.74687E-05-6.18623E-06
 -1     29207 5.15713E-05 3.74687E-05-6.35939E-06
 -1     29211 5.15713E-05 3.74687E-05-6.53255E-06
 -1     29215 5.15713E-05 3.74687E-05-6.70571E-06
 -1     29219 5.15713E-05 3.74687E-05-6.87887E-06
 -1     29223 5.15713E-05 3.74687E-05-7.05203E-06
 -1     29227 5.15713E-05 3.74687E-05-7.22518E-06
 -1     29233 4.50750E-05 4.50750E-05-5.66675E-06
 -1     29237 4.50750E-05 4.50750E-05-5.83991E-06
 -1     29241 4.50750E-05 4.50750E-05-6.01307E-06
 -1     29245 4.50750E-05 4.50750E-05-6.18623E-06
 -1     29249 4.50750E-05 4.50750E-05-6.35939E-06
 -1     29253 4.50750E-05 4.50750E-05-6.53255E-06
 -1     29257 4.50750E-05 4.50750E-05-6.70571E-06
 -1     29261 4.50750E-05 4.50750E-05-6.87887E-06
 -1     29265 4.50750E-05 4.50750E-05-7.05203E-06
 -1     29269 4.50750E-05 4.50750E-05-7.22518E-06
 -1     29275 3.74687E-05 5.15713E-05-5.66675E-06
 -1     29279 3.74687E-05 5.15713E-05-5.83991E-06
 -1     29283 3.74687E-05 5.15713E-05-6.01307E-06
 -1     29287 3.74687E-05 5.15713E-05-6.18623E-06
 -1     29291 3.74687E-05 5.15713E-05-6.35939E-06
 -1     29295 3.74687E-05 5.15713E-05-6.53255E-06
 -1     29299 3.74687E-05 5.15713E-05-6.70571E-06
 -1     29303 3.74687E-05 5.15713E-05-6.87887E-06
 -1     29307 3.74687E-05 5.15713E-05-7.05203E-06
 -1     29311 3.74687E-05 5.15713E-05-7.22518E-06
 -1     29317 2.89399E-05 5.67978E-05-5.66675E-06
 -1     29321 2.89399E-05 5.67978E-05-5.83991E-06
 -1     29325 2.89399E-05 5.67978E-05-6.01307E-06
 -1     29329 2.89399E-05 5.67978E-05-6.18623E-06
 -1     29333 2.89399E-05 5.67978E-05-6.35939E-06
 -1     29337 2.89399E-05 5.67978E-05-6.53255E-06
 -1     29341 2.89399E-05 5.67978E-05-6.70571E-06
 -1     29345 2.89399E-05 5.67978E-05-6.87887E-06
 -1     29349 2.89399E-05 5.67978E-05-7.05203E-06
 -1     29353 2.89399E-05 5.67978E-05-7.22518E-06
 -1     29359 1.96985E-05 6.06257E-05-5.66675E-06
 -1     29363 1.96985E-05 6.06257E-05-5.83991E-06
 -1     29367 1.96985E-05 6.06257E-05-6.01307E-06
 -1     29371 1.96985E-05 6.06257E-05-6.18623E-06
 -1     29375 1.96985E-05 6.06257E-05-6.35939E-06
 -1     29379 1.96985E-05 6.06257E-05-6.53255E-06
 -1     29383 1.96985E-05 6.06257E-05-6.70571E-06
 -1     29387 1.96985E-05 6.06257E-05-6.87887E-06
 -1     29391 1.96985E-05 6.06257E-05-7.05203E-06
 -1     29395 1.96985E-05 6.06257E-05-7.22518E-06
 -1     29401 9.97201E-06 6.29608E-05-5.66675E-06
 -1     29405 9.97201E-06 6.29608E-05-5.83991E-06
 -1     29409 9.97201E-06 6.29608E-05-6.01307E-06
 -1     29413 9.97201E-06 6.29608E-05-6.18623E-06
 -1     29417 9.97201E-06 6.29608E-05-6.35939E-06
 -1     29421 9.97201E-06 6.29608E-05-6.53255E-06
 -1     29425 9.97201E-06 6.29608E-05-6.70571E-06
 -1     29429 9.97201E-06 6.29608E-05-6.87887E-06
 -1     29433 9.97201E-06 6.29608E-05-7.05203E-06
 -1     29437 9.97201E-06 6.29608E-05-7.22518E-06
 -3
    1PSTEP                         2           1           1          
  100CL  101 1.000000000       15523                     0    1           1
 -4  STRESS      6    1
 -5  SXX         1    4    1    1
 -5  SYY         1    4    2    2
 -5  SZZ         1    4    3    3
 -5  SXY         1    4    1    2
 -5  SYZ         1    4    2    3
 -5  SZX         1    4    3    1
 -1         1-1.00472E+00 1.13803E+00-1.21505E-06 3.71915E-03 3.21845E-08 2.34649E-06
 -1         2-4.45970E-04 1.33775E-01 2.36883E-07-7.44887E-04 4.24750E-08 4.55834E-07
 -1         3 1.33775E-01-4.45999E-04 2.19463E-07-7.44692E-04 4.37962E-07 8.21290E-09
 -1         4 1.13803E+00-1.00472E+00-1.21433E-06 3.71915E-03 2.34552E-06 3.20280E-08
 -1         5-1.00472E+00 1.13803E+00-1.21505E-06 3.71915E-03-3.21846E-08-2.34649E-06
 -1         6-4.45970E-04 1.33775E-01 2.36883E-07-7.44887E-04-4.24749E-08-4.55834E-07
 -1         7 1.33775E-01-4.45999E-04 2.19463E-07-7.44692E-04-4.37962E-07-8.21286E-09
 -1         8 1.13803E+00-1.00472E+00-1.21433E-06 3.71915E-03-2.34552E-06-3.20280E-08
 -1         9-8.22205E-01 9.55537E-01-5.54065E-07 3.36959E-04-5.93923E-08-1.81736E-06
 -1        10-6.80492E-01 8.13827E-01 1.06911E-06-9.84079E-04 7.04311E-09 3.20183E-07
 -1        11-5.70340E-01 7.03666E-01 1.33150E-07-5.36363E-04 5.17162E-08 3.92948E-07
 -1        12-4.82809E-01 6.16137E-01-2.06413E-08-5.40954E-04-2.08208E-08-1.15001E-07
 -1        13-4.12151E-01 5.45478E-01 2.19750E-08-4.51232E-04 9.16335E-09 5.82808E-08
 -1        14-3.54284E-01 4.87612E-01-1.10982E-08-4.01953E-04-2.81069E-09-1.50815E-08
 -1        15-3.06302E-01 4.39629E-01 2.69273E-10-3.54799E-04 1.01648E-09 6.06427E-09
 -1        16-2.66075E-01 3.99403E-01-3.79610E-09-3.16890E-04-2.99923E-10-1.64744E-09
 -1        17-2.32019E-01 3.65347E-01-1.85101E-09-2.84370E-04 8.23326E-11 3.68204E-10
 -1        18-2.02935E-01 3.36263E-01-1.94020E-09-2.56704E-04-4.03938E-11-3.12819E-10
 -1        19-1.77899E-01 3.11226E-01-1.43509E-09-2.32859E-04-3.92420E-12-1.11673E-10
 -1        20-1.56194E-01 2.89521E-01-1.21144E-09-2.12194E-04-1.25216E-11-1.42102E-10
 -1        21-1.37254E-01 2.70582E-01-9.78207E-10-1.94160E-04-7.64345E-12-1.02438E-10
 -1        22-1.20629E-01 2.53957E-01-8.11387E-10-1.78330E-04-6.80428E-12-8.58168E-11
 -1        23-1.05957E-01 2.39285E-01-6.74075E-10-1.64359E-04-5.23794E-12-6.69789E-11
 -1        24-9.29439E-02 2.26272E-01-5.65836E-10-1.51967E-04-4.20983E-12-5.33686E-11
 -1        25-8.13480E-02 2.14676E-01-4.81442E-10-1.40926E-04-2.83232E-12-3.87845E-11
 -1        26-7.09712E-02 2.04299E-01-4.08590E-10-1.31045E-04-2.98410E-12-3.15400E-11
 -1        27-6.16483E-02 1.94976E-01-3.76009E-10-1.22168E-04 2.39185E-12 5.35620E-12
 -1        28-5.32414E-02 1.86569E-01-2.93284E-10-1.14161E-04-8.82108E-12-3.53348E-11
 -1        29-4.56343E-02 1.78962E-01-4.58852E-10-1.06925E-04 3.93978E-11 2.48332E-10
 -1        30-3.87288E-02 1.72057E-01-4.19417E-11-1.00323E-04-9.31189E-11-4.00170E-10
 -1        31-3.24410E-02 1.65769E-01-1.64181E-09-9.44354E-05 3.71603E-10 2.32774E-09
 -1        32-2.66996E-02 1.60028E-01 1.56395E-09-8.85875E-05-9.31419E-10-4.83045E-09
 -1        33-2.14427E-02 1.54771E-01-9.80576E-09-8.50507E-05 3.08341E-09 2.01040E-08
 -1        34-1.66184E-02 1.49946E-01 5.99635E-09-7.47783E-05-6.87147E-09-4.02760E-08
 -1        35-1.21765E-02 1.45505E-01-5.64017E-08-9.25846E-05 1.70787E-08 1.38142E-07
 -1        36-8.09348E-03 1.41419E-01-2.29246E-07-2.89645E-06-3.18417E-09-1.36907E-09
 -1        37-4.23216E-03 1.37562E-01 1.78158E-07-5.92591E-04-2.71471E-08-3.26819E-07
 -1        38-9.13277E-01 1.04661E+00 6.70674E-07 2.14090E-03-1.47583E-08-4.54677E-07
 -1        39-7.51369E-01 8.84687E-01-2.97830E-07-4.51534E-04 7.82600E-08 1.18304E-06
 -1        40-6.25474E-01 7.58803E-01-4.79448E-07-7.42043E-04-8.57875E-08-9.39212E-07
 -1        41-5.26608E-01 6.59935E-01 1.63835E-07-5.43704E-04 3.41851E-08 3.01075E-07
 -1        42-4.47502E-01 5.80830E-01-7.36407E-08-4.94838E-04-1.33927E-08-1.14320E-07
 -1        43-3.83232E-01 5.16560E-01 2.61970E-08-4.26899E-04 4.24704E-09 3.31096E-08
 -1        44-3.30303E-01 4.63631E-01-7.10517E-09-3.78223E-04-1.44129E-09-1.12185E-08
 -1        45-2.86195E-01 4.19523E-01 4.21474E-09-3.35795E-04 4.26856E-10 3.14208E-09
 -1        46-2.49052E-01 3.82380E-01 3.37938E-10-3.00548E-04-1.27404E-10-8.95434E-10
 -1        47-2.17481E-01 3.50809E-01 1.27809E-09-2.70466E-04 4.52573E-11 3.59633E-10
 -1        48-1.90419E-01 3.23747E-01 7.31397E-10-2.44714E-04-4.90608E-12 4.61496E-12
 -1        49-1.67048E-01 3.00376E-01 6.87387E-10-2.22466E-04 8.86493E-12 9.41493E-11
 -1        50-1.46725E-01 2.80053E-01 5.32815E-10-2.03122E-04 3.67766E-12 5.26442E-11
 -1        51-1.28943E-01 2.62271E-01 4.46519E-10-1.86196E-04 3.99563E-12 4.90946E-11
 -1        52-1.13294E-01 2.46622E-01 3.67500E-10-1.71301E-04 2.91661E-12 3.73235E-11
 -1        53-9.94514E-02 2.32779E-01 3.08279E-10-1.58124E-04 2.34867E-12 2.98626E-11
 -1        54-8.71465E-02 2.20475E-01 2.58940E-10-1.46412E-04 1.96674E-12 2.38482E-11
 -1        55-7.61601E-02 2.09488E-01 2.24235E-10-1.35954E-04 9.92486E-13 1.49410E-11
 -1        56-6.63101E-02 1.99638E-01 1.84285E-10-1.26579E-04 2.14719E-12 1.79196E-11
 -1        57-5.74452E-02 1.90773E-01 1.98905E-10-1.18140E-04-4.37955E-12-2.55568E-11
 -1        58-4.94382E-02 1.82766E-01 7.96154E-11-1.10522E-04 1.33724E-11 7.32285E-11
 -1        59-4.21818E-02 1.75510E-01 4.44942E-10-1.03601E-04-5.24533E-11-3.53245E-10
 -1        60-3.55850E-02 1.68913E-01-5.93772E-10-9.73747E-05 1.45598E-10 8.77188E-10
 -1        61-2.95704E-02 1.62898E-01 2.89617E-09-9.14445E-05-5.15114E-10-3.59535E-09
 -1        62-2.40712E-02 1.57399E-01-6.45223E-09-8.70087E-05 1.43919E-09 9.69103E-09
 -1        63-1.90307E-02 1.52359E-01 2.23975E-08-7.90885E-05-4.48449E-09-3.41888E-08
 -1        64-1.43971E-02 1.47725E-01-4.46992E-08-8.69247E-05 1.11975E-08 8.74033E-08
 -1        65-1.01366E-02 1.43464E-01 1.41820E-07-3.46593E-05-2.76835E-08-2.72793E-07
 -1        66-6.17445E-03 1.39504E-01 2.59499E-08-2.21340E-04 2.89768E-08 3.85747E-07
 -1        67-2.32682E-03 1.35653E-01-1.31378E-07-7.55473E-04-5.43123E-09-1.57500E-07
 -1        68 2.83866E-03 1.30491E-01 2.37299E-07-2.07383E-02 7.20196E-08 4.50318E-07
 -1        69 1.23710E-02 1.20958E-01 2.38790E-07-3.94467E-02 1.42385E-07 4.33904E-07
 -1        70 2.72180E-02 1.06111E-01 2.42089E-07-5.42937E-02 2.08431E-07 4.07474E-07
 -1        71 4.59264E-02 8.74030E-02 2.45461E-07-6.38260E-02 2.69024E-07 3.70453E-07
 -1        72 6.66647E-02 6.66647E-02 2.42906E-07-6.71106E-02 3.24846E-07 3.19004E-07
 -1        73 8.74031E-02 4.59264E-02 2.38136E-07-6.38261E-02 3.67483E-07 2.64159E-07
 -1        74 1.06111E-01 2.72180E-02 2.43837E-07-5.42937E-02 4.00229E-07 2.09381E-07
 -1        75 1.20958E-01 1.23710E-02 2.47293E-07-3.94466E-02 4.27231E-07 1.39154E-07
 -1        76 1.30491E-01 2.83864E-03 2.32186E-07-2.07384E-02 4.37961E-07 6.17631E-08
 -1        77 1.08126E-03 1.32248E-01 2.41053E-07-1.03874E-02 3.52068E-08 4.49991E-07
 -1        78 7.50102E-03 1.25828E-01 2.40627E-07-3.01454E-02 1.04794E-07 4.38827E-07
 -1        79 1.97121E-02 1.13617E-01 2.39549E-07-4.69526E-02 1.71663E-07 4.16759E-07
 -1        80 3.65193E-02 9.68101E-02 2.37238E-07-5.91637E-02 2.35386E-07 3.83808E-07
 -1        81 5.62773E-02 7.70521E-02 2.36174E-07-6.55834E-02 2.92542E-07 3.42908E-07
 -1        82 7.70521E-02 5.62773E-02 2.39978E-07-6.55834E-02 3.40942E-07 2.97656E-07
 -1        83 9.68101E-02 3.65193E-02 2.40433E-07-5.91637E-02 3.87809E-07 2.35253E-07
 -1        84 1.13617E-01 1.97121E-02 2.34442E-07-4.69525E-02 4.20365E-07 1.70473E-07
 -1        85 1.25828E-01 7.50103E-03 2.37234E-07-3.01454E-02 4.42672E-07 1.10042E-07
 -1        86 1.32248E-01 1.08127E-03 2.49441E-07-1.03874E-02 4.58449E-07 4.19149E-08
 -1        87 1.37562E-01-4.23216E-03 1.81127E-07-5.92541E-04-3.25334E-07-6.36360E-09
 -1        88 1.41419E-01-8.09347E-03-2.31085E-07-2.90340E-06 7.56904E-10-1.02415E-08
 -1        89 1.45505E-01-1.21765E-02-5.67161E-08-9.25889E-05 1.38198E-07 1.81756E-08
 -1        90 1.49946E-01-1.66184E-02 6.29043E-09-7.47812E-05-4.01607E-08-7.10523E-09
 -1        91 1.54771E-01-2.14427E-02-9.76039E-09-8.50521E-05 2.01061E-08 3.11890E-09
 -1        92 1.60028E-01-2.66995E-02 1.61196E-09-8.85883E-05-4.82718E-09-9.38844E-10
 -1        93 1.65769E-01-3.24410E-02-1.63278E-09-9.44359E-05 2.32569E-09 3.72406E-10
 -1        94 1.72057E-01-3.87288E-02-3.72506E-11-1.00324E-04-4.01628E-10-9.36678E-11
 -1        95 1.78962E-01-4.56343E-02-4.58126E-10-1.06925E-04 2.47025E-10 3.93102E-11
 -1        96 1.86569E-01-5.32414E-02-2.93200E-10-1.14161E-04-3.62733E-11-8.87391E-12
 -1        97 1.94976E-01-6.16483E-02-3.76321E-10-1.22168E-04 4.64459E-12 2.44855E-12
 -1        98 2.04299E-01-7.09712E-02-4.08990E-10-1.31045E-04-3.20276E-11-2.92643E-12
 -1        99 2.14676E-01-8.13480E-02-4.81826E-10-1.40926E-04-3.91652E-11-2.72344E-12
 -1       100 2.26272E-01-9.29439E-02-5.66193E-10-1.51967E-04-5.36321E-11-4.13804E-12
 -1       101 2.39285E-01-1.05957E-01-6.74411E-10-1.64359E-04-6.71998E-11-5.07843E-12
 -1       102 2.53957E-01-1.20629E-01-8.11679E-10-1.78330E-04-8.59404E-11-6.75196E-12
 -1       103 2.70582E-01-1.37254E-01-9.78415E-10-1.94160E-04-1.02520E-10-7.54595E-12
 -1       104 2.89521E-01-1.56194E-01-1.21165E-09-2.12194E-04-1.42132E-10-1.24460E-11
 -1       105 3.11226E-01-1.77899E-01-1.43524E-09-2.32859E-04-1.11715E-10-3.82133E-12
 -1       106 3.36263E-01-2.02935E-01-1.94034E-09-2.56704E-04-3.12834E-10-4.03035E-11
 -1       107 3.65347E-01-2.32019E-01-1.85109E-09-2.84370E-04 3.68208E-10 8.24434E-11
 -1       108 3.99403E-01-2.66075E-01-3.79618E-09-3.16890E-04-1.64742E-09-2.99849E-10
 -1       109 4.39629E-01-3.06302E-01 2.69294E-10-3.54799E-04 6.06448E-09 1.01666E-09
 -1       110 4.87612E-01-3.54284E-01-1.10984E-08-4.01953E-04-1.50812E-08-2.81102E-09
 -1       111 5.45478E-01-4.12151E-01 2.19752E-08-4.51232E-04 5.82819E-08 9.16460E-09
 -1       112 6.16137E-01-4.82809E-01-2.06314E-08-5.40954E-04-1.15000E-07-2.08192E-08
 -1       113 7.03666E-01-5.70340E-01 1.33141E-07-5.36363E-04 3.92961E-07 5.16990E-08
 -1       114 8.13827E-01-6.80492E-01 1.06918E-06-9.84079E-04 3.20225E-07 7.13058E-09
 -1       115 9.55537E-01-8.22205E-01-5.54246E-07 3.36959E-04-1.81720E-06-5.95842E-08
 -1       116 1.35654E-01-2.32684E-03-1.40684E-07-7.55348E-04-1.61843E-07-1.82034E-08
 -1       117 1.39504E-01-6.17444E-03 2.75332E-08-2.21316E-04 3.84591E-07 4.19409E-08
 -1       118 1.43464E-01-1.01366E-02 1.42295E-07-3.46692E-05-2.72387E-07-3.07166E-08
 -1       119 1.47725E-01-1.43971E-02-4.49116E-08-8.69290E-05 8.73472E-08 1.16187E-08
 -1       120 1.52359E-01-1.90307E-02 2.24003E-08-7.90906E-05-3.41817E-08-4.58702E-09
 -1       121 1.57399E-01-2.40712E-02-6.48719E-09-8.70098E-05 9.68425E-09 1.45209E-09
 -1       122 1.62898E-01-2.95704E-02 2.89313E-09-9.14450E-05-3.59770E-09-5.18697E-10
 -1       123 1.68913E-01-3.55850E-02-5.96638E-10-9.73751E-05 8.75224E-10 1.45635E-10
 -1       124 1.75510E-01-4.21818E-02 4.45145E-10-1.03601E-04-3.54500E-10-5.27926E-11
 -1       125 1.82766E-01-4.94381E-02 7.98818E-11-1.10522E-04 7.23335E-11 1.32913E-11
 -1       126 1.90773E-01-5.74452E-02 1.99374E-10-1.18140E-04-2.61926E-11-4.37406E-12
 -1       127 1.99638E-01-6.63101E-02 1.84690E-10-1.26579E-04 1.74707E-11 2.20288E-12
 -1       128 2.09488E-01-7.61601E-02 2.24583E-10-1.35955E-04 1.46207E-11 1.07184E-12
 -1       129 2.20475E-01-8.71465E-02 2.59228E-10-1.46412E-04 2.36045E-11 2.05953E-12
 -1       130 2.32779E-01-9.94514E-02 3.08474E-10-1.58124E-04 2.96838E-11 2.46301E-12
 -1       131 2.46622E-01-1.13294E-01 3.67692E-10-1.71301E-04 3.72066E-11 3.02176E-12
 -1       132 2.62271E-01-1.28943E-01 4.46671E-10-1.86196E-04 4.90152E-11 4.07151E-12
 -1       133 2.80053E-01-1.46725E-01 5.32929E-10-2.03122E-04 5.26022E-11 3.75815E-12
 -1       134 3.00376E-01-1.67048E-01 6.87479E-10-2.22466E-04 9.41224E-11 8.95689E-12
 -1       135 3.23747E-01-1.90419E-01 7.31450E-10-2.44714E-04 4.57885E-12-4.81444E-12
 -1       136 3.50809E-01-2.17481E-01 1.27813E-09-2.70466E-04 3.59617E-10 4.53536E-11
 -1       137 3.82380E-01-2.49052E-01 3.37962E-10-3.00548E-04-8.95459E-10-1.27321E-10
 -1       138 4.19523E-01-2.86195E-01 4.21481E-09-3.35795E-04 3.14209E-09 4.26970E-10
 -1       139 4.63631E-01-3.30303E-01-7.10533E-09-3.78223E-04-1.12186E-08-1.44143E-09
 -1       140 5.16560E-01-3.83232E-01 2.61972E-08-4.26899E-04 3.31096E-08 4.24738E-09
 -1       141 5.80830E-01-4.47502E-01-7.36409E-08-4.94838E-04-1.14320E-07-1.33918E-08
 -1       142 6.59935E-01-5.26608E-01 1.63825E-07-5.43704E-04 3.01074E-07 3.41776E-08
 -1       143 7.58803E-01-6.25474E-01-4.79427E-07-7.42043E-04-9.39219E-07-8.57647E-08
 -1       144 8.84687E-01-7.51369E-01-2.97944E-07-4.51534E-04 1.18298E-06 7.81645E-08
 -1       145 1.04661E+00-9.13277E-01 6.71021E-07 2.14090E-03-4.54868E-07-1.48765E-08
 -1       146 1.08559E+00-9.52288E-01-1.21484E-06-3.31073E-01 2.31732E-06 3.65940E-07
 -1       147 9.33412E-01-8.00110E-01-1.21713E-06-6.29739E-01 2.22820E-06 7.24649E-07
 -1       148 6.96390E-01-5.63088E-01-1.21298E-06-8.66761E-01 2.09341E-06 1.06737E-06
 -1       149 3.97724E-01-2.64422E-01-1.21531E-06-1.01894E+00 1.89932E-06 1.37851E-06
 -1       150 6.66509E-02 6.66510E-02-1.21542E-06-1.07138E+00 1.65956E-06 1.65954E-06
 -1       151-2.64422E-01 3.97724E-01-1.21501E-06-1.01894E+00 1.37936E-06 1.89840E-06
 -1       152-5.63088E-01 6.96390E-01-1.21507E-06-8.66761E-01 1.06530E-06 2.09079E-06
 -1       153-8.00110E-01 9.33412E-01-1.21503E-06-6.29739E-01 7.25109E-07 2.23169E-06
 -1       154-9.52288E-01 1.08559E+00-1.21505E-06-3.31073E-01 3.67081E-07 2.31762E-06
 -1       155 1.11123E+00-9.77931E-01-1.21535E-06-1.65446E-01 2.33509E-06 1.83533E-07
 -1       156 1.00898E+00-8.75680E-01-1.21527E-06-4.80142E-01 2.27662E-06 5.48285E-07
 -1       157 8.14489E-01-6.81188E-01-1.21504E-06-7.47838E-01 2.16451E-06 8.93825E-07
 -1       158 5.46793E-01-4.13491E-01-1.21484E-06-9.42331E-01 1.99598E-06 1.22507E-06
 -1       159 2.32097E-01-9.87946E-02-1.21474E-06-1.04458E+00 1.78042E-06 1.52047E-06
 -1       160-9.87947E-02 2.32097E-01-1.21507E-06-1.04458E+00 1.52078E-06 1.78076E-06
 -1       161-4.13491E-01 5.46793E-01-1.21504E-06-9.42331E-01 1.22355E-06 1.99665E-06
 -1       162-6.81188E-01 8.14489E-01-1.21506E-06-7.47838E-01 8.96172E-07 2.16351E-06
 -1       163-8.75680E-01 1.00898E+00-1.21505E-06-4.80142E-01 5.46673E-07 2.27708E-06
 -1       164-9.77931E-01 1.11123E+00-1.21506E-06-1.65446E-01 1.83731E-07 2.33456E-06
 -1       165-8.22205E-01 9.55537E-01-5.54065E-07 3.36959E-04 5.93923E-08 1.81736E-06
 -1       166-6.80492E-01 8.13827E-01 1.06911E-06-9.84079E-04-7.04314E-09-3.20183E-07
 -1       167-5.70340E-01 7.03666E-01 1.33150E-07-5.36363E-04-5.17162E-08-3.92948E-07
 -1       168-4.82809E-01 6.16137E-01-2.06413E-08-5.40954E-04 2.08207E-08 1.15001E-07
 -1       169-4.12151E-01 5.45478E-01 2.19750E-08-4.51232E-04-9.16334E-09-5.82808E-08
 -1       170-3.54284E-01 4.87612E-01-1.10982E-08-4.01953E-04 2.81068E-09 1.50814E-08
 -1       171-3.06302E-01 4.39629E-01 2.69261E-10-3.54799E-04-1.01650E-09-6.06430E-09
 -1       172-2.66075E-01 3.99403E-01-3.79610E-09-3.16890E-04 2.99931E-10 1.64745E-09
 -1       173-2.32019E-01 3.65347E-01-1.85100E-09-2.84370E-04-8.23666E-11-3.68164E-10
 -1       174-2.02935E-01 3.36263E-01-1.94020E-09-2.56704E-04 4.03949E-11 3.12801E-10
 -1       175-1.77899E-01 3.11226E-01-1.43507E-09-2.32859E-04 3.91830E-12 1.11648E-10
 -1       176-1.56194E-01 2.89521E-01-1.21147E-09-2.12194E-04 1.25347E-11 1.42071E-10
 -1       177-1.37254E-01 2.70582E-01-9.78175E-10-1.94160E-04 7.59932E-12 1.02431E-10
 -1       178-1.20629E-01 2.53957E-01-8.11379E-10-1.78330E-04 6.83966E-12 8.57846E-11
 -1       179-1.05957E-01 2.39285E-01-6.74088E-10-1.64359E-04 5.21509E-12 6.70305E-11
 -1       180-9.29439E-02 2.26272E-01-5.65832E-10-1.51967E-04 4.21492E-12 5.33655E-11
 -1       181-8.13480E-02 2.14676E-01-4.81425E-10-1.40926E-04 2.81450E-12 3.88013E-11
 -1       182-7.09712E-02 2.04299E-01-4.08603E-10-1.31045E-04 2.98601E-12 3.15243E-11
 -1       183-6.16483E-02 1.94976E-01-3.76001E-10-1.22168E-04-2.39635E-12-5.36213E-12
 -1       184-5.32414E-02 1.86569E-01-2.93265E-10-1.14161E-04 8.79217E-12 3.53280E-11
 -1       185-4.56343E-02 1.78962E-01-4.58862E-10-1.06925E-04-3.93871E-11-2.48325E-10
 -1       186-3.87288E-02 1.72057E-01-4.19304E-11-1.00323E-04 9.31317E-11 4.00146E-10
 -1       187-3.24410E-02 1.65769E-01-1.64183E-09-9.44354E-05-3.71635E-10-2.32773E-09
 -1       188-2.66996E-02 1.60028E-01 1.56395E-09-8.85875E-05 9.31422E-10 4.83047E-09
 -1       189-2.14427E-02 1.54771E-01-9.80577E-09-8.50507E-05-3.08345E-09-2.01040E-08
 -1       190-1.66184E-02 1.49946E-01 5.99635E-09-7.47783E-05 6.87149E-09 4.02760E-08
 -1       191-1.21765E-02 1.45505E-01-5.64017E-08-9.25846E-05-1.70788E-08-1.38142E-07
 -1       192-8.09348E-03 1.41419E-01-2.29246E-07-2.89645E-06 3.18424E-09 1.36904E-09
 -1       193-4.23216E-03 1.37562E-01 1.78158E-07-5.92591E-04 2.71471E-08 3.26819E-07
 -1       194-9.13277E-01 1.04661E+00 6.70674E-07 2.14090E-03 1.47583E-08 4.54677E-07
 -1       195-7.51369E-01 8.84687E-01-2.97830E-07-4.51534E-04-7.82600E-08-1.18304E-06
 -1       196-6.25474E-01 7.58803E-01-4.79448E-07-7.42043E-04 8.57875E-08 9.39212E-07
 -1       197-5.26608E-01 6.59935E-01 1.63835E-07-5.43704E-04-3.41851E-08-3.01075E-07
 -1       198-4.47502E-01 5.80830E-01-7.36407E-08-4.94838E-04 1.33927E-08 1.14320E-07
 -1       199-3.83232E-01 5.16560E-01 2.61970E-08-4.26899E-04-4.24704E-09-3.31097E-08
 -1       200-3.30303E-01 4.63631E-01-7.10518E-09-3.78223E-04 1.44128E-09 1.12185E-08
 -1       201-2.86195E-01 4.19523E-01 4.21476E-09-3.35795E-04-4.26862E-10-3.14209E-09
 -1       202-2.49052E-01 3.82380E-01 3.37946E-10-3.00548E-04 1.27391E-10 8.95457E-10
 -1       203-2.17481E-01 3.50809E-01 1.27809E-09-2.70466E-04-4.52735E-11-3.59621E-10
 -1       204-1.90419E-01 3.23747E-01 7.31375E-10-2.44714E-04 4.90491E-12-4.62672E-12
 -1       205-1.67048E-01 3.00376E-01 6.87408E-10-2.22466E-04-8.86212E-12-9.41683E-11
 -1       206-1.46725E-01 2.80053E-01 5.32821E-10-2.03122E-04-3.69321E-12-5.26679E-11
 -1       207-1.28943E-01 2.62271E-01 4.46526E-10-1.86196E-04-3.99904E-12-4.91066E-11
 -1       208-1.13294E-01 2.46622E-01 3.67511E-10-1.71301E-04-2.91059E-12-3.73217E-11
 -1       209-9.94514E-02 2.32779E-01 3.08252E-10-1.58124E-04-2.35786E-12-2.98388E-11
 -1       210-8.71465E-02 2.20475E-01 2.58951E-10-1.46412E-04-1.97342E-12-2.38478E-11
 -1       211-7.61601E-02 2.09488E-01 2.24233E-10-1.35954E-04-1.00058E-12-1.49392E-11
 -1       212-6.63101E-02 1.99638E-01 1.84298E-10-1.26579E-04-2.14848E-12-1.79263E-11
 -1       213-5.74452E-02 1.90773E-01 1.98900E-10-1.18140E-04 4.36298E-12 2.55398E-11
 -1       214-4.94382E-02 1.82766E-01 7.96193E-11-1.10522E-04-1.33822E-11-7.32319E-11
 -1       215-4.21818E-02 1.75510E-01 4.44958E-10-1.03601E-04 5.24657E-11 3.53246E-10
 -1       216-3.55850E-02 1.68913E-01-5.93794E-10-9.73747E-05-1.45608E-10-8.77189E-10
 -1       217-2.95704E-02 1.62898E-01 2.89617E-09-9.14445E-05 5.15099E-10 3.59536E-09
 -1       218-2.40712E-02 1.57399E-01-6.45223E-09-8.70087E-05-1.43922E-09-9.69102E-09
 -1       219-1.90307E-02 1.52359E-01 2.23975E-08-7.90885E-05 4.48448E-09 3.41888E-08
 -1       220-1.43971E-02 1.47725E-01-4.46992E-08-8.69247E-05-1.11975E-08-8.74032E-08
 -1       221-1.01366E-02 1.43464E-01 1.41820E-07-3.46593E-05 2.76835E-08 2.72793E-07
 -1       222-6.17445E-03 1.39504E-01 2.59499E-08-2.21340E-04-2.89768E-08-3.85747E-07
 -1       223-2.32682E-03 1.35653E-01-1.31378E-07-7.55473E-04 5.43124E-09 1.57500E-07
 -1       224 2.83866E-03 1.30491E-01 2.37299E-07-2.07383E-02-7.20196E-08-4.50318E-07
 -1       225 1.23710E-02 1.20958E-01 2.38790E-07-3.94467E-02-1.42385E-07-4.33904E-07
 -1       226 2.72180E-02 1.06111E-01 2.42089E-07-5.42937E-02-2.08431E-07-4.07474E-07
 -1       227 4.59264E-02 8.74030E-02 2.45461E-07-6.38260E-02-2.69024E-07-3.70453E-07
 -1       228 6.66647E-02 6.66647E-02 2.42906E-07-6.71106E-02-3.24846E-07-3.19004E-07
 -1       229 8.74031E-02 4.59264E-02 2.38136E-07-6.38261E-02-3.67483E-07-2.64159E-07
 -1       230 1.06111E-01 2.72180E-02 2.43837E-07-5.42937E-02-4.00229E-07-2.09381E-07
 -1       231 1.20958E-01 1.23710E-02 2.47293E-07-3.94466E-02-4.27231E-07-1.39154E-07
 -1       232 1.30491E-01 2.83864E-03 2.32186E-07-2.07384E-02-4.37961E-07-6.17631E-08
 -1       233 1.08126E-03 1.32248E-01 2.41053E-07-1.03874E-02-3.52068E-08-4.49991E-07
 -1       234 7.50102E-03 1.25828E-01 2.40627E-07-3.01454E-02-1.04794E-07-4.38827E-07
 -1       235 1.97121E-02 1.13617E-01 2.39549E-07-4.69526E-02-1.71663E-07-4.16759E-07
 -1       236 3.65193E-02 9.68101E-02 2.37238E-07-5.91637E-02-2.35386E-07-3.83808E-07
 -1       237 5.62773E-02 7.70521E-02 2.36174E-07-6.55834E-02-2.92542E-07-3.42908E-07
 -1       238 7.70521E-02 5.62773E-02 2.39978E-07-6.55834E-02-3.40942E-07-2.97656E-07
 -1       239 9.68101E-02 3.65193E-02 2.40433E-07-5.91637E-02-3.87809E-07-2.35253E-07
 -1       240 1.13617E-01 1.97121E-02 2.34442E-07-4.69525E-02-4.20365E-07-1.70473E-07
 -1       241 1.25828E-01 7.50103E-03 2.37234E-07-3.01454E-02-4.42672E-07-1.10042E-07
 -1       242 1.32248E-01 1.08127E-03 2.49441E-07-1.03874E-02-4.58449E-07-4.19149E-08
 -1       243 1.37562E-01-4.23216E-03 1.81127E-07-5.92541E-04 3.25334E-07 6.36360E-09
 -1       244 1.41419E-01-8.09347E-03-2.31085E-07-2.90340E-06-7.56921E-10 1.02415E-08
 -1       245 1.45505E-01-1.21765E-02-5.67161E-08-9.25889E-05-1.38198E-07-1.81756E-08
 -1       246 1.49946E-01-1.66184E-02 6.29042E-09-7.47812E-05 4.01607E-08 7.10525E-09
 -1       247 1.54771E-01-2.14427E-02-9.76037E-09-8.50521E-05-2.01061E-08-3.11895E-09
 -1       248 1.60028E-01-2.66995E-02 1.61196E-09-8.85883E-05 4.82718E-09 9.38874E-10
 -1       249 1.65769E-01-3.24410E-02-1.63278E-09-9.44359E-05-2.32566E-09-3.72504E-10
 -1       250 1.72057E-01-3.87288E-02-3.72629E-11-1.00324E-04 4.01613E-10 9.36684E-11
 -1       251 1.78962E-01-4.56343E-02-4.58138E-10-1.06925E-04-2.47029E-10-3.92931E-11
 -1       252 1.86569E-01-5.32414E-02-2.93203E-10-1.14161E-04 3.62575E-11 8.86897E-12
 -1       253 1.94976E-01-6.16483E-02-3.76327E-10-1.22168E-04-4.65560E-12-2.45234E-12
 -1       254 2.04299E-01-7.09712E-02-4.08976E-10-1.31045E-04 3.20111E-11 2.91644E-12
 -1       255 2.14676E-01-8.13480E-02-4.81848E-10-1.40926E-04 3.91535E-11 2.76240E-12
 -1       256 2.26272E-01-9.29439E-02-5.66205E-10-1.51967E-04 5.36216E-11 4.09286E-12
 -1       257 2.39285E-01-1.05957E-01-6.74404E-10-1.64359E-04 6.72040E-11 5.08105E-12
 -1       258 2.53957E-01-1.20629E-01-8.11672E-10-1.78330E-04 8.59274E-11 6.76575E-12
 -1       259 2.70582E-01-1.37254E-01-9.78428E-10-1.94160E-04 1.02526E-10 7.51574E-12
 -1       260 2.89521E-01-1.56194E-01-1.21165E-09-2.12194E-04 1.42131E-10 1.24530E-11
 -1       261 3.11226E-01-1.77899E-01-1.43524E-09-2.32859E-04 1.11761E-10 3.82694E-12
 -1       262 3.36263E-01-2.02935E-01-1.94035E-09-2.56704E-04 3.12831E-10 4.03321E-11
 -1       263 3.65347E-01-2.32019E-01-1.85108E-09-2.84370E-04-3.68213E-10-8.24418E-11
 -1       264 3.99403E-01-2.66075E-01-3.79617E-09-3.16890E-04 1.64742E-09 2.99870E-10
 -1       265 4.39629E-01-3.06302E-01 2.69287E-10-3.54799E-04-6.06442E-09-1.01673E-09
 -1       266 4.87612E-01-3.54284E-01-1.10984E-08-4.01953E-04 1.50813E-08 2.81101E-09
 -1       267 5.45478E-01-4.12151E-01 2.19752E-08-4.51232E-04-5.82819E-08-9.16458E-09
 -1       268 6.16137E-01-4.82809E-01-2.06314E-08-5.40954E-04 1.15000E-07 2.08192E-08
 -1       269 7.03666E-01-5.70340E-01 1.33141E-07-5.36363E-04-3.92961E-07-5.16990E-08
 -1       270 8.13827E-01-6.80492E-01 1.06918E-06-9.84079E-04-3.20225E-07-7.13058E-09
 -1       271 9.55537E-01-8.22205E-01-5.54246E-07 3.36959E-04 1.81720E-06 5.95842E-08
 -1       272 1.35654E-01-2.32684E-03-1.40684E-07-7.55348E-04 1.61843E-07 1.82034E-08
 -1       273 1.39504E-01-6.17444E-03 2.75332E-08-2.21316E-04-3.84591E-07-4.19409E-08
 -1       274 1.43464E-01-1.01366E-02 1.42295E-07-3.46692E-05 2.72387E-07 3.07166E-08
 -1       275 1.47725E-01-1.43971E-02-4.49116E-08-8.69290E-05-8.73472E-08-1.16188E-08
 -1       276 1.52359E-01-1.90307E-02 2.24003E-08-7.90906E-05 3.41817E-08 4.58700E-09
 -1       277 1.57399E-01-2.40712E-02-6.48717E-09-8.70098E-05-9.68425E-09-1.45210E-09
 -1       278 1.62898E-01-2.95704E-02 2.89313E-09-9.14450E-05 3.59772E-09 5.18663E-10
 -1       279 1.68913E-01-3.55850E-02-5.96651E-10-9.73751E-05-8.75221E-10-1.45684E-10
 -1       280 1.75510E-01-4.21818E-02 4.45147E-10-1.03601E-04 3.54485E-10 5.28005E-11
 -1       281 1.82766E-01-4.94381E-02 7.98685E-11-1.10522E-04-7.23423E-11-1.32848E-11
 -1       282 1.90773E-01-5.74452E-02 1.99380E-10-1.18140E-04 2.61780E-11 4.36948E-12
 -1       283 1.99638E-01-6.63101E-02 1.84684E-10-1.26579E-04-1.74829E-11-2.21023E-12
 -1       284 2.09488E-01-7.61601E-02 2.24565E-10-1.35955E-04-1.46195E-11-1.05584E-12
 -1       285 2.20475E-01-8.71465E-02 2.59231E-10-1.46412E-04-2.36264E-11-2.06290E-12
 -1       286 2.32779E-01-9.94514E-02 3.08491E-10-1.58124E-04-2.96783E-11-2.48505E-12
 -1       287 2.46622E-01-1.13294E-01 3.67678E-10-1.71301E-04-3.72060E-11-3.01286E-12
 -1       288 2.62271E-01-1.28943E-01 4.46677E-10-1.86196E-04-4.90183E-11-4.07945E-12
 -1       289 2.80053E-01-1.46725E-01 5.32919E-10-2.03122E-04-5.26073E-11-3.77095E-12
 -1       290 3.00376E-01-1.67048E-01 6.87464E-10-2.22466E-04-9.41055E-11-8.95073E-12
 -1       291 3.23747E-01-1.90419E-01 7.31467E-10-2.44714E-04-4.57281E-12 4.83072E-12
 -1       292 3.50809E-01-2.17481E-01 1.27813E-09-2.70466E-04-3.59617E-10-4.53376E-11
 -1       293 3.82380E-01-2.49052E-01 3.37957E-10-3.00548E-04 8.95466E-10 1.27332E-10
 -1       294 4.19523E-01-2.86195E-01 4.21480E-09-3.35795E-04-3.14207E-09-4.26990E-10
 -1       295 4.63631E-01-3.30303E-01-7.10532E-09-3.78223E-04 1.12186E-08 1.44139E-09
 -1       296 5.16560E-01-3.83232E-01 2.61972E-08-4.26899E-04-3.31096E-08-4.24737E-09
 -1       297 5.80830E-01-4.47502E-01-7.36410E-08-4.94838E-04 1.14320E-07 1.33918E-08
 -1       298 6.59935E-01-5.26608E-01 1.63825E-07-5.43704E-04-3.01074E-07-3.41776E-08
 -1       299 7.58803E-01-6.25474E-01-4.79427E-07-7.42043E-04 9.39219E-07 8.57646E-08
 -1       300 8.84687E-01-7.51369E-01-2.97944E-07-4.51534E-04-1.18298E-06-7.81645E-08
 -1       301 1.04661E+00-9.13277E-01 6.71021E-07 2.14090E-03 4.54868E-07 1.48765E-08
 -1       302 1.08559E+00-9.52288E-01-1.21484E-06-3.31073E-01-2.31732E-06-3.65940E-07
 -1       303 9.33412E-01-8.00110E-01-1.21713E-06-6.29739E-01-2.22820E-06-7.24649E-07
 -1       304 6.96390E-01-5.63088E-01-1.21298E-06-8.66761E-01-2.09341E-06-1.06737E-06
 -1       305 3.97724E-01-2.64422E-01-1.21531E-06-1.01894E+00-1.89932E-06-1.37851E-06
 -1       306 6.66509E-02 6.66510E-02-1.21542E-06-1.07138E+00-1.65956E-06-1.65954E-06
 -1       307-2.64422E-01 3.97724E-01-1.21501E-06-1.01894E+00-1.37936E-06-1.89840E-06
 -1       308-5.63088E-01 6.96390E-01-1.21507E-06-8.66761E-01-1.06530E-06-2.09079E-06
 -1       309-8.00110E-01 9.33412E-01-1.21503E-06-6.29739E-01-7.25109E-07-2.23169E-06
 -1       310-9.52288E-01 1.08559E+00-1.21505E-06-3.31073E-01-3.67081E-07-2.31762E-06
 -1       311 1.11123E+00-9.77931E-01-1.21535E-06-1.65446E-01-2.33509E-06-1.83533E-07
 -1       312 1.00898E+00-8.75680E-01-1.21527E-06-4.80142E-01-2.27662E-06-5.48285E-07
 -1       313 8.14489E-01-6.81188E-01-1.21504E-06-7.47838E-01-2.16451E-06-8.93825E-07
 -1       314 5.46793E-01-4.13491E-01-1.21484E-06-9.42331E-01-1.99598E-06-1.22507E-06
 -1       315 2.32097E-01-9.87946E-02-1.21474E-06-1.04458E+00-1.78042E-06-1.52047E-06
 -1       316-9.87947E-02 2.32097E-01-1.21507E-06-1.04458E+00-1.52078E-06-1.78076E-06
 -1       317-4.13491E-01 5.46793E-01-1.21504E-06-9.42331E-01-1.22355E-06-1.99665E-06
 -1       318-6.81188E-01 8.14489E-01-1.21506E-06-7.47838E-01-8.96172E-07-2.16351E-06
 -1       319-8.75680E-01 1.00898E+00-1.21505E-06-4.80142E-01-5.46673E-07-2.27708E-06
 -1       320-9.77931E-01 1.11123E+00-1.21506E-06-1.65446E-01-1.83731E-07-2.33456E-06
 -1       321-1.00472E+00 1.13803E+00-4.11761E-06 3.71909E-03-3.75966E-08 2.82052E-06
 -1       322-1.00472E+00 1.13803E+00-6.00508E-06 3.71913E-03-1.79320E-08 6.14877E-07
 -1       323-1.00472E+00 1.13803E+00-6.71771E-06 3.71914E-03-2.13597E-09 6.16528E-08
 -1       324-1.00472E+00 1.13803E+00-6.75942E-06 3.71914E-03-9.06698E-11-3.19860E-08
 -1       325-1.00472E+00 1.13803E+00-6.70608E-06 3.71914E-03 2.47707E-10-1.64621E-08
 -1       326-1.00472E+00 1.13803E+00-6.70608E-06 3.71914E-03-2.47655E-10 1.64621E-08
 -1       327-1.00472E+00 1.13803E+00-6.75942E-06 3.71914E-03 9.06700E-11 3.19860E-08
 -1       328-1.00472E+00 1.13803E+00-6.71771E-06 3.71914E-03 2.13597E-09-6.16528E-08
 -1       329-1.00472E+00 1.13803E+00-6.00508E-06 3.71913E-03 1.79320E-08-6.14877E-07
 -1       330-1.00472E+00 1.13803E+00-4.11761E-06 3.71909E-03 3.75966E-08-2.82052E-06
 -1       331-1.00472E+00 1.13803E+00-1.88719E-06 3.71912E-03-4.77564E-09 2.82561E-06
 -1       332-1.00472E+00 1.13803E+00-5.46586E-06 3.71911E-03-2.52126E-08 1.48938E-06
 -1       333-1.00472E+00 1.13803E+00-6.65534E-06 3.71914E-03-1.04590E-08 3.04710E-07
 -1       334-1.00472E+00 1.13803E+00-6.80472E-06 3.71914E-03-1.15141E-09 2.58874E-08
 -1       335-1.00472E+00 1.13803E+00-6.74544E-06 3.71914E-03 6.81716E-11-1.85703E-08
 -1       336-1.00472E+00 1.13803E+00-6.70975E-06 3.71914E-03 3.07499E-14-3.87790E-15
 -1       337-1.00472E+00 1.13803E+00-6.74544E-06 3.71914E-03-6.81530E-11 1.85703E-08
 -1       338-1.00472E+00 1.13803E+00-6.80472E-06 3.71914E-03 1.15141E-09-2.58874E-08
 -1       339-1.00472E+00 1.13803E+00-6.65534E-06 3.71914E-03 1.04590E-08-3.04710E-07
 -1       340-1.00472E+00 1.13803E+00-5.46586E-06 3.71911E-03 2.52126E-08-1.48938E-06
 -1       341-1.00472E+00 1.13803E+00-1.88719E-06 3.71912E-03 4.77563E-09-2.82561E-06
 -1       342-4.47409E-04 1.33775E-01 4.61915E-07-7.44779E-04 1.19388E-08 2.91927E-07
 -1       343-4.47082E-04 1.33775E-01 4.57101E-07-7.44813E-04-3.87975E-09-2.46354E-08
 -1       344-4.47016E-04 1.33775E-01 3.74199E-07-7.44812E-04-1.50804E-09-6.09822E-08
 -1       345-4.47008E-04 1.33775E-01 2.69274E-07-7.44812E-04-8.07276E-10-3.97495E-08
 -1       346-4.47006E-04 1.33775E-01 2.11876E-07-7.44812E-04-2.49309E-10-1.28538E-08
 -1       347-4.47006E-04 1.33775E-01 2.11876E-07-7.44812E-04 2.49294E-10 1.28538E-08
 -1       348-4.47008E-04 1.33775E-01 2.69274E-07-7.44812E-04 8.07267E-10 3.97495E-08
 -1       349-4.47016E-04 1.33775E-01 3.74199E-07-7.44812E-04 1.50805E-09 6.09822E-08
 -1       350-4.47082E-04 1.33775E-01 4.57101E-07-7.44813E-04 3.87970E-09 2.46354E-08
 -1       351-4.47409E-04 1.33775E-01 4.61914E-07-7.44779E-04-1.19389E-08-2.91927E-07
 -1       352-4.46786E-04 1.33775E-01 2.33077E-07-7.44833E-04 3.59802E-08 3.87867E-07
 -1       353-4.47174E-04 1.33775E-01 5.18230E-07-7.44796E-04-5.58791E-09 1.20193E-07
 -1       354-4.47026E-04 1.33775E-01 4.61763E-07-7.44813E-04-2.19401E-09-4.60026E-08
 -1       355-4.47009E-04 1.33775E-01 3.30941E-07-7.44812E-04-8.71052E-10-4.82922E-08
 -1       356-4.47007E-04 1.33775E-01 2.42419E-07-7.44812E-04-5.61493E-10-2.54663E-08
 -1       357-4.47006E-04 1.33775E-01 2.12754E-07-7.44812E-04-3.89135E-15-1.41738E-15
 -1       358-4.47007E-04 1.33775E-01 2.42419E-07-7.44812E-04 5.61477E-10 2.54663E-08
 -1       359-4.47009E-04 1.33775E-01 3.30941E-07-7.44812E-04 8.71054E-10 4.82922E-08
 -1       360-4.47026E-04 1.33775E-01 4.61763E-07-7.44813E-04 2.19397E-09 4.60026E-08
 -1       361-4.47174E-04 1.33775E-01 5.18230E-07-7.44796E-04 5.58787E-09-1.20193E-07
 -1       362-4.46786E-04 1.33775E-01 2.33077E-07-7.44833E-04-3.59802E-08-3.87867E-07
 -1       363 1.33775E-01-4.47372E-04 4.77614E-07-7.45136E-04 2.81601E-07-1.41971E-08
 -1       364 1.33775E-01-4.47060E-04 4.72364E-07-7.45061E-04-2.45394E-08-2.34985E-08
 -1       365 1.33775E-01-4.46992E-04 3.99856E-07-7.45054E-04-5.81300E-08-2.58859E-08
 -1       366 1.33775E-01-4.46983E-04 3.03199E-07-7.45052E-04-3.78504E-08-1.60162E-08
 -1       367 1.33775E-01-4.46981E-04 2.50330E-07-7.45051E-04-1.22037E-08-5.29756E-09
 -1       368 1.33775E-01-4.46981E-04 2.50330E-07-7.45051E-04 1.22037E-08 5.29752E-09
 -1       369 1.33775E-01-4.46983E-04 3.03199E-07-7.45052E-04 3.78504E-08 1.60162E-08
 -1       370 1.33775E-01-4.46992E-04 3.99856E-07-7.45054E-04 5.81300E-08 2.58859E-08
 -1       371 1.33775E-01-4.47060E-04 4.72364E-07-7.45061E-04 2.45394E-08 2.34985E-08
 -1       372 1.33775E-01-4.47372E-04 4.77614E-07-7.45136E-04-2.81601E-07 1.41970E-08
 -1       373 1.33775E-01-4.46780E-04 2.37189E-07-7.44914E-04 3.68876E-07 5.90564E-09
 -1       374 1.33775E-01-4.47147E-04 5.27661E-07-7.45099E-04 1.17022E-07-1.71629E-08
 -1       375 1.33775E-01-4.47004E-04 4.80962E-07-7.45058E-04-4.24880E-08-3.24823E-08
 -1       376 1.33775E-01-4.46985E-04 3.61355E-07-7.45053E-04-4.54725E-08-2.33356E-08
 -1       377 1.33775E-01-4.46981E-04 2.79752E-07-7.45051E-04-2.40314E-08-1.12073E-08
 -1       378 1.33775E-01-4.46980E-04 2.52349E-07-7.45051E-04 1.80710E-16-2.76692E-14
 -1       379 1.33775E-01-4.46981E-04 2.79752E-07-7.45051E-04 2.40314E-08 1.12072E-08
 -1       380 1.33775E-01-4.46985E-04 3.61355E-07-7.45053E-04 4.54725E-08 2.33356E-08
 -1       381 1.33775E-01-4.47004E-04 4.80962E-07-7.45058E-04 4.24880E-08 3.24823E-08
 -1       382 1.33775E-01-4.47147E-04 5.27661E-07-7.45099E-04-1.17022E-07 1.71628E-08
 -1       383 1.33775E-01-4.46780E-04 2.37189E-07-7.44914E-04-3.68876E-07-5.90565E-09
 -1       384 1.13803E+00-1.00472E+00-4.11792E-06 3.71909E-03 2.81995E-06-3.74460E-08
 -1       385 1.13803E+00-1.00472E+00-6.00471E-06 3.71913E-03 6.14907E-07-1.80270E-08
 -1       386 1.13803E+00-1.00472E+00-6.71741E-06 3.71914E-03 6.16728E-08-2.21237E-09
 -1       387 1.13803E+00-1.00472E+00-6.75913E-06 3.71914E-03-3.19820E-08-1.31697E-10
 -1       388 1.13803E+00-1.00472E+00-6.70579E-06 3.71914E-03-1.64611E-08 2.42700E-10
 -1       389 1.13803E+00-1.00472E+00-6.70579E-06 3.71914E-03 1.64611E-08-2.42737E-10
 -1       390 1.13803E+00-1.00472E+00-6.75913E-06 3.71914E-03 3.19819E-08 1.31661E-10
 -1       391 1.13803E+00-1.00472E+00-6.71741E-06 3.71914E-03-6.16728E-08 2.21235E-09
 -1       392 1.13803E+00-1.00472E+00-6.00471E-06 3.71913E-03-6.14907E-07 1.80270E-08
 -1       393 1.13803E+00-1.00472E+00-4.11792E-06 3.71909E-03-2.81995E-06 3.74460E-08
 -1       394 1.13803E+00-1.00472E+00-1.88703E-06 3.71912E-03 2.82465E-06-5.08478E-09
 -1       395 1.13803E+00-1.00472E+00-5.46567E-06 3.71911E-03 1.48931E-06-2.47766E-08
 -1       396 1.13803E+00-1.00472E+00-6.65514E-06 3.71914E-03 3.04737E-07-1.06532E-08
 -1       397 1.13803E+00-1.00472E+00-6.80443E-06 3.71914E-03 2.58858E-08-1.20877E-09
 -1       398 1.13803E+00-1.00472E+00-6.74514E-06 3.71914E-03-1.85684E-08 4.80089E-11
 -1       399 1.13803E+00-1.00472E+00-6.70945E-06 3.71914E-03 6.89636E-15-1.51646E-14
 -1       400 1.13803E+00-1.00472E+00-6.74514E-06 3.71914E-03 1.85684E-08-4.80493E-11
 -1       401 1.13803E+00-1.00472E+00-6.80443E-06 3.71914E-03-2.58859E-08 1.20874E-09
 -1       402 1.13803E+00-1.00472E+00-6.65514E-06 3.71914E-03-3.04737E-07 1.06532E-08
 -1       403 1.13803E+00-1.00472E+00-5.46567E-06 3.71911E-03-1.48931E-06 2.47766E-08
 -1       404 1.13803E+00-1.00472E+00-1.88703E-06 3.71912E-03-2.82465E-06 5.08475E-09
 -1       405-7.78701E-01 9.12032E-01-5.54066E-07-2.74676E-01-2.84298E-07-1.79499E-06
 -1       406-6.52446E-01 7.85778E-01-5.54070E-07-5.22465E-01-5.61594E-07-1.72842E-06
 -1       407-4.55800E-01 5.89131E-01-5.54061E-07-7.19112E-01-8.25059E-07-1.61929E-06
 -1       408-2.08011E-01 3.41342E-01-5.54087E-07-8.45367E-01-1.06822E-06-1.47028E-06
 -1       409 6.66657E-02 6.66657E-02-5.53972E-07-8.88871E-01-1.28509E-06-1.28516E-06
 -1       410 3.41342E-01-2.08011E-01-5.54072E-07-8.45367E-01-1.47026E-06-1.06799E-06
 -1       411 5.89131E-01-4.55800E-01-5.54487E-07-7.19112E-01-1.61960E-06-8.25356E-07
 -1       412 7.85778E-01-6.52446E-01-5.53642E-07-5.22465E-01-1.72797E-06-5.61562E-07
 -1       413 9.12032E-01-7.78701E-01-5.54037E-07-2.74676E-01-1.79515E-06-2.84151E-07
 -1       414-6.43923E-01 7.77259E-01 1.06911E-06-2.30885E-01 5.00871E-08 3.16241E-07
 -1       415-5.37797E-01 6.71132E-01 1.06911E-06-4.39169E-01 9.89404E-08 3.04511E-07
 -1       416-3.72502E-01 5.05837E-01 1.06911E-06-6.04465E-01 1.45359E-07 2.85289E-07
 -1       417-1.64217E-01 2.97553E-01 1.06912E-06-7.10591E-01 1.88200E-07 2.59041E-07
 -1       418 6.66676E-02 6.66676E-02 1.06908E-06-7.47160E-01 2.26395E-07 2.26379E-07
 -1       419 2.97553E-01-1.64217E-01 1.06919E-06-7.10591E-01 2.59123E-07 1.88259E-07
 -1       420 5.05837E-01-3.72502E-01 1.06863E-06-6.04465E-01 2.84821E-07 1.45126E-07
 -1       421 6.71132E-01-5.37797E-01 1.06959E-06-4.39169E-01 3.04997E-07 9.91000E-08
 -1       422 7.77259E-01-6.43923E-01 1.06902E-06-2.30885E-01 3.16116E-07 5.00611E-08
 -1       423-5.39163E-01 6.72489E-01 1.33150E-07-1.96845E-01 6.14708E-08 3.88110E-07
 -1       424-4.48683E-01 5.82010E-01 1.33149E-07-3.74421E-01 1.21428E-07 3.73715E-07
 -1       425-3.07758E-01 4.41084E-01 1.33150E-07-5.15346E-01 1.78395E-07 3.50118E-07
 -1       426-1.30181E-01 2.63508E-01 1.33153E-07-6.05826E-01 2.30970E-07 3.17902E-07
 -1       427 6.66633E-02 6.66633E-02 1.33155E-07-6.37003E-01 2.77848E-07 2.77857E-07
 -1       428 2.63508E-01-1.30181E-01 1.33163E-07-6.05826E-01 3.17914E-07 2.30979E-07
 -1       429 4.41084E-01-3.07758E-01 1.33118E-07-5.15346E-01 3.50116E-07 1.78392E-07
 -1       430 5.82010E-01-4.48683E-01 1.33183E-07-3.74421E-01 3.73724E-07 1.21429E-07
 -1       431 6.72489E-01-5.39163E-01 1.33135E-07-1.96845E-01 3.88096E-07 6.14703E-08
 -1       432-4.55915E-01 5.89244E-01-2.06413E-08-1.69796E-01-1.79902E-08-1.13585E-07
 -1       433-3.77869E-01 5.11197E-01-2.06416E-08-3.22972E-01-3.55375E-08-1.09373E-07
 -1       434-2.56308E-01 3.89636E-01-2.06417E-08-4.44533E-01-5.22093E-08-1.02466E-07
 -1       435-1.03132E-01 2.36461E-01-2.06429E-08-5.22580E-01-6.75957E-08-9.30382E-08
 -1       436 6.66642E-02 6.66642E-02-2.06465E-08-5.49473E-01-8.13171E-08-8.13201E-08
 -1       437 2.36461E-01-1.03132E-01-2.06322E-08-5.22580E-01-9.30357E-08-6.75960E-08
 -1       438 3.89636E-01-2.56308E-01-2.06650E-08-4.44533E-01-1.02490E-07-5.22198E-08
 -1       439 5.11197E-01-3.77869E-01-2.06177E-08-3.22972E-01-1.09350E-07-3.55282E-08
 -1       440 5.89244E-01-4.55915E-01-2.06498E-08-1.69796E-01-1.13588E-07-1.79914E-08
 -1       441-3.88716E-01 5.22044E-01 2.19750E-08-1.47962E-01 9.11714E-09 5.75633E-08
 -1       442-3.20705E-01 4.54033E-01 2.19751E-08-2.81440E-01 1.80098E-08 5.54283E-08
 -1       443-2.14776E-01 3.48104E-01 2.19754E-08-3.87369E-01 2.64588E-08 5.19286E-08
 -1       444-8.12979E-02 2.14626E-01 2.19756E-08-4.55380E-01 3.42565E-08 4.71505E-08
 -1       445 6.66639E-02 6.66639E-02 2.19749E-08-4.78815E-01 4.12100E-08 4.12110E-08
 -1       446 2.14626E-01-8.12979E-02 2.19753E-08-4.55380E-01 4.71519E-08 3.42577E-08
 -1       447 3.48104E-01-2.14776E-01 2.19715E-08-3.87369E-01 5.19255E-08 2.64571E-08
 -1       448 4.54033E-01-3.20705E-01 2.19781E-08-2.81440E-01 5.54321E-08 1.80107E-08
 -1       449 5.22044E-01-3.88716E-01 2.19741E-08-1.47962E-01 5.75613E-08 9.11639E-09
 -1       450-3.33681E-01 4.67009E-01-1.10983E-08-1.30080E-01-2.35926E-09-1.48958E-08
 -1       451-2.73890E-01 4.07218E-01-1.10983E-08-2.47427E-01-4.66041E-09-1.43433E-08
 -1       452-1.80763E-01 3.14091E-01-1.10983E-08-3.40554E-01-6.84677E-09-1.34377E-08
 -1       453-6.34160E-02 1.96744E-01-1.10984E-08-4.00345E-01-8.86458E-09-1.22012E-08
 -1       454 6.66640E-02 6.66640E-02-1.10982E-08-4.20948E-01-1.06642E-08-1.06644E-08
 -1       455 1.96744E-01-6.34160E-02-1.10974E-08-4.00345E-01-1.22009E-08-8.86446E-09
 -1       456 3.14091E-01-1.80763E-01-1.11015E-08-3.40554E-01-1.34399E-08-6.84793E-09
 -1       457 4.07218E-01-2.73890E-01-1.10948E-08-2.47427E-01-1.43410E-08-4.65956E-09
 -1       458 4.67009E-01-3.33681E-01-1.10990E-08-1.30080E-01-1.48962E-08-2.35924E-09
 -1       459-2.88047E-01 4.21375E-01 2.69261E-10-1.15253E-01 9.48667E-10 5.98968E-09
 -1       460-2.35071E-01 3.68399E-01 2.69263E-10-2.19224E-01 1.87396E-09 5.76754E-09
 -1       461-1.52560E-01 2.85888E-01 2.69298E-10-3.01735E-01 2.75313E-09 5.40337E-09
 -1       462-4.85887E-02 1.81917E-01 2.69219E-10-3.54711E-01 3.56450E-09 4.90617E-09
 -1       463 6.66640E-02 6.66640E-02 2.69222E-10-3.72966E-01 4.28807E-09 4.28814E-09
 -1       464 1.81917E-01-4.85887E-02 2.69453E-10-3.54711E-01 4.90640E-09 3.56464E-09
 -1       465 2.85888E-01-1.52560E-01 2.68616E-10-3.01735E-01 5.40266E-09 2.75278E-09
 -1       466 3.68399E-01-2.35071E-01 2.69844E-10-2.19224E-01 5.76829E-09 1.87418E-09
 -1       467 4.21375E-01-2.88047E-01 2.69101E-10-1.15253E-01 5.98939E-09 9.48594E-10
 -1       468-2.49790E-01 3.83118E-01-3.79608E-09-1.02822E-01-2.57716E-10-1.62717E-09
 -1       469-2.02528E-01 3.35855E-01-3.79611E-09-1.95579E-01-5.09090E-10-1.56680E-09
 -1       470-1.28915E-01 2.62243E-01-3.79606E-09-2.69192E-01-7.47935E-10-1.46792E-09
 -1       471-3.61580E-02 1.69486E-01-3.79607E-09-3.16454E-01-9.68346E-10-1.33282E-09
 -1       472 6.66640E-02 6.66640E-02-3.79606E-09-3.32739E-01-1.16493E-09-1.16493E-09
 -1       473 1.69486E-01-3.61580E-02-3.79602E-09-3.16454E-01-1.33278E-09-9.68308E-10
 -1       474 2.62243E-01-1.28915E-01-3.79654E-09-2.69192E-01-1.46823E-09-7.48104E-10
 -1       475 3.35855E-01-2.02528E-01-3.79555E-09-1.95579E-01-1.56646E-09-5.08985E-10
 -1       476 3.83118E-01-2.49790E-01-3.79618E-09-1.02822E-01-1.62724E-09-2.57745E-10
 -1       477-2.17401E-01 3.50729E-01-1.85099E-09-9.22982E-02 5.75938E-11 3.63670E-10
 -1       478-1.74976E-01 3.08304E-01-1.85100E-09-1.75562E-01 1.13778E-10 3.50176E-10
 -1       479-1.08898E-01 2.42226E-01-1.85103E-09-2.41640E-01 1.67167E-10 3.28092E-10
 -1       480-2.56343E-02 1.58962E-01-1.85100E-09-2.84065E-01 2.16454E-10 2.97905E-10
 -1       481 6.66640E-02 6.66640E-02-1.85098E-09-2.98683E-01 2.60360E-10 2.60386E-10
 -1       482 1.58962E-01-2.56343E-02-1.85100E-09-2.84065E-01 2.97936E-10 2.16449E-10
 -1       483 2.42226E-01-1.08898E-01-1.85116E-09-2.41640E-01 3.27958E-10 1.67085E-10
 -1       484 3.08304E-01-1.74976E-01-1.85080E-09-1.75562E-01 3.50358E-10 1.13806E-10
 -1       485 3.50729E-01-2.17401E-01-1.85103E-09-9.22982E-02 3.63618E-10 5.75860E-11
 -1       486-1.89739E-01 3.23067E-01-1.94021E-09-8.33105E-02-4.89400E-11-3.08967E-10
 -1       487-1.51446E-01 2.84774E-01-1.94024E-09-1.58466E-01-9.66531E-11-2.97477E-10
 -1       488-9.18021E-02 2.25130E-01-1.94021E-09-2.18110E-01-1.42018E-10-2.78705E-10
 -1       489-1.66465E-02 1.49975E-01-1.94019E-09-2.56403E-01-1.83864E-10-2.53073E-10
 -1       490 6.66640E-02 6.66640E-02-1.94017E-09-2.69599E-01-2.21197E-10-2.21191E-10
 -1       491 1.49975E-01-1.66465E-02-1.94027E-09-2.56403E-01-2.53061E-10-1.83863E-10
 -1       492 2.25130E-01-9.18021E-02-1.94031E-09-2.18110E-01-2.78760E-10-1.42055E-10
 -1       493 2.84774E-01-1.51446E-01-1.94003E-09-1.58466E-01-2.97419E-10-9.66382E-11
 -1       494 3.23067E-01-1.89739E-01-1.94023E-09-8.33105E-02-3.08970E-10-4.89470E-11
 -1       495-1.65929E-01 2.99257E-01-1.43507E-09-7.55740E-02-1.74768E-11-1.10342E-10
 -1       496-1.31191E-01 2.64519E-01-1.43508E-09-1.43750E-01-3.45251E-11-1.06232E-10
 -1       497-7.70862E-02 2.10414E-01-1.43510E-09-1.97855E-01-5.07097E-11-9.95297E-11
 -1       498-8.90999E-03 1.42238E-01-1.43506E-09-2.32593E-01-6.56530E-11-9.03524E-11
 -1       499 6.66640E-02 6.66640E-02-1.43504E-09-2.44563E-01-7.89693E-11-7.89879E-11
 -1       500 1.42238E-01-8.90999E-03-1.43514E-09-2.32593E-01-9.04139E-11-6.56519E-11
 -1       501 2.10414E-01-7.70863E-02-1.43515E-09-1.97855E-01-9.95216E-11-5.07366E-11
 -1       502 2.64519E-01-1.31191E-01-1.43491E-09-1.43750E-01-1.06151E-10-3.45179E-11
 -1       503 2.99257E-01-1.65929E-01-1.43507E-09-7.55740E-02-1.10361E-10-1.74935E-11
 -1       504-1.45286E-01 2.78614E-01-1.21145E-09-6.88668E-02-2.22331E-11-1.40310E-10
 -1       505-1.13632E-01 2.46959E-01-1.21145E-09-1.30992E-01-4.39117E-11-1.35133E-10
 -1       506-6.43284E-02 1.97656E-01-1.21149E-09-1.80295E-01-6.45113E-11-1.26580E-10
 -1       507-2.20277E-03 1.35531E-01-1.21142E-09-2.11950E-01-8.34925E-11-1.14935E-10
 -1       508 6.66640E-02 6.66640E-02-1.21138E-09-2.22857E-01-1.00477E-10-1.00460E-10
 -1       509 1.35531E-01-2.20277E-03-1.21153E-09-2.11950E-01-1.14964E-10-8.35263E-11
 -1       510 1.97656E-01-6.43284E-02-1.21153E-09-1.80295E-01-1.26600E-10-6.45275E-11
 -1       511 2.46959E-01-1.13632E-01-1.21128E-09-1.30992E-01-1.35057E-10-4.39062E-11
 -1       512 2.78614E-01-1.45286E-01-1.21143E-09-6.88668E-02-1.40349E-10-2.22416E-11
 -1       513-1.27273E-01 2.60601E-01-9.78180E-10-6.30141E-02-1.60272E-11-1.01183E-10
 -1       514-9.83091E-02 2.31637E-01-9.78182E-10-1.19860E-01-3.16727E-11-9.74185E-11
 -1       515-5.31960E-02 1.86524E-01-9.78253E-10-1.64973E-01-4.65141E-11-9.12953E-11
 -1       516 3.64988E-03 1.29678E-01-9.78160E-10-1.93937E-01-6.01932E-11-8.28767E-11
 -1       517 6.66640E-02 6.66640E-02-9.78076E-10-2.03918E-01-7.24367E-11-7.24325E-11
 -1       518 1.29678E-01 3.64988E-03-9.78312E-10-1.93937E-01-8.29054E-11-6.02437E-11
 -1       519 1.86524E-01-5.31960E-02-9.78287E-10-1.64973E-01-9.13016E-11-4.65133E-11
 -1       520 2.31637E-01-9.83091E-02-9.77988E-10-1.19860E-01-9.73375E-11-3.16633E-11
 -1       521 2.60601E-01-1.27273E-01-9.78174E-10-6.30141E-02-1.01204E-10-1.60491E-11
 -1       522-1.11463E-01 2.44791E-01-8.11370E-10-5.78768E-02-1.34286E-11-8.47085E-11
 -1       523-8.48595E-02 2.18187E-01-8.11363E-10-1.10088E-01-2.65252E-11-8.16228E-11
 -1       524-4.34243E-02 1.76752E-01-8.11469E-10-1.51524E-01-3.89608E-11-7.63791E-11
 -1       525 8.78716E-03 1.24541E-01-8.11341E-10-1.78127E-01-5.04034E-11-6.93774E-11
 -1       526 6.66640E-02 6.66640E-02-8.11238E-10-1.87293E-01-6.06377E-11-6.06302E-11
 -1       527 1.24541E-01 8.78716E-03-8.11520E-10-1.78127E-01-6.94748E-11-5.04479E-11
 -1       528 1.76752E-01-4.34243E-02-8.11486E-10-1.51524E-01-7.64276E-11-3.89634E-11
 -1       529 2.18187E-01-8.48595E-02-8.11160E-10-1.10088E-01-8.15030E-11-2.65151E-11
 -1       530 2.44791E-01-1.11463E-01-8.11335E-10-5.78768E-02-8.46966E-11-1.34426E-11
 -1       531-9.75087E-02 2.30837E-01-6.74057E-10-5.33429E-02-1.04889E-11-6.62121E-11
 -1       532-7.29896E-02 2.06318E-01-6.74026E-10-1.01464E-01-2.07508E-11-6.37368E-11
 -1       533-3.48003E-02 1.68128E-01-6.74155E-10-1.39654E-01-3.04376E-11-5.97671E-11
 -1       534 1.33211E-02 1.20007E-01-6.74075E-10-1.64173E-01-3.93246E-11-5.42290E-11
 -1       535 6.66640E-02 6.66640E-02-6.73885E-10-1.72621E-01-4.73959E-11-4.73673E-11
 -1       536 1.20007E-01 1.33211E-02-6.74211E-10-1.64173E-01-5.43397E-11-3.94333E-11
 -1       537 1.68128E-01-3.48003E-02-6.74215E-10-1.39654E-01-5.97499E-11-3.04566E-11
 -1       538 2.06318E-01-7.29896E-02-6.73784E-10-1.01464E-01-6.35732E-11-2.07155E-11
 -1       539 2.30837E-01-9.75087E-02-6.74017E-10-5.33429E-02-6.62383E-11-1.05157E-11
 -1       540-8.51321E-02 2.18460E-01-5.65810E-10-4.93215E-02-8.34882E-12-5.27218E-11
 -1       541-6.24615E-02 1.95789E-01-5.65746E-10-9.38151E-02-1.65225E-11-5.07556E-11
 -1       542-2.71512E-02 1.60479E-01-5.65925E-10-1.29125E-01-2.42689E-11-4.75723E-11
 -1       543 1.73425E-02 1.15986E-01-5.65809E-10-1.51796E-01-3.13263E-11-4.31529E-11
 -1       544 6.66640E-02 6.66640E-02-5.65569E-10-1.59608E-01-3.77001E-11-3.76814E-11
 -1       545 1.15986E-01 1.73424E-02-5.65999E-10-1.51796E-01-4.32931E-11-3.14138E-11
 -1       546 1.60479E-01-2.71512E-02-5.65989E-10-1.29125E-01-4.75783E-11-2.42633E-11
 -1       547 1.95789E-01-6.24615E-02-5.65500E-10-9.38151E-02-5.05209E-11-1.64911E-11
 -1       548 2.18460E-01-8.51321E-02-5.65755E-10-4.93215E-02-5.26738E-11-8.38076E-12
 -1       549-7.41038E-02 2.07432E-01-4.81374E-10-4.57382E-02-6.06740E-12-3.83136E-11
 -1       550-5.30802E-02 1.86408E-01-4.81305E-10-8.69993E-02-1.20256E-11-3.69117E-11
 -1       551-2.03353E-02 1.53663E-01-4.81526E-10-1.19744E-01-1.76683E-11-3.46164E-11
 -1       552 2.09258E-02 1.12402E-01-4.81409E-10-1.40768E-01-2.27126E-11-3.13736E-11
 -1       553 6.66640E-02 6.66640E-02-4.81080E-10-1.48012E-01-2.73585E-11-2.73803E-11
 -1       554 1.12402E-01 2.09258E-02-4.81607E-10-1.40768E-01-3.16026E-11-2.28559E-11
 -1       555 1.53663E-01-2.03353E-02-4.81586E-10-1.19744E-01-3.46190E-11-1.76628E-11
 -1       556 1.86408E-01-5.30802E-02-4.81071E-10-8.69993E-02-3.65933E-11-1.19770E-11
 -1       557 2.07432E-01-7.41038E-02-4.81300E-10-4.57382E-02-3.83195E-11-6.09861E-12
 -1       558-6.42348E-02 1.97563E-01-4.08550E-10-4.25316E-02-4.92900E-12-3.11433E-11
 -1       559-4.46852E-02 1.78013E-01-4.08461E-10-8.08999E-02-9.78317E-12-2.99567E-11
 -1       560-1.42359E-02 1.47564E-01-4.08700E-10-1.11349E-01-1.44045E-11-2.81504E-11
 -1       561 2.41324E-02 1.09196E-01-4.08586E-10-1.30899E-01-1.83973E-11-2.54845E-11
 -1       562 6.66640E-02 6.66640E-02-4.08241E-10-1.37635E-01-2.21989E-11-2.21879E-11
 -1       563 1.09196E-01 2.41324E-02-4.08758E-10-1.30899E-01-2.58034E-11-1.85973E-11
 -1       564 1.47564E-01-1.42359E-02-4.08779E-10-1.11349E-01-2.81801E-11-1.43949E-11
 -1       565 1.78013E-01-4.46852E-02-4.08220E-10-8.08999E-02-2.95443E-11-9.71540E-12
 -1       566 1.97563E-01-6.42348E-02-4.08468E-10-4.25316E-02-3.11001E-11-4.95691E-12
 -1       567-5.53683E-02 1.88696E-01-3.75926E-10-3.96507E-02 8.55321E-13 5.32286E-12
 -1       568-3.71429E-02 1.70471E-01-3.75874E-10-7.54201E-02 1.61286E-12 5.14383E-12
 -1       569-8.75610E-03 1.42084E-01-3.76074E-10-1.03807E-01 2.32683E-12 4.70120E-12
 -1       570 2.70133E-02 1.06315E-01-3.75967E-10-1.22032E-01 3.31851E-12 4.35460E-12
 -1       571 6.66640E-02 6.66640E-02-3.75674E-10-1.28312E-01 3.97947E-12 3.97158E-12
 -1       572 1.06315E-01 2.70133E-02-3.76129E-10-1.22032E-01 3.95708E-12 3.05528E-12
 -1       573 1.42084E-01-8.75610E-03-3.76145E-10-1.03807E-01 4.62558E-12 2.33697E-12
 -1       574 1.70471E-01-3.71429E-02-3.75671E-10-7.54201E-02 5.70558E-12 1.69667E-12
 -1       575 1.88696E-01-5.53683E-02-3.75833E-10-3.96507E-02 5.37169E-12 8.21816E-13
 -1       576-4.73728E-02 1.80701E-01-2.93196E-10-3.70528E-02-5.50476E-12-3.48321E-11
 -1       577-3.03415E-02 1.63670E-01-2.93314E-10-7.04786E-02-1.09526E-11-3.35685E-11
 -1       578-3.81465E-03 1.37143E-01-2.93253E-10-9.70055E-02-1.62139E-11-3.15732E-11
 -1       579 2.96112E-02 1.03717E-01-2.93172E-10-1.14037E-01-2.05221E-11-2.85829E-11
 -1       580 6.66640E-02 6.66640E-02-2.93278E-10-1.19905E-01-2.47150E-11-2.47320E-11
 -1       581 1.03717E-01 2.96112E-02-2.93233E-10-1.14037E-01-2.91276E-11-2.08823E-11
 -1       582 1.37143E-01-3.81465E-03-2.93245E-10-9.70055E-02-3.16358E-11-1.61818E-11
 -1       583 1.63670E-01-3.03415E-02-2.93276E-10-7.04786E-02-3.28177E-11-1.08746E-11
 -1       584 1.80701E-01-4.73728E-02-2.93246E-10-3.70528E-02-3.47545E-11-5.51566E-12
 -1       585-4.01381E-02 1.73466E-01-4.58917E-10-3.47021E-02 3.88791E-11 2.45338E-10
 -1       586-2.41873E-02 1.57515E-01-4.59351E-10-6.60073E-02 7.67124E-11 2.36222E-10
 -1       587 6.56683E-04 1.32671E-01-4.58602E-10-9.08513E-02 1.12467E-10 2.21169E-10
 -1       588 3.19619E-02 1.01366E-01-4.58708E-10-1.06802E-01 1.46276E-10 2.00868E-10
 -1       589 6.66640E-02 6.66640E-02-4.59710E-10-1.12298E-01 1.75976E-10 1.75952E-10
 -1       590 1.01366E-01 3.19619E-02-4.58610E-10-1.06802E-01 2.00126E-10 1.45774E-10
 -1       591 1.32671E-01 6.56681E-04-4.58384E-10-9.08513E-02 2.21059E-10 1.12574E-10
 -1       592 1.57515E-01-2.41873E-02-4.59731E-10-6.60073E-02 2.37138E-10 7.67935E-11
 -1       593 1.73466E-01-4.01381E-02-4.59193E-10-3.47021E-02 2.45468E-10 3.88683E-11
 -1       594-3.35705E-02 1.66898E-01-4.24337E-11-3.25681E-02-6.25529E-11-3.95207E-10
 -1       595-1.86005E-02 1.51929E-01-4.34768E-11-6.19483E-02-1.23688E-10-3.80633E-10
 -1       596 4.71569E-03 1.28612E-01-4.08613E-11-8.52645E-02-1.82065E-10-3.56531E-10
 -1       597 3.40958E-02 9.92321E-02-4.19059E-11-1.00234E-01-2.34728E-10-3.23944E-10
 -1       598 6.66640E-02 6.66640E-02-4.56681E-11-1.05393E-01-2.82562E-10-2.82518E-10
 -1       599 9.92321E-02 3.40958E-02-3.98014E-11-1.00234E-01-3.24731E-10-2.35348E-10
 -1       600 1.28612E-01 4.71568E-03-4.00327E-11-8.52645E-02-3.56598E-10-1.81901E-10
 -1       601 1.51929E-01-1.86005E-02-4.59488E-11-6.19483E-02-3.79594E-10-1.23756E-10
 -1       602 1.66898E-01-3.35705E-02-4.33867E-11-3.25682E-02-3.94953E-10-6.23888E-11
 -1       603-2.75904E-02 1.60918E-01-1.64346E-09-3.06251E-02 3.64224E-10 2.29894E-09
 -1       604-1.35136E-02 1.46842E-01-1.64477E-09-5.82524E-02 7.19247E-10 2.21346E-09
 -1       605 8.41155E-03 1.24916E-01-1.63893E-09-8.01776E-02 1.05612E-09 2.07429E-09
 -1       606 3.60389E-02 9.72891E-02-1.64364E-09-9.42544E-02 1.36875E-09 1.88267E-09
 -1       607 6.66640E-02 6.66640E-02-1.65045E-09-9.91050E-02 1.64616E-09 1.64604E-09
 -1       608 9.72891E-02 3.60389E-02-1.63783E-09-9.42544E-02 1.88164E-09 1.36801E-09
 -1       609 1.24916E-01 8.41154E-03-1.63768E-09-8.01776E-02 2.07397E-09 1.05674E-09
 -1       610 1.46842E-01-1.35136E-02-1.65346E-09-5.82524E-02 2.21418E-09 7.18915E-10
 -1       611 1.60918E-01-2.75904E-02-1.64607E-09-3.06251E-02 2.29893E-09 3.64173E-10
 -1       612-2.21300E-02 1.55458E-01 1.56132E-09-2.88509E-02-7.55520E-10-4.77147E-09
 -1       613-8.86870E-03 1.42197E-01 1.56203E-09-5.48777E-02-1.49298E-09-4.59466E-09
 -1       614 1.17863E-02 1.21542E-01 1.57475E-09-7.55327E-02-2.19343E-09-4.30231E-09
 -1       615 3.78131E-02 9.55149E-02 1.56082E-09-8.87940E-02-2.83786E-09-3.90977E-09
 -1       616 6.66640E-02 6.66640E-02 1.54520E-09-9.33635E-02-3.41685E-09-3.41560E-09
 -1       617 9.55149E-02 3.78131E-02 1.59174E-09-8.87940E-02-3.90791E-09-2.83685E-09
 -1       618 1.21542E-01 1.17863E-02 1.58078E-09-7.55327E-02-4.30051E-09-2.19409E-09
 -1       619 1.42197E-01-8.86871E-03 1.53366E-09-5.48777E-02-4.59619E-09-1.49500E-09
 -1       620 1.55458E-01-2.21300E-02 1.56022E-09-2.88509E-02-4.77060E-09-7.52396E-10
 -1       621-1.71304E-02 1.50458E-01-9.80918E-09-2.72265E-02 3.14561E-09 1.98549E-08
 -1       622-4.61581E-03 1.37944E-01-9.80271E-09-5.17878E-02 6.21262E-09 1.91183E-08
 -1       623 1.48762E-02 1.18452E-01-9.79187E-09-7.12798E-02 9.12720E-09 1.79164E-08
 -1       624 3.94375E-02 9.38905E-02-9.82956E-09-8.37944E-02 1.18162E-08 1.62593E-08
 -1       625 6.66640E-02 6.66640E-02-9.83440E-09-8.81067E-02 1.42106E-08 1.42090E-08
 -1       626 9.38905E-02 3.94375E-02-9.77947E-09-8.37944E-02 1.62643E-08 1.18193E-08
 -1       627 1.18452E-01 1.48762E-02-9.79793E-09-7.12798E-02 1.79136E-08 9.12864E-09
 -1       628 1.37944E-01-4.61581E-03-9.88273E-09-5.17878E-02 1.91038E-08 6.20597E-09
 -1       629 1.50458E-01-1.71304E-02-9.82846E-09-2.72265E-02 1.98482E-08 3.14284E-09
 -1       630-1.25423E-02 1.45870E-01 5.99888E-09-2.57357E-02-6.30332E-09-3.97820E-08
 -1       631-7.12888E-04 1.34041E-01 6.01244E-09-4.89521E-02-1.24528E-08-3.82987E-08
 -1       632 1.77118E-02 1.15616E-01 6.01500E-09-6.73768E-02-1.82820E-08-3.58663E-08
 -1       633 4.09283E-02 9.23996E-02 5.95004E-09-7.92062E-02-2.36740E-08-3.26036E-08
 -1       634 6.66639E-02 6.66639E-02 5.93506E-09-8.32823E-02-2.85111E-08-2.84724E-08
 -1       635 9.23996E-02 4.09283E-02 6.14631E-09-7.92062E-02-3.25460E-08-2.36205E-08
 -1       636 1.15616E-01 1.77118E-02 6.05052E-09-6.73768E-02-3.58322E-08-1.83046E-08
 -1       637 1.34041E-01-7.12894E-04 5.87699E-09-4.89521E-02-3.83553E-08-1.24720E-08
 -1       638 1.45870E-01-1.25423E-02 6.03366E-09-2.57357E-02-3.97696E-08-6.23900E-09
 -1       639-8.31776E-03 1.41646E-01-5.63775E-08-2.43631E-02 2.16228E-08 1.36439E-07
 -1       640 2.88075E-03 1.30448E-01-5.63260E-08-4.63414E-02 4.27180E-08 1.31395E-07
 -1       641 2.03228E-02 1.13006E-01-5.63364E-08-6.37835E-02 6.27621E-08 1.23112E-07
 -1       642 4.23011E-02 9.10274E-02-5.62802E-08-7.49820E-02 8.11904E-08 1.11707E-07
 -1       643 6.66643E-02 6.66642E-02-5.61428E-08-7.88408E-02 9.76876E-08 9.75934E-08
 -1       644 9.10274E-02 4.23011E-02-5.63721E-08-7.49820E-02 1.11862E-07 8.12089E-08
 -1       645 1.13006E-01 2.03228E-02-5.63129E-08-6.37835E-02 1.23076E-07 6.27280E-08
 -1       646 1.30448E-01 2.88074E-03-5.62162E-08-4.63414E-02 1.31146E-07 4.25962E-08
 -1       647 1.41646E-01-8.31776E-03-5.63992E-08-2.43631E-02 1.36323E-07 2.15161E-08
 -1       648-4.43465E-03 1.37760E-01-2.29215E-07-2.31009E-02-2.60057E-10-1.32148E-09
 -1       649 6.18368E-03 1.27142E-01-2.29216E-07-4.39406E-02-5.03309E-10-1.15938E-09
 -1       650 2.27221E-02 1.10603E-01-2.29156E-07-6.04790E-02-5.84538E-10-1.07881E-09
 -1       651 4.35618E-02 8.97636E-02-2.28808E-07-7.10973E-02-9.16773E-10-1.34887E-09
 -1       652 6.66627E-02 6.66627E-02-2.29035E-07-7.47562E-02-1.55971E-09-5.59272E-10
 -1       653 8.97636E-02 4.35618E-02-2.29728E-07-7.10973E-02-5.16500E-10 2.47503E-10
 -1       654 1.10603E-01 2.27221E-02-2.29589E-07-6.04790E-02-7.12216E-10-1.01523E-09
 -1       655 1.27142E-01 6.18367E-03-2.29062E-07-4.39406E-02-2.34526E-09-6.17746E-10
 -1       656 1.37760E-01-4.43466E-03-2.30137E-07-2.31009E-02-1.22333E-09 1.13782E-09
 -1       657-7.62212E-04 1.34092E-01 1.78013E-07-2.19084E-02-5.10653E-08-3.22802E-07
 -1       658 9.30798E-03 1.24022E-01 1.77582E-07-4.16723E-02-1.00765E-07-3.10898E-07
 -1       659 2.49927E-02 1.08337E-01 1.77161E-07-5.73570E-02-1.47994E-07-2.91888E-07
 -1       660 4.47565E-02 8.85734E-02 1.77357E-07-6.74271E-02-1.92122E-07-2.66021E-07
 -1       661 6.66649E-02 6.66649E-02 1.77496E-07-7.08971E-02-2.31020E-07-2.32220E-07
 -1       662 8.85734E-02 4.47565E-02 1.77470E-07-6.74272E-02-2.63530E-07-1.93151E-07
 -1       663 1.08337E-01 2.49927E-02 1.78390E-07-5.73570E-02-2.91690E-07-1.50986E-07
 -1       664 1.24022E-01 9.30797E-03 1.80297E-07-4.16723E-02-3.13812E-07-1.03379E-07
 -1       665 1.34092E-01-7.62220E-04 1.81098E-07-2.19084E-02-3.23728E-07-5.12840E-08
 -1       666-8.00401E-01 9.33733E-01-5.54064E-07-1.37330E-01-1.42514E-07-1.81082E-06
 -1       667-8.65315E-01 9.98648E-01 6.70676E-07-3.02819E-01-7.11234E-08-4.49075E-07
 -1       669-7.15527E-01 8.48858E-01-5.54064E-07-3.98547E-01-4.24035E-07-1.76623E-06
 -1       670-7.26124E-01 8.59457E-01 6.70676E-07-5.75996E-01-1.40502E-07-4.32413E-07
 -1       672-5.54086E-01 6.87417E-01-5.54063E-07-6.20751E-01-6.95115E-07-1.67815E-06
 -1       673-5.09330E-01 6.42662E-01 6.70673E-07-7.92791E-01-2.06408E-07-4.05100E-07
 -1       675-3.31881E-01 4.65213E-01-5.54067E-07-7.82192E-01-9.49077E-07-1.54874E-06
 -1       676-2.36153E-01 3.69485E-01 6.70687E-07-9.31981E-01-2.67187E-07-3.67808E-07
 -1       678-7.06642E-02 2.03996E-01-5.54052E-07-8.67067E-01-1.17967E-06-1.38124E-06
 -1       679 6.66663E-02 6.66663E-02 6.70495E-07-9.79943E-01-3.21403E-07-3.21480E-07
 -1       681 2.03996E-01-7.06642E-02-5.54150E-07-8.67067E-01-1.38119E-06-1.17954E-06
 -1       682 3.69485E-01-2.36153E-01 6.70748E-07-9.31981E-01-3.67131E-07-2.67241E-07
 -1       684 4.65213E-01-3.31881E-01-5.54060E-07-7.82192E-01-1.54885E-06-9.49580E-07
 -1       685 6.42662E-01-5.09330E-01 6.70126E-07-7.92791E-01-4.05010E-07-2.06157E-07
 -1       687 6.87417E-01-5.54086E-01-5.54067E-07-6.20751E-01-1.67836E-06-6.94615E-07
 -1       688 8.59457E-01-7.26124E-01 6.71208E-07-5.75996E-01-4.32723E-07-1.40409E-07
 -1       690 8.48858E-01-7.15527E-01-5.54068E-07-3.98547E-01-1.76582E-06-4.24333E-07
 -1       691 9.98648E-01-8.65315E-01 6.70568E-07-3.02819E-01-4.49673E-07-7.15988E-08
 -1       693 9.33733E-01-8.00401E-01-5.53994E-07-1.37330E-01-1.81091E-06-1.42418E-07
 -1       695-6.62360E-01 7.95695E-01 1.06911E-06-1.15467E-01 2.50872E-08 3.18761E-07
 -1       696-7.11331E-01 8.44650E-01-2.97831E-07-2.52784E-01 1.85069E-07 1.16848E-06
 -1       698-5.90997E-01 7.24333E-01 1.06911E-06-3.35097E-01 7.46438E-08 3.10911E-07
 -1       699-5.95139E-01 7.28458E-01-2.97830E-07-4.80825E-01 3.65581E-07 1.12514E-06
 -1       701-4.55258E-01 5.88594E-01 1.06911E-06-5.21926E-01 1.22361E-07 2.95406E-07
 -1       702-4.14165E-01 5.47484E-01-2.97833E-07-6.61798E-01 5.37091E-07 1.05409E-06
 -1       704-2.68429E-01 4.01765E-01 1.06911E-06-6.57665E-01 1.67068E-07 2.72628E-07
 -1       705-1.86125E-01 3.19444E-01-2.97835E-07-7.77991E-01 6.95372E-07 9.57097E-07
 -1       707-4.87989E-02 1.82134E-01 1.06910E-06-7.29027E-01 2.07657E-07 2.43125E-07
 -1       708 6.66592E-02 6.66592E-02-2.97773E-07-8.18028E-01 8.36564E-07 8.36559E-07
 -1       710 1.82134E-01-4.87989E-02 1.06917E-06-7.29027E-01 2.43131E-07 2.07705E-07
 -1       711 3.19444E-01-1.86125E-01-2.97923E-07-7.77991E-01 9.57021E-07 6.95303E-07
 -1       713 4.01765E-01-2.68429E-01 1.06891E-06-6.57665E-01 2.72609E-07 1.66902E-07
 -1       714 5.47484E-01-4.14165E-01-2.97250E-07-6.61798E-01 1.05449E-06 5.37333E-07
 -1       716 5.88594E-01-4.55258E-01 1.06911E-06-5.21926E-01 2.95330E-07 1.22553E-07
 -1       717 7.28458E-01-5.95139E-01-2.98404E-07-4.80825E-01 1.12470E-06 3.65484E-07
 -1       719 7.24333E-01-5.90997E-01 1.06931E-06-3.35097E-01 3.11043E-07 7.45402E-08
 -1       720 8.44650E-01-7.11331E-01-2.97722E-07-2.52784E-01 1.16861E-06 1.85078E-07
 -1       722 7.95695E-01-6.62360E-01 1.06907E-06-1.15467E-01 3.18743E-07 2.51332E-08
 -1       724-5.54834E-01 6.88161E-01 1.33150E-07-9.84355E-02 3.10537E-08 3.94575E-07
 -1       725-5.91598E-01 7.24928E-01-4.79448E-07-2.13883E-01-1.46925E-07-9.27648E-07
 -1       727-4.93998E-01 6.27324E-01 1.33151E-07-2.85671E-01 9.23964E-08 3.84859E-07
 -1       728-4.93287E-01 6.26617E-01-4.79448E-07-4.06829E-01-2.90232E-07-8.93243E-07
 -1       730-3.78280E-01 5.11606E-01 1.33151E-07-4.44943E-01 1.51464E-07 3.65667E-07
 -1       731-3.40164E-01 4.73494E-01-4.79448E-07-5.59952E-01-4.26392E-07-8.36842E-07
 -1       733-2.19008E-01 3.52334E-01 1.33150E-07-5.60661E-01 2.06803E-07 3.37472E-07
 -1       734-1.47218E-01 2.80547E-01-4.79453E-07-6.58263E-01-5.52057E-07-7.59838E-07
 -1       736-3.17722E-02 1.65099E-01 1.33149E-07-6.21497E-01 2.57046E-07 3.00964E-07
 -1       737 6.66648E-02 6.66648E-02-4.79459E-07-6.92139E-01-6.64116E-07-6.64127E-07
 -1       739 1.65099E-01-3.17722E-02 1.33142E-07-6.21497E-01 3.00974E-07 2.57046E-07
 -1       740 2.80547E-01-1.47218E-01-4.79452E-07-6.58263E-01-7.59858E-07-5.52053E-07
 -1       742 3.52334E-01-2.19008E-01 1.33173E-07-5.60661E-01 3.37444E-07 2.06804E-07
 -1       743 4.73494E-01-3.40164E-01-4.79451E-07-5.59952E-01-8.36844E-07-4.26412E-07
 -1       745 5.11606E-01-3.78280E-01 1.33150E-07-4.44943E-01 3.65672E-07 1.51450E-07
 -1       746 6.26617E-01-4.93287E-01-4.79447E-07-4.06829E-01-8.93235E-07-2.90247E-07
 -1       748 6.27324E-01-4.93998E-01 1.33127E-07-2.85671E-01 3.84875E-07 9.24159E-08
 -1       749 7.24928E-01-5.91598E-01-4.79441E-07-2.13883E-01-9.27637E-07-1.46913E-07
 -1       751 6.88161E-01-5.54834E-01 1.33159E-07-9.84355E-02 3.94571E-07 3.10442E-08
 -1       753-4.69446E-01 6.02774E-01-2.06416E-08-8.49114E-02-9.12323E-09-1.15922E-07
 -1       754-4.97571E-01 6.30898E-01 1.63835E-07-1.83331E-01 4.70985E-08 2.97368E-07
 -1       756-4.16967E-01 5.50296E-01-2.06418E-08-2.46423E-01-2.71451E-08-1.13068E-07
 -1       757-4.13303E-01 5.46630E-01 1.63835E-07-3.48716E-01 9.30374E-08 2.86339E-07
 -1       759-3.17148E-01 4.50476E-01-2.06415E-08-3.83812E-01-4.44985E-08-1.07429E-07
 -1       760-2.82052E-01 4.15380E-01 1.63835E-07-4.79967E-01 1.36685E-07 2.68259E-07
 -1       762-1.79758E-01 3.13087E-01-2.06413E-08-4.83632E-01-6.07564E-08-9.91454E-08
 -1       763-1.16667E-01 2.49995E-01 1.63838E-07-5.64235E-01 1.76968E-07 2.43575E-07
 -1       765-1.82473E-02 1.51576E-01-2.06414E-08-5.36110E-01-7.55183E-08-8.84202E-08
 -1       766 6.66638E-02 6.66638E-02 1.63840E-07-5.93271E-01 2.12892E-07 2.12894E-07
 -1       768 1.51576E-01-1.82473E-02-2.06352E-08-5.36110E-01-8.84203E-08-7.55153E-08
 -1       769 2.49995E-01-1.16667E-01 1.63826E-07-5.64235E-01 2.43573E-07 1.76967E-07
 -1       771 3.13087E-01-1.79758E-01-2.06652E-08-4.83632E-01-9.91477E-08-6.07639E-08
 -1       772 4.15380E-01-2.82052E-01 1.63864E-07-4.79967E-01 2.68279E-07 1.36696E-07
 -1       774 4.50476E-01-3.17148E-01-2.06415E-08-3.83812E-01-1.07431E-07-4.44941E-08
 -1       775 5.46630E-01-4.13303E-01 1.63806E-07-3.48716E-01 2.86319E-07 9.30316E-08
 -1       777 5.50296E-01-4.16967E-01-2.06180E-08-2.46423E-01-1.13060E-07-2.71489E-08
 -1       778 6.30898E-01-4.97571E-01 1.63843E-07-1.83331E-01 2.97370E-07 4.71000E-08
 -1       780 6.02774E-01-4.69446E-01-2.06477E-08-8.49114E-02-1.15924E-07-9.12144E-09
 -1       782-4.00503E-01 5.33831E-01 2.19750E-08-7.39920E-02 4.61497E-09 5.86388E-08
 -1       783-4.22337E-01 5.55665E-01-7.36408E-08-1.58886E-01-1.78836E-08-1.12913E-07
 -1       785-3.54773E-01 4.88101E-01 2.19750E-08-2.14733E-01 1.37313E-08 5.71949E-08
 -1       786-3.49305E-01 4.82633E-01-7.36409E-08-3.02219E-01-3.53269E-08-1.08725E-07
 -1       788-2.67791E-01 4.01118E-01 2.19750E-08-3.34455E-01 2.25095E-08 5.43427E-08
 -1       789-2.35555E-01 3.68883E-01-7.36411E-08-4.15969E-01-5.19002E-08-1.01860E-07
 -1       791-1.48069E-01 2.81397E-01 2.19748E-08-4.21437E-01 3.07335E-08 5.01524E-08
 -1       792-9.22220E-02 2.25550E-01-7.36416E-08-4.89001E-01-6.71959E-08-9.24872E-08
 -1       794-7.32802E-03 1.40656E-01 2.19749E-08-4.67167E-01 3.82005E-08 4.47268E-08
 -1       795 6.66640E-02 6.66640E-02-7.36407E-08-5.14166E-01-8.08359E-08-8.08371E-08
 -1       797 1.40656E-01-7.32801E-03 2.19750E-08-4.67167E-01 4.47278E-08 3.82007E-08
 -1       798 2.25550E-01-9.22220E-02-7.36401E-08-4.89001E-01-9.24881E-08-6.71965E-08
 -1       800 2.81397E-01-1.48069E-01 2.19770E-08-4.21437E-01 5.01501E-08 3.07329E-08
 -1       801 3.68883E-01-2.35555E-01-7.36406E-08-4.15969E-01-1.01858E-07-5.18995E-08
 -1       803 4.01118E-01-2.67791E-01 2.19750E-08-3.34455E-01 5.43427E-08 2.25095E-08
 -1       804 4.82633E-01-3.49305E-01-7.36405E-08-3.02219E-01-1.08727E-07-3.53278E-08
 -1       806 4.88101E-01-3.54773E-01 2.19733E-08-2.14733E-01 5.71968E-08 1.37326E-08
 -1       807 5.55665E-01-4.22337E-01-7.36405E-08-1.58886E-01-1.12911E-07-1.78833E-08
 -1       809 5.33831E-01-4.00503E-01 2.19751E-08-7.39920E-02 5.86386E-08 4.61479E-09
 -1       811-3.44044E-01 4.77372E-01-1.10983E-08-6.50498E-02-1.19693E-09-1.52085E-08
 -1       812-3.61212E-01 4.94540E-01 2.61970E-08-1.39025E-01 5.17949E-09 3.27020E-08
 -1       814-3.03841E-01 4.37169E-01-1.10982E-08-1.88782E-01-3.56132E-09-1.48340E-08
 -1       815-2.97309E-01 4.30637E-01 2.61971E-08-2.64442E-01 1.02315E-08 3.14892E-08
 -1       817-2.27371E-01 3.60699E-01-1.10982E-08-2.94035E-01-5.83803E-09-1.40942E-08
 -1       818-1.97778E-01 3.31106E-01 2.61970E-08-3.63973E-01 1.50315E-08 2.95010E-08
 -1       820-1.22118E-01 2.55446E-01-1.10982E-08-3.70505E-01-7.97100E-09-1.30074E-08
 -1       821-7.23615E-02 2.05689E-01 2.61972E-08-4.27876E-01 1.94614E-08 2.67865E-08
 -1       823 1.61417E-03 1.31714E-01-1.10982E-08-4.10708E-01-9.90766E-09-1.16003E-08
 -1       824 6.66640E-02 6.66640E-02 2.61969E-08-4.49896E-01 2.34120E-08 2.34123E-08
 -1       826 1.31714E-01 1.61417E-03-1.10982E-08-4.10708E-01-1.16002E-08-9.90740E-09
 -1       827 2.05689E-01-7.23615E-02 2.61962E-08-4.27876E-01 2.67860E-08 1.94613E-08
 -1       829 2.55446E-01-1.22118E-01-1.10999E-08-3.70505E-01-1.30080E-08-7.97173E-09
 -1       830 3.31106E-01-1.97778E-01 2.62004E-08-3.63973E-01 2.95028E-08 1.50324E-08
 -1       832 3.60699E-01-2.27371E-01-1.10983E-08-2.94035E-01-1.40943E-08-5.83782E-09
 -1       833 4.30637E-01-2.97309E-01 2.61934E-08-2.64442E-01 3.14873E-08 1.02307E-08
 -1       835 4.37169E-01-3.03841E-01-1.10966E-08-1.88782E-01-1.48330E-08-3.56149E-09
 -1       836 4.94540E-01-3.61212E-01 2.61975E-08-1.39025E-01 3.27022E-08 5.17952E-09
 -1       838 4.77372E-01-3.44044E-01-1.10983E-08-6.50498E-02-1.52087E-08-1.19693E-09
 -1       840-2.97229E-01 4.30557E-01 2.69248E-10-5.76350E-02 4.80597E-10 6.10649E-09
 -1       841-3.10874E-01 4.44202E-01-7.10520E-09-1.22670E-01-1.75495E-09-1.10803E-08
 -1       843-2.61609E-01 3.94937E-01 2.69240E-10-1.67263E-01 1.42994E-09 5.95615E-09
 -1       844-2.54489E-01 3.87817E-01-7.10518E-09-2.33331E-01-3.46669E-09-1.06694E-08
 -1       846-1.93855E-01 3.27183E-01 2.69250E-10-2.60519E-01 2.34409E-09 5.65911E-09
 -1       847-1.66667E-01 2.99995E-01-7.10518E-09-3.21153E-01-5.09306E-09-9.99574E-09
 -1       849-1.00599E-01 2.33927E-01 2.69235E-10-3.28273E-01 3.20052E-09 5.22274E-09
 -1       850-5.60055E-02 1.89333E-01-7.10514E-09-3.77538E-01-6.59405E-09-9.07596E-09
 -1       852 9.02896E-03 1.24299E-01 2.69331E-10-3.63893E-01 3.97809E-09 4.65775E-09
 -1       853 6.66640E-02 6.66640E-02-7.10508E-09-3.96967E-01-7.93255E-09-7.93263E-09
 -1       855 1.24299E-01 9.02896E-03 2.69231E-10-3.63893E-01 4.65786E-09 3.97819E-09
 -1       856 1.89333E-01-5.60055E-02-7.10524E-09-3.77538E-01-9.07608E-09-6.59414E-09
 -1       858 2.33927E-01-1.00599E-01 2.69277E-10-3.28273E-01 5.22246E-09 3.20034E-09
 -1       859 2.99995E-01-1.66667E-01-7.10493E-09-3.21153E-01-9.99525E-09-5.09286E-09
 -1       861 3.27183E-01-1.93855E-01 2.69236E-10-2.60519E-01 5.65909E-09 2.34414E-09
 -1       862 3.87817E-01-2.54489E-01-7.10537E-09-2.33331E-01-1.06699E-08-3.46687E-09
 -1       864 3.94937E-01-2.61609E-01 2.69261E-10-1.67263E-01 5.95645E-09 1.43005E-09
 -1       865 4.44202E-01-3.10874E-01-7.10507E-09-1.22670E-01-1.10802E-08-1.75486E-09
 -1       867 4.30557E-01-2.97229E-01 2.69252E-10-5.76350E-02 6.10644E-09 4.80596E-10
 -1       869-2.57981E-01 3.91309E-01-3.79608E-09-5.14188E-02-1.30707E-10-1.66076E-09
 -1       870-2.68925E-01 4.02253E-01 4.21478E-09-1.09040E-01 4.91533E-10 3.10342E-09
 -1       872-2.26203E-01 3.59531E-01-3.79609E-09-1.49223E-01-3.88899E-10-1.61987E-09
 -1       873-2.18805E-01 3.52133E-01 4.21478E-09-2.07406E-01 9.70953E-10 2.98834E-09
 -1       875-1.65756E-01 2.99084E-01-3.79607E-09-2.32420E-01-6.37519E-10-1.53910E-09
 -1       876-1.40742E-01 2.74070E-01 4.21476E-09-2.85469E-01 1.42648E-09 2.79963E-09
 -1       878-8.25591E-02 2.15887E-01-3.79609E-09-2.92867E-01-8.70436E-10-1.42042E-09
 -1       879-4.23756E-02 1.75704E-01 4.21476E-09-3.35589E-01 1.84688E-09 2.54201E-09
 -1       881 1.52452E-02 1.18083E-01-3.79607E-09-3.24645E-01-1.08192E-09-1.26676E-09
 -1       882 6.66640E-02 6.66640E-02 4.21476E-09-3.52859E-01 2.22180E-09 2.22183E-09
 -1       884 1.18083E-01 1.52452E-02-3.79611E-09-3.24645E-01-1.26674E-09-1.08190E-09
 -1       885 1.75704E-01-4.23756E-02 4.21471E-09-3.35589E-01 2.54198E-09 1.84686E-09
 -1       887 2.15887E-01-8.25591E-02-3.79620E-09-2.92867E-01-1.42054E-09-8.70527E-10
 -1       888 2.74070E-01-1.40742E-01 4.21519E-09-2.85469E-01 2.79990E-09 1.42659E-09
 -1       890 2.99084E-01-1.65756E-01-3.79611E-09-2.32420E-01-1.53912E-09-6.37495E-10
 -1       891 3.52133E-01-2.18805E-01 4.21430E-09-2.07406E-01 2.98804E-09 9.70836E-10
 -1       893 3.59531E-01-2.26203E-01-3.79594E-09-1.49223E-01-1.61973E-09-3.88885E-10
 -1       894 4.02253E-01-2.68925E-01 4.21482E-09-1.09040E-01 3.10346E-09 4.91537E-10
 -1       896 3.91309E-01-2.57981E-01-3.79606E-09-5.14188E-02-1.66079E-09-1.30704E-10
 -1       898-2.24754E-01 3.58082E-01-1.85101E-09-4.61561E-02 2.93088E-11 3.72382E-10
 -1       899-2.33600E-01 3.66928E-01 3.37933E-10-9.75617E-02-1.40080E-10-8.84417E-10
 -1       901-1.96228E-01 3.29556E-01-1.85100E-09-1.33950E-01 8.72007E-11 3.63219E-10
 -1       902-1.88756E-01 3.22084E-01 3.37970E-10-1.85573E-01-2.76702E-10-8.51601E-10
 -1       904-1.41968E-01 2.75296E-01-1.85099E-09-2.08632E-01 1.42957E-10 3.45096E-10
 -1       905-1.18909E-01 2.52237E-01 3.37937E-10-2.55420E-01-4.06521E-10-7.97842E-10
 -1       907-6.72862E-02 2.00614E-01-1.85102E-09-2.62892E-01 1.95176E-10 3.18490E-10
 -1       908-3.08977E-02 1.64226E-01 3.37943E-10-3.00264E-01-5.26319E-10-7.24421E-10
 -1       910 2.05079E-02 1.12820E-01-1.85100E-09-2.91418E-01 2.42600E-10 2.84040E-10
 -1       911 6.66640E-02 6.66640E-02 3.37942E-10-3.15716E-01-6.33162E-10-6.33145E-10
 -1       913 1.12820E-01 2.05079E-02-1.85103E-09-2.91418E-01 2.84057E-10 2.42617E-10
 -1       914 1.64226E-01-3.08977E-02 3.37933E-10-3.00264E-01-7.24443E-10-5.26336E-10
 -1       916 2.00614E-01-6.72862E-02-1.85098E-09-2.62892E-01 3.18456E-10 1.95141E-10
 -1       917 2.52237E-01-1.18909E-01 3.38023E-10-2.55420E-01-7.97739E-10-4.06484E-10
 -1       919 2.75296E-01-1.41968E-01-1.85104E-09-2.08632E-01 3.45102E-10 1.42965E-10
 -1       920 3.22084E-01-1.88756E-01 3.37820E-10-1.85573E-01-8.51704E-10-2.76757E-10
 -1       922 3.29556E-01-1.96228E-01-1.85102E-09-1.33950E-01 3.63259E-10 8.72191E-11
 -1       923 3.66928E-01-2.33600E-01 3.37963E-10-9.75617E-02-8.84377E-10-1.40078E-10
 -1       925 3.58082E-01-2.24754E-01-1.85095E-09-4.61561E-02 3.72378E-10 2.93084E-11
 -1       927-1.96377E-01 3.29705E-01-1.94021E-09-4.16615E-02-2.47193E-11-3.14037E-10
 -1       928-2.03574E-01 3.36902E-01 1.27808E-09-8.78055E-02 5.62549E-11 3.55203E-10
 -1       930-1.70628E-01 3.03956E-01-1.94022E-09-1.20907E-01-7.35316E-11-3.06316E-10
 -1       931-1.63214E-01 2.96542E-01 1.27807E-09-1.67016E-01 1.11135E-10 3.42042E-10
 -1       933-1.21652E-01 2.54980E-01-1.94020E-09-1.88316E-01-1.20546E-10-2.91026E-10
 -1       934-1.00352E-01 2.33680E-01 1.27811E-09-2.29878E-01 1.63269E-10 3.20446E-10
 -1       936-5.42425E-02 1.87570E-01-1.94022E-09-2.37292E-01-1.64601E-10-2.68589E-10
 -1       937-2.11416E-02 1.54470E-01 1.27808E-09-2.70238E-01 2.11401E-10 2.90965E-10
 -1       939 2.50024E-02 1.08326E-01-1.94023E-09-2.63041E-01-2.04597E-10-2.39544E-10
 -1       940 6.66640E-02 6.66640E-02 1.27809E-09-2.84145E-01 2.54303E-10 2.54313E-10
 -1       942 1.08326E-01 2.50024E-02-1.94024E-09-2.63041E-01-2.39529E-10-2.04581E-10
 -1       943 1.54470E-01-2.11416E-02 1.27810E-09-2.70238E-01 2.90945E-10 2.11384E-10
 -1       945 1.87570E-01-5.42425E-02-1.94017E-09-2.37292E-01-2.68610E-10-1.64606E-10
 -1       946 2.33680E-01-1.00352E-01 1.27816E-09-2.29878E-01 3.20498E-10 1.63284E-10
 -1       948 2.54980E-01-1.21652E-01-1.94023E-09-1.88316E-01-2.91048E-10-1.20541E-10
 -1       949 2.96542E-01-1.63214E-01 1.27798E-09-1.67016E-01 3.42001E-10 1.11106E-10
 -1       951 3.03956E-01-1.70628E-01-1.94026E-09-1.20907E-01-3.06281E-10-7.35271E-11
 -1       952 3.36902E-01-2.03574E-01 1.27808E-09-8.78055E-02 3.55209E-10 5.62554E-11
 -1       954 3.29705E-01-1.96377E-01-1.94016E-09-4.16615E-02-3.14034E-10-2.47096E-11
 -1       956-1.71950E-01 3.05278E-01-1.43508E-09-3.77927E-02-8.75928E-12-1.11321E-10
 -1       957-1.77837E-01 3.11165E-01 7.31395E-10-7.94431E-02 7.15263E-13 4.53713E-12
 -1       959-1.48592E-01 2.81920E-01-1.43510E-09-1.09679E-01-2.60644E-11-1.08581E-10
 -1       960-1.41321E-01 2.74649E-01 7.31427E-10-1.51110E-01 1.42483E-12 4.38704E-12
 -1       962-1.04165E-01 2.37492E-01-1.43507E-09-1.70828E-01-4.27279E-11-1.03171E-10
 -1       963-8.44458E-02 2.17774E-01 7.31406E-10-2.07985E-01 2.09201E-12 4.11352E-12
 -1       965-4.30147E-02 1.76343E-01-1.43506E-09-2.15256E-01-5.83463E-11-9.52085E-11
 -1       966-1.27791E-02 1.46107E-01 7.31398E-10-2.44501E-01 2.71227E-12 3.72422E-12
 -1       968 2.88713E-02 1.04457E-01-1.43511E-09-2.38614E-01-7.25243E-11-8.49187E-11
 -1       969 6.66640E-02 6.66640E-02 7.31382E-10-2.57083E-01 3.26156E-12 3.26418E-12
 -1       971 1.04457E-01 2.88713E-02-1.43510E-09-2.38614E-01-8.49135E-11-7.25115E-11
 -1       972 1.46107E-01-1.27791E-02 7.31445E-10-2.44501E-01 3.69596E-12 2.69992E-12
 -1       974 1.76343E-01-4.30147E-02-1.43500E-09-2.15256E-01-9.52130E-11-5.83335E-11
 -1       975 2.17774E-01-8.44458E-02 7.31435E-10-2.07985E-01 4.14314E-12 2.08434E-12
 -1       977 2.37492E-01-1.04165E-01-1.43513E-09-1.70828E-01-1.03166E-10-4.27293E-11
 -1       978 2.74649E-01-1.41321E-01 7.31318E-10-1.51110E-01 4.40452E-12 1.40668E-12
 -1       980 2.81920E-01-1.48592E-01-1.43516E-09-1.09679E-01-1.08579E-10-2.60581E-11
 -1       981 3.11165E-01-1.77837E-01 7.31415E-10-7.94431E-02 4.54134E-12 7.10531E-13
 -1       983 3.05278E-01-1.71950E-01-1.43500E-09-3.77927E-02-1.11306E-10-8.75912E-12
 -1       985-1.50773E-01 2.84101E-01-1.21145E-09-3.44386E-02-1.11915E-11-1.42182E-10
 -1       986-1.55609E-01 2.88937E-01 6.87387E-10-7.22210E-02 1.47228E-11 9.29895E-11
 -1       988-1.29488E-01 2.62816E-01-1.21146E-09-9.99446E-02-3.32891E-11-1.38682E-10
 -1       989-1.22413E-01 2.55741E-01 6.87372E-10-1.37373E-01 2.90847E-11 8.95393E-11
 -1       991-8.90034E-02 2.22331E-01-1.21144E-09-1.55667E-01-5.45743E-11-1.31761E-10
 -1       992-7.07085E-02 2.04037E-01 6.87405E-10-1.89077E-01 4.27373E-11 8.38873E-11
 -1       994-3.32806E-02 1.66609E-01-1.21142E-09-1.96152E-01-7.45274E-11-1.21605E-10
 -1       995-5.55702E-03 1.38885E-01 6.87362E-10-2.22273E-01 5.53408E-11 7.61703E-11
 -1       997 3.22254E-02 1.01103E-01-1.21151E-09-2.17437E-01-9.26447E-11-1.08457E-10
 -1       998 6.66640E-02 6.66640E-02 6.87354E-10-2.33712E-01 6.65688E-11 6.65719E-11
 -1      1000 1.01103E-01 3.22254E-02-1.21147E-09-2.17437E-01-1.08440E-10-9.26290E-11
 -1      1001 1.38885E-01-5.55702E-03 6.87435E-10-2.22273E-01 7.61372E-11 5.53292E-11
 -1      1003 1.66609E-01-3.32806E-02-1.21134E-09-1.96152E-01-1.21584E-10-7.45298E-11
 -1      1004 2.04037E-01-7.07085E-02 6.87420E-10-1.89077E-01 8.39189E-11 4.27323E-11
 -1      1006 2.22331E-01-8.90034E-02-1.21151E-09-1.55667E-01-1.31792E-10-5.45763E-11
 -1      1007 2.55741E-01-1.22413E-01 6.87302E-10-1.37373E-01 8.95590E-11 2.90773E-11
 -1      1009 2.62816E-01-1.29488E-01-1.21155E-09-9.99446E-02-1.38707E-10-3.32856E-11
 -1      1010 2.88937E-01-1.55609E-01 6.87359E-10-7.22210E-02 9.29755E-11 1.47135E-11
 -1      1012 2.84101E-01-1.50773E-01-1.21135E-09-3.44386E-02-1.42172E-10-1.11843E-11
 -1      1014-1.32294E-01 2.65622E-01-9.78186E-10-3.15118E-02-8.05843E-12-1.02415E-10
 -1      1015-1.36281E-01 2.69609E-01 5.32792E-10-6.59409E-02 8.23258E-12 5.20206E-11
 -1      1017-1.12818E-01 2.46146E-01-9.78214E-10-9.14508E-02-2.39832E-11-9.98903E-11
 -1      1018-1.05972E-01 2.39300E-01 5.32827E-10-1.25427E-01 1.62613E-11 5.00869E-11
 -1      1020-7.57740E-02 2.09102E-01-9.78184E-10-1.42438E-01-3.93039E-11-9.48987E-11
 -1      1021-5.87631E-02 1.92091E-01 5.32837E-10-1.72636E-01 2.39027E-11 4.69193E-11
 -1      1023-2.47868E-02 1.58115E-01-9.78148E-10-1.79482E-01-5.36685E-11-8.76056E-11
 -1      1024 7.23066E-04 1.32605E-01 5.32810E-10-2.02945E-01 3.09696E-11 4.26009E-11
 -1      1026 3.51522E-02 9.81758E-02-9.78273E-10-1.98958E-01-6.67385E-11-7.81347E-11
 -1      1027 6.66640E-02 6.66640E-02 5.32766E-10-2.13389E-01 3.72291E-11 3.72372E-11
 -1      1029 9.81758E-02 3.51522E-02-9.78216E-10-1.98958E-01-7.81037E-11-6.67200E-11
 -1      1030 1.32605E-01 7.23066E-04 5.32880E-10-2.02945E-01 4.25846E-11 3.09414E-11
 -1      1032 1.58115E-01-2.47868E-02-9.78048E-10-1.79482E-01-8.75759E-11-5.36669E-11
 -1      1033 1.92091E-01-5.87631E-02 5.32852E-10-1.72636E-01 4.69216E-11 2.38946E-11
 -1      1035 2.09102E-01-7.57740E-02-9.78245E-10-1.42438E-01-9.49321E-11-3.93087E-11
 -1      1036 2.39300E-01-1.05972E-01 5.32697E-10-1.25427E-01 5.01320E-11 1.62590E-11
 -1      1038 2.46146E-01-1.12818E-01-9.78335E-10-9.14508E-02-9.99363E-11-2.39765E-11
 -1      1039 2.69609E-01-1.36281E-01 5.32802E-10-6.59409E-02 5.19882E-11 8.22398E-12
 -1      1041 2.65622E-01-1.32294E-01-9.78074E-10-3.15118E-02-1.02374E-10-8.05147E-12
 -1      1043-1.16074E-01 2.49401E-01-8.11377E-10-2.89428E-02-6.75256E-12-8.57891E-11
 -1      1044-1.19369E-01 2.52697E-01 4.46536E-10-6.04458E-02 7.67498E-12 4.84988E-11
 -1      1046-9.81859E-02 2.31514E-01-8.11397E-10-8.39952E-02-2.00831E-11-8.36809E-11
 -1      1047-9.15853E-02 2.24913E-01 4.46513E-10-1.14975E-01 1.51557E-11 4.66774E-11
 -1      1049-6.41616E-02 1.97490E-01-8.11381E-10-1.30826E-01-3.29142E-11-7.95022E-11
 -1      1050-4.83108E-02 1.81639E-01 4.46541E-10-1.58249E-01 2.22793E-11 4.37706E-11
 -1      1052-1.73312E-02 1.50659E-01-8.11300E-10-1.64850E-01-4.49719E-11-7.33545E-11
 -1      1053 6.21814E-03 1.27110E-01 4.46496E-10-1.86033E-01 2.88853E-11 3.97238E-11
 -1      1055 3.77212E-02 9.56068E-02-8.11491E-10-1.82737E-01-5.59318E-11-6.54507E-11
 -1      1056 6.66640E-02 6.66640E-02 4.46474E-10-1.95607E-01 3.47131E-11 3.47386E-11
 -1      1058 9.56068E-02 3.77212E-02-8.11418E-10-1.82737E-01-6.54210E-11-5.58882E-11
 -1      1059 1.27110E-01 6.21814E-03 4.46612E-10-1.86033E-01 3.96870E-11 2.88472E-11
 -1      1061 1.50659E-01-1.73312E-02-8.11205E-10-1.64850E-01-7.33220E-11-4.49510E-11
 -1      1062 1.81639E-01-4.83108E-02 4.46571E-10-1.58249E-01 4.37584E-11 2.22800E-11
 -1      1064 1.97490E-01-6.41616E-02-8.11443E-10-1.30826E-01-7.95605E-11-3.29353E-11
 -1      1065 2.24913E-01-9.15853E-02 4.46386E-10-1.14975E-01 4.67521E-11 1.51547E-11
 -1      1067 2.31514E-01-9.81859E-02-8.11563E-10-8.39952E-02-8.37412E-11-2.00791E-11
 -1      1068 2.52697E-01-1.19369E-01 4.46492E-10-6.04458E-02 4.84900E-11 7.66320E-12
 -1      1070 2.49401E-01-1.16074E-01-8.11240E-10-2.89428E-02-8.57318E-11-6.74052E-12
 -1      1072-1.01758E-01 2.35086E-01-6.74056E-10-2.66755E-02-5.27498E-12-6.70189E-11
 -1      1073-1.04487E-01 2.37815E-01 3.67494E-10-5.56102E-02 5.83219E-12 3.68607E-11
 -1      1075-8.52721E-02 2.18600E-01-6.74081E-10-7.74153E-02-1.57020E-11-6.53816E-11
 -1      1076-7.89253E-02 2.12253E-01 3.67494E-10-1.05777E-01 1.15040E-11 3.54796E-11
 -1      1078-5.39132E-02 1.87241E-01-6.74089E-10-1.20577E-01-2.57116E-11-6.21215E-11
 -1      1079-3.91129E-02 1.72441E-01 3.67547E-10-1.45589E-01 1.69374E-11 3.32694E-11
 -1      1081-1.07513E-02 1.44079E-01-6.73962E-10-1.51936E-01-3.51272E-11-5.73276E-11
 -1      1082 1.10538E-02 1.22274E-01 3.67490E-10-1.71151E-01 2.19747E-11 3.01911E-11
 -1      1084 3.99885E-02 9.33395E-02-6.74205E-10-1.68422E-01-4.37189E-11-5.11546E-11
 -1      1085 6.66640E-02 6.66640E-02 3.67420E-10-1.79958E-01 2.63902E-11 2.64042E-11
 -1      1087 9.33395E-02 3.99885E-02-6.74110E-10-1.68422E-01-5.11072E-11-4.36767E-11
 -1      1088 1.22274E-01 1.10538E-02 3.67625E-10-1.71151E-01 3.01112E-11 2.19149E-11
 -1      1090 1.44079E-01-1.07513E-02-6.73853E-10-1.51936E-01-5.72801E-11-3.50999E-11
 -1      1091 1.72441E-01-3.91129E-02 3.67554E-10-1.45589E-01 3.32538E-11 1.69229E-11
 -1      1093 1.87241E-01-5.39132E-02-6.74135E-10-1.20577E-01-6.21787E-11-2.57293E-11
 -1      1094 2.12253E-01-7.89253E-02 3.67325E-10-1.05777E-01 3.55756E-11 1.15111E-11
 -1      1096 2.18600E-01-8.52721E-02-6.74282E-10-7.74153E-02-6.54813E-11-1.56869E-11
 -1      1097 2.37815E-01-1.04487E-01 3.67466E-10-5.56102E-02 3.68503E-11 5.81712E-12
 -1      1099 2.35086E-01-1.01758E-01-6.73894E-10-2.66755E-02-6.69357E-11-5.26511E-12
 -1      1101-8.90615E-02 2.22389E-01-5.65800E-10-2.46645E-02-4.20116E-12-5.33767E-11
 -1      1102-9.13211E-02 2.24649E-01 3.08251E-10-5.13325E-02 4.66474E-12 2.94571E-11
 -1      1104-7.38180E-02 2.07146E-01-5.65836E-10-7.15791E-02-1.24911E-11-5.20613E-11
 -1      1105-6.77262E-02 2.01054E-01 3.08247E-10-9.76402E-02 9.18547E-12 2.83770E-11
 -1      1107-4.48231E-02 1.78151E-01-5.65856E-10-1.11487E-01-2.04650E-11-4.94657E-11
 -1      1108-3.09762E-02 1.64304E-01 3.08310E-10-1.34390E-01 1.35293E-11 2.65673E-11
 -1      1110-4.91515E-03 1.38243E-01-5.65644E-10-1.40482E-01-2.79720E-11-4.56270E-11
 -1      1111 1.53315E-02 1.17996E-01 3.08229E-10-1.57985E-01 1.75892E-11 2.41440E-11
 -1      1113 4.19995E-02 9.13285E-02-5.65987E-10-1.55725E-01-3.48474E-11-4.07541E-11
 -1      1114 6.66640E-02 6.66640E-02 3.08154E-10-1.66115E-01 2.11036E-11 2.11161E-11
 -1      1116 9.13285E-02 4.19995E-02-5.65880E-10-1.55725E-01-4.06663E-11-3.47842E-11
 -1      1117 1.17996E-01 1.53315E-02 3.08399E-10-1.57985E-01 2.40461E-11 1.75297E-11
 -1      1119 1.38243E-01-4.91515E-03-5.65566E-10-1.40482E-01-4.55379E-11-2.79325E-11
 -1      1120 1.64304E-01-3.09762E-02 3.08335E-10-1.34390E-01 2.65897E-11 1.35266E-11
 -1      1122 1.78151E-01-4.48231E-02-5.65871E-10-1.11487E-01-4.95448E-11-2.04960E-11
 -1      1123 2.01054E-01-6.77262E-02 3.08036E-10-9.76402E-02 2.85187E-11 9.19012E-12
 -1      1125 2.07146E-01-7.38180E-02-5.66065E-10-7.15791E-02-5.21837E-11-1.24947E-11
 -1      1126 2.24649E-01-9.13211E-02 3.08210E-10-5.13325E-02 2.94669E-11 4.64943E-12
 -1      1128 2.22389E-01-8.90615E-02-5.65610E-10-2.46645E-02-5.32442E-11-4.19399E-12
 -1      1130-7.77477E-02 2.11076E-01-4.81370E-10-2.28726E-02-3.05486E-12-3.87879E-11
 -1      1131-7.96185E-02 2.12947E-01 2.58925E-10-4.75301E-02 3.73034E-12 2.35459E-11
 -1      1133-6.36116E-02 1.96940E-01-4.81405E-10-6.63788E-02-9.08418E-12-3.78431E-11
 -1      1134-5.77713E-02 1.91099E-01 2.58927E-10-9.04076E-02 7.33071E-12 2.26566E-11
 -1      1136-3.67233E-02 1.70051E-01-4.81446E-10-1.03387E-01-1.48614E-11-3.59591E-11
 -1      1137-2.37436E-02 1.57072E-01 2.59009E-10-1.24435E-01 1.07910E-11 2.12385E-11
 -1      1139 2.85235E-04 1.33043E-01-4.81185E-10-1.30276E-01-2.03209E-11-3.31346E-11
 -1      1140 1.91339E-02 1.14194E-01 2.58918E-10-1.46283E-01 1.40795E-11 1.92860E-11
 -1      1142 4.37914E-02 8.95365E-02-4.81593E-10-1.44412E-01-2.53741E-11-2.96307E-11
 -1      1143 6.66640E-02 6.66640E-02 2.58824E-10-1.53811E-01 1.68805E-11 1.68925E-11
 -1      1145 8.95365E-02 4.37914E-02-4.81466E-10-1.44412E-01-2.95396E-11-2.52934E-11
 -1      1146 1.14194E-01 1.91339E-02 2.59112E-10-1.46283E-01 1.91539E-11 1.39935E-11
 -1      1148 1.33043E-01 2.85234E-04-4.81097E-10-1.30276E-01-3.30169E-11-2.02673E-11
 -1      1149 1.57072E-01-2.37436E-02 2.59033E-10-1.24435E-01 2.12472E-11 1.07866E-11
 -1      1151 1.70051E-01-3.67233E-02-4.81466E-10-1.03387E-01-3.60493E-11-1.49045E-11
 -1      1152 1.91099E-01-5.77713E-02 2.58689E-10-9.04076E-02 2.28653E-11 7.35244E-12
 -1      1154 1.96940E-01-6.36116E-02-4.81692E-10-6.63788E-02-3.80353E-11-9.07797E-12
 -1      1155 2.12947E-01-7.96185E-02 2.58894E-10-4.75301E-02 2.35682E-11 3.71183E-12
 -1      1157 2.11076E-01-7.77477E-02-4.81173E-10-2.28726E-02-3.86289E-11-3.04528E-12
 -1      1159-6.76233E-02 2.00951E-01-4.08536E-10-2.12690E-02-2.48902E-12-3.15708E-11
 -1      1160-6.91698E-02 2.02498E-01 2.24225E-10-4.41351E-02 2.33827E-12 1.47460E-11
 -1      1162-5.44783E-02 1.87806E-01-4.08595E-10-6.17251E-02-7.39340E-12-3.08092E-11
 -1      1163-4.88831E-02 1.82211E-01 2.24186E-10-8.39499E-02 4.56905E-12 1.42105E-11
 -1      1165-2.94751E-02 1.62803E-01-4.08606E-10-9.61391E-02-1.20823E-11-2.92618E-11
 -1      1166-1.72859E-02 1.50614E-01 2.24301E-10-1.15547E-01 6.72020E-12 1.32786E-11
 -1      1168 4.93892E-03 1.28389E-01-4.08338E-10-1.21142E-01-1.65068E-11-2.69392E-11
 -1      1169 2.25289E-02 1.10799E-01 2.24202E-10-1.35834E-01 8.88435E-12 1.20790E-11
 -1      1171 4.53950E-02 8.79330E-02-4.08764E-10-1.34287E-01-2.07373E-11-2.41637E-11
 -1      1172 6.66640E-02 6.66640E-02 2.24064E-10-1.42824E-01 1.06111E-11 1.06132E-11
 -1      1174 8.79330E-02 4.53950E-02-4.08650E-10-1.34287E-01-2.40305E-11-2.06202E-11
 -1      1175 1.10799E-01 2.25289E-02 2.24427E-10-1.35834E-01 1.18694E-11 8.75982E-12
 -1      1177 1.28389E-01 4.93892E-03-4.08245E-10-1.21142E-01-2.67832E-11-1.64394E-11
 -1      1178 1.50614E-01-1.72859E-02 2.24328E-10-1.15547E-01 1.32927E-11 6.72936E-12
 -1      1180 1.62803E-01-2.94751E-02-4.08624E-10-9.61391E-02-2.94084E-11-1.21377E-11
 -1      1181 1.82211E-01-4.88831E-02 2.23920E-10-8.39499E-02 1.44742E-11 4.59354E-12
 -1      1183 1.87806E-01-5.44783E-02-4.08876E-10-6.17251E-02-3.10825E-11-7.38887E-12
 -1      1184 2.02498E-01-6.91698E-02 2.24140E-10-4.41351E-02 1.47549E-11 2.32713E-12
 -1      1186 2.00951E-01-6.76232E-02-4.08320E-10-2.12690E-02-3.13331E-11-2.48943E-12
 -1      1188-5.85272E-02 1.91855E-01-3.75911E-10-1.98283E-02 4.27158E-13 5.51953E-12
 -1      1189-5.98019E-02 1.93130E-01 1.84268E-10-4.10913E-02 2.81563E-12 1.77110E-11
 -1      1191-4.62726E-02 1.79601E-01-3.75998E-10-5.75441E-02 1.28107E-12 5.37391E-12
 -1      1192-4.09143E-02 1.74242E-01 1.84248E-10-7.81602E-02 5.49169E-12 1.70679E-11
 -1      1194-2.29630E-02 1.56291E-01-3.75946E-10-8.96270E-02 2.17180E-12 5.09596E-12
 -1      1195-1.14962E-02 1.44824E-01 1.84376E-10-1.07578E-01 8.05427E-12 1.59445E-11
 -1      1197 9.11993E-03 1.24208E-01-3.75793E-10-1.12937E-01 2.96305E-12 4.81939E-12
 -1      1198 2.55727E-02 1.07755E-01 1.84254E-10-1.26466E-01 1.06872E-11 1.44984E-11
 -1      1200 4.68357E-02 8.64923E-02-3.76121E-10-1.25191E-01 3.34424E-12 4.12051E-12
 -1      1201 6.66640E-02 6.66640E-02 1.84106E-10-1.32974E-01 1.27598E-11 1.27718E-11
 -1      1203 8.64923E-02 4.68357E-02-3.76041E-10-1.25191E-01 4.30269E-12 3.51478E-12
 -1      1204 1.07755E-01 2.55727E-02 1.84503E-10-1.26466E-01 1.42200E-11 1.05101E-11
 -1      1206 1.24208E-01 9.11993E-03-3.75677E-10-1.12937E-01 5.02651E-12 3.06461E-12
 -1      1207 1.44824E-01-1.14962E-02 1.84400E-10-1.07578E-01 1.59166E-11 8.06221E-12
 -1      1209 1.56291E-01-2.29630E-02-3.75996E-10-8.96270E-02 4.93117E-12 2.08535E-12
 -1      1210 1.74242E-01-4.09143E-02 1.83934E-10-7.81602E-02 1.74582E-11 5.52363E-12
 -1      1212 1.79601E-01-4.62726E-02-3.76208E-10-5.75441E-02 4.97658E-12 1.30532E-12
 -1      1213 1.93130E-01-5.98019E-02 1.84221E-10-4.10913E-02 1.77338E-11 2.80327E-12
 -1      1215 1.91855E-01-5.85272E-02-3.75768E-10-1.98283E-02 5.84686E-12 4.07818E-13
 -1      1217-5.03248E-02 1.83653E-01-2.93243E-10-1.85292E-02-2.82170E-12-3.57782E-11
 -1      1218-5.13709E-02 1.84699E-01 1.98876E-10-3.83518E-02-3.97929E-12-2.52131E-11
 -1      1220-3.88731E-02 1.72201E-01-2.93330E-10-5.37738E-02-8.39674E-12-3.49430E-11
 -1      1221-3.37425E-02 1.67070E-01 1.98912E-10-7.29496E-02-7.94507E-12-2.42795E-11
 -1      1223-1.70907E-02 1.50419E-01-2.93114E-10-8.37547E-02-1.36790E-11-3.31814E-11
 -1      1224-6.28556E-03 1.39614E-01 1.98995E-10-1.00406E-01-1.17243E-11-2.28235E-11
 -1      1226 1.28902E-02 1.20438E-01-2.93361E-10-1.05537E-01-1.86306E-11-3.04799E-11
 -1      1227 2.83121E-02 1.05016E-01 1.98843E-10-1.18035E-01-1.48167E-11-2.06803E-11
 -1      1229 4.81348E-02 8.51932E-02-2.93253E-10-1.16989E-01-2.36838E-11-2.74308E-11
 -1      1230 6.66640E-02 6.66640E-02 1.98748E-10-1.24109E-01-1.79234E-11-1.79150E-11
 -1      1232 8.51932E-02 4.81348E-02-2.93245E-10-1.16989E-01-2.71695E-11-2.34647E-11
 -1      1233 1.05016E-01 2.83121E-02 1.99173E-10-1.18035E-01-2.10642E-11-1.50645E-11
 -1      1235 1.20438E-01 1.28902E-02-2.93194E-10-1.05537E-01-3.01837E-11-1.84959E-11
 -1      1236 1.39614E-01-6.28556E-03 1.98990E-10-1.00406E-01-2.28617E-11-1.17110E-11
 -1      1238 1.50419E-01-1.70907E-02-2.93264E-10-8.37547E-02-3.34081E-11-1.38309E-11
 -1      1239 1.67070E-01-3.37425E-02 1.98527E-10-7.29496E-02-2.37458E-11-7.90273E-12
 -1      1241 1.72201E-01-3.88731E-02-2.93264E-10-5.37738E-02-3.55013E-11-8.35390E-12
 -1      1242 1.84699E-01-5.13709E-02 1.98827E-10-3.83518E-02-2.51669E-11-3.98493E-12
 -1      1244 1.83653E-01-5.03248E-02-2.93186E-10-1.85292E-02-3.53167E-11-2.88868E-12
 -1      1246-4.29027E-02 1.76231E-01-4.59009E-10-1.73537E-02 1.96725E-11 2.49910E-10
 -1      1247-4.37557E-02 1.77084E-01 7.95870E-11-3.58775E-02 1.14814E-11 7.23776E-11
 -1      1249-3.21776E-02 1.65506E-01-4.58947E-10-5.03623E-02 5.84780E-11 2.43698E-10
 -1      1250-2.72646E-02 1.60593E-01 7.97300E-11-6.82431E-02 2.25928E-11 6.96865E-11
 -1      1252-1.17771E-02 1.45105E-01-4.58525E-10-7.84411E-02 9.59953E-11 2.31617E-10
 -1      1253-1.57914E-03 1.34907E-01 7.96558E-11-9.39286E-02 3.30460E-11 6.51685E-11
 -1      1255 1.63017E-02 1.17026E-01-4.59801E-10-9.88416E-02 1.31170E-10 2.13853E-10
 -1      1256 3.07865E-02 1.02542E-01 7.94884E-11-1.10420E-01 4.33126E-11 5.92292E-11
 -1      1258 4.93103E-02 8.40177E-02-4.58349E-10-1.09567E-01 1.62257E-10 1.90486E-10
 -1      1259 6.66640E-02 6.66640E-02 7.96784E-11-1.16102E-01 5.20257E-11 5.20110E-11
 -1      1261 8.40177E-02 4.93103E-02-4.58695E-10-1.09567E-01 1.90779E-10 1.62584E-10
 -1      1262 1.02542E-01 3.07865E-02 7.98164E-11-1.10420E-01 5.86987E-11 4.29716E-11
 -1      1264 1.17026E-01 1.63017E-02-4.59810E-10-9.88416E-02 2.14258E-10 1.31350E-10
 -1      1265 1.34907E-01-1.57914E-03 7.96064E-11-9.39286E-02 6.50900E-11 3.30939E-11
 -1      1267 1.45105E-01-1.17771E-02-4.58833E-10-7.84411E-02 2.31286E-10 9.57133E-11
 -1      1268 1.60593E-01-2.72646E-02 7.93789E-11-6.82431E-02 7.04349E-11 2.26537E-11
 -1      1270 1.65506E-01-3.21776E-02-4.58119E-10-5.03623E-02 2.42924E-10 5.86284E-11
 -1      1271 1.77084E-01-4.37557E-02 7.96149E-11-3.58775E-02 7.24462E-11 1.14700E-11
 -1      1273 1.76231E-01-4.29027E-02-4.59607E-10-1.73537E-02 2.50492E-10 1.95394E-11
 -1      1275-3.61651E-02 1.69493E-01-4.26735E-11-1.62865E-02-3.18421E-11-4.05003E-10
 -1      1276-3.68545E-02 1.70182E-01 4.45037E-10-3.36352E-02-5.52282E-11-3.48826E-10
 -1      1278-2.60995E-02 1.59427E-01-4.21029E-11-4.72654E-02-9.48989E-11-3.95096E-10
 -1      1279-2.13941E-02 1.54722E-01 4.45388E-10-6.39779E-02-1.09165E-10-3.35862E-10
 -1      1281-6.95352E-03 1.40281E-01-4.16140E-11-7.36175E-02-1.55355E-10-3.75203E-10
 -1      1282 2.68606E-03 1.30642E-01 4.44863E-10-8.80581E-02-1.60697E-10-3.14841E-10
 -1      1284 1.93986E-02 1.13929E-01-4.47428E-11-9.27635E-02-2.11980E-10-3.46425E-10
 -1      1285 3.30288E-02 1.00299E-01 4.44808E-10-1.03518E-01-2.07253E-10-2.85810E-10
 -1      1287 5.03775E-02 8.29505E-02-4.03381E-11-1.02829E-01-2.64582E-10-3.08911E-10
 -1      1288 6.66640E-02 6.66640E-02 4.45451E-10-1.08846E-01-2.49377E-10-2.49379E-10
 -1      1290 8.29505E-02 5.03775E-02-4.13361E-11-1.02829E-01-3.08513E-10-2.64186E-10
 -1      1291 1.00299E-01 3.30288E-02 4.45241E-10-1.03518E-01-2.86522E-10-2.07754E-10
 -1      1293 1.13929E-01 1.93986E-02-4.51593E-11-9.27635E-02-3.45841E-10-2.11704E-10
 -1      1294 1.30642E-01 2.68606E-03 4.44686E-10-8.80581E-02-3.14998E-10-1.60547E-10
 -1      1296 1.40281E-01-6.95352E-03-4.17245E-11-7.36175E-02-3.75634E-10-1.55845E-10
 -1      1297 1.54722E-01-2.13941E-02 4.45126E-10-6.39779E-02-3.34800E-10-1.09080E-10
 -1      1299 1.59427E-01-2.60995E-02-3.92387E-11-4.72654E-02-3.95953E-10-9.45583E-11
 -1      1300 1.70182E-01-3.68545E-02 4.45175E-10-3.36352E-02-3.48651E-10-5.52253E-11
 -1      1302 1.69493E-01-3.61651E-02-4.41818E-11-1.62865E-02-4.04246E-10-3.22146E-11
 -1      1304-3.00303E-02 1.63358E-01-1.64370E-09-1.53149E-02 1.84386E-10 2.34223E-09
 -1      1305-3.05806E-02 1.63909E-01-5.93398E-10-3.15967E-02 1.37295E-10 8.66484E-10
 -1      1307-2.05652E-02 1.53893E-01-1.64202E-09-4.44455E-02 5.48292E-10 2.28464E-09
 -1      1308-1.60572E-02 1.49385E-01-5.92734E-10-6.01005E-02 2.71169E-10 8.34340E-10
 -1      1310-2.56148E-03 1.35889E-01-1.64256E-09-6.92255E-02 8.99185E-10 2.17103E-09
 -1      1311 6.56351E-03 1.26764E-01-5.94450E-10-8.27212E-02 3.97684E-10 7.81407E-10
 -1      1313 2.22185E-02 1.11109E-01-1.64859E-09-8.72292E-02 1.22788E-09 2.00270E-09
 -1      1314 3.50673E-02 9.82607E-02-5.93865E-10-9.72446E-02 5.16104E-10 7.09647E-10
 -1      1316 5.13491E-02 8.19789E-02-1.63686E-09-9.66943E-02 1.52499E-09 1.78718E-09
 -1      1317 6.66640E-02 6.66640E-02-5.91233E-10-1.02249E-01 6.20966E-10 6.20675E-10
 -1      1319 8.19789E-02 5.13491E-02-1.64158E-09-9.66943E-02 1.78705E-09 1.52574E-09
 -1      1320 9.82607E-02 3.50673E-02-5.95016E-10-9.72446E-02 7.08595E-10 5.15251E-10
 -1      1322 1.11109E-01 2.22185E-02-1.65295E-09-8.72292E-02 2.00331E-09 1.22794E-09
 -1      1323 1.26764E-01 6.56351E-03-5.94993E-10-8.27212E-02 7.80979E-10 3.98132E-10
 -1      1325 1.35889E-01-2.56149E-03-1.64066E-09-6.92255E-02 2.17051E-09 8.98144E-10
 -1      1326 1.49385E-01-1.60572E-02-5.91496E-10-6.01005E-02 8.35884E-10 2.71261E-10
 -1      1328 1.53893E-01-2.05652E-02-1.63364E-09-4.44455E-02 2.28378E-09 5.49571E-10
 -1      1329 1.63909E-01-3.05806E-02-5.92825E-10-3.15967E-02 8.66650E-10 1.36938E-10
 -1      1331 1.63358E-01-3.00303E-02-1.65103E-09-1.53149E-02 2.34248E-09 1.84155E-10
 -1      1333-2.44285E-02 1.57756E-01 1.56515E-09-1.44276E-02-3.83334E-10-4.87357E-09
 -1      1334-2.48604E-02 1.58188E-01 2.89723E-09-2.97381E-02-5.62328E-10-3.55091E-09
 -1      1336-1.55117E-02 1.48840E-01 1.56811E-09-4.18706E-02-1.14120E-09-4.75310E-09
 -1      1337-1.11913E-02 1.44519E-01 2.89778E-09-5.65652E-02-1.11089E-09-3.41922E-09
 -1      1339 1.44899E-03 1.31879E-01 1.56427E-09-6.52150E-02-1.87005E-09-4.51611E-09
 -1      1340 1.00988E-02 1.23229E-01 2.89457E-09-7.78553E-02-1.63327E-09-3.20351E-09
 -1      1342 2.47934E-02 1.08535E-01 1.55674E-09-8.21757E-02-2.55396E-09-4.17059E-09
 -1      1343 3.69259E-02 9.64021E-02 2.89765E-09-9.15244E-02-2.11242E-09-2.90868E-09
 -1      1345 5.22364E-02 8.10916E-02 1.57900E-09-9.10925E-02-3.17498E-09-3.71472E-09
 -1      1346 6.66640E-02 6.66640E-02 2.90048E-09-9.62344E-02-2.54108E-09-2.54114E-09
 -1      1348 8.10916E-02 5.22364E-02 1.56773E-09-9.10925E-02-3.71481E-09-3.17659E-09
 -1      1349 9.64021E-02 3.69259E-02 2.89519E-09-9.15244E-02-2.91020E-09-2.11346E-09
 -1      1351 1.08535E-01 2.47934E-02 1.54547E-09-8.21757E-02-4.17088E-09-2.55495E-09
 -1      1352 1.23229E-01 1.00988E-02 2.89391E-09-7.78553E-02-3.20380E-09-1.63246E-09
 -1      1354 1.31879E-01 1.44898E-03 1.57335E-09-6.52150E-02-4.51562E-09-1.87145E-09
 -1      1355 1.44519E-01-1.11913E-02 2.90246E-09-5.65652E-02-3.41655E-09-1.11063E-09
 -1      1357 1.48840E-01-1.55117E-02 1.58794E-09-4.18706E-02-4.75113E-09-1.13956E-09
 -1      1358 1.58188E-01-2.48604E-02 2.89843E-09-2.97381E-02-3.55002E-09-5.62153E-10
 -1      1360 1.57756E-01-2.44285E-02 1.55071E-09-1.44276E-02-4.87519E-09-3.86176E-10
 -1      1362-1.92997E-02 1.52628E-01-9.81381E-09-1.36153E-02 1.59086E-09 2.02185E-08
 -1      1363-1.96303E-02 1.52958E-01-6.45116E-09-2.80387E-02 1.51667E-09 9.57185E-09
 -1      1365-1.08850E-02 1.44213E-01-9.81086E-09-3.95132E-02 4.73284E-09 1.97226E-08
 -1      1366-6.74234E-03 1.40070E-01-6.45241E-09-5.33328E-02 2.99544E-09 9.21614E-09
 -1      1368 5.12079E-03 1.28207E-01-9.82165E-09-6.15432E-02 7.75972E-09 1.87382E-08
 -1      1369 1.33312E-02 1.19997E-01-6.45949E-09-7.34063E-02 4.39789E-09 8.63407E-09
 -1      1371 2.71508E-02 1.06177E-01-9.82481E-09-7.75490E-02 1.05947E-08 1.72878E-08
 -1      1372 3.86253E-02 9.47027E-02-6.45143E-09-8.62943E-02 5.69714E-09 7.84004E-09
 -1      1374 5.30487E-02 8.02793E-02-9.78029E-09-8.59637E-02 1.31728E-08 1.54324E-08
 -1      1375 6.66640E-02 6.66640E-02-6.44157E-09-9.07352E-02 6.85445E-09 6.85112E-09
 -1      1377 8.02793E-02 5.30487E-02-9.81716E-09-8.59637E-02 1.54203E-08 1.31760E-08
 -1      1378 9.47027E-02 3.86253E-02-6.47342E-09-8.62943E-02 7.83702E-09 5.69389E-09
 -1      1380 1.06177E-01 2.71508E-02-9.86326E-09-7.75490E-02 1.72823E-08 1.05910E-08
 -1      1381 1.19997E-01 1.33312E-02-6.46369E-09-7.34063E-02 8.63087E-09 4.40086E-09
 -1      1383 1.28207E-01 5.12078E-03-9.78764E-09-6.15432E-02 1.87435E-08 7.75904E-09
 -1      1384 1.40070E-01-6.74234E-03-6.43472E-09-5.33328E-02 9.21895E-09 2.99503E-09
 -1      1386 1.44213E-01-1.08850E-02-9.75943E-09-3.95132E-02 1.97315E-08 4.74553E-09
 -1      1387 1.52958E-01-1.96303E-02-6.45146E-09-2.80387E-02 9.57055E-09 1.51186E-09
 -1      1389 1.52628E-01-1.92997E-02-9.86048E-09-1.36153E-02 2.02083E-08 1.59506E-09
 -1      1391-1.45919E-02 1.47920E-01 6.01448E-09-1.28697E-02-3.19036E-09-4.05583E-08
 -1      1392-1.48365E-02 1.48165E-01 2.23989E-08-2.64811E-02-5.34861E-09-3.37677E-08
 -1      1394-6.63800E-03 1.39966E-01 6.01272E-09-3.73492E-02-9.49366E-09-3.95575E-08
 -1      1395-2.66451E-03 1.35992E-01 2.23942E-08-5.03701E-02-1.05676E-08-3.25145E-08
 -1      1397 8.49119E-03 1.24837E-01 6.00053E-09-5.81727E-02-1.55606E-08-3.75954E-08
 -1      1398 1.62939E-02 1.17034E-01 2.23956E-08-6.93285E-02-1.55259E-08-3.04593E-08
 -1      1400 2.93147E-02 1.04013E-01 6.02448E-09-7.33019E-02-2.12577E-08-3.47037E-08
 -1      1401 4.01829E-02 9.31451E-02 2.24187E-08-8.15005E-02-2.00913E-08-2.76592E-08
 -1      1403 5.37943E-02 7.95336E-02 6.05462E-09-8.12558E-02-2.64032E-08-3.09069E-08
 -1      1404 6.66640E-02 6.66640E-02 2.24057E-08-8.56947E-02-2.41741E-08-2.41643E-08
 -1      1406 7.95336E-02 5.37943E-02 6.00520E-09-8.12558E-02-3.09112E-08-2.64584E-08
 -1      1407 9.31451E-02 4.01829E-02 2.24014E-08-8.15005E-02-2.76613E-08-2.00873E-08
 -1      1409 1.04013E-01 2.93147E-02 5.96930E-09-7.33019E-02-3.47382E-08-2.12797E-08
 -1      1410 1.17034E-01 1.62939E-02 2.24046E-08-6.93285E-02-3.04515E-08-1.55263E-08
 -1      1412 1.24837E-01 8.49118E-03 6.05170E-09-5.81727E-02-3.75703E-08-1.55495E-08
 -1      1413 1.35992E-01-2.66451E-03 2.24398E-08-5.03701E-02-3.25042E-08-1.05645E-08
 -1      1415 1.39966E-01-6.63800E-03 6.06963E-09-3.73492E-02-3.95064E-08-9.50227E-09
 -1      1416 1.48165E-01-1.48365E-02 2.24116E-08-2.64811E-02-3.37572E-08-5.33166E-09
 -1      1418 1.47920E-01-1.45919E-02 5.95964E-09-1.28697E-02-4.06108E-08-3.23821E-09
 -1      1420-1.02614E-02 1.43590E-01-5.62764E-08-1.21838E-02 1.09036E-08 1.38630E-07
 -1      1421-1.04297E-02 1.43758E-01-4.47047E-08-2.50493E-02 1.36798E-08 8.63242E-08
 -1      1423-2.73141E-03 1.36060E-01-5.63047E-08-3.53589E-02 3.24463E-08 1.35220E-07
 -1      1424 1.08419E-03 1.32244E-01-4.47108E-08-4.76465E-02 2.70161E-08 8.31154E-08
 -1      1426 1.15915E-02 1.21737E-01-5.63296E-08-5.50727E-02 5.31836E-08 1.28459E-07
 -1      1427 1.90175E-02 1.14311E-01-4.47087E-08-6.55798E-02 3.96849E-08 7.78708E-08
 -1      1429 3.13054E-02 1.02023E-01-5.63201E-08-6.93957E-02 7.26267E-08 1.18556E-07
 -1      1430 4.16148E-02 9.17133E-02-4.46942E-08-7.70937E-02 5.13850E-08 7.07025E-08
 -1      1432 5.44804E-02 7.88481E-02-5.63849E-08-7.69257E-02 9.03346E-08 1.05826E-07
 -1      1433 6.66640E-02 6.66640E-02-4.46750E-08-8.10611E-02 6.18123E-08 6.17608E-08
 -1      1435 7.88481E-02 5.44804E-02-5.63910E-08-7.69257E-02 1.05651E-07 9.03716E-08
 -1      1436 9.17133E-02 4.16148E-02-4.48141E-08-7.70937E-02 7.06983E-08 5.13421E-08
 -1      1438 1.02023E-01 3.13054E-02-5.63516E-08-6.93957E-02 1.18457E-07 7.25798E-08
 -1      1439 1.14311E-01 1.90175E-02-4.47418E-08-6.55798E-02 7.78384E-08 3.96821E-08
 -1      1441 1.21737E-01 1.15915E-02-5.63676E-08-5.50727E-02 1.28561E-07 5.32274E-08
 -1      1442 1.32244E-01 1.08418E-03-4.46686E-08-4.76465E-02 8.30949E-08 2.69909E-08
 -1      1444 1.36060E-01-2.73141E-03-5.63473E-08-3.53589E-02 1.35353E-07 3.25811E-08
 -1      1445 1.43758E-01-1.04297E-02-4.47448E-08-2.50493E-02 8.62813E-08 1.36191E-08
 -1      1447 1.43590E-01-1.02614E-02-5.62490E-08-1.21838E-02 1.38509E-07 1.10029E-08
 -1      1449-6.26451E-03 1.39590E-01-2.29514E-07-1.15505E-02-1.07694E-10-1.55855E-09
 -1      1450-6.37771E-03 1.39705E-01 1.41812E-07-2.37326E-02-4.26869E-08-2.69444E-07
 -1      1452 8.74112E-04 1.32451E-01-2.29539E-07-3.35210E-02-3.32412E-10-1.54824E-09
 -1      1453 4.53099E-03 1.28797E-01 1.41783E-07-4.51422E-02-8.43410E-08-2.59439E-07
 -1      1455 1.44526E-02 1.18873E-01-2.29500E-07-5.22101E-02-5.44581E-10-1.56084E-09
 -1      1456 2.15217E-02 1.11806E-01 1.41797E-07-6.21329E-02-1.23843E-07-2.43049E-07
 -1      1458 3.31417E-02 1.00184E-01-2.29557E-07-6.57886E-02-8.83301E-10-1.31333E-09
 -1      1459 4.29312E-02 9.03965E-02 1.41751E-07-7.30416E-02-1.60347E-07-2.20785E-07
 -1      1461 5.51122E-02 7.82132E-02-2.29859E-07-7.29272E-02-8.74646E-10-9.80419E-10
 -1      1462 6.66638E-02 6.66638E-02 1.41601E-07-7.68004E-02-1.93114E-07-1.92722E-07
 -1      1464 7.82132E-02 5.51122E-02-2.29398E-07-7.29272E-02-8.49199E-10-1.77806E-09
 -1      1465 9.03965E-02 4.29312E-02 1.41967E-07-7.30416E-02-2.20733E-07-1.60084E-07
 -1      1467 1.00184E-01 3.31417E-02-2.28977E-07-6.57886E-02-1.89946E-09-8.73958E-10
 -1      1468 1.11806E-01 2.15217E-02 1.41804E-07-6.21329E-02-2.42836E-07-1.23971E-07
 -1      1470 1.18873E-01 1.44526E-02-2.29614E-07-5.22101E-02-1.26778E-09-3.78311E-11
 -1      1471 1.28797E-01 4.53098E-03 1.41622E-07-4.51422E-02-2.59457E-07-8.42554E-08
 -1      1473 1.32451E-01 8.74110E-04-2.29647E-07-3.35210E-02-8.93234E-10-7.86335E-10
 -1      1474 1.39705E-01-6.37772E-03 1.41827E-07-2.37326E-02-2.69292E-07-4.21302E-08
 -1      1476 1.39590E-01-6.26451E-03-2.28506E-07-1.15505E-02-2.18302E-09-1.08318E-09
 -1      1478-2.58875E-03 1.35919E-01 1.78573E-07-1.09687E-02-2.57648E-08-3.27415E-07
 -1      1479-2.60943E-03 1.35939E-01 2.59211E-08-2.25086E-02 6.02892E-08 3.81032E-07
 -1      1481 4.19029E-03 1.29140E-01 1.78721E-07-3.18324E-02-7.66840E-08-3.19356E-07
 -1      1482 7.73665E-03 1.25593E-01 2.58819E-08-4.28139E-02 1.19243E-07 3.66994E-07
 -1      1484 1.70848E-02 1.16245E-01 1.79003E-07-4.95802E-02-1.25808E-07-3.03370E-07
 -1      1485 2.38510E-02 1.09479E-01 2.56780E-08-5.89283E-02 1.75304E-07 3.43924E-07
 -1      1487 3.48325E-02 9.84974E-02 1.79165E-07-6.24747E-02-1.71782E-07-2.79465E-07
 -1      1488 4.41564E-02 8.91736E-02 2.54146E-08-6.92744E-02 2.26845E-07 3.12264E-07
 -1      1490 5.56962E-02 7.76336E-02 1.78797E-07-6.92537E-02-2.12977E-07-2.48816E-07
 -1      1491 6.66650E-02 6.66650E-02 2.58806E-08-7.28394E-02 2.73437E-07 2.72155E-07
 -1      1493 7.76337E-02 5.56962E-02 1.78961E-07-6.92537E-02-2.49852E-07-2.13293E-07
 -1      1494 8.91736E-02 4.41564E-02 2.60844E-08-6.92744E-02 3.12637E-07 2.26034E-07
 -1      1496 9.84974E-02 3.48325E-02 1.79048E-07-6.24747E-02-2.80855E-07-1.70892E-07
 -1      1497 1.09479E-01 2.38511E-02 2.59496E-08-5.89283E-02 3.43624E-07 1.75185E-07
 -1      1499 1.16245E-01 1.70848E-02 1.77954E-07-4.95802E-02-3.02266E-07-1.23867E-07
 -1      1500 1.25593E-01 7.73664E-03 2.57745E-08-4.28139E-02 3.66629E-07 1.18387E-07
 -1      1502 1.29140E-01 4.19028E-03 1.77028E-07-3.18324E-02-3.17549E-07-7.63372E-08
 -1      1503 1.35939E-01-2.60944E-03 2.69169E-08-2.25086E-02 3.80323E-07 5.84385E-08
 -1      1505 1.35919E-01-2.58874E-03 1.77257E-07-1.09687E-02-3.28430E-07-2.64101E-08
 -1      1507 1.04979E-03 1.32277E-01-1.31227E-07-2.13191E-02-2.41971E-08-1.55517E-07
 -1      1509 1.08491E-02 1.22477E-01-1.30765E-07-4.05514E-02-4.77405E-08-1.49637E-07
 -1      1511 2.61119E-02 1.07215E-01-1.29255E-07-5.58142E-02-7.04729E-08-1.40398E-07
 -1      1513 4.53442E-02 8.79824E-02-1.26828E-07-6.56135E-02-9.22940E-08-1.28611E-07
 -1      1515 6.66633E-02 6.66633E-02-1.28440E-07-6.89901E-02-1.11120E-07-1.13361E-07
 -1      1517 8.79825E-02 4.53442E-02-1.31833E-07-6.56135E-02-1.26967E-07-9.39245E-08
 -1      1519 1.07215E-01 2.61119E-02-1.27773E-07-5.58142E-02-1.43343E-07-7.32300E-08
 -1      1521 1.22477E-01 1.08491E-02-1.23629E-07-4.05514E-02-1.57006E-07-5.14419E-08
 -1      1523 1.32277E-01 1.04978E-03-1.32617E-07-2.13191E-02-1.62044E-07-2.68455E-08
 -1      1526-8.22206E-01 9.55537E-01 9.97017E-08 3.36958E-04-1.17155E-08-2.87418E-06
 -1      1527-8.22205E-01 9.55537E-01 7.99149E-07 3.36955E-04 3.97559E-09-8.99709E-07
 -1      1528-8.22205E-01 9.55537E-01 1.18584E-06 3.36948E-04 2.06997E-09-2.86045E-07
 -1      1529-8.22206E-01 9.55537E-01 1.26543E-06 3.36947E-04 7.04301E-10-1.11998E-07
 -1      1530-8.22206E-01 9.55537E-01 1.25256E-06 3.36946E-04 1.57170E-10-3.23000E-08
 -1      1531-8.22206E-01 9.55537E-01 1.25256E-06 3.36946E-04-1.57179E-10 3.23000E-08
 -1      1532-8.22206E-01 9.55537E-01 1.26543E-06 3.36947E-04-7.04281E-10 1.11998E-07
 -1      1533-8.22205E-01 9.55537E-01 1.18584E-06 3.36948E-04-2.06993E-09 2.86045E-07
 -1      1534-8.22205E-01 9.55537E-01 7.99149E-07 3.36955E-04-3.97562E-09 8.99709E-07
 -1      1535-8.22206E-01 9.55537E-01 9.97017E-08 3.36958E-04 1.17155E-08 2.87418E-06
 -1      1536-6.80490E-01 8.13828E-01 2.55871E-06-9.84033E-04 2.73053E-08 2.03561E-06
 -1      1537-6.80491E-01 8.13828E-01 2.98367E-06-9.84055E-04 9.13612E-09 9.06838E-07
 -1      1538-6.80491E-01 8.13828E-01 2.97072E-06-9.84057E-04-1.60873E-11 3.42753E-07
 -1      1539-6.80491E-01 8.13828E-01 2.86501E-06-9.84057E-04-6.81604E-10 1.38816E-07
 -1      1540-6.80491E-01 8.13828E-01 2.81657E-06-9.84057E-04-2.89181E-10 3.93098E-08
 -1      1541-6.80491E-01 8.13828E-01 2.81657E-06-9.84057E-04 2.89169E-10-3.93098E-08
 -1      1542-6.80491E-01 8.13828E-01 2.86501E-06-9.84057E-04 6.81581E-10-1.38816E-07
 -1      1543-6.80491E-01 8.13828E-01 2.97072E-06-9.84057E-04 1.60731E-11-3.42753E-07
 -1      1544-6.80491E-01 8.13828E-01 2.98367E-06-9.84055E-04-9.13613E-09-9.06838E-07
 -1      1545-6.80490E-01 8.13828E-01 2.55871E-06-9.84033E-04-2.73053E-08-2.03561E-06
 -1      1546-5.70341E-01 7.03666E-01-6.69970E-07-5.36394E-04 1.06397E-08-6.64997E-07
 -1      1547-5.70340E-01 7.03666E-01-8.65811E-07-5.36388E-04-4.30941E-09-3.94253E-07
 -1      1548-5.70340E-01 7.03666E-01-8.54202E-07-5.36383E-04-1.76411E-09-1.26736E-07
 -1      1549-5.70340E-01 7.03666E-01-7.89480E-07-5.36381E-04-2.02617E-10-1.84145E-08
 -1      1550-5.70340E-01 7.03666E-01-7.42319E-07-5.36381E-04 2.49469E-11 9.34880E-10
 -1      1551-5.70340E-01 7.03666E-01-7.42319E-07-5.36381E-04-2.49642E-11-9.34843E-10
 -1      1552-5.70340E-01 7.03666E-01-7.89480E-07-5.36381E-04 2.02629E-10 1.84145E-08
 -1      1553-5.70340E-01 7.03666E-01-8.54202E-07-5.36383E-04 1.76412E-09 1.26736E-07
 -1      1554-5.70340E-01 7.03666E-01-8.65811E-07-5.36388E-04 4.30942E-09 3.94253E-07
 -1      1555-5.70341E-01 7.03666E-01-6.69970E-07-5.36394E-04-1.06397E-08 6.64997E-07
 -1      1556-4.82808E-01 6.16137E-01 1.85047E-07-5.40945E-04-9.89744E-09 1.72989E-07
 -1      1557-4.82808E-01 6.16137E-01 2.28692E-07-5.40944E-04-1.00230E-09 9.39143E-08
 -1      1558-4.82808E-01 6.16137E-01 1.98252E-07-5.40946E-04 1.25317E-09 3.43747E-08
 -1      1559-4.82808E-01 6.16137E-01 1.77620E-07-5.40947E-04 6.26380E-10 3.40514E-10
 -1      1560-4.82808E-01 6.16137E-01 1.64836E-07-5.40947E-04 1.19736E-10-3.29784E-09
 -1      1561-4.82808E-01 6.16137E-01 1.64836E-07-5.40947E-04-1.19763E-10 3.29780E-09
 -1      1562-4.82808E-01 6.16137E-01 1.77620E-07-5.40947E-04-6.26391E-10-3.40500E-10
 -1      1563-4.82808E-01 6.16137E-01 1.98252E-07-5.40946E-04-1.25322E-09-3.43747E-08
 -1      1564-4.82808E-01 6.16137E-01 2.28692E-07-5.40944E-04 1.00225E-09-9.39143E-08
 -1      1565-4.82808E-01 6.16137E-01 1.85047E-07-5.40945E-04 9.89745E-09-1.72989E-07
 -1      1566-4.12151E-01 5.45478E-01-6.10630E-08-4.51235E-04 3.18741E-09-6.08780E-08
 -1      1567-4.12151E-01 5.45478E-01-7.67734E-08-4.51235E-04 7.21870E-10-2.61156E-08
 -1      1568-4.12151E-01 5.45478E-01-6.38635E-08-4.51235E-04-2.20201E-10-8.20699E-09
 -1      1569-4.12151E-01 5.45478E-01-5.63418E-08-4.51234E-04-3.82865E-10-2.14811E-09
 -1      1570-4.12151E-01 5.45478E-01-5.41979E-08-4.51234E-04-1.16817E-10 1.68031E-11
 -1      1571-4.12151E-01 5.45478E-01-5.41979E-08-4.51234E-04 1.16810E-10-1.68260E-11
 -1      1572-4.12151E-01 5.45478E-01-5.63418E-08-4.51234E-04 3.82879E-10 2.14811E-09
 -1      1573-4.12151E-01 5.45478E-01-6.38635E-08-4.51235E-04 2.20190E-10 8.20706E-09
 -1      1574-4.12151E-01 5.45478E-01-7.67734E-08-4.51235E-04-7.21861E-10 2.61156E-08
 -1      1575-4.12151E-01 5.45478E-01-6.10630E-08-4.51235E-04-3.18744E-09 6.08779E-08
 -1      1576-3.54284E-01 4.87612E-01 1.06427E-08-4.01952E-04-1.42514E-09 1.37486E-08
 -1      1577-3.54284E-01 4.87612E-01 1.38576E-08-4.01952E-04-1.69365E-10 8.52382E-09
 -1      1578-3.54284E-01 4.87612E-01 9.10395E-09-4.01952E-04 7.70591E-11 2.37738E-09
 -1      1579-3.54284E-01 4.87612E-01 6.82025E-09-4.01952E-04 1.02910E-10 8.90049E-11
 -1      1580-3.54284E-01 4.87612E-01 5.87738E-09-4.01952E-04 4.96196E-11 1.91482E-11
 -1      1581-3.54284E-01 4.87612E-01 5.87736E-09-4.01952E-04-4.96308E-11-1.91450E-11
 -1      1582-3.54284E-01 4.87612E-01 6.82025E-09-4.01952E-04-1.02925E-10-8.90111E-11
 -1      1583-3.54284E-01 4.87612E-01 9.10396E-09-4.01952E-04-7.70532E-11-2.37737E-09
 -1      1584-3.54284E-01 4.87612E-01 1.38576E-08-4.01952E-04 1.69372E-10-8.52382E-09
 -1      1585-3.54284E-01 4.87612E-01 1.06427E-08-4.01952E-04 1.42516E-09-1.37486E-08
 -1      1586-3.06302E-01 4.39629E-01-8.31458E-09-3.54800E-04 3.43300E-10-5.28887E-09
 -1      1587-3.06302E-01 4.39629E-01-9.49454E-09-3.54800E-04 1.24160E-10-1.45764E-09
 -1      1588-3.06302E-01 4.39629E-01-7.70153E-09-3.54800E-04-3.07905E-11-6.82518E-10
 -1      1589-3.06302E-01 4.39629E-01-6.97198E-09-3.54799E-04-4.11728E-11-8.14145E-11
 -1      1590-3.06302E-01 4.39629E-01-6.81559E-09-3.54799E-04-9.69051E-12 9.07232E-11
 -1      1591-3.06302E-01 4.39629E-01-6.81557E-09-3.54799E-04 9.69812E-12-9.07418E-11
 -1      1592-3.06302E-01 4.39629E-01-6.97198E-09-3.54799E-04 4.11698E-11 8.13918E-11
 -1      1593-3.06302E-01 4.39629E-01-7.70152E-09-3.54800E-04 3.07694E-11 6.82519E-10
 -1      1594-3.06302E-01 4.39629E-01-9.49449E-09-3.54800E-04-1.24175E-10 1.45767E-09
 -1      1595-3.06302E-01 4.39629E-01-8.31459E-09-3.54800E-04-3.43330E-10 5.28881E-09
 -1      1596-2.66075E-01 3.99403E-01-1.69547E-09-3.16890E-04-1.47113E-10 9.88466E-10
 -1      1597-2.66075E-01 3.99403E-01-1.47991E-09-3.16890E-04-8.83024E-12 8.39667E-10
 -1      1598-2.66075E-01 3.99403E-01-1.98897E-09-3.16890E-04-3.23116E-12 1.12247E-10
 -1      1599-2.66075E-01 3.99403E-01-2.19487E-09-3.16890E-04 1.25735E-11 6.59481E-11
 -1      1600-2.66075E-01 3.99403E-01-2.24723E-09-3.16890E-04 6.37502E-12 3.43515E-11
 -1      1601-2.66075E-01 3.99403E-01-2.24724E-09-3.16890E-04-6.35766E-12-3.43844E-11
 -1      1602-2.66075E-01 3.99403E-01-2.19485E-09-3.16890E-04-1.25535E-11-6.59392E-11
 -1      1603-2.66075E-01 3.99403E-01-1.98896E-09-3.16890E-04 3.24950E-12-1.12269E-10
 -1      1604-2.66075E-01 3.99403E-01-1.47989E-09-3.16890E-04 8.83661E-12-8.39651E-10
 -1      1605-2.66075E-01 3.99403E-01-1.69544E-09-3.16890E-04 1.47081E-10-9.88478E-10
 -1      1606-2.32019E-01 3.65347E-01-2.69312E-09-2.84370E-04 3.04078E-11-4.34560E-10
 -1      1607-2.32019E-01 3.65347E-01-2.76484E-09-2.84370E-04 1.60174E-11-3.62068E-11
 -1      1608-2.32019E-01 3.65347E-01-2.56934E-09-2.84370E-04-5.31351E-12-9.01714E-11
 -1      1609-2.32019E-01 3.65347E-01-2.50846E-09-2.84370E-04-2.15720E-12 1.61264E-11
 -1      1610-2.32019E-01 3.65347E-01-2.49244E-09-2.84370E-04-9.87139E-13 8.92079E-12
 -1      1611-2.32019E-01 3.65347E-01-2.49245E-09-2.84370E-04 9.77832E-13-8.95928E-12
 -1      1612-2.32019E-01 3.65347E-01-2.50846E-09-2.84370E-04 2.14683E-12-1.61541E-11
 -1      1613-2.32019E-01 3.65347E-01-2.56932E-09-2.84370E-04 5.28975E-12 9.02066E-11
 -1      1614-2.32019E-01 3.65347E-01-2.76483E-09-2.84370E-04-1.60388E-11 3.62003E-11
 -1      1615-2.32019E-01 3.65347E-01-2.69312E-09-2.84370E-04-3.03914E-11 4.34568E-10
 -1      1616-2.02935E-01 3.36263E-01-1.73068E-09-2.56704E-04-1.10668E-11 9.09200E-11
 -1      1617-2.02935E-01 3.36263E-01-1.71284E-09-2.56704E-04 5.57957E-13 8.41314E-11
 -1      1618-2.02935E-01 3.36263E-01-1.75932E-09-2.56704E-04-2.08598E-12-1.22248E-11
 -1      1619-2.02935E-01 3.36263E-01-1.77800E-09-2.56704E-04 1.86671E-12 1.70529E-11
 -1      1620-2.02935E-01 3.36263E-01-1.77946E-09-2.56704E-04 2.43998E-13 3.32743E-14
 -1      1621-2.02935E-01 3.36263E-01-1.77943E-09-2.56704E-04-2.53657E-13-6.51476E-14
 -1      1622-2.02935E-01 3.36263E-01-1.77799E-09-2.56704E-04-1.84282E-12-1.70987E-11
 -1      1623-2.02935E-01 3.36263E-01-1.75932E-09-2.56704E-04 2.10223E-12 1.22268E-11
 -1      1624-2.02935E-01 3.36263E-01-1.71283E-09-2.56704E-04-5.74028E-13-8.41070E-11
 -1      1625-2.02935E-01 3.36263E-01-1.73068E-09-2.56704E-04 1.10229E-11-9.09183E-11
 -1      1626-1.77899E-01 3.11226E-01-1.49711E-09-2.32859E-04 4.71989E-12-6.54076E-12
 -1      1627-1.77899E-01 3.11226E-01-1.49427E-09-2.32859E-04 1.57460E-12 8.85977E-13
 -1      1628-1.77899E-01 3.11226E-01-1.47527E-09-2.32859E-04-9.94614E-13-1.62444E-11
 -1      1629-1.77899E-01 3.11226E-01-1.47206E-09-2.32859E-04 2.86080E-13 6.41102E-12
 -1      1630-1.77899E-01 3.11226E-01-1.47010E-09-2.32859E-04-3.22565E-13-2.65504E-12
 -1      1631-1.77899E-01 3.11226E-01-1.47010E-09-2.32859E-04 3.52128E-13 2.62386E-12
 -1      1632-1.77899E-01 3.11226E-01-1.47209E-09-2.32859E-04-2.89869E-13-6.42619E-12
 -1      1633-1.77899E-01 3.11226E-01-1.47528E-09-2.32859E-04 9.99067E-13 1.62171E-11
 -1      1634-1.77899E-01 3.11226E-01-1.49428E-09-2.32859E-04-1.54782E-12-8.79430E-13
 -1      1635-1.77899E-01 3.11226E-01-1.49709E-09-2.32859E-04-4.66716E-12 6.53812E-12
 -1      1636-1.56194E-01 2.89521E-01-1.17586E-09-2.12194E-04 1.34753E-12 3.42032E-11
 -1      1637-1.56194E-01 2.89521E-01-1.16949E-09-2.12194E-04-1.85573E-13 3.08009E-12
 -1      1638-1.56194E-01 2.89521E-01-1.17339E-09-2.12194E-04-3.91824E-13-4.34531E-12
 -1      1639-1.56194E-01 2.89521E-01-1.17573E-09-2.12194E-04 3.52945E-13 3.96672E-12
 -1      1640-1.56194E-01 2.89521E-01-1.17538E-09-2.12194E-04-1.49803E-13-2.15007E-12
 -1      1641-1.56194E-01 2.89521E-01-1.17541E-09-2.12194E-04 1.37510E-13 2.15105E-12
 -1      1642-1.56194E-01 2.89521E-01-1.17573E-09-2.12194E-04-3.63002E-13-3.99291E-12
 -1      1643-1.56194E-01 2.89521E-01-1.17337E-09-2.12194E-04 4.18166E-13 4.36726E-12
 -1      1644-1.56194E-01 2.89521E-01-1.16948E-09-2.12194E-04 2.13482E-13-3.09599E-12
 -1      1645-1.56194E-01 2.89521E-01-1.17584E-09-2.12194E-04-1.36800E-12-3.42336E-11
 -1      1646-1.37254E-01 2.70582E-01-9.69455E-10-1.94160E-04 2.30094E-12 2.39638E-11
 -1      1647-1.37254E-01 2.70582E-01-9.64314E-10-1.94160E-04-2.66498E-13-4.72903E-12
 -1      1648-1.37254E-01 2.70582E-01-9.62608E-10-1.94160E-04-1.03939E-13-1.97826E-12
 -1      1649-1.37254E-01 2.70582E-01-9.62963E-10-1.94160E-04 1.39200E-13 1.69928E-12
 -1      1650-1.37254E-01 2.70582E-01-9.62608E-10-1.94160E-04-1.31842E-13-1.54404E-12
 -1      1651-1.37254E-01 2.70582E-01-9.62579E-10-1.94160E-04 1.28017E-13 1.52435E-12
 -1      1652-1.37254E-01 2.70582E-01-9.62951E-10-1.94160E-04-1.44481E-13-1.72296E-12
 -1      1653-1.37254E-01 2.70582E-01-9.62608E-10-1.94160E-04 7.23509E-14 1.95818E-12
 -1      1654-1.37254E-01 2.70582E-01-9.64317E-10-1.94160E-04 2.35371E-13 4.72062E-12
 -1      1655-1.37254E-01 2.70582E-01-9.69446E-10-1.94160E-04-2.29249E-12-2.39847E-11
 -1      1656-1.20629E-01 2.53957E-01-7.96367E-10-1.78330E-04 1.73011E-12 2.28875E-11
 -1      1657-1.20629E-01 2.53957E-01-7.92160E-10-1.78330E-04-3.60038E-13-4.50762E-12
 -1      1658-1.20629E-01 2.53957E-01-7.92462E-10-1.78330E-04-4.41686E-14-1.09125E-13
 -1      1659-1.20629E-01 2.53957E-01-7.93004E-10-1.78330E-04 7.39055E-14 9.35195E-13
 -1      1660-1.20629E-01 2.53957E-01-7.92808E-10-1.78330E-04-8.86123E-14-9.72209E-13
 -1      1661-1.20629E-01 2.53957E-01-7.92816E-10-1.78330E-04 8.22381E-14 9.54976E-13
 -1      1662-1.20629E-01 2.53957E-01-7.93002E-10-1.78330E-04-6.85265E-14-9.58994E-13
 -1      1663-1.20629E-01 2.53957E-01-7.92464E-10-1.78330E-04 7.55777E-15 8.88964E-14
 -1      1664-1.20629E-01 2.53957E-01-7.92142E-10-1.78330E-04 3.88645E-13 4.44890E-12
 -1      1665-1.20629E-01 2.53957E-01-7.96343E-10-1.78330E-04-1.73120E-12-2.29008E-11
 -1      1666-1.05957E-01 2.39285E-01-6.63240E-10-1.64359E-04 1.46807E-12 1.78678E-11
 -1      1667-1.05957E-01 2.39285E-01-6.59745E-10-1.64359E-04-3.09138E-13-4.16235E-12
 -1      1668-1.05957E-01 2.39285E-01-6.59679E-10-1.64359E-04 6.56160E-14 1.38129E-13
 -1      1669-1.05957E-01 2.39285E-01-6.59961E-10-1.64359E-04 7.83441E-14 6.20380E-13
 -1      1670-1.05957E-01 2.39285E-01-6.59809E-10-1.64359E-04-4.74068E-14-7.36613E-13
 -1      1671-1.05957E-01 2.39285E-01-6.59791E-10-1.64359E-04 6.50203E-14 6.87892E-13
 -1      1672-1.05957E-01 2.39285E-01-6.59943E-10-1.64359E-04-4.76689E-14-5.96527E-13
 -1      1673-1.05957E-01 2.39285E-01-6.59668E-10-1.64359E-04 8.01272E-15-1.65109E-13
 -1      1674-1.05957E-01 2.39285E-01-6.59759E-10-1.64359E-04 3.34188E-13 4.13825E-12
 -1      1675-1.05957E-01 2.39285E-01-6.63252E-10-1.64359E-04-1.46266E-12-1.78398E-11
 -1      1676-9.29439E-02 2.26272E-01-5.56427E-10-1.51967E-04 1.05281E-12 1.38317E-11
 -1      1677-9.29439E-02 2.26272E-01-5.53727E-10-1.51967E-04-2.33759E-13-2.47706E-12
 -1      1678-9.29439E-02 2.26272E-01-5.53685E-10-1.51967E-04-5.48861E-14-2.07968E-13
 -1      1679-9.29439E-02 2.26272E-01-5.53847E-10-1.51967E-04 4.50828E-14 8.36097E-13
 -1      1680-9.29439E-02 2.26272E-01-5.53765E-10-1.51967E-04-6.46979E-14-7.58151E-13
 -1      1681-9.29439E-02 2.26272E-01-5.53781E-10-1.51967E-04 6.35025E-14 7.58860E-13
 -1      1682-9.29439E-02 2.26272E-01-5.53864E-10-1.51967E-04-4.98577E-14-8.34952E-13
 -1      1683-9.29439E-02 2.26272E-01-5.53687E-10-1.51967E-04-3.11388E-15 2.21332E-13
 -1      1684-9.29439E-02 2.26272E-01-5.53728E-10-1.51967E-04 2.17065E-13 2.46695E-12
 -1      1685-9.29439E-02 2.26272E-01-5.56430E-10-1.51967E-04-1.04261E-12-1.38462E-11
 -1      1686-8.13480E-02 2.14676E-01-4.69920E-10-1.40926E-04 8.17635E-13 8.08569E-12
 -1      1687-8.13480E-02 2.14676E-01-4.66937E-10-1.40926E-04 3.04110E-14-3.18957E-13
 -1      1688-8.13480E-02 2.14676E-01-4.67787E-10-1.40926E-04-8.79876E-14-1.33842E-12
 -1      1689-8.13480E-02 2.14676E-01-4.68170E-10-1.40926E-04 9.29952E-14 1.47906E-12
 -1      1690-8.13480E-02 2.14676E-01-4.68202E-10-1.40926E-04-8.53339E-14-9.25924E-13
 -1      1691-8.13480E-02 2.14676E-01-4.68209E-10-1.40926E-04 8.49775E-14 9.22220E-13
 -1      1692-8.13480E-02 2.14676E-01-4.68149E-10-1.40926E-04-1.01689E-13-1.46547E-12
 -1      1693-8.13480E-02 2.14676E-01-4.67805E-10-1.40926E-04 1.32504E-13 1.33555E-12
 -1      1694-8.13480E-02 2.14676E-01-4.66939E-10-1.40926E-04-2.49307E-14 3.04074E-13
 -1      1695-8.13480E-02 2.14676E-01-4.69935E-10-1.40926E-04-8.36524E-13-8.08646E-12
 -1      1696-7.09712E-02 2.04299E-01-4.03147E-10-1.31045E-04-1.96131E-13 4.65087E-12
 -1      1697-7.09712E-02 2.04299E-01-4.02495E-10-1.31045E-04 1.47707E-13 5.79610E-12
 -1      1698-7.09712E-02 2.04299E-01-4.01389E-10-1.31045E-04-3.63163E-13-2.42528E-12
 -1      1699-7.09712E-02 2.04299E-01-4.01254E-10-1.31045E-04 1.66649E-13 3.26372E-12
 -1      1700-7.09712E-02 2.04299E-01-4.01318E-10-1.31045E-04-1.34492E-13-1.10879E-12
 -1      1701-7.09712E-02 2.04299E-01-4.01338E-10-1.31045E-04 8.55212E-14 1.11453E-12
 -1      1702-7.09712E-02 2.04299E-01-4.01253E-10-1.31045E-04-1.77866E-13-3.26753E-12
 -1      1703-7.09712E-02 2.04299E-01-4.01385E-10-1.31045E-04 3.44026E-13 2.45961E-12
 -1      1704-7.09712E-02 2.04299E-01-4.02493E-10-1.31045E-04-1.53547E-13-5.80198E-12
 -1      1705-7.09712E-02 2.04299E-01-4.03153E-10-1.31045E-04 2.02440E-13-4.63072E-12
 -1      1706-6.16483E-02 1.94976E-01-3.38166E-10-1.22168E-04 6.90030E-13-1.57928E-11
 -1      1707-6.16483E-02 1.94976E-01-3.28811E-10-1.22168E-04 1.28586E-12 1.01535E-11
 -1      1708-6.16483E-02 1.94976E-01-3.36385E-10-1.22168E-04-4.62474E-13-6.74165E-12
 -1      1709-6.16483E-02 1.94976E-01-3.38871E-10-1.22168E-04 3.12706E-13 5.41644E-12
 -1      1710-6.16483E-02 1.94976E-01-3.39574E-10-1.22168E-04-1.29932E-13-1.23521E-12
 -1      1711-6.16483E-02 1.94976E-01-3.39555E-10-1.22168E-04 1.53193E-13 1.24232E-12
 -1      1712-6.16483E-02 1.94976E-01-3.38862E-10-1.22168E-04-2.57840E-13-5.45072E-12
 -1      1713-6.16483E-02 1.94976E-01-3.36372E-10-1.22168E-04 4.51382E-13 6.76258E-12
 -1      1714-6.16483E-02 1.94976E-01-3.28803E-10-1.22168E-04-1.27291E-12-1.01572E-11
 -1      1715-6.16483E-02 1.94976E-01-3.38171E-10-1.22168E-04-7.15936E-13 1.58003E-11
 -1      1716-5.32414E-02 1.86569E-01-3.23928E-10-1.14161E-04-6.95811E-12 2.03719E-12
 -1      1717-5.32414E-02 1.86569E-01-3.41097E-10-1.14161E-04 4.83876E-13 4.48123E-11
 -1      1718-5.32414E-02 1.86569E-01-3.24740E-10-1.14161E-04-1.65221E-12-5.28641E-12
 -1      1719-5.32414E-02 1.86569E-01-3.18673E-10-1.14161E-04 5.45646E-13 1.14701E-11
 -1      1720-5.32414E-02 1.86569E-01-3.17334E-10-1.14161E-04-8.32917E-14-4.49894E-14
 -1      1721-5.32414E-02 1.86569E-01-3.17344E-10-1.14161E-04 7.09807E-14 9.73267E-15
 -1      1722-5.32414E-02 1.86569E-01-3.18675E-10-1.14161E-04-5.67113E-13-1.14659E-11
 -1      1723-5.32414E-02 1.86569E-01-3.24721E-10-1.14161E-04 1.67413E-12 5.28988E-12
 -1      1724-5.32414E-02 1.86569E-01-3.41088E-10-1.14161E-04-4.66134E-13-4.48354E-11
 -1      1725-5.32414E-02 1.86569E-01-3.23906E-10-1.14161E-04 6.99460E-12-2.01440E-12
 -1      1726-4.56343E-02 1.78962E-01-1.82342E-10-1.06925E-04 1.02434E-11-1.71140E-10
 -1      1727-4.56343E-02 1.78962E-01-8.87501E-11-1.06925E-04 9.03874E-12 9.62535E-12
 -1      1728-4.56343E-02 1.78962E-01-1.47475E-10-1.06925E-04-8.37808E-13-4.22398E-11
 -1      1729-4.56343E-02 1.78962E-01-1.66947E-10-1.06925E-04 3.31531E-13 4.61679E-12
 -1      1730-4.56343E-02 1.78962E-01-1.68900E-10-1.06925E-04-2.57947E-13-3.31437E-13
 -1      1731-4.56343E-02 1.78962E-01-1.68888E-10-1.06925E-04 2.62256E-13 3.22787E-13
 -1      1732-4.56343E-02 1.78962E-01-1.66935E-10-1.06925E-04-3.71878E-13-4.61321E-12
 -1      1733-4.56343E-02 1.78962E-01-1.47452E-10-1.06925E-04 8.34653E-13 4.22423E-11
 -1      1734-4.56343E-02 1.78962E-01-8.87505E-11-1.06925E-04-9.04146E-12-9.61456E-12
 -1      1735-4.56343E-02 1.78962E-01-1.82355E-10-1.06925E-04-1.02580E-11 1.71137E-10
 -1      1736-3.87288E-02 1.72057E-01-5.30221E-10-1.00323E-04-6.46866E-11 1.79638E-10
 -1      1737-3.87288E-02 1.72057E-01-7.58921E-10-1.00323E-04-7.95797E-12 2.68082E-10
 -1      1738-3.87288E-02 1.72057E-01-5.74518E-10-1.00323E-04-7.30375E-12-4.70194E-12
 -1      1739-3.87288E-02 1.72057E-01-4.83250E-10-1.00323E-04 1.89860E-12 5.15796E-12
 -1      1740-3.87288E-02 1.72057E-01-4.49233E-10-1.00323E-04 1.41386E-12 1.54675E-12
 -1      1741-3.87288E-02 1.72057E-01-4.49235E-10-1.00323E-04-1.40683E-12-1.55289E-12
 -1      1742-3.87288E-02 1.72057E-01-4.83251E-10-1.00323E-04-1.85335E-12-5.18207E-12
 -1      1743-3.87288E-02 1.72057E-01-5.74519E-10-1.00323E-04 7.27074E-12 4.73244E-12
 -1      1744-3.87288E-02 1.72057E-01-7.58894E-10-1.00323E-04 7.95369E-12-2.68075E-10
 -1      1745-3.87288E-02 1.72057E-01-5.30228E-10-1.00323E-04 6.46998E-11-1.79637E-10
 -1      1746-3.24410E-02 1.65769E-01 8.13252E-10-9.44355E-05 1.37555E-10-1.68135E-09
 -1      1747-3.24410E-02 1.65769E-01 1.87047E-09-9.44355E-05 6.69207E-11-5.64049E-10
 -1      1748-3.24410E-02 1.65769E-01 1.44206E-09-9.44355E-05 5.42050E-12-4.34704E-10
 -1      1749-3.24410E-02 1.65769E-01 1.25926E-09-9.44355E-05-5.30723E-12-1.75258E-10
 -1      1750-3.24410E-02 1.65769E-01 1.24720E-09-9.44355E-05-1.94104E-12-3.10483E-11
 -1      1751-3.24410E-02 1.65769E-01 1.24722E-09-9.44355E-05 1.89760E-12 3.10136E-11
 -1      1752-3.24410E-02 1.65769E-01 1.25924E-09-9.44355E-05 5.20977E-12 1.75318E-10
 -1      1753-3.24410E-02 1.65769E-01 1.44205E-09-9.44355E-05-5.36965E-12 4.34681E-10
 -1      1754-3.24410E-02 1.65769E-01 1.87045E-09-9.44355E-05-6.68599E-11 5.64069E-10
 -1      1755-3.24410E-02 1.65769E-01 8.13258E-10-9.44355E-05-1.37527E-10 1.68135E-09
 -1      1756-2.66996E-02 1.60028E-01-3.94682E-09-8.85874E-05-5.69367E-10 3.07379E-09
 -1      1757-2.66996E-02 1.60028E-01-6.72248E-09-8.85874E-05-1.25862E-10 2.19673E-09
 -1      1758-2.66996E-02 1.60028E-01-5.30388E-09-8.85874E-05-3.01612E-11 3.52128E-10
 -1      1759-2.66996E-02 1.60028E-01-4.45074E-09-8.85874E-05 1.01336E-11-2.15448E-10
 -1      1760-2.66996E-02 1.60028E-01-4.06260E-09-8.85874E-05 1.09527E-11-8.96404E-11
 -1      1761-2.66996E-02 1.60028E-01-4.06262E-09-8.85874E-05-1.09310E-11 8.96633E-11
 -1      1762-2.66996E-02 1.60028E-01-4.45075E-09-8.85874E-05-1.00724E-11 2.15480E-10
 -1      1763-2.66996E-02 1.60028E-01-5.30389E-09-8.85874E-05 3.01475E-11-3.52104E-10
 -1      1764-2.66996E-02 1.60028E-01-6.72248E-09-8.85874E-05 1.25848E-10-2.19674E-09
 -1      1765-2.66996E-02 1.60028E-01-3.94683E-09-8.85874E-05 5.69346E-10-3.07376E-09
 -1      1766-2.14427E-02 1.54771E-01 1.32476E-08-8.50512E-05 1.28316E-09-1.70359E-08
 -1      1767-2.14427E-02 1.54771E-01 2.42864E-08-8.50513E-05 4.53193E-10-9.00184E-09
 -1      1768-2.14427E-02 1.54771E-01 2.18714E-08-8.50512E-05 8.10012E-11-4.13196E-09
 -1      1769-2.14427E-02 1.54771E-01 1.98886E-08-8.50513E-05-5.66965E-11-1.78898E-09
 -1      1770-2.14427E-02 1.54771E-01 1.93329E-08-8.50513E-05-2.62121E-11-4.03945E-10
 -1      1771-2.14427E-02 1.54771E-01 1.93329E-08-8.50513E-05 2.62260E-11 4.03966E-10
 -1      1772-2.14427E-02 1.54771E-01 1.98886E-08-8.50513E-05 5.66781E-11 1.78899E-09
 -1      1773-2.14427E-02 1.54771E-01 2.18714E-08-8.50512E-05-8.09818E-11 4.13198E-09
 -1      1774-2.14427E-02 1.54771E-01 2.42864E-08-8.50513E-05-4.53168E-10 9.00184E-09
 -1      1775-2.14427E-02 1.54771E-01 1.32476E-08-8.50512E-05-1.28313E-09 1.70359E-08
 -1      1776-1.66185E-02 1.49946E-01-5.08396E-08-7.47772E-05-3.86164E-09 4.13469E-08
 -1      1777-1.66185E-02 1.49946E-01-8.29859E-08-7.47771E-05-9.27293E-10 2.69873E-08
 -1      1778-1.66184E-02 1.49946E-01-7.92216E-08-7.47771E-05-4.18223E-11 1.13591E-08
 -1      1779-1.66184E-02 1.49946E-01-7.46945E-08-7.47768E-05 4.19235E-11 1.17247E-09
 -1      1780-1.66185E-02 1.49946E-01-7.15554E-08-7.47768E-05 1.14141E-11-6.28814E-10
 -1      1781-1.66185E-02 1.49946E-01-7.15554E-08-7.47768E-05-1.13790E-11 6.28809E-10
 -1      1782-1.66184E-02 1.49946E-01-7.46945E-08-7.47768E-05-4.19117E-11-1.17248E-09
 -1      1783-1.66184E-02 1.49946E-01-7.92216E-08-7.47771E-05 4.18089E-11-1.13591E-08
 -1      1784-1.66185E-02 1.49946E-01-8.29859E-08-7.47771E-05 9.27286E-10-2.69873E-08
 -1      1785-1.66185E-02 1.49946E-01-5.08396E-08-7.47772E-05 3.86164E-09-4.13469E-08
 -1      1786-1.21761E-02 1.45505E-01 1.80096E-07-9.25850E-05 5.20479E-09-1.63179E-07
 -1      1787-1.21763E-02 1.45505E-01 2.89621E-07-9.25877E-05 9.96161E-11-1.14995E-07
 -1      1788-1.21763E-02 1.45505E-01 3.04247E-07-9.25883E-05 2.87656E-10-4.33929E-08
 -1      1789-1.21763E-02 1.45505E-01 2.90134E-07-9.25886E-05 2.21196E-10-8.41027E-09
 -1      1790-1.21763E-02 1.45505E-01 2.76416E-07-9.25885E-05 6.41796E-11-2.57723E-10
 -1      1791-1.21763E-02 1.45505E-01 2.76416E-07-9.25885E-05-6.41766E-11 2.57688E-10
 -1      1792-1.21763E-02 1.45505E-01 2.90134E-07-9.25886E-05-2.21210E-10 8.41028E-09
 -1      1793-1.21763E-02 1.45505E-01 3.04247E-07-9.25883E-05-2.87650E-10 4.33929E-08
 -1      1794-1.21763E-02 1.45505E-01 2.89621E-07-9.25877E-05-9.95982E-11 1.14995E-07
 -1      1795-1.21761E-02 1.45505E-01 1.80096E-07-9.25850E-05-5.20480E-09 1.63179E-07
 -1      1796-8.09432E-03 1.41418E-01-7.58439E-07-2.89495E-06 4.91775E-09 4.95578E-07
 -1      1797-8.09408E-03 1.41418E-01-1.05581E-06-2.88686E-06 1.72129E-09 3.03177E-07
 -1      1798-8.09400E-03 1.41418E-01-1.15887E-06-2.88667E-06-7.30783E-10 1.61990E-07
 -1      1799-8.09397E-03 1.41418E-01-1.17793E-06-2.88649E-06-3.50704E-10 8.19588E-08
 -1      1800-8.09395E-03 1.41418E-01-1.18055E-06-2.88654E-06-8.98720E-11 2.52572E-08
 -1      1801-8.09395E-03 1.41418E-01-1.18055E-06-2.88654E-06 8.98926E-11-2.52572E-08
 -1      1802-8.09397E-03 1.41418E-01-1.17793E-06-2.88649E-06 3.50702E-10-8.19588E-08
 -1      1803-8.09400E-03 1.41418E-01-1.15887E-06-2.88667E-06 7.30811E-10-1.61990E-07
 -1      1804-8.09408E-03 1.41418E-01-1.05581E-06-2.88686E-06-1.72130E-09-3.03177E-07
 -1      1805-8.09432E-03 1.41418E-01-7.58439E-07-2.89495E-06-4.91772E-09-4.95578E-07
 -1      1806-4.23116E-03 1.37562E-01 4.14963E-07-5.92593E-04-1.47562E-08-4.93552E-07
 -1      1807-4.23115E-03 1.37562E-01 6.38348E-07-5.92600E-04-3.24939E-09-1.82947E-07
 -1      1808-4.23110E-03 1.37563E-01 7.71332E-07-5.92600E-04 2.81993E-10-8.52955E-08
 -1      1809-4.23109E-03 1.37563E-01 8.55681E-07-5.92600E-04-1.14646E-10-4.66904E-08
 -1      1810-4.23110E-03 1.37563E-01 8.98410E-07-5.92600E-04-8.21378E-11-1.54187E-08
 -1      1811-4.23110E-03 1.37563E-01 8.98410E-07-5.92600E-04 8.21284E-11 1.54187E-08
 -1      1812-4.23109E-03 1.37563E-01 8.55681E-07-5.92600E-04 1.14643E-10 4.66904E-08
 -1      1813-4.23110E-03 1.37563E-01 7.71332E-07-5.92600E-04-2.82026E-10 8.52955E-08
 -1      1814-4.23115E-03 1.37562E-01 6.38348E-07-5.92600E-04 3.24940E-09 1.82947E-07
 -1      1815-4.23116E-03 1.37562E-01 4.14963E-07-5.92593E-04 1.47562E-08 4.93552E-07
 -1      1816-8.22206E-01 9.55537E-01-3.94939E-07 3.36961E-04-3.59614E-08-2.54431E-06
 -1      1817-9.13270E-01 1.04661E+00 2.00531E-06 2.14093E-03 1.53006E-08 3.78736E-07
 -1      1819-8.22205E-01 9.55537E-01 4.71607E-07 3.36954E-04-3.73205E-09-1.69999E-06
 -1      1820-9.13271E-01 1.04661E+00 2.76054E-06 2.14091E-03 7.30936E-09 1.28578E-08
 -1      1822-8.22205E-01 9.55537E-01 1.08175E-06 3.36951E-04 3.30674E-09-5.68895E-07
 -1      1823-9.13272E-01 1.04661E+00 3.13235E-06 2.14091E-03 1.62499E-09-7.52244E-08
 -1      1825-8.22205E-01 9.55537E-01 1.26874E-06 3.36948E-04 1.42707E-09-2.05173E-07
 -1      1826-9.13272E-01 1.04661E+00 3.24148E-06 2.14091E-03 5.79581E-11-7.00209E-08
 -1      1828-8.22206E-01 9.55537E-01 1.26995E-06 3.36947E-04 4.00536E-10-7.59659E-08
 -1      1829-9.13272E-01 1.04661E+00 3.27320E-06 2.14091E-03-1.37762E-11-2.66893E-08
 -1      1831-8.22206E-01 9.55537E-01 1.25710E-06 3.36946E-04-6.55503E-15-1.38963E-14
 -1      1832-9.13272E-01 1.04661E+00 3.27320E-06 2.14091E-03 1.37968E-11 2.66893E-08
 -1      1834-8.22206E-01 9.55537E-01 1.26995E-06 3.36947E-04-4.00530E-10 7.59659E-08
 -1      1835-9.13272E-01 1.04661E+00 3.24148E-06 2.14091E-03-5.79480E-11 7.00208E-08
 -1      1837-8.22205E-01 9.55537E-01 1.26874E-06 3.36948E-04-1.42704E-09 2.05173E-07
 -1      1838-9.13272E-01 1.04661E+00 3.13235E-06 2.14091E-03-1.62498E-09 7.52244E-08
 -1      1840-8.22205E-01 9.55537E-01 1.08175E-06 3.36951E-04-3.30673E-09 5.68895E-07
 -1      1841-9.13271E-01 1.04661E+00 2.76054E-06 2.14091E-03-7.30935E-09-1.28578E-08
 -1      1843-8.22205E-01 9.55537E-01 4.71607E-07 3.36954E-04 3.73205E-09 1.69999E-06
 -1      1844-9.13270E-01 1.04661E+00 2.00531E-06 2.14093E-03-1.53006E-08-3.78736E-07
 -1      1846-8.22206E-01 9.55537E-01-3.94939E-07 3.36961E-04 3.59614E-08 2.54431E-06
 -1      1848-6.80491E-01 8.13827E-01 1.54163E-06-9.84057E-04 1.73572E-08 1.32115E-06
 -1      1849-7.51372E-01 8.84685E-01-2.22835E-06-4.51599E-04-1.54213E-09-4.27097E-07
 -1      1851-6.80491E-01 8.13828E-01 2.91482E-06-9.84043E-04 1.81928E-08 1.32740E-06
 -1      1852-7.51372E-01 8.84685E-01-3.24928E-06-4.51575E-04-1.12348E-08-1.24566E-07
 -1      1854-6.80491E-01 8.13828E-01 3.10057E-06-9.84056E-04 4.47010E-09 6.20067E-07
 -1      1855-7.51371E-01 8.84685E-01-3.85074E-06-4.51562E-04-3.35023E-09-3.96971E-08
 -1      1857-6.80491E-01 8.13828E-01 2.92826E-06-9.84057E-04-4.44968E-10 2.42862E-07
 -1      1858-7.51371E-01 8.84685E-01-4.08295E-06-4.51560E-04-5.22707E-10-2.85053E-09
 -1      1860-6.80491E-01 8.13828E-01 2.83707E-06-9.84057E-04-4.70351E-10 9.04634E-08
 -1      1861-7.51372E-01 8.84685E-01-4.15371E-06-4.51559E-04-3.65550E-11 2.21586E-09
 -1      1863-6.80491E-01 8.13828E-01 2.81377E-06-9.84057E-04-4.81722E-15 1.35949E-14
 -1      1864-7.51372E-01 8.84685E-01-4.15371E-06-4.51559E-04 3.65440E-11-2.21589E-09
 -1      1866-6.80491E-01 8.13828E-01 2.83707E-06-9.84057E-04 4.70334E-10-9.04634E-08
 -1      1867-7.51371E-01 8.84685E-01-4.08295E-06-4.51560E-04 5.22706E-10 2.85051E-09
 -1      1869-6.80491E-01 8.13828E-01 2.92826E-06-9.84057E-04 4.44945E-10-2.42862E-07
 -1      1870-7.51371E-01 8.84685E-01-3.85074E-06-4.51562E-04 3.35024E-09 3.96971E-08
 -1      1872-6.80491E-01 8.13828E-01 3.10057E-06-9.84056E-04-4.47010E-09-6.20067E-07
 -1      1873-7.51372E-01 8.84685E-01-3.24928E-06-4.51575E-04 1.12348E-08 1.24566E-07
 -1      1875-6.80491E-01 8.13828E-01 2.91482E-06-9.84043E-04-1.81928E-08-1.32740E-06
 -1      1876-7.51372E-01 8.84685E-01-2.22835E-06-4.51599E-04 1.54215E-09 4.27097E-07
 -1      1878-6.80491E-01 8.13827E-01 1.54163E-06-9.84057E-04-1.73572E-08-1.32115E-06
 -1      1880-5.70340E-01 7.03666E-01-2.50257E-07-5.36378E-04 3.10657E-08-2.32812E-07
 -1      1881-6.25472E-01 7.58804E-01 3.31765E-07-7.42008E-04-2.57501E-08 1.20039E-07
 -1      1883-5.70341E-01 7.03666E-01-6.88371E-07-5.36391E-04 3.17405E-09-4.26821E-07
 -1      1884-6.25472E-01 7.58804E-01 6.84575E-07-7.42012E-04 2.27079E-09 1.45924E-07
 -1      1886-5.70340E-01 7.03666E-01-9.17527E-07-5.36385E-04-2.99857E-09-2.60429E-07
 -1      1887-6.25472E-01 7.58804E-01 9.57338E-07-7.42020E-04 3.38618E-09 1.47191E-07
 -1      1889-5.70340E-01 7.03666E-01-8.55745E-07-5.36382E-04-8.91700E-10-7.62416E-08
 -1      1890-6.25472E-01 7.58804E-01 1.11898E-06-7.42024E-04 1.27705E-09 8.78224E-08
 -1      1892-5.70340E-01 7.03666E-01-7.71539E-07-5.36381E-04-8.79201E-11-9.81470E-09
 -1      1893-6.25472E-01 7.58804E-01 1.17142E-06-7.42024E-04 2.95656E-10 2.80366E-08
 -1      1895-5.70340E-01 7.03666E-01-7.43535E-07-5.36381E-04 1.39045E-16-2.55450E-14
 -1      1896-6.25472E-01 7.58804E-01 1.17142E-06-7.42024E-04-2.95669E-10-2.80365E-08
 -1      1898-5.70340E-01 7.03666E-01-7.71539E-07-5.36381E-04 8.79039E-11 9.81474E-09
 -1      1899-6.25472E-01 7.58804E-01 1.11898E-06-7.42024E-04-1.27705E-09-8.78224E-08
 -1      1901-5.70340E-01 7.03666E-01-8.55745E-07-5.36382E-04 8.91718E-10 7.62415E-08
 -1      1902-6.25472E-01 7.58804E-01 9.57338E-07-7.42020E-04-3.38619E-09-1.47191E-07
 -1      1904-5.70340E-01 7.03666E-01-9.17527E-07-5.36385E-04 2.99857E-09 2.60429E-07
 -1      1905-6.25472E-01 7.58804E-01 6.84575E-07-7.42012E-04-2.27079E-09-1.45924E-07
 -1      1907-5.70341E-01 7.03666E-01-6.88371E-07-5.36391E-04-3.17404E-09 4.26821E-07
 -1      1908-6.25472E-01 7.58804E-01 3.31765E-07-7.42008E-04 2.57501E-08-1.20039E-07
 -1      1910-5.70340E-01 7.03666E-01-2.50257E-07-5.36378E-04-3.10657E-08 2.32812E-07
 -1      1912-4.82808E-01 6.16137E-01 1.08986E-07-5.40950E-04-1.53064E-08 7.73675E-08
 -1      1913-5.26608E-01 6.59935E-01-1.07336E-07-5.43715E-04 1.51247E-08-7.15372E-08
 -1      1915-4.82808E-01 6.16137E-01 1.64504E-07-5.40944E-04-5.47930E-09 8.48214E-08
 -1      1916-5.26608E-01 6.59935E-01-2.08691E-07-5.43716E-04 2.03425E-09-4.66405E-08
 -1      1918-4.82808E-01 6.16137E-01 2.04043E-07-5.40945E-04 1.31947E-10 5.95709E-08
 -1      1919-5.26608E-01 6.59935E-01-2.44223E-07-5.43714E-04-1.65950E-09-4.86947E-08
 -1      1921-4.82808E-01 6.16137E-01 2.03201E-07-5.40946E-04 9.00471E-10 2.02880E-08
 -1      1922-5.26608E-01 6.59935E-01-2.82934E-07-5.43712E-04-1.13929E-09-2.77270E-08
 -1      1924-4.82808E-01 6.16137E-01 1.79293E-07-5.40947E-04 3.71730E-10-1.89469E-10
 -1      1925-5.26608E-01 6.59935E-01-2.98666E-07-5.43711E-04-3.09762E-10-7.89615E-09
 -1      1927-4.82808E-01 6.16137E-01 1.68198E-07-5.40947E-04-1.90270E-14-1.19115E-14
 -1      1928-5.26608E-01 6.59935E-01-2.98666E-07-5.43711E-04 3.09739E-10 7.89613E-09
 -1      1930-4.82808E-01 6.16137E-01 1.79293E-07-5.40947E-04-3.71739E-10 1.89466E-10
 -1      1931-5.26608E-01 6.59935E-01-2.82934E-07-5.43712E-04 1.13929E-09 2.77269E-08
 -1      1933-4.82808E-01 6.16137E-01 2.03201E-07-5.40946E-04-9.00509E-10-2.02880E-08
 -1      1934-5.26608E-01 6.59935E-01-2.44223E-07-5.43714E-04 1.65947E-09 4.86947E-08
 -1      1936-4.82808E-01 6.16137E-01 2.04043E-07-5.40945E-04-1.31988E-10-5.95709E-08
 -1      1937-5.26608E-01 6.59935E-01-2.08691E-07-5.43716E-04-2.03427E-09 4.66405E-08
 -1      1939-4.82808E-01 6.16137E-01 1.64504E-07-5.40944E-04 5.47929E-09-8.48213E-08
 -1      1940-5.26608E-01 6.59935E-01-1.07336E-07-5.43715E-04-1.51247E-08 7.15373E-08
 -1      1942-4.82808E-01 6.16137E-01 1.08986E-07-5.40950E-04 1.53064E-08-7.73675E-08
 -1      1944-4.12151E-01 5.45478E-01-2.63116E-08-4.51233E-04 6.14778E-09-1.87860E-08
 -1      1945-4.47502E-01 5.80830E-01 3.09093E-08-4.94835E-04-5.18866E-09 3.34249E-08
 -1      1947-4.12151E-01 5.45478E-01-5.94703E-08-4.51235E-04 1.98046E-09-2.71463E-08
 -1      1948-4.47502E-01 5.80830E-01 6.70712E-08-4.94834E-04-1.04233E-09 1.32003E-08
 -1      1950-4.12151E-01 5.45478E-01-6.58365E-08-4.51235E-04 2.42478E-10-1.42195E-08
 -1      1951-4.47502E-01 5.80830E-01 6.78174E-08-4.94835E-04 3.70845E-10 7.28422E-09
 -1      1953-4.12151E-01 5.45478E-01-6.19388E-08-4.51235E-04-2.89070E-10-5.92202E-09
 -1      1954-4.47502E-01 5.80830E-01 7.20067E-08-4.94835E-04 5.36174E-10 4.46596E-09
 -1      1956-4.12151E-01 5.45478E-01-5.90658E-08-4.51234E-04-2.49282E-10-1.84238E-09
 -1      1957-4.47502E-01 5.80830E-01 7.60226E-08-4.94836E-04 1.85698E-10 1.33605E-09
 -1      1959-4.12151E-01 5.45478E-01-5.72583E-08-4.51234E-04-2.36452E-15 4.53590E-15
 -1      1960-4.47502E-01 5.80830E-01 7.60226E-08-4.94836E-04-1.85714E-10-1.33607E-09
 -1      1962-4.12151E-01 5.45478E-01-5.90659E-08-4.51234E-04 2.49283E-10 1.84235E-09
 -1      1963-4.47502E-01 5.80830E-01 7.20067E-08-4.94835E-04-5.36173E-10-4.46595E-09
 -1      1965-4.12151E-01 5.45478E-01-6.19388E-08-4.51235E-04 2.89073E-10 5.92204E-09
 -1      1966-4.47502E-01 5.80830E-01 6.78174E-08-4.94835E-04-3.70875E-10-7.28416E-09
 -1      1968-4.12151E-01 5.45478E-01-6.58365E-08-4.51235E-04-2.42480E-10 1.42196E-08
 -1      1969-4.47502E-01 5.80830E-01 6.70712E-08-4.94834E-04 1.04232E-09-1.32003E-08
 -1      1971-4.12151E-01 5.45478E-01-5.94703E-08-4.51235E-04-1.98047E-09 2.71463E-08
 -1      1972-4.47502E-01 5.80830E-01 3.09093E-08-4.94835E-04 5.18865E-09-3.34248E-08
 -1      1974-4.12151E-01 5.45478E-01-2.63115E-08-4.51233E-04-6.14779E-09 1.87860E-08
 -1      1976-3.54284E-01 4.87612E-01 5.42761E-09-4.01953E-04-2.10578E-09 5.42666E-09
 -1      1977-3.83232E-01 5.16560E-01-5.49334E-09-4.26900E-04 1.97611E-09-8.96678E-09
 -1      1979-3.54284E-01 4.87612E-01 5.49271E-09-4.01952E-04-8.09683E-10 5.50761E-09
 -1      1980-3.83232E-01 5.16560E-01-1.51200E-08-4.26900E-04 3.19670E-10-5.50599E-09
 -1      1982-3.54284E-01 4.87612E-01 9.85931E-09-4.01952E-04-4.25247E-11 4.45246E-09
 -1      1983-3.83232E-01 5.16560E-01-1.43843E-08-4.26900E-04-1.23784E-10-3.06194E-09
 -1      1985-3.54284E-01 4.87612E-01 9.05289E-09-4.01952E-04 8.57591E-11 1.38868E-09
 -1      1986-3.83232E-01 5.16560E-01-1.56199E-08-4.26899E-04-1.58756E-10-1.34650E-09
 -1      1988-3.54284E-01 4.87612E-01 7.37197E-09-4.01952E-04 7.62220E-11 2.69255E-10
 -1      1989-3.83232E-01 5.16560E-01-1.64817E-08-4.26899E-04-6.79709E-11-4.76340E-10
 -1      1991-3.54284E-01 4.87612E-01 7.09657E-09-4.01952E-04-6.56184E-15-1.83420E-14
 -1      1992-3.83232E-01 5.16560E-01-1.64817E-08-4.26899E-04 6.79608E-11 4.76322E-10
 -1      1994-3.54284E-01 4.87612E-01 7.37197E-09-4.01952E-04-7.62340E-11-2.69240E-10
 -1      1995-3.83232E-01 5.16560E-01-1.56199E-08-4.26899E-04 1.58753E-10 1.34650E-09
 -1      1997-3.54284E-01 4.87612E-01 9.05289E-09-4.01952E-04-8.57620E-11-1.38867E-09
 -1      1998-3.83232E-01 5.16560E-01-1.43843E-08-4.26900E-04 1.23781E-10 3.06197E-09
 -1      2000-3.54284E-01 4.87612E-01 9.85930E-09-4.01952E-04 4.25227E-11-4.45243E-09
 -1      2001-3.83232E-01 5.16560E-01-1.51200E-08-4.26900E-04-3.19662E-10 5.50602E-09
 -1      2003-3.54284E-01 4.87612E-01 5.49268E-09-4.01952E-04 8.09714E-10-5.50762E-09
 -1      2004-3.83232E-01 5.16560E-01-5.49335E-09-4.26900E-04-1.97611E-09 8.96677E-09
 -1      2006-3.54284E-01 4.87612E-01 5.42761E-09-4.01953E-04 2.10578E-09-5.42668E-09
 -1      2008-3.06302E-01 4.39629E-01-5.03513E-09-3.54799E-04 6.74743E-10-1.56332E-09
 -1      2009-3.30303E-01 4.63631E-01 4.46815E-09-3.78223E-04-5.41912E-10 4.03276E-09
 -1      2011-3.06302E-01 4.39629E-01-8.14946E-09-3.54800E-04 2.39540E-10-1.68157E-09
 -1      2012-3.30303E-01 4.63631E-01 7.74496E-09-3.78223E-04-1.50407E-10 1.24553E-09
 -1      2014-3.06302E-01 4.39629E-01-7.44581E-09-3.54800E-04 4.50320E-11-6.31181E-10
 -1      2015-3.30303E-01 4.63631E-01 6.68803E-09-3.78223E-04 3.70889E-11 8.09595E-10
 -1      2017-3.06302E-01 4.39629E-01-7.58266E-09-3.54800E-04-3.46977E-11-4.29361E-10
 -1      2018-3.30303E-01 4.63631E-01 6.71735E-09-3.78223E-04 5.72281E-11 3.89568E-10
 -1      2020-3.06302E-01 4.39629E-01-7.38865E-09-3.54799E-04-2.54202E-11-6.09462E-11
 -1      2021-3.30303E-01 4.63631E-01 6.98705E-09-3.78223E-04 1.78085E-11 6.53453E-11
 -1      2023-3.06302E-01 4.39629E-01-7.12374E-09-3.54799E-04 4.28265E-15-9.13844E-15
 -1      2024-3.30303E-01 4.63631E-01 6.98705E-09-3.78223E-04-1.78097E-11-6.53441E-11
 -1      2026-3.06302E-01 4.39629E-01-7.38866E-09-3.54799E-04 2.54220E-11 6.09181E-11
 -1      2027-3.30303E-01 4.63631E-01 6.71734E-09-3.78223E-04-5.72357E-11-3.89580E-10
 -1      2029-3.06302E-01 4.39629E-01-7.58265E-09-3.54800E-04 3.46857E-11 4.29338E-10
 -1      2030-3.30303E-01 4.63631E-01 6.68802E-09-3.78223E-04-3.70952E-11-8.09589E-10
 -1      2032-3.06302E-01 4.39629E-01-7.44578E-09-3.54800E-04-4.50503E-11 6.31242E-10
 -1      2033-3.30303E-01 4.63631E-01 7.74497E-09-3.78223E-04 1.50403E-10-1.24551E-09
 -1      2035-3.06302E-01 4.39629E-01-8.14944E-09-3.54800E-04-2.39573E-10 1.68152E-09
 -1      2036-3.30303E-01 4.63631E-01 4.46813E-09-3.78223E-04 5.41910E-10-4.03279E-09
 -1      2038-3.06302E-01 4.39629E-01-5.03514E-09-3.54799E-04-6.74758E-10 1.56329E-09
 -1      2040-2.66075E-01 3.99403E-01-1.98762E-09-3.16890E-04-2.21550E-10 2.83873E-10
 -1      2041-2.86195E-01 4.19523E-01 9.96482E-10-3.35795E-04 1.94997E-10-7.69032E-10
 -1      2043-2.66075E-01 3.99403E-01-2.47181E-09-3.16890E-04-8.02279E-11 3.84596E-10
 -1      2044-2.86195E-01 4.19523E-01 2.31087E-10-3.35795E-04 2.60476E-11-5.41779E-10
 -1      2046-2.66075E-01 3.99403E-01-1.81129E-09-3.16890E-04-5.46982E-12 3.54151E-10
 -1      2047-2.86195E-01 4.19523E-01 5.52117E-10-3.35795E-04-2.46148E-12-8.87749E-11
 -1      2049-2.66075E-01 3.99403E-01-2.08046E-09-3.16890E-04 4.32092E-12 7.99024E-11
 -1      2050-2.86195E-01 4.19523E-01 6.04854E-10-3.35795E-04-1.64748E-11-3.59269E-11
 -1      2052-2.66075E-01 3.99403E-01-2.11341E-09-3.16890E-04 9.48546E-12 7.17932E-11
 -1      2053-2.86195E-01 4.19523E-01 5.59676E-10-3.35795E-04-7.91276E-12-2.43859E-11
 -1      2055-2.66075E-01 3.99403E-01-2.07984E-09-3.16890E-04 9.94255E-15-1.44175E-14
 -1      2056-2.86195E-01 4.19523E-01 5.59689E-10-3.35795E-04 7.92603E-12 2.43479E-11
 -1      2058-2.66075E-01 3.99403E-01-2.11339E-09-3.16890E-04-9.46812E-12-7.18028E-11
 -1      2059-2.86195E-01 4.19523E-01 6.04869E-10-3.35795E-04 1.64822E-11 3.59136E-11
 -1      2061-2.66075E-01 3.99403E-01-2.08046E-09-3.16890E-04-4.29843E-12-7.99074E-11
 -1      2062-2.86195E-01 4.19523E-01 5.52136E-10-3.35795E-04 2.45881E-12 8.87507E-11
 -1      2064-2.66075E-01 3.99403E-01-1.81127E-09-3.16890E-04 5.47570E-12-3.54178E-10
 -1      2065-2.86195E-01 4.19523E-01 2.31093E-10-3.35795E-04-2.60525E-11 5.41783E-10
 -1      2067-2.66075E-01 3.99403E-01-2.47177E-09-3.16890E-04 8.02212E-11-3.84569E-10
 -1      2068-2.86195E-01 4.19523E-01 9.96503E-10-3.35795E-04-1.95029E-10 7.68996E-10
 -1      2070-2.66075E-01 3.99403E-01-1.98761E-09-3.16890E-04 2.21535E-10-2.83884E-10
 -1      2072-2.32019E-01 3.65347E-01-2.36767E-09-2.84370E-04 5.56088E-11-2.20177E-10
 -1      2073-2.49052E-01 3.82380E-01 1.51863E-09-3.00548E-04-4.67765E-11 3.98987E-10
 -1      2075-2.32019E-01 3.65347E-01-2.71342E-09-2.84370E-04 2.41138E-11-8.44373E-11
 -1      2076-2.49052E-01 3.82380E-01 1.79091E-09-3.00548E-04-1.72069E-11 9.22922E-11
 -1      2078-2.32019E-01 3.65347E-01-2.47963E-09-2.84370E-04 5.13403E-12-1.29158E-11
 -1      2079-2.49052E-01 3.82380E-01 1.63910E-09-3.00548E-04 4.47955E-12 1.13863E-10
 -1      2081-2.32019E-01 3.65347E-01-2.59316E-09-2.84370E-04-3.61979E-12-3.88380E-11
 -1      2082-2.49052E-01 3.82380E-01 1.63998E-09-3.00548E-04 3.98558E-12 3.25173E-11
 -1      2084-2.32019E-01 3.65347E-01-2.53973E-09-2.84370E-04-1.57916E-12 1.01477E-11
 -1      2085-2.49052E-01 3.82380E-01 1.65489E-09-3.00548E-04 1.54337E-12 6.35587E-12
 -1      2087-2.32019E-01 3.65347E-01-2.52018E-09-2.84370E-04-9.88956E-15-2.75438E-15
 -1      2088-2.49052E-01 3.82380E-01 1.65490E-09-3.00548E-04-1.54088E-12-6.39228E-12
 -1      2090-2.32019E-01 3.65347E-01-2.53971E-09-2.84370E-04 1.57555E-12-1.02100E-11
 -1      2091-2.49052E-01 3.82380E-01 1.63998E-09-3.00548E-04-3.97954E-12-3.25153E-11
 -1      2093-2.32019E-01 3.65347E-01-2.59316E-09-2.84370E-04 3.60188E-12 3.88406E-11
 -1      2094-2.49052E-01 3.82380E-01 1.63911E-09-3.00548E-04-4.48211E-12-1.13849E-10
 -1      2096-2.32019E-01 3.65347E-01-2.47962E-09-2.84370E-04-5.15690E-12 1.29668E-11
 -1      2097-2.49052E-01 3.82380E-01 1.79095E-09-3.00548E-04 1.71992E-11-9.22799E-11
 -1      2099-2.32019E-01 3.65347E-01-2.71342E-09-2.84370E-04-2.41221E-11 8.44248E-11
 -1      2100-2.49052E-01 3.82380E-01 1.51864E-09-3.00548E-04 4.67699E-11-3.98982E-10
 -1      2102-2.32019E-01 3.65347E-01-2.36767E-09-2.84370E-04-5.56116E-11 2.20192E-10
 -1      2104-2.02935E-01 3.36263E-01-1.75282E-09-2.56704E-04-2.54672E-11-5.55688E-11
 -1      2105-2.17481E-01 3.50809E-01 9.70144E-10-2.70466E-04 1.59992E-11-7.17266E-11
 -1      2107-2.02935E-01 3.36263E-01-1.82692E-09-2.56704E-04-5.56780E-12 4.26612E-11
 -1      2108-2.17481E-01 3.50809E-01 9.12379E-10-2.70466E-04 1.11930E-12-5.81189E-11
 -1      2110-2.02935E-01 3.36263E-01-1.71815E-09-2.56704E-04-6.98129E-13 2.39025E-11
 -1      2111-2.17481E-01 3.50809E-01 9.52937E-10-2.70466E-04 1.24445E-12 1.11054E-11
 -1      2113-2.02935E-01 3.36263E-01-1.78705E-09-2.56704E-04-1.32557E-13-1.14743E-12
 -1      2114-2.17481E-01 3.50809E-01 9.69868E-10-2.70466E-04-1.86260E-12-4.33103E-12
 -1      2116-2.02935E-01 3.36263E-01-1.76238E-09-2.56704E-04 1.05612E-12 1.06123E-11
 -1      2117-2.17481E-01 3.50809E-01 9.66701E-10-2.70466E-04-5.29102E-13 8.42606E-13
 -1      2119-2.02935E-01 3.36263E-01-1.76615E-09-2.56704E-04-1.48842E-15-1.30369E-14
 -1      2120-2.17481E-01 3.50809E-01 9.66699E-10-2.70466E-04 5.20055E-13-8.72062E-13
 -1      2122-2.02935E-01 3.36263E-01-1.76237E-09-2.56704E-04-1.05435E-12-1.06601E-11
 -1      2123-2.17481E-01 3.50809E-01 9.69875E-10-2.70466E-04 1.86939E-12 4.29216E-12
 -1      2125-2.02935E-01 3.36263E-01-1.78703E-09-2.56704E-04 1.57629E-13 1.14810E-12
 -1      2126-2.17481E-01 3.50809E-01 9.52949E-10-2.70466E-04-1.24784E-12-1.10908E-11
 -1      2128-2.02935E-01 3.36263E-01-1.71814E-09-2.56704E-04 6.92834E-13-2.39023E-11
 -1      2129-2.17481E-01 3.50809E-01 9.12368E-10-2.70466E-04-1.13820E-12 5.81352E-11
 -1      2131-2.02935E-01 3.36263E-01-1.82692E-09-2.56704E-04 5.54554E-12-4.26506E-11
 -1      2132-2.17481E-01 3.50809E-01 9.70152E-10-2.70466E-04-1.60131E-11 7.17336E-11
 -1      2134-2.02935E-01 3.36263E-01-1.75282E-09-2.56704E-04 2.54406E-11 5.55593E-11
 -1      2136-1.77899E-01 3.11226E-01-1.47911E-09-2.32859E-04 2.99032E-13-7.58784E-11
 -1      2137-1.90419E-01 3.23747E-01 8.38209E-10-2.44714E-04-4.81255E-12 1.93535E-11
 -1      2139-1.77899E-01 3.11226E-01-1.49636E-09-2.32859E-04 3.26607E-12 9.90249E-12
 -1      2140-1.90419E-01 3.23747E-01 8.54267E-10-2.44714E-04-1.70050E-12 3.92343E-12
 -1      2142-1.77899E-01 3.11226E-01-1.45659E-09-2.32859E-04 2.65946E-13-2.60503E-12
 -1      2143-1.90419E-01 3.23747E-01 8.36997E-10-2.44714E-04 7.08921E-13 1.44818E-11
 -1      2145-1.77899E-01 3.11226E-01-1.48687E-09-2.32859E-04-3.47189E-13-5.03362E-12
 -1      2146-1.90419E-01 3.23747E-01 8.38778E-10-2.44714E-04-3.79492E-15-1.08409E-12
 -1      2148-1.77899E-01 3.11226E-01-1.46978E-09-2.32859E-04-1.88789E-14 2.19991E-12
 -1      2149-1.90419E-01 3.23747E-01 8.38536E-10-2.44714E-04 2.61809E-13 1.87067E-12
 -1      2151-1.77899E-01 3.11226E-01-1.47530E-09-2.32859E-04 1.22652E-14-3.73646E-14
 -1      2152-1.90419E-01 3.23747E-01 8.38534E-10-2.44714E-04-2.51274E-13-1.90699E-12
 -1      2154-1.77899E-01 3.11226E-01-1.46980E-09-2.32859E-04 3.71867E-14-2.20783E-12
 -1      2155-1.90419E-01 3.23747E-01 8.38783E-10-2.44714E-04 1.31183E-14 1.04024E-12
 -1      2157-1.77899E-01 3.11226E-01-1.48689E-09-2.32859E-04 3.41182E-13 5.00335E-12
 -1      2158-1.90419E-01 3.23747E-01 8.36987E-10-2.44714E-04-6.98643E-13-1.44938E-11
 -1      2160-1.77899E-01 3.11226E-01-1.45660E-09-2.32859E-04-2.47182E-13 2.61374E-12
 -1      2161-1.90419E-01 3.23747E-01 8.54275E-10-2.44714E-04 1.70628E-12-3.91356E-12
 -1      2163-1.77899E-01 3.11226E-01-1.49634E-09-2.32859E-04-3.22456E-12-9.88842E-12
 -1      2164-1.90419E-01 3.23747E-01 8.38222E-10-2.44714E-04 4.81828E-12-1.93578E-11
 -1      2166-1.77899E-01 3.11226E-01-1.47909E-09-2.32859E-04-2.77083E-13 7.58489E-11
 -1      2168-1.56194E-01 2.89521E-01-1.19144E-09-2.12194E-04-5.55764E-12-4.93492E-11
 -1      2169-1.67048E-01 3.00376E-01 6.52419E-10-2.22466E-04 1.16868E-13-2.09895E-11
 -1      2171-1.56194E-01 2.89521E-01-1.17789E-09-2.12194E-04 5.46303E-13 1.52346E-11
 -1      2172-1.67048E-01 3.00376E-01 6.44584E-10-2.22466E-04 1.69380E-13-4.58759E-12
 -1      2174-1.56194E-01 2.89521E-01-1.16634E-09-2.12194E-04-2.83499E-13-1.78229E-12
 -1      2175-1.67048E-01 3.00376E-01 6.48171E-10-2.22466E-04 3.04310E-13 2.36416E-12
 -1      2177-1.56194E-01 2.89521E-01-1.18022E-09-2.12194E-04-2.25487E-14-7.59456E-13
 -1      2178-1.67048E-01 3.00376E-01 6.50689E-10-2.22466E-04-2.95446E-13-2.43598E-12
 -1      2180-1.56194E-01 2.89521E-01-1.17156E-09-2.12194E-04 1.06077E-13 1.13712E-12
 -1      2181-1.67048E-01 3.00376E-01 6.49936E-10-2.22466E-04 6.09788E-14 1.04814E-12
 -1      2183-1.56194E-01 2.89521E-01-1.17629E-09-2.12194E-04-1.03124E-14-3.44479E-15
 -1      2184-1.67048E-01 3.00376E-01 6.49934E-10-2.22466E-04-5.29414E-14-1.06145E-12
 -1      2186-1.56194E-01 2.89521E-01-1.17157E-09-2.12194E-04-1.10972E-13-1.14724E-12
 -1      2187-1.67048E-01 3.00376E-01 6.50667E-10-2.22466E-04 2.89047E-13 2.41885E-12
 -1      2189-1.56194E-01 2.89521E-01-1.18021E-09-2.12194E-04 2.94143E-14 7.62269E-13
 -1      2190-1.67048E-01 3.00376E-01 6.48190E-10-2.22466E-04-2.88029E-13-2.36368E-12
 -1      2192-1.56194E-01 2.89521E-01-1.16632E-09-2.12194E-04 3.05645E-13 1.78085E-12
 -1      2193-1.67048E-01 3.00376E-01 6.44603E-10-2.22466E-04-1.41099E-13 4.59178E-12
 -1      2195-1.56194E-01 2.89521E-01-1.17788E-09-2.12194E-04-5.37110E-13-1.52674E-11
 -1      2196-1.67048E-01 3.00376E-01 6.52434E-10-2.22466E-04-1.02153E-13 2.09703E-11
 -1      2198-1.56194E-01 2.89521E-01-1.19144E-09-2.12194E-04 5.55262E-12 4.93294E-11
 -1      2200-1.37254E-01 2.70582E-01-9.80765E-10-1.94160E-04-2.68527E-12-4.07515E-11
 -1      2201-1.46725E-01 2.80053E-01 5.36158E-10-2.03122E-04-1.39501E-12-1.20089E-11
 -1      2203-1.37254E-01 2.70582E-01-9.60777E-10-1.94160E-04 1.02992E-12 1.07832E-11
 -1      2204-1.46725E-01 2.80053E-01 5.33768E-10-2.03122E-04 4.89816E-14 2.25543E-12
 -1      2206-1.37254E-01 2.70582E-01-9.60660E-10-1.94160E-04-1.80964E-13-2.94366E-12
 -1      2207-1.46725E-01 2.80053E-01 5.31972E-10-2.03122E-04 9.30243E-14 1.30549E-12
 -1      2209-1.37254E-01 2.70582E-01-9.65471E-10-1.94160E-04 1.05994E-14-1.49616E-13
 -1      2210-1.46725E-01 2.80053E-01 5.32494E-10-2.03122E-04-7.75782E-14-1.17394E-12
 -1      2212-1.37254E-01 2.70582E-01-9.61280E-10-1.94160E-04 1.10955E-14 1.48901E-13
 -1      2213-1.46725E-01 2.80053E-01 5.32104E-10-2.03122E-04 7.45755E-14 7.58876E-13
 -1      2215-1.37254E-01 2.70582E-01-9.64184E-10-1.94160E-04-6.97664E-15 9.62248E-15
 -1      2216-1.46725E-01 2.80053E-01 5.32102E-10-2.03122E-04-8.28334E-14-7.61709E-13
 -1      2218-1.37254E-01 2.70582E-01-9.61267E-10-1.94160E-04-8.90033E-15-1.78961E-13
 -1      2219-1.46725E-01 2.80053E-01 5.32502E-10-2.03122E-04 6.81824E-14 1.14725E-12
 -1      2221-1.37254E-01 2.70582E-01-9.65457E-10-1.94160E-04-3.20709E-14 1.09584E-13
 -1      2222-1.46725E-01 2.80053E-01 5.31981E-10-2.03122E-04-9.64442E-14-1.31124E-12
 -1      2224-1.37254E-01 2.70582E-01-9.60664E-10-1.94160E-04 1.53519E-13 2.94884E-12
 -1      2225-1.46725E-01 2.80053E-01 5.33765E-10-2.03122E-04-5.18852E-14-2.27331E-12
 -1      2227-1.37254E-01 2.70582E-01-9.60765E-10-1.94160E-04-1.04237E-12-1.08111E-11
 -1      2228-1.46725E-01 2.80053E-01 5.36171E-10-2.03122E-04 1.38847E-12 1.19679E-11
 -1      2230-1.37254E-01 2.70582E-01-9.80752E-10-1.94160E-04 2.66598E-12 4.07388E-11
 -1      2232-1.20629E-01 2.53957E-01-8.08879E-10-1.78330E-04-2.53437E-12-3.11379E-11
 -1      2233-1.28943E-01 2.62271E-01 4.37896E-10-1.86196E-04-8.60197E-13-1.29211E-11
 -1      2235-1.20629E-01 2.53957E-01-7.88450E-10-1.78330E-04 6.80076E-13 9.02517E-12
 -1      2236-1.28943E-01 2.62271E-01 4.34661E-10-1.86196E-04 2.16473E-13 1.97441E-12
 -1      2238-1.20629E-01 2.53957E-01-7.92867E-10-1.78330E-04-1.98591E-13-2.45856E-12
 -1      2239-1.28943E-01 2.62271E-01 4.35018E-10-1.86196E-04-2.41658E-15-8.15625E-14
 -1      2241-1.20629E-01 2.53957E-01-7.93540E-10-1.78330E-04 1.33582E-14 3.33834E-13
 -1      2242-1.28943E-01 2.62271E-01 4.35401E-10-1.86196E-04-5.14344E-14-6.74755E-13
 -1      2244-1.20629E-01 2.53957E-01-7.92048E-10-1.78330E-04-1.34970E-14 2.61747E-14
 -1      2245-1.28943E-01 2.62271E-01 4.35195E-10-1.86196E-04 2.95786E-14 4.48684E-13
 -1      2247-1.20629E-01 2.53957E-01-7.93422E-10-1.78330E-04 1.51021E-15-2.24655E-14
 -1      2248-1.28943E-01 2.62271E-01 4.35187E-10-1.86196E-04-3.40238E-14-4.70739E-13
 -1      2250-1.20629E-01 2.53957E-01-7.92056E-10-1.78330E-04 4.75350E-15-3.06330E-14
 -1      2251-1.28943E-01 2.62271E-01 4.35406E-10-1.86196E-04 5.24309E-14 6.53150E-13
 -1      2253-1.20629E-01 2.53957E-01-7.93540E-10-1.78330E-04-2.49072E-14-3.62867E-13
 -1      2254-1.28943E-01 2.62271E-01 4.35024E-10-1.86196E-04-3.20156E-14 6.14091E-14
 -1      2256-1.20629E-01 2.53957E-01-7.92861E-10-1.78330E-04 1.96320E-13 2.42296E-12
 -1      2257-1.28943E-01 2.62271E-01 4.34656E-10-1.86196E-04-2.17911E-13-2.00946E-12
 -1      2259-1.20629E-01 2.53957E-01-7.88422E-10-1.78330E-04-6.75301E-13-9.05853E-12
 -1      2260-1.28943E-01 2.62271E-01 4.37901E-10-1.86196E-04 8.63914E-13 1.29132E-11
 -1      2262-1.20629E-01 2.53957E-01-8.08866E-10-1.78330E-04 2.55824E-12 3.11134E-11
 -1      2264-1.05957E-01 2.39285E-01-6.73796E-10-1.64359E-04-1.89973E-12-2.47724E-11
 -1      2265-1.13294E-01 2.46622E-01 3.63254E-10-1.71301E-04-7.90009E-13-1.00376E-11
 -1      2267-1.05957E-01 2.39285E-01-6.55043E-10-1.64359E-04 5.95563E-13 7.05824E-12
 -1      2268-1.13294E-01 2.46622E-01 3.60924E-10-1.71301E-04 1.92481E-13 2.25474E-12
 -1      2270-1.05957E-01 2.39285E-01-6.61243E-10-1.64359E-04-1.19759E-13-2.02271E-12
 -1      2271-1.13294E-01 2.46622E-01 3.60850E-10-1.71301E-04-1.06838E-14-1.98673E-13
 -1      2273-1.05957E-01 2.39285E-01-6.59605E-10-1.64359E-04 5.92803E-14 4.09729E-13
 -1      2274-1.13294E-01 2.46622E-01 3.61009E-10-1.71301E-04-1.03691E-14-3.24797E-13
 -1      2276-1.05957E-01 2.39285E-01-6.59801E-10-1.64359E-04 3.05660E-14-6.14948E-14
 -1      2277-1.13294E-01 2.46622E-01 3.60880E-10-1.71301E-04 2.65883E-14 3.20719E-13
 -1      2279-1.05957E-01 2.39285E-01-6.59960E-10-1.64359E-04-1.15936E-15 5.54155E-15
 -1      2280-1.13294E-01 2.46622E-01 3.60907E-10-1.71301E-04-2.13827E-14-3.57524E-13
 -1      2282-1.05957E-01 2.39285E-01-6.59785E-10-1.64359E-04 1.34003E-14 2.24807E-14
 -1      2283-1.13294E-01 2.46622E-01 3.61006E-10-1.71301E-04 2.81029E-14 3.19671E-13
 -1      2285-1.05957E-01 2.39285E-01-6.59581E-10-1.64359E-04-2.53569E-14-4.03969E-13
 -1      2286-1.13294E-01 2.46622E-01 3.60858E-10-1.71301E-04 3.00769E-14 1.82240E-13
 -1      2288-1.05957E-01 2.39285E-01-6.61252E-10-1.64359E-04 1.74726E-13 1.97993E-12
 -1      2289-1.13294E-01 2.46622E-01 3.60918E-10-1.71301E-04-1.65797E-13-2.29600E-12
 -1      2291-1.05957E-01 2.39285E-01-6.55061E-10-1.64359E-04-5.65579E-13-7.04792E-12
 -1      2292-1.13294E-01 2.46622E-01 3.63271E-10-1.71301E-04 7.92105E-13 1.00351E-11
 -1      2294-1.05957E-01 2.39285E-01-6.73801E-10-1.64359E-04 1.87900E-12 2.48104E-11
 -1      2296-9.29439E-02 2.26272E-01-5.66110E-10-1.51967E-04-1.58012E-12-1.96294E-11
 -1      2297-9.94514E-02 2.32779E-01 3.03291E-10-1.58124E-04-6.12994E-13-7.95915E-12
 -1      2299-9.29439E-02 2.26272E-01-5.48397E-10-1.51967E-04 4.11805E-13 5.63522E-12
 -1      2300-9.94514E-02 2.32779E-01 3.01232E-10-1.58124E-04 1.33059E-13 1.74689E-12
 -1      2302-9.29439E-02 2.26272E-01-5.56120E-10-1.51967E-04-1.49803E-13-1.42681E-12
 -1      2303-9.94514E-02 2.32779E-01 3.01451E-10-1.58124E-04-2.56616E-15-8.90561E-14
 -1      2305-9.29439E-02 2.26272E-01-5.52712E-10-1.51967E-04 1.69245E-15 2.75733E-13
 -1      2306-9.94514E-02 2.32779E-01 3.01507E-10-1.58124E-04-1.45857E-14-2.32043E-13
 -1      2308-9.29439E-02 2.26272E-01-5.54291E-10-1.51967E-04-1.75456E-14 6.67481E-14
 -1      2309-9.94514E-02 2.32779E-01 3.01467E-10-1.58124E-04 2.67297E-14 2.89112E-13
 -1      2311-9.29439E-02 2.26272E-01-5.53485E-10-1.51967E-04 5.15618E-15-2.00215E-14
 -1      2312-9.94514E-02 2.32779E-01 3.01451E-10-1.58124E-04-1.83855E-14-3.03997E-13
 -1      2314-9.29439E-02 2.26272E-01-5.54302E-10-1.51967E-04 2.47992E-15-4.46532E-14
 -1      2315-9.94514E-02 2.32779E-01 3.01514E-10-1.58124E-04 2.78489E-14 2.55929E-13
 -1      2317-9.29439E-02 2.26272E-01-5.52724E-10-1.51967E-04-2.30142E-14-2.75365E-13
 -1      2318-9.94514E-02 2.32779E-01 3.01456E-10-1.58124E-04 9.88678E-15 8.35013E-14
 -1      2320-9.29439E-02 2.26272E-01-5.56124E-10-1.51967E-04 1.09304E-13 1.42388E-12
 -1      2321-9.94514E-02 2.32779E-01 3.01228E-10-1.58124E-04-1.28192E-13-1.75754E-12
 -1      2323-9.29439E-02 2.26272E-01-5.48400E-10-1.51967E-04-4.23016E-13-5.63375E-12
 -1      2324-9.94514E-02 2.32779E-01 3.03292E-10-1.58124E-04 6.20796E-13 7.97198E-12
 -1      2326-9.29439E-02 2.26272E-01-5.66111E-10-1.51967E-04 1.59514E-12 1.96174E-11
 -1      2328-8.13480E-02 2.14676E-01-4.80241E-10-1.40926E-04-1.01225E-12-1.59156E-11
 -1      2329-8.71465E-02 2.20475E-01 2.55587E-10-1.46412E-04-3.90376E-13-5.81877E-12
 -1      2331-8.13480E-02 2.14676E-01-4.61034E-10-1.40926E-04 4.24844E-13 4.25916E-12
 -1      2332-8.71465E-02 2.20475E-01 2.54077E-10-1.46412E-04 8.60263E-14 9.24887E-13
 -1      2334-8.13480E-02 2.14676E-01-4.71670E-10-1.40926E-04-2.44233E-14-6.30963E-13
 -1      2335-8.71465E-02 2.20475E-01 2.54028E-10-1.46412E-04 1.67912E-14 3.63971E-13
 -1      2337-8.13480E-02 2.14676E-01-4.65929E-10-1.40926E-04-3.65630E-15 7.52658E-14
 -1      2338-8.71465E-02 2.20475E-01 2.53875E-10-1.46412E-04-4.60843E-14-2.97206E-13
 -1      2340-8.13480E-02 2.14676E-01-4.69165E-10-1.40926E-04 9.13484E-15 3.09361E-13
 -1      2341-8.71465E-02 2.20475E-01 2.53838E-10-1.46412E-04 2.41346E-14 3.91514E-13
 -1      2343-8.13480E-02 2.14676E-01-4.67401E-10-1.40926E-04-6.84493E-15 2.39111E-16
 -1      2344-8.71465E-02 2.20475E-01 2.53848E-10-1.46412E-04-2.47062E-14-4.00104E-13
 -1      2346-8.13480E-02 2.14676E-01-4.69163E-10-1.40926E-04-3.28709E-15-3.20771E-13
 -1      2347-8.71465E-02 2.20475E-01 2.53873E-10-1.46412E-04 3.96679E-14 2.99627E-13
 -1      2349-8.13480E-02 2.14676E-01-4.65927E-10-1.40926E-04 1.87558E-14-4.91742E-14
 -1      2350-8.71465E-02 2.20475E-01 2.54023E-10-1.46412E-04-2.38393E-14-3.62968E-13
 -1      2352-8.13480E-02 2.14676E-01-4.71679E-10-1.40926E-04 4.85069E-14 6.17197E-13
 -1      2353-8.71465E-02 2.20475E-01 2.54070E-10-1.46412E-04-9.19008E-14-9.40522E-13
 -1      2355-8.13480E-02 2.14676E-01-4.61043E-10-1.40926E-04-4.31855E-13-4.27264E-12
 -1      2356-8.71465E-02 2.20475E-01 2.55572E-10-1.46412E-04 3.86001E-13 5.81210E-12
 -1      2358-8.13480E-02 2.14676E-01-4.80237E-10-1.40926E-04 9.94219E-13 1.59278E-11
 -1      2360-7.09712E-02 2.04299E-01-4.15176E-10-1.31045E-04-1.59455E-12-1.17645E-11
 -1      2361-7.61601E-02 2.09488E-01 2.16817E-10-1.35954E-04-3.72183E-13-2.10206E-12
 -1      2363-7.09712E-02 2.04299E-01-3.90128E-10-1.31045E-04-1.92962E-14 4.05228E-12
 -1      2364-7.61601E-02 2.09488E-01 2.13969E-10-1.35954E-04-8.90480E-14 3.65614E-13
 -1      2366-7.09712E-02 2.04299E-01-4.07435E-10-1.31045E-04-1.13299E-13 1.31286E-12
 -1      2367-7.61601E-02 2.09488E-01 2.14723E-10-1.35954E-04 5.25639E-14 1.70865E-12
 -1      2369-7.09712E-02 2.04299E-01-3.97579E-10-1.31045E-04-9.60633E-14 1.06948E-13
 -1      2370-7.61601E-02 2.09488E-01 2.14396E-10-1.35954E-04-8.20799E-14-2.64431E-13
 -1      2372-7.09712E-02 2.04299E-01-4.03302E-10-1.31045E-04 1.54783E-14 1.15165E-12
 -1      2373-7.61601E-02 2.09488E-01 2.14377E-10-1.35954E-04 2.89570E-14 6.76757E-13
 -1      2375-7.09712E-02 2.04299E-01-4.00574E-10-1.31045E-04-2.37452E-14 9.75691E-15
 -1      2376-7.61601E-02 2.09488E-01 2.14385E-10-1.35954E-04-5.44683E-14-6.75381E-13
 -1      2378-7.09712E-02 2.04299E-01-4.03306E-10-1.31045E-04-4.00726E-14-1.16315E-12
 -1      2379-7.61601E-02 2.09488E-01 2.14398E-10-1.35954E-04 7.19668E-14 2.72008E-13
 -1      2381-7.09712E-02 2.04299E-01-3.97573E-10-1.31045E-04 7.23212E-14-8.27341E-14
 -1      2382-7.61601E-02 2.09488E-01 2.14720E-10-1.35954E-04-3.97735E-14-1.68588E-12
 -1      2384-7.09712E-02 2.04299E-01-4.07425E-10-1.31045E-04 9.80976E-14-1.30037E-12
 -1      2385-7.61601E-02 2.09488E-01 2.13978E-10-1.35954E-04 8.88270E-14-3.81757E-13
 -1      2387-7.09712E-02 2.04299E-01-3.90139E-10-1.31045E-04 3.08736E-14-4.03941E-12
 -1      2388-7.61601E-02 2.09488E-01 2.16818E-10-1.35954E-04 3.65957E-13 2.11181E-12
 -1      2390-7.09712E-02 2.04299E-01-4.15184E-10-1.31045E-04 1.59236E-12 1.17594E-11
 -1      2392-6.16483E-02 1.94976E-01-3.61578E-10-1.22168E-04 1.51960E-12-1.10900E-11
 -1      2393-6.63101E-02 1.99638E-01 1.85756E-10-1.26579E-04 6.41324E-13-1.64812E-13
 -1      2395-6.16483E-02 1.94976E-01-3.18397E-10-1.22168E-04 1.00764E-12 1.12137E-12
 -1      2396-6.63101E-02 1.99638E-01 1.86394E-10-1.26579E-04-7.74792E-14-2.13361E-12
 -1      2398-6.16483E-02 1.94976E-01-3.48946E-10-1.22168E-04 4.26021E-13 3.77644E-12
 -1      2399-6.63101E-02 1.99638E-01 1.84676E-10-1.26579E-04 2.46101E-13 3.67641E-12
 -1      2401-6.16483E-02 1.94976E-01-3.31456E-10-1.22168E-04-9.77693E-14-5.67214E-13
 -1      2402-6.63101E-02 1.99638E-01 1.83220E-10-1.26579E-04-1.25072E-13-1.97834E-13
 -1      2404-6.16483E-02 1.94976E-01-3.40774E-10-1.22168E-04 9.72340E-14 2.32445E-12
 -1      2405-6.63101E-02 1.99638E-01 1.83140E-10-1.26579E-04 5.99325E-14 1.12625E-12
 -1      2407-6.16483E-02 1.94976E-01-3.37306E-10-1.22168E-04 4.56170E-15 2.95534E-14
 -1      2408-6.63101E-02 1.99638E-01 1.83145E-10-1.26579E-04-7.24671E-14-1.11894E-12
 -1      2410-6.16483E-02 1.94976E-01-3.40768E-10-1.22168E-04-4.85788E-14-2.36417E-12
 -1      2411-6.63101E-02 1.99638E-01 1.83224E-10-1.26579E-04 1.47262E-13 1.80945E-13
 -1      2413-6.16483E-02 1.94976E-01-3.31444E-10-1.22168E-04 1.11776E-13 5.63535E-13
 -1      2414-6.63101E-02 1.99638E-01 1.84680E-10-1.26579E-04-2.60489E-13-3.65413E-12
 -1      2416-6.16483E-02 1.94976E-01-3.48934E-10-1.22168E-04-4.12198E-13-3.77078E-12
 -1      2417-6.63101E-02 1.99638E-01 1.86399E-10-1.26579E-04 8.12380E-14 2.13764E-12
 -1      2419-6.16483E-02 1.94976E-01-3.18395E-10-1.22168E-04-1.02529E-12-1.12317E-12
 -1      2420-6.63101E-02 1.99638E-01 1.85749E-10-1.26579E-04-6.51315E-13 1.85442E-13
 -1      2422-6.16483E-02 1.94976E-01-3.61578E-10-1.22168E-04-1.53117E-12 1.10946E-11
 -1      2424-5.32414E-02 1.86569E-01-3.53875E-10-1.14161E-04-7.80909E-12 2.56248E-12
 -1      2425-5.74452E-02 1.90773E-01 1.60163E-10-1.18140E-04-1.31787E-12 1.77933E-11
 -1      2427-5.32414E-02 1.86569E-01-2.80875E-10-1.14161E-04-3.33699E-12 9.09429E-12
 -1      2428-5.74452E-02 1.90773E-01 1.44248E-10-1.18140E-04-1.22382E-12-1.75909E-13
 -1      2430-5.32414E-02 1.86569E-01-3.42584E-10-1.14161E-04-6.05073E-13 1.53040E-11
 -1      2431-5.74452E-02 1.90773E-01 1.51178E-10-1.18140E-04 1.80514E-13 9.71550E-12
 -1      2433-5.32414E-02 1.86569E-01-3.10458E-10-1.14161E-04-5.05011E-13 1.11460E-12
 -1      2434-5.74452E-02 1.90773E-01 1.50988E-10-1.18140E-04-1.99682E-13 7.00238E-13
 -1      2436-5.32414E-02 1.86569E-01-3.24096E-10-1.14161E-04 2.22102E-13 6.16417E-12
 -1      2437-5.74452E-02 1.90773E-01 1.51270E-10-1.18140E-04 1.07414E-13 1.75413E-12
 -1      2439-5.32414E-02 1.86569E-01-3.21065E-10-1.14161E-04-1.91179E-15-2.14707E-14
 -1      2440-5.74452E-02 1.90773E-01 1.51255E-10-1.18140E-04-1.02006E-13-1.76593E-12
 -1      2442-5.32414E-02 1.86569E-01-3.24095E-10-1.14161E-04-2.46538E-13-6.16491E-12
 -1      2443-5.74452E-02 1.90773E-01 1.51003E-10-1.18140E-04 2.15797E-13-7.20051E-13
 -1      2445-5.32414E-02 1.86569E-01-3.10452E-10-1.14161E-04 5.15202E-13-1.10794E-12
 -1      2446-5.74452E-02 1.90773E-01 1.51191E-10-1.18140E-04-1.75586E-13-9.70301E-12
 -1      2448-5.32414E-02 1.86569E-01-3.42566E-10-1.14161E-04 6.15013E-13-1.53282E-11
 -1      2449-5.74452E-02 1.90773E-01 1.44253E-10-1.18140E-04 1.23884E-12 1.55803E-13
 -1      2451-5.32414E-02 1.86569E-01-2.80852E-10-1.14161E-04 3.36180E-12-9.09295E-12
 -1      2452-5.74452E-02 1.90773E-01 1.60169E-10-1.18140E-04 1.32402E-12-1.77827E-11
 -1      2454-5.32414E-02 1.86569E-01-3.53861E-10-1.14161E-04 7.81841E-12-2.55536E-12
 -1      2456-4.56343E-02 1.78962E-01-2.95109E-10-1.06925E-04 2.44744E-11-2.43039E-11
 -1      2457-4.94382E-02 1.82766E-01 1.40928E-10-1.10522E-04 8.39943E-12 1.05079E-12
 -1      2459-4.56343E-02 1.78962E-01-1.04971E-10-1.06925E-04 1.00601E-11-3.45896E-11
 -1      2460-4.94382E-02 1.82766E-01 1.74022E-10-1.10522E-04 7.25699E-13-2.25203E-11
 -1      2462-4.56343E-02 1.78962E-01-2.03748E-10-1.06925E-04 4.13704E-12 2.78867E-12
 -1      2463-4.94382E-02 1.82766E-01 1.61293E-10-1.10522E-04 1.33264E-12 7.94378E-12
 -1      2465-4.56343E-02 1.78962E-01-1.42191E-10-1.06925E-04-4.12485E-13-1.75499E-11
 -1      2466-4.94382E-02 1.82766E-01 1.55788E-10-1.10522E-04-4.23127E-13-2.54568E-12
 -1      2468-4.56343E-02 1.78962E-01-1.58188E-10-1.06925E-04 4.39317E-14 2.31002E-12
 -1      2469-4.94382E-02 1.82766E-01 1.57365E-10-1.10522E-04-5.26091E-14 7.46020E-13
 -1      2471-4.56343E-02 1.78962E-01-1.59258E-10-1.06925E-04-7.08995E-15-2.91317E-15
 -1      2472-4.94382E-02 1.82766E-01 1.57363E-10-1.10522E-04 4.89634E-14-7.67743E-13
 -1      2474-4.56343E-02 1.78962E-01-1.58180E-10-1.06925E-04-4.39549E-14-2.30963E-12
 -1      2475-4.94382E-02 1.82766E-01 1.55794E-10-1.10522E-04 3.92643E-13 2.54846E-12
 -1      2477-4.56343E-02 1.78962E-01-1.42173E-10-1.06925E-04 3.79723E-13 1.75525E-11
 -1      2478-4.94382E-02 1.82766E-01 1.61307E-10-1.10522E-04-1.32301E-12-7.93972E-12
 -1      2480-4.56343E-02 1.78962E-01-2.03732E-10-1.06925E-04-4.14206E-12-2.77966E-12
 -1      2481-4.94382E-02 1.82766E-01 1.74036E-10-1.10522E-04-7.18172E-13 2.25183E-11
 -1      2483-4.56343E-02 1.78962E-01-1.04980E-10-1.06925E-04-1.00600E-11 3.45912E-11
 -1      2484-4.94382E-02 1.82766E-01 1.40924E-10-1.10522E-04-8.38921E-12-1.03805E-12
 -1      2486-4.56343E-02 1.78962E-01-2.95121E-10-1.06925E-04-2.44808E-11 2.43014E-11
 -1      2488-3.87288E-02 1.72057E-01-5.99381E-10-1.00323E-04-7.76803E-11 9.30116E-11
 -1      2489-4.21818E-02 1.75510E-01 1.34458E-10-1.03601E-04-1.86995E-11 1.28325E-10
 -1      2491-3.87288E-02 1.72057E-01-3.50594E-10-1.00323E-04-3.78515E-11 6.20111E-11
 -1      2492-4.21818E-02 1.75510E-01-7.26175E-12-1.03601E-04-9.82532E-12-4.06384E-12
 -1      2494-3.87288E-02 1.72057E-01-6.13958E-10-1.00323E-04-7.73936E-12 8.53786E-11
 -1      2495-4.21818E-02 1.75510E-01 6.52919E-11-1.03601E-04-4.31427E-13 1.94664E-11
 -1      2497-3.87288E-02 1.72057E-01-5.04774E-10-1.00323E-04-2.16552E-12-9.15985E-12
 -1      2498-4.21818E-02 1.75510E-01 8.63781E-11-1.03601E-04 2.48203E-14-8.21992E-12
 -1      2500-3.87288E-02 1.72057E-01-4.97118E-10-1.00323E-04 1.65505E-12 7.78007E-12
 -1      2501-4.21818E-02 1.75510E-01 9.26918E-11-1.03601E-04 3.23701E-13-3.73735E-12
 -1      2503-3.87288E-02 1.72057E-01-5.02577E-10-1.00323E-04 9.17463E-15 2.96381E-15
 -1      2504-4.21818E-02 1.75510E-01 9.26993E-11-1.03601E-04-3.17996E-13 3.73243E-12
 -1      2506-3.87288E-02 1.72057E-01-4.97120E-10-1.00323E-04-1.63775E-12-7.80213E-12
 -1      2507-4.21818E-02 1.75510E-01 8.63869E-11-1.03601E-04-2.27442E-14 8.20634E-12
 -1      2509-3.87288E-02 1.72057E-01-5.04774E-10-1.00323E-04 2.16840E-12 9.14561E-12
 -1      2510-4.21818E-02 1.75510E-01 6.52974E-11-1.03601E-04 4.13078E-13-1.94471E-11
 -1      2512-3.87288E-02 1.72057E-01-6.13944E-10-1.00323E-04 7.73706E-12-8.53393E-11
 -1      2513-4.21818E-02 1.75510E-01-7.23901E-12-1.03601E-04 9.82225E-12 4.07431E-12
 -1      2515-3.87288E-02 1.72057E-01-3.50588E-10-1.00323E-04 3.78452E-11-6.20144E-11
 -1      2516-4.21818E-02 1.75510E-01 1.34458E-10-1.03601E-04 1.86992E-11-1.28329E-10
 -1      2518-3.87288E-02 1.72057E-01-5.99378E-10-1.00323E-04 7.76941E-11-9.30181E-11
 -1      2520-3.24410E-02 1.65769E-01 1.21127E-12-9.44354E-05 2.49821E-10-3.06500E-10
 -1      2521-3.55850E-02 1.68913E-01 1.23902E-10-9.73747E-05 8.39274E-11-1.85666E-10
 -1      2523-3.24410E-02 1.65769E-01 1.24324E-09-9.44355E-05 1.07922E-10-6.19267E-10
 -1      2524-3.55850E-02 1.68913E-01 5.68878E-10-9.73747E-05 1.80260E-11-2.57846E-10
 -1      2526-3.24410E-02 1.65769E-01 1.14000E-09-9.44355E-05 3.66233E-11-3.35890E-10
 -1      2527-3.55850E-02 1.68913E-01 5.00441E-10-9.73747E-05 7.26056E-12-1.15268E-10
 -1      2529-3.24410E-02 1.65769E-01 1.35939E-09-9.44355E-05-1.65958E-12-3.01957E-10
 -1      2530-3.55850E-02 1.68913E-01 5.02689E-10-9.73747E-05-2.07342E-12-8.65384E-11
 -1      2532-3.24410E-02 1.65769E-01 1.39216E-09-9.44355E-05-3.64761E-12-1.17628E-10
 -1      2533-3.55850E-02 1.68913E-01 5.30867E-10-9.73747E-05-1.75170E-12-3.42295E-11
 -1      2535-3.24410E-02 1.65769E-01 1.35068E-09-9.44355E-05-3.33501E-14 8.03759E-15
 -1      2536-3.55850E-02 1.68913E-01 5.30870E-10-9.73747E-05 1.73310E-12 3.42057E-11
 -1      2538-3.24410E-02 1.65769E-01 1.39217E-09-9.44355E-05 3.59453E-12 1.17640E-10
 -1      2539-3.55850E-02 1.68913E-01 5.02688E-10-9.73747E-05 2.04651E-12 8.65612E-11
 -1      2541-3.24410E-02 1.65769E-01 1.35938E-09-9.44355E-05 1.63544E-12 3.01973E-10
 -1      2542-3.55850E-02 1.68913E-01 5.00445E-10-9.73747E-05-7.25165E-12 1.15272E-10
 -1      2544-3.24410E-02 1.65769E-01 1.13998E-09-9.44355E-05-3.65798E-11 3.35867E-10
 -1      2545-3.55850E-02 1.68913E-01 5.68863E-10-9.73747E-05-1.79983E-11 2.57853E-10
 -1      2547-3.24410E-02 1.65769E-01 1.24323E-09-9.44355E-05-1.07872E-10 6.19278E-10
 -1      2548-3.55850E-02 1.68913E-01 1.23892E-10-9.73747E-05-8.39080E-11 1.85653E-10
 -1      2550-3.24410E-02 1.65769E-01 1.20079E-12-9.44354E-05-2.49822E-10 3.06507E-10
 -1      2552-2.66996E-02 1.60028E-01-3.40602E-09-8.85875E-05-7.33875E-10 1.05395E-09
 -1      2553-2.95704E-02 1.62898E-01 2.35088E-10-9.14444E-05-2.22185E-10 8.33619E-10
 -1      2555-2.66996E-02 1.60028E-01-3.44904E-09-8.85874E-05-3.67258E-10 9.78223E-10
 -1      2556-2.95704E-02 1.62898E-01-1.19627E-09-9.14444E-05-8.59361E-11-5.39397E-11
 -1      2558-2.66996E-02 1.60028E-01-5.11170E-09-8.85874E-05-7.92869E-11 8.83684E-10
 -1      2559-2.95704E-02 1.62898E-01-6.86518E-10-9.14444E-05-1.14930E-11-1.00127E-10
 -1      2561-2.66996E-02 1.60028E-01-4.97954E-09-8.85874E-05-4.42301E-12 6.50858E-11
 -1      2562-2.95704E-02 1.62898E-01-5.07394E-10-9.14444E-05 7.48159E-12-1.31257E-10
 -1      2564-2.66996E-02 1.60028E-01-4.53382E-09-8.85874E-05 1.09317E-11-1.02434E-10
 -1      2565-2.95704E-02 1.62898E-01-5.00245E-10-9.14444E-05 3.57338E-12-6.78320E-11
 -1      2567-2.66996E-02 1.60028E-01-4.44887E-09-8.85874E-05 1.62363E-14 7.33648E-15
 -1      2568-2.95704E-02 1.62898E-01-5.00251E-10-9.14444E-05-3.58359E-12 6.78284E-11
 -1      2570-2.66996E-02 1.60028E-01-4.53384E-09-8.85874E-05-1.09005E-11 1.02460E-10
 -1      2571-2.95704E-02 1.62898E-01-5.07413E-10-9.14444E-05-7.49759E-12 1.31318E-10
 -1      2573-2.66996E-02 1.60028E-01-4.97955E-09-8.85874E-05 4.45371E-12-6.50609E-11
 -1      2574-2.95704E-02 1.62898E-01-6.86534E-10-9.14444E-05 1.15116E-11 1.00123E-10
 -1      2576-2.66996E-02 1.60028E-01-5.11169E-09-8.85874E-05 7.92683E-11-8.83656E-10
 -1      2577-2.95704E-02 1.62898E-01-1.19627E-09-9.14444E-05 8.59604E-11 5.39492E-11
 -1      2579-2.66996E-02 1.60028E-01-3.44905E-09-8.85874E-05 3.67244E-10-9.78212E-10
 -1      2580-2.95704E-02 1.62898E-01 2.35093E-10-9.14444E-05 2.22189E-10-8.33589E-10
 -1      2582-2.66996E-02 1.60028E-01-3.40602E-09-8.85875E-05 7.33866E-10-1.05393E-09
 -1      2584-2.14427E-02 1.54771E-01 4.99033E-09-8.50510E-05 2.12498E-09-3.87159E-09
 -1      2585-2.40712E-02 1.57399E-01 2.86752E-10-8.70090E-05 7.92344E-10-2.17988E-09
 -1      2587-2.14427E-02 1.54771E-01 1.66380E-08-8.50512E-05 9.35362E-10-8.32215E-09
 -1      2588-2.40712E-02 1.57399E-01 4.80033E-09-8.70089E-05 2.14372E-10-2.09915E-09
 -1      2590-2.14427E-02 1.54771E-01 2.04954E-08-8.50512E-05 2.72290E-10-5.43671E-09
 -1      2591-2.40712E-02 1.57399E-01 4.63506E-09-8.70089E-05 3.78711E-11-1.53620E-09
 -1      2593-2.14427E-02 1.54771E-01 2.07902E-08-8.50512E-05-3.69545E-12-3.04934E-09
 -1      2594-2.40712E-02 1.57399E-01 4.93601E-09-8.70089E-05-1.84612E-11-8.91738E-10
 -1      2596-2.14427E-02 1.54771E-01 2.06395E-08-8.50513E-05-4.28296E-11-1.29823E-09
 -1      2597-2.40712E-02 1.57399E-01 5.18278E-09-8.70090E-05-1.42619E-11-3.18320E-10
 -1      2599-2.14427E-02 1.54771E-01 2.03410E-08-8.50513E-05-1.82676E-15 1.36765E-14
 -1      2600-2.40712E-02 1.57399E-01 5.18279E-09-8.70090E-05 1.42793E-11 3.18344E-10
 -1      2602-2.14427E-02 1.54771E-01 2.06395E-08-8.50513E-05 4.28387E-11 1.29825E-09
 -1      2603-2.40712E-02 1.57399E-01 4.93601E-09-8.70089E-05 1.84818E-11 8.91749E-10
 -1      2605-2.14427E-02 1.54771E-01 2.07902E-08-8.50512E-05 3.69497E-12 3.04935E-09
 -1      2606-2.40712E-02 1.57399E-01 4.63507E-09-8.70089E-05-3.78687E-11 1.53622E-09
 -1      2608-2.14427E-02 1.54771E-01 2.04954E-08-8.50512E-05-2.72266E-10 5.43670E-09
 -1      2609-2.40712E-02 1.57399E-01 4.80033E-09-8.70089E-05-2.14367E-10 2.09914E-09
 -1      2611-2.14427E-02 1.54771E-01 1.66380E-08-8.50512E-05-9.35341E-10 8.32215E-09
 -1      2612-2.40712E-02 1.57399E-01 2.86743E-10-8.70090E-05-7.92339E-10 2.17989E-09
 -1      2614-2.14427E-02 1.54771E-01 4.99033E-09-8.50510E-05-2.12498E-09 3.87159E-09
 -1      2616-1.66184E-02 1.49946E-01-3.39001E-08-7.47777E-05-5.18018E-09 1.50956E-08
 -1      2617-1.90308E-02 1.52359E-01 2.67275E-10-7.90878E-05-2.07153E-09 5.35641E-09
 -1      2619-1.66185E-02 1.49946E-01-5.60804E-08-7.47772E-05-2.60025E-09 2.04867E-08
 -1      2620-1.90308E-02 1.52359E-01-1.40904E-08-7.90880E-05-6.77800E-10 1.26496E-09
 -1      2622-1.66185E-02 1.49946E-01-7.49700E-08-7.47771E-05-5.02064E-10 1.70947E-08
 -1      2623-1.90308E-02 1.52359E-01-1.40728E-08-7.90881E-05-1.08236E-10 7.29744E-10
 -1      2625-1.66184E-02 1.49946E-01-7.96461E-08-7.47770E-05 4.26495E-11 6.81383E-09
 -1      2626-1.90308E-02 1.52359E-01-1.48921E-08-7.90879E-05 7.73115E-11 6.07424E-10
 -1      2628-1.66185E-02 1.49946E-01-7.53128E-08-7.47768E-05 3.11863E-11 6.12308E-10
 -1      2629-1.90308E-02 1.52359E-01-1.60067E-08-7.90878E-05 3.97168E-11 1.92692E-10
 -1      2631-1.66185E-02 1.49946E-01-7.27790E-08-7.47768E-05 1.55198E-14-1.33250E-14
 -1      2632-1.90308E-02 1.52359E-01-1.60067E-08-7.90878E-05-3.96919E-11-1.92687E-10
 -1      2634-1.66185E-02 1.49946E-01-7.53128E-08-7.47768E-05-3.11607E-11-6.12306E-10
 -1      2635-1.90308E-02 1.52359E-01-1.48921E-08-7.90879E-05-7.73148E-11-6.07429E-10
 -1      2637-1.66184E-02 1.49946E-01-7.96461E-08-7.47770E-05-4.26533E-11-6.81383E-09
 -1      2638-1.90308E-02 1.52359E-01-1.40728E-08-7.90881E-05 1.08239E-10-7.29730E-10
 -1      2640-1.66185E-02 1.49946E-01-7.49699E-08-7.47771E-05 5.02061E-10-1.70947E-08
 -1      2641-1.90308E-02 1.52359E-01-1.40904E-08-7.90880E-05 6.77809E-10-1.26496E-09
 -1      2643-1.66185E-02 1.49946E-01-5.60804E-08-7.47772E-05 2.60025E-09-2.04867E-08
 -1      2644-1.90308E-02 1.52359E-01 2.67280E-10-7.90878E-05 2.07154E-09-5.35641E-09
 -1      2646-1.66184E-02 1.49946E-01-3.39001E-08-7.47777E-05 5.18019E-09-1.50956E-08
 -1      2648-1.21763E-02 1.45505E-01 6.64955E-08-9.25850E-05 1.05958E-08-4.06782E-08
 -1      2649-1.43970E-02 1.47725E-01 7.62196E-09-8.69263E-05 5.89680E-09-7.03658E-09
 -1      2651-1.21762E-02 1.45505E-01 2.13123E-07-9.25862E-05 3.21889E-09-1.11035E-07
 -1      2652-1.43970E-02 1.47725E-01 4.34623E-08-8.69257E-05 1.62441E-09-6.66725E-09
 -1      2654-1.21763E-02 1.45505E-01 3.05359E-07-9.25880E-05 2.59190E-10-7.77498E-08
 -1      2655-1.43970E-02 1.47725E-01 5.08609E-08-8.69258E-05 1.06000E-10-1.07299E-08
 -1      2657-1.21763E-02 1.45505E-01 3.04319E-07-9.25884E-05 1.65323E-10-2.64076E-08
 -1      2658-1.43970E-02 1.47725E-01 5.95157E-08-8.69263E-05-1.36750E-10-6.57187E-09
 -1      2660-1.21763E-02 1.45505E-01 2.84614E-07-9.25885E-05 1.32743E-10-4.49848E-09
 -1      2661-1.43970E-02 1.47725E-01 6.31573E-08-8.69265E-05-5.21434E-11-1.85832E-09
 -1      2663-1.21763E-02 1.45505E-01 2.76808E-07-9.25885E-05 1.01057E-16-1.95798E-14
 -1      2664-1.43970E-02 1.47725E-01 6.31573E-08-8.69265E-05 5.21623E-11 1.85830E-09
 -1      2666-1.21763E-02 1.45505E-01 2.84614E-07-9.25885E-05-1.32745E-10 4.49848E-09
 -1      2667-1.43970E-02 1.47725E-01 5.95157E-08-8.69263E-05 1.36749E-10 6.57188E-09
 -1      2669-1.21763E-02 1.45505E-01 3.04319E-07-9.25885E-05-1.65336E-10 2.64076E-08
 -1      2670-1.43970E-02 1.47725E-01 5.08609E-08-8.69258E-05-1.06004E-10 1.07299E-08
 -1      2672-1.21763E-02 1.45505E-01 3.05359E-07-9.25880E-05-2.59166E-10 7.77498E-08
 -1      2673-1.43970E-02 1.47725E-01 4.34623E-08-8.69257E-05-1.62440E-09 6.66726E-09
 -1      2675-1.21762E-02 1.45505E-01 2.13123E-07-9.25862E-05-3.21890E-09 1.11035E-07
 -1      2676-1.43970E-02 1.47725E-01 7.62196E-09-8.69263E-05-5.89680E-09 7.03659E-09
 -1      2678-1.21763E-02 1.45505E-01 6.64955E-08-9.25850E-05-1.05958E-08 4.06782E-08
 -1      2680-8.09387E-03 1.41419E-01-4.33379E-07-2.89552E-06 2.15461E-09 2.80447E-07
 -1      2681-1.01370E-02 1.43464E-01-1.76546E-08-3.46601E-05-1.10545E-08-1.11584E-08
 -1      2683-8.09422E-03 1.41418E-01-9.38143E-07-2.89110E-06 2.15263E-09 3.66973E-07
 -1      2684-1.01370E-02 1.43464E-01-1.31849E-07-3.46599E-05-1.87237E-09 2.94756E-08
 -1      2686-8.09405E-03 1.41418E-01-1.13643E-06-2.88676E-06 2.45077E-10 2.31233E-07
 -1      2687-1.01370E-02 1.43464E-01-2.16607E-07-3.46588E-05-2.51747E-10 4.99120E-08
 -1      2689-8.09398E-03 1.41418E-01-1.17079E-06-2.88657E-06-4.47137E-10 1.21787E-07
 -1      2690-1.01369E-02 1.43464E-01-2.73180E-07-3.46579E-05-8.11523E-12 3.61960E-08
 -1      2692-8.09396E-03 1.41418E-01-1.17780E-06-2.88651E-06-2.17504E-10 5.35738E-08
 -1      2693-1.01369E-02 1.43464E-01-2.95409E-07-3.46577E-05 7.73894E-12 1.26368E-08
 -1      2695-8.09395E-03 1.41418E-01-1.17936E-06-2.88654E-06 1.39442E-14-3.13341E-15
 -1      2696-1.01369E-02 1.43464E-01-2.95409E-07-3.46577E-05-7.72813E-12-1.26368E-08
 -1      2698-8.09396E-03 1.41418E-01-1.17780E-06-2.88651E-06 2.17508E-10-5.35738E-08
 -1      2699-1.01369E-02 1.43464E-01-2.73180E-07-3.46579E-05 8.10659E-12-3.61961E-08
 -1      2701-8.09398E-03 1.41418E-01-1.17079E-06-2.88657E-06 4.47153E-10-1.21787E-07
 -1      2702-1.01370E-02 1.43464E-01-2.16607E-07-3.46588E-05 2.51763E-10-4.99120E-08
 -1      2704-8.09405E-03 1.41418E-01-1.13643E-06-2.88676E-06-2.45078E-10-2.31233E-07
 -1      2705-1.01370E-02 1.43464E-01-1.31849E-07-3.46599E-05 1.87237E-09-2.94756E-08
 -1      2707-8.09422E-03 1.41418E-01-9.38143E-07-2.89110E-06-2.15260E-09-3.66973E-07
 -1      2708-1.01370E-02 1.43464E-01-1.76546E-08-3.46601E-05 1.10545E-08 1.11583E-08
 -1      2710-8.09387E-03 1.41419E-01-4.33379E-07-2.89552E-06-2.15457E-09-2.80447E-07
 -1      2712-4.23167E-03 1.37562E-01 2.95457E-07-5.92592E-04-2.27697E-08-4.34116E-07
 -1      2713-6.17360E-03 1.39505E-01 3.84844E-07-2.21329E-04 6.24979E-09 1.15591E-07
 -1      2715-4.23114E-03 1.37562E-01 5.40937E-07-5.92597E-04-7.73776E-09-3.15329E-07
 -1      2716-6.17358E-03 1.39505E-01 6.06645E-07-2.21335E-04 1.20482E-09 1.14329E-07
 -1      2718-4.23113E-03 1.37563E-01 7.00696E-07-5.92600E-04-9.18622E-10-1.31824E-07
 -1      2719-6.17357E-03 1.39505E-01 7.54402E-07-2.21337E-04 1.29565E-09 6.56325E-08
 -1      2721-4.23110E-03 1.37563E-01 8.07464E-07-5.92600E-04 1.07448E-10-6.68012E-08
 -1      2722-6.17355E-03 1.39505E-01 8.26673E-07-2.21337E-04 6.35746E-10 3.27258E-08
 -1      2724-4.23110E-03 1.37563E-01 8.74765E-07-5.92600E-04-8.27506E-11-3.14463E-08
 -1      2725-6.17355E-03 1.39505E-01 8.54932E-07-2.21337E-04 1.76184E-10 9.82775E-09
 -1      2727-4.23110E-03 1.37563E-01 8.96989E-07-5.92600E-04-7.97703E-15 5.81509E-15
 -1      2728-6.17355E-03 1.39505E-01 8.54932E-07-2.21337E-04-1.76177E-10-9.82774E-09
 -1      2730-4.23110E-03 1.37563E-01 8.74765E-07-5.92600E-04 8.27438E-11 3.14463E-08
 -1      2731-6.17355E-03 1.39505E-01 8.26673E-07-2.21337E-04-6.35748E-10-3.27258E-08
 -1      2733-4.23110E-03 1.37563E-01 8.07464E-07-5.92600E-04-1.07465E-10 6.68012E-08
 -1      2734-6.17357E-03 1.39505E-01 7.54402E-07-2.21337E-04-1.29566E-09-6.56325E-08
 -1      2736-4.23113E-03 1.37563E-01 7.00696E-07-5.92600E-04 9.18622E-10 1.31824E-07
 -1      2737-6.17358E-03 1.39505E-01 6.06645E-07-2.21335E-04-1.20482E-09-1.14329E-07
 -1      2739-4.23114E-03 1.37562E-01 5.40937E-07-5.92597E-04 7.73774E-09 3.15329E-07
 -1      2740-6.17360E-03 1.39505E-01 3.84844E-07-2.21329E-04-6.24978E-09-1.15591E-07
 -1      2742-4.23167E-03 1.37562E-01 2.95457E-07-5.92592E-04 2.27697E-08 4.34116E-07
 -1      2744-2.32760E-03 1.35653E-01-3.45935E-07-7.55428E-04-1.40782E-09-9.09681E-08
 -1      2746-2.32729E-03 1.35653E-01-4.68270E-07-7.55442E-04-4.31036E-09-1.23050E-07
 -1      2748-2.32722E-03 1.35653E-01-5.33462E-07-7.55440E-04-1.98922E-09-9.39567E-08
 -1      2750-2.32721E-03 1.35653E-01-5.55477E-07-7.55440E-04-1.20827E-09-5.58244E-08
 -1      2752-2.32721E-03 1.35653E-01-5.63642E-07-7.55440E-04-3.97311E-10-1.83838E-08
 -1      2754-2.32721E-03 1.35653E-01-5.63642E-07-7.55440E-04 3.97299E-10 1.83838E-08
 -1      2756-2.32721E-03 1.35653E-01-5.55477E-07-7.55440E-04 1.20827E-09 5.58243E-08
 -1      2758-2.32722E-03 1.35653E-01-5.33462E-07-7.55440E-04 1.98920E-09 9.39566E-08
 -1      2760-2.32729E-03 1.35653E-01-4.68270E-07-7.55442E-04 4.31033E-09 1.23050E-07
 -1      2762-2.32760E-03 1.35653E-01-3.45935E-07-7.55428E-04 1.40779E-09 9.09681E-08
 -1      2765 2.83725E-03 1.30490E-01 4.61732E-07-2.07385E-02 4.64862E-08 2.88344E-07
 -1      2766 2.83757E-03 1.30490E-01 4.57144E-07-2.07385E-02-3.35691E-09-2.43361E-08
 -1      2767 2.83763E-03 1.30490E-01 3.74239E-07-2.07385E-02-9.43391E-09-6.02258E-08
 -1      2768 2.83764E-03 1.30490E-01 2.69334E-07-2.07384E-02-6.24687E-09-3.92416E-08
 -1      2769 2.83764E-03 1.30490E-01 2.11966E-07-2.07384E-02-2.03718E-09-1.26855E-08
 -1      2770 2.83764E-03 1.30490E-01 2.11966E-07-2.07384E-02 2.03717E-09 1.26855E-08
 -1      2771 2.83764E-03 1.30490E-01 2.69334E-07-2.07384E-02 6.24685E-09 3.92416E-08
 -1      2772 2.83763E-03 1.30490E-01 3.74239E-07-2.07385E-02 9.43390E-09 6.02259E-08
 -1      2773 2.83757E-03 1.30490E-01 4.57144E-07-2.07385E-02 3.35690E-09 2.43361E-08
 -1      2774 2.83725E-03 1.30490E-01 4.61732E-07-2.07385E-02-4.64863E-08-2.88344E-07
 -1      2775 1.23697E-02 1.20958E-01 4.61190E-07-3.94470E-02 9.18908E-08 2.77649E-07
 -1      2776 1.23700E-02 1.20958E-01 4.57154E-07-3.94469E-02-6.23715E-09-2.35912E-08
 -1      2777 1.23701E-02 1.20958E-01 3.74084E-07-3.94469E-02-1.81551E-08-5.81528E-08
 -1      2778 1.23701E-02 1.20958E-01 2.69097E-07-3.94469E-02-1.19857E-08-3.78589E-08
 -1      2779 1.23701E-02 1.20958E-01 2.11747E-07-3.94469E-02-3.89657E-09-1.22303E-08
 -1      2780 1.23701E-02 1.20958E-01 2.11747E-07-3.94469E-02 3.89653E-09 1.22303E-08
 -1      2781 1.23701E-02 1.20958E-01 2.69097E-07-3.94469E-02 1.19857E-08 3.78589E-08
 -1      2782 1.23701E-02 1.20958E-01 3.74084E-07-3.94469E-02 1.81551E-08 5.81528E-08
 -1      2783 1.23700E-02 1.20958E-01 4.57154E-07-3.94469E-02 6.23713E-09 2.35912E-08
 -1      2784 1.23697E-02 1.20958E-01 4.61190E-07-3.94470E-02-9.18908E-08-2.77649E-07
 -1      2785 2.72168E-02 1.06111E-01 4.59393E-07-5.42941E-02 1.34541E-07 2.60490E-07
 -1      2786 2.72171E-02 1.06111E-01 4.55652E-07-5.42940E-02-8.86949E-09-2.26145E-08
 -1      2787 2.72171E-02 1.06111E-01 3.71596E-07-5.42940E-02-2.59937E-08-5.52882E-08
 -1      2788 2.72171E-02 1.06111E-01 2.65777E-07-5.42940E-02-1.69985E-08-3.60505E-08
 -1      2789 2.72171E-02 1.06111E-01 2.08054E-07-5.42940E-02-5.48651E-09-1.16584E-08
 -1      2790 2.72171E-02 1.06111E-01 2.08054E-07-5.42940E-02 5.48650E-09 1.16584E-08
 -1      2791 2.72171E-02 1.06111E-01 2.65777E-07-5.42940E-02 1.69985E-08 3.60505E-08
 -1      2792 2.72171E-02 1.06111E-01 3.71596E-07-5.42940E-02 2.59937E-08 5.52882E-08
 -1      2793 2.72171E-02 1.06111E-01 4.55652E-07-5.42940E-02 8.86948E-09 2.26145E-08
 -1      2794 2.72168E-02 1.06111E-01 4.59393E-07-5.42941E-02-1.34541E-07-2.60490E-07
 -1      2795 4.59253E-02 8.74023E-02 4.56859E-07-6.38265E-02 1.72871E-07 2.37026E-07
 -1      2796 4.59255E-02 8.74025E-02 4.52522E-07-6.38264E-02-1.37524E-08-2.03575E-08
 -1      2797 4.59255E-02 8.74025E-02 3.66609E-07-6.38264E-02-3.57395E-08-5.02066E-08
 -1      2798 4.59255E-02 8.74025E-02 2.59068E-07-6.38264E-02-2.32785E-08-3.28439E-08
 -1      2799 4.59255E-02 8.74024E-02 2.00455E-07-6.38264E-02-7.51498E-09-1.06371E-08
 -1      2800 4.59255E-02 8.74024E-02 2.00455E-07-6.38264E-02 7.51498E-09 1.06371E-08
 -1      2801 4.59255E-02 8.74025E-02 2.59068E-07-6.38264E-02 2.32786E-08 3.28439E-08
 -1      2802 4.59255E-02 8.74025E-02 3.66609E-07-6.38264E-02 3.57395E-08 5.02066E-08
 -1      2803 4.59255E-02 8.74025E-02 4.52522E-07-6.38264E-02 1.37524E-08 2.03575E-08
 -1      2804 4.59253E-02 8.74023E-02 4.56859E-07-6.38265E-02-1.72871E-07-2.37026E-07
 -1      2805 6.66637E-02 6.66638E-02 4.59376E-07-6.71112E-02 2.06712E-07 2.05670E-07
 -1      2806 6.66639E-02 6.66640E-02 4.55232E-07-6.71111E-02-1.94838E-08-1.55555E-08
 -1      2807 6.66640E-02 6.66641E-02 3.70603E-07-6.71110E-02-4.61553E-08-4.05484E-08
 -1      2808 6.66639E-02 6.66641E-02 2.64187E-07-6.71110E-02-3.02372E-08-2.63372E-08
 -1      2809 6.66639E-02 6.66640E-02 2.06224E-07-6.71110E-02-9.82704E-09-8.46126E-09
 -1      2810 6.66639E-02 6.66640E-02 2.06224E-07-6.71110E-02 9.82710E-09 8.46124E-09
 -1      2811 6.66639E-02 6.66641E-02 2.64187E-07-6.71110E-02 3.02372E-08 2.63372E-08
 -1      2812 6.66640E-02 6.66641E-02 3.70603E-07-6.71110E-02 4.61553E-08 4.05484E-08
 -1      2813 6.66639E-02 6.66640E-02 4.55232E-07-6.71111E-02 1.94838E-08 1.55555E-08
 -1      2814 6.66637E-02 6.66638E-02 4.59376E-07-6.71112E-02-2.06712E-07-2.05670E-07
 -1      2815 8.74023E-02 4.59254E-02 4.64107E-07-6.38266E-02 2.35452E-07 1.69929E-07
 -1      2816 8.74025E-02 4.59256E-02 4.61331E-07-6.38265E-02-1.88098E-08-1.43727E-08
 -1      2817 8.74025E-02 4.59257E-02 3.81019E-07-6.38265E-02-4.84419E-08-3.52090E-08
 -1      2818 8.74025E-02 4.59257E-02 2.78268E-07-6.38264E-02-3.16134E-08-2.29503E-08
 -1      2819 8.74025E-02 4.59257E-02 2.22325E-07-6.38264E-02-1.02102E-08-7.39929E-09
 -1      2820 8.74025E-02 4.59257E-02 2.22325E-07-6.38264E-02 1.02102E-08 7.39926E-09
 -1      2821 8.74025E-02 4.59257E-02 2.78268E-07-6.38264E-02 3.16134E-08 2.29503E-08
 -1      2822 8.74025E-02 4.59257E-02 3.81019E-07-6.38265E-02 4.84420E-08 3.52090E-08
 -1      2823 8.74025E-02 4.59256E-02 4.61331E-07-6.38265E-02 1.88098E-08 1.43727E-08
 -1      2824 8.74023E-02 4.59254E-02 4.64107E-07-6.38266E-02-2.35452E-07-1.69929E-07
 -1      2825 1.06111E-01 2.72168E-02 4.60148E-07-5.42941E-02 2.57846E-07 1.32196E-07
 -1      2826 1.06111E-01 2.72171E-02 4.54628E-07-5.42940E-02-1.97939E-08-1.60137E-08
 -1      2827 1.06111E-01 2.72171E-02 3.70118E-07-5.42940E-02-5.14580E-08-3.37449E-08
 -1      2828 1.06111E-01 2.72171E-02 2.63343E-07-5.42940E-02-3.33843E-08-2.25718E-08
 -1      2829 1.06111E-01 2.72171E-02 2.05211E-07-5.42940E-02-1.07215E-08-7.44855E-09
 -1      2830 1.06111E-01 2.72171E-02 2.05211E-07-5.42940E-02 1.07216E-08 7.44854E-09
 -1      2831 1.06111E-01 2.72171E-02 2.63344E-07-5.42940E-02 3.33843E-08 2.25718E-08
 -1      2832 1.06111E-01 2.72171E-02 3.70118E-07-5.42940E-02 5.14580E-08 3.37448E-08
 -1      2833 1.06111E-01 2.72171E-02 4.54628E-07-5.42940E-02 1.97939E-08 1.60137E-08
 -1      2834 1.06111E-01 2.72168E-02 4.60148E-07-5.42941E-02-2.57846E-07-1.32196E-07
 -1      2835 1.20958E-01 1.23697E-02 4.56375E-07-3.94470E-02 2.73524E-07 9.11005E-08
 -1      2836 1.20958E-01 1.23700E-02 4.47110E-07-3.94469E-02-2.63724E-08-5.58964E-09
 -1      2837 1.20958E-01 1.23700E-02 3.58211E-07-3.94469E-02-6.04250E-08-1.72311E-08
 -1      2838 1.20958E-01 1.23701E-02 2.47118E-07-3.94469E-02-3.94606E-08-1.16895E-08
 -1      2839 1.20958E-01 1.23700E-02 1.86546E-07-3.94469E-02-1.27791E-08-3.84046E-09
 -1      2840 1.20958E-01 1.23700E-02 1.86546E-07-3.94469E-02 1.27791E-08 3.84043E-09
 -1      2841 1.20958E-01 1.23701E-02 2.47118E-07-3.94469E-02 3.94606E-08 1.16895E-08
 -1      2842 1.20958E-01 1.23700E-02 3.58211E-07-3.94469E-02 6.04250E-08 1.72311E-08
 -1      2843 1.20958E-01 1.23700E-02 4.47110E-07-3.94469E-02 2.63724E-08 5.58962E-09
 -1      2844 1.20958E-01 1.23697E-02 4.56375E-07-3.94470E-02-2.73524E-07-9.11005E-08
 -1      2845 1.30490E-01 2.83728E-03 4.67771E-07-2.07386E-02 2.80145E-07 4.58861E-08
 -1      2846 1.30490E-01 2.83760E-03 4.59860E-07-2.07386E-02-2.74963E-08 6.35728E-09
 -1      2847 1.30490E-01 2.83766E-03 3.79002E-07-2.07386E-02-6.17372E-08 2.35092E-09
 -1      2848 1.30490E-01 2.83767E-03 2.74960E-07-2.07385E-02-4.03374E-08 1.70890E-09
 -1      2849 1.30490E-01 2.83767E-03 2.18124E-07-2.07385E-02-1.30688E-08 7.01138E-10
 -1      2850 1.30490E-01 2.83767E-03 2.18124E-07-2.07385E-02 1.30688E-08-7.01159E-10
 -1      2851 1.30490E-01 2.83767E-03 2.74960E-07-2.07385E-02 4.03374E-08-1.70892E-09
 -1      2852 1.30490E-01 2.83766E-03 3.79002E-07-2.07386E-02 6.17372E-08-2.35094E-09
 -1      2853 1.30490E-01 2.83760E-03 4.59860E-07-2.07386E-02 2.74963E-08-6.35729E-09
 -1      2854 1.30490E-01 2.83728E-03 4.67771E-07-2.07386E-02-2.80145E-07-4.58861E-08
 -1      2855 2.83786E-03 1.30490E-01 2.33135E-07-2.07384E-02 6.12785E-08 3.83200E-07
 -1      2856 1.07984E-03 1.32248E-01 4.61576E-07-1.03875E-02 2.24057E-08 2.87715E-07
 -1      2858 2.83748E-03 1.30490E-01 5.18275E-07-2.07385E-02 1.96562E-08 1.18687E-07
 -1      2859 1.08016E-03 1.32248E-01 4.56131E-07-1.03875E-02-2.06126E-09-2.47390E-08
 -1      2861 2.83762E-03 1.30490E-01 4.61761E-07-2.07385E-02-6.90242E-09-4.54648E-08
 -1      2862 1.08022E-03 1.32248E-01 3.72616E-07-1.03875E-02-4.76965E-09-6.05583E-08
 -1      2864 2.83764E-03 1.30490E-01 3.30969E-07-2.07385E-02-7.52768E-09-4.76881E-08
 -1      2865 1.08023E-03 1.32248E-01 2.66787E-07-1.03875E-02-3.09097E-09-3.95604E-08
 -1      2867 2.83764E-03 1.30490E-01 2.42498E-07-2.07384E-02-4.01951E-09-2.51360E-08
 -1      2868 1.08023E-03 1.32248E-01 2.09129E-07-1.03875E-02-9.94611E-10-1.27924E-08
 -1      2870 2.83764E-03 1.30490E-01 2.12856E-07-2.07384E-02-6.41644E-15-1.24764E-14
 -1      2871 1.08023E-03 1.32248E-01 2.09129E-07-1.03875E-02 9.94594E-10 1.27924E-08
 -1      2873 2.83764E-03 1.30490E-01 2.42498E-07-2.07384E-02 4.01950E-09 2.51360E-08
 -1      2874 1.08023E-03 1.32248E-01 2.66787E-07-1.03875E-02 3.09095E-09 3.95604E-08
 -1      2876 2.83764E-03 1.30490E-01 3.30969E-07-2.07385E-02 7.52766E-09 4.76881E-08
 -1      2877 1.08022E-03 1.32248E-01 3.72616E-07-1.03875E-02 4.76964E-09 6.05583E-08
 -1      2879 2.83762E-03 1.30490E-01 4.61761E-07-2.07385E-02 6.90241E-09 4.54648E-08
 -1      2880 1.08016E-03 1.32248E-01 4.56131E-07-1.03875E-02 2.06124E-09 2.47390E-08
 -1      2882 2.83748E-03 1.30490E-01 5.18275E-07-2.07385E-02-1.96562E-08-1.18687E-07
 -1      2883 1.07984E-03 1.32248E-01 4.61576E-07-1.03875E-02-2.24057E-08-2.87715E-07
 -1      2885 2.83786E-03 1.30490E-01 2.33135E-07-2.07384E-02-6.12785E-08-3.83200E-07
 -1      2887 1.23703E-02 1.20958E-01 2.33410E-07-3.94468E-02 1.21046E-07 3.69326E-07
 -1      2888 7.49965E-03 1.25828E-01 4.61757E-07-3.01456E-02 6.66403E-08 2.80640E-07
 -1      2890 1.23699E-02 1.20958E-01 5.18431E-07-3.94469E-02 3.90718E-08 1.14119E-07
 -1      2891 7.49996E-03 1.25828E-01 4.56102E-07-3.01456E-02-6.26311E-09-2.41171E-08
 -1      2893 1.23700E-02 1.20958E-01 4.61577E-07-3.94469E-02-1.31540E-08-4.40538E-08
 -1      2894 7.50002E-03 1.25828E-01 3.72602E-07-3.01456E-02-1.43280E-08-5.90655E-08
 -1      2896 1.23701E-02 1.20958E-01 3.30686E-07-3.94469E-02-1.44192E-08-4.60617E-08
 -1      2897 7.50003E-03 1.25828E-01 2.66761E-07-3.01456E-02-9.29074E-09-3.85977E-08
 -1      2899 1.23701E-02 1.20958E-01 2.42247E-07-3.94469E-02-7.68281E-09-2.42484E-08
 -1      2900 7.50003E-03 1.25828E-01 2.09074E-07-3.01456E-02-2.99220E-09-1.24847E-08
 -1      2902 1.23701E-02 1.20958E-01 2.12632E-07-3.94469E-02-2.43754E-14 1.26501E-14
 -1      2903 7.50003E-03 1.25828E-01 2.09074E-07-3.01456E-02 2.99218E-09 1.24847E-08
 -1      2905 1.23701E-02 1.20958E-01 2.42247E-07-3.94469E-02 7.68279E-09 2.42484E-08
 -1      2906 7.50003E-03 1.25828E-01 2.66761E-07-3.01456E-02 9.29072E-09 3.85977E-08
 -1      2908 1.23701E-02 1.20958E-01 3.30686E-07-3.94469E-02 1.44191E-08 4.60617E-08
 -1      2909 7.50002E-03 1.25828E-01 3.72602E-07-3.01456E-02 1.43280E-08 5.90655E-08
 -1      2911 1.23700E-02 1.20958E-01 4.61577E-07-3.94469E-02 1.31540E-08 4.40539E-08
 -1      2912 7.49996E-03 1.25828E-01 4.56102E-07-3.01456E-02 6.26309E-09 2.41171E-08
 -1      2914 1.23699E-02 1.20958E-01 5.18431E-07-3.94469E-02-3.90719E-08-1.14119E-07
 -1      2915 7.49965E-03 1.25828E-01 4.61757E-07-3.01456E-02-6.66403E-08-2.80640E-07
 -1      2917 1.23703E-02 1.20958E-01 2.33410E-07-3.94468E-02-1.21046E-07-3.69326E-07
 -1      2919 2.72173E-02 1.06111E-01 2.33491E-07-5.42939E-02 1.77210E-07 3.47250E-07
 -1      2920 1.97109E-02 1.13617E-01 4.62067E-07-4.69529E-02 1.09264E-07 2.66641E-07
 -1      2922 2.72170E-02 1.06111E-01 5.17849E-07-5.42940E-02 5.72298E-08 1.06691E-07
 -1      2923 1.97112E-02 1.13617E-01 4.56111E-07-4.69529E-02-1.05558E-08-2.27525E-08
 -1      2925 2.72171E-02 1.06111E-01 4.59588E-07-5.42940E-02-1.88418E-08-4.22098E-08
 -1      2926 1.97112E-02 1.13617E-01 3.72826E-07-4.69528E-02-2.38866E-08-5.59321E-08
 -1      2928 2.72171E-02 1.06111E-01 3.27614E-07-5.42940E-02-2.04986E-08-4.39634E-08
 -1      2929 1.97112E-02 1.13617E-01 2.67131E-07-4.69528E-02-1.55378E-08-3.65575E-08
 -1      2931 2.72171E-02 1.06111E-01 2.38582E-07-5.42940E-02-1.08349E-08-2.31461E-08
 -1      2932 1.97112E-02 1.13617E-01 2.09482E-07-4.69528E-02-5.01818E-09-1.18271E-08
 -1      2934 2.72171E-02 1.06111E-01 2.08785E-07-5.42940E-02-4.39248E-15 3.04154E-14
 -1      2935 1.97112E-02 1.13617E-01 2.09482E-07-4.69528E-02 5.01815E-09 1.18271E-08
 -1      2937 2.72171E-02 1.06111E-01 2.38582E-07-5.42940E-02 1.08349E-08 2.31461E-08
 -1      2938 1.97112E-02 1.13617E-01 2.67131E-07-4.69528E-02 1.55377E-08 3.65575E-08
 -1      2940 2.72171E-02 1.06111E-01 3.27614E-07-5.42940E-02 2.04986E-08 4.39635E-08
 -1      2941 1.97112E-02 1.13617E-01 3.72826E-07-4.69528E-02 2.38866E-08 5.59321E-08
 -1      2943 2.72171E-02 1.06111E-01 4.59588E-07-5.42940E-02 1.88418E-08 4.22098E-08
 -1      2944 1.97112E-02 1.13617E-01 4.56111E-07-4.69529E-02 1.05558E-08 2.27525E-08
 -1      2946 2.72170E-02 1.06111E-01 5.17849E-07-5.42940E-02-5.72298E-08-1.06691E-07
 -1      2947 1.97109E-02 1.13617E-01 4.62067E-07-4.69529E-02-1.09264E-07-2.66641E-07
 -1      2949 2.72173E-02 1.06111E-01 2.33491E-07-5.42939E-02-1.77210E-07-3.47250E-07
 -1      2951 4.59257E-02 8.74026E-02 2.32855E-07-6.38263E-02 2.29435E-07 3.15925E-07
 -1      2952 3.65182E-02 9.68094E-02 4.63492E-07-5.91641E-02 1.50503E-07 2.45366E-07
 -1      2954 4.59254E-02 8.74024E-02 5.16268E-07-6.38264E-02 7.19164E-08 9.72162E-08
 -1      2955 3.65184E-02 9.68096E-02 4.57572E-07-5.91640E-02-1.35919E-08-2.10757E-08
 -1      2957 4.59255E-02 8.74025E-02 4.55745E-07-6.38264E-02-2.70545E-08-3.81849E-08
 -1      2958 3.65185E-02 9.68096E-02 3.75165E-07-5.91640E-02-3.22591E-08-5.13369E-08
 -1      2960 4.59255E-02 8.74025E-02 3.21652E-07-6.38264E-02-2.83936E-08-4.00133E-08
 -1      2961 3.65185E-02 9.68096E-02 2.70255E-07-5.91640E-02-2.11246E-08-3.34637E-08
 -1      2963 4.59255E-02 8.74024E-02 2.31238E-07-6.38264E-02-1.49212E-08-2.11185E-08
 -1      2964 3.65185E-02 9.68096E-02 2.12999E-07-5.91640E-02-6.84492E-09-1.08116E-08
 -1      2966 4.59255E-02 8.74024E-02 2.00971E-07-6.38264E-02-7.00466E-15-7.24236E-16
 -1      2967 3.65185E-02 9.68096E-02 2.12999E-07-5.91640E-02 6.84493E-09 1.08116E-08
 -1      2969 4.59255E-02 8.74024E-02 2.31238E-07-6.38264E-02 1.49212E-08 2.11185E-08
 -1      2970 3.65185E-02 9.68096E-02 2.70255E-07-5.91640E-02 2.11246E-08 3.34637E-08
 -1      2972 4.59255E-02 8.74025E-02 3.21652E-07-6.38264E-02 2.83936E-08 4.00133E-08
 -1      2973 3.65185E-02 9.68096E-02 3.75165E-07-5.91640E-02 3.22591E-08 5.13369E-08
 -1      2975 4.59255E-02 8.74025E-02 4.55745E-07-6.38264E-02 2.70546E-08 3.81849E-08
 -1      2976 3.65184E-02 9.68096E-02 4.57572E-07-5.91640E-02 1.35919E-08 2.10757E-08
 -1      2978 4.59254E-02 8.74024E-02 5.16268E-07-6.38264E-02-7.19164E-08-9.72162E-08
 -1      2979 3.65182E-02 9.68094E-02 4.63492E-07-5.91641E-02-1.50503E-07-2.45366E-07
 -1      2981 4.59257E-02 8.74026E-02 2.32855E-07-6.38263E-02-2.29435E-07-3.15925E-07
 -1      2983 6.66641E-02 6.66642E-02 2.33627E-07-6.71109E-02 2.76839E-07 2.71121E-07
 -1      2984 5.62763E-02 7.70513E-02 4.64919E-07-6.55840E-02 1.86877E-07 2.19227E-07
 -1      2986 6.66639E-02 6.66640E-02 5.17930E-07-6.71111E-02 8.42396E-08 8.57863E-08
 -1      2987 5.62765E-02 7.70515E-02 4.59333E-07-6.55838E-02-1.56885E-08-1.93585E-08
 -1      2989 6.66640E-02 6.66641E-02 4.58770E-07-6.71110E-02-3.59532E-08-2.96947E-08
 -1      2990 5.62766E-02 7.70515E-02 3.77280E-07-6.55838E-02-3.84879E-08-4.65681E-08
 -1      2992 6.66639E-02 6.66641E-02 3.26309E-07-6.71110E-02-3.70368E-08-3.18070E-08
 -1      2993 5.62765E-02 7.70515E-02 2.72812E-07-6.55838E-02-2.51157E-08-3.03488E-08
 -1      2995 6.66639E-02 6.66641E-02 2.36934E-07-6.71110E-02-1.95264E-08-1.67414E-08
 -1      2996 5.62765E-02 7.70515E-02 2.15793E-07-6.55838E-02-8.11044E-09-9.81261E-09
 -1      2998 6.66639E-02 6.66640E-02 2.07010E-07-6.71110E-02 5.21677E-14-6.54875E-15
 -1      2999 5.62765E-02 7.70515E-02 2.15793E-07-6.55838E-02 8.11044E-09 9.81261E-09
 -1      3001 6.66639E-02 6.66641E-02 2.36934E-07-6.71110E-02 1.95264E-08 1.67413E-08
 -1      3002 5.62765E-02 7.70515E-02 2.72812E-07-6.55838E-02 2.51157E-08 3.03488E-08
 -1      3004 6.66639E-02 6.66641E-02 3.26309E-07-6.71110E-02 3.70368E-08 3.18071E-08
 -1      3005 5.62766E-02 7.70515E-02 3.77280E-07-6.55838E-02 3.84879E-08 4.65681E-08
 -1      3007 6.66640E-02 6.66641E-02 4.58770E-07-6.71110E-02 3.59532E-08 2.96947E-08
 -1      3008 5.62765E-02 7.70515E-02 4.59333E-07-6.55838E-02 1.56885E-08 1.93585E-08
 -1      3010 6.66639E-02 6.66640E-02 5.17930E-07-6.71111E-02-8.42396E-08-8.57863E-08
 -1      3011 5.62763E-02 7.70513E-02 4.64919E-07-6.55840E-02-1.86877E-07-2.19227E-07
 -1      3013 6.66641E-02 6.66642E-02 2.33627E-07-6.71109E-02-2.76839E-07-2.71121E-07
 -1      3015 8.74026E-02 4.59258E-02 2.35340E-07-6.38263E-02 3.11939E-07 2.24485E-07
 -1      3016 7.70512E-02 5.62764E-02 4.60933E-07-6.55840E-02 2.17141E-07 1.91217E-07
 -1      3018 8.74025E-02 4.59256E-02 5.21519E-07-6.38265E-02 9.81902E-08 7.00122E-08
 -1      3019 7.70514E-02 5.62766E-02 4.54875E-07-6.55838E-02-1.95443E-08-1.56754E-08
 -1      3021 8.74025E-02 4.59257E-02 4.66496E-07-6.38265E-02-3.62424E-08-2.62788E-08
 -1      3022 7.70514E-02 5.62766E-02 3.70944E-07-6.55838E-02-4.57323E-08-4.04358E-08
 -1      3024 8.74025E-02 4.59257E-02 3.38656E-07-6.38265E-02-3.83516E-08-2.78158E-08
 -1      3025 7.70514E-02 5.62766E-02 2.64702E-07-6.55838E-02-2.96807E-08-2.66360E-08
 -1      3027 8.74025E-02 4.59257E-02 2.52360E-07-6.38264E-02-2.02048E-08-1.46594E-08
 -1      3028 7.70514E-02 5.62766E-02 2.06681E-07-6.55838E-02-9.56666E-09-8.66363E-09
 -1      3030 8.74025E-02 4.59257E-02 2.23493E-07-6.38264E-02 9.84772E-16-1.98172E-14
 -1      3031 7.70514E-02 5.62766E-02 2.06681E-07-6.55838E-02 9.56669E-09 8.66358E-09
 -1      3033 8.74025E-02 4.59257E-02 2.52360E-07-6.38264E-02 2.02048E-08 1.46593E-08
 -1      3034 7.70514E-02 5.62766E-02 2.64702E-07-6.55838E-02 2.96808E-08 2.66360E-08
 -1      3036 8.74025E-02 4.59257E-02 3.38656E-07-6.38265E-02 3.83516E-08 2.78158E-08
 -1      3037 7.70514E-02 5.62766E-02 3.70944E-07-6.55838E-02 4.57324E-08 4.04358E-08
 -1      3039 8.74025E-02 4.59257E-02 4.66496E-07-6.38265E-02 3.62424E-08 2.62787E-08
 -1      3040 7.70514E-02 5.62766E-02 4.54875E-07-6.55838E-02 1.95443E-08 1.56754E-08
 -1      3042 8.74025E-02 4.59256E-02 5.21519E-07-6.38265E-02-9.81902E-08-7.00122E-08
 -1      3043 7.70512E-02 5.62764E-02 4.60933E-07-6.55840E-02-2.17141E-07-1.91217E-07
 -1      3045 8.74026E-02 4.59258E-02 2.35340E-07-6.38263E-02-3.11939E-07-2.24485E-07
 -1      3047 1.06111E-01 2.72173E-02 2.34287E-07-5.42939E-02 3.39936E-07 1.78984E-07
 -1      3048 9.68094E-02 3.65181E-02 4.59354E-07-5.91641E-02 2.48181E-07 1.50119E-07
 -1      3050 1.06111E-01 2.72170E-02 5.18456E-07-5.42940E-02 1.07998E-07 5.16386E-08
 -1      3051 9.68096E-02 3.65184E-02 4.53492E-07-5.91640E-02-2.18511E-08-1.21877E-08
 -1      3053 1.06111E-01 2.72171E-02 4.58419E-07-5.42940E-02-3.80676E-08-2.70529E-08
 -1      3054 9.68096E-02 3.65185E-02 3.69361E-07-5.91640E-02-5.31667E-08-3.04009E-08
 -1      3056 1.06111E-01 2.72171E-02 3.25518E-07-5.42940E-02-4.04951E-08-2.77320E-08
 -1      3057 9.68096E-02 3.65185E-02 2.62955E-07-5.91640E-02-3.48888E-08-1.96363E-08
 -1      3059 1.06111E-01 2.72171E-02 2.35807E-07-5.42940E-02-2.12532E-08-1.48355E-08
 -1      3060 9.68096E-02 3.65184E-02 2.04816E-07-5.91640E-02-1.13256E-08-6.30879E-09
 -1      3062 1.06111E-01 2.72171E-02 2.05762E-07-5.42940E-02 1.14972E-14-4.47443E-15
 -1      3063 9.68096E-02 3.65184E-02 2.04816E-07-5.91640E-02 1.13256E-08 6.30877E-09
 -1      3065 1.06111E-01 2.72171E-02 2.35807E-07-5.42940E-02 2.12532E-08 1.48355E-08
 -1      3066 9.68096E-02 3.65185E-02 2.62955E-07-5.91640E-02 3.48888E-08 1.96363E-08
 -1      3068 1.06111E-01 2.72171E-02 3.25518E-07-5.42940E-02 4.04951E-08 2.77320E-08
 -1      3069 9.68096E-02 3.65185E-02 3.69361E-07-5.91640E-02 5.31667E-08 3.04009E-08
 -1      3071 1.06111E-01 2.72171E-02 4.58419E-07-5.42940E-02 3.80676E-08 2.70529E-08
 -1      3072 9.68096E-02 3.65184E-02 4.53492E-07-5.91640E-02 2.18511E-08 1.21876E-08
 -1      3074 1.06111E-01 2.72170E-02 5.18456E-07-5.42940E-02-1.07998E-07-5.16386E-08
 -1      3075 9.68094E-02 3.65181E-02 4.59354E-07-5.91641E-02-2.48181E-07-1.50119E-07
 -1      3077 1.06111E-01 2.72173E-02 2.34287E-07-5.42939E-02-3.39936E-07-1.78984E-07
 -1      3079 1.20958E-01 1.23703E-02 2.32235E-07-3.94468E-02 3.64099E-07 1.18149E-07
 -1      3080 1.13617E-01 1.97109E-02 4.65410E-07-4.69529E-02 2.69211E-07 1.07750E-07
 -1      3082 1.20958E-01 1.23699E-02 5.14519E-07-3.94469E-02 1.11275E-07 3.92288E-08
 -1      3083 1.13617E-01 1.97112E-02 4.61576E-07-4.69529E-02-2.23304E-08-9.48301E-09
 -1      3085 1.20958E-01 1.23700E-02 4.49639E-07-3.94469E-02-4.66558E-08-1.15606E-08
 -1      3086 1.13617E-01 1.97112E-02 3.80540E-07-4.69528E-02-5.60023E-08-2.17400E-08
 -1      3088 1.20958E-01 1.23701E-02 3.11424E-07-3.94469E-02-4.83191E-08-1.37740E-08
 -1      3089 1.13617E-01 1.97112E-02 2.77344E-07-4.69528E-02-3.66608E-08-1.37076E-08
 -1      3091 1.20958E-01 1.23700E-02 2.17923E-07-3.94469E-02-2.54469E-08-7.53661E-09
 -1      3092 1.13617E-01 1.97112E-02 2.21015E-07-4.69528E-02-1.18744E-08-4.34245E-09
 -1      3094 1.20958E-01 1.23700E-02 1.86533E-07-3.94469E-02-1.53414E-16-1.22658E-14
 -1      3095 1.13617E-01 1.97112E-02 2.21015E-07-4.69528E-02 1.18744E-08 4.34242E-09
 -1      3097 1.20958E-01 1.23700E-02 2.17923E-07-3.94469E-02 2.54469E-08 7.53658E-09
 -1      3098 1.13617E-01 1.97112E-02 2.77344E-07-4.69528E-02 3.66608E-08 1.37075E-08
 -1      3100 1.20958E-01 1.23701E-02 3.11424E-07-3.94469E-02 4.83191E-08 1.37740E-08
 -1      3101 1.13617E-01 1.97112E-02 3.80540E-07-4.69528E-02 5.60023E-08 2.17400E-08
 -1      3103 1.20958E-01 1.23700E-02 4.49639E-07-3.94469E-02 4.66558E-08 1.15606E-08
 -1      3104 1.13617E-01 1.97112E-02 4.61576E-07-4.69529E-02 2.23304E-08 9.48299E-09
 -1      3106 1.20958E-01 1.23699E-02 5.14519E-07-3.94469E-02-1.11275E-07-3.92288E-08
 -1      3107 1.13617E-01 1.97109E-02 4.65410E-07-4.69529E-02-2.69211E-07-1.07750E-07
 -1      3109 1.20958E-01 1.23703E-02 2.32235E-07-3.94468E-02-3.64099E-07-1.18149E-07
 -1      3111 1.30490E-01 2.83787E-03 2.34694E-07-2.07385E-02 3.70971E-07 5.05178E-08
 -1      3112 1.25828E-01 7.49972E-03 4.64124E-07-3.01457E-02 2.82870E-07 7.06547E-08
 -1      3114 1.30490E-01 2.83751E-03 5.21187E-07-2.07386E-02 1.14196E-07 2.56471E-08
 -1      3115 1.25828E-01 7.50003E-03 4.61214E-07-3.01457E-02-2.25852E-08-7.82355E-09
 -1      3117 1.30490E-01 2.83765E-03 4.65364E-07-2.07386E-02-4.69663E-08 6.51801E-09
 -1      3118 1.25828E-01 7.50009E-03 3.79373E-07-3.01457E-02-5.75009E-08-1.76668E-08
 -1      3120 1.30490E-01 2.83767E-03 3.36348E-07-2.07385E-02-4.90306E-08 3.23702E-09
 -1      3121 1.25828E-01 7.50009E-03 2.75647E-07-3.01457E-02-3.74250E-08-1.16268E-08
 -1      3123 1.30490E-01 2.83767E-03 2.48635E-07-2.07385E-02-2.58972E-08 1.61931E-09
 -1      3124 1.25828E-01 7.50009E-03 2.19094E-07-3.01457E-02-1.20715E-08-3.80230E-09
 -1      3126 1.30490E-01 2.83767E-03 2.19166E-07-2.07385E-02-1.55116E-14-8.87984E-15
 -1      3127 1.25828E-01 7.50009E-03 2.19094E-07-3.01457E-02 1.20715E-08 3.80227E-09
 -1      3129 1.30490E-01 2.83767E-03 2.48635E-07-2.07385E-02 2.58972E-08-1.61933E-09
 -1      3130 1.25828E-01 7.50009E-03 2.75647E-07-3.01457E-02 3.74250E-08 1.16268E-08
 -1      3132 1.30490E-01 2.83767E-03 3.36348E-07-2.07385E-02 4.90306E-08-3.23704E-09
 -1      3133 1.25828E-01 7.50009E-03 3.79373E-07-3.01457E-02 5.75009E-08 1.76667E-08
 -1      3135 1.30490E-01 2.83765E-03 4.65364E-07-2.07386E-02 4.69663E-08-6.51802E-09
 -1      3136 1.25828E-01 7.50003E-03 4.61214E-07-3.01457E-02 2.25853E-08 7.82352E-09
 -1      3138 1.30490E-01 2.83751E-03 5.21187E-07-2.07386E-02-1.14196E-07-2.56471E-08
 -1      3139 1.25828E-01 7.49972E-03 4.64124E-07-3.01457E-02-2.82870E-07-7.06548E-08
 -1      3141 1.30490E-01 2.83787E-03 2.34694E-07-2.07385E-02-3.70971E-07-5.05178E-08
 -1      3143 1.32248E-01 1.07984E-03 4.53084E-07-1.03876E-02 2.93146E-07 2.78269E-08
 -1      3145 1.32248E-01 1.08016E-03 4.48961E-07-1.03875E-02-2.39102E-08-2.92821E-09
 -1      3147 1.32248E-01 1.08023E-03 3.61800E-07-1.03875E-02-6.12251E-08-7.98550E-09
 -1      3149 1.32248E-01 1.08024E-03 2.52995E-07-1.03875E-02-4.00562E-08-5.58288E-09
 -1      3151 1.32248E-01 1.08024E-03 1.93670E-07-1.03875E-02-1.29698E-08-1.88977E-09
 -1      3153 1.32248E-01 1.08024E-03 1.93670E-07-1.03875E-02 1.29698E-08 1.88976E-09
 -1      3155 1.32248E-01 1.08024E-03 2.52995E-07-1.03875E-02 4.00562E-08 5.58287E-09
 -1      3157 1.32248E-01 1.08023E-03 3.61800E-07-1.03875E-02 6.12251E-08 7.98550E-09
 -1      3159 1.32248E-01 1.08016E-03 4.48961E-07-1.03875E-02 2.39102E-08 2.92820E-09
 -1      3161 1.32248E-01 1.07984E-03 4.53084E-07-1.03876E-02-2.93146E-07-2.78269E-08
 -1      3164 1.37562E-01-4.23118E-03 4.13614E-07-5.92553E-04-4.91809E-07 4.69966E-09
 -1      3165 1.37563E-01-4.23118E-03 6.35586E-07-5.92535E-04-1.79298E-07 2.09845E-09
 -1      3166 1.37563E-01-4.23113E-03 7.66437E-07-5.92528E-04-8.16192E-08-2.08933E-09
 -1      3167 1.37563E-01-4.23112E-03 8.49840E-07-5.92527E-04-4.42135E-08-3.08969E-09
 -1      3168 1.37563E-01-4.23113E-03 8.92416E-07-5.92527E-04-1.45628E-08-1.26768E-09
 -1      3169 1.37563E-01-4.23113E-03 8.92416E-07-5.92527E-04 1.45628E-08 1.26774E-09
 -1      3170 1.37563E-01-4.23112E-03 8.49840E-07-5.92527E-04 4.42135E-08 3.08971E-09
 -1      3171 1.37563E-01-4.23113E-03 7.66437E-07-5.92528E-04 8.16192E-08 2.08931E-09
 -1      3172 1.37563E-01-4.23118E-03 6.35586E-07-5.92535E-04 1.79298E-07-2.09842E-09
 -1      3173 1.37562E-01-4.23118E-03 4.13614E-07-5.92553E-04 4.91809E-07-4.69964E-09
 -1      3174 1.41418E-01-8.09432E-03-7.62780E-07-2.89756E-06 4.97994E-07 5.73794E-11
 -1      3175 1.41418E-01-8.09407E-03-1.06052E-06-2.88814E-06 3.05246E-07 1.08245E-09
 -1      3176 1.41418E-01-8.09399E-03-1.16371E-06-2.88516E-06 1.63667E-07-8.59198E-10
 -1      3177 1.41418E-01-8.09396E-03-1.18300E-06-2.88361E-06 8.30801E-08-6.11169E-10
 -1      3178 1.41418E-01-8.09395E-03-1.18581E-06-2.88318E-06 2.56520E-08-2.18832E-10
 -1      3179 1.41418E-01-8.09395E-03-1.18581E-06-2.88318E-06-2.56520E-08 2.18817E-10
 -1      3180 1.41418E-01-8.09396E-03-1.18300E-06-2.88361E-06-8.30801E-08 6.11136E-10
 -1      3181 1.41418E-01-8.09399E-03-1.16371E-06-2.88516E-06-1.63667E-07 8.59208E-10
 -1      3182 1.41418E-01-8.09407E-03-1.06052E-06-2.88814E-06-3.05246E-07-1.08249E-09
 -1      3183 1.41418E-01-8.09432E-03-7.62780E-07-2.89756E-06-4.97994E-07-5.73728E-11
 -1      3184 1.45505E-01-1.21761E-02 1.80361E-07-9.25877E-05-1.62991E-07 5.94412E-09
 -1      3185 1.45505E-01-1.21762E-02 2.89495E-07-9.25889E-05-1.14496E-07-1.06742E-10
 -1      3186 1.45505E-01-1.21763E-02 3.03882E-07-9.25892E-05-4.28747E-08 1.55027E-10
 -1      3187 1.45505E-01-1.21763E-02 2.89633E-07-9.25890E-05-8.05009E-09 1.80927E-10
 -1      3188 1.45505E-01-1.21763E-02 2.75857E-07-9.25887E-05-1.29604E-10 5.35567E-11
 -1      3189 1.45505E-01-1.21763E-02 2.75857E-07-9.25887E-05 1.29590E-10-5.35499E-11
 -1      3190 1.45505E-01-1.21763E-02 2.89633E-07-9.25890E-05 8.05009E-09-1.80940E-10
 -1      3191 1.45505E-01-1.21763E-02 3.03882E-07-9.25892E-05 4.28747E-08-1.55062E-10
 -1      3192 1.45505E-01-1.21762E-02 2.89495E-07-9.25889E-05 1.14496E-07 1.06763E-10
 -1      3193 1.45505E-01-1.21761E-02 1.80361E-07-9.25877E-05 1.62991E-07-5.94412E-09
 -1      3194 1.49946E-01-1.66185E-02-5.08204E-08-7.47799E-05 4.14487E-08-3.93777E-09
 -1      3195 1.49946E-01-1.66185E-02-8.29226E-08-7.47796E-05 2.70624E-08-8.33459E-10
 -1      3196 1.49946E-01-1.66184E-02-7.92048E-08-7.47793E-05 1.14345E-08-1.71156E-11
 -1      3197 1.49946E-01-1.66184E-02-7.47280E-08-7.47789E-05 1.23136E-09 4.59423E-11
 -1      3198 1.49946E-01-1.66184E-02-7.16160E-08-7.47789E-05-6.06575E-10 1.30577E-11
 -1      3199 1.49946E-01-1.66184E-02-7.16160E-08-7.47789E-05 6.06579E-10-1.30495E-11
 -1      3200 1.49946E-01-1.66184E-02-7.47280E-08-7.47789E-05-1.23136E-09-4.59298E-11
 -1      3201 1.49946E-01-1.66184E-02-7.92048E-08-7.47793E-05-1.14345E-08 1.71255E-11
 -1      3202 1.49946E-01-1.66185E-02-8.29226E-08-7.47796E-05-2.70624E-08 8.33474E-10
 -1      3203 1.49946E-01-1.66185E-02-5.08204E-08-7.47799E-05-4.14487E-08 3.93778E-09
 -1      3204 1.54771E-01-2.14427E-02 1.33319E-08-8.50524E-05-1.70364E-08 1.31321E-09
 -1      3205 1.54771E-01-2.14427E-02 2.43232E-08-8.50525E-05-8.99520E-09 4.58940E-10
 -1      3206 1.54771E-01-2.14427E-02 2.18953E-08-8.50523E-05-4.12823E-09 1.02219E-10
 -1      3207 1.54771E-01-2.14427E-02 1.99028E-08-8.50523E-05-1.78620E-09-4.34724E-11
 -1      3208 1.54771E-01-2.14427E-02 1.93406E-08-8.50524E-05-4.02654E-10-2.23671E-11
 -1      3209 1.54771E-01-2.14427E-02 1.93406E-08-8.50524E-05 4.02641E-10 2.23737E-11
 -1      3210 1.54771E-01-2.14427E-02 1.99028E-08-8.50523E-05 1.78621E-09 4.34200E-11
 -1      3211 1.54771E-01-2.14427E-02 2.18953E-08-8.50523E-05 4.12825E-09-1.02245E-10
 -1      3212 1.54771E-01-2.14427E-02 2.43232E-08-8.50525E-05 8.99518E-09-4.58959E-10
 -1      3213 1.54771E-01-2.14427E-02 1.33319E-08-8.50524E-05 1.70364E-08-1.31321E-09
 -1      3214 1.60028E-01-2.66996E-02-3.92268E-09-8.85881E-05 3.07029E-09-5.61944E-10
 -1      3215 1.60028E-01-2.66996E-02-6.69073E-09-8.85881E-05 2.18776E-09-1.12555E-10
 -1      3216 1.60028E-01-2.66995E-02-5.27645E-09-8.85880E-05 3.44498E-10-2.30000E-11
 -1      3217 1.60028E-01-2.66995E-02-4.42603E-09-8.85880E-05-2.20413E-10 1.56357E-11
 -1      3218 1.60028E-01-2.66996E-02-4.03919E-09-8.85880E-05-9.13672E-11 1.30455E-11
 -1      3219 1.60028E-01-2.66996E-02-4.03920E-09-8.85880E-05 9.13822E-11-1.30461E-11
 -1      3220 1.60028E-01-2.66995E-02-4.42602E-09-8.85880E-05 2.20392E-10-1.56050E-11
 -1      3221 1.60028E-01-2.66995E-02-5.27645E-09-8.85880E-05-3.44482E-10 2.29821E-11
 -1      3222 1.60028E-01-2.66996E-02-6.69070E-09-8.85881E-05-2.18775E-09 1.12552E-10
 -1      3223 1.60028E-01-2.66996E-02-3.92269E-09-8.85881E-05-3.07029E-09 5.61947E-10
 -1      3224 1.65769E-01-3.24410E-02 8.24729E-10-9.44359E-05-1.68470E-09 1.41667E-10
 -1      3225 1.65769E-01-3.24410E-02 1.87821E-09-9.44359E-05-5.69037E-10 7.15302E-11
 -1      3226 1.65769E-01-3.24410E-02 1.44999E-09-9.44359E-05-4.39725E-10 1.02598E-11
 -1      3227 1.65769E-01-3.24410E-02 1.26693E-09-9.44359E-05-1.78835E-10-2.49961E-12
 -1      3228 1.65769E-01-3.24410E-02 1.25473E-09-9.44359E-05-3.22655E-11-9.83342E-13
 -1      3229 1.65769E-01-3.24410E-02 1.25476E-09-9.44359E-05 3.22498E-11 1.00510E-12
 -1      3230 1.65769E-01-3.24410E-02 1.26696E-09-9.44359E-05 1.78854E-10 2.45627E-12
 -1      3231 1.65769E-01-3.24410E-02 1.45001E-09-9.44359E-05 4.39742E-10-1.02164E-11
 -1      3232 1.65769E-01-3.24410E-02 1.87821E-09-9.44359E-05 5.69057E-10-7.15406E-11
 -1      3233 1.65769E-01-3.24410E-02 8.24746E-10-9.44359E-05 1.68468E-09-1.41686E-10
 -1      3234 1.72057E-01-3.87288E-02-5.28251E-10-1.00324E-04 1.77905E-10-6.22076E-11
 -1      3235 1.72057E-01-3.87288E-02-7.56273E-10-1.00324E-04 2.65362E-10-4.95421E-12
 -1      3236 1.72057E-01-3.87288E-02-5.72356E-10-1.00324E-04-7.18322E-12-4.97480E-12
 -1      3237 1.72057E-01-3.87288E-02-4.81215E-10-1.00324E-04 3.43037E-12 3.49357E-12
 -1      3238 1.72057E-01-3.87288E-02-4.47261E-10-1.00324E-04 9.22531E-13 1.95625E-12
 -1      3239 1.72057E-01-3.87288E-02-4.47253E-10-1.00324E-04-9.17706E-13-1.96544E-12
 -1      3240 1.72057E-01-3.87288E-02-4.81217E-10-1.00324E-04-3.43075E-12-3.44913E-12
 -1      3241 1.72057E-01-3.87288E-02-5.72357E-10-1.00324E-04 7.18555E-12 4.97407E-12
 -1      3242 1.72057E-01-3.87288E-02-7.56279E-10-1.00324E-04-2.65369E-10 4.97230E-12
 -1      3243 1.72057E-01-3.87288E-02-5.28253E-10-1.00324E-04-1.77906E-10 6.21625E-11
 -1      3244 1.78962E-01-4.56343E-02-1.82048E-10-1.06925E-04-1.72080E-10 1.18830E-11
 -1      3245 1.78962E-01-4.56343E-02-8.90089E-11-1.06925E-04 8.33204E-12 1.09418E-11
 -1      3246 1.78962E-01-4.56343E-02-1.47939E-10-1.06925E-04-4.34471E-11 7.31098E-13
 -1      3247 1.78962E-01-4.56343E-02-1.67631E-10-1.06925E-04 3.78785E-12 1.28205E-12
 -1      3248 1.78962E-01-4.56343E-02-1.69676E-10-1.06925E-04-6.34675E-13 5.54460E-14
 -1      3249 1.78962E-01-4.56343E-02-1.69669E-10-1.06925E-04 6.23103E-13-3.92152E-14
 -1      3250 1.78962E-01-4.56343E-02-1.67622E-10-1.06925E-04-3.77810E-12-1.31087E-12
 -1      3251 1.78962E-01-4.56343E-02-1.47944E-10-1.06925E-04 4.34522E-11-7.17812E-13
 -1      3252 1.78962E-01-4.56343E-02-8.90210E-11-1.06925E-04-8.31085E-12-1.09391E-11
 -1      3253 1.78962E-01-4.56343E-02-1.82033E-10-1.06925E-04 1.72069E-10-1.18717E-11
 -1      3254 1.86569E-01-5.32414E-02-3.24572E-10-1.14161E-04 1.42732E-12-5.83839E-12
 -1      3255 1.86569E-01-5.32414E-02-3.41942E-10-1.14161E-04 4.40812E-11 1.76103E-12
 -1      3256 1.86569E-01-5.32414E-02-3.25878E-10-1.14161E-04-5.95743E-12-6.33040E-13
 -1      3257 1.86569E-01-5.32414E-02-3.20023E-10-1.14161E-04 1.10088E-11 1.18449E-12
 -1      3258 1.86569E-01-5.32414E-02-3.18804E-10-1.14161E-04-1.85362E-13 1.43720E-13
 -1      3259 1.86569E-01-5.32414E-02-3.18803E-10-1.14161E-04 1.89056E-13-1.30768E-13
 -1      3260 1.86569E-01-5.32414E-02-3.20005E-10-1.14161E-04-1.10217E-11-1.18133E-12
 -1      3261 1.86569E-01-5.32414E-02-3.25884E-10-1.14161E-04 5.96435E-12 6.31778E-13
 -1      3262 1.86569E-01-5.32414E-02-3.41937E-10-1.14161E-04-4.40664E-11-1.76676E-12
 -1      3263 1.86569E-01-5.32414E-02-3.24582E-10-1.14161E-04-1.43090E-12 5.87528E-12
 -1      3264 1.94976E-01-6.16483E-02-3.38901E-10-1.22168E-04-1.62066E-11 1.54607E-12
 -1      3265 1.94976E-01-6.16483E-02-3.29767E-10-1.22168E-04 9.66106E-12 2.20981E-12
 -1      3266 1.94976E-01-6.16483E-02-3.37581E-10-1.22168E-04-7.20474E-12 2.20449E-13
 -1      3267 1.94976E-01-6.16483E-02-3.40214E-10-1.22168E-04 5.14618E-12 7.11364E-13
 -1      3268 1.94976E-01-6.16483E-02-3.40974E-10-1.22168E-04-1.34592E-12-1.45346E-14
 -1      3269 1.94976E-01-6.16483E-02-3.40987E-10-1.22168E-04 1.36539E-12 1.02351E-14
 -1      3270 1.94976E-01-6.16483E-02-3.40208E-10-1.22168E-04-5.13836E-12-7.02498E-13
 -1      3271 1.94976E-01-6.16483E-02-3.37566E-10-1.22168E-04 7.18474E-12-2.40841E-13
 -1      3272 1.94976E-01-6.16483E-02-3.29777E-10-1.22168E-04-9.66494E-12-2.17944E-12
 -1      3273 1.94976E-01-6.16483E-02-3.38898E-10-1.22168E-04 1.62193E-11-1.52820E-12
 -1      3274 2.04299E-01-7.09712E-02-4.03870E-10-1.31045E-04 4.36356E-12 3.83102E-13
 -1      3275 2.04299E-01-7.09712E-02-4.03384E-10-1.31045E-04 5.42033E-12 7.94219E-13
 -1      3276 2.04299E-01-7.09712E-02-4.02424E-10-1.31045E-04-2.73500E-12 1.48416E-13
 -1      3277 2.04299E-01-7.09712E-02-4.02430E-10-1.31045E-04 3.03505E-12 4.71385E-13
 -1      3278 2.04299E-01-7.09712E-02-4.02572E-10-1.31045E-04-1.18203E-12-1.89120E-14
 -1      3279 2.04299E-01-7.09712E-02-4.02567E-10-1.31045E-04 1.18901E-12 3.44715E-15
 -1      3280 2.04299E-01-7.09712E-02-4.02450E-10-1.31045E-04-3.03924E-12-4.58739E-13
 -1      3281 2.04299E-01-7.09712E-02-4.02442E-10-1.31045E-04 2.76571E-12-1.30814E-13
 -1      3282 2.04299E-01-7.09712E-02-4.03364E-10-1.31045E-04-5.41699E-12-7.74560E-13
 -1      3283 2.04299E-01-7.09712E-02-4.03870E-10-1.31045E-04-4.35557E-12-3.83220E-13
 -1      3284 2.14676E-01-8.13480E-02-4.70543E-10-1.40926E-04 7.86079E-12 1.23103E-12
 -1      3285 2.14676E-01-8.13480E-02-4.67694E-10-1.40926E-04-5.53711E-13 4.29789E-13
 -1      3286 2.14676E-01-8.13480E-02-4.68690E-10-1.40926E-04-1.56866E-12 2.18340E-13
 -1      3287 2.14676E-01-8.13480E-02-4.69140E-10-1.40926E-04 1.32087E-12 2.79044E-13
 -1      3288 2.14676E-01-8.13480E-02-4.69206E-10-1.40926E-04-1.00174E-12-2.51394E-14
 -1      3289 2.14676E-01-8.13480E-02-4.69212E-10-1.40926E-04 9.88921E-13 4.69883E-14
 -1      3290 2.14676E-01-8.13480E-02-4.69131E-10-1.40926E-04-1.30016E-12-2.77624E-13
 -1      3291 2.14676E-01-8.13480E-02-4.68679E-10-1.40926E-04 1.57607E-12-1.88107E-13
 -1      3292 2.14676E-01-8.13480E-02-4.67721E-10-1.40926E-04 5.63487E-13-4.67500E-13
 -1      3293 2.14676E-01-8.13480E-02-4.70561E-10-1.40926E-04-7.85041E-12-1.23364E-12
 -1      3294 2.26272E-01-9.29439E-02-5.56964E-10-1.51967E-04 1.36740E-11 1.34796E-12
 -1      3295 2.26272E-01-9.29439E-02-5.54354E-10-1.51967E-04-2.65508E-12 8.90159E-14
 -1      3296 2.26272E-01-9.29439E-02-5.54381E-10-1.51967E-04-3.80876E-13 1.74579E-13
 -1      3297 2.26272E-01-9.29439E-02-5.54630E-10-1.51967E-04 7.16353E-13 1.74997E-13
 -1      3298 2.26272E-01-9.29439E-02-5.54578E-10-1.51967E-04-7.45429E-13-1.94972E-14
 -1      3299 2.26272E-01-9.29439E-02-5.54578E-10-1.51967E-04 7.72907E-13 2.86697E-14
 -1      3300 2.26272E-01-9.29439E-02-5.54629E-10-1.51967E-04-7.15949E-13-1.78860E-13
 -1      3301 2.26272E-01-9.29439E-02-5.54375E-10-1.51967E-04 3.76747E-13-2.12387E-13
 -1      3302 2.26272E-01-9.29439E-02-5.54336E-10-1.51967E-04 2.68545E-12-6.90702E-14
 -1      3303 2.26272E-01-9.29439E-02-5.56960E-10-1.51967E-04-1.36772E-11-1.35191E-12
 -1      3304 2.39285E-01-1.05957E-01-6.63680E-10-1.64359E-04 1.77037E-11 1.70973E-12
 -1      3305 2.39285E-01-1.05957E-01-6.60240E-10-1.64359E-04-4.26695E-12-1.03558E-13
 -1      3306 2.39285E-01-1.05957E-01-6.60248E-10-1.64359E-04 1.67445E-14 2.00356E-13
 -1      3307 2.39285E-01-1.05957E-01-6.60547E-10-1.64359E-04 5.27790E-13 1.51489E-13
 -1      3308 2.39285E-01-1.05957E-01-6.60427E-10-1.64359E-04-7.30875E-13-2.40535E-15
 -1      3309 2.39285E-01-1.05957E-01-6.60440E-10-1.64359E-04 7.48174E-13 5.46759E-14
 -1      3310 2.39285E-01-1.05957E-01-6.60544E-10-1.64359E-04-5.35338E-13-1.25281E-13
 -1      3311 2.39285E-01-1.05957E-01-6.60251E-10-1.64359E-04 3.48487E-15-1.75025E-13
 -1      3312 2.39285E-01-1.05957E-01-6.60232E-10-1.64359E-04 4.21223E-12 9.11539E-14
 -1      3313 2.39285E-01-1.05957E-01-6.63666E-10-1.64359E-04-1.77330E-11-1.68755E-12
 -1      3314 2.53957E-01-1.20629E-01-7.96727E-10-1.78330E-04 2.28026E-11 1.85891E-12
 -1      3315 2.53957E-01-1.20629E-01-7.92551E-10-1.78330E-04-4.54248E-12-2.23776E-13
 -1      3316 2.53957E-01-1.20629E-01-7.92908E-10-1.78330E-04-1.66379E-13 5.24172E-14
 -1      3317 2.53957E-01-1.20629E-01-7.93473E-10-1.78330E-04 8.81765E-13 1.24189E-13
 -1      3318 2.53957E-01-1.20629E-01-7.93291E-10-1.78330E-04-9.58940E-13-7.26138E-14
 -1      3319 2.53957E-01-1.20629E-01-7.93291E-10-1.78330E-04 9.98703E-13 5.25441E-14
 -1      3320 2.53957E-01-1.20629E-01-7.93479E-10-1.78330E-04-8.86260E-13-1.32131E-13
 -1      3321 2.53957E-01-1.20629E-01-7.92927E-10-1.78330E-04 1.50980E-13-8.45137E-14
 -1      3322 2.53957E-01-1.20629E-01-7.92591E-10-1.78330E-04 4.58774E-12 2.55118E-13
 -1      3323 2.53957E-01-1.20629E-01-7.96735E-10-1.78330E-04-2.28234E-11-1.87125E-12
 -1      3324 2.70582E-01-1.37254E-01-9.69738E-10-1.94160E-04 2.39196E-11 2.43445E-12
 -1      3325 2.70582E-01-1.37254E-01-9.64644E-10-1.94160E-04-4.75825E-12-1.77421E-13
 -1      3326 2.70582E-01-1.37254E-01-9.62959E-10-1.94160E-04-2.04956E-12-2.79256E-14
 -1      3327 2.70582E-01-1.37254E-01-9.63331E-10-1.94160E-04 1.70902E-12 1.74402E-13
 -1      3328 2.70582E-01-1.37254E-01-9.62950E-10-1.94160E-04-1.54686E-12-1.02708E-13
 -1      3329 2.70582E-01-1.37254E-01-9.62972E-10-1.94160E-04 1.55526E-12 1.43258E-13
 -1      3330 2.70582E-01-1.37254E-01-9.63346E-10-1.94160E-04-1.70246E-12-1.51583E-13
 -1      3331 2.70582E-01-1.37254E-01-9.62973E-10-1.94160E-04 2.04344E-12 5.97167E-14
 -1      3332 2.70582E-01-1.37254E-01-9.64648E-10-1.94160E-04 4.78596E-12 1.47251E-13
 -1      3333 2.70582E-01-1.37254E-01-9.69730E-10-1.94160E-04-2.39388E-11-2.39892E-12
 -1      3334 2.89521E-01-1.56194E-01-1.17608E-09-2.12194E-04 3.41970E-11 1.40018E-12
 -1      3335 2.89521E-01-1.56194E-01-1.16975E-09-2.12194E-04 3.06102E-12-1.40137E-13
 -1      3336 2.89521E-01-1.56194E-01-1.17366E-09-2.12194E-04-4.40249E-12-3.74816E-13
 -1      3337 2.89521E-01-1.56194E-01-1.17602E-09-2.12194E-04 3.94512E-12 3.66606E-13
 -1      3338 2.89521E-01-1.56194E-01-1.17572E-09-2.12194E-04-2.16666E-12-1.28038E-13
 -1      3339 2.89521E-01-1.56194E-01-1.17569E-09-2.12194E-04 2.15769E-12 1.35440E-13
 -1      3340 2.89521E-01-1.56194E-01-1.17603E-09-2.12194E-04-3.95777E-12-3.79094E-13
 -1      3341 2.89521E-01-1.56194E-01-1.17365E-09-2.12194E-04 4.37804E-12 3.53776E-13
 -1      3342 2.89521E-01-1.56194E-01-1.16975E-09-2.12194E-04-3.02173E-12 1.45990E-13
 -1      3343 2.89521E-01-1.56194E-01-1.17608E-09-2.12194E-04-3.41942E-11-1.39521E-12
 -1      3344 3.11226E-01-1.77899E-01-1.49730E-09-2.32859E-04-6.55578E-12 4.74942E-12
 -1      3345 3.11226E-01-1.77899E-01-1.49449E-09-2.32859E-04 8.56120E-13 1.59108E-12
 -1      3346 3.11226E-01-1.77899E-01-1.47552E-09-2.32859E-04-1.62557E-11-9.51952E-13
 -1      3347 3.11226E-01-1.77899E-01-1.47231E-09-2.32859E-04 6.39856E-12 3.04206E-13
 -1      3348 3.11226E-01-1.77899E-01-1.47032E-09-2.32859E-04-2.63259E-12-3.48347E-13
 -1      3349 3.11226E-01-1.77899E-01-1.47032E-09-2.32859E-04 2.62418E-12 3.22951E-13
 -1      3350 3.11226E-01-1.77899E-01-1.47231E-09-2.32859E-04-6.39331E-12-3.31479E-13
 -1      3351 3.11226E-01-1.77899E-01-1.47551E-09-2.32859E-04 1.62467E-11 9.67149E-13
 -1      3352 3.11226E-01-1.77899E-01-1.49447E-09-2.32859E-04-8.69624E-13-1.60911E-12
 -1      3353 3.11226E-01-1.77899E-01-1.49729E-09-2.32859E-04 6.60858E-12-4.74118E-12
 -1      3354 3.36263E-01-2.02935E-01-1.73082E-09-2.56704E-04 9.08844E-11-1.10215E-11
 -1      3355 3.36263E-01-2.02935E-01-1.71302E-09-2.56704E-04 8.41132E-11 5.90298E-13
 -1      3356 3.36263E-01-2.02935E-01-1.75950E-09-2.56704E-04-1.22329E-11-2.08392E-12
 -1      3357 3.36263E-01-2.02935E-01-1.77817E-09-2.56704E-04 1.70513E-11 1.86597E-12
 -1      3358 3.36263E-01-2.02935E-01-1.77964E-09-2.56704E-04 3.96165E-14 2.44287E-13
 -1      3359 3.36263E-01-2.02935E-01-1.77963E-09-2.56704E-04-2.72176E-14-2.56228E-13
 -1      3360 3.36263E-01-2.02935E-01-1.77817E-09-2.56704E-04-1.70745E-11-1.85447E-12
 -1      3361 3.36263E-01-2.02935E-01-1.75948E-09-2.56704E-04 1.22154E-11 2.07662E-12
 -1      3362 3.36263E-01-2.02935E-01-1.71300E-09-2.56704E-04-8.40712E-11-5.89233E-13
 -1      3363 3.36263E-01-2.02935E-01-1.73083E-09-2.56704E-04-9.08992E-11 1.10085E-11
 -1      3364 3.65347E-01-2.32019E-01-2.69325E-09-2.84370E-04-4.34612E-10 3.04351E-11
 -1      3365 3.65347E-01-2.32019E-01-2.76496E-09-2.84370E-04-3.62541E-11 1.60325E-11
 -1      3366 3.65347E-01-2.32019E-01-2.56948E-09-2.84370E-04-9.02328E-11-5.30170E-12
 -1      3367 3.65347E-01-2.32019E-01-2.50862E-09-2.84370E-04 1.61333E-11-2.15968E-12
 -1      3368 3.65347E-01-2.32019E-01-2.49261E-09-2.84370E-04 8.91502E-12-9.89753E-13
 -1      3369 3.65347E-01-2.32019E-01-2.49263E-09-2.84370E-04-8.92400E-12 1.00155E-12
 -1      3370 3.65347E-01-2.32019E-01-2.50863E-09-2.84370E-04-1.61268E-11 2.15702E-12
 -1      3371 3.65347E-01-2.32019E-01-2.56949E-09-2.84370E-04 9.02419E-11 5.29010E-12
 -1      3372 3.65347E-01-2.32019E-01-2.76498E-09-2.84370E-04 3.62383E-11-1.60535E-11
 -1      3373 3.65347E-01-2.32019E-01-2.69325E-09-2.84370E-04 4.34623E-10-3.04269E-11
 -1      3374 3.99403E-01-2.66075E-01-1.69554E-09-3.16890E-04 9.88418E-10-1.47103E-10
 -1      3375 3.99403E-01-2.66075E-01-1.48000E-09-3.16890E-04 8.39620E-10-8.82320E-12
 -1      3376 3.99403E-01-2.66075E-01-1.98911E-09-3.16890E-04 1.12183E-10-3.24212E-12
 -1      3377 3.99403E-01-2.66075E-01-2.19502E-09-3.16890E-04 6.58769E-11 1.25765E-11
 -1      3378 3.99403E-01-2.66075E-01-2.24743E-09-3.16890E-04 3.43617E-11 6.34873E-12
 -1      3379 3.99403E-01-2.66075E-01-2.24746E-09-3.16890E-04-3.43903E-11-6.37755E-12
 -1      3380 3.99403E-01-2.66075E-01-2.19504E-09-3.16890E-04-6.58648E-11-1.25673E-11
 -1      3381 3.99403E-01-2.66075E-01-1.98912E-09-3.16890E-04-1.12168E-10 3.23243E-12
 -1      3382 3.99403E-01-2.66075E-01-1.48003E-09-3.16890E-04-8.39607E-10 8.81708E-12
 -1      3383 3.99403E-01-2.66075E-01-1.69556E-09-3.16890E-04-9.88441E-10 1.47106E-10
 -1      3384 4.39629E-01-3.06302E-01-8.31473E-09-3.54800E-04-5.28898E-09 3.43352E-10
 -1      3385 4.39629E-01-3.06302E-01-9.49472E-09-3.54800E-04-1.45775E-09 1.24168E-10
 -1      3386 4.39629E-01-3.06302E-01-7.70165E-09-3.54800E-04-6.82621E-10-3.07828E-11
 -1      3387 4.39629E-01-3.06302E-01-6.97213E-09-3.54800E-04-8.15218E-11-4.12069E-11
 -1      3388 4.39629E-01-3.06302E-01-6.81577E-09-3.54799E-04 9.06907E-11-9.72240E-12
 -1      3389 4.39629E-01-3.06302E-01-6.81574E-09-3.54799E-04-9.06836E-11 9.70693E-12
 -1      3390 4.39629E-01-3.06302E-01-6.97211E-09-3.54800E-04 8.15074E-11 4.12023E-11
 -1      3391 4.39629E-01-3.06302E-01-7.70166E-09-3.54800E-04 6.82599E-10 3.07661E-11
 -1      3392 4.39629E-01-3.06302E-01-9.49472E-09-3.54800E-04 1.45774E-09-1.24201E-10
 -1      3393 4.39629E-01-3.06302E-01-8.31474E-09-3.54800E-04 5.28903E-09-3.43381E-10
 -1      3394 4.87612E-01-3.54284E-01 1.06426E-08-4.01952E-04 1.37486E-08-1.42550E-09
 -1      3395 4.87612E-01-3.54284E-01 1.38576E-08-4.01952E-04 8.52389E-09-1.69469E-10
 -1      3396 4.87612E-01-3.54284E-01 9.10391E-09-4.01952E-04 2.37746E-09 7.70276E-11
 -1      3397 4.87612E-01-3.54284E-01 6.82030E-09-4.01952E-04 8.89404E-11 1.02901E-10
 -1      3398 4.87612E-01-3.54284E-01 5.87749E-09-4.01952E-04 1.91487E-11 4.96619E-11
 -1      3399 4.87612E-01-3.54284E-01 5.87749E-09-4.01952E-04-1.91764E-11-4.96436E-11
 -1      3400 4.87612E-01-3.54284E-01 6.82032E-09-4.01952E-04-8.89362E-11-1.02893E-10
 -1      3401 4.87612E-01-3.54284E-01 9.10393E-09-4.01952E-04-2.37745E-09-7.70280E-11
 -1      3402 4.87612E-01-3.54284E-01 1.38576E-08-4.01952E-04-8.52388E-09 1.69483E-10
 -1      3403 4.87612E-01-3.54284E-01 1.06426E-08-4.01952E-04-1.37486E-08 1.42551E-09
 -1      3404 5.45478E-01-4.12151E-01-6.10642E-08-4.51235E-04-6.08789E-08 3.18812E-09
 -1      3405 5.45478E-01-4.12151E-01-7.67750E-08-4.51235E-04-2.61153E-08 7.22200E-10
 -1      3406 5.45478E-01-4.12151E-01-6.38643E-08-4.51235E-04-8.20641E-09-2.20029E-10
 -1      3407 5.45478E-01-4.12151E-01-5.63422E-08-4.51234E-04-2.14781E-09-3.82851E-10
 -1      3408 5.45478E-01-4.12151E-01-5.41980E-08-4.51234E-04 1.70368E-11-1.16809E-10
 -1      3409 5.45478E-01-4.12151E-01-5.41980E-08-4.51234E-04-1.70365E-11 1.16835E-10
 -1      3410 5.45478E-01-4.12151E-01-5.63422E-08-4.51234E-04 2.14782E-09 3.82867E-10
 -1      3411 5.45478E-01-4.12151E-01-6.38643E-08-4.51235E-04 8.20638E-09 2.20015E-10
 -1      3412 5.45478E-01-4.12151E-01-7.67751E-08-4.51235E-04 2.61154E-08-7.22204E-10
 -1      3413 5.45478E-01-4.12151E-01-6.10642E-08-4.51235E-04 6.08789E-08-3.18814E-09
 -1      3414 6.16137E-01-4.82808E-01 1.85056E-07-5.40945E-04 1.72992E-07-9.89680E-09
 -1      3415 6.16137E-01-4.82808E-01 2.28705E-07-5.40944E-04 9.39172E-08-1.00178E-09
 -1      3416 6.16137E-01-4.82808E-01 1.98264E-07-5.40946E-04 3.43785E-08 1.25336E-09
 -1      3417 6.16137E-01-4.82808E-01 1.77633E-07-5.40947E-04 3.42130E-10 6.26152E-10
 -1      3418 6.16137E-01-4.82808E-01 1.64850E-07-5.40947E-04-3.29720E-09 1.19639E-10
 -1      3419 6.16137E-01-4.82808E-01 1.64850E-07-5.40947E-04 3.29719E-09-1.19641E-10
 -1      3420 6.16137E-01-4.82808E-01 1.77633E-07-5.40947E-04-3.42164E-10-6.26146E-10
 -1      3421 6.16137E-01-4.82808E-01 1.98264E-07-5.40946E-04-3.43784E-08-1.25338E-09
 -1      3422 6.16137E-01-4.82808E-01 2.28704E-07-5.40944E-04-9.39172E-08 1.00180E-09
 -1      3423 6.16137E-01-4.82808E-01 1.85057E-07-5.40945E-04-1.72992E-07 9.89683E-09
 -1      3424 7.03666E-01-5.70341E-01-6.69987E-07-5.36394E-04-6.65004E-07 1.06242E-08
 -1      3425 7.03666E-01-5.70340E-01-8.65834E-07-5.36387E-04-3.94257E-07-4.31912E-09
 -1      3426 7.03666E-01-5.70340E-01-8.54220E-07-5.36383E-04-1.26734E-07-1.76776E-09
 -1      3427 7.03666E-01-5.70340E-01-7.89494E-07-5.36381E-04-1.84133E-08-2.03763E-10
 -1      3428 7.03666E-01-5.70340E-01-7.42331E-07-5.36381E-04 9.35178E-10 2.47508E-11
 -1      3429 7.03666E-01-5.70340E-01-7.42331E-07-5.36381E-04-9.35211E-10-2.47369E-11
 -1      3430 7.03666E-01-5.70340E-01-7.89494E-07-5.36381E-04 1.84134E-08 2.03748E-10
 -1      3431 7.03666E-01-5.70340E-01-8.54220E-07-5.36383E-04 1.26734E-07 1.76777E-09
 -1      3432 7.03666E-01-5.70340E-01-8.65834E-07-5.36387E-04 3.94257E-07 4.31914E-09
 -1      3433 7.03666E-01-5.70341E-01-6.69987E-07-5.36394E-04 6.65004E-07-1.06242E-08
 -1      3434 8.13828E-01-6.80490E-01 2.55870E-06-9.84033E-04 2.03563E-06 2.73636E-08
 -1      3435 8.13828E-01-6.80491E-01 2.98367E-06-9.84056E-04 9.06827E-07 9.15685E-09
 -1      3436 8.13828E-01-6.80491E-01 2.97069E-06-9.84057E-04 3.42758E-07-4.00466E-12
 -1      3437 8.13828E-01-6.80491E-01 2.86498E-06-9.84058E-04 1.38822E-07-6.74871E-10
 -1      3438 8.13828E-01-6.80491E-01 2.81654E-06-9.84057E-04 3.93116E-08-2.87334E-10
 -1      3439 8.13828E-01-6.80491E-01 2.81654E-06-9.84057E-04-3.93116E-08 2.87329E-10
 -1      3440 8.13828E-01-6.80491E-01 2.86498E-06-9.84058E-04-1.38822E-07 6.74870E-10
 -1      3441 8.13828E-01-6.80491E-01 2.97069E-06-9.84057E-04-3.42758E-07 3.99275E-12
 -1      3442 8.13828E-01-6.80491E-01 2.98367E-06-9.84056E-04-9.06827E-07-9.15686E-09
 -1      3443 8.13828E-01-6.80490E-01 2.55870E-06-9.84033E-04-2.03563E-06-2.73636E-08
 -1      3444 9.55537E-01-8.22206E-01 9.98333E-08 3.36959E-04-2.87404E-06-1.18369E-08
 -1      3445 9.55537E-01-8.22205E-01 7.99090E-07 3.36956E-04-8.99660E-07 3.98493E-09
 -1      3446 9.55537E-01-8.22205E-01 1.18579E-06 3.36949E-04-2.86029E-07 2.08776E-09
 -1      3447 9.55537E-01-8.22206E-01 1.26537E-06 3.36948E-04-1.11988E-07 7.13445E-10
 -1      3448 9.55537E-01-8.22206E-01 1.25249E-06 3.36947E-04-3.22965E-08 1.60753E-10
 -1      3449 9.55537E-01-8.22206E-01 1.25249E-06 3.36947E-04 3.22965E-08-1.60746E-10
 -1      3450 9.55537E-01-8.22206E-01 1.26537E-06 3.36948E-04 1.11988E-07-7.13444E-10
 -1      3451 9.55537E-01-8.22205E-01 1.18579E-06 3.36949E-04 2.86029E-07-2.08776E-09
 -1      3452 9.55537E-01-8.22205E-01 7.99090E-07 3.36956E-04 8.99660E-07-3.98498E-09
 -1      3453 9.55537E-01-8.22206E-01 9.98333E-08 3.36959E-04 2.87404E-06 1.18369E-08
 -1      3454 1.37562E-01-4.23168E-03 2.96460E-07-5.92547E-04-4.33296E-07-3.27175E-09
 -1      3455 1.35653E-01-2.32760E-03-3.46401E-07-7.55595E-04-9.22111E-08-7.71887E-09
 -1      3457 1.37563E-01-4.23116E-03 5.40002E-07-5.92544E-04-3.12628E-07 7.85807E-09
 -1      3458 1.35653E-01-2.32731E-03-4.70436E-07-7.55541E-04-1.19414E-07-1.13533E-08
 -1      3460 1.37563E-01-4.23115E-03 6.96233E-07-5.92531E-04-1.27786E-07-2.66854E-10
 -1      3461 1.35653E-01-2.32724E-03-5.31873E-07-7.55533E-04-8.97697E-08-1.53118E-08
 -1      3463 1.37563E-01-4.23113E-03 8.01601E-07-5.92527E-04-6.34969E-08-3.47168E-09
 -1      3464 1.35653E-01-2.32723E-03-5.50471E-07-7.55532E-04-5.32160E-08-1.02768E-08
 -1      3466 1.37563E-01-4.23113E-03 8.68695E-07-5.92527E-04-2.96955E-08-2.51470E-09
 -1      3467 1.35653E-01-2.32723E-03-5.56557E-07-7.55532E-04-1.75107E-08-3.50778E-09
 -1      3469 1.37563E-01-4.23113E-03 8.90933E-07-5.92527E-04-1.21639E-14 2.68910E-14
 -1      3470 1.35653E-01-2.32723E-03-5.56557E-07-7.55532E-04 1.75107E-08 3.50779E-09
 -1      3472 1.37563E-01-4.23113E-03 8.68695E-07-5.92527E-04 2.96954E-08 2.51473E-09
 -1      3473 1.35653E-01-2.32723E-03-5.50471E-07-7.55532E-04 5.32160E-08 1.02768E-08
 -1      3475 1.37563E-01-4.23113E-03 8.01601E-07-5.92527E-04 6.34969E-08 3.47169E-09
 -1      3476 1.35653E-01-2.32724E-03-5.31873E-07-7.55533E-04 8.97697E-08 1.53118E-08
 -1      3478 1.37563E-01-4.23115E-03 6.96233E-07-5.92531E-04 1.27786E-07 2.66848E-10
 -1      3479 1.35653E-01-2.32731E-03-4.70436E-07-7.55541E-04 1.19414E-07 1.13533E-08
 -1      3481 1.37563E-01-4.23116E-03 5.40002E-07-5.92544E-04 3.12628E-07-7.85805E-09
 -1      3482 1.35653E-01-2.32760E-03-3.46401E-07-7.55595E-04 9.22112E-08 7.71885E-09
 -1      3484 1.37562E-01-4.23168E-03 2.96460E-07-5.92547E-04 4.33296E-07 3.27176E-09
 -1      3486 1.41419E-01-8.09386E-03-4.36425E-07-2.90029E-06 2.82681E-07-4.38707E-09
 -1      3487 1.39505E-01-6.17360E-03 3.88249E-07-2.21294E-04 1.15398E-07 1.65816E-08
 -1      3489 1.41418E-01-8.09421E-03-9.42703E-07-2.89305E-06 3.69202E-07-5.33188E-11
 -1      3490 1.39505E-01-6.17358E-03 6.09417E-07-2.21285E-04 1.16100E-07 3.51333E-09
 -1      3492 1.41418E-01-8.09405E-03-1.14106E-06-2.88665E-06 2.33062E-07 8.38823E-11
 -1      3493 1.39505E-01-6.17357E-03 7.56364E-07-2.21281E-04 6.79119E-08 2.81931E-11
 -1      3495 1.41418E-01-8.09398E-03-1.17574E-06-2.88438E-06 1.23206E-07-5.73947E-10
 -1      3496 1.39505E-01-6.17356E-03 8.28264E-07-2.21280E-04 3.44131E-08-9.84699E-10
 -1      3498 1.41418E-01-8.09396E-03-1.18306E-06-2.88340E-06 5.43543E-08-4.33563E-10
 -1      3499 1.39505E-01-6.17356E-03 8.56455E-07-2.21280E-04 1.04340E-08-4.80605E-10
 -1      3501 1.41418E-01-8.09395E-03-1.18473E-06-2.88319E-06-1.22528E-14-9.65948E-16
 -1      3502 1.39505E-01-6.17356E-03 8.56455E-07-2.21280E-04-1.04340E-08 4.80625E-10
 -1      3504 1.41418E-01-8.09396E-03-1.18306E-06-2.88340E-06-5.43543E-08 4.33527E-10
 -1      3505 1.39505E-01-6.17356E-03 8.28264E-07-2.21280E-04-3.44131E-08 9.84692E-10
 -1      3507 1.41418E-01-8.09398E-03-1.17574E-06-2.88438E-06-1.23206E-07 5.73942E-10
 -1      3508 1.39505E-01-6.17357E-03 7.56364E-07-2.21281E-04-6.79119E-08-2.82009E-11
 -1      3510 1.41418E-01-8.09405E-03-1.14106E-06-2.88665E-06-2.33062E-07-8.38991E-11
 -1      3511 1.39505E-01-6.17358E-03 6.09418E-07-2.21285E-04-1.16100E-07-3.51334E-09
 -1      3513 1.41418E-01-8.09421E-03-9.42703E-07-2.89305E-06-3.69202E-07 5.33061E-11
 -1      3514 1.39505E-01-6.17360E-03 3.88249E-07-2.21294E-04-1.15398E-07-1.65816E-08
 -1      3516 1.41419E-01-8.09386E-03-4.36425E-07-2.90029E-06-2.82681E-07 4.38707E-09
 -1      3518 1.45505E-01-1.21763E-02 6.64966E-08-9.25885E-05-4.06325E-08 1.18407E-08
 -1      3519 1.43464E-01-1.01370E-02-1.78938E-08-3.46705E-05-1.04300E-08-1.31634E-08
 -1      3521 1.45505E-01-1.21762E-02 2.13170E-07-9.25882E-05-1.10656E-07 3.25124E-09
 -1      3522 1.43464E-01-1.01370E-02-1.32001E-07-3.46706E-05 3.02763E-08-2.32632E-09
 -1      3524 1.45505E-01-1.21763E-02 3.05109E-07-9.25890E-05-7.72203E-08 5.27365E-11
 -1      3525 1.43464E-01-1.01370E-02-2.16954E-07-3.46684E-05 5.06439E-08-4.05140E-10
 -1      3527 1.45505E-01-1.21763E-02 3.03889E-07-9.25891E-05-2.59699E-08 8.03968E-11
 -1      3528 1.43464E-01-1.01369E-02-2.73729E-07-3.46667E-05 3.67309E-08-1.72228E-10
 -1      3530 1.45505E-01-1.21763E-02 2.84084E-07-9.25888E-05-4.25572E-09 1.15902E-10
 -1      3531 1.43464E-01-1.01369E-02-2.96086E-07-3.46661E-05 1.28330E-08-6.65100E-11
 -1      3533 1.45505E-01-1.21763E-02 2.76242E-07-9.25887E-05-1.28942E-14 9.14035E-15
 -1      3534 1.43464E-01-1.01369E-02-2.96086E-07-3.46661E-05-1.28330E-08 6.65057E-11
 -1      3536 1.45505E-01-1.21763E-02 2.84084E-07-9.25888E-05 4.25571E-09-1.15914E-10
 -1      3537 1.43464E-01-1.01369E-02-2.73729E-07-3.46667E-05-3.67309E-08 1.72206E-10
 -1      3539 1.45505E-01-1.21763E-02 3.03889E-07-9.25891E-05 2.59699E-08-8.04172E-11
 -1      3540 1.43464E-01-1.01370E-02-2.16954E-07-3.46684E-05-5.06439E-08 4.05126E-10
 -1      3542 1.45505E-01-1.21763E-02 3.05109E-07-9.25890E-05 7.72202E-08-5.27436E-11
 -1      3543 1.43464E-01-1.01370E-02-1.32001E-07-3.46706E-05-3.02763E-08 2.32631E-09
 -1      3545 1.45505E-01-1.21762E-02 2.13170E-07-9.25882E-05 1.10656E-07-3.25124E-09
 -1      3546 1.43464E-01-1.01370E-02-1.78938E-08-3.46705E-05 1.04300E-08 1.31634E-08
 -1      3548 1.45505E-01-1.21763E-02 6.64966E-08-9.25885E-05 4.06325E-08-1.18407E-08
 -1      3550 1.49946E-01-1.66184E-02-3.37639E-08-7.47805E-05 1.52084E-08-5.38282E-09
 -1      3551 1.47725E-01-1.43970E-02 7.58394E-09-8.69291E-05-7.02974E-09 6.21922E-09
 -1      3553 1.49946E-01-1.66185E-02-5.60042E-08-7.47798E-05 2.05607E-08-2.51378E-09
 -1      3554 1.47725E-01-1.43970E-02 4.32629E-08-8.69277E-05-6.52496E-09 1.55682E-09
 -1      3556 1.49946E-01-1.66184E-02-7.49316E-08-7.47795E-05 1.71709E-08-4.43804E-10
 -1      3557 1.47725E-01-1.43970E-02 5.05820E-08-8.69275E-05-1.05611E-08 4.33480E-11
 -1      3559 1.49946E-01-1.66184E-02-7.96630E-08-7.47791E-05 6.88448E-09 5.27667E-11
 -1      3560 1.47725E-01-1.43970E-02 5.91695E-08-8.69279E-05-6.44578E-09-1.60111E-10
 -1      3562 1.49946E-01-1.66184E-02-7.53634E-08-7.47789E-05 6.53591E-10 3.21205E-11
 -1      3563 1.47725E-01-1.43970E-02 6.27711E-08-8.69280E-05-1.81187E-09-5.84369E-11
 -1      3565 1.49946E-01-1.66184E-02-7.28409E-08-7.47789E-05-5.32628E-16 1.61162E-15
 -1      3566 1.47725E-01-1.43970E-02 6.27711E-08-8.69280E-05 1.81186E-09 5.84434E-11
 -1      3568 1.49946E-01-1.66184E-02-7.53634E-08-7.47789E-05-6.53597E-10-3.21066E-11
 -1      3569 1.47725E-01-1.43970E-02 5.91695E-08-8.69279E-05 6.44577E-09 1.60111E-10
 -1      3571 1.49946E-01-1.66184E-02-7.96630E-08-7.47791E-05-6.88450E-09-5.27601E-11
 -1      3572 1.47725E-01-1.43970E-02 5.05820E-08-8.69275E-05 1.05611E-08-4.33610E-11
 -1      3574 1.49946E-01-1.66184E-02-7.49316E-08-7.47795E-05-1.71709E-08 4.43828E-10
 -1      3575 1.47725E-01-1.43970E-02 4.32629E-08-8.69277E-05 6.52495E-09-1.55680E-09
 -1      3577 1.49946E-01-1.66185E-02-5.60042E-08-7.47798E-05-2.05607E-08 2.51378E-09
 -1      3578 1.47725E-01-1.43970E-02 7.58392E-09-8.69291E-05 7.02973E-09-6.21922E-09
 -1      3580 1.49946E-01-1.66184E-02-3.37640E-08-7.47805E-05-1.52084E-08 5.38283E-09
 -1      3582 1.54771E-01-2.14427E-02 5.05957E-09-8.50523E-05-3.87420E-09 2.17748E-09
 -1      3583 1.52359E-01-1.90308E-02 1.97215E-10-7.90899E-05 5.35835E-09-2.09840E-09
 -1      3585 1.54771E-01-2.14427E-02 1.66898E-08-8.50524E-05-8.31469E-09 9.35794E-10
 -1      3586 1.52359E-01-1.90308E-02-1.41363E-08-7.90899E-05 1.26903E-09-6.30750E-10
 -1      3588 1.54771E-01-2.14427E-02 2.05278E-08-8.50524E-05-5.43241E-09 2.90917E-10
 -1      3589 1.52359E-01-1.90308E-02-1.41427E-08-7.90899E-05 7.44981E-10-8.72945E-11
 -1      3591 1.54771E-01-2.14427E-02 2.08118E-08-8.50523E-05-3.04701E-09 1.54327E-11
 -1      3592 1.52359E-01-1.90308E-02-1.49845E-08-7.90896E-05 6.23452E-10 8.46360E-11
 -1      3594 1.54771E-01-2.14427E-02 2.06507E-08-8.50524E-05-1.29615E-09-3.40295E-11
 -1      3595 1.52359E-01-1.90308E-02-1.61121E-08-7.90895E-05 1.99033E-10 4.20038E-11
 -1      3597 1.54771E-01-2.14427E-02 2.03480E-08-8.50524E-05 1.01578E-14-7.41156E-15
 -1      3598 1.52359E-01-1.90308E-02-1.61121E-08-7.90895E-05-1.99037E-10-4.19958E-11
 -1      3600 1.54771E-01-2.14427E-02 2.06507E-08-8.50524E-05 1.29613E-09 3.40274E-11
 -1      3601 1.52359E-01-1.90308E-02-1.49845E-08-7.90896E-05-6.23452E-10-8.46564E-11
 -1      3603 1.54771E-01-2.14427E-02 2.08118E-08-8.50523E-05 3.04700E-09-1.54871E-11
 -1      3604 1.52359E-01-1.90308E-02-1.41427E-08-7.90899E-05-7.44993E-10 8.72858E-11
 -1      3606 1.54771E-01-2.14427E-02 2.05278E-08-8.50524E-05 5.43241E-09-2.90930E-10
 -1      3607 1.52359E-01-1.90308E-02-1.41363E-08-7.90899E-05-1.26903E-09 6.30749E-10
 -1      3609 1.54771E-01-2.14427E-02 1.66898E-08-8.50524E-05 8.31469E-09-9.35819E-10
 -1      3610 1.52359E-01-1.90308E-02 1.97214E-10-7.90899E-05-5.35834E-09 2.09841E-09
 -1      3612 1.54771E-01-2.14427E-02 5.05957E-09-8.50523E-05 3.87421E-09-2.17749E-09
 -1      3614 1.60028E-01-2.66995E-02-3.37191E-09-8.85882E-05 1.05537E-09-7.35003E-10
 -1      3615 1.57399E-01-2.40712E-02 2.67871E-10-8.70100E-05-2.19345E-09 8.10017E-10
 -1      3617 1.60028E-01-2.66996E-02-3.41738E-09-8.85881E-05 9.70608E-10-3.50820E-10
 -1      3618 1.57399E-01-2.40712E-02 4.76856E-09-8.70098E-05-2.11012E-09 2.23033E-10
 -1      3620 1.60028E-01-2.66995E-02-5.08305E-09-8.85880E-05 8.75690E-10-7.01583E-11
 -1      3621 1.57399E-01-2.40712E-02 4.60051E-09-8.70098E-05-1.54449E-09 5.14898E-11
 -1      3623 1.60028E-01-2.66995E-02-4.95398E-09-8.85880E-05 5.88923E-11 2.04859E-12
 -1      3624 1.57399E-01-2.40712E-02 4.89710E-09-8.70098E-05-8.96513E-10-9.46063E-12
 -1      3626 1.60028E-01-2.66996E-02-4.50995E-09-8.85880E-05-1.05841E-10 1.49770E-11
 -1      3627 1.57399E-01-2.40712E-02 5.14116E-09-8.70098E-05-3.19807E-10-1.14219E-11
 -1      3629 1.60028E-01-2.66996E-02-4.42565E-09-8.85880E-05-1.69606E-15 7.38498E-15
 -1      3630 1.57399E-01-2.40712E-02 5.14117E-09-8.70098E-05 3.19820E-10 1.14259E-11
 -1      3632 1.60028E-01-2.66996E-02-4.50995E-09-8.85880E-05 1.05839E-10-1.49808E-11
 -1      3633 1.57399E-01-2.40712E-02 4.89710E-09-8.70098E-05 8.96509E-10 9.44960E-12
 -1      3635 1.60028E-01-2.66995E-02-4.95397E-09-8.85880E-05-5.88804E-11-2.02306E-12
 -1      3636 1.57399E-01-2.40712E-02 4.60050E-09-8.70098E-05 1.54449E-09-5.15120E-11
 -1      3638 1.60028E-01-2.66995E-02-5.08305E-09-8.85880E-05-8.75688E-10 7.01351E-11
 -1      3639 1.57399E-01-2.40712E-02 4.76857E-09-8.70098E-05 2.11011E-09-2.23044E-10
 -1      3641 1.60028E-01-2.66996E-02-3.41736E-09-8.85881E-05-9.70590E-10 3.50827E-10
 -1      3642 1.57399E-01-2.40712E-02 2.67867E-10-8.70100E-05 2.19345E-09-8.10016E-10
 -1      3644 1.60028E-01-2.66995E-02-3.37192E-09-8.85882E-05-1.05538E-09 7.35017E-10
 -1      3646 1.65769E-01-3.24410E-02 1.18762E-11-9.44359E-05-3.08509E-10 2.53953E-10
 -1      3647 1.62898E-01-2.95704E-02 2.24456E-10-9.14449E-05 8.27040E-10-2.16731E-10
 -1      3649 1.65769E-01-3.24410E-02 1.25201E-09-9.44359E-05-6.23200E-10 1.11806E-10
 -1      3650 1.62898E-01-2.95704E-02-1.20308E-09-9.14449E-05-6.24340E-11-7.71831E-11
 -1      3652 1.65769E-01-3.24410E-02 1.14828E-09-9.44359E-05-3.41104E-10 4.22613E-11
 -1      3653 1.62898E-01-2.95704E-02-6.94343E-10-9.14449E-05-1.07538E-10-5.65785E-12
 -1      3655 1.65769E-01-3.24410E-02 1.36731E-09-9.44359E-05-3.06297E-10 2.31890E-12
 -1      3656 1.62898E-01-2.95704E-02-5.15838E-10-9.14449E-05-1.36328E-10 1.15313E-11
 -1      3658 1.65769E-01-3.24410E-02 1.39967E-09-9.44359E-05-1.20026E-10-1.73853E-12
 -1      3659 1.62898E-01-2.95704E-02-5.09036E-10-9.14449E-05-6.95979E-11 5.06286E-12
 -1      3661 1.65769E-01-3.24410E-02 1.35813E-09-9.44359E-05-2.33137E-14-4.20985E-15
 -1      3662 1.62898E-01-2.95704E-02-5.09014E-10-9.14449E-05 6.95941E-11-5.05286E-12
 -1      3664 1.65769E-01-3.24410E-02 1.39971E-09-9.44359E-05 1.20038E-10 1.74310E-12
 -1      3665 1.62898E-01-2.95704E-02-5.15817E-10-9.14449E-05 1.36329E-10-1.15369E-11
 -1      3667 1.65769E-01-3.24410E-02 1.36732E-09-9.44359E-05 3.06319E-10-2.31318E-12
 -1      3668 1.62898E-01-2.95704E-02-6.94333E-10-9.14449E-05 1.07563E-10 5.67049E-12
 -1      3670 1.65769E-01-3.24410E-02 1.14829E-09-9.44359E-05 3.41137E-10-4.22507E-11
 -1      3671 1.62898E-01-2.95704E-02-1.20309E-09-9.14449E-05 6.24523E-11 7.71764E-11
 -1      3673 1.65769E-01-3.24410E-02 1.25201E-09-9.44359E-05 6.23174E-10-1.11827E-10
 -1      3674 1.62898E-01-2.95704E-02 2.24473E-10-9.14449E-05-8.27046E-10 2.16723E-10
 -1      3676 1.65769E-01-3.24410E-02 1.18873E-11-9.44359E-05 3.08522E-10-2.54005E-10
 -1      3678 1.72057E-01-3.87288E-02-5.96222E-10-1.00324E-04 9.21308E-11-7.61070E-11
 -1      3679 1.68913E-01-3.55850E-02 1.21672E-10-9.73751E-05-1.88781E-10 8.71344E-11
 -1      3681 1.72057E-01-3.87288E-02-3.47888E-10-1.00324E-04 5.96329E-11-3.44737E-11
 -1      3682 1.68913E-01-3.55850E-02 5.65630E-10-9.73751E-05-2.61926E-10 2.17817E-11
 -1      3684 1.72057E-01-3.87288E-02-6.11622E-10-1.00324E-04 8.27802E-11-5.06532E-12
 -1      3685 1.68913E-01-3.55850E-02 4.97327E-10-9.73751E-05-1.19148E-10 1.08037E-11
 -1      3687 1.72057E-01-3.87288E-02-5.02725E-10-1.00324E-04-1.12896E-11-8.71653E-14
 -1      3688 1.68913E-01-3.55850E-02 4.99531E-10-9.73751E-05-8.92701E-11 1.01436E-13
 -1      3690 1.72057E-01-3.87288E-02-4.95182E-10-1.00324E-04 6.60636E-12 2.77371E-12
 -1      3691 1.68913E-01-3.55850E-02 5.27743E-10-9.73751E-05-3.51702E-11-1.01048E-12
 -1      3693 1.72057E-01-3.87288E-02-5.00677E-10-1.00324E-04 2.88774E-15-1.02250E-15
 -1      3694 1.68913E-01-3.55850E-02 5.27737E-10-9.73751E-05 3.51672E-11 1.01688E-12
 -1      3696 1.72057E-01-3.87288E-02-4.95179E-10-1.00324E-04-6.60578E-12-2.76047E-12
 -1      3697 1.68913E-01-3.55850E-02 4.99543E-10-9.73751E-05 8.92762E-11-1.00633E-13
 -1      3699 1.72057E-01-3.87288E-02-5.02723E-10-1.00324E-04 1.12812E-11 1.06119E-13
 -1      3700 1.68913E-01-3.55850E-02 4.97328E-10-9.73751E-05 1.19159E-10-1.07815E-11
 -1      3702 1.72057E-01-3.87288E-02-6.11632E-10-1.00324E-04-8.27728E-11 5.08485E-12
 -1      3703 1.68913E-01-3.55850E-02 5.65628E-10-9.73751E-05 2.61935E-10-2.17774E-11
 -1      3705 1.72057E-01-3.87288E-02-3.47895E-10-1.00324E-04-5.96517E-11 3.44492E-11
 -1      3706 1.68913E-01-3.55850E-02 1.21679E-10-9.73751E-05 1.88768E-10-8.71659E-11
 -1      3708 1.72057E-01-3.87288E-02-5.96225E-10-1.00324E-04-9.21236E-11 7.60886E-11
 -1      3710 1.78962E-01-4.56343E-02-2.94582E-10-1.06925E-04-2.49431E-11 2.57310E-11
 -1      3711 1.75510E-01-4.21818E-02 1.33199E-10-1.03601E-04 1.26991E-10-1.66664E-11
 -1      3713 1.78962E-01-4.56343E-02-1.04945E-10-1.06925E-04-3.57156E-11 1.20621E-11
 -1      3714 1.75510E-01-4.21818E-02-8.39047E-12-1.03601E-04-5.92676E-12-7.38595E-12
 -1      3716 1.78962E-01-4.56343E-02-2.04033E-10-1.06925E-04 1.47779E-12 6.03702E-12
 -1      3717 1.75510E-01-4.21818E-02 6.38661E-11-1.03601E-04 1.76557E-11 1.50340E-12
 -1      3719 1.78962E-01-4.56343E-02-1.42803E-10-1.06925E-04-1.85706E-11 8.91715E-13
 -1      3720 1.75510E-01-4.21818E-02 8.48099E-11-1.03601E-04-9.45852E-12 1.29072E-12
 -1      3722 1.78962E-01-4.56343E-02-1.58960E-10-1.06925E-04 1.73446E-12 6.95140E-13
 -1      3723 1.75510E-01-4.21818E-02 9.10667E-11-1.03601E-04-4.19214E-12 7.49288E-13
 -1      3725 1.78962E-01-4.56343E-02-1.60087E-10-1.06925E-04-3.64282E-15 1.92433E-15
 -1      3726 1.75510E-01-4.21818E-02 9.10734E-11-1.03601E-04 4.19111E-12-7.45777E-13
 -1      3728 1.78962E-01-4.56343E-02-1.58950E-10-1.06925E-04-1.73847E-12-6.91515E-13
 -1      3729 1.75510E-01-4.21818E-02 8.48213E-11-1.03601E-04 9.47476E-12-1.28246E-12
 -1      3731 1.78962E-01-4.56343E-02-1.42802E-10-1.06925E-04 1.85852E-11-9.03961E-13
 -1      3732 1.75510E-01-4.21818E-02 6.38628E-11-1.03601E-04-1.76516E-11-1.49734E-12
 -1      3734 1.78962E-01-4.56343E-02-2.04040E-10-1.06925E-04-1.48491E-12-6.03181E-12
 -1      3735 1.75510E-01-4.21818E-02-8.38663E-12-1.03601E-04 5.93609E-12 7.39620E-12
 -1      3737 1.78962E-01-4.56343E-02-1.04936E-10-1.06925E-04 3.57524E-11-1.20452E-11
 -1      3738 1.75510E-01-4.21818E-02 1.33187E-10-1.03601E-04-1.26992E-10 1.66488E-11
 -1      3740 1.78962E-01-4.56343E-02-2.94587E-10-1.06925E-04 2.49171E-11-2.57231E-11
 -1      3742 1.86569E-01-5.32414E-02-3.54182E-10-1.14161E-04 2.14885E-12-6.95559E-12
 -1      3743 1.82766E-01-4.94381E-02 1.40650E-10-1.10522E-04 4.05255E-13 9.76986E-12
 -1      3745 1.86569E-01-5.32414E-02-2.81518E-10-1.14161E-04 8.37924E-12-1.93572E-12
 -1      3746 1.82766E-01-4.94381E-02 1.73389E-10-1.10522E-04-2.33974E-11 2.31282E-12
 -1      3748 1.86569E-01-5.32414E-02-3.43575E-10-1.14161E-04 1.45956E-11 6.11918E-13
 -1      3749 1.82766E-01-4.94381E-02 1.60392E-10-1.10522E-04 7.07912E-12 2.62238E-12
 -1      3751 1.86569E-01-5.32414E-02-3.11726E-10-1.14161E-04 5.41565E-13 3.62985E-13
 -1      3752 1.82766E-01-4.94381E-02 1.54679E-10-1.10522E-04-3.14212E-12 3.69300E-13
 -1      3754 1.86569E-01-5.32414E-02-3.25537E-10-1.14161E-04 5.83723E-12 6.73512E-13
 -1      3755 1.82766E-01-4.94381E-02 1.56162E-10-1.10522E-04 5.41091E-13 2.16458E-13
 -1      3757 1.86569E-01-5.32414E-02-3.22559E-10-1.14161E-04 1.50903E-14 3.74935E-15
 -1      3758 1.82766E-01-4.94381E-02 1.56156E-10-1.10522E-04-5.48138E-13-2.01928E-13
 -1      3760 1.86569E-01-5.32414E-02-3.25530E-10-1.14161E-04-5.85976E-12-6.63460E-13
 -1      3761 1.82766E-01-4.94381E-02 1.54694E-10-1.10522E-04 3.13605E-12-3.82242E-13
 -1      3763 1.86569E-01-5.32414E-02-3.11714E-10-1.14161E-04-5.34449E-13-3.55682E-13
 -1      3764 1.82766E-01-4.94381E-02 1.60399E-10-1.10522E-04-7.07311E-12-2.61667E-12
 -1      3766 1.86569E-01-5.32414E-02-3.43575E-10-1.14161E-04-1.45795E-11-6.21773E-13
 -1      3767 1.82766E-01-4.94381E-02 1.73386E-10-1.10522E-04 2.34033E-11-2.31486E-12
 -1      3769 1.86569E-01-5.32414E-02-2.81525E-10-1.14161E-04-8.39850E-12 1.94634E-12
 -1      3770 1.82766E-01-4.94381E-02 1.40661E-10-1.10522E-04-4.10774E-13-9.74577E-12
 -1      3772 1.86569E-01-5.32414E-02-3.54191E-10-1.14161E-04-2.14425E-12 6.97727E-12
 -1      3774 1.94976E-01-6.16483E-02-3.62108E-10-1.22168E-04-1.13918E-11 2.18605E-12
 -1      3775 1.90773E-01-5.74452E-02 1.60045E-10-1.18140E-04 1.74137E-11-3.30457E-13
 -1      3777 1.94976E-01-6.16483E-02-3.19186E-10-1.22168E-04 6.35199E-13 2.05041E-12
 -1      3778 1.90773E-01-5.74452E-02 1.43909E-10-1.18140E-04-6.61338E-13-1.23594E-13
 -1      3780 1.94976E-01-6.16483E-02-3.50015E-10-1.22168E-04 3.28285E-12 1.28889E-12
 -1      3781 1.90773E-01-5.74452E-02 1.50561E-10-1.18140E-04 9.22201E-12 1.03038E-12
 -1      3783 1.94976E-01-6.16483E-02-3.32750E-10-1.22168E-04-9.45856E-13 4.59583E-13
 -1      3784 1.90773E-01-5.74452E-02 1.50197E-10-1.18140E-04 3.86002E-13 3.19106E-13
 -1      3786 1.94976E-01-6.16483E-02-3.42174E-10-1.22168E-04 2.15162E-12 3.63082E-13
 -1      3787 1.90773E-01-5.74452E-02 1.50355E-10-1.18140E-04 1.63347E-12 2.78666E-13
 -1      3789 1.94976E-01-6.16483E-02-3.38743E-10-1.22168E-04-3.51955E-15-7.83188E-15
 -1      3790 1.90773E-01-5.74452E-02 1.50361E-10-1.18140E-04-1.63201E-12-2.74759E-13
 -1      3792 1.94976E-01-6.16483E-02-3.42169E-10-1.22168E-04-2.13045E-12-3.49808E-13
 -1      3793 1.90773E-01-5.74452E-02 1.50190E-10-1.18140E-04-3.89349E-13-3.13893E-13
 -1      3795 1.94976E-01-6.16483E-02-3.32736E-10-1.22168E-04 9.46445E-13-4.81008E-13
 -1      3796 1.90773E-01-5.74452E-02 1.50559E-10-1.18140E-04-9.23494E-12-1.04187E-12
 -1      3798 1.94976E-01-6.16483E-02-3.50015E-10-1.22168E-04-3.28415E-12-1.26706E-12
 -1      3799 1.90773E-01-5.74452E-02 1.43899E-10-1.18140E-04 6.68889E-13 1.36378E-13
 -1      3801 1.94976E-01-6.16483E-02-3.19203E-10-1.22168E-04-6.24468E-13-2.02711E-12
 -1      3802 1.90773E-01-5.74452E-02 1.60034E-10-1.18140E-04-1.74143E-11 3.58202E-13
 -1      3804 1.94976E-01-6.16483E-02-3.62098E-10-1.22168E-04 1.13748E-11-2.18467E-12
 -1      3806 2.04299E-01-7.09712E-02-4.15737E-10-1.31045E-04-1.19760E-11-1.12819E-12
 -1      3807 1.99638E-01-6.63101E-02 1.85775E-10-1.26579E-04-4.18691E-13 1.35780E-12
 -1      3809 2.04299E-01-7.09712E-02-3.90902E-10-1.31045E-04 3.70884E-12 7.04098E-13
 -1      3810 1.99638E-01-6.63101E-02 1.86207E-10-1.26579E-04-2.47533E-12 7.07360E-13
 -1      3812 2.04299E-01-7.09712E-02-4.08395E-10-1.31045E-04 9.66155E-13 4.97428E-13
 -1      3813 1.99638E-01-6.63101E-02 1.84273E-10-1.26579E-04 3.35003E-12 8.42535E-13
 -1      3815 2.04299E-01-7.09712E-02-3.98694E-10-1.31045E-04-1.75704E-13 3.32531E-13
 -1      3816 1.99638E-01-6.63101E-02 1.82671E-10-1.26579E-04-4.13893E-13 2.26073E-13
 -1      3818 2.04299E-01-7.09712E-02-4.04527E-10-1.31045E-04 9.86717E-13 2.33081E-13
 -1      3819 1.99638E-01-6.63101E-02 1.82531E-10-1.26579E-04 1.04666E-12 1.74850E-13
 -1      3821 2.04299E-01-7.09712E-02-4.01834E-10-1.31045E-04 3.43077E-15-1.37880E-14
 -1      3822 1.99638E-01-6.63101E-02 1.82523E-10-1.26579E-04-1.04107E-12-1.85022E-13
 -1      3824 2.04299E-01-7.09712E-02-4.04533E-10-1.31045E-04-9.81414E-13-2.29984E-13
 -1      3825 1.99638E-01-6.63101E-02 1.82677E-10-1.26579E-04 4.08855E-13-2.14971E-13
 -1      3827 2.04299E-01-7.09712E-02-3.98722E-10-1.31045E-04 1.80559E-13-3.09698E-13
 -1      3828 1.99638E-01-6.63101E-02 1.84278E-10-1.26579E-04-3.34374E-12-8.42796E-13
 -1      3830 2.04299E-01-7.09712E-02-4.08398E-10-1.31045E-04-9.46247E-13-4.92520E-13
 -1      3831 1.99638E-01-6.63101E-02 1.86208E-10-1.26579E-04 2.48313E-12-6.81784E-13
 -1      3833 2.04299E-01-7.09712E-02-3.90882E-10-1.31045E-04-3.69345E-12-6.80973E-13
 -1      3834 1.99638E-01-6.63101E-02 1.85779E-10-1.26579E-04 4.23668E-13-1.34891E-12
 -1      3836 2.04299E-01-7.09712E-02-4.15731E-10-1.31045E-04 1.19637E-11 1.11734E-12
 -1      3838 2.14676E-01-8.13480E-02-4.80743E-10-1.40926E-04-1.60829E-11-6.46528E-13
 -1      3839 2.09488E-01-7.61601E-02 2.16876E-10-1.35955E-04-2.26760E-12 1.21849E-13
 -1      3841 2.14676E-01-8.13480E-02-4.61696E-10-1.40926E-04 4.01643E-12 9.05168E-13
 -1      3842 2.09488E-01-7.61601E-02 2.13869E-10-1.35955E-04 1.37675E-13 4.34121E-13
 -1      3844 2.14676E-01-8.13480E-02-4.72491E-10-1.40926E-04-8.87958E-13 3.57477E-13
 -1      3845 2.09488E-01-7.61601E-02 2.14471E-10-1.35955E-04 1.48192E-12 4.61298E-13
 -1      3847 2.14676E-01-8.13480E-02-4.66880E-10-1.40926E-04-1.29090E-13 2.52951E-13
 -1      3848 2.09488E-01-7.61601E-02 2.14035E-10-1.35955E-04-4.21027E-13 1.63646E-13
 -1      3850 2.14676E-01-8.13480E-02-4.70175E-10-1.40926E-04 2.19457E-13 1.28194E-13
 -1      3851 2.09488E-01-7.61601E-02 2.13960E-10-1.35955E-04 6.19142E-13 1.17391E-13
 -1      3853 2.14676E-01-8.13480E-02-4.68410E-10-1.40926E-04-8.30028E-15 1.46592E-14
 -1      3854 2.09488E-01-7.61601E-02 2.13969E-10-1.35955E-04-6.10315E-13-1.13515E-13
 -1      3856 2.14676E-01-8.13480E-02-4.70169E-10-1.40926E-04-2.11304E-13-1.21846E-13
 -1      3857 2.09488E-01-7.61601E-02 2.14033E-10-1.35955E-04 4.41561E-13-1.56189E-13
 -1      3859 2.14676E-01-8.13480E-02-4.66867E-10-1.40926E-04 1.48932E-13-2.33614E-13
 -1      3860 2.09488E-01-7.61601E-02 2.14459E-10-1.35955E-04-1.46152E-12-4.37322E-13
 -1      3862 2.14676E-01-8.13480E-02-4.72501E-10-1.40926E-04 8.94229E-13-3.59752E-13
 -1      3863 2.09488E-01-7.61601E-02 2.13866E-10-1.35955E-04-1.22405E-13-4.42649E-13
 -1      3865 2.14676E-01-8.13480E-02-4.61719E-10-1.40926E-04-4.01988E-12-9.30422E-13
 -1      3866 2.09488E-01-7.61601E-02 2.16874E-10-1.35955E-04 2.28375E-12-1.22468E-13
 -1      3868 2.14676E-01-8.13480E-02-4.80763E-10-1.40926E-04 1.60900E-11 6.66374E-13
 -1      3870 2.26272E-01-9.29439E-02-5.66551E-10-1.51967E-04-1.97425E-11-1.33191E-12
 -1      3871 2.20475E-01-8.71465E-02 2.55653E-10-1.46412E-04-5.94310E-12-3.55857E-14
 -1      3873 2.26272E-01-9.29439E-02-5.48960E-10-1.51967E-04 5.43531E-12 7.82245E-13
 -1      3874 2.20475E-01-8.71465E-02 2.54039E-10-1.46412E-04 7.67550E-13 4.45872E-13
 -1      3876 2.26272E-01-9.29439E-02-5.56791E-10-1.51967E-04-1.59812E-12 1.47256E-13
 -1      3877 2.20475E-01-8.71465E-02 2.53871E-10-1.46412E-04 2.02077E-13 2.84357E-13
 -1      3879 2.26272E-01-9.29439E-02-5.53459E-10-1.51967E-04 1.23950E-13 1.81096E-13
 -1      3880 2.20475E-01-8.71465E-02 2.53648E-10-1.46412E-04-4.15375E-13 1.11503E-13
 -1      3882 2.26272E-01-9.29439E-02-5.55086E-10-1.51967E-04 7.70164E-15 7.60894E-14
 -1      3883 2.20475E-01-8.71465E-02 2.53578E-10-1.46412E-04 3.64603E-13 7.65157E-14
 -1      3885 2.26272E-01-9.29439E-02-5.54307E-10-1.51967E-04 1.81203E-14 1.21467E-14
 -1      3886 2.20475E-01-8.71465E-02 2.53577E-10-1.46412E-04-3.58451E-13-6.20543E-14
 -1      3888 2.26272E-01-9.29439E-02-5.55092E-10-1.51967E-04 8.38509E-15-8.29603E-14
 -1      3889 2.20475E-01-8.71465E-02 2.53634E-10-1.46412E-04 4.16235E-13-1.13301E-13
 -1      3891 2.26272E-01-9.29439E-02-5.53449E-10-1.51967E-04-1.27980E-13-2.01102E-13
 -1      3892 2.20475E-01-8.71465E-02 2.53881E-10-1.46412E-04-2.01534E-13-2.88616E-13
 -1      3894 2.26272E-01-9.29439E-02-5.56782E-10-1.51967E-04 1.60551E-12-1.54584E-13
 -1      3895 2.20475E-01-8.71465E-02 2.54031E-10-1.46412E-04-7.52820E-13-4.55744E-13
 -1      3897 2.26272E-01-9.29439E-02-5.48946E-10-1.51967E-04-5.43708E-12-7.74464E-13
 -1      3898 2.20475E-01-8.71465E-02 2.55650E-10-1.46412E-04 5.94488E-12 3.17287E-14
 -1      3900 2.26272E-01-9.29439E-02-5.66559E-10-1.51967E-04 1.97525E-11 1.30709E-12
 -1      3902 2.39285E-01-1.05957E-01-6.74179E-10-1.64359E-04-2.49108E-11-1.64375E-12
 -1      3903 2.32779E-01-9.94514E-02 3.03373E-10-1.58124E-04-8.07100E-12-3.45260E-13
 -1      3905 2.39285E-01-1.05957E-01-6.55493E-10-1.64359E-04 6.92180E-12 8.49802E-13
 -1      3906 2.32779E-01-9.94514E-02 3.01223E-10-1.58124E-04 1.63736E-12 3.97204E-13
 -1      3908 2.39285E-01-1.05957E-01-6.61795E-10-1.64359E-04-2.11311E-12 5.90127E-14
 -1      3909 2.32779E-01-9.94514E-02 3.01365E-10-1.58124E-04-2.11421E-13 1.79555E-13
 -1      3911 2.39285E-01-1.05957E-01-6.60172E-10-1.64359E-04 2.63547E-13 1.76974E-13
 -1      3912 2.32779E-01-9.94514E-02 3.01375E-10-1.58124E-04-3.30562E-13 8.62670E-14
 -1      3914 2.39285E-01-1.05957E-01-6.60408E-10-1.64359E-04-8.37726E-14 8.05666E-14
 -1      3915 2.32779E-01-9.94514E-02 3.01290E-10-1.58124E-04 3.00676E-13 7.16595E-14
 -1      3917 2.39285E-01-1.05957E-01-6.60611E-10-1.64359E-04 2.26254E-14 2.00197E-14
 -1      3918 2.32779E-01-9.94514E-02 3.01292E-10-1.58124E-04-2.73924E-13-4.05740E-14
 -1      3920 2.39285E-01-1.05957E-01-6.60408E-10-1.64359E-04 7.75592E-14-2.91947E-14
 -1      3921 2.32779E-01-9.94514E-02 3.01378E-10-1.58124E-04 3.27030E-13-7.49984E-14
 -1      3923 2.39285E-01-1.05957E-01-6.60181E-10-1.64359E-04-2.61293E-13-1.55345E-13
 -1      3924 2.32779E-01-9.94514E-02 3.01368E-10-1.58124E-04 2.21225E-13-1.85159E-13
 -1      3926 2.39285E-01-1.05957E-01-6.61784E-10-1.64359E-04 2.10049E-12-5.10830E-14
 -1      3927 2.32779E-01-9.94514E-02 3.01236E-10-1.58124E-04-1.65860E-12-3.93465E-13
 -1      3929 2.39285E-01-1.05957E-01-6.55486E-10-1.64359E-04-6.95028E-12-8.49623E-13
 -1      3930 2.32779E-01-9.94514E-02 3.03387E-10-1.58124E-04 8.05336E-12 3.53387E-13
 -1      3932 2.39285E-01-1.05957E-01-6.74166E-10-1.64359E-04 2.48813E-11 1.65752E-12
 -1      3934 2.53957E-01-1.20629E-01-8.09201E-10-1.78330E-04-3.11923E-11-2.41360E-12
 -1      3935 2.46622E-01-1.13294E-01 3.63355E-10-1.71301E-04-1.01306E-11-6.06048E-13
 -1      3937 2.53957E-01-1.20629E-01-7.88826E-10-1.78330E-04 8.96183E-12 8.45968E-13
 -1      3938 2.46622E-01-1.13294E-01 3.60951E-10-1.71301E-04 2.21600E-12 3.62595E-13
 -1      3940 2.53957E-01-1.20629E-01-7.93276E-10-1.78330E-04-2.52503E-12-7.93779E-14
 -1      3941 2.46622E-01-1.13294E-01 3.60832E-10-1.71301E-04-2.72936E-13 1.04367E-13
 -1      3943 2.53957E-01-1.20629E-01-7.94005E-10-1.78330E-04 3.01377E-13 9.09998E-14
 -1      3944 2.46622E-01-1.13294E-01 3.60926E-10-1.71301E-04-3.87376E-13 5.11201E-14
 -1      3946 2.53957E-01-1.20629E-01-7.92529E-10-1.78330E-04-3.35262E-14 2.47480E-14
 -1      3947 2.46622E-01-1.13294E-01 3.60818E-10-1.71301E-04 3.34388E-13 5.76670E-14
 -1      3949 2.53957E-01-1.20629E-01-7.93895E-10-1.78330E-04 2.74520E-14-8.02213E-15
 -1      3950 2.46622E-01-1.13294E-01 3.60810E-10-1.71301E-04-3.16204E-13-4.13538E-14
 -1      3952 2.53957E-01-1.20629E-01-7.92541E-10-1.78330E-04 3.72504E-14-4.39918E-14
 -1      3953 2.46622E-01-1.13294E-01 3.60935E-10-1.71301E-04 3.77913E-13-4.20901E-14
 -1      3955 2.53957E-01-1.20629E-01-7.94019E-10-1.78330E-04-2.97906E-13-1.06009E-13
 -1      3956 2.46622E-01-1.13294E-01 3.60828E-10-1.71301E-04 2.79168E-13-1.08014E-13
 -1      3958 2.53957E-01-1.20629E-01-7.93312E-10-1.78330E-04 2.54333E-12 7.56619E-14
 -1      3959 2.46622E-01-1.13294E-01 3.60935E-10-1.71301E-04-2.21382E-12-3.53366E-13
 -1      3961 2.53957E-01-1.20629E-01-7.88844E-10-1.78330E-04-8.96007E-12-8.38306E-13
 -1      3962 2.46622E-01-1.13294E-01 3.63339E-10-1.71301E-04 1.01049E-11 6.11678E-13
 -1      3964 2.53957E-01-1.20629E-01-8.09200E-10-1.78330E-04 3.11754E-11 2.41772E-12
 -1      3966 2.70582E-01-1.37254E-01-9.81010E-10-1.94160E-04-4.07815E-11-2.54712E-12
 -1      3967 2.62271E-01-1.28943E-01 4.37962E-10-1.86196E-04-1.29717E-11-7.28712E-13
 -1      3969 2.70582E-01-1.37254E-01-9.61071E-10-1.94160E-04 1.07500E-11 1.15844E-12
 -1      3970 2.62271E-01-1.28943E-01 4.34683E-10-1.86196E-04 1.95673E-12 3.28577E-13
 -1      3972 2.70582E-01-1.37254E-01-9.61005E-10-1.94160E-04-3.00828E-12-9.12259E-14
 -1      3973 2.62271E-01-1.28943E-01 4.35009E-10-1.86196E-04-1.32140E-13 8.30238E-14
 -1      3975 2.70582E-01-1.37254E-01-9.65834E-10-1.94160E-04-1.88937E-13 6.95693E-14
 -1      3976 2.62271E-01-1.28943E-01 4.35385E-10-1.86196E-04-6.80013E-13-9.08330E-15
 -1      3978 2.70582E-01-1.37254E-01-9.61640E-10-1.94160E-04 1.77987E-13 3.67542E-14
 -1      3979 2.62271E-01-1.28943E-01 4.35146E-10-1.86196E-04 4.68799E-13 5.13547E-14
 -1      3981 2.70582E-01-1.37254E-01-9.64550E-10-1.94160E-04-2.31873E-15 1.76346E-14
 -1      3982 2.62271E-01-1.28943E-01 4.35144E-10-1.86196E-04-4.40620E-13-4.12397E-14
 -1      3984 2.70582E-01-1.37254E-01-9.61659E-10-1.94160E-04-1.56080E-13-8.15678E-16
 -1      3985 2.62271E-01-1.28943E-01 4.35364E-10-1.86196E-04 6.86611E-13 1.64091E-14
 -1      3987 2.70582E-01-1.37254E-01-9.65852E-10-1.94160E-04 1.75533E-13-4.32954E-14
 -1      3988 2.62271E-01-1.28943E-01 4.35001E-10-1.86196E-04 1.22433E-13-8.37736E-14
 -1      3990 2.70582E-01-1.37254E-01-9.61002E-10-1.94160E-04 3.01696E-12 9.21001E-14
 -1      3991 2.62271E-01-1.28943E-01 4.34681E-10-1.86196E-04-1.92580E-12-3.27903E-13
 -1      3993 2.70582E-01-1.37254E-01-9.61080E-10-1.94160E-04-1.07371E-11-1.15477E-12
 -1      3994 2.62271E-01-1.28943E-01 4.37965E-10-1.86196E-04 1.29475E-11 7.39914E-13
 -1      3996 2.70582E-01-1.37254E-01-9.81009E-10-1.94160E-04 4.07738E-11 2.54815E-12
 -1      3998 2.89521E-01-1.56194E-01-1.19164E-09-2.12194E-04-4.93644E-11-5.47979E-12
 -1      3999 2.80053E-01-1.46725E-01 5.36228E-10-2.03122E-04-1.19995E-11-1.30367E-12
 -1      4001 2.89521E-01-1.56194E-01-1.17813E-09-2.12194E-04 1.52115E-11 6.10085E-13
 -1      4002 2.80053E-01-1.46725E-01 5.33803E-10-2.03122E-04 2.25770E-12 1.17426E-13
 -1      4004 2.89521E-01-1.56194E-01-1.16661E-09-2.12194E-04-1.78918E-12-2.48991E-13
 -1      4005 2.80053E-01-1.46725E-01 5.31975E-10-2.03122E-04 1.25789E-12 1.40387E-13
 -1      4007 2.89521E-01-1.56194E-01-1.18050E-09-2.12194E-04-8.10070E-13-6.52893E-15
 -1      4008 2.80053E-01-1.46725E-01 5.32481E-10-2.03122E-04-1.17407E-12-5.13126E-14
 -1      4010 2.89521E-01-1.56194E-01-1.17187E-09-2.12194E-04 1.11417E-12 1.19265E-13
 -1      4011 2.80053E-01-1.46725E-01 5.32094E-10-2.03122E-04 7.49132E-13 1.00604E-13
 -1      4013 2.89521E-01-1.56194E-01-1.17661E-09-2.12194E-04-8.62185E-15 6.75218E-15
 -1      4014 2.80053E-01-1.46725E-01 5.32092E-10-2.03122E-04-7.45712E-13-7.59189E-14
 -1      4016 2.89521E-01-1.56194E-01-1.17186E-09-2.12194E-04-1.11939E-12-1.24530E-13
 -1      4017 2.80053E-01-1.46725E-01 5.32461E-10-2.03122E-04 1.17471E-12 5.75558E-14
 -1      4019 2.89521E-01-1.56194E-01-1.18049E-09-2.12194E-04 7.87773E-13-9.91105E-15
 -1      4020 2.80053E-01-1.46725E-01 5.31964E-10-2.03122E-04-1.27321E-12-1.34178E-13
 -1      4022 2.89521E-01-1.56194E-01-1.16661E-09-2.12194E-04 1.81766E-12 2.38624E-13
 -1      4023 2.80053E-01-1.46725E-01 5.33777E-10-2.03122E-04-2.22056E-12-1.29220E-13
 -1      4025 2.89521E-01-1.56194E-01-1.17813E-09-2.12194E-04-1.52027E-11-6.04025E-13
 -1      4026 2.80053E-01-1.46725E-01 5.36211E-10-2.03122E-04 1.19922E-11 1.32359E-12
 -1      4028 2.89521E-01-1.56194E-01-1.19164E-09-2.12194E-04 4.93586E-11 5.48729E-12
 -1      4030 3.11226E-01-1.77899E-01-1.47928E-09-2.32859E-04-7.58875E-11 3.78385E-13
 -1      4031 3.00376E-01-1.67048E-01 6.52459E-10-2.22466E-04-2.09840E-11 1.60338E-13
 -1      4033 3.11226E-01-1.77899E-01-1.49656E-09-2.32859E-04 9.88379E-12 3.29135E-12
 -1      4034 3.00376E-01-1.67048E-01 6.44596E-10-2.22466E-04-4.61830E-12 1.98342E-13
 -1      4036 3.11226E-01-1.77899E-01-1.45683E-09-2.32859E-04-2.64646E-12 2.96897E-13
 -1      4037 3.00376E-01-1.67048E-01 6.48175E-10-2.22466E-04 2.33589E-12 3.32569E-13
 -1      4039 3.11226E-01-1.77899E-01-1.48713E-09-2.32859E-04-5.04153E-12-3.10568E-13
 -1      4040 3.00376E-01-1.67048E-01 6.50662E-10-2.22466E-04-2.44437E-12-2.80446E-13
 -1      4042 3.11226E-01-1.77899E-01-1.47002E-09-2.32859E-04 2.20335E-12-2.34297E-14
 -1      4043 3.00376E-01-1.67048E-01 6.49908E-10-2.22466E-04 1.04806E-12 5.85264E-14
 -1      4045 3.11226E-01-1.77899E-01-1.47550E-09-2.32859E-04-1.49046E-15-1.88504E-14
 -1      4046 3.00376E-01-1.67048E-01 6.49913E-10-2.22466E-04-1.06043E-12-6.88269E-14
 -1      4048 3.11226E-01-1.77899E-01-1.47003E-09-2.32859E-04-2.19026E-12 2.99327E-15
 -1      4049 3.00376E-01-1.67048E-01 6.50668E-10-2.22466E-04 2.44218E-12 2.60365E-13
 -1      4051 3.11226E-01-1.77899E-01-1.48713E-09-2.32859E-04 5.03470E-12 3.06414E-13
 -1      4052 3.00376E-01-1.67048E-01 6.48171E-10-2.22466E-04-2.34996E-12-3.35971E-13
 -1      4054 3.11226E-01-1.77899E-01-1.45680E-09-2.32859E-04 2.60266E-12-2.96573E-13
 -1      4055 3.00376E-01-1.67048E-01 6.44622E-10-2.22466E-04 4.63398E-12-2.04681E-13
 -1      4057 3.11226E-01-1.77899E-01-1.49653E-09-2.32859E-04-9.83262E-12-3.30895E-12
 -1      4058 3.00376E-01-1.67048E-01 6.52466E-10-2.22466E-04 2.10078E-11-1.52655E-13
 -1      4060 3.11226E-01-1.77899E-01-1.47928E-09-2.32859E-04 7.59258E-11-3.62141E-13
 -1      4062 3.36263E-01-2.02935E-01-1.75296E-09-2.56704E-04-5.55768E-11-2.53959E-11
 -1      4063 3.23747E-01-1.90419E-01 8.38245E-10-2.44714E-04 1.93589E-11-4.77623E-12
 -1      4065 3.36263E-01-2.02935E-01-1.82708E-09-2.56704E-04 4.26261E-11-5.51750E-12
 -1      4066 3.23747E-01-1.90419E-01 8.54289E-10-2.44714E-04 3.90382E-12-1.67744E-12
 -1      4068 3.36263E-01-2.02935E-01-1.71832E-09-2.56704E-04 2.38900E-11-6.82400E-13
 -1      4069 3.23747E-01-1.90419E-01 8.36988E-10-2.44714E-04 1.44795E-11 7.30993E-13
 -1      4071 3.36263E-01-2.02935E-01-1.78721E-09-2.56704E-04-1.15374E-12-1.31659E-13
 -1      4072 3.23747E-01-1.90419E-01 8.38771E-10-2.44714E-04-1.08667E-12 4.10413E-15
 -1      4074 3.36263E-01-2.02935E-01-1.76257E-09-2.56704E-04 1.06116E-11 1.05258E-12
 -1      4075 3.23747E-01-1.90419E-01 8.38542E-10-2.44714E-04 1.87544E-12 2.48015E-13
 -1      4077 3.36263E-01-2.02935E-01-1.76634E-09-2.56704E-04 4.64003E-15 8.54049E-16
 -1      4078 3.23747E-01-1.90419E-01 8.38533E-10-2.44714E-04-1.87168E-12-2.65683E-13
 -1      4080 3.36263E-01-2.02935E-01-1.76257E-09-2.56704E-04-1.06215E-11-1.06130E-12
 -1      4081 3.23747E-01-1.90419E-01 8.38778E-10-2.44714E-04 1.07184E-12-1.27742E-14
 -1      4083 3.36263E-01-2.02935E-01-1.78720E-09-2.56704E-04 1.13532E-12 1.35283E-13
 -1      4084 3.23747E-01-1.90419E-01 8.37001E-10-2.44714E-04-1.44914E-11-7.28045E-13
 -1      4086 3.36263E-01-2.02935E-01-1.71831E-09-2.56704E-04-2.38833E-11 6.74098E-13
 -1      4087 3.23747E-01-1.90419E-01 8.54300E-10-2.44714E-04-3.89672E-12 1.66907E-12
 -1      4089 3.36263E-01-2.02935E-01-1.82709E-09-2.56704E-04-4.26048E-11 5.52192E-12
 -1      4090 3.23747E-01-1.90419E-01 8.38258E-10-2.44714E-04-1.93278E-11 4.77358E-12
 -1      4092 3.36263E-01-2.02935E-01-1.75296E-09-2.56704E-04 5.55697E-11 2.53986E-11
 -1      4094 3.65347E-01-2.32019E-01-2.36777E-09-2.84370E-04-2.20186E-10 5.56823E-11
 -1      4095 3.50809E-01-2.17481E-01 9.70176E-10-2.70466E-04-7.17591E-11 1.60360E-11
 -1      4097 3.65347E-01-2.32019E-01-2.71356E-09-2.84370E-04-8.44813E-11 2.41345E-11
 -1      4098 3.50809E-01-2.17481E-01 9.12387E-10-2.70466E-04-5.81556E-11 1.14126E-12
 -1      4100 3.65347E-01-2.32019E-01-2.47976E-09-2.84370E-04-1.29934E-11 5.15230E-12
 -1      4101 3.50809E-01-2.17481E-01 9.52946E-10-2.70466E-04 1.10753E-11 1.25149E-12
 -1      4103 3.65347E-01-2.32019E-01-2.59331E-09-2.84370E-04-3.88745E-11-3.61665E-12
 -1      4104 3.50809E-01-2.17481E-01 9.69873E-10-2.70466E-04-4.32702E-12-1.86359E-12
 -1      4106 3.65347E-01-2.32019E-01-2.53989E-09-2.84370E-04 1.01716E-11-1.58249E-12
 -1      4107 3.50809E-01-2.17481E-01 9.66693E-10-2.70466E-04 8.35454E-13-5.31391E-13
 -1      4109 3.65347E-01-2.32019E-01-2.52035E-09-2.84370E-04-5.88014E-15 3.13313E-15
 -1      4110 3.50809E-01-2.17481E-01 9.66687E-10-2.70466E-04-8.30078E-13 5.31019E-13
 -1      4112 3.65347E-01-2.32019E-01-2.53990E-09-2.84370E-04-1.01694E-11 1.58813E-12
 -1      4113 3.50809E-01-2.17481E-01 9.69878E-10-2.70466E-04 4.32103E-12 1.86748E-12
 -1      4115 3.65347E-01-2.32019E-01-2.59332E-09-2.84370E-04 3.88740E-11 3.60935E-12
 -1      4116 3.50809E-01-2.17481E-01 9.52951E-10-2.70466E-04-1.10818E-11-1.26023E-12
 -1      4118 3.65347E-01-2.32019E-01-2.47977E-09-2.84370E-04 1.29950E-11-5.15765E-12
 -1      4119 3.50809E-01-2.17481E-01 9.12392E-10-2.70466E-04 5.81705E-11-1.15088E-12
 -1      4121 3.65347E-01-2.32019E-01-2.71357E-09-2.84370E-04 8.44829E-11-2.41611E-11
 -1      4122 3.50809E-01-2.17481E-01 9.70182E-10-2.70466E-04 7.17561E-11-1.60389E-11
 -1      4124 3.65347E-01-2.32019E-01-2.36777E-09-2.84370E-04 2.20186E-10-5.56663E-11
 -1      4126 3.99403E-01-2.66075E-01-1.98767E-09-3.16890E-04 2.83873E-10-2.21516E-10
 -1      4127 3.82380E-01-2.49052E-01 1.51867E-09-3.00548E-04 3.98967E-10-4.67549E-11
 -1      4129 3.99403E-01-2.66075E-01-2.47191E-09-3.16890E-04 3.84538E-10-8.02087E-11
 -1      4130 3.82380E-01-2.49052E-01 1.79097E-09-3.00548E-04 9.22311E-11-1.71984E-11
 -1      4132 3.99403E-01-2.66075E-01-1.81140E-09-3.16890E-04 3.54096E-10-5.47083E-12
 -1      4133 3.82380E-01-2.49052E-01 1.63910E-09-3.00548E-04 1.13800E-10 4.47908E-12
 -1      4135 3.99403E-01-2.66075E-01-2.08060E-09-3.16890E-04 7.98273E-11 4.31877E-12
 -1      4136 3.82380E-01-2.49052E-01 1.63997E-09-3.00548E-04 3.24805E-11 3.98457E-12
 -1      4138 3.99403E-01-2.66075E-01-2.11359E-09-3.16890E-04 7.17647E-11 9.47064E-12
 -1      4139 3.82380E-01-2.49052E-01 1.65486E-09-3.00548E-04 6.34429E-12 1.52747E-12
 -1      4141 3.99403E-01-2.66075E-01-2.08003E-09-3.16890E-04-1.07659E-14-1.42790E-14
 -1      4142 3.82380E-01-2.49052E-01 1.65486E-09-3.00548E-04-6.37047E-12-1.53605E-12
 -1      4144 3.99403E-01-2.66075E-01-2.11361E-09-3.16890E-04-7.17709E-11-9.48047E-12
 -1      4145 3.82380E-01-2.49052E-01 1.63996E-09-3.00548E-04-3.24876E-11-3.98162E-12
 -1      4147 3.99403E-01-2.66075E-01-2.08062E-09-3.16890E-04-7.98156E-11-4.31664E-12
 -1      4148 3.82380E-01-2.49052E-01 1.63908E-09-3.00548E-04-1.13796E-10-4.48990E-12
 -1      4150 3.99403E-01-2.66075E-01-1.81143E-09-3.16890E-04-3.54102E-10 5.45719E-12
 -1      4151 3.82380E-01-2.49052E-01 1.79093E-09-3.00548E-04-9.22249E-11 1.71849E-11
 -1      4153 3.99403E-01-2.66075E-01-2.47194E-09-3.16890E-04-3.84531E-10 8.02162E-11
 -1      4154 3.82380E-01-2.49052E-01 1.51866E-09-3.00548E-04-3.98975E-10 4.67607E-11
 -1      4156 3.99403E-01-2.66075E-01-1.98767E-09-3.16890E-04-2.83881E-10 2.21522E-10
 -1      4158 4.39629E-01-3.06302E-01-5.03517E-09-3.54799E-04-1.56329E-09 6.74877E-10
 -1      4159 4.19523E-01-2.86195E-01 9.96501E-10-3.35795E-04-7.69040E-10 1.95038E-10
 -1      4161 4.39629E-01-3.06302E-01-8.14966E-09-3.54800E-04-1.68166E-09 2.39566E-10
 -1      4162 4.19523E-01-2.86195E-01 2.31089E-10-3.35795E-04-5.41882E-10 2.60456E-11
 -1      4164 4.39629E-01-3.06302E-01-7.44594E-09-3.54800E-04-6.31336E-10 4.50357E-11
 -1      4165 4.19523E-01-2.86195E-01 5.52132E-10-3.35795E-04-8.88750E-11-2.46806E-12
 -1      4167 4.39629E-01-3.06302E-01-7.58277E-09-3.54800E-04-4.29425E-10-3.47108E-11
 -1      4168 4.19523E-01-2.86195E-01 6.04843E-10-3.35795E-04-3.59893E-11-1.64874E-11
 -1      4170 4.39629E-01-3.06302E-01-7.38886E-09-3.54799E-04-6.10210E-11-2.54490E-11
 -1      4171 4.19523E-01-2.86195E-01 5.59629E-10-3.35795E-04-2.44126E-11-7.94581E-12
 -1      4173 4.39629E-01-3.06302E-01-7.12391E-09-3.54799E-04-7.79115E-15-9.15686E-15
 -1      4174 4.19523E-01-2.86195E-01 5.59642E-10-3.35795E-04 2.44136E-11 7.92464E-12
 -1      4176 4.39629E-01-3.06302E-01-7.38883E-09-3.54799E-04 6.10314E-11 2.54400E-11
 -1      4177 4.19523E-01-2.86195E-01 6.04826E-10-3.35795E-04 3.60057E-11 1.64912E-11
 -1      4179 4.39629E-01-3.06302E-01-7.58276E-09-3.54800E-04 4.29436E-10 3.46965E-11
 -1      4180 4.19523E-01-2.86195E-01 5.52131E-10-3.35795E-04 8.88631E-11 2.45454E-12
 -1      4182 4.39629E-01-3.06302E-01-7.44594E-09-3.54800E-04 6.31286E-10-4.50499E-11
 -1      4183 4.19523E-01-2.86195E-01 2.31074E-10-3.35795E-04 5.41884E-10-2.60662E-11
 -1      4185 4.39629E-01-3.06302E-01-8.14968E-09-3.54800E-04 1.68169E-09-2.39610E-10
 -1      4186 4.19523E-01-2.86195E-01 9.96500E-10-3.35795E-04 7.69059E-10-1.95050E-10
 -1      4188 4.39629E-01-3.06302E-01-5.03518E-09-3.54799E-04 1.56334E-09-6.74918E-10
 -1      4190 4.87612E-01-3.54284E-01 5.42769E-09-4.01953E-04 5.42681E-09-2.10613E-09
 -1      4191 4.63631E-01-3.30303E-01 4.46811E-09-3.78223E-04 4.03281E-09-5.42049E-10
 -1      4193 4.87612E-01-3.54284E-01 5.49243E-09-4.01952E-04 5.50757E-09-8.09924E-10
 -1      4194 4.63631E-01-3.30303E-01 7.74501E-09-3.78223E-04 1.24542E-09-1.50473E-10
 -1      4196 4.87612E-01-3.54284E-01 9.85918E-09-4.01952E-04 4.45254E-09-4.25735E-11
 -1      4197 4.63631E-01-3.30303E-01 6.68804E-09-3.78223E-04 8.09529E-10 3.70623E-11
 -1      4199 4.87612E-01-3.54284E-01 9.05298E-09-4.01952E-04 1.38868E-09 8.57304E-11
 -1      4200 4.63631E-01-3.30303E-01 6.71742E-09-3.78223E-04 3.89541E-10 5.72131E-11
 -1      4202 4.87612E-01-3.54284E-01 7.37201E-09-4.01952E-04 2.69221E-10 7.62434E-11
 -1      4203 4.63631E-01-3.30303E-01 6.98716E-09-3.78223E-04 6.52902E-11 1.78070E-11
 -1      4205 4.87612E-01-3.54284E-01 7.09676E-09-4.01952E-04-1.85756E-14 9.62920E-15
 -1      4206 4.63631E-01-3.30303E-01 6.98717E-09-3.78223E-04-6.53028E-11-1.78051E-11
 -1      4208 4.87612E-01-3.54284E-01 7.37202E-09-4.01952E-04-2.69221E-10-7.62312E-11
 -1      4209 4.63631E-01-3.30303E-01 6.71745E-09-3.78223E-04-3.89543E-10-5.72101E-11
 -1      4211 4.87612E-01-3.54284E-01 9.05301E-09-4.01952E-04-1.38868E-09-8.57273E-11
 -1      4212 4.63631E-01-3.30303E-01 6.68805E-09-3.78223E-04-8.09523E-10-3.70686E-11
 -1      4214 4.87612E-01-3.54284E-01 9.85920E-09-4.01952E-04-4.45252E-09 4.25822E-11
 -1      4215 4.63631E-01-3.30303E-01 7.74500E-09-3.78223E-04-1.24543E-09 1.50466E-10
 -1      4217 4.87612E-01-3.54284E-01 5.49245E-09-4.01952E-04-5.50757E-09 8.09939E-10
 -1      4218 4.63631E-01-3.30303E-01 4.46810E-09-3.78223E-04-4.03278E-09 5.42039E-10
 -1      4220 4.87612E-01-3.54284E-01 5.42770E-09-4.01953E-04-5.42681E-09 2.10613E-09
 -1      4222 5.45478E-01-4.12151E-01-2.63120E-08-4.51233E-04-1.87861E-08 6.14879E-09
 -1      4223 5.16560E-01-3.83232E-01-5.49305E-09-4.26900E-04-8.96680E-09 1.97636E-09
 -1      4225 5.45478E-01-4.12151E-01-5.94719E-08-4.51235E-04-2.71465E-08 1.98099E-09
 -1      4226 5.16560E-01-3.83232E-01-1.51196E-08-4.26900E-04-5.50587E-09 3.19778E-10
 -1      4228 5.45478E-01-4.12151E-01-6.58377E-08-4.51235E-04-1.42190E-08 2.42711E-10
 -1      4229 5.16560E-01-3.83232E-01-1.43835E-08-4.26900E-04-3.06178E-09-1.23757E-10
 -1      4231 5.45478E-01-4.12151E-01-6.19391E-08-4.51235E-04-5.92154E-09-2.88960E-10
 -1      4232 5.16560E-01-3.83232E-01-1.56189E-08-4.26899E-04-1.34626E-09-1.58736E-10
 -1      4234 5.45478E-01-4.12151E-01-5.90662E-08-4.51234E-04-1.84210E-09-2.49281E-10
 -1      4235 5.16560E-01-3.83232E-01-1.64806E-08-4.26899E-04-4.76289E-10-6.79556E-11
 -1      4237 5.45478E-01-4.12151E-01-5.72584E-08-4.51234E-04-6.16421E-15 1.48042E-14
 -1      4238 5.16560E-01-3.83232E-01-1.64806E-08-4.26899E-04 4.76272E-10 6.79771E-11
 -1      4240 5.45478E-01-4.12151E-01-5.90662E-08-4.51234E-04 1.84212E-09 2.49298E-10
 -1      4241 5.16560E-01-3.83232E-01-1.56189E-08-4.26899E-04 1.34627E-09 1.58746E-10
 -1      4243 5.45478E-01-4.12151E-01-6.19392E-08-4.51235E-04 5.92153E-09 2.88968E-10
 -1      4244 5.16560E-01-3.83232E-01-1.43835E-08-4.26900E-04 3.06178E-09 1.23748E-10
 -1      4246 5.45478E-01-4.12151E-01-6.58377E-08-4.51235E-04 1.42191E-08-2.42726E-10
 -1      4247 5.16560E-01-3.83232E-01-1.51196E-08-4.26900E-04 5.50589E-09-3.19774E-10
 -1      4249 5.45478E-01-4.12151E-01-5.94719E-08-4.51235E-04 2.71465E-08-1.98100E-09
 -1      4250 5.16560E-01-3.83232E-01-5.49305E-09-4.26900E-04 8.96679E-09-1.97637E-09
 -1      4252 5.45478E-01-4.12151E-01-2.63120E-08-4.51233E-04 1.87861E-08-6.14878E-09
 -1      4254 6.16137E-01-4.82808E-01 1.08997E-07-5.40950E-04 7.73695E-08-1.53056E-08
 -1      4255 5.80830E-01-4.47502E-01 3.09096E-08-4.94835E-04 3.34268E-08-5.18790E-09
 -1      4257 6.16137E-01-4.82808E-01 1.64515E-07-5.40944E-04 8.48235E-08-5.47841E-09
 -1      4258 5.80830E-01-4.47502E-01 6.70730E-08-4.94834E-04 1.32017E-08-1.04196E-09
 -1      4260 6.16137E-01-4.82808E-01 2.04054E-07-5.40945E-04 5.95744E-08 1.32351E-10
 -1      4261 5.80830E-01-4.47502E-01 6.78192E-08-4.94835E-04 7.28547E-09 3.70855E-10
 -1      4263 6.16137E-01-4.82808E-01 2.03215E-07-5.40946E-04 2.02908E-08 9.00356E-10
 -1      4264 5.80830E-01-4.47502E-01 7.20091E-08-4.94836E-04 4.46708E-09 5.36105E-10
 -1      4266 6.16137E-01-4.82808E-01 1.79306E-07-5.40947E-04-1.88385E-10 3.71535E-10
 -1      4267 5.80830E-01-4.47502E-01 7.60255E-08-4.94836E-04 1.33645E-09 1.85661E-10
 -1      4269 6.16137E-01-4.82808E-01 1.68211E-07-5.40947E-04-3.59419E-14-5.16326E-15
 -1      4270 5.80830E-01-4.47502E-01 7.60255E-08-4.94836E-04-1.33645E-09-1.85649E-10
 -1      4272 6.16137E-01-4.82808E-01 1.79306E-07-5.40947E-04 1.88393E-10-3.71528E-10
 -1      4273 5.80830E-01-4.47502E-01 7.20091E-08-4.94836E-04-4.46709E-09-5.36094E-10
 -1      4275 6.16137E-01-4.82808E-01 2.03215E-07-5.40946E-04-2.02907E-08-9.00363E-10
 -1      4276 5.80830E-01-4.47502E-01 6.78192E-08-4.94835E-04-7.28547E-09-3.70867E-10
 -1      4278 6.16137E-01-4.82808E-01 2.04054E-07-5.40945E-04-5.95745E-08-1.32343E-10
 -1      4279 5.80830E-01-4.47502E-01 6.70730E-08-4.94834E-04-1.32018E-08 1.04197E-09
 -1      4281 6.16137E-01-4.82808E-01 1.64515E-07-5.40944E-04-8.48235E-08 5.47843E-09
 -1      4282 5.80830E-01-4.47502E-01 3.09096E-08-4.94835E-04-3.34267E-08 5.18790E-09
 -1      4284 6.16137E-01-4.82808E-01 1.08997E-07-5.40950E-04-7.73695E-08 1.53056E-08
 -1      4286 7.03666E-01-5.70340E-01-2.50269E-07-5.36378E-04-2.32809E-07 3.10506E-08
 -1      4287 6.59935E-01-5.26608E-01-1.07345E-07-5.43715E-04-7.15366E-08 1.51193E-08
 -1      4289 7.03666E-01-5.70341E-01-6.88391E-07-5.36391E-04-4.26826E-07 3.16009E-09
 -1      4290 6.59935E-01-5.26608E-01-2.08701E-07-5.43716E-04-4.66375E-08 2.03123E-09
 -1      4292 7.03666E-01-5.70340E-01-9.17550E-07-5.36385E-04-2.60431E-07-3.00559E-09
 -1      4293 6.59935E-01-5.26608E-01-2.44230E-07-5.43714E-04-4.86932E-08-1.66112E-09
 -1      4295 7.03666E-01-5.70340E-01-8.55760E-07-5.36382E-04-7.62395E-08-8.93828E-10
 -1      4296 6.59935E-01-5.26608E-01-2.82940E-07-5.43711E-04-2.77252E-08-1.13978E-09
 -1      4298 7.03666E-01-5.70340E-01-7.71551E-07-5.36381E-04-9.81376E-09-8.84257E-11
 -1      4299 6.59935E-01-5.26608E-01-2.98672E-07-5.43711E-04-7.89550E-09-3.09816E-10
 -1      4301 7.03666E-01-5.70340E-01-7.43547E-07-5.36381E-04-1.49921E-15 1.10581E-14
 -1      4302 6.59935E-01-5.26608E-01-2.98672E-07-5.43711E-04 7.89547E-09 3.09822E-10
 -1      4304 7.03666E-01-5.70340E-01-7.71551E-07-5.36381E-04 9.81375E-09 8.84227E-11
 -1      4305 6.59935E-01-5.26608E-01-2.82940E-07-5.43711E-04 2.77252E-08 1.13978E-09
 -1      4307 7.03666E-01-5.70340E-01-8.55760E-07-5.36382E-04 7.62395E-08 8.93822E-10
 -1      4308 6.59935E-01-5.26608E-01-2.44230E-07-5.43714E-04 4.86932E-08 1.66112E-09
 -1      4310 7.03666E-01-5.70340E-01-9.17550E-07-5.36385E-04 2.60431E-07 3.00560E-09
 -1      4311 6.59935E-01-5.26608E-01-2.08701E-07-5.43716E-04 4.66375E-08-2.03121E-09
 -1      4313 7.03666E-01-5.70341E-01-6.88391E-07-5.36391E-04 4.26826E-07-3.16009E-09
 -1      4314 6.59935E-01-5.26608E-01-1.07345E-07-5.43715E-04 7.15366E-08-1.51193E-08
 -1      4316 7.03666E-01-5.70340E-01-2.50269E-07-5.36378E-04 2.32809E-07-3.10506E-08
 -1      4318 8.13827E-01-6.80491E-01 1.54165E-06-9.84058E-04 1.32118E-06 1.74299E-08
 -1      4319 7.58804E-01-6.25472E-01 3.31793E-07-7.42008E-04 1.20041E-07-2.57333E-08
 -1      4321 8.13828E-01-6.80491E-01 2.91484E-06-9.84043E-04 1.32740E-06 1.82315E-08
 -1      4322 7.58804E-01-6.25472E-01 6.84624E-07-7.42012E-04 1.45930E-07 2.27851E-09
 -1      4324 8.13828E-01-6.80491E-01 3.10055E-06-9.84057E-04 6.20068E-07 4.48766E-09
 -1      4325 7.58804E-01-6.25472E-01 9.57391E-07-7.42021E-04 1.47195E-07 3.39089E-09
 -1      4327 8.13828E-01-6.80491E-01 2.92822E-06-9.84058E-04 2.42868E-07-4.35329E-10
 -1      4328 7.58804E-01-6.25472E-01 1.11904E-06-7.42024E-04 8.78258E-08 1.27990E-09
 -1      4330 8.13828E-01-6.80491E-01 2.83704E-06-9.84058E-04 9.04673E-08-4.66349E-10
 -1      4331 7.58804E-01-6.25472E-01 1.17148E-06-7.42025E-04 2.80378E-08 2.96529E-10
 -1      4333 8.13828E-01-6.80491E-01 2.81374E-06-9.84057E-04-1.09940E-14-2.96865E-16
 -1      4334 7.58804E-01-6.25472E-01 1.17148E-06-7.42025E-04-2.80378E-08-2.96526E-10
 -1      4336 8.13828E-01-6.80491E-01 2.83704E-06-9.84058E-04-9.04673E-08 4.66344E-10
 -1      4337 7.58804E-01-6.25472E-01 1.11904E-06-7.42024E-04-8.78258E-08-1.27991E-09
 -1      4339 8.13828E-01-6.80491E-01 2.92822E-06-9.84058E-04-2.42869E-07 4.35319E-10
 -1      4340 7.58804E-01-6.25472E-01 9.57391E-07-7.42021E-04-1.47195E-07-3.39089E-09
 -1      4342 8.13828E-01-6.80491E-01 3.10055E-06-9.84057E-04-6.20068E-07-4.48766E-09
 -1      4343 7.58804E-01-6.25472E-01 6.84624E-07-7.42012E-04-1.45930E-07-2.27850E-09
 -1      4345 8.13828E-01-6.80491E-01 2.91484E-06-9.84043E-04-1.32740E-06-1.82315E-08
 -1      4346 7.58804E-01-6.25472E-01 3.31793E-07-7.42008E-04-1.20041E-07 2.57333E-08
 -1      4348 8.13827E-01-6.80491E-01 1.54165E-06-9.84058E-04-1.32118E-06-1.74299E-08
 -1      4350 9.55537E-01-8.22206E-01-3.94949E-07 3.36961E-04-2.54416E-06-3.61395E-08
 -1      4351 8.84685E-01-7.51372E-01-2.22840E-06-4.51599E-04-4.27083E-07-1.59365E-09
 -1      4353 9.55537E-01-8.22205E-01 4.71586E-07 3.36955E-04-1.69989E-06-3.76430E-09
 -1      4354 8.84685E-01-7.51372E-01-3.24938E-06-4.51575E-04-1.24531E-07-1.12223E-08
 -1      4356 9.55537E-01-8.22205E-01 1.08173E-06 3.36952E-04-5.68867E-07 3.31980E-09
 -1      4357 8.84685E-01-7.51371E-01-3.85083E-06-4.51562E-04-3.96819E-08-3.33612E-09
 -1      4359 9.55537E-01-8.22205E-01 1.26868E-06 3.36948E-04-2.05164E-07 1.43788E-09
 -1      4360 8.84685E-01-7.51371E-01-4.08304E-06-4.51559E-04-2.84290E-09-5.15963E-10
 -1      4362 9.55537E-01-8.22206E-01 1.26988E-06 3.36948E-04-7.59604E-08 4.07691E-10
 -1      4363 8.84685E-01-7.51372E-01-4.15380E-06-4.51559E-04 2.21819E-09-3.43248E-11
 -1      4365 9.55537E-01-8.22206E-01 1.25702E-06 3.36947E-04-1.59077E-14 3.29355E-15
 -1      4366 8.84685E-01-7.51372E-01-4.15380E-06-4.51559E-04-2.21820E-09 3.43253E-11
 -1      4368 9.55537E-01-8.22206E-01 1.26988E-06 3.36948E-04 7.59604E-08-4.07684E-10
 -1      4369 8.84685E-01-7.51371E-01-4.08304E-06-4.51559E-04 2.84290E-09 5.15964E-10
 -1      4371 9.55537E-01-8.22205E-01 1.26868E-06 3.36948E-04 2.05164E-07-1.43788E-09
 -1      4372 8.84685E-01-7.51371E-01-3.85083E-06-4.51562E-04 3.96818E-08 3.33612E-09
 -1      4374 9.55537E-01-8.22205E-01 1.08173E-06 3.36952E-04 5.68867E-07-3.31982E-09
 -1      4375 8.84685E-01-7.51372E-01-3.24938E-06-4.51575E-04 1.24531E-07 1.12222E-08
 -1      4377 9.55537E-01-8.22205E-01 4.71586E-07 3.36955E-04 1.69989E-06 3.76429E-09
 -1      4378 8.84685E-01-7.51372E-01-2.22840E-06-4.51599E-04 4.27083E-07 1.59365E-09
 -1      4380 9.55537E-01-8.22206E-01-3.94949E-07 3.36961E-04 2.54416E-06 3.61395E-08
 -1      4382 1.04661E+00-9.13270E-01 2.00530E-06 2.14093E-03 3.78585E-07 1.53374E-08
 -1      4384 1.04661E+00-9.13271E-01 2.76071E-06 2.14092E-03 1.28653E-08 7.26532E-09
 -1      4386 1.04661E+00-9.13272E-01 3.13245E-06 2.14091E-03-7.52088E-08 1.59615E-09
 -1      4388 1.04661E+00-9.13272E-01 3.24157E-06 2.14091E-03-7.00147E-08 4.28939E-11
 -1      4390 1.04661E+00-9.13272E-01 3.27328E-06 2.14091E-03-2.66868E-08-1.41276E-11
 -1      4392 1.04661E+00-9.13272E-01 3.27328E-06 2.14091E-03 2.66868E-08 1.41145E-11
 -1      4394 1.04661E+00-9.13272E-01 3.24157E-06 2.14091E-03 7.00147E-08-4.29116E-11
 -1      4396 1.04661E+00-9.13272E-01 3.13245E-06 2.14091E-03 7.52088E-08-1.59616E-09
 -1      4398 1.04661E+00-9.13271E-01 2.76071E-06 2.14092E-03-1.28653E-08-7.26533E-09
 -1      4400 1.04661E+00-9.13270E-01 2.00530E-06 2.14093E-03-3.78585E-07-1.53374E-08
 -1      4403 1.08559E+00-9.52280E-01-4.11621E-06-3.31072E-01 2.78589E-06 4.41248E-07
 -1      4404 1.08559E+00-9.52282E-01-6.00469E-06-3.31072E-01 6.07222E-07 9.66246E-08
 -1      4405 1.08559E+00-9.52282E-01-6.71760E-06-3.31072E-01 6.08276E-08 9.93793E-09
 -1      4406 1.08559E+00-9.52282E-01-6.75934E-06-3.31072E-01-3.16350E-08-4.86561E-09
 -1      4407 1.08559E+00-9.52282E-01-6.70598E-06-3.31072E-01-1.62722E-08-2.53480E-09
 -1      4408 1.08559E+00-9.52282E-01-6.70598E-06-3.31072E-01 1.62723E-08 2.53480E-09
 -1      4409 1.08559E+00-9.52282E-01-6.75934E-06-3.31072E-01 3.16350E-08 4.86560E-09
 -1      4410 1.08559E+00-9.52282E-01-6.71760E-06-3.31072E-01-6.08277E-08-9.93794E-09
 -1      4411 1.08559E+00-9.52282E-01-6.00469E-06-3.31072E-01-6.07222E-07-9.66246E-08
 -1      4412 1.08559E+00-9.52280E-01-4.11621E-06-3.31072E-01-2.78589E-06-4.41248E-07
 -1      4413 9.33414E-01-8.00103E-01-4.12861E-06-6.29737E-01 2.67857E-06 8.70058E-07
 -1      4414 9.33413E-01-8.00104E-01-6.01297E-06-6.29737E-01 5.84088E-07 1.89323E-07
 -1      4415 9.33412E-01-8.00105E-01-6.72369E-06-6.29737E-01 5.84951E-08 1.87302E-08
 -1      4416 9.33412E-01-8.00105E-01-6.76482E-06-6.29737E-01-3.04419E-08-1.00354E-08
 -1      4417 9.33412E-01-8.00105E-01-6.71131E-06-6.29737E-01-1.56595E-08-5.13137E-09
 -1      4418 9.33412E-01-8.00105E-01-6.71131E-06-6.29737E-01 1.56595E-08 5.13141E-09
 -1      4419 9.33412E-01-8.00105E-01-6.76482E-06-6.29737E-01 3.04418E-08 1.00354E-08
 -1      4420 9.33412E-01-8.00105E-01-6.72369E-06-6.29737E-01-5.84950E-08-1.87302E-08
 -1      4421 9.33413E-01-8.00104E-01-6.01297E-06-6.29737E-01-5.84088E-07-1.89323E-07
 -1      4422 9.33414E-01-8.00103E-01-4.12861E-06-6.29737E-01-2.67857E-06-8.70058E-07
 -1      4423 6.96392E-01-5.63081E-01-4.10659E-06-8.66758E-01 2.51694E-06 1.28215E-06
 -1      4424 6.96391E-01-5.63083E-01-5.99715E-06-8.66759E-01 5.48866E-07 2.79164E-07
 -1      4425 6.96391E-01-5.63083E-01-6.71169E-06-8.66759E-01 5.52573E-08 2.78545E-08
 -1      4426 6.96391E-01-5.63083E-01-6.75399E-06-8.66759E-01-2.83759E-08-1.46120E-08
 -1      4427 6.96391E-01-5.63083E-01-6.70083E-06-8.66759E-01-1.46343E-08-7.50257E-09
 -1      4428 6.96391E-01-5.63083E-01-6.70083E-06-8.66759E-01 1.46343E-08 7.50261E-09
 -1      4429 6.96391E-01-5.63083E-01-6.75399E-06-8.66759E-01 2.83758E-08 1.46120E-08
 -1      4430 6.96391E-01-5.63083E-01-6.71169E-06-8.66759E-01-5.52573E-08-2.78544E-08
 -1      4431 6.96391E-01-5.63083E-01-5.99715E-06-8.66759E-01-5.48866E-07-2.79164E-07
 -1      4432 6.96392E-01-5.63081E-01-4.10659E-06-8.66758E-01-2.51694E-06-1.28215E-06
 -1      4433 3.97728E-01-2.64417E-01-4.11897E-06-1.01894E+00 2.28172E-06 1.65784E-06
 -1      4434 3.97726E-01-2.64418E-01-6.00548E-06-1.01894E+00 4.97208E-07 3.61829E-07
 -1      4435 3.97726E-01-2.64419E-01-6.71785E-06-1.01894E+00 4.97148E-08 3.64894E-08
 -1      4436 3.97726E-01-2.64419E-01-6.75952E-06-1.01894E+00-2.59467E-08-1.86670E-08
 -1      4437 3.97726E-01-2.64419E-01-6.70621E-06-1.01894E+00-1.33389E-08-9.63625E-09
 -1      4438 3.97726E-01-2.64419E-01-6.70621E-06-1.01894E+00 1.33389E-08 9.63629E-09
 -1      4439 3.97726E-01-2.64419E-01-6.75952E-06-1.01894E+00 2.59467E-08 1.86670E-08
 -1      4440 3.97726E-01-2.64419E-01-6.71785E-06-1.01894E+00-4.97148E-08-3.64893E-08
 -1      4441 3.97726E-01-2.64418E-01-6.00548E-06-1.01894E+00-4.97208E-07-3.61829E-07
 -1      4442 3.97728E-01-2.64417E-01-4.11897E-06-1.01894E+00-2.28172E-06-1.65784E-06
 -1      4443 6.66554E-02 6.66555E-02-4.11747E-06-1.07137E+00 1.99466E-06 1.99456E-06
 -1      4444 6.66541E-02 6.66541E-02-6.00526E-06-1.07137E+00 4.34765E-07 4.34790E-07
 -1      4445 6.66538E-02 6.66538E-02-6.71785E-06-1.07137E+00 4.35974E-08 4.35738E-08
 -1      4446 6.66537E-02 6.66537E-02-6.75956E-06-1.07137E+00-2.26132E-08-2.26228E-08
 -1      4447 6.66537E-02 6.66537E-02-6.70622E-06-1.07137E+00-1.16401E-08-1.16417E-08
 -1      4448 6.66537E-02 6.66537E-02-6.70622E-06-1.07137E+00 1.16400E-08 1.16417E-08
 -1      4449 6.66537E-02 6.66537E-02-6.75956E-06-1.07137E+00 2.26132E-08 2.26228E-08
 -1      4450 6.66538E-02 6.66538E-02-6.71785E-06-1.07137E+00-4.35974E-08-4.35738E-08
 -1      4451 6.66541E-02 6.66541E-02-6.00526E-06-1.07137E+00-4.34765E-07-4.34790E-07
 -1      4452 6.66554E-02 6.66555E-02-4.11747E-06-1.07137E+00-1.99466E-06-1.99456E-06
 -1      4453-2.64417E-01 3.97728E-01-4.11755E-06-1.01894E+00 1.65785E-06 2.28193E-06
 -1      4454-2.64418E-01 3.97726E-01-6.00499E-06-1.01894E+00 3.61390E-07 4.97455E-07
 -1      4455-2.64419E-01 3.97726E-01-6.71764E-06-1.01894E+00 3.62403E-08 4.98775E-08
 -1      4456-2.64419E-01 3.97726E-01-6.75937E-06-1.01894E+00-1.88050E-08-2.58726E-08
 -1      4457-2.64419E-01 3.97726E-01-6.70604E-06-1.01894E+00-9.67798E-09-1.33171E-08
 -1      4458-2.64419E-01 3.97726E-01-6.70604E-06-1.01894E+00 9.67798E-09 1.33171E-08
 -1      4459-2.64419E-01 3.97726E-01-6.75937E-06-1.01894E+00 1.88049E-08 2.58726E-08
 -1      4460-2.64419E-01 3.97726E-01-6.71764E-06-1.01894E+00-3.62403E-08-4.98775E-08
 -1      4461-2.64418E-01 3.97726E-01-6.00499E-06-1.01894E+00-3.61390E-07-4.97455E-07
 -1      4462-2.64417E-01 3.97728E-01-4.11755E-06-1.01894E+00-1.65785E-06-2.28193E-06
 -1      4463-5.63081E-01 6.96392E-01-4.11764E-06-8.66758E-01 1.28049E-06 2.51310E-06
 -1      4464-5.63083E-01 6.96391E-01-6.00511E-06-8.66759E-01 2.79153E-07 5.47843E-07
 -1      4465-5.63083E-01 6.96391E-01-6.71772E-06-8.66759E-01 2.79935E-08 5.49296E-08
 -1      4466-5.63083E-01 6.96391E-01-6.75943E-06-8.66759E-01-1.45228E-08-2.84986E-08
 -1      4467-5.63083E-01 6.96391E-01-6.70609E-06-8.66759E-01-7.47364E-09-1.46679E-08
 -1      4468-5.63083E-01 6.96391E-01-6.70609E-06-8.66759E-01 7.47361E-09 1.46679E-08
 -1      4469-5.63083E-01 6.96391E-01-6.75943E-06-8.66759E-01 1.45227E-08 2.84986E-08
 -1      4470-5.63083E-01 6.96391E-01-6.71772E-06-8.66759E-01-2.79935E-08-5.49296E-08
 -1      4471-5.63083E-01 6.96391E-01-6.00511E-06-8.66759E-01-2.79153E-07-5.47843E-07
 -1      4472-5.63081E-01 6.96392E-01-4.11764E-06-8.66758E-01-1.28049E-06-2.51310E-06
 -1      4473-8.00103E-01 9.33414E-01-4.11755E-06-6.29737E-01 8.71595E-07 2.68251E-06
 -1      4474-8.00104E-01 9.33413E-01-6.00505E-06-6.29737E-01 1.90017E-07 5.84783E-07
 -1      4475-8.00105E-01 9.33412E-01-6.71769E-06-6.29737E-01 1.90560E-08 5.86359E-08
 -1      4476-8.00105E-01 9.33412E-01-6.75941E-06-6.29737E-01-9.88312E-09-3.04202E-08
 -1      4477-8.00105E-01 9.33412E-01-6.70607E-06-6.29737E-01-5.08604E-09-1.56567E-08
 -1      4478-8.00105E-01 9.33412E-01-6.70607E-06-6.29737E-01 5.08602E-09 1.56566E-08
 -1      4479-8.00105E-01 9.33412E-01-6.75941E-06-6.29737E-01 9.88307E-09 3.04202E-08
 -1      4480-8.00105E-01 9.33412E-01-6.71769E-06-6.29737E-01-1.90560E-08-5.86359E-08
 -1      4481-8.00104E-01 9.33413E-01-6.00505E-06-6.29737E-01-1.90017E-07-5.84783E-07
 -1      4482-8.00103E-01 9.33414E-01-4.11755E-06-6.29737E-01-8.71595E-07-2.68251E-06
 -1      4483-9.52280E-01 1.08559E+00-4.11760E-06-3.31072E-01 4.41230E-07 2.78580E-06
 -1      4484-9.52282E-01 1.08559E+00-6.00507E-06-3.31072E-01 9.61896E-08 6.07308E-07
 -1      4485-9.52282E-01 1.08559E+00-6.71770E-06-3.31072E-01 9.64318E-09 6.08948E-08
 -1      4486-9.52282E-01 1.08559E+00-6.75942E-06-3.31072E-01-5.00467E-09-3.15917E-08
 -1      4487-9.52282E-01 1.08559E+00-6.70608E-06-3.31072E-01-2.57513E-09-1.62593E-08
 -1      4488-9.52282E-01 1.08559E+00-6.70608E-06-3.31072E-01 2.57511E-09 1.62593E-08
 -1      4489-9.52282E-01 1.08559E+00-6.75942E-06-3.31072E-01 5.00464E-09 3.15917E-08
 -1      4490-9.52282E-01 1.08559E+00-6.71770E-06-3.31072E-01-9.64320E-09-6.08948E-08
 -1      4491-9.52282E-01 1.08559E+00-6.00507E-06-3.31072E-01-9.61896E-08-6.07308E-07
 -1      4492-9.52280E-01 1.08559E+00-4.11760E-06-3.31072E-01-4.41230E-07-2.78580E-06
 -1      4493 1.08559E+00-9.52283E-01-1.88637E-06-3.31073E-01 2.79055E-06 4.41350E-07
 -1      4494 1.11123E+00-9.77924E-01-4.11756E-06-1.65445E-01 2.80056E-06 2.20550E-07
 -1      4496 1.08559E+00-9.52281E-01-5.46496E-06-3.31072E-01 1.47118E-06 2.33293E-07
 -1      4497 1.11123E+00-9.77925E-01-6.00539E-06-1.65445E-01 6.09668E-07 4.80274E-08
 -1      4499 1.08559E+00-9.52282E-01-6.65512E-06-3.31072E-01 3.00924E-07 4.80687E-08
 -1      4500 1.11123E+00-9.77926E-01-6.71799E-06-1.65445E-01 6.10857E-08 4.84381E-09
 -1      4502 1.08559E+00-9.52282E-01-6.80462E-06-3.31072E-01 2.55136E-08 4.26835E-09
 -1      4503 1.11123E+00-9.77926E-01-6.75973E-06-1.65445E-01-3.18033E-08-2.46698E-09
 -1      4505 1.08559E+00-9.52282E-01-6.74534E-06-3.31072E-01-1.83679E-08-2.81513E-09
 -1      4506 1.11123E+00-9.77926E-01-6.70640E-06-1.65445E-01-1.63439E-08-1.27270E-09
 -1      4508 1.08559E+00-9.52282E-01-6.70965E-06-3.31072E-01 3.92030E-15-3.33015E-15
 -1      4509 1.11123E+00-9.77926E-01-6.70640E-06-1.65445E-01 1.63439E-08 1.27269E-09
 -1      4511 1.08559E+00-9.52282E-01-6.74534E-06-3.31072E-01 1.83679E-08 2.81513E-09
 -1      4512 1.11123E+00-9.77926E-01-6.75973E-06-1.65445E-01 3.18033E-08 2.46698E-09
 -1      4514 1.08559E+00-9.52282E-01-6.80462E-06-3.31072E-01-2.55136E-08-4.26836E-09
 -1      4515 1.11123E+00-9.77926E-01-6.71799E-06-1.65445E-01-6.10858E-08-4.84382E-09
 -1      4517 1.08559E+00-9.52282E-01-6.65512E-06-3.31072E-01-3.00924E-07-4.80687E-08
 -1      4518 1.11123E+00-9.77925E-01-6.00539E-06-1.65445E-01-6.09668E-07-4.80274E-08
 -1      4520 1.08559E+00-9.52281E-01-5.46496E-06-3.31072E-01-1.47118E-06-2.33293E-07
 -1      4521 1.11123E+00-9.77924E-01-4.11756E-06-1.65445E-01-2.80056E-06-2.20550E-07
 -1      4523 1.08559E+00-9.52283E-01-1.88637E-06-3.31073E-01-2.79055E-06-4.41350E-07
 -1      4525 9.33413E-01-8.00106E-01-1.89381E-06-6.29738E-01 2.68324E-06 8.72147E-07
 -1      4526 1.00898E+00-8.75673E-01-4.11946E-06-4.80140E-01 2.73023E-06 6.56599E-07
 -1      4528 9.33413E-01-8.00104E-01-5.47560E-06-6.29737E-01 1.41449E-06 4.59122E-07
 -1      4529 1.00898E+00-8.75675E-01-6.00573E-06-4.80140E-01 5.94401E-07 1.43156E-07
 -1      4531 9.33412E-01-8.00105E-01-6.66194E-06-6.29737E-01 2.89472E-07 9.36950E-08
 -1      4532 1.00898E+00-8.75675E-01-6.71783E-06-4.80141E-01 5.94551E-08 1.44236E-08
 -1      4534 9.33412E-01-8.00105E-01-6.81037E-06-6.29737E-01 2.45383E-08 7.76086E-09
 -1      4535 1.00898E+00-8.75675E-01-6.75924E-06-4.80141E-01-3.10690E-08-7.41354E-09
 -1      4537 9.33412E-01-8.00105E-01-6.75076E-06-6.29737E-01-1.76761E-08-5.83738E-09
 -1      4538 1.00898E+00-8.75675E-01-6.70577E-06-4.80141E-01-1.59543E-08-3.82022E-09
 -1      4540 9.33412E-01-8.00105E-01-6.71499E-06-6.29737E-01 2.01576E-14 1.19379E-14
 -1      4541 1.00898E+00-8.75675E-01-6.70577E-06-4.80141E-01 1.59543E-08 3.82022E-09
 -1      4543 9.33412E-01-8.00105E-01-6.75076E-06-6.29737E-01 1.76760E-08 5.83741E-09
 -1      4544 1.00898E+00-8.75675E-01-6.75924E-06-4.80141E-01 3.10690E-08 7.41354E-09
 -1      4546 9.33412E-01-8.00105E-01-6.81037E-06-6.29737E-01-2.45384E-08-7.76084E-09
 -1      4547 1.00898E+00-8.75675E-01-6.71783E-06-4.80141E-01-5.94551E-08-1.44236E-08
 -1      4549 9.33412E-01-8.00105E-01-6.66194E-06-6.29737E-01-2.89472E-07-9.36950E-08
 -1      4550 1.00898E+00-8.75675E-01-6.00573E-06-4.80140E-01-5.94401E-07-1.43156E-07
 -1      4552 9.33413E-01-8.00104E-01-5.47560E-06-6.29737E-01-1.41449E-06-4.59122E-07
 -1      4553 1.00898E+00-8.75673E-01-4.11946E-06-4.80140E-01-2.73023E-06-6.56599E-07
 -1      4555 9.33413E-01-8.00106E-01-1.89381E-06-6.29738E-01-2.68324E-06-8.72147E-07
 -1      4557 6.96391E-01-5.63084E-01-1.88058E-06-8.66759E-01 2.52116E-06 1.28492E-06
 -1      4558 8.14492E-01-6.81181E-01-4.11759E-06-7.47836E-01 2.59584E-06 1.07306E-06
 -1      4560 6.96391E-01-5.63082E-01-5.45611E-06-8.66758E-01 1.32928E-06 6.76804E-07
 -1      4561 8.14490E-01-6.81182E-01-6.00506E-06-7.47836E-01 5.65375E-07 2.33186E-07
 -1      4563 6.96391E-01-5.63083E-01-6.64869E-06-8.66759E-01 2.72058E-07 1.38227E-07
 -1      4564 8.14490E-01-6.81183E-01-6.71769E-06-7.47836E-01 5.67892E-08 2.30747E-08
 -1      4566 6.96391E-01-5.63083E-01-6.79903E-06-8.66759E-01 2.32946E-08 1.16397E-08
 -1      4567 8.14490E-01-6.81183E-01-6.75941E-06-7.47836E-01-2.93983E-08-1.23702E-08
 -1      4569 6.96391E-01-5.63083E-01-6.74009E-06-8.66759E-01-1.64653E-08-8.48956E-09
 -1      4570 8.14490E-01-6.81183E-01-6.70607E-06-7.47836E-01-1.51243E-08-6.32037E-09
 -1      4572 6.96391E-01-5.63083E-01-6.70449E-06-8.66759E-01-1.25072E-14 1.84533E-14
 -1      4573 8.14490E-01-6.81183E-01-6.70607E-06-7.47836E-01 1.51243E-08 6.32041E-09
 -1      4575 6.96391E-01-5.63083E-01-6.74009E-06-8.66759E-01 1.64653E-08 8.48962E-09
 -1      4576 8.14490E-01-6.81183E-01-6.75941E-06-7.47836E-01 2.93983E-08 1.23703E-08
 -1      4578 6.96391E-01-5.63083E-01-6.79903E-06-8.66759E-01-2.32946E-08-1.16397E-08
 -1      4579 8.14490E-01-6.81183E-01-6.71769E-06-7.47836E-01-5.67892E-08-2.30747E-08
 -1      4581 6.96391E-01-5.63083E-01-6.64869E-06-8.66759E-01-2.72058E-07-1.38227E-07
 -1      4582 8.14490E-01-6.81182E-01-6.00506E-06-7.47836E-01-5.65375E-07-2.33186E-07
 -1      4584 6.96391E-01-5.63082E-01-5.45611E-06-8.66758E-01-1.32928E-06-6.76804E-07
 -1      4585 8.14492E-01-6.81181E-01-4.11759E-06-7.47836E-01-2.59584E-06-1.07306E-06
 -1      4587 6.96391E-01-5.63084E-01-1.88058E-06-8.66759E-01-2.52116E-06-1.28492E-06
 -1      4589 3.97726E-01-2.64419E-01-1.88800E-06-1.01894E+00 2.28656E-06 1.66048E-06
 -1      4590 5.46796E-01-4.13485E-01-4.11571E-06-9.42328E-01 2.39511E-06 1.46902E-06
 -1      4592 3.97727E-01-2.64418E-01-5.46678E-06-1.01894E+00 1.20463E-06 8.75644E-07
 -1      4593 5.46795E-01-4.13486E-01-6.00443E-06-9.42329E-01 5.21372E-07 3.20019E-07
 -1      4595 3.97726E-01-2.64419E-01-6.65558E-06-1.01894E+00 2.46254E-07 1.79415E-07
 -1      4596 5.46794E-01-4.13487E-01-6.71759E-06-9.42329E-01 5.22848E-08 3.22188E-08
 -1      4598 3.97726E-01-2.64419E-01-6.80483E-06-1.01894E+00 2.08266E-08 1.54116E-08
 -1      4599 5.46794E-01-4.13487E-01-6.75963E-06-9.42329E-01-2.71775E-08-1.66005E-08
 -1      4601 3.97726E-01-2.64419E-01-6.74555E-06-1.01894E+00-1.50709E-08-1.08281E-08
 -1      4602 5.46794E-01-4.13487E-01-6.70642E-06-9.42329E-01-1.39698E-08-8.54872E-09
 -1      4604 3.97726E-01-2.64419E-01-6.70988E-06-1.01894E+00 1.25588E-15 1.33594E-14
 -1      4605 5.46794E-01-4.13487E-01-6.70642E-06-9.42329E-01 1.39698E-08 8.54875E-09
 -1      4607 3.97726E-01-2.64419E-01-6.74555E-06-1.01894E+00 1.50708E-08 1.08281E-08
 -1      4608 5.46794E-01-4.13487E-01-6.75963E-06-9.42329E-01 2.71775E-08 1.66005E-08
 -1      4610 3.97726E-01-2.64419E-01-6.80483E-06-1.01894E+00-2.08266E-08-1.54116E-08
 -1      4611 5.46794E-01-4.13487E-01-6.71759E-06-9.42329E-01-5.22848E-08-3.22187E-08
 -1      4613 3.97726E-01-2.64419E-01-6.65558E-06-1.01894E+00-2.46254E-07-1.79415E-07
 -1      4614 5.46795E-01-4.13486E-01-6.00443E-06-9.42329E-01-5.21372E-07-3.20019E-07
 -1      4616 3.97727E-01-2.64418E-01-5.46678E-06-1.01894E+00-1.20463E-06-8.75644E-07
 -1      4617 5.46796E-01-4.13485E-01-4.11571E-06-9.42328E-01-2.39511E-06-1.46902E-06
 -1      4619 3.97726E-01-2.64419E-01-1.88800E-06-1.01894E+00-2.28656E-06-1.66048E-06
 -1      4621 6.66538E-02 6.66538E-02-1.88729E-06-1.07137E+00 1.99842E-06 1.99824E-06
 -1      4622 2.32101E-01-9.87896E-02-4.11771E-06-1.04458E+00 2.13552E-06 1.82410E-06
 -1      4624 6.66544E-02 6.66544E-02-5.46597E-06-1.07137E+00 1.05313E-06 1.05322E-06
 -1      4625 2.32099E-01-9.87910E-02-6.00471E-06-1.04458E+00 4.65019E-07 3.97220E-07
 -1      4627 6.66538E-02 6.66538E-02-6.65543E-06-1.07137E+00 2.15446E-07 2.15455E-07
 -1      4628 2.32099E-01-9.87914E-02-6.71734E-06-1.04458E+00 4.65821E-08 3.98585E-08
 -1      4630 6.66537E-02 6.66537E-02-6.80486E-06-1.07137E+00 1.83186E-08 1.82930E-08
 -1      4631 2.32099E-01-9.87914E-02-6.75905E-06-1.04458E+00-2.42811E-08-2.06777E-08
 -1      4633 6.66537E-02 6.66537E-02-6.74558E-06-1.07137E+00-1.31278E-08-1.31354E-08
 -1      4634 2.32099E-01-9.87914E-02-6.70570E-06-1.04458E+00-1.24748E-08-1.06327E-08
 -1      4636 6.66537E-02 6.66537E-02-6.70990E-06-1.07137E+00-5.19393E-14 1.38364E-14
 -1      4637 2.32099E-01-9.87914E-02-6.70570E-06-1.04458E+00 1.24748E-08 1.06328E-08
 -1      4639 6.66537E-02 6.66537E-02-6.74558E-06-1.07137E+00 1.31277E-08 1.31355E-08
 -1      4640 2.32099E-01-9.87914E-02-6.75905E-06-1.04458E+00 2.42810E-08 2.06777E-08
 -1      4642 6.66537E-02 6.66537E-02-6.80486E-06-1.07137E+00-1.83186E-08-1.82930E-08
 -1      4643 2.32099E-01-9.87914E-02-6.71734E-06-1.04458E+00-4.65821E-08-3.98585E-08
 -1      4645 6.66538E-02 6.66538E-02-6.65543E-06-1.07137E+00-2.15446E-07-2.15454E-07
 -1      4646 2.32099E-01-9.87910E-02-6.00471E-06-1.04458E+00-4.65019E-07-3.97220E-07
 -1      4648 6.66544E-02 6.66544E-02-5.46597E-06-1.07137E+00-1.05313E-06-1.05322E-06
 -1      4649 2.32101E-01-9.87896E-02-4.11771E-06-1.04458E+00-2.13552E-06-1.82410E-06
 -1      4651 6.66538E-02 6.66538E-02-1.88729E-06-1.07137E+00-1.99842E-06-1.99824E-06
 -1      4653-2.64419E-01 3.97726E-01-1.88716E-06-1.01894E+00 1.66094E-06 2.28605E-06
 -1      4654-9.87896E-02 2.32101E-01-4.11753E-06-1.04458E+00 1.82425E-06 2.13590E-06
 -1      4656-2.64418E-01 3.97727E-01-5.46576E-06-1.01894E+00 8.75370E-07 1.20496E-06
 -1      4657-9.87910E-02 2.32099E-01-6.00511E-06-1.04458E+00 3.97213E-07 4.65058E-07
 -1      4659-2.64419E-01 3.97726E-01-6.65526E-06-1.01894E+00 1.79104E-07 2.46515E-07
 -1      4660-9.87914E-02 2.32099E-01-6.71776E-06-1.04458E+00 3.98014E-08 4.66243E-08
 -1      4662-2.64419E-01 3.97726E-01-6.80467E-06-1.01894E+00 1.52157E-08 2.09463E-08
 -1      4663-9.87914E-02 2.32099E-01-6.75947E-06-1.04458E+00-2.07179E-08-2.42455E-08
 -1      4665-2.64419E-01 3.97726E-01-6.74539E-06-1.01894E+00-1.09194E-08-1.50208E-08
 -1      4666-9.87914E-02 2.32099E-01-6.70613E-06-1.04458E+00-1.06468E-08-1.24620E-08
 -1      4668-2.64419E-01 3.97726E-01-6.70970E-06-1.01894E+00-1.41596E-14 2.80691E-15
 -1      4669-9.87914E-02 2.32099E-01-6.70613E-06-1.04458E+00 1.06467E-08 1.24620E-08
 -1      4671-2.64419E-01 3.97726E-01-6.74539E-06-1.01894E+00 1.09194E-08 1.50208E-08
 -1      4672-9.87914E-02 2.32099E-01-6.75947E-06-1.04458E+00 2.07179E-08 2.42456E-08
 -1      4674-2.64419E-01 3.97726E-01-6.80467E-06-1.01894E+00-1.52158E-08-2.09462E-08
 -1      4675-9.87914E-02 2.32099E-01-6.71776E-06-1.04458E+00-3.98014E-08-4.66244E-08
 -1      4677-2.64419E-01 3.97726E-01-6.65526E-06-1.01894E+00-1.79104E-07-2.46515E-07
 -1      4678-9.87910E-02 2.32099E-01-6.00511E-06-1.04458E+00-3.97213E-07-4.65058E-07
 -1      4680-2.64418E-01 3.97727E-01-5.46576E-06-1.01894E+00-8.75370E-07-1.20496E-06
 -1      4681-9.87896E-02 2.32101E-01-4.11753E-06-1.04458E+00-1.82425E-06-2.13590E-06
 -1      4683-2.64419E-01 3.97726E-01-1.88716E-06-1.01894E+00-1.66094E-06-2.28605E-06
 -1      4685-5.63084E-01 6.96391E-01-1.88723E-06-8.66759E-01 1.28282E-06 2.51767E-06
 -1      4686-4.13485E-01 5.46796E-01-4.11761E-06-9.42328E-01 1.46761E-06 2.39496E-06
 -1      4688-5.63083E-01 6.96391E-01-5.46589E-06-8.66758E-01 6.76143E-07 1.32703E-06
 -1      4689-4.13486E-01 5.46795E-01-6.00505E-06-9.42329E-01 3.19541E-07 5.21471E-07
 -1      4691-5.63083E-01 6.96391E-01-6.65536E-06-8.66759E-01 1.38346E-07 2.71490E-07
 -1      4692-4.13487E-01 5.46794E-01-6.71767E-06-9.42329E-01 3.20174E-08 5.22669E-08
 -1      4694-5.63083E-01 6.96391E-01-6.80474E-06-8.66759E-01 1.17532E-08 2.30653E-08
 -1      4695-4.13487E-01 5.46794E-01-6.75938E-06-9.42329E-01-1.66675E-08-2.71938E-08
 -1      4697-5.63083E-01 6.96391E-01-6.74544E-06-8.66759E-01-8.43171E-09-1.65458E-08
 -1      4698-4.13487E-01 5.46794E-01-6.70604E-06-9.42329E-01-8.56555E-09-1.39760E-08
 -1      4700-5.63083E-01 6.96391E-01-6.70976E-06-8.66759E-01-8.21221E-15 1.45868E-14
 -1      4701-4.13487E-01 5.46794E-01-6.70604E-06-9.42329E-01 8.56554E-09 1.39761E-08
 -1      4703-5.63083E-01 6.96391E-01-6.74544E-06-8.66759E-01 8.43167E-09 1.65458E-08
 -1      4704-4.13487E-01 5.46794E-01-6.75938E-06-9.42329E-01 1.66674E-08 2.71938E-08
 -1      4706-5.63083E-01 6.96391E-01-6.80474E-06-8.66759E-01-1.17532E-08-2.30653E-08
 -1      4707-4.13487E-01 5.46794E-01-6.71767E-06-9.42329E-01-3.20174E-08-5.22670E-08
 -1      4709-5.63083E-01 6.96391E-01-6.65536E-06-8.66759E-01-1.38346E-07-2.71490E-07
 -1      4710-4.13486E-01 5.46795E-01-6.00505E-06-9.42329E-01-3.19541E-07-5.21471E-07
 -1      4712-5.63083E-01 6.96391E-01-5.46589E-06-8.66758E-01-6.76143E-07-1.32703E-06
 -1      4713-4.13485E-01 5.46796E-01-4.11761E-06-9.42328E-01-1.46761E-06-2.39496E-06
 -1      4715-5.63084E-01 6.96391E-01-1.88723E-06-8.66759E-01-1.28282E-06-2.51767E-06
 -1      4717-8.00106E-01 9.33413E-01-1.88716E-06-6.29738E-01 8.73170E-07 2.68735E-06
 -1      4718-6.81181E-01 8.14492E-01-4.11760E-06-7.47836E-01 1.07493E-06 2.59506E-06
 -1      4720-8.00104E-01 9.33413E-01-5.46581E-06-6.29737E-01 4.60242E-07 1.41649E-06
 -1      4721-6.81182E-01 8.14490E-01-6.00507E-06-7.47836E-01 2.34049E-07 5.65027E-07
 -1      4723-8.00105E-01 9.33412E-01-6.65532E-06-6.29737E-01 9.41708E-08 2.89796E-07
 -1      4724-6.81183E-01 8.14490E-01-6.71770E-06-7.47836E-01 2.34597E-08 5.66269E-08
 -1      4726-8.00105E-01 9.33412E-01-6.80470E-06-6.29737E-01 8.00144E-09 2.46210E-08
 -1      4727-6.81183E-01 8.14490E-01-6.75941E-06-7.47836E-01-1.22026E-08-2.94676E-08
 -1      4729-8.00105E-01 9.33412E-01-6.74542E-06-6.29737E-01-5.73750E-09-1.76614E-08
 -1      4730-6.81183E-01 8.14490E-01-6.70608E-06-7.47836E-01-6.27229E-09-1.51443E-08
 -1      4732-8.00105E-01 9.33412E-01-6.70974E-06-6.29737E-01-1.06500E-14 1.71902E-14
 -1      4733-6.81183E-01 8.14490E-01-6.70608E-06-7.47836E-01 6.27225E-09 1.51443E-08
 -1      4735-8.00105E-01 9.33412E-01-6.74542E-06-6.29737E-01 5.73746E-09 1.76615E-08
 -1      4736-6.81183E-01 8.14490E-01-6.75941E-06-7.47836E-01 1.22026E-08 2.94676E-08
 -1      4738-8.00105E-01 9.33412E-01-6.80470E-06-6.29737E-01-8.00148E-09-2.46209E-08
 -1      4739-6.81183E-01 8.14490E-01-6.71770E-06-7.47836E-01-2.34598E-08-5.66269E-08
 -1      4741-8.00105E-01 9.33412E-01-6.65532E-06-6.29737E-01-9.41709E-08-2.89796E-07
 -1      4742-6.81182E-01 8.14490E-01-6.00507E-06-7.47836E-01-2.34049E-07-5.65026E-07
 -1      4744-8.00104E-01 9.33413E-01-5.46581E-06-6.29737E-01-4.60243E-07-1.41649E-06
 -1      4745-6.81181E-01 8.14492E-01-4.11760E-06-7.47836E-01-1.07493E-06-2.59506E-06
 -1      4747-8.00106E-01 9.33413E-01-1.88716E-06-6.29738E-01-8.73170E-07-2.68735E-06
 -1      4749-9.52283E-01 1.08559E+00-1.88719E-06-3.31073E-01 4.42030E-07 2.79083E-06
 -1      4750-8.75673E-01 1.00898E+00-4.11759E-06-4.80140E-01 6.55718E-07 2.73128E-06
 -1      4752-9.52281E-01 1.08559E+00-5.46585E-06-3.31072E-01 2.32989E-07 1.47104E-06
 -1      4753-8.75675E-01 1.00898E+00-6.00506E-06-4.80140E-01 1.42768E-07 5.94685E-07
 -1      4755-9.52282E-01 1.08559E+00-6.65534E-06-3.31072E-01 4.76683E-08 3.00959E-07
 -1      4756-8.75675E-01 1.00898E+00-6.71769E-06-4.80141E-01 1.43093E-08 5.96010E-08
 -1      4758-9.52282E-01 1.08559E+00-6.80471E-06-3.31072E-01 4.04803E-09 2.55695E-08
 -1      4759-8.75675E-01 1.00898E+00-6.75941E-06-4.80141E-01-7.44472E-09-3.10130E-08
 -1      4761-9.52282E-01 1.08559E+00-6.74543E-06-3.31072E-01-2.90541E-09-1.83414E-08
 -1      4762-8.75675E-01 1.00898E+00-6.70607E-06-4.80141E-01-3.82654E-09-1.59389E-08
 -1      4764-9.52282E-01 1.08559E+00-6.70975E-06-3.31072E-01-1.28145E-14-6.44531E-15
 -1      4765-8.75675E-01 1.00898E+00-6.70607E-06-4.80141E-01 3.82651E-09 1.59389E-08
 -1      4767-9.52282E-01 1.08559E+00-6.74543E-06-3.31072E-01 2.90539E-09 1.83414E-08
 -1      4768-8.75675E-01 1.00898E+00-6.75941E-06-4.80141E-01 7.44470E-09 3.10130E-08
 -1      4770-9.52282E-01 1.08559E+00-6.80471E-06-3.31072E-01-4.04805E-09-2.55695E-08
 -1      4771-8.75675E-01 1.00898E+00-6.71769E-06-4.80141E-01-1.43093E-08-5.96010E-08
 -1      4773-9.52282E-01 1.08559E+00-6.65534E-06-3.31072E-01-4.76683E-08-3.00959E-07
 -1      4774-8.75675E-01 1.00898E+00-6.00506E-06-4.80140E-01-1.42768E-07-5.94685E-07
 -1      4776-9.52281E-01 1.08559E+00-5.46585E-06-3.31072E-01-2.32989E-07-1.47104E-06
 -1      4777-8.75673E-01 1.00898E+00-4.11759E-06-4.80140E-01-6.55718E-07-2.73128E-06
 -1      4779-9.52283E-01 1.08559E+00-1.88719E-06-3.31073E-01-4.42030E-07-2.79083E-06
 -1      4781-9.77924E-01 1.11123E+00-4.11761E-06-1.65445E-01 2.20379E-07 2.80022E-06
 -1      4783-9.77925E-01 1.11123E+00-6.00507E-06-1.65445E-01 4.79823E-08 6.09695E-07
 -1      4785-9.77926E-01 1.11123E+00-6.71770E-06-1.65445E-01 4.80885E-09 6.11052E-08
 -1      4787-9.77926E-01 1.11123E+00-6.75942E-06-1.65445E-01-2.50241E-09-3.17959E-08
 -1      4789-9.77926E-01 1.11123E+00-6.70608E-06-1.65445E-01-1.28617E-09-1.63413E-08
 -1      4791-9.77926E-01 1.11123E+00-6.70608E-06-1.65445E-01 1.28618E-09 1.63413E-08
 -1      4793-9.77926E-01 1.11123E+00-6.75942E-06-1.65445E-01 2.50241E-09 3.17959E-08
 -1      4795-9.77926E-01 1.11123E+00-6.71770E-06-1.65445E-01-4.80886E-09-6.11052E-08
 -1      4797-9.77925E-01 1.11123E+00-6.00507E-06-1.65445E-01-4.79823E-08-6.09695E-07
 -1      4799-9.77924E-01 1.11123E+00-4.11761E-06-1.65445E-01-2.20379E-07-2.80022E-06
 -1      4802-7.78701E-01 9.12032E-01-5.54066E-07-2.74676E-01 2.84298E-07 1.79499E-06
 -1      4803-6.52446E-01 7.85778E-01-5.54070E-07-5.22465E-01 5.61594E-07 1.72842E-06
 -1      4804-4.55800E-01 5.89131E-01-5.54061E-07-7.19112E-01 8.25059E-07 1.61929E-06
 -1      4805-2.08011E-01 3.41342E-01-5.54087E-07-8.45367E-01 1.06822E-06 1.47028E-06
 -1      4806 6.66657E-02 6.66657E-02-5.53972E-07-8.88871E-01 1.28509E-06 1.28516E-06
 -1      4807 3.41342E-01-2.08011E-01-5.54072E-07-8.45367E-01 1.47026E-06 1.06799E-06
 -1      4808 5.89131E-01-4.55800E-01-5.54486E-07-7.19112E-01 1.61960E-06 8.25356E-07
 -1      4809 7.85778E-01-6.52446E-01-5.53642E-07-5.22465E-01 1.72797E-06 5.61562E-07
 -1      4810 9.12032E-01-7.78701E-01-5.54037E-07-2.74676E-01 1.79515E-06 2.84151E-07
 -1      4811-6.43923E-01 7.77259E-01 1.06911E-06-2.30885E-01-5.00871E-08-3.16241E-07
 -1      4812-5.37797E-01 6.71132E-01 1.06911E-06-4.39169E-01-9.89404E-08-3.04511E-07
 -1      4813-3.72502E-01 5.05837E-01 1.06911E-06-6.04465E-01-1.45359E-07-2.85289E-07
 -1      4814-1.64217E-01 2.97553E-01 1.06912E-06-7.10591E-01-1.88200E-07-2.59041E-07
 -1      4815 6.66676E-02 6.66676E-02 1.06908E-06-7.47160E-01-2.26395E-07-2.26379E-07
 -1      4816 2.97553E-01-1.64217E-01 1.06919E-06-7.10591E-01-2.59123E-07-1.88259E-07
 -1      4817 5.05837E-01-3.72502E-01 1.06863E-06-6.04465E-01-2.84821E-07-1.45126E-07
 -1      4818 6.71132E-01-5.37797E-01 1.06959E-06-4.39169E-01-3.04997E-07-9.91000E-08
 -1      4819 7.77259E-01-6.43923E-01 1.06902E-06-2.30885E-01-3.16116E-07-5.00611E-08
 -1      4820-5.39163E-01 6.72489E-01 1.33150E-07-1.96845E-01-6.14708E-08-3.88110E-07
 -1      4821-4.48683E-01 5.82010E-01 1.33149E-07-3.74421E-01-1.21428E-07-3.73716E-07
 -1      4822-3.07758E-01 4.41084E-01 1.33150E-07-5.15346E-01-1.78395E-07-3.50118E-07
 -1      4823-1.30181E-01 2.63508E-01 1.33153E-07-6.05826E-01-2.30970E-07-3.17902E-07
 -1      4824 6.66633E-02 6.66633E-02 1.33155E-07-6.37003E-01-2.77848E-07-2.77857E-07
 -1      4825 2.63508E-01-1.30181E-01 1.33163E-07-6.05826E-01-3.17914E-07-2.30979E-07
 -1      4826 4.41084E-01-3.07758E-01 1.33118E-07-5.15346E-01-3.50116E-07-1.78392E-07
 -1      4827 5.82010E-01-4.48683E-01 1.33183E-07-3.74421E-01-3.73724E-07-1.21429E-07
 -1      4828 6.72489E-01-5.39163E-01 1.33135E-07-1.96845E-01-3.88096E-07-6.14703E-08
 -1      4829-4.55915E-01 5.89244E-01-2.06413E-08-1.69796E-01 1.79902E-08 1.13585E-07
 -1      4830-3.77869E-01 5.11197E-01-2.06416E-08-3.22972E-01 3.55375E-08 1.09373E-07
 -1      4831-2.56308E-01 3.89636E-01-2.06417E-08-4.44533E-01 5.22093E-08 1.02466E-07
 -1      4832-1.03132E-01 2.36461E-01-2.06429E-08-5.22580E-01 6.75957E-08 9.30382E-08
 -1      4833 6.66642E-02 6.66642E-02-2.06465E-08-5.49473E-01 8.13171E-08 8.13201E-08
 -1      4834 2.36461E-01-1.03132E-01-2.06322E-08-5.22580E-01 9.30357E-08 6.75960E-08
 -1      4835 3.89636E-01-2.56308E-01-2.06650E-08-4.44533E-01 1.02490E-07 5.22198E-08
 -1      4836 5.11197E-01-3.77869E-01-2.06177E-08-3.22972E-01 1.09350E-07 3.55282E-08
 -1      4837 5.89244E-01-4.55915E-01-2.06498E-08-1.69796E-01 1.13588E-07 1.79913E-08
 -1      4838-3.88716E-01 5.22044E-01 2.19750E-08-1.47962E-01-9.11714E-09-5.75633E-08
 -1      4839-3.20705E-01 4.54033E-01 2.19751E-08-2.81440E-01-1.80098E-08-5.54283E-08
 -1      4840-2.14776E-01 3.48104E-01 2.19754E-08-3.87369E-01-2.64588E-08-5.19286E-08
 -1      4841-8.12979E-02 2.14626E-01 2.19756E-08-4.55380E-01-3.42565E-08-4.71505E-08
 -1      4842 6.66639E-02 6.66639E-02 2.19749E-08-4.78815E-01-4.12100E-08-4.12109E-08
 -1      4843 2.14626E-01-8.12979E-02 2.19753E-08-4.55380E-01-4.71519E-08-3.42577E-08
 -1      4844 3.48104E-01-2.14776E-01 2.19716E-08-3.87369E-01-5.19255E-08-2.64571E-08
 -1      4845 4.54033E-01-3.20705E-01 2.19781E-08-2.81440E-01-5.54321E-08-1.80107E-08
 -1      4846 5.22044E-01-3.88716E-01 2.19741E-08-1.47962E-01-5.75613E-08-9.11639E-09
 -1      4847-3.33681E-01 4.67009E-01-1.10982E-08-1.30080E-01 2.35926E-09 1.48958E-08
 -1      4848-2.73890E-01 4.07218E-01-1.10983E-08-2.47427E-01 4.66041E-09 1.43433E-08
 -1      4849-1.80763E-01 3.14091E-01-1.10983E-08-3.40554E-01 6.84677E-09 1.34377E-08
 -1      4850-6.34160E-02 1.96744E-01-1.10984E-08-4.00345E-01 8.86457E-09 1.22013E-08
 -1      4851 6.66640E-02 6.66640E-02-1.10982E-08-4.20948E-01 1.06642E-08 1.06643E-08
 -1      4852 1.96744E-01-6.34160E-02-1.10974E-08-4.00345E-01 1.22009E-08 8.86445E-09
 -1      4853 3.14091E-01-1.80763E-01-1.11015E-08-3.40554E-01 1.34399E-08 6.84794E-09
 -1      4854 4.07218E-01-2.73890E-01-1.10948E-08-2.47427E-01 1.43410E-08 4.65956E-09
 -1      4855 4.67009E-01-3.33681E-01-1.10990E-08-1.30080E-01 1.48962E-08 2.35924E-09
 -1      4856-2.88047E-01 4.21375E-01 2.69270E-10-1.15253E-01-9.48660E-10-5.98966E-09
 -1      4857-2.35071E-01 3.68399E-01 2.69276E-10-2.19224E-01-1.87397E-09-5.76751E-09
 -1      4858-1.52560E-01 2.85888E-01 2.69278E-10-3.01735E-01-2.75312E-09-5.40336E-09
 -1      4859-4.85887E-02 1.81917E-01 2.69233E-10-3.54711E-01-3.56453E-09-4.90621E-09
 -1      4860 6.66640E-02 6.66640E-02 2.69215E-10-3.72966E-01-4.28806E-09-4.28812E-09
 -1      4861 1.81917E-01-4.85887E-02 2.69420E-10-3.54711E-01-4.90638E-09-3.56464E-09
 -1      4862 2.85888E-01-1.52560E-01 2.68612E-10-3.01735E-01-5.40265E-09-2.75278E-09
 -1      4863 3.68399E-01-2.35071E-01 2.69879E-10-2.19224E-01-5.76828E-09-1.87418E-09
 -1      4864 4.21375E-01-2.88047E-01 2.69094E-10-1.15253E-01-5.98941E-09-9.48588E-10
 -1      4865-2.49790E-01 3.83118E-01-3.79609E-09-1.02822E-01 2.57715E-10 1.62716E-09
 -1      4866-2.02528E-01 3.35855E-01-3.79612E-09-1.95579E-01 5.09101E-10 1.56683E-09
 -1      4867-1.28915E-01 2.62243E-01-3.79607E-09-2.69192E-01 7.47928E-10 1.46789E-09
 -1      4868-3.61580E-02 1.69486E-01-3.79608E-09-3.16454E-01 9.68343E-10 1.33282E-09
 -1      4869 6.66640E-02 6.66640E-02-3.79606E-09-3.32739E-01 1.16494E-09 1.16497E-09
 -1      4870 1.69486E-01-3.61580E-02-3.79601E-09-3.16454E-01 1.33277E-09 9.68306E-10
 -1      4871 2.62243E-01-1.28915E-01-3.79656E-09-2.69192E-01 1.46822E-09 7.48092E-10
 -1      4872 3.35855E-01-2.02528E-01-3.79555E-09-1.95579E-01 1.56645E-09 5.08980E-10
 -1      4873 3.83118E-01-2.49790E-01-3.79618E-09-1.02822E-01 1.62726E-09 2.57745E-10
 -1      4874-2.17401E-01 3.50729E-01-1.85099E-09-9.22982E-02-5.75934E-11-3.63716E-10
 -1      4875-1.74976E-01 3.08304E-01-1.85101E-09-1.75562E-01-1.13779E-10-3.50168E-10
 -1      4876-1.08898E-01 2.42226E-01-1.85102E-09-2.41640E-01-1.67182E-10-3.28081E-10
 -1      4877-2.56343E-02 1.58962E-01-1.85100E-09-2.84065E-01-2.16423E-10-2.97907E-10
 -1      4878 6.66640E-02 6.66640E-02-1.85096E-09-2.98683E-01-2.60366E-10-2.60351E-10
 -1      4879 1.58962E-01-2.56343E-02-1.85100E-09-2.84065E-01-2.97919E-10-2.16457E-10
 -1      4880 2.42226E-01-1.08898E-01-1.85116E-09-2.41640E-01-3.27932E-10-1.67085E-10
 -1      4881 3.08304E-01-1.74976E-01-1.85080E-09-1.75562E-01-3.50357E-10-1.13815E-10
 -1      4882 3.50729E-01-2.17401E-01-1.85104E-09-9.22982E-02-3.63621E-10-5.75853E-11
 -1      4883-1.89739E-01 3.23067E-01-1.94022E-09-8.33105E-02 4.89327E-11 3.08975E-10
 -1      4884-1.51446E-01 2.84774E-01-1.94022E-09-1.58466E-01 9.66761E-11 2.97475E-10
 -1      4885-9.18021E-02 2.25130E-01-1.94021E-09-2.18110E-01 1.42010E-10 2.78716E-10
 -1      4886-1.66465E-02 1.49975E-01-1.94020E-09-2.56403E-01 1.83849E-10 2.53060E-10
 -1      4887 6.66640E-02 6.66640E-02-1.94018E-09-2.69599E-01 2.21207E-10 2.21194E-10
 -1      4888 1.49975E-01-1.66465E-02-1.94025E-09-2.56403E-01 2.53063E-10 1.83861E-10
 -1      4889 2.25130E-01-9.18021E-02-1.94032E-09-2.18110E-01 2.78761E-10 1.42055E-10
 -1      4890 2.84774E-01-1.51446E-01-1.94004E-09-1.58466E-01 2.97411E-10 9.66426E-11
 -1      4891 3.23067E-01-1.89739E-01-1.94023E-09-8.33105E-02 3.09001E-10 4.89478E-11
 -1      4892-1.65929E-01 2.99257E-01-1.43508E-09-7.55740E-02 1.74773E-11 1.10339E-10
 -1      4893-1.31191E-01 2.64519E-01-1.43508E-09-1.43750E-01 3.45177E-11 1.06227E-10
 -1      4894-7.70862E-02 2.10414E-01-1.43510E-09-1.97855E-01 5.07277E-11 9.95173E-11
 -1      4895-8.90999E-03 1.42238E-01-1.43505E-09-2.32593E-01 6.56548E-11 9.03758E-11
 -1      4896 6.66640E-02 6.66640E-02-1.43502E-09-2.44563E-01 7.89758E-11 7.89568E-11
 -1      4897 1.42238E-01-8.90999E-03-1.43515E-09-2.32593E-01 9.03718E-11 6.56766E-11
 -1      4898 2.10414E-01-7.70863E-02-1.43513E-09-1.97855E-01 9.95419E-11 5.07312E-11
 -1      4899 2.64519E-01-1.31191E-01-1.43494E-09-1.43750E-01 1.06163E-10 3.45201E-11
 -1      4900 2.99257E-01-1.65929E-01-1.43508E-09-7.55740E-02 1.10310E-10 1.74856E-11
 -1      4901-1.45286E-01 2.78614E-01-1.21143E-09-6.88668E-02 2.22331E-11 1.40316E-10
 -1      4902-1.13632E-01 2.46959E-01-1.21145E-09-1.30992E-01 4.39196E-11 1.35150E-10
 -1      4903-6.43284E-02 1.97656E-01-1.21150E-09-1.80295E-01 6.44993E-11 1.26590E-10
 -1      4904-2.20277E-03 1.35531E-01-1.21142E-09-2.11950E-01 8.35131E-11 1.14935E-10
 -1      4905 6.66640E-02 6.66640E-02-1.21138E-09-2.22857E-01 1.00450E-10 1.00476E-10
 -1      4906 1.35531E-01-2.20277E-03-1.21153E-09-2.11950E-01 1.14977E-10 8.35058E-11
 -1      4907 1.97656E-01-6.43284E-02-1.21154E-09-1.80295E-01 1.26603E-10 6.45213E-11
 -1      4908 2.46959E-01-1.13632E-01-1.21129E-09-1.30992E-01 1.35028E-10 4.39059E-11
 -1      4909 2.78614E-01-1.45286E-01-1.21145E-09-6.88668E-02 1.40346E-10 2.22433E-11
 -1      4910-1.27273E-01 2.60601E-01-9.78187E-10-6.30141E-02 1.60333E-11 1.01215E-10
 -1      4911-9.83091E-02 2.31637E-01-9.78185E-10-1.19860E-01 3.16733E-11 9.73938E-11
 -1      4912-5.31960E-02 1.86524E-01-9.78230E-10-1.64973E-01 4.65188E-11 9.12947E-11
 -1      4913 3.64988E-03 1.29678E-01-9.78161E-10-1.93937E-01 6.01742E-11 8.28793E-11
 -1      4914 6.66640E-02 6.66640E-02-9.78069E-10-2.03918E-01 7.24479E-11 7.24272E-11
 -1      4915 1.29678E-01 3.64988E-03-9.78319E-10-1.93937E-01 8.29412E-11 6.02442E-11
 -1      4916 1.86524E-01-5.31960E-02-9.78279E-10-1.64973E-01 9.13062E-11 4.65147E-11
 -1      4917 2.31637E-01-9.83091E-02-9.77988E-10-1.19860E-01 9.73444E-11 3.16645E-11
 -1      4918 2.60601E-01-1.27273E-01-9.78165E-10-6.30141E-02 1.01184E-10 1.60479E-11
 -1      4919-1.11463E-01 2.44791E-01-8.11385E-10-5.78768E-02 1.34229E-11 8.47345E-11
 -1      4920-8.48595E-02 2.18187E-01-8.11355E-10-1.10088E-01 2.65236E-11 8.16067E-11
 -1      4921-4.34243E-02 1.76752E-01-8.11459E-10-1.51524E-01 3.89593E-11 7.64112E-11
 -1      4922 8.78716E-03 1.24541E-01-8.11343E-10-1.78127E-01 5.03939E-11 6.93791E-11
 -1      4923 6.66640E-02 6.66640E-02-8.11225E-10-1.87293E-01 6.06493E-11 6.06312E-11
 -1      4924 1.24541E-01 8.78716E-03-8.11533E-10-1.78127E-01 6.94580E-11 5.04269E-11
 -1      4925 1.76752E-01-4.34243E-02-8.11507E-10-1.51524E-01 7.64431E-11 3.89708E-11
 -1      4926 2.18187E-01-8.48595E-02-8.11144E-10-1.10088E-01 8.14683E-11 2.65076E-11
 -1      4927 2.44791E-01-1.11463E-01-8.11339E-10-5.78768E-02 8.47266E-11 1.34435E-11
 -1      4928-9.75087E-02 2.30837E-01-6.74056E-10-5.33429E-02 1.04938E-11 6.62401E-11
 -1      4929-7.29896E-02 2.06318E-01-6.74037E-10-1.01464E-01 2.07354E-11 6.36847E-11
 -1      4930-3.48003E-02 1.68128E-01-6.74148E-10-1.39654E-01 3.04501E-11 5.97290E-11
 -1      4931 1.33211E-02 1.20007E-01-6.74042E-10-1.64173E-01 3.93720E-11 5.42038E-11
 -1      4932 6.66640E-02 6.66640E-02-6.73863E-10-1.72621E-01 4.73456E-11 4.73832E-11
 -1      4933 1.20007E-01 1.33211E-02-6.74232E-10-1.64173E-01 5.43595E-11 3.94369E-11
 -1      4934 1.68128E-01-3.48003E-02-6.74198E-10-1.39654E-01 5.97360E-11 3.04577E-11
 -1      4935 2.06318E-01-7.29896E-02-6.73793E-10-1.01464E-01 6.35827E-11 2.07268E-11
 -1      4936 2.30837E-01-9.75087E-02-6.74025E-10-5.33429E-02 6.62169E-11 1.05101E-11
 -1      4937-8.51321E-02 2.18460E-01-5.65809E-10-4.93215E-02 8.34972E-12 5.27117E-11
 -1      4938-6.24615E-02 1.95789E-01-5.65746E-10-9.38151E-02 1.65203E-11 5.07757E-11
 -1      4939-2.71512E-02 1.60479E-01-5.65930E-10-1.29125E-01 2.42518E-11 4.75530E-11
 -1      4940 1.73425E-02 1.15986E-01-5.65809E-10-1.51796E-01 3.13100E-11 4.31737E-11
 -1      4941 6.66640E-02 6.66640E-02-5.65574E-10-1.59608E-01 3.76865E-11 3.76767E-11
 -1      4942 1.15986E-01 1.73424E-02-5.66006E-10-1.51796E-01 4.33122E-11 3.14125E-11
 -1      4943 1.60479E-01-2.71512E-02-5.65965E-10-1.29125E-01 4.75831E-11 2.42660E-11
 -1      4944 1.95789E-01-6.24615E-02-5.65502E-10-9.38151E-02 5.05345E-11 1.64870E-11
 -1      4945 2.18460E-01-8.51321E-02-5.65724E-10-4.93215E-02 5.27070E-11 8.38376E-12
 -1      4946-7.41038E-02 2.07432E-01-4.81384E-10-4.57382E-02 6.07092E-12 3.83002E-11
 -1      4947-5.30802E-02 1.86408E-01-4.81315E-10-8.69993E-02 1.20276E-11 3.69017E-11
 -1      4948-2.03353E-02 1.53663E-01-4.81523E-10-1.19744E-01 1.76661E-11 3.46180E-11
 -1      4949 2.09258E-02 1.12402E-01-4.81405E-10-1.40768E-01 2.27259E-11 3.13635E-11
 -1      4950 6.66640E-02 6.66640E-02-4.81101E-10-1.48012E-01 2.73856E-11 2.74000E-11
 -1      4951 1.12402E-01 2.09258E-02-4.81601E-10-1.40768E-01 3.15787E-11 2.28667E-11
 -1      4952 1.53663E-01-2.03353E-02-4.81595E-10-1.19744E-01 3.46060E-11 1.76670E-11
 -1      4953 1.86408E-01-5.30802E-02-4.81063E-10-8.69993E-02 3.65716E-11 1.19744E-11
 -1      4954 2.07432E-01-7.41038E-02-4.81298E-10-4.57382E-02 3.83342E-11 6.09532E-12
 -1      4955-6.42348E-02 1.97563E-01-4.08553E-10-4.25316E-02 4.92330E-12 3.11381E-11
 -1      4956-4.46852E-02 1.78013E-01-4.08455E-10-8.08999E-02 9.79168E-12 2.99805E-11
 -1      4957-1.42359E-02 1.47564E-01-4.08698E-10-1.11349E-01 1.43908E-11 2.81643E-11
 -1      4958 2.41324E-02 1.09196E-01-4.08592E-10-1.30899E-01 1.84099E-11 2.54794E-11
 -1      4959 6.66640E-02 6.66640E-02-4.08232E-10-1.37635E-01 2.21721E-11 2.21743E-11
 -1      4960 1.09196E-01 2.41324E-02-4.08766E-10-1.30899E-01 2.57990E-11 1.86028E-11
 -1      4961 1.47564E-01-1.42359E-02-4.08769E-10-1.11349E-01 2.82050E-11 1.43826E-11
 -1      4962 1.78013E-01-4.46852E-02-4.08225E-10-8.08999E-02 2.95313E-11 9.71579E-12
 -1      4963 1.97563E-01-6.42348E-02-4.08467E-10-4.25316E-02 3.11023E-11 4.95715E-12
 -1      4964-5.53683E-02 1.88696E-01-3.75919E-10-3.96507E-02-8.49532E-13-5.30882E-12
 -1      4965-3.71429E-02 1.70471E-01-3.75888E-10-7.54201E-02-1.62166E-12-5.12137E-12
 -1      4966-8.75610E-03 1.42084E-01-3.76091E-10-1.03807E-01-2.32655E-12-4.72261E-12
 -1      4967 2.70133E-02 1.06315E-01-3.75955E-10-1.22032E-01-3.32133E-12-4.35106E-12
 -1      4968 6.66640E-02 6.66640E-02-3.75677E-10-1.28312E-01-3.97076E-12-3.95697E-12
 -1      4969 1.06315E-01 2.70133E-02-3.76121E-10-1.22032E-01-3.93217E-12-3.04329E-12
 -1      4970 1.42084E-01-8.75610E-03-3.76123E-10-1.03807E-01-4.66144E-12-2.32901E-12
 -1      4971 1.70471E-01-3.71429E-02-3.75689E-10-7.54201E-02-5.69462E-12-1.69418E-12
 -1      4972 1.88696E-01-5.53683E-02-3.75841E-10-3.96507E-02-5.36869E-12-8.28444E-13
 -1      4973-4.73728E-02 1.80701E-01-2.93189E-10-3.70528E-02 5.50516E-12 3.48487E-11
 -1      4974-3.03415E-02 1.63670E-01-2.93315E-10-7.04786E-02 1.09583E-11 3.35614E-11
 -1      4975-3.81465E-03 1.37143E-01-2.93260E-10-9.70055E-02 1.62095E-11 3.15815E-11
 -1      4976 2.96112E-02 1.03717E-01-2.93177E-10-1.14037E-01 2.05236E-11 2.85913E-11
 -1      4977 6.66640E-02 6.66640E-02-2.93273E-10-1.19905E-01 2.47222E-11 2.46949E-11
 -1      4978 1.03717E-01 2.96112E-02-2.93221E-10-1.14037E-01 2.91186E-11 2.08845E-11
 -1      4979 1.37143E-01-3.81465E-03-2.93251E-10-9.70055E-02 3.16335E-11 1.61719E-11
 -1      4980 1.63670E-01-3.03415E-02-2.93273E-10-7.04786E-02 3.28239E-11 1.08680E-11
 -1      4981 1.80701E-01-4.73728E-02-2.93241E-10-3.70528E-02 3.47501E-11 5.51607E-12
 -1      4982-4.01381E-02 1.73466E-01-4.58895E-10-3.47021E-02-3.88815E-11-2.45315E-10
 -1      4983-2.41873E-02 1.57515E-01-4.59351E-10-6.60073E-02-7.67092E-11-2.36242E-10
 -1      4984 6.56683E-04 1.32671E-01-4.58608E-10-9.08513E-02-1.12467E-10-2.21150E-10
 -1      4985 3.19619E-02 1.01366E-01-4.58707E-10-1.06802E-01-1.46282E-10-2.00851E-10
 -1      4986 6.66640E-02 6.66640E-02-4.59686E-10-1.12298E-01-1.75965E-10-1.75943E-10
 -1      4987 1.01366E-01 3.19619E-02-4.58616E-10-1.06802E-01-2.00137E-10-1.45773E-10
 -1      4988 1.32671E-01 6.56681E-04-4.58389E-10-9.08513E-02-2.21067E-10-1.12579E-10
 -1      4989 1.57515E-01-2.41873E-02-4.59737E-10-6.60073E-02-2.37147E-10-7.67899E-11
 -1      4990 1.73466E-01-4.01381E-02-4.59200E-10-3.47021E-02-2.45463E-10-3.88706E-11
 -1      4991-3.35705E-02 1.66898E-01-4.24440E-11-3.25681E-02 6.25504E-11 3.95234E-10
 -1      4992-1.86005E-02 1.51929E-01-4.34529E-11-6.19483E-02 1.23684E-10 3.80610E-10
 -1      4993 4.71569E-03 1.28612E-01-4.08605E-11-8.52645E-02 1.82066E-10 3.56532E-10
 -1      4994 3.40958E-02 9.92321E-02-4.19027E-11-1.00234E-01 2.34734E-10 3.23931E-10
 -1      4995 6.66640E-02 6.66640E-02-4.56993E-11-1.05393E-01 2.82561E-10 2.82539E-10
 -1      4996 9.92321E-02 3.40958E-02-3.98001E-11-1.00234E-01 3.24749E-10 2.35340E-10
 -1      4997 1.28612E-01 4.71568E-03-4.00282E-11-8.52645E-02 3.56602E-10 1.81896E-10
 -1      4998 1.51929E-01-1.86005E-02-4.59513E-11-6.19483E-02 3.79590E-10 1.23753E-10
 -1      4999 1.66898E-01-3.35705E-02-4.33782E-11-3.25682E-02 3.94948E-10 6.23917E-11
 -1      5000-2.75904E-02 1.60918E-01-1.64345E-09-3.06251E-02-3.64217E-10-2.29896E-09
 -1      5001-1.35136E-02 1.46842E-01-1.64478E-09-5.82524E-02-7.19244E-10-2.21347E-09
 -1      5002 8.41155E-03 1.24916E-01-1.63893E-09-8.01776E-02-1.05612E-09-2.07427E-09
 -1      5003 3.60389E-02 9.72891E-02-1.64362E-09-9.42544E-02-1.36874E-09-1.88266E-09
 -1      5004 6.66640E-02 6.66640E-02-1.65045E-09-9.91050E-02-1.64618E-09-1.64604E-09
 -1      5005 9.72891E-02 3.60389E-02-1.63784E-09-9.42544E-02-1.88164E-09-1.36802E-09
 -1      5006 1.24916E-01 8.41154E-03-1.63769E-09-8.01776E-02-2.07397E-09-1.05672E-09
 -1      5007 1.46842E-01-1.35136E-02-1.65346E-09-5.82524E-02-2.21417E-09-7.18907E-10
 -1      5008 1.60918E-01-2.75904E-02-1.64603E-09-3.06251E-02-2.29893E-09-3.64175E-10
 -1      5009-2.21300E-02 1.55458E-01 1.56133E-09-2.88509E-02 7.55522E-10 4.77147E-09
 -1      5010-8.86870E-03 1.42197E-01 1.56204E-09-5.48777E-02 1.49299E-09 4.59464E-09
 -1      5011 1.17863E-02 1.21542E-01 1.57476E-09-7.55327E-02 2.19343E-09 4.30233E-09
 -1      5012 3.78131E-02 9.55149E-02 1.56081E-09-8.87940E-02 2.83787E-09 3.90977E-09
 -1      5013 6.66640E-02 6.66640E-02 1.54519E-09-9.33635E-02 3.41685E-09 3.41561E-09
 -1      5014 9.55149E-02 3.78131E-02 1.59174E-09-8.87940E-02 3.90791E-09 2.83686E-09
 -1      5015 1.21542E-01 1.17863E-02 1.58077E-09-7.55327E-02 4.30052E-09 2.19409E-09
 -1      5016 1.42197E-01-8.86871E-03 1.53366E-09-5.48777E-02 4.59619E-09 1.49501E-09
 -1      5017 1.55458E-01-2.21300E-02 1.56021E-09-2.88509E-02 4.77062E-09 7.52403E-10
 -1      5018-1.71304E-02 1.50458E-01-9.80918E-09-2.72265E-02-3.14561E-09-1.98549E-08
 -1      5019-4.61581E-03 1.37944E-01-9.80272E-09-5.17878E-02-6.21262E-09-1.91183E-08
 -1      5020 1.48762E-02 1.18452E-01-9.79187E-09-7.12798E-02-9.12721E-09-1.79164E-08
 -1      5021 3.94375E-02 9.38905E-02-9.82956E-09-8.37944E-02-1.18162E-08-1.62593E-08
 -1      5022 6.66640E-02 6.66640E-02-9.83440E-09-8.81067E-02-1.42106E-08-1.42090E-08
 -1      5023 9.38905E-02 3.94375E-02-9.77948E-09-8.37944E-02-1.62643E-08-1.18193E-08
 -1      5024 1.18452E-01 1.48762E-02-9.79793E-09-7.12798E-02-1.79136E-08-9.12865E-09
 -1      5025 1.37944E-01-4.61581E-03-9.88272E-09-5.17878E-02-1.91038E-08-6.20597E-09
 -1      5026 1.50458E-01-1.71304E-02-9.82846E-09-2.72265E-02-1.98482E-08-3.14284E-09
 -1      5027-1.25423E-02 1.45870E-01 5.99888E-09-2.57357E-02 6.30332E-09 3.97820E-08
 -1      5028-7.12888E-04 1.34041E-01 6.01244E-09-4.89521E-02 1.24528E-08 3.82987E-08
 -1      5029 1.77118E-02 1.15616E-01 6.01500E-09-6.73768E-02 1.82820E-08 3.58663E-08
 -1      5030 4.09283E-02 9.23996E-02 5.95003E-09-7.92062E-02 2.36740E-08 3.26036E-08
 -1      5031 6.66639E-02 6.66639E-02 5.93509E-09-8.32823E-02 2.85111E-08 2.84724E-08
 -1      5032 9.23996E-02 4.09283E-02 6.14631E-09-7.92062E-02 3.25460E-08 2.36205E-08
 -1      5033 1.15616E-01 1.77118E-02 6.05053E-09-6.73768E-02 3.58322E-08 1.83046E-08
 -1      5034 1.34041E-01-7.12894E-04 5.87699E-09-4.89521E-02 3.83553E-08 1.24720E-08
 -1      5035 1.45870E-01-1.25423E-02 6.03366E-09-2.57357E-02 3.97696E-08 6.23899E-09
 -1      5036-8.31776E-03 1.41646E-01-5.63775E-08-2.43631E-02-2.16228E-08-1.36439E-07
 -1      5037 2.88075E-03 1.30448E-01-5.63260E-08-4.63414E-02-4.27180E-08-1.31395E-07
 -1      5038 2.03228E-02 1.13006E-01-5.63364E-08-6.37835E-02-6.27621E-08-1.23111E-07
 -1      5039 4.23011E-02 9.10274E-02-5.62802E-08-7.49820E-02-8.11904E-08-1.11707E-07
 -1      5040 6.66643E-02 6.66642E-02-5.61428E-08-7.88408E-02-9.76876E-08-9.75934E-08
 -1      5041 9.10274E-02 4.23011E-02-5.63721E-08-7.49820E-02-1.11862E-07-8.12089E-08
 -1      5042 1.13006E-01 2.03228E-02-5.63129E-08-6.37835E-02-1.23076E-07-6.27280E-08
 -1      5043 1.30448E-01 2.88074E-03-5.62162E-08-4.63414E-02-1.31146E-07-4.25962E-08
 -1      5044 1.41646E-01-8.31776E-03-5.63992E-08-2.43631E-02-1.36323E-07-2.15161E-08
 -1      5045-4.43465E-03 1.37760E-01-2.29215E-07-2.31009E-02 2.60054E-10 1.32148E-09
 -1      5046 6.18368E-03 1.27142E-01-2.29216E-07-4.39406E-02 5.03316E-10 1.15939E-09
 -1      5047 2.27221E-02 1.10603E-01-2.29156E-07-6.04790E-02 5.84530E-10 1.07881E-09
 -1      5048 4.35618E-02 8.97636E-02-2.28808E-07-7.10973E-02 9.16773E-10 1.34887E-09
 -1      5049 6.66627E-02 6.66627E-02-2.29035E-07-7.47562E-02 1.55971E-09 5.59280E-10
 -1      5050 8.97636E-02 4.35618E-02-2.29728E-07-7.10973E-02 5.16491E-10-2.47508E-10
 -1      5051 1.10603E-01 2.27221E-02-2.29589E-07-6.04790E-02 7.12193E-10 1.01523E-09
 -1      5052 1.27142E-01 6.18367E-03-2.29062E-07-4.39406E-02 2.34523E-09 6.17750E-10
 -1      5053 1.37760E-01-4.43466E-03-2.30137E-07-2.31009E-02 1.22333E-09-1.13781E-09
 -1      5054-7.62212E-04 1.34092E-01 1.78013E-07-2.19084E-02 5.10653E-08 3.22802E-07
 -1      5055 9.30798E-03 1.24022E-01 1.77582E-07-4.16723E-02 1.00765E-07 3.10898E-07
 -1      5056 2.49927E-02 1.08337E-01 1.77161E-07-5.73570E-02 1.47994E-07 2.91888E-07
 -1      5057 4.47565E-02 8.85734E-02 1.77357E-07-6.74271E-02 1.92122E-07 2.66021E-07
 -1      5058 6.66649E-02 6.66649E-02 1.77496E-07-7.08971E-02 2.31020E-07 2.32220E-07
 -1      5059 8.85734E-02 4.47565E-02 1.77470E-07-6.74272E-02 2.63530E-07 1.93151E-07
 -1      5060 1.08337E-01 2.49927E-02 1.78390E-07-5.73570E-02 2.91690E-07 1.50986E-07
 -1      5061 1.24022E-01 9.30797E-03 1.80297E-07-4.16723E-02 3.13812E-07 1.03379E-07
 -1      5062 1.34092E-01-7.62220E-04 1.81098E-07-2.19084E-02 3.23728E-07 5.12840E-08
 -1      5063-8.00401E-01 9.33733E-01-5.54064E-07-1.37330E-01 1.42514E-07 1.81082E-06
 -1      5064-8.65315E-01 9.98648E-01 6.70676E-07-3.02819E-01 7.11233E-08 4.49075E-07
 -1      5066-7.15527E-01 8.48858E-01-5.54064E-07-3.98547E-01 4.24035E-07 1.76623E-06
 -1      5067-7.26124E-01 8.59457E-01 6.70676E-07-5.75996E-01 1.40502E-07 4.32413E-07
 -1      5069-5.54086E-01 6.87417E-01-5.54063E-07-6.20751E-01 6.95115E-07 1.67815E-06
 -1      5070-5.09330E-01 6.42662E-01 6.70673E-07-7.92791E-01 2.06408E-07 4.05100E-07
 -1      5072-3.31881E-01 4.65213E-01-5.54067E-07-7.82192E-01 9.49077E-07 1.54874E-06
 -1      5073-2.36153E-01 3.69485E-01 6.70687E-07-9.31981E-01 2.67187E-07 3.67808E-07
 -1      5075-7.06642E-02 2.03996E-01-5.54052E-07-8.67067E-01 1.17967E-06 1.38124E-06
 -1      5076 6.66663E-02 6.66663E-02 6.70495E-07-9.79943E-01 3.21403E-07 3.21480E-07
 -1      5078 2.03996E-01-7.06642E-02-5.54150E-07-8.67067E-01 1.38119E-06 1.17954E-06
 -1      5079 3.69485E-01-2.36153E-01 6.70748E-07-9.31981E-01 3.67131E-07 2.67241E-07
 -1      5081 4.65213E-01-3.31881E-01-5.54060E-07-7.82192E-01 1.54885E-06 9.49580E-07
 -1      5082 6.42662E-01-5.09330E-01 6.70126E-07-7.92791E-01 4.05010E-07 2.06157E-07
 -1      5084 6.87417E-01-5.54086E-01-5.54067E-07-6.20751E-01 1.67836E-06 6.94615E-07
 -1      5085 8.59457E-01-7.26124E-01 6.71208E-07-5.75996E-01 4.32724E-07 1.40409E-07
 -1      5087 8.48858E-01-7.15527E-01-5.54068E-07-3.98547E-01 1.76582E-06 4.24333E-07
 -1      5088 9.98648E-01-8.65315E-01 6.70568E-07-3.02819E-01 4.49673E-07 7.15988E-08
 -1      5090 9.33733E-01-8.00401E-01-5.53994E-07-1.37330E-01 1.81091E-06 1.42418E-07
 -1      5092-6.62360E-01 7.95695E-01 1.06911E-06-1.15467E-01-2.50872E-08-3.18761E-07
 -1      5093-7.11331E-01 8.44650E-01-2.97831E-07-2.52784E-01-1.85069E-07-1.16848E-06
 -1      5095-5.90997E-01 7.24333E-01 1.06911E-06-3.35097E-01-7.46438E-08-3.10911E-07
 -1      5096-5.95139E-01 7.28458E-01-2.97830E-07-4.80825E-01-3.65581E-07-1.12514E-06
 -1      5098-4.55258E-01 5.88594E-01 1.06911E-06-5.21926E-01-1.22361E-07-2.95406E-07
 -1      5099-4.14165E-01 5.47484E-01-2.97833E-07-6.61798E-01-5.37091E-07-1.05409E-06
 -1      5101-2.68429E-01 4.01765E-01 1.06911E-06-6.57665E-01-1.67068E-07-2.72628E-07
 -1      5102-1.86125E-01 3.19444E-01-2.97835E-07-7.77991E-01-6.95372E-07-9.57097E-07
 -1      5104-4.87989E-02 1.82134E-01 1.06910E-06-7.29027E-01-2.07657E-07-2.43125E-07
 -1      5105 6.66592E-02 6.66592E-02-2.97773E-07-8.18028E-01-8.36564E-07-8.36559E-07
 -1      5107 1.82134E-01-4.87989E-02 1.06917E-06-7.29027E-01-2.43131E-07-2.07705E-07
 -1      5108 3.19444E-01-1.86125E-01-2.97923E-07-7.77991E-01-9.57021E-07-6.95303E-07
 -1      5110 4.01765E-01-2.68429E-01 1.06891E-06-6.57665E-01-2.72609E-07-1.66902E-07
 -1      5111 5.47484E-01-4.14165E-01-2.97250E-07-6.61798E-01-1.05449E-06-5.37333E-07
 -1      5113 5.88594E-01-4.55258E-01 1.06911E-06-5.21926E-01-2.95330E-07-1.22553E-07
 -1      5114 7.28458E-01-5.95139E-01-2.98404E-07-4.80825E-01-1.12470E-06-3.65484E-07
 -1      5116 7.24333E-01-5.90997E-01 1.06931E-06-3.35097E-01-3.11043E-07-7.45402E-08
 -1      5117 8.44650E-01-7.11331E-01-2.97722E-07-2.52784E-01-1.16861E-06-1.85078E-07
 -1      5119 7.95695E-01-6.62360E-01 1.06907E-06-1.15467E-01-3.18743E-07-2.51332E-08
 -1      5121-5.54834E-01 6.88161E-01 1.33150E-07-9.84355E-02-3.10536E-08-3.94575E-07
 -1      5122-5.91598E-01 7.24928E-01-4.79448E-07-2.13883E-01 1.46925E-07 9.27648E-07
 -1      5124-4.93998E-01 6.27324E-01 1.33151E-07-2.85671E-01-9.23964E-08-3.84859E-07
 -1      5125-4.93287E-01 6.26617E-01-4.79448E-07-4.06829E-01 2.90232E-07 8.93243E-07
 -1      5127-3.78280E-01 5.11606E-01 1.33151E-07-4.44943E-01-1.51464E-07-3.65667E-07
 -1      5128-3.40164E-01 4.73494E-01-4.79448E-07-5.59952E-01 4.26392E-07 8.36842E-07
 -1      5130-2.19008E-01 3.52334E-01 1.33150E-07-5.60661E-01-2.06803E-07-3.37472E-07
 -1      5131-1.47218E-01 2.80547E-01-4.79453E-07-6.58263E-01 5.52057E-07 7.59838E-07
 -1      5133-3.17722E-02 1.65099E-01 1.33149E-07-6.21497E-01-2.57046E-07-3.00964E-07
 -1      5134 6.66648E-02 6.66648E-02-4.79459E-07-6.92139E-01 6.64116E-07 6.64127E-07
 -1      5136 1.65099E-01-3.17722E-02 1.33142E-07-6.21497E-01-3.00974E-07-2.57046E-07
 -1      5137 2.80547E-01-1.47218E-01-4.79452E-07-6.58263E-01 7.59858E-07 5.52053E-07
 -1      5139 3.52334E-01-2.19008E-01 1.33173E-07-5.60661E-01-3.37444E-07-2.06804E-07
 -1      5140 4.73494E-01-3.40164E-01-4.79451E-07-5.59952E-01 8.36844E-07 4.26412E-07
 -1      5142 5.11606E-01-3.78280E-01 1.33150E-07-4.44943E-01-3.65672E-07-1.51450E-07
 -1      5143 6.26617E-01-4.93287E-01-4.79447E-07-4.06829E-01 8.93235E-07 2.90247E-07
 -1      5145 6.27324E-01-4.93998E-01 1.33127E-07-2.85671E-01-3.84875E-07-9.24159E-08
 -1      5146 7.24928E-01-5.91598E-01-4.79441E-07-2.13883E-01 9.27637E-07 1.46913E-07
 -1      5148 6.88161E-01-5.54834E-01 1.33159E-07-9.84355E-02-3.94571E-07-3.10442E-08
 -1      5150-4.69446E-01 6.02774E-01-2.06416E-08-8.49114E-02 9.12322E-09 1.15922E-07
 -1      5151-4.97571E-01 6.30898E-01 1.63835E-07-1.83331E-01-4.70985E-08-2.97368E-07
 -1      5153-4.16967E-01 5.50296E-01-2.06417E-08-2.46423E-01 2.71451E-08 1.13068E-07
 -1      5154-4.13303E-01 5.46630E-01 1.63835E-07-3.48716E-01-9.30374E-08-2.86339E-07
 -1      5156-3.17148E-01 4.50476E-01-2.06415E-08-3.83812E-01 4.44985E-08 1.07429E-07
 -1      5157-2.82052E-01 4.15380E-01 1.63835E-07-4.79967E-01-1.36685E-07-2.68259E-07
 -1      5159-1.79758E-01 3.13087E-01-2.06413E-08-4.83632E-01 6.07564E-08 9.91454E-08
 -1      5160-1.16667E-01 2.49995E-01 1.63838E-07-5.64235E-01-1.76968E-07-2.43575E-07
 -1      5162-1.82473E-02 1.51576E-01-2.06414E-08-5.36110E-01 7.55183E-08 8.84202E-08
 -1      5163 6.66638E-02 6.66638E-02 1.63840E-07-5.93271E-01-2.12892E-07-2.12894E-07
 -1      5165 1.51576E-01-1.82473E-02-2.06352E-08-5.36110E-01 8.84203E-08 7.55153E-08
 -1      5166 2.49995E-01-1.16667E-01 1.63826E-07-5.64235E-01-2.43573E-07-1.76967E-07
 -1      5168 3.13087E-01-1.79758E-01-2.06652E-08-4.83632E-01 9.91476E-08 6.07639E-08
 -1      5169 4.15380E-01-2.82052E-01 1.63864E-07-4.79967E-01-2.68279E-07-1.36696E-07
 -1      5171 4.50476E-01-3.17148E-01-2.06415E-08-3.83812E-01 1.07431E-07 4.44941E-08
 -1      5172 5.46630E-01-4.13303E-01 1.63806E-07-3.48716E-01-2.86319E-07-9.30316E-08
 -1      5174 5.50296E-01-4.16967E-01-2.06180E-08-2.46423E-01 1.13060E-07 2.71489E-08
 -1      5175 6.30898E-01-4.97571E-01 1.63843E-07-1.83331E-01-2.97370E-07-4.71000E-08
 -1      5177 6.02774E-01-4.69446E-01-2.06477E-08-8.49114E-02 1.15924E-07 9.12143E-09
 -1      5179-4.00503E-01 5.33831E-01 2.19751E-08-7.39920E-02-4.61497E-09-5.86388E-08
 -1      5180-4.22337E-01 5.55665E-01-7.36408E-08-1.58886E-01 1.78836E-08 1.12913E-07
 -1      5182-3.54773E-01 4.88101E-01 2.19750E-08-2.14733E-01-1.37313E-08-5.71949E-08
 -1      5183-3.49305E-01 4.82633E-01-7.36409E-08-3.02219E-01 3.53269E-08 1.08725E-07
 -1      5185-2.67791E-01 4.01118E-01 2.19750E-08-3.34455E-01-2.25095E-08-5.43427E-08
 -1      5186-2.35555E-01 3.68883E-01-7.36411E-08-4.15969E-01 5.19002E-08 1.01860E-07
 -1      5188-1.48069E-01 2.81397E-01 2.19748E-08-4.21437E-01-3.07335E-08-5.01524E-08
 -1      5189-9.22220E-02 2.25550E-01-7.36417E-08-4.89001E-01 6.71959E-08 9.24872E-08
 -1      5191-7.32802E-03 1.40656E-01 2.19749E-08-4.67167E-01-3.82005E-08-4.47268E-08
 -1      5192 6.66640E-02 6.66640E-02-7.36407E-08-5.14166E-01 8.08359E-08 8.08371E-08
 -1      5194 1.40656E-01-7.32801E-03 2.19750E-08-4.67167E-01-4.47278E-08-3.82007E-08
 -1      5195 2.25550E-01-9.22220E-02-7.36401E-08-4.89001E-01 9.24881E-08 6.71965E-08
 -1      5197 2.81397E-01-1.48069E-01 2.19770E-08-4.21437E-01-5.01500E-08-3.07329E-08
 -1      5198 3.68883E-01-2.35555E-01-7.36406E-08-4.15969E-01 1.01858E-07 5.18995E-08
 -1      5200 4.01118E-01-2.67791E-01 2.19750E-08-3.34455E-01-5.43426E-08-2.25095E-08
 -1      5201 4.82633E-01-3.49305E-01-7.36405E-08-3.02219E-01 1.08727E-07 3.53277E-08
 -1      5203 4.88101E-01-3.54773E-01 2.19732E-08-2.14733E-01-5.71968E-08-1.37326E-08
 -1      5204 5.55665E-01-4.22337E-01-7.36405E-08-1.58886E-01 1.12911E-07 1.78833E-08
 -1      5206 5.33831E-01-4.00503E-01 2.19751E-08-7.39920E-02-5.86386E-08-4.61478E-09
 -1      5208-3.44044E-01 4.77372E-01-1.10982E-08-6.50498E-02 1.19693E-09 1.52085E-08
 -1      5209-3.61212E-01 4.94540E-01 2.61970E-08-1.39025E-01-5.17949E-09-3.27020E-08
 -1      5211-3.03841E-01 4.37169E-01-1.10982E-08-1.88782E-01 3.56132E-09 1.48340E-08
 -1      5212-2.97309E-01 4.30637E-01 2.61971E-08-2.64442E-01-1.02315E-08-3.14892E-08
 -1      5214-2.27371E-01 3.60699E-01-1.10982E-08-2.94035E-01 5.83803E-09 1.40942E-08
 -1      5215-1.97778E-01 3.31106E-01 2.61970E-08-3.63973E-01-1.50314E-08-2.95009E-08
 -1      5217-1.22118E-01 2.55446E-01-1.10982E-08-3.70505E-01 7.97099E-09 1.30074E-08
 -1      5218-7.23615E-02 2.05689E-01 2.61972E-08-4.27876E-01-1.94614E-08-2.67865E-08
 -1      5220 1.61417E-03 1.31714E-01-1.10982E-08-4.10708E-01 9.90767E-09 1.16003E-08
 -1      5221 6.66640E-02 6.66640E-02 2.61968E-08-4.49896E-01-2.34119E-08-2.34123E-08
 -1      5223 1.31714E-01 1.61417E-03-1.10982E-08-4.10708E-01 1.16002E-08 9.90740E-09
 -1      5224 2.05689E-01-7.23615E-02 2.61962E-08-4.27876E-01-2.67860E-08-1.94613E-08
 -1      5226 2.55446E-01-1.22118E-01-1.10999E-08-3.70505E-01 1.30080E-08 7.97173E-09
 -1      5227 3.31106E-01-1.97778E-01 2.62004E-08-3.63973E-01-2.95029E-08-1.50323E-08
 -1      5229 3.60699E-01-2.27371E-01-1.10983E-08-2.94035E-01 1.40943E-08 5.83782E-09
 -1      5230 4.30637E-01-2.97309E-01 2.61934E-08-2.64442E-01-3.14872E-08-1.02307E-08
 -1      5232 4.37169E-01-3.03841E-01-1.10966E-08-1.88782E-01 1.48330E-08 3.56148E-09
 -1      5233 4.94540E-01-3.61212E-01 2.61975E-08-1.39025E-01-3.27022E-08-5.17951E-09
 -1      5235 4.77372E-01-3.44044E-01-1.10983E-08-6.50498E-02 1.52087E-08 1.19693E-09
 -1      5237-2.97229E-01 4.30557E-01 2.69243E-10-5.76350E-02-4.80595E-10-6.10647E-09
 -1      5238-3.10874E-01 4.44202E-01-7.10519E-09-1.22670E-01 1.75496E-09 1.10803E-08
 -1      5240-2.61609E-01 3.94937E-01 2.69252E-10-1.67263E-01-1.42995E-09-5.95612E-09
 -1      5241-2.54489E-01 3.87817E-01-7.10519E-09-2.33331E-01 3.46669E-09 1.06694E-08
 -1      5243-1.93855E-01 3.27183E-01 2.69259E-10-2.60519E-01-2.34409E-09-5.65911E-09
 -1      5244-1.66667E-01 2.99995E-01-7.10518E-09-3.21153E-01 5.09306E-09 9.99573E-09
 -1      5246-1.00599E-01 2.33927E-01 2.69245E-10-3.28273E-01-3.20051E-09-5.22276E-09
 -1      5247-5.60055E-02 1.89333E-01-7.10516E-09-3.77538E-01 6.59403E-09 9.07597E-09
 -1      5249 9.02896E-03 1.24299E-01 2.69317E-10-3.63893E-01-3.97810E-09-4.65776E-09
 -1      5250 6.66640E-02 6.66640E-02-7.10507E-09-3.96967E-01 7.93260E-09 7.93264E-09
 -1      5252 1.24299E-01 9.02896E-03 2.69210E-10-3.63893E-01-4.65786E-09-3.97818E-09
 -1      5253 1.89333E-01-5.60055E-02-7.10526E-09-3.77538E-01 9.07608E-09 6.59413E-09
 -1      5255 2.33927E-01-1.00599E-01 2.69270E-10-3.28273E-01-5.22245E-09-3.20035E-09
 -1      5256 2.99995E-01-1.66667E-01-7.10493E-09-3.21153E-01 9.99523E-09 5.09286E-09
 -1      5258 3.27183E-01-1.93855E-01 2.69254E-10-2.60519E-01-5.65908E-09-2.34415E-09
 -1      5259 3.87817E-01-2.54489E-01-7.10535E-09-2.33331E-01 1.06699E-08 3.46687E-09
 -1      5261 3.94937E-01-2.61609E-01 2.69256E-10-1.67263E-01-5.95645E-09-1.43005E-09
 -1      5262 4.44202E-01-3.10874E-01-7.10507E-09-1.22670E-01 1.10802E-08 1.75487E-09
 -1      5264 4.30557E-01-2.97229E-01 2.69245E-10-5.76350E-02-6.10643E-09-4.80594E-10
 -1      5266-2.57981E-01 3.91309E-01-3.79609E-09-5.14188E-02 1.30705E-10 1.66077E-09
 -1      5267-2.68925E-01 4.02253E-01 4.21478E-09-1.09040E-01-4.91529E-10-3.10342E-09
 -1      5269-2.26203E-01 3.59531E-01-3.79610E-09-1.49223E-01 3.88900E-10 1.61988E-09
 -1      5270-2.18805E-01 3.52133E-01 4.21479E-09-2.07406E-01-9.70959E-10-2.98831E-09
 -1      5272-1.65756E-01 2.99084E-01-3.79608E-09-2.32420E-01 6.37519E-10 1.53910E-09
 -1      5273-1.40742E-01 2.74070E-01 4.21476E-09-2.85469E-01-1.42647E-09-2.79964E-09
 -1      5275-8.25591E-02 2.15887E-01-3.79611E-09-2.92867E-01 8.70435E-10 1.42041E-09
 -1      5276-4.23756E-02 1.75704E-01 4.21479E-09-3.35589E-01-1.84688E-09-2.54203E-09
 -1      5278 1.52452E-02 1.18083E-01-3.79607E-09-3.24645E-01 1.08192E-09 1.26678E-09
 -1      5279 6.66640E-02 6.66640E-02 4.21475E-09-3.52859E-01-2.22180E-09-2.22181E-09
 -1      5281 1.18083E-01 1.52452E-02-3.79609E-09-3.24645E-01 1.26675E-09 1.08191E-09
 -1      5282 1.75704E-01-4.23756E-02 4.21471E-09-3.35589E-01-2.54197E-09-1.84685E-09
 -1      5284 2.15887E-01-8.25591E-02-3.79621E-09-2.92867E-01 1.42053E-09 8.70525E-10
 -1      5285 2.74070E-01-1.40742E-01 4.21519E-09-2.85469E-01-2.79989E-09-1.42660E-09
 -1      5287 2.99084E-01-1.65756E-01-3.79611E-09-2.32420E-01 1.53912E-09 6.37496E-10
 -1      5288 3.52133E-01-2.18805E-01 4.21430E-09-2.07406E-01-2.98805E-09-9.70840E-10
 -1      5290 3.59531E-01-2.26203E-01-3.79593E-09-1.49223E-01 1.61974E-09 3.88884E-10
 -1      5291 4.02253E-01-2.68925E-01 4.21483E-09-1.09040E-01-3.10347E-09-4.91537E-10
 -1      5293 3.91309E-01-2.57981E-01-3.79606E-09-5.14188E-02 1.66080E-09 1.30708E-10
 -1      5295-2.24754E-01 3.58082E-01-1.85100E-09-4.61561E-02-2.93087E-11-3.72388E-10
 -1      5296-2.33600E-01 3.66928E-01 3.37921E-10-9.75617E-02 1.40079E-10 8.84387E-10
 -1      5298-1.96228E-01 3.29556E-01-1.85100E-09-1.33950E-01-8.72064E-11-3.63225E-10
 -1      5299-1.88756E-01 3.22084E-01 3.37957E-10-1.85573E-01 2.76712E-10 8.51617E-10
 -1      5301-1.41968E-01 2.75296E-01-1.85098E-09-2.08632E-01-1.42957E-10-3.45093E-10
 -1      5302-1.18909E-01 2.52237E-01 3.37930E-10-2.55420E-01 4.06517E-10 7.97845E-10
 -1      5304-6.72862E-02 2.00614E-01-1.85101E-09-2.62892E-01-1.95170E-10-3.18485E-10
 -1      5305-3.08977E-02 1.64226E-01 3.37944E-10-3.00264E-01 5.26319E-10 7.24419E-10
 -1      5307 2.05079E-02 1.12820E-01-1.85101E-09-2.91418E-01-2.42590E-10-2.84037E-10
 -1      5308 6.66640E-02 6.66640E-02 3.37943E-10-3.15716E-01 6.33168E-10 6.33179E-10
 -1      5310 1.12820E-01 2.05079E-02-1.85103E-09-2.91418E-01-2.84064E-10-2.42608E-10
 -1      5311 1.64226E-01-3.08977E-02 3.37929E-10-3.00264E-01 7.24449E-10 5.26337E-10
 -1      5313 2.00614E-01-6.72862E-02-1.85098E-09-2.62892E-01-3.18434E-10-1.95137E-10
 -1      5314 2.52237E-01-1.18909E-01 3.38021E-10-2.55420E-01 7.97743E-10 4.06477E-10
 -1      5316 2.75296E-01-1.41968E-01-1.85103E-09-2.08632E-01-3.45078E-10-1.42963E-10
 -1      5317 3.22084E-01-1.88756E-01 3.37826E-10-1.85573E-01 8.51692E-10 2.76750E-10
 -1      5319 3.29556E-01-1.96228E-01-1.85102E-09-1.33950E-01-3.63269E-10-8.72199E-11
 -1      5320 3.66928E-01-2.33600E-01 3.37956E-10-9.75617E-02 8.84390E-10 1.40079E-10
 -1      5322 3.58082E-01-2.24754E-01-1.85096E-09-4.61561E-02-3.72385E-10-2.93131E-11
 -1      5324-1.96377E-01 3.29705E-01-1.94021E-09-4.16615E-02 2.47149E-11 3.14047E-10
 -1      5325-2.03574E-01 3.36902E-01 1.27809E-09-8.78055E-02-5.62594E-11-3.55220E-10
 -1      5327-1.70628E-01 3.03956E-01-1.94023E-09-1.20907E-01 7.35359E-11 3.06309E-10
 -1      5328-1.63214E-01 2.96542E-01 1.27808E-09-1.67016E-01-1.11121E-10-3.42036E-10
 -1      5330-1.21652E-01 2.54980E-01-1.94019E-09-1.88316E-01 1.20548E-10 2.91031E-10
 -1      5331-1.00352E-01 2.33680E-01 1.27809E-09-2.29878E-01-1.63282E-10-3.20443E-10
 -1      5333-5.42425E-02 1.87570E-01-1.94021E-09-2.37292E-01 1.64589E-10 2.68590E-10
 -1      5334-2.11416E-02 1.54470E-01 1.27809E-09-2.70238E-01-2.11391E-10-2.90966E-10
 -1      5336 2.50024E-02 1.08326E-01-1.94023E-09-2.63041E-01 2.04589E-10 2.39547E-10
 -1      5337 6.66640E-02 6.66640E-02 1.27809E-09-2.84145E-01-2.54310E-10-2.54305E-10
 -1      5339 1.08326E-01 2.50024E-02-1.94023E-09-2.63041E-01 2.39529E-10 2.04580E-10
 -1      5340 1.54470E-01-2.11416E-02 1.27811E-09-2.70238E-01-2.90936E-10-2.11387E-10
 -1      5342 1.87570E-01-5.42425E-02-1.94017E-09-2.37292E-01 2.68607E-10 1.64608E-10
 -1      5343 2.33680E-01-1.00352E-01 1.27816E-09-2.29878E-01-3.20484E-10-1.63277E-10
 -1      5345 2.54980E-01-1.21652E-01-1.94025E-09-1.88316E-01 2.91051E-10 1.20547E-10
 -1      5346 2.96542E-01-1.63214E-01 1.27797E-09-1.67016E-01-3.42014E-10-1.11109E-10
 -1      5348 3.03956E-01-1.70628E-01-1.94025E-09-1.20907E-01 3.06309E-10 7.35249E-11
 -1      5349 3.36902E-01-2.03574E-01 1.27808E-09-8.78055E-02-3.55201E-10-5.62541E-11
 -1      5351 3.29705E-01-1.96377E-01-1.94016E-09-4.16615E-02 3.14050E-10 2.47114E-11
 -1      5353-1.71950E-01 3.05278E-01-1.43507E-09-3.77927E-02 8.76201E-12 1.11313E-10
 -1      5354-1.77837E-01 3.11165E-01 7.31409E-10-7.94431E-02-7.17734E-13-4.54451E-12
 -1      5356-1.48592E-01 2.81920E-01-1.43509E-09-1.09679E-01 2.60631E-11 1.08575E-10
 -1      5357-1.41321E-01 2.74649E-01 7.31427E-10-1.51110E-01-1.41984E-12-4.39415E-12
 -1      5359-1.04165E-01 2.37492E-01-1.43506E-09-1.70828E-01 4.27357E-11 1.03152E-10
 -1      5360-8.44458E-02 2.17774E-01 7.31420E-10-2.07985E-01-2.08745E-12-4.11130E-12
 -1      5362-4.30147E-02 1.76343E-01-1.43507E-09-2.15256E-01 5.83505E-11 9.52132E-11
 -1      5363-1.27791E-02 1.46107E-01 7.31400E-10-2.44501E-01-2.71459E-12-3.72544E-12
 -1      5365 2.88713E-02 1.04457E-01-1.43512E-09-2.38614E-01 7.25226E-11 8.49046E-11
 -1      5366 6.66640E-02 6.66640E-02 7.31388E-10-2.57083E-01-3.25430E-12-3.25902E-12
 -1      5368 1.04457E-01 2.88713E-02-1.43509E-09-2.38614E-01 8.48891E-11 7.25117E-11
 -1      5369 1.46107E-01-1.27791E-02 7.31436E-10-2.44501E-01-3.72229E-12-2.69768E-12
 -1      5371 1.76343E-01-4.30147E-02-1.43500E-09-2.15256E-01 9.52039E-11 5.83484E-11
 -1      5372 2.17774E-01-8.44458E-02 7.31443E-10-2.07985E-01-4.13539E-12-2.08853E-12
 -1      5374 2.37492E-01-1.04165E-01-1.43512E-09-1.70828E-01 1.03175E-10 4.27283E-11
 -1      5375 2.74649E-01-1.41321E-01 7.31314E-10-1.51110E-01-4.38292E-12-1.40770E-12
 -1      5377 2.81920E-01-1.48592E-01-1.43515E-09-1.09679E-01 1.08583E-10 2.60657E-11
 -1      5378 3.11165E-01-1.77837E-01 7.31382E-10-7.94431E-02-4.55556E-12-7.13122E-13
 -1      5380 3.05278E-01-1.71950E-01-1.43500E-09-3.77927E-02 1.11294E-10 8.75441E-12
 -1      5382-1.50773E-01 2.84101E-01-1.21146E-09-3.44386E-02 1.11892E-11 1.42186E-10
 -1      5383-1.55609E-01 2.88937E-01 6.87362E-10-7.22210E-02-1.47231E-11-9.29842E-11
 -1      5385-1.29488E-01 2.62816E-01-1.21146E-09-9.99446E-02 3.32931E-11 1.38685E-10
 -1      5386-1.22413E-01 2.55741E-01 6.87386E-10-1.37373E-01-2.90823E-11-8.95291E-11
 -1      5388-8.90034E-02 2.22331E-01-1.21144E-09-1.55667E-01 5.45705E-11 1.31773E-10
 -1      5389-7.07085E-02 2.04037E-01 6.87402E-10-1.89077E-01-4.27312E-11-8.38871E-11
 -1      5391-3.32806E-02 1.66609E-01-1.21143E-09-1.96152E-01 7.45294E-11 1.21604E-10
 -1      5392-5.55702E-03 1.38885E-01 6.87364E-10-2.22273E-01-5.53364E-11-7.61600E-11
 -1      5394 3.22254E-02 1.01103E-01-1.21151E-09-2.17437E-01 9.26365E-11 1.08467E-10
 -1      5395 6.66640E-02 6.66640E-02 6.87367E-10-2.33712E-01-6.65769E-11-6.65816E-11
 -1      5397 1.01103E-01 3.22254E-02-1.21148E-09-2.17437E-01 1.08438E-10 9.26271E-11
 -1      5398 1.38885E-01-5.55702E-03 6.87440E-10-2.22273E-01-7.61461E-11-5.53310E-11
 -1      5400 1.66609E-01-3.32806E-02-1.21135E-09-1.96152E-01 1.21599E-10 7.45185E-11
 -1      5401 2.04037E-01-7.07085E-02 6.87416E-10-1.89077E-01-8.39027E-11-4.27421E-11
 -1      5403 2.22331E-01-8.90034E-02-1.21150E-09-1.55667E-01 1.31789E-10 5.45796E-11
 -1      5404 2.55741E-01-1.22413E-01 6.87273E-10-1.37373E-01-8.95810E-11-2.90727E-11
 -1      5406 2.62816E-01-1.29488E-01-1.21156E-09-9.99446E-02 1.38695E-10 3.32804E-11
 -1      5407 2.88937E-01-1.55609E-01 6.87374E-10-7.22210E-02-9.29863E-11-1.47186E-11
 -1      5409 2.84101E-01-1.50773E-01-1.21136E-09-3.44386E-02 1.42163E-10 1.11850E-11
 -1      5411-1.32294E-01 2.65622E-01-9.78182E-10-3.15118E-02 8.05952E-12 1.02417E-10
 -1      5412-1.36281E-01 2.69609E-01 5.32812E-10-6.59409E-02-8.22919E-12-5.19960E-11
 -1      5414-1.12818E-01 2.46146E-01-9.78210E-10-9.14508E-02 2.39744E-11 9.98957E-11
 -1      5415-1.05972E-01 2.39300E-01 5.32807E-10-1.25427E-01-1.62583E-11-5.00857E-11
 -1      5417-7.57740E-02 2.09102E-01-9.78176E-10-1.42438E-01 3.93089E-11 9.49009E-11
 -1      5418-5.87631E-02 1.92091E-01 5.32846E-10-1.72636E-01-2.39078E-11-4.69167E-11
 -1      5420-2.47868E-02 1.58115E-01-9.78146E-10-1.79482E-01 5.36807E-11 8.76080E-11
 -1      5421 7.23066E-04 1.32605E-01 5.32804E-10-2.02945E-01-3.09700E-11-4.25988E-11
 -1      5423 3.51522E-02 9.81758E-02-9.78261E-10-1.98958E-01 6.67320E-11 7.81191E-11
 -1      5424 6.66640E-02 6.66640E-02 5.32778E-10-2.13389E-01-3.72298E-11-3.72352E-11
 -1      5426 9.81758E-02 3.51522E-02-9.78208E-10-1.98958E-01 7.81085E-11 6.67127E-11
 -1      5427 1.32605E-01 7.23066E-04 5.32883E-10-2.02945E-01-4.25582E-11-3.09492E-11
 -1      5429 1.58115E-01-2.47868E-02-9.78051E-10-1.79482E-01 8.75763E-11 5.36691E-11
 -1      5430 1.92091E-01-5.87631E-02 5.32856E-10-1.72636E-01-4.69254E-11-2.38969E-11
 -1      5432 2.09102E-01-7.57740E-02-9.78250E-10-1.42438E-01 9.49527E-11 3.93054E-11
 -1      5433 2.39300E-01-1.05972E-01 5.32698E-10-1.25427E-01-5.01269E-11-1.62575E-11
 -1      5435 2.46146E-01-1.12818E-01-9.78332E-10-9.14508E-02 9.99313E-11 2.39759E-11
 -1      5436 2.69609E-01-1.36281E-01 5.32798E-10-6.59409E-02-5.20074E-11-8.22269E-12
 -1      5438 2.65622E-01-1.32294E-01-9.78069E-10-3.15118E-02 1.02361E-10 8.05122E-12
 -1      5440-1.16074E-01 2.49401E-01-8.11377E-10-2.89428E-02 6.74754E-12 8.57982E-11
 -1      5441-1.19369E-01 2.52697E-01 4.46515E-10-6.04458E-02-7.67663E-12-4.84785E-11
 -1      5443-9.81859E-02 2.31514E-01-8.11401E-10-8.39952E-02 2.00867E-11 8.36881E-11
 -1      5444-9.15853E-02 2.24913E-01 4.46530E-10-1.14975E-01-1.51535E-11-4.67070E-11
 -1      5446-6.41616E-02 1.97490E-01-8.11388E-10-1.30826E-01 3.29233E-11 7.95017E-11
 -1      5447-4.83108E-02 1.81639E-01 4.46558E-10-1.58249E-01-2.22845E-11-4.37564E-11
 -1      5449-1.73312E-02 1.50659E-01-8.11302E-10-1.64850E-01 4.49612E-11 7.33554E-11
 -1      5450 6.21814E-03 1.27110E-01 4.46508E-10-1.86033E-01-2.88885E-11-3.97342E-11
 -1      5452 3.77212E-02 9.56068E-02-8.11484E-10-1.82737E-01 5.59240E-11 6.54597E-11
 -1      5453 6.66640E-02 6.66640E-02 4.46466E-10-1.95607E-01-3.47087E-11-3.47281E-11
 -1      5455 9.56068E-02 3.77212E-02-8.11412E-10-1.82737E-01 6.54180E-11 5.58875E-11
 -1      5456 1.27110E-01 6.21814E-03 4.46603E-10-1.86033E-01-3.96800E-11-2.88516E-11
 -1      5458 1.50659E-01-1.73312E-02-8.11204E-10-1.64850E-01 7.33305E-11 4.49443E-11
 -1      5459 1.81639E-01-4.83108E-02 4.46560E-10-1.58249E-01-4.37510E-11-2.22812E-11
 -1      5461 1.97490E-01-6.41616E-02-8.11442E-10-1.30826E-01 7.95535E-11 3.29301E-11
 -1      5462 2.24913E-01-9.15853E-02 4.46390E-10-1.14975E-01-4.67576E-11-1.51514E-11
 -1      5464 2.31514E-01-9.81859E-02-8.11564E-10-8.39952E-02 8.37352E-11 2.00798E-11
 -1      5465 2.52697E-01-1.19369E-01 4.46497E-10-6.04458E-02-4.84980E-11-7.66434E-12
 -1      5467 2.49401E-01-1.16074E-01-8.11243E-10-2.89428E-02 8.57485E-11 6.74182E-12
 -1      5469-1.01758E-01 2.35086E-01-6.74054E-10-2.66755E-02 5.28090E-12 6.70263E-11
 -1      5470-1.04487E-01 2.37815E-01 3.67504E-10-5.56102E-02-5.83224E-12-3.68395E-11
 -1      5472-8.52721E-02 2.18600E-01-6.74079E-10-7.74153E-02 1.56950E-11 6.53624E-11
 -1      5473-7.89253E-02 2.12253E-01 3.67467E-10-1.05777E-01-1.15125E-11-3.55095E-11
 -1      5475-5.39132E-02 1.87241E-01-6.74078E-10-1.20577E-01 2.57188E-11 6.20950E-11
 -1      5476-3.91129E-02 1.72441E-01 3.67538E-10-1.45589E-01-1.69299E-11-3.32688E-11
 -1      5478-1.07513E-02 1.44079E-01-6.73945E-10-1.51936E-01 3.51405E-11 5.73106E-11
 -1      5479 1.10538E-02 1.22274E-01 3.67478E-10-1.71151E-01-2.19522E-11-3.01878E-11
 -1      5481 3.99885E-02 9.33395E-02-6.74215E-10-1.68422E-01 4.37085E-11 5.11568E-11
 -1      5482 6.66640E-02 6.66640E-02 3.67441E-10-1.79958E-01-2.64095E-11-2.64027E-11
 -1      5484 9.33395E-02 3.99885E-02-6.74109E-10-1.68422E-01 5.11066E-11 4.36853E-11
 -1      5485 1.22274E-01 1.10538E-02 3.67607E-10-1.71151E-01-3.01141E-11-2.19281E-11
 -1      5487 1.44079E-01-1.07513E-02-6.73849E-10-1.51936E-01 5.72631E-11 3.51089E-11
 -1      5488 1.72441E-01-3.91129E-02 3.67574E-10-1.45589E-01-3.32518E-11-1.69171E-11
 -1      5490 1.87241E-01-5.39132E-02-6.74141E-10-1.20577E-01 6.21639E-11 2.57263E-11
 -1      5491 2.12253E-01-7.89253E-02 3.67325E-10-1.05777E-01-3.55948E-11-1.15096E-11
 -1      5493 2.18600E-01-8.52721E-02-6.74280E-10-7.74153E-02 6.54819E-11 1.56915E-11
 -1      5494 2.37815E-01-1.04487E-01 3.67467E-10-5.56102E-02-3.68434E-11-5.82068E-12
 -1      5496 2.35086E-01-1.01758E-01-6.73891E-10-2.66755E-02 6.69423E-11 5.26492E-12
 -1      5498-8.90615E-02 2.22389E-01-5.65795E-10-2.46645E-02 4.20185E-12 5.33872E-11
 -1      5499-9.13211E-02 2.24649E-01 3.08231E-10-5.13325E-02-4.66306E-12-2.94478E-11
 -1      5501-7.38180E-02 2.07146E-01-5.65833E-10-7.15791E-02 1.24960E-11 5.20736E-11
 -1      5502-6.77262E-02 2.01054E-01 3.08261E-10-9.76402E-02-9.19601E-12-2.83900E-11
 -1      5504-4.48231E-02 1.78151E-01-5.65850E-10-1.11487E-01 2.04636E-11 4.94588E-11
 -1      5505-3.09762E-02 1.64304E-01 3.08319E-10-1.34390E-01-1.35267E-11-2.65959E-11
 -1      5507-4.91515E-03 1.38243E-01-5.65640E-10-1.40482E-01 2.79606E-11 4.56218E-11
 -1      5508 1.53315E-02 1.17996E-01 3.08253E-10-1.57985E-01-1.75869E-11-2.41463E-11
 -1      5510 4.19995E-02 9.13285E-02-5.65988E-10-1.55725E-01 3.48480E-11 4.07487E-11
 -1      5511 6.66640E-02 6.66640E-02 3.08156E-10-1.66115E-01-2.11268E-11-2.11180E-11
 -1      5513 9.13285E-02 4.19995E-02-5.65872E-10-1.55725E-01 4.06713E-11 3.47744E-11
 -1      5514 1.17996E-01 1.53315E-02 3.08392E-10-1.57985E-01-2.40162E-11-1.75218E-11
 -1      5516 1.38243E-01-4.91515E-03-5.65552E-10-1.40482E-01 4.55328E-11 2.79288E-11
 -1      5517 1.64304E-01-3.09762E-02 3.08330E-10-1.34390E-01-2.65907E-11-1.35164E-11
 -1      5519 1.78151E-01-4.48231E-02-5.65875E-10-1.11487E-01 4.95482E-11 2.04928E-11
 -1      5520 2.01054E-01-6.77262E-02 3.08048E-10-9.76402E-02-2.85127E-11-9.19596E-12
 -1      5522 2.07146E-01-7.38180E-02-5.66073E-10-7.15791E-02 5.22005E-11 1.24899E-11
 -1      5523 2.24649E-01-9.13211E-02 3.08214E-10-5.13325E-02-2.94635E-11-4.64689E-12
 -1      5525 2.22389E-01-8.90615E-02-5.65605E-10-2.46645E-02 5.32506E-11 4.19306E-12
 -1      5527-7.77477E-02 2.11076E-01-4.81377E-10-2.28726E-02 3.05569E-12 3.87807E-11
 -1      5528-7.96185E-02 2.12947E-01 2.58933E-10-4.75301E-02-3.72831E-12-2.35485E-11
 -1      5530-6.36116E-02 1.96940E-01-4.81418E-10-6.63788E-02 9.07996E-12 3.78315E-11
 -1      5531-5.77713E-02 1.91099E-01 2.58920E-10-9.04076E-02-7.33103E-12-2.26609E-11
 -1      5533-3.67233E-02 1.70051E-01-4.81451E-10-1.03387E-01 1.48557E-11 3.59659E-11
 -1      5534-2.37436E-02 1.57072E-01 2.59007E-10-1.24435E-01-1.08006E-11-2.12451E-11
 -1      5536 2.85235E-04 1.33043E-01-4.81189E-10-1.30276E-01 2.03125E-11 3.31415E-11
 -1      5537 1.91339E-02 1.14194E-01 2.58928E-10-1.46283E-01-1.40778E-11-1.92888E-11
 -1      5539 4.37914E-02 8.95365E-02-4.81595E-10-1.44412E-01 2.53892E-11 2.96428E-11
 -1      5540 6.66640E-02 6.66640E-02 2.58824E-10-1.53811E-01-1.68791E-11-1.68815E-11
 -1      5542 8.95365E-02 4.37914E-02-4.81470E-10-1.44412E-01 2.95396E-11 2.53079E-11
 -1      5543 1.14194E-01 1.91339E-02 2.59106E-10-1.46283E-01-1.91630E-11-1.39915E-11
 -1      5545 1.33043E-01 2.85234E-04-4.81095E-10-1.30276E-01 3.30072E-11 2.02685E-11
 -1      5546 1.57072E-01-2.37436E-02 2.59038E-10-1.24435E-01-2.12464E-11-1.07888E-11
 -1      5548 1.70051E-01-3.67233E-02-4.81472E-10-1.03387E-01 3.60440E-11 1.48998E-11
 -1      5549 1.91099E-01-5.77713E-02 2.58686E-10-9.04076E-02-2.28663E-11-7.34715E-12
 -1      5551 1.96940E-01-6.36116E-02-4.81689E-10-6.63788E-02 3.80381E-11 9.08178E-12
 -1      5552 2.12947E-01-7.96185E-02 2.58895E-10-4.75301E-02-2.35370E-11-3.71414E-12
 -1      5554 2.11076E-01-7.77477E-02-4.81166E-10-2.28726E-02 3.86288E-11 3.04825E-12
 -1      5556-6.76233E-02 2.00951E-01-4.08533E-10-2.12690E-02 2.48800E-12 3.15711E-11
 -1      5557-6.91698E-02 2.02498E-01 2.24222E-10-4.41351E-02-2.33881E-12-1.47555E-11
 -1      5559-5.44783E-02 1.87806E-01-4.08599E-10-6.17251E-02 7.39677E-12 3.08101E-11
 -1      5560-4.88831E-02 1.82211E-01 2.24194E-10-8.39499E-02-4.56525E-12-1.41967E-11
 -1      5562-2.94751E-02 1.62803E-01-4.08606E-10-9.61391E-02 1.20802E-11 2.92672E-11
 -1      5563-1.72859E-02 1.50614E-01 2.24308E-10-1.15547E-01-6.72973E-12-1.32754E-11
 -1      5565 4.93892E-03 1.28389E-01-4.08328E-10-1.21142E-01 1.65109E-11 2.69409E-11
 -1      5566 2.25289E-02 1.10799E-01 2.24198E-10-1.35834E-01-8.87472E-12-1.20876E-11
 -1      5568 4.53950E-02 8.79330E-02-4.08762E-10-1.34287E-01 2.07295E-11 2.41591E-11
 -1      5569 6.66640E-02 6.66640E-02 2.24058E-10-1.42824E-01-1.06048E-11-1.06083E-11
 -1      5571 8.79330E-02 4.53950E-02-4.08654E-10-1.34287E-01 2.40242E-11 2.06157E-11
 -1      5572 1.10799E-01 2.25289E-02 2.24414E-10-1.35834E-01-1.18816E-11-8.75269E-12
 -1      5574 1.28389E-01 4.93892E-03-4.08239E-10-1.21142E-01 2.67888E-11 1.64415E-11
 -1      5575 1.50614E-01-1.72859E-02 2.24344E-10-1.15547E-01-1.32899E-11-6.73120E-12
 -1      5577 1.62803E-01-2.94751E-02-4.08625E-10-9.61391E-02 2.93977E-11 1.21301E-11
 -1      5578 1.82211E-01-4.88831E-02 2.23915E-10-8.39499E-02-1.44909E-11-4.59485E-12
 -1      5580 1.87806E-01-5.44783E-02-4.08883E-10-6.17251E-02 3.10797E-11 7.38931E-12
 -1      5581 2.02498E-01-6.91698E-02 2.24146E-10-4.41351E-02-1.47457E-11-2.32918E-12
 -1      5583 2.00951E-01-6.76232E-02-4.08317E-10-2.12690E-02 3.13282E-11 2.49025E-12
 -1      5585-5.85272E-02 1.91855E-01-3.75920E-10-1.98283E-02-4.28916E-13-5.52015E-12
 -1      5586-5.98019E-02 1.93130E-01 1.84275E-10-4.10913E-02-2.81298E-12-1.77049E-11
 -1      5588-4.62726E-02 1.79601E-01-3.76004E-10-5.75441E-02-1.28837E-12-5.36319E-12
 -1      5589-4.09143E-02 1.74242E-01 1.84248E-10-7.81602E-02-5.48845E-12-1.70453E-11
 -1      5591-2.29630E-02 1.56291E-01-3.75946E-10-8.96270E-02-2.17292E-12-5.09864E-12
 -1      5592-1.14962E-02 1.44824E-01 1.84361E-10-1.07578E-01-8.06302E-12-1.59489E-11
 -1      5594 9.11993E-03 1.24208E-01-3.75788E-10-1.12937E-01-2.96920E-12-4.81277E-12
 -1      5595 2.55727E-02 1.07755E-01 1.84253E-10-1.26466E-01-1.06845E-11-1.44990E-11
 -1      5597 4.68357E-02 8.64923E-02-3.76124E-10-1.25191E-01-3.34488E-12-4.11394E-12
 -1      5598 6.66640E-02 6.66640E-02 1.84117E-10-1.32974E-01-1.27633E-11-1.27690E-11
 -1      5600 8.64923E-02 4.68357E-02-3.76044E-10-1.25191E-01-4.30114E-12-3.51007E-12
 -1      5601 1.07755E-01 2.55727E-02 1.84526E-10-1.26466E-01-1.42119E-11-1.05029E-11
 -1      5603 1.24208E-01 9.11993E-03-3.75681E-10-1.12937E-01-5.02599E-12-3.05264E-12
 -1      5604 1.44824E-01-1.14962E-02 1.84386E-10-1.07578E-01-1.59198E-11-8.06228E-12
 -1      5606 1.56291E-01-2.29630E-02-3.75993E-10-8.96270E-02-4.91850E-12-2.07705E-12
 -1      5607 1.74242E-01-4.09143E-02 1.83936E-10-7.81602E-02-1.74553E-11-5.52690E-12
 -1      5609 1.79601E-01-4.62726E-02-3.76209E-10-5.75441E-02-4.97335E-12-1.30462E-12
 -1      5610 1.93130E-01-5.98019E-02 1.84221E-10-4.10913E-02-1.77388E-11-2.80560E-12
 -1      5612 1.91855E-01-5.85272E-02-3.75758E-10-1.98283E-02-5.84946E-12-4.09921E-13
 -1      5614-5.03248E-02 1.83653E-01-2.93241E-10-1.85292E-02 2.82162E-12 3.57776E-11
 -1      5615-5.13709E-02 1.84699E-01 1.98888E-10-3.83518E-02 3.98230E-12 2.52293E-11
 -1      5617-3.88731E-02 1.72201E-01-2.93326E-10-5.37738E-02 8.39629E-12 3.49399E-11
 -1      5618-3.37425E-02 1.67070E-01 1.98891E-10-7.29496E-02 7.94405E-12 2.42936E-11
 -1      5620-1.70907E-02 1.50419E-01-2.93116E-10-8.37547E-02 1.36818E-11 3.31813E-11
 -1      5621-6.28556E-03 1.39614E-01 1.98988E-10-1.00406E-01 1.17269E-11 2.28186E-11
 -1      5623 1.28902E-02 1.20438E-01-2.93364E-10-1.05537E-01 1.86345E-11 3.04852E-11
 -1      5624 2.83121E-02 1.05016E-01 1.98850E-10-1.18035E-01 1.48159E-11 2.06865E-11
 -1      5626 4.81348E-02 8.51932E-02-2.93248E-10-1.16989E-01 2.36801E-11 2.74219E-11
 -1      5627 6.66640E-02 6.66640E-02 1.98732E-10-1.24109E-01 1.79375E-11 1.79105E-11
 -1      5629 8.51932E-02 4.81348E-02-2.93238E-10-1.16989E-01 2.71774E-11 2.34506E-11
 -1      5630 1.05016E-01 2.83121E-02 1.99174E-10-1.18035E-01 2.10658E-11 1.50651E-11
 -1      5632 1.20438E-01 1.28902E-02-2.93186E-10-1.05537E-01 3.01819E-11 1.84948E-11
 -1      5633 1.39614E-01-6.28556E-03 1.99009E-10-1.00406E-01 2.28414E-11 1.17077E-11
 -1      5635 1.50419E-01-1.70907E-02-2.93264E-10-8.37547E-02 3.33955E-11 1.38262E-11
 -1      5636 1.67070E-01-3.37425E-02 1.98522E-10-7.29496E-02 2.37485E-11 7.90074E-12
 -1      5638 1.72201E-01-3.88731E-02-2.93266E-10-5.37738E-02 3.54905E-11 8.35187E-12
 -1      5639 1.84699E-01-5.13709E-02 1.98818E-10-3.83518E-02 2.51742E-11 3.98244E-12
 -1      5641 1.83653E-01-5.03248E-02-2.93186E-10-1.85292E-02 3.53099E-11 2.88730E-12
 -1      5643-4.29027E-02 1.76231E-01-4.59003E-10-1.73537E-02-1.96739E-11-2.49897E-10
 -1      5644-4.37557E-02 1.77084E-01 7.95957E-11-3.58775E-02-1.14816E-11-7.23593E-11
 -1      5646-3.21776E-02 1.65506E-01-4.58937E-10-5.03623E-02-5.84793E-11-2.43690E-10
 -1      5647-2.72646E-02 1.60593E-01 7.97324E-11-6.82431E-02-2.25938E-11-6.97052E-11
 -1      5649-1.17771E-02 1.45105E-01-4.58522E-10-7.84411E-02-9.59941E-11-2.31609E-10
 -1      5650-1.57914E-03 1.34907E-01 7.96494E-11-9.39286E-02-3.30499E-11-6.51582E-11
 -1      5652 1.63017E-02 1.17026E-01-4.59805E-10-9.88416E-02-1.31175E-10-2.13841E-10
 -1      5653 3.07865E-02 1.02542E-01 7.94956E-11-1.10420E-01-4.33145E-11-5.92128E-11
 -1      5655 4.93103E-02 8.40177E-02-4.58351E-10-1.09567E-01-1.62256E-10-1.90483E-10
 -1      5656 6.66640E-02 6.66640E-02 7.96864E-11-1.16102E-01-5.20303E-11-5.20279E-11
 -1      5658 8.40177E-02 4.93103E-02-4.58694E-10-1.09567E-01-1.90781E-10-1.62576E-10
 -1      5659 1.02542E-01 3.07865E-02 7.98193E-11-1.10420E-01-5.87037E-11-4.29685E-11
 -1      5661 1.17026E-01 1.63017E-02-4.59822E-10-9.88416E-02-2.14262E-10-1.31349E-10
 -1      5662 1.34907E-01-1.57914E-03 7.95996E-11-9.39286E-02-6.50954E-11-3.31011E-11
 -1      5664 1.45105E-01-1.17771E-02-4.58834E-10-7.84411E-02-2.31292E-10-9.57123E-11
 -1      5665 1.60593E-01-2.72646E-02 7.93709E-11-6.82431E-02-7.04363E-11-2.26522E-11
 -1      5667 1.65506E-01-3.21776E-02-4.58118E-10-5.03623E-02-2.42929E-10-5.86278E-11
 -1      5668 1.77084E-01-4.37557E-02 7.96304E-11-3.58775E-02-7.24477E-11-1.14722E-11
 -1      5670 1.76231E-01-4.29027E-02-4.59604E-10-1.73537E-02-2.50483E-10-1.95374E-11
 -1      5672-3.61651E-02 1.69493E-01-4.26774E-11-1.62865E-02 3.18431E-11 4.05008E-10
 -1      5673-3.68545E-02 1.70182E-01 4.45038E-10-3.36352E-02 5.52248E-11 3.48842E-10
 -1      5675-2.60995E-02 1.59427E-01-4.21025E-11-4.72654E-02 9.48987E-11 3.95091E-10
 -1      5676-2.13941E-02 1.54722E-01 4.45397E-10-6.39779E-02 1.09167E-10 3.35839E-10
 -1      5678-6.95352E-03 1.40281E-01-4.16140E-11-7.36175E-02 1.55350E-10 3.75196E-10
 -1      5679 2.68606E-03 1.30642E-01 4.44860E-10-8.80581E-02 1.60698E-10 3.14856E-10
 -1      5681 1.93986E-02 1.13929E-01-4.47445E-11-9.27635E-02 2.11985E-10 3.46416E-10
 -1      5682 3.30288E-02 1.00299E-01 4.44805E-10-1.03518E-01 2.07259E-10 2.85806E-10
 -1      5684 5.03775E-02 8.29505E-02-4.03340E-11-1.02829E-01 2.64588E-10 3.08914E-10
 -1      5685 6.66640E-02 6.66640E-02 4.45462E-10-1.08846E-01 2.49372E-10 2.49394E-10
 -1      5687 8.29505E-02 5.03775E-02-4.13327E-11-1.02829E-01 3.08520E-10 2.64195E-10
 -1      5688 1.00299E-01 3.30288E-02 4.45241E-10-1.03518E-01 2.86530E-10 2.07751E-10
 -1      5690 1.13929E-01 1.93986E-02-4.51468E-11-9.27635E-02 3.45837E-10 2.11700E-10
 -1      5691 1.30642E-01 2.68606E-03 4.44694E-10-8.80581E-02 3.14992E-10 1.60547E-10
 -1      5693 1.40281E-01-6.95352E-03-4.17304E-11-7.36175E-02 3.75627E-10 1.55844E-10
 -1      5694 1.54722E-01-2.13941E-02 4.45123E-10-6.39779E-02 3.34797E-10 1.09077E-10
 -1      5696 1.59427E-01-2.60995E-02-3.92473E-11-4.72654E-02 3.95963E-10 9.45531E-11
 -1      5697 1.70182E-01-3.68545E-02 4.45156E-10-3.36352E-02 3.48661E-10 5.52281E-11
 -1      5699 1.69493E-01-3.61651E-02-4.41843E-11-1.62865E-02 4.04245E-10 3.22169E-11
 -1      5701-3.00303E-02 1.63358E-01-1.64369E-09-1.53149E-02-1.84382E-10-2.34222E-09
 -1      5702-3.05806E-02 1.63909E-01-5.93394E-10-3.15967E-02-1.37293E-10-8.66468E-10
 -1      5704-2.05652E-02 1.53893E-01-1.64201E-09-4.44455E-02-5.48290E-10-2.28463E-09
 -1      5705-1.60572E-02 1.49385E-01-5.92746E-10-6.01005E-02-2.71171E-10-8.34359E-10
 -1      5707-2.56148E-03 1.35889E-01-1.64256E-09-6.92255E-02-8.99183E-10-2.17103E-09
 -1      5708 6.56351E-03 1.26764E-01-5.94443E-10-8.27212E-02-3.97687E-10-7.81400E-10
 -1      5710 2.22185E-02 1.11109E-01-1.64858E-09-8.72292E-02-1.22788E-09-2.00270E-09
 -1      5711 3.50673E-02 9.82607E-02-5.93862E-10-9.72446E-02-5.16106E-10-7.09643E-10
 -1      5713 5.13491E-02 8.19789E-02-1.63687E-09-9.66943E-02-1.52500E-09-1.78719E-09
 -1      5714 6.66640E-02 6.66640E-02-5.91242E-10-1.02249E-01-6.20962E-10-6.20672E-10
 -1      5716 8.19789E-02 5.13491E-02-1.64158E-09-9.66943E-02-1.78705E-09-1.52575E-09
 -1      5717 9.82607E-02 3.50673E-02-5.95023E-10-9.72446E-02-7.08594E-10-5.15250E-10
 -1      5719 1.11109E-01 2.22185E-02-1.65295E-09-8.72292E-02-2.00329E-09-1.22795E-09
 -1      5720 1.26764E-01 6.56351E-03-5.95007E-10-8.27212E-02-7.80966E-10-3.98127E-10
 -1      5722 1.35889E-01-2.56149E-03-1.64065E-09-6.92255E-02-2.17051E-09-8.98145E-10
 -1      5723 1.49385E-01-1.60572E-02-5.91483E-10-6.01005E-02-8.35884E-10-2.71258E-10
 -1      5725 1.53893E-01-2.05652E-02-1.63364E-09-4.44455E-02-2.28381E-09-5.49573E-10
 -1      5726 1.63909E-01-3.05806E-02-5.92802E-10-3.15967E-02-8.66646E-10-1.36937E-10
 -1      5728 1.63358E-01-3.00303E-02-1.65103E-09-1.53149E-02-2.34247E-09-1.84158E-10
 -1      5730-2.44285E-02 1.57756E-01 1.56515E-09-1.44276E-02 3.83336E-10 4.87357E-09
 -1      5731-2.48604E-02 1.58188E-01 2.89724E-09-2.97381E-02 5.62333E-10 3.55092E-09
 -1      5733-1.55117E-02 1.48840E-01 1.56810E-09-4.18706E-02 1.14120E-09 4.75309E-09
 -1      5734-1.11913E-02 1.44519E-01 2.89780E-09-5.65652E-02 1.11089E-09 3.41919E-09
 -1      5736 1.44899E-03 1.31879E-01 1.56426E-09-6.52150E-02 1.87005E-09 4.51612E-09
 -1      5737 1.00988E-02 1.23229E-01 2.89456E-09-7.78553E-02 1.63327E-09 3.20354E-09
 -1      5739 2.47934E-02 1.08535E-01 1.55674E-09-8.21757E-02 2.55396E-09 4.17060E-09
 -1      5740 3.69259E-02 9.64021E-02 2.89765E-09-9.15244E-02 2.11242E-09 2.90868E-09
 -1      5742 5.22364E-02 8.10916E-02 1.57899E-09-9.10925E-02 3.17498E-09 3.71472E-09
 -1      5743 6.66640E-02 6.66640E-02 2.90049E-09-9.62344E-02 2.54108E-09 2.54114E-09
 -1      5745 8.10916E-02 5.22364E-02 1.56773E-09-9.10925E-02 3.71482E-09 3.17661E-09
 -1      5746 9.64021E-02 3.69259E-02 2.89518E-09-9.15244E-02 2.91020E-09 2.11346E-09
 -1      5748 1.08535E-01 2.47934E-02 1.54547E-09-8.21757E-02 4.17088E-09 2.55496E-09
 -1      5749 1.23229E-01 1.00988E-02 2.89392E-09-7.78553E-02 3.20380E-09 1.63246E-09
 -1      5751 1.31879E-01 1.44898E-03 1.57335E-09-6.52150E-02 4.51562E-09 1.87146E-09
 -1      5752 1.44519E-01-1.11913E-02 2.90244E-09-5.65652E-02 3.41655E-09 1.11064E-09
 -1      5754 1.48840E-01-1.55117E-02 1.58794E-09-4.18706E-02 4.75114E-09 1.13956E-09
 -1      5755 1.58188E-01-2.48604E-02 2.89844E-09-2.97381E-02 3.55001E-09 5.62153E-10
 -1      5757 1.57756E-01-2.44285E-02 1.55072E-09-1.44276E-02 4.87520E-09 3.86176E-10
 -1      5759-1.92997E-02 1.52628E-01-9.81380E-09-1.36153E-02-1.59086E-09-2.02185E-08
 -1      5760-1.96303E-02 1.52958E-01-6.45117E-09-2.80387E-02-1.51667E-09-9.57186E-09
 -1      5762-1.08850E-02 1.44213E-01-9.81086E-09-3.95132E-02-4.73284E-09-1.97226E-08
 -1      5763-6.74234E-03 1.40070E-01-6.45242E-09-5.33328E-02-2.99544E-09-9.21613E-09
 -1      5765 5.12079E-03 1.28207E-01-9.82164E-09-6.15432E-02-7.75972E-09-1.87382E-08
 -1      5766 1.33312E-02 1.19997E-01-6.45950E-09-7.34063E-02-4.39790E-09-8.63407E-09
 -1      5768 2.71508E-02 1.06177E-01-9.82482E-09-7.75490E-02-1.05948E-08-1.72878E-08
 -1      5769 3.86253E-02 9.47027E-02-6.45144E-09-8.62943E-02-5.69714E-09-7.84003E-09
 -1      5771 5.30487E-02 8.02793E-02-9.78030E-09-8.59637E-02-1.31728E-08-1.54323E-08
 -1      5772 6.66640E-02 6.66640E-02-6.44157E-09-9.07352E-02-6.85444E-09-6.85111E-09
 -1      5774 8.02793E-02 5.30487E-02-9.81715E-09-8.59637E-02-1.54203E-08-1.31760E-08
 -1      5775 9.47027E-02 3.86253E-02-6.47341E-09-8.62943E-02-7.83701E-09-5.69389E-09
 -1      5777 1.06177E-01 2.71508E-02-9.86325E-09-7.75490E-02-1.72823E-08-1.05910E-08
 -1      5778 1.19997E-01 1.33312E-02-6.46370E-09-7.34063E-02-8.63087E-09-4.40086E-09
 -1      5780 1.28207E-01 5.12078E-03-9.78763E-09-6.15432E-02-1.87435E-08-7.75905E-09
 -1      5781 1.40070E-01-6.74234E-03-6.43471E-09-5.33328E-02-9.21896E-09-2.99502E-09
 -1      5783 1.44213E-01-1.08850E-02-9.75944E-09-3.95132E-02-1.97315E-08-4.74553E-09
 -1      5784 1.52958E-01-1.96303E-02-6.45146E-09-2.80387E-02-9.57053E-09-1.51186E-09
 -1      5786 1.52628E-01-1.92997E-02-9.86048E-09-1.36153E-02-2.02083E-08-1.59507E-09
 -1      5788-1.45919E-02 1.47920E-01 6.01448E-09-1.28697E-02 3.19036E-09 4.05583E-08
 -1      5789-1.48365E-02 1.48165E-01 2.23989E-08-2.64811E-02 5.34860E-09 3.37676E-08
 -1      5791-6.63800E-03 1.39966E-01 6.01272E-09-3.73492E-02 9.49366E-09 3.95575E-08
 -1      5792-2.66451E-03 1.35992E-01 2.23942E-08-5.03701E-02 1.05676E-08 3.25145E-08
 -1      5794 8.49119E-03 1.24837E-01 6.00053E-09-5.81727E-02 1.55606E-08 3.75954E-08
 -1      5795 1.62939E-02 1.17034E-01 2.23956E-08-6.93285E-02 1.55259E-08 3.04593E-08
 -1      5797 2.93147E-02 1.04013E-01 6.02448E-09-7.33019E-02 2.12577E-08 3.47037E-08
 -1      5798 4.01829E-02 9.31451E-02 2.24187E-08-8.15005E-02 2.00913E-08 2.76593E-08
 -1      5800 5.37943E-02 7.95336E-02 6.05462E-09-8.12558E-02 2.64032E-08 3.09069E-08
 -1      5801 6.66640E-02 6.66640E-02 2.24057E-08-8.56947E-02 2.41741E-08 2.41643E-08
 -1      5803 7.95336E-02 5.37943E-02 6.00520E-09-8.12558E-02 3.09112E-08 2.64584E-08
 -1      5804 9.31451E-02 4.01829E-02 2.24014E-08-8.15005E-02 2.76613E-08 2.00873E-08
 -1      5806 1.04013E-01 2.93147E-02 5.96929E-09-7.33019E-02 3.47382E-08 2.12797E-08
 -1      5807 1.17034E-01 1.62939E-02 2.24046E-08-6.93285E-02 3.04515E-08 1.55263E-08
 -1      5809 1.24837E-01 8.49118E-03 6.05169E-09-5.81727E-02 3.75703E-08 1.55495E-08
 -1      5810 1.35992E-01-2.66451E-03 2.24398E-08-5.03701E-02 3.25042E-08 1.05645E-08
 -1      5812 1.39966E-01-6.63800E-03 6.06964E-09-3.73492E-02 3.95064E-08 9.50228E-09
 -1      5813 1.48165E-01-1.48365E-02 2.24116E-08-2.64811E-02 3.37572E-08 5.33166E-09
 -1      5815 1.47920E-01-1.45919E-02 5.95964E-09-1.28697E-02 4.06108E-08 3.23821E-09
 -1      5817-1.02614E-02 1.43590E-01-5.62764E-08-1.21838E-02-1.09036E-08-1.38630E-07
 -1      5818-1.04297E-02 1.43758E-01-4.47047E-08-2.50493E-02-1.36798E-08-8.63242E-08
 -1      5820-2.73141E-03 1.36060E-01-5.63047E-08-3.53589E-02-3.24463E-08-1.35220E-07
 -1      5821 1.08419E-03 1.32244E-01-4.47108E-08-4.76465E-02-2.70161E-08-8.31154E-08
 -1      5823 1.15915E-02 1.21737E-01-5.63297E-08-5.50727E-02-5.31836E-08-1.28459E-07
 -1      5824 1.90175E-02 1.14311E-01-4.47087E-08-6.55798E-02-3.96849E-08-7.78708E-08
 -1      5826 3.13054E-02 1.02023E-01-5.63201E-08-6.93957E-02-7.26267E-08-1.18556E-07
 -1      5827 4.16148E-02 9.17133E-02-4.46942E-08-7.70937E-02-5.13850E-08-7.07025E-08
 -1      5829 5.44804E-02 7.88481E-02-5.63849E-08-7.69257E-02-9.03346E-08-1.05826E-07
 -1      5830 6.66640E-02 6.66640E-02-4.46750E-08-8.10611E-02-6.18123E-08-6.17609E-08
 -1      5832 7.88481E-02 5.44804E-02-5.63910E-08-7.69257E-02-1.05651E-07-9.03716E-08
 -1      5833 9.17133E-02 4.16148E-02-4.48141E-08-7.70937E-02-7.06983E-08-5.13421E-08
 -1      5835 1.02023E-01 3.13054E-02-5.63516E-08-6.93957E-02-1.18457E-07-7.25798E-08
 -1      5836 1.14311E-01 1.90175E-02-4.47417E-08-6.55798E-02-7.78384E-08-3.96821E-08
 -1      5838 1.21737E-01 1.15915E-02-5.63676E-08-5.50727E-02-1.28561E-07-5.32274E-08
 -1      5839 1.32244E-01 1.08418E-03-4.46686E-08-4.76465E-02-8.30949E-08-2.69909E-08
 -1      5841 1.36060E-01-2.73141E-03-5.63473E-08-3.53589E-02-1.35353E-07-3.25811E-08
 -1      5842 1.43758E-01-1.04297E-02-4.47448E-08-2.50493E-02-8.62813E-08-1.36191E-08
 -1      5844 1.43590E-01-1.02614E-02-5.62490E-08-1.21838E-02-1.38509E-07-1.10029E-08
 -1      5846-6.26451E-03 1.39590E-01-2.29514E-07-1.15505E-02 1.07694E-10 1.55856E-09
 -1      5847-6.37771E-03 1.39705E-01 1.41812E-07-2.37326E-02 4.26869E-08 2.69444E-07
 -1      5849 8.74112E-04 1.32451E-01-2.29539E-07-3.35210E-02 3.32416E-10 1.54824E-09
 -1      5850 4.53099E-03 1.28797E-01 1.41783E-07-4.51422E-02 8.43410E-08 2.59439E-07
 -1      5852 1.44526E-02 1.18873E-01-2.29500E-07-5.22101E-02 5.44584E-10 1.56084E-09
 -1      5853 2.15217E-02 1.11806E-01 1.41797E-07-6.21329E-02 1.23843E-07 2.43049E-07
 -1      5855 3.31417E-02 1.00184E-01-2.29557E-07-6.57886E-02 8.83306E-10 1.31333E-09
 -1      5856 4.29312E-02 9.03965E-02 1.41751E-07-7.30416E-02 1.60347E-07 2.20785E-07
 -1      5858 5.51122E-02 7.82132E-02-2.29859E-07-7.29272E-02 8.74637E-10 9.80423E-10
 -1      5859 6.66638E-02 6.66638E-02 1.41601E-07-7.68004E-02 1.93114E-07 1.92722E-07
 -1      5861 7.82132E-02 5.51122E-02-2.29398E-07-7.29272E-02 8.49197E-10 1.77805E-09
 -1      5862 9.03965E-02 4.29312E-02 1.41967E-07-7.30416E-02 2.20733E-07 1.60084E-07
 -1      5864 1.00184E-01 3.31417E-02-2.28977E-07-6.57886E-02 1.89946E-09 8.73960E-10
 -1      5865 1.11806E-01 2.15217E-02 1.41804E-07-6.21329E-02 2.42836E-07 1.23971E-07
 -1      5867 1.18873E-01 1.44526E-02-2.29614E-07-5.22101E-02 1.26777E-09 3.78370E-11
 -1      5868 1.28797E-01 4.53098E-03 1.41622E-07-4.51422E-02 2.59457E-07 8.42554E-08
 -1      5870 1.32451E-01 8.74110E-04-2.29647E-07-3.35210E-02 8.93219E-10 7.86334E-10
 -1      5871 1.39705E-01-6.37772E-03 1.41827E-07-2.37326E-02 2.69292E-07 4.21302E-08
 -1      5873 1.39590E-01-6.26451E-03-2.28506E-07-1.15505E-02 2.18301E-09 1.08318E-09
 -1      5875-2.58875E-03 1.35919E-01 1.78573E-07-1.09687E-02 2.57648E-08 3.27415E-07
 -1      5876-2.60943E-03 1.35939E-01 2.59211E-08-2.25086E-02-6.02892E-08-3.81032E-07
 -1      5878 4.19029E-03 1.29140E-01 1.78721E-07-3.18324E-02 7.66840E-08 3.19356E-07
 -1      5879 7.73665E-03 1.25593E-01 2.58819E-08-4.28139E-02-1.19243E-07-3.66994E-07
 -1      5881 1.70848E-02 1.16245E-01 1.79003E-07-4.95802E-02 1.25808E-07 3.03370E-07
 -1      5882 2.38510E-02 1.09479E-01 2.56780E-08-5.89283E-02-1.75304E-07-3.43924E-07
 -1      5884 3.48325E-02 9.84974E-02 1.79165E-07-6.24747E-02 1.71782E-07 2.79465E-07
 -1      5885 4.41564E-02 8.91736E-02 2.54146E-08-6.92744E-02-2.26845E-07-3.12264E-07
 -1      5887 5.56962E-02 7.76336E-02 1.78797E-07-6.92537E-02 2.12977E-07 2.48816E-07
 -1      5888 6.66650E-02 6.66650E-02 2.58806E-08-7.28394E-02-2.73437E-07-2.72155E-07
 -1      5890 7.76337E-02 5.56962E-02 1.78961E-07-6.92537E-02 2.49852E-07 2.13293E-07
 -1      5891 8.91736E-02 4.41564E-02 2.60844E-08-6.92744E-02-3.12637E-07-2.26034E-07
 -1      5893 9.84974E-02 3.48325E-02 1.79048E-07-6.24747E-02 2.80855E-07 1.70892E-07
 -1      5894 1.09479E-01 2.38511E-02 2.59496E-08-5.89283E-02-3.43624E-07-1.75185E-07
 -1      5896 1.16245E-01 1.70848E-02 1.77954E-07-4.95802E-02 3.02266E-07 1.23867E-07
 -1      5897 1.25593E-01 7.73664E-03 2.57745E-08-4.28139E-02-3.66629E-07-1.18387E-07
 -1      5899 1.29140E-01 4.19028E-03 1.77028E-07-3.18324E-02 3.17549E-07 7.63372E-08
 -1      5900 1.35939E-01-2.60944E-03 2.69169E-08-2.25086E-02-3.80323E-07-5.84385E-08
 -1      5902 1.35919E-01-2.58874E-03 1.77257E-07-1.09687E-02 3.28430E-07 2.64101E-08
 -1      5904 1.04979E-03 1.32277E-01-1.31227E-07-2.13191E-02 2.41971E-08 1.55517E-07
 -1      5906 1.08491E-02 1.22477E-01-1.30765E-07-4.05514E-02 4.77405E-08 1.49637E-07
 -1      5908 2.61119E-02 1.07215E-01-1.29255E-07-5.58142E-02 7.04729E-08 1.40398E-07
 -1      5910 4.53442E-02 8.79824E-02-1.26828E-07-6.56135E-02 9.22940E-08 1.28611E-07
 -1      5912 6.66633E-02 6.66633E-02-1.28440E-07-6.89901E-02 1.11120E-07 1.13361E-07
 -1      5914 8.79825E-02 4.53442E-02-1.31833E-07-6.56135E-02 1.26967E-07 9.39245E-08
 -1      5916 1.07215E-01 2.61119E-02-1.27773E-07-5.58142E-02 1.43343E-07 7.32300E-08
 -1      5918 1.22477E-01 1.08491E-02-1.23629E-07-4.05514E-02 1.57006E-07 5.14419E-08
 -1      5920 1.32277E-01 1.04978E-03-1.32617E-07-2.13191E-02 1.62044E-07 2.68455E-08
 -1      5923-7.78701E-01 9.12033E-01 9.96983E-08-2.74676E-01-4.49621E-07-2.83880E-06
 -1      5924-7.78701E-01 9.12033E-01 7.99148E-07-2.74676E-01-1.40745E-07-8.88632E-07
 -1      5925-7.78701E-01 9.12033E-01 1.18584E-06-2.74676E-01-4.47473E-08-2.82523E-07
 -1      5926-7.78701E-01 9.12033E-01 1.26544E-06-2.74676E-01-1.75202E-08-1.10618E-07
 -1      5927-7.78701E-01 9.12033E-01 1.25256E-06-2.74676E-01-5.05279E-09-3.19022E-08
 -1      5928-7.78701E-01 9.12033E-01 1.25256E-06-2.74676E-01 5.05278E-09 3.19022E-08
 -1      5929-7.78701E-01 9.12033E-01 1.26544E-06-2.74676E-01 1.75202E-08 1.10619E-07
 -1      5930-7.78701E-01 9.12033E-01 1.18584E-06-2.74676E-01 4.47473E-08 2.82523E-07
 -1      5931-7.78701E-01 9.12033E-01 7.99148E-07-2.74676E-01 1.40745E-07 8.88632E-07
 -1      5932-7.78701E-01 9.12033E-01 9.96983E-08-2.74676E-01 4.49621E-07 2.83880E-06
 -1      5933-6.52446E-01 7.85778E-01 9.96885E-08-5.22465E-01-8.88170E-07-2.73352E-06
 -1      5934-6.52446E-01 7.85778E-01 7.99143E-07-5.22465E-01-2.78025E-07-8.55673E-07
 -1      5935-6.52446E-01 7.85778E-01 1.18584E-06-5.22466E-01-8.83915E-08-2.72044E-07
 -1      5936-6.52446E-01 7.85778E-01 1.26544E-06-5.22466E-01-3.46080E-08-1.06516E-07
 -1      5937-6.52446E-01 7.85778E-01 1.25256E-06-5.22466E-01-9.98081E-09-3.07190E-08
 -1      5938-6.52446E-01 7.85778E-01 1.25256E-06-5.22466E-01 9.98080E-09 3.07190E-08
 -1      5939-6.52446E-01 7.85778E-01 1.26544E-06-5.22466E-01 3.46079E-08 1.06516E-07
 -1      5940-6.52446E-01 7.85778E-01 1.18584E-06-5.22466E-01 8.83915E-08 2.72044E-07
 -1      5941-6.52446E-01 7.85778E-01 7.99143E-07-5.22465E-01 2.78025E-07 8.55673E-07
 -1      5942-6.52446E-01 7.85778E-01 9.96885E-08-5.22465E-01 8.88170E-07 2.73352E-06
 -1      5943-4.55800E-01 5.89131E-01 9.97091E-08-7.19112E-01-1.30485E-06-2.56092E-06
 -1      5944-4.55799E-01 5.89132E-01 7.99153E-07-7.19112E-01-4.08463E-07-8.01649E-07
 -1      5945-4.55800E-01 5.89132E-01 1.18585E-06-7.19112E-01-1.29864E-07-2.54870E-07
 -1      5946-4.55800E-01 5.89131E-01 1.26544E-06-7.19112E-01-5.08471E-08-9.97923E-08
 -1      5947-4.55800E-01 5.89131E-01 1.25256E-06-7.19112E-01-1.46643E-08-2.87801E-08
 -1      5948-4.55800E-01 5.89131E-01 1.25256E-06-7.19112E-01 1.46643E-08 2.87801E-08
 -1      5949-4.55800E-01 5.89131E-01 1.26544E-06-7.19112E-01 5.08471E-08 9.97922E-08
 -1      5950-4.55800E-01 5.89132E-01 1.18585E-06-7.19112E-01 1.29864E-07 2.54870E-07
 -1      5951-4.55799E-01 5.89132E-01 7.99153E-07-7.19112E-01 4.08463E-07 8.01649E-07
 -1      5952-4.55800E-01 5.89131E-01 9.97091E-08-7.19112E-01 1.30485E-06 2.56092E-06
 -1      5953-2.08011E-01 3.41342E-01 9.96927E-08-8.45367E-01-1.68939E-06-2.32529E-06
 -1      5954-2.08010E-01 3.41342E-01 7.99124E-07-8.45367E-01-5.28830E-07-7.27882E-07
 -1      5955-2.08010E-01 3.41342E-01 1.18583E-06-8.45367E-01-1.68132E-07-2.31413E-07
 -1      5956-2.08010E-01 3.41342E-01 1.26542E-06-8.45367E-01-6.58294E-08-9.06061E-08
 -1      5957-2.08011E-01 3.41342E-01 1.25255E-06-8.45367E-01-1.89852E-08-2.61306E-08
 -1      5958-2.08011E-01 3.41342E-01 1.25255E-06-8.45367E-01 1.89851E-08 2.61307E-08
 -1      5959-2.08010E-01 3.41342E-01 1.26542E-06-8.45367E-01 6.58295E-08 9.06061E-08
 -1      5960-2.08010E-01 3.41342E-01 1.18583E-06-8.45367E-01 1.68132E-07 2.31413E-07
 -1      5961-2.08010E-01 3.41342E-01 7.99124E-07-8.45367E-01 5.28830E-07 7.27883E-07
 -1      5962-2.08011E-01 3.41342E-01 9.96927E-08-8.45367E-01 1.68939E-06 2.32529E-06
 -1      5963 6.66657E-02 6.66657E-02 9.96408E-08-8.88871E-01-2.03241E-06-2.03239E-06
 -1      5964 6.66661E-02 6.66661E-02 7.99181E-07-8.88871E-01-6.36205E-07-6.36211E-07
 -1      5965 6.66660E-02 6.66660E-02 1.18587E-06-8.88871E-01-2.02271E-07-2.02270E-07
 -1      5966 6.66659E-02 6.66659E-02 1.26547E-06-8.88871E-01-7.91986E-08-7.91966E-08
 -1      5967 6.66659E-02 6.66659E-02 1.25260E-06-8.88871E-01-2.28412E-08-2.28401E-08
 -1      5968 6.66659E-02 6.66659E-02 1.25260E-06-8.88871E-01 2.28412E-08 2.28401E-08
 -1      5969 6.66659E-02 6.66659E-02 1.26547E-06-8.88871E-01 7.91985E-08 7.91966E-08
 -1      5970 6.66660E-02 6.66660E-02 1.18587E-06-8.88871E-01 2.02271E-07 2.02270E-07
 -1      5971 6.66661E-02 6.66661E-02 7.99181E-07-8.88871E-01 6.36205E-07 6.36211E-07
 -1      5972 6.66657E-02 6.66657E-02 9.96408E-08-8.88871E-01 2.03241E-06 2.03239E-06
 -1      5973 3.41342E-01-2.08011E-01 1.00059E-07-8.45367E-01-2.32507E-06-1.68938E-06
 -1      5974 3.41342E-01-2.08010E-01 7.99196E-07-8.45367E-01-7.27806E-07-5.28864E-07
 -1      5975 3.41342E-01-2.08010E-01 1.18581E-06-8.45367E-01-2.31394E-07-1.68126E-07
 -1      5976 3.41342E-01-2.08010E-01 1.26540E-06-8.45367E-01-9.05903E-08-6.58095E-08
 -1      5977 3.41342E-01-2.08011E-01 1.25253E-06-8.45367E-01-2.61243E-08-1.89760E-08
 -1      5978 3.41342E-01-2.08011E-01 1.25253E-06-8.45367E-01 2.61243E-08 1.89760E-08
 -1      5979 3.41342E-01-2.08010E-01 1.26540E-06-8.45367E-01 9.05903E-08 6.58095E-08
 -1      5980 3.41342E-01-2.08010E-01 1.18581E-06-8.45367E-01 2.31394E-07 1.68126E-07
 -1      5981 3.41342E-01-2.08010E-01 7.99196E-07-8.45367E-01 7.27806E-07 5.28864E-07
 -1      5982 3.41342E-01-2.08011E-01 1.00059E-07-8.45367E-01 2.32507E-06 1.68938E-06
 -1      5983 5.89131E-01-4.55800E-01 9.73778E-08-7.19112E-01-2.56170E-06-1.30518E-06
 -1      5984 5.89132E-01-4.55799E-01 7.98275E-07-7.19112E-01-8.01616E-07-4.08377E-07
 -1      5985 5.89132E-01-4.55800E-01 1.18580E-06-7.19112E-01-2.54657E-07-1.29747E-07
 -1      5986 5.89131E-01-4.55800E-01 1.26567E-06-7.19112E-01-9.96625E-08-5.07871E-08
 -1      5987 5.89131E-01-4.55800E-01 1.25288E-06-7.19112E-01-2.87375E-08-1.46462E-08
 -1      5988 5.89131E-01-4.55800E-01 1.25288E-06-7.19112E-01 2.87375E-08 1.46463E-08
 -1      5989 5.89131E-01-4.55800E-01 1.26567E-06-7.19112E-01 9.96625E-08 5.07871E-08
 -1      5990 5.89132E-01-4.55800E-01 1.18580E-06-7.19112E-01 2.54657E-07 1.29747E-07
 -1      5991 5.89132E-01-4.55799E-01 7.98275E-07-7.19112E-01 8.01616E-07 4.08377E-07
 -1      5992 5.89131E-01-4.55800E-01 9.73778E-08-7.19112E-01 2.56170E-06 1.30518E-06
 -1      5993 7.85778E-01-6.52446E-01 1.02022E-07-5.22465E-01-2.73271E-06-8.87847E-07
 -1      5994 7.85778E-01-6.52446E-01 8.00025E-07-5.22465E-01-8.55751E-07-2.77989E-07
 -1      5995 7.85778E-01-6.52446E-01 1.18589E-06-5.22466E-01-2.72272E-07-8.84609E-08
 -1      5996 7.85778E-01-6.52446E-01 1.26520E-06-5.22466E-01-1.06645E-07-3.46580E-08
 -1      5997 7.85778E-01-6.52446E-01 1.25224E-06-5.22466E-01-3.07602E-08-9.99841E-09
 -1      5998 7.85778E-01-6.52446E-01 1.25224E-06-5.22466E-01 3.07602E-08 9.99840E-09
 -1      5999 7.85778E-01-6.52446E-01 1.26520E-06-5.22466E-01 1.06645E-07 3.46580E-08
 -1      6000 7.85778E-01-6.52446E-01 1.18589E-06-5.22466E-01 2.72272E-07 8.84609E-08
 -1      6001 7.85778E-01-6.52446E-01 8.00025E-07-5.22465E-01 8.55751E-07 2.77989E-07
 -1      6002 7.85778E-01-6.52446E-01 1.02022E-07-5.22465E-01 2.73271E-06 8.87847E-07
 -1      6003 9.12033E-01-7.78701E-01 9.93270E-08-2.74676E-01-2.83894E-06-4.49711E-07
 -1      6004 9.12033E-01-7.78701E-01 7.99120E-07-2.74676E-01-8.88665E-07-1.40811E-07
 -1      6005 9.12033E-01-7.78701E-01 1.18589E-06-2.74676E-01-2.82542E-07-4.47575E-08
 -1      6006 9.12033E-01-7.78701E-01 1.26549E-06-2.74676E-01-1.10646E-07-1.75181E-08
 -1      6007 9.12033E-01-7.78701E-01 1.25261E-06-2.74676E-01-3.19136E-08-5.05119E-09
 -1      6008 9.12033E-01-7.78701E-01 1.25261E-06-2.74676E-01 3.19136E-08 5.05117E-09
 -1      6009 9.12033E-01-7.78701E-01 1.26549E-06-2.74676E-01 1.10646E-07 1.75181E-08
 -1      6010 9.12033E-01-7.78701E-01 1.18589E-06-2.74676E-01 2.82542E-07 4.47575E-08
 -1      6011 9.12033E-01-7.78701E-01 7.99120E-07-2.74676E-01 8.88665E-07 1.40811E-07
 -1      6012 9.12033E-01-7.78701E-01 9.93269E-08-2.74676E-01 2.83894E-06 4.49711E-07
 -1      6013-6.43922E-01 7.77259E-01 2.55871E-06-2.30885E-01 3.18440E-07 2.01055E-06
 -1      6014-6.43923E-01 7.77259E-01 2.98367E-06-2.30885E-01 1.41861E-07 8.95673E-07
 -1      6015-6.43923E-01 7.77259E-01 2.97072E-06-2.30885E-01 5.36186E-08 3.38532E-07
 -1      6016-6.43923E-01 7.77259E-01 2.86501E-06-2.30885E-01 2.17158E-08 1.37107E-07
 -1      6017-6.43923E-01 7.77259E-01 2.81657E-06-2.30885E-01 6.14944E-09 3.88258E-08
 -1      6018-6.43923E-01 7.77259E-01 2.81657E-06-2.30885E-01-6.14945E-09-3.88258E-08
 -1      6019-6.43923E-01 7.77259E-01 2.86501E-06-2.30885E-01-2.17158E-08-1.37107E-07
 -1      6020-6.43923E-01 7.77259E-01 2.97072E-06-2.30885E-01-5.36186E-08-3.38532E-07
 -1      6021-6.43923E-01 7.77259E-01 2.98367E-06-2.30885E-01-1.41861E-07-8.95673E-07
 -1      6022-6.43922E-01 7.77259E-01 2.55871E-06-2.30885E-01-3.18440E-07-2.01055E-06
 -1      6023-5.37796E-01 6.71133E-01 2.55871E-06-4.39169E-01 6.29038E-07 1.93598E-06
 -1      6024-5.37796E-01 6.71133E-01 2.98367E-06-4.39169E-01 2.80228E-07 8.62454E-07
 -1      6025-5.37796E-01 6.71133E-01 2.97072E-06-4.39169E-01 1.05916E-07 3.25976E-07
 -1      6026-5.37796E-01 6.71133E-01 2.86501E-06-4.39169E-01 4.28965E-08 1.32021E-07
 -1      6027-5.37796E-01 6.71133E-01 2.81657E-06-4.39169E-01 1.21474E-08 3.73856E-08
 -1      6028-5.37796E-01 6.71133E-01 2.81657E-06-4.39169E-01-1.21474E-08-3.73856E-08
 -1      6029-5.37796E-01 6.71133E-01 2.86501E-06-4.39169E-01-4.28965E-08-1.32021E-07
 -1      6030-5.37796E-01 6.71133E-01 2.97072E-06-4.39169E-01-1.05916E-07-3.25976E-07
 -1      6031-5.37796E-01 6.71133E-01 2.98367E-06-4.39169E-01-2.80229E-07-8.62454E-07
 -1      6032-5.37796E-01 6.71133E-01 2.55871E-06-4.39169E-01-6.29038E-07-1.93598E-06
 -1      6033-3.72500E-01 5.05838E-01 2.55871E-06-6.04464E-01 9.24147E-07 1.81374E-06
 -1      6034-3.72501E-01 5.05838E-01 2.98367E-06-6.04465E-01 4.11695E-07 8.07999E-07
 -1      6035-3.72501E-01 5.05838E-01 2.97072E-06-6.04465E-01 1.55606E-07 3.05394E-07
 -1      6036-3.72501E-01 5.05838E-01 2.86501E-06-6.04465E-01 6.30212E-08 1.23686E-07
 -1      6037-3.72501E-01 5.05838E-01 2.81657E-06-6.04465E-01 1.78462E-08 3.50252E-08
 -1      6038-3.72501E-01 5.05838E-01 2.81657E-06-6.04465E-01-1.78463E-08-3.50252E-08
 -1      6039-3.72501E-01 5.05838E-01 2.86501E-06-6.04465E-01-6.30213E-08-1.23686E-07
 -1      6040-3.72501E-01 5.05838E-01 2.97072E-06-6.04465E-01-1.55606E-07-3.05394E-07
 -1      6041-3.72501E-01 5.05838E-01 2.98367E-06-6.04465E-01-4.11695E-07-8.07999E-07
 -1      6042-3.72500E-01 5.05838E-01 2.55871E-06-6.04464E-01-9.24147E-07-1.81374E-06
 -1      6043-1.64216E-01 2.97554E-01 2.55869E-06-7.10591E-01 1.19650E-06 1.64685E-06
 -1      6044-1.64217E-01 2.97553E-01 2.98366E-06-7.10591E-01 5.33025E-07 7.33646E-07
 -1      6045-1.64217E-01 2.97553E-01 2.97071E-06-7.10591E-01 2.01464E-07 2.77290E-07
 -1      6046-1.64217E-01 2.97553E-01 2.86500E-06-7.10591E-01 8.15936E-08 1.12303E-07
 -1      6047-1.64217E-01 2.97553E-01 2.81655E-06-7.10591E-01 2.31056E-08 3.18017E-08
 -1      6048-1.64217E-01 2.97553E-01 2.81655E-06-7.10591E-01-2.31056E-08-3.18017E-08
 -1      6049-1.64217E-01 2.97553E-01 2.86500E-06-7.10591E-01-8.15936E-08-1.12303E-07
 -1      6050-1.64217E-01 2.97553E-01 2.97071E-06-7.10591E-01-2.01464E-07-2.77290E-07
 -1      6051-1.64217E-01 2.97553E-01 2.98366E-06-7.10591E-01-5.33025E-07-7.33646E-07
 -1      6052-1.64216E-01 2.97554E-01 2.55869E-06-7.10591E-01-1.19650E-06-1.64685E-06
 -1      6053 6.66689E-02 6.66689E-02 2.55871E-06-7.47159E-01 1.43939E-06 1.43938E-06
 -1      6054 6.66683E-02 6.66683E-02 2.98367E-06-7.47160E-01 6.41231E-07 6.41240E-07
 -1      6055 6.66683E-02 6.66683E-02 2.97073E-06-7.47160E-01 2.42359E-07 2.42362E-07
 -1      6056 6.66683E-02 6.66683E-02 2.86503E-06-7.47160E-01 9.81549E-08 9.81569E-08
 -1      6057 6.66683E-02 6.66683E-02 2.81658E-06-7.47160E-01 2.77954E-08 2.77959E-08
 -1      6058 6.66683E-02 6.66683E-02 2.81658E-06-7.47160E-01-2.77953E-08-2.77959E-08
 -1      6059 6.66683E-02 6.66683E-02 2.86503E-06-7.47160E-01-9.81549E-08-9.81569E-08
 -1      6060 6.66683E-02 6.66683E-02 2.97073E-06-7.47160E-01-2.42359E-07-2.42362E-07
 -1      6061 6.66683E-02 6.66683E-02 2.98367E-06-7.47160E-01-6.41231E-07-6.41240E-07
 -1      6062 6.66689E-02 6.66689E-02 2.55871E-06-7.47159E-01-1.43939E-06-1.43938E-06
 -1      6063 2.97554E-01-1.64216E-01 2.55855E-06-7.10591E-01 1.64687E-06 1.19649E-06
 -1      6064 2.97553E-01-1.64217E-01 2.98350E-06-7.10591E-01 7.33647E-07 5.32955E-07
 -1      6065 2.97553E-01-1.64217E-01 2.97052E-06-7.10591E-01 2.77307E-07 2.01418E-07
 -1      6066 2.97553E-01-1.64217E-01 2.86480E-06-7.10591E-01 1.12314E-07 8.15640E-08
 -1      6067 2.97553E-01-1.64217E-01 2.81636E-06-7.10591E-01 3.18052E-08 2.30953E-08
 -1      6068 2.97553E-01-1.64217E-01 2.81636E-06-7.10591E-01-3.18052E-08-2.30953E-08
 -1      6069 2.97553E-01-1.64217E-01 2.86480E-06-7.10591E-01-1.12314E-07-8.15640E-08
 -1      6070 2.97553E-01-1.64217E-01 2.97052E-06-7.10591E-01-2.77307E-07-2.01418E-07
 -1      6071 2.97553E-01-1.64217E-01 2.98350E-06-7.10591E-01-7.33647E-07-5.32955E-07
 -1      6072 2.97554E-01-1.64216E-01 2.55855E-06-7.10591E-01-1.64687E-06-1.19649E-06
 -1      6073 5.05838E-01-3.72500E-01 2.55859E-06-6.04464E-01 1.81357E-06 9.24108E-07
 -1      6074 5.05838E-01-3.72501E-01 2.98335E-06-6.04465E-01 8.07901E-07 4.11712E-07
 -1      6075 5.05838E-01-3.72501E-01 2.97042E-06-6.04465E-01 3.05247E-07 1.55585E-07
 -1      6076 5.05838E-01-3.72501E-01 2.86474E-06-6.04465E-01 1.23600E-07 6.30119E-08
 -1      6077 5.05838E-01-3.72501E-01 2.81631E-06-6.04465E-01 3.49993E-08 1.78448E-08
 -1      6078 5.05838E-01-3.72501E-01 2.81631E-06-6.04465E-01-3.49993E-08-1.78447E-08
 -1      6079 5.05838E-01-3.72501E-01 2.86474E-06-6.04465E-01-1.23600E-07-6.30119E-08
 -1      6080 5.05838E-01-3.72501E-01 2.97042E-06-6.04465E-01-3.05247E-07-1.55585E-07
 -1      6081 5.05838E-01-3.72501E-01 2.98335E-06-6.04465E-01-8.07901E-07-4.11712E-07
 -1      6082 5.05838E-01-3.72500E-01 2.55859E-06-6.04464E-01-1.81357E-06-9.24108E-07
 -1      6083 6.71133E-01-5.37796E-01 2.55882E-06-4.39169E-01 1.93613E-06 6.29128E-07
 -1      6084 6.71133E-01-5.37796E-01 2.98399E-06-4.39169E-01 8.62512E-07 2.80308E-07
 -1      6085 6.71133E-01-5.37796E-01 2.97102E-06-4.39169E-01 3.26097E-07 1.06006E-07
 -1      6086 6.71133E-01-5.37796E-01 2.86529E-06-4.39169E-01 1.32090E-07 4.29509E-08
 -1      6087 6.71133E-01-5.37796E-01 2.81683E-06-4.39169E-01 3.74053E-08 1.21648E-08
 -1      6088 6.71133E-01-5.37796E-01 2.81683E-06-4.39169E-01-3.74054E-08-1.21648E-08
 -1      6089 6.71133E-01-5.37796E-01 2.86529E-06-4.39169E-01-1.32090E-07-4.29509E-08
 -1      6090 6.71133E-01-5.37796E-01 2.97102E-06-4.39169E-01-3.26097E-07-1.06006E-07
 -1      6091 6.71133E-01-5.37796E-01 2.98399E-06-4.39169E-01-8.62512E-07-2.80308E-07
 -1      6092 6.71133E-01-5.37796E-01 2.55882E-06-4.39169E-01-1.93613E-06-6.29128E-07
 -1      6093 7.77259E-01-6.43922E-01 2.55888E-06-2.30885E-01 2.01053E-06 3.18408E-07
 -1      6094 7.77259E-01-6.43923E-01 2.98385E-06-2.30885E-01 8.95727E-07 1.41811E-07
 -1      6095 7.77259E-01-6.43923E-01 2.97093E-06-2.30885E-01 3.38557E-07 5.35758E-08
 -1      6096 7.77259E-01-6.43923E-01 2.86523E-06-2.30885E-01 1.37123E-07 2.16886E-08
 -1      6097 7.77259E-01-6.43923E-01 2.81679E-06-2.30885E-01 3.88314E-08 6.14039E-09
 -1      6098 7.77259E-01-6.43923E-01 2.81679E-06-2.30885E-01-3.88315E-08-6.14040E-09
 -1      6099 7.77259E-01-6.43923E-01 2.86523E-06-2.30885E-01-1.37123E-07-2.16886E-08
 -1      6100 7.77259E-01-6.43923E-01 2.97093E-06-2.30885E-01-3.38557E-07-5.35758E-08
 -1      6101 7.77259E-01-6.43923E-01 2.98385E-06-2.30885E-01-8.95727E-07-1.41811E-07
 -1      6102 7.77259E-01-6.43922E-01 2.55888E-06-2.30885E-01-2.01053E-06-3.18408E-07
 -1      6103-5.39164E-01 6.72489E-01-6.69970E-07-1.96845E-01-1.04028E-07-6.56810E-07
 -1      6104-5.39163E-01 6.72489E-01-8.65811E-07-1.96845E-01-6.16748E-08-3.89400E-07
 -1      6105-5.39163E-01 6.72489E-01-8.54202E-07-1.96845E-01-1.98259E-08-1.25176E-07
 -1      6106-5.39163E-01 6.72489E-01-7.89480E-07-1.96845E-01-2.88063E-09-1.81878E-08
 -1      6107-5.39163E-01 6.72489E-01-7.42319E-07-1.96845E-01 1.46256E-10 9.23289E-10
 -1      6108-5.39163E-01 6.72489E-01-7.42319E-07-1.96845E-01-1.46251E-10-9.23322E-10
 -1      6109-5.39163E-01 6.72489E-01-7.89480E-07-1.96845E-01 2.88061E-09 1.81878E-08
 -1      6110-5.39163E-01 6.72489E-01-8.54202E-07-1.96845E-01 1.98259E-08 1.25176E-07
 -1      6111-5.39163E-01 6.72489E-01-8.65811E-07-1.96845E-01 6.16748E-08 3.89400E-07
 -1      6112-5.39164E-01 6.72489E-01-6.69970E-07-1.96845E-01 1.04028E-07 6.56810E-07
 -1      6113-4.48684E-01 5.82009E-01-6.69970E-07-3.74421E-01-2.05495E-07-6.32450E-07
 -1      6114-4.48684E-01 5.82009E-01-8.65811E-07-3.74421E-01-1.21831E-07-3.74958E-07
 -1      6115-4.48683E-01 5.82009E-01-8.54202E-07-3.74421E-01-3.91639E-08-1.20534E-07
 -1      6116-4.48683E-01 5.82009E-01-7.89480E-07-3.74421E-01-5.69048E-09-1.75134E-08
 -1      6117-4.48683E-01 5.82009E-01-7.42319E-07-3.74421E-01 2.88859E-10 8.89030E-10
 -1      6118-4.48683E-01 5.82009E-01-7.42319E-07-3.74421E-01-2.88874E-10-8.88965E-10
 -1      6119-4.48683E-01 5.82009E-01-7.89480E-07-3.74421E-01 5.69047E-09 1.75135E-08
 -1      6120-4.48683E-01 5.82009E-01-8.54202E-07-3.74421E-01 3.91639E-08 1.20534E-07
 -1      6121-4.48684E-01 5.82009E-01-8.65811E-07-3.74421E-01 1.21831E-07 3.74958E-07
 -1      6122-4.48684E-01 5.82009E-01-6.69970E-07-3.74421E-01 2.05495E-07 6.32450E-07
 -1      6123-3.07759E-01 4.41084E-01-6.69969E-07-5.15346E-01-3.01901E-07-5.92518E-07
 -1      6124-3.07758E-01 4.41084E-01-8.65810E-07-5.15346E-01-1.78987E-07-3.51283E-07
 -1      6125-3.07758E-01 4.41084E-01-8.54201E-07-5.15346E-01-5.75371E-08-1.12923E-07
 -1      6126-3.07758E-01 4.41084E-01-7.89479E-07-5.15346E-01-8.36002E-09-1.64076E-08
 -1      6127-3.07758E-01 4.41084E-01-7.42318E-07-5.15346E-01 4.24392E-10 8.32848E-10
 -1      6128-3.07758E-01 4.41084E-01-7.42318E-07-5.15346E-01-4.24406E-10-8.32902E-10
 -1      6129-3.07758E-01 4.41084E-01-7.89479E-07-5.15346E-01 8.36001E-09 1.64076E-08
 -1      6130-3.07758E-01 4.41084E-01-8.54201E-07-5.15346E-01 5.75370E-08 1.12923E-07
 -1      6131-3.07758E-01 4.41084E-01-8.65810E-07-5.15346E-01 1.78987E-07 3.51283E-07
 -1      6132-3.07759E-01 4.41084E-01-6.69969E-07-5.15346E-01 3.01901E-07 5.92518E-07
 -1      6133-1.30182E-01 2.63507E-01-6.69967E-07-6.05826E-01-3.90877E-07-5.37997E-07
 -1      6134-1.30182E-01 2.63508E-01-8.65808E-07-6.05826E-01-2.31738E-07-3.18960E-07
 -1      6135-1.30182E-01 2.63508E-01-8.54199E-07-6.05826E-01-7.44942E-08-1.02533E-07
 -1      6136-1.30182E-01 2.63508E-01-7.89477E-07-6.05826E-01-1.08240E-08-1.48982E-08
 -1      6137-1.30182E-01 2.63508E-01-7.42316E-07-6.05826E-01 5.49377E-10 7.56065E-10
 -1      6138-1.30182E-01 2.63508E-01-7.42316E-07-6.05826E-01-5.49374E-10-7.56056E-10
 -1      6139-1.30182E-01 2.63508E-01-7.89477E-07-6.05826E-01 1.08240E-08 1.48983E-08
 -1      6140-1.30182E-01 2.63508E-01-8.54199E-07-6.05826E-01 7.44943E-08 1.02533E-07
 -1      6141-1.30182E-01 2.63508E-01-8.65808E-07-6.05826E-01 2.31738E-07 3.18960E-07
 -1      6142-1.30182E-01 2.63507E-01-6.69967E-07-6.05826E-01 3.90877E-07 5.37997E-07
 -1      6143 6.66626E-02 6.66626E-02-6.69961E-07-6.37003E-01-4.70221E-07-4.70221E-07
 -1      6144 6.66628E-02 6.66628E-02-8.65799E-07-6.37003E-01-2.78775E-07-2.78781E-07
 -1      6145 6.66629E-02 6.66629E-02-8.54193E-07-6.37003E-01-8.96154E-08-8.96187E-08
 -1      6146 6.66629E-02 6.66629E-02-7.89473E-07-6.37003E-01-1.30205E-08-1.30224E-08
 -1      6147 6.66629E-02 6.66629E-02-7.42313E-07-6.37003E-01 6.61211E-10 6.60579E-10
 -1      6148 6.66629E-02 6.66629E-02-7.42313E-07-6.37003E-01-6.61184E-10-6.60561E-10
 -1      6149 6.66629E-02 6.66629E-02-7.89473E-07-6.37003E-01 1.30204E-08 1.30224E-08
 -1      6150 6.66629E-02 6.66629E-02-8.54193E-07-6.37003E-01 8.96154E-08 8.96187E-08
 -1      6151 6.66628E-02 6.66628E-02-8.65799E-07-6.37003E-01 2.78775E-07 2.78781E-07
 -1      6152 6.66626E-02 6.66626E-02-6.69961E-07-6.37003E-01 4.70221E-07 4.70221E-07
 -1      6153 2.63507E-01-1.30182E-01-6.69940E-07-6.05826E-01-5.38009E-07-3.90891E-07
 -1      6154 2.63508E-01-1.30182E-01-8.65793E-07-6.05826E-01-3.18975E-07-2.31751E-07
 -1      6155 2.63508E-01-1.30182E-01-8.54186E-07-6.05826E-01-1.02538E-07-7.45095E-08
 -1      6156 2.63508E-01-1.30182E-01-7.89465E-07-6.05826E-01-1.49028E-08-1.08373E-08
 -1      6157 2.63508E-01-1.30182E-01-7.42305E-07-6.05826E-01 7.54209E-10 5.44418E-10
 -1      6158 2.63508E-01-1.30182E-01-7.42305E-07-6.05826E-01-7.54247E-10-5.44408E-10
 -1      6159 2.63508E-01-1.30182E-01-7.89465E-07-6.05826E-01 1.49029E-08 1.08373E-08
 -1      6160 2.63508E-01-1.30182E-01-8.54186E-07-6.05826E-01 1.02538E-07 7.45095E-08
 -1      6161 2.63508E-01-1.30182E-01-8.65793E-07-6.05826E-01 3.18975E-07 2.31751E-07
 -1      6162 2.63507E-01-1.30182E-01-6.69940E-07-6.05826E-01 5.38009E-07 3.90891E-07
 -1      6163 4.41084E-01-3.07759E-01-6.70009E-07-5.15346E-01-5.92502E-07-3.01894E-07
 -1      6164 4.41084E-01-3.07758E-01-8.65787E-07-5.15346E-01-3.51298E-07-1.78989E-07
 -1      6165 4.41084E-01-3.07758E-01-8.54177E-07-5.15346E-01-1.12969E-07-5.75475E-08
 -1      6166 4.41084E-01-3.07758E-01-7.89474E-07-5.15346E-01-1.64325E-08-8.36206E-09
 -1      6167 4.41084E-01-3.07758E-01-7.42320E-07-5.15346E-01 8.24853E-10 4.24213E-10
 -1      6168 4.41084E-01-3.07758E-01-7.42320E-07-5.15346E-01-8.24803E-10-4.24193E-10
 -1      6169 4.41084E-01-3.07758E-01-7.89474E-07-5.15346E-01 1.64325E-08 8.36209E-09
 -1      6170 4.41084E-01-3.07758E-01-8.54177E-07-5.15346E-01 1.12969E-07 5.75475E-08
 -1      6171 4.41084E-01-3.07758E-01-8.65787E-07-5.15346E-01 3.51298E-07 1.78989E-07
 -1      6172 4.41084E-01-3.07759E-01-6.70009E-07-5.15346E-01 5.92501E-07 3.01894E-07
 -1      6173 5.82009E-01-4.48684E-01-6.69932E-07-3.74421E-01-6.32465E-07-2.05499E-07
 -1      6174 5.82009E-01-4.48684E-01-8.65835E-07-3.74421E-01-3.74945E-07-1.21820E-07
 -1      6175 5.82009E-01-4.48683E-01-8.54227E-07-3.74421E-01-1.20494E-07-3.91382E-08
 -1      6176 5.82009E-01-4.48683E-01-7.89486E-07-3.74421E-01-1.74940E-08-5.67398E-09
 -1      6177 5.82009E-01-4.48683E-01-7.42319E-07-3.74421E-01 8.94958E-10 2.94533E-10
 -1      6178 5.82009E-01-4.48683E-01-7.42319E-07-3.74421E-01-8.94930E-10-2.94540E-10
 -1      6179 5.82009E-01-4.48683E-01-7.89486E-07-3.74421E-01 1.74940E-08 5.67396E-09
 -1      6180 5.82009E-01-4.48683E-01-8.54227E-07-3.74421E-01 1.20494E-07 3.91382E-08
 -1      6181 5.82009E-01-4.48684E-01-8.65835E-07-3.74421E-01 3.74945E-07 1.21820E-07
 -1      6182 5.82009E-01-4.48684E-01-6.69932E-07-3.74421E-01 6.32465E-07 2.05499E-07
 -1      6183 6.72489E-01-5.39164E-01-6.70004E-07-1.96845E-01-6.56783E-07-1.04027E-07
 -1      6184 6.72489E-01-5.39163E-01-8.65832E-07-1.96845E-01-3.89375E-07-6.16728E-08
 -1      6185 6.72489E-01-5.39163E-01-8.54220E-07-1.96845E-01-1.25160E-07-1.98323E-08
 -1      6186 6.72489E-01-5.39163E-01-7.89498E-07-1.96845E-01-1.81740E-08-2.88624E-09
 -1      6187 6.72489E-01-5.39163E-01-7.42336E-07-1.96845E-01 9.28563E-10 1.44177E-10
 -1      6188 6.72489E-01-5.39163E-01-7.42336E-07-1.96845E-01-9.28566E-10-1.44195E-10
 -1      6189 6.72489E-01-5.39163E-01-7.89498E-07-1.96845E-01 1.81740E-08 2.88623E-09
 -1      6190 6.72489E-01-5.39163E-01-8.54220E-07-1.96845E-01 1.25160E-07 1.98323E-08
 -1      6191 6.72489E-01-5.39163E-01-8.65832E-07-1.96845E-01 3.89375E-07 6.16728E-08
 -1      6192 6.72489E-01-5.39164E-01-6.70004E-07-1.96845E-01 6.56783E-07 1.04027E-07
 -1      6193-4.55915E-01 5.89244E-01 1.85047E-07-1.69796E-01 2.70614E-08 1.70859E-07
 -1      6194-4.55915E-01 5.89244E-01 2.28692E-07-1.69796E-01 1.46914E-08 9.27580E-08
 -1      6195-4.55915E-01 5.89244E-01 1.98252E-07-1.69796E-01 5.37741E-09 3.39514E-08
 -1      6196-4.55915E-01 5.89244E-01 1.77620E-07-1.69796E-01 5.32846E-11 3.36308E-10
 -1      6197-4.55915E-01 5.89244E-01 1.64836E-07-1.69796E-01-5.15882E-10-3.25720E-09
 -1      6198-4.55915E-01 5.89244E-01 1.64836E-07-1.69796E-01 5.15882E-10 3.25721E-09
 -1      6199-4.55915E-01 5.89244E-01 1.77620E-07-1.69796E-01-5.32817E-11-3.36279E-10
 -1      6200-4.55915E-01 5.89244E-01 1.98252E-07-1.69796E-01-5.37741E-09-3.39514E-08
 -1      6201-4.55915E-01 5.89244E-01 2.28692E-07-1.69796E-01-1.46914E-08-9.27580E-08
 -1      6202-4.55915E-01 5.89244E-01 1.85047E-07-1.69796E-01-2.70614E-08-1.70859E-07
 -1      6203-3.77868E-01 5.11197E-01 1.85047E-07-3.22972E-01 5.34564E-08 1.64523E-07
 -1      6204-3.77868E-01 5.11197E-01 2.28692E-07-3.22972E-01 2.90210E-08 8.93178E-08
 -1      6205-3.77868E-01 5.11197E-01 1.98252E-07-3.22972E-01 1.06223E-08 3.26922E-08
 -1      6206-3.77868E-01 5.11197E-01 1.77620E-07-3.22972E-01 1.05223E-10 3.23798E-10
 -1      6207-3.77868E-01 5.11197E-01 1.64836E-07-3.22972E-01-1.01908E-09-3.13637E-09
 -1      6208-3.77868E-01 5.11197E-01 1.64836E-07-3.22972E-01 1.01909E-09 3.13645E-09
 -1      6209-3.77868E-01 5.11197E-01 1.77620E-07-3.22972E-01-1.05211E-10-3.23815E-10
 -1      6210-3.77868E-01 5.11197E-01 1.98252E-07-3.22972E-01-1.06223E-08-3.26922E-08
 -1      6211-3.77868E-01 5.11197E-01 2.28692E-07-3.22972E-01-2.90210E-08-8.93178E-08
 -1      6212-3.77868E-01 5.11197E-01 1.85046E-07-3.22972E-01-5.34564E-08-1.64523E-07
 -1      6213-2.56308E-01 3.89636E-01 1.85046E-07-4.44533E-01 7.85352E-08 1.54135E-07
 -1      6214-2.56308E-01 3.89636E-01 2.28691E-07-4.44533E-01 4.26360E-08 8.36781E-08
 -1      6215-2.56308E-01 3.89636E-01 1.98251E-07-4.44533E-01 1.56057E-08 3.06279E-08
 -1      6216-2.56308E-01 3.89636E-01 1.77620E-07-4.44533E-01 1.54522E-10 3.03270E-10
 -1      6217-2.56308E-01 3.89636E-01 1.64836E-07-4.44533E-01-1.49719E-09-2.93842E-09
 -1      6218-2.56308E-01 3.89636E-01 1.64836E-07-4.44533E-01 1.49717E-09 2.93840E-09
 -1      6219-2.56308E-01 3.89636E-01 1.77620E-07-4.44533E-01-1.54552E-10-3.03286E-10
 -1      6220-2.56308E-01 3.89636E-01 1.98251E-07-4.44533E-01-1.56057E-08-3.06279E-08
 -1      6221-2.56308E-01 3.89636E-01 2.28691E-07-4.44533E-01-4.26360E-08-8.36782E-08
 -1      6222-2.56308E-01 3.89636E-01 1.85046E-07-4.44533E-01-7.85352E-08-1.54135E-07
 -1      6223-1.03132E-01 2.36461E-01 1.85045E-07-5.22580E-01 1.01681E-07 1.39952E-07
 -1      6224-1.03132E-01 2.36461E-01 2.28690E-07-5.22580E-01 5.52011E-08 7.59783E-08
 -1      6225-1.03132E-01 2.36461E-01 1.98250E-07-5.22580E-01 2.02048E-08 2.78097E-08
 -1      6226-1.03132E-01 2.36461E-01 1.77618E-07-5.22580E-01 1.99995E-10 2.75345E-10
 -1      6227-1.03132E-01 2.36461E-01 1.64834E-07-5.22580E-01-1.93844E-09-2.66801E-09
 -1      6228-1.03132E-01 2.36461E-01 1.64834E-07-5.22580E-01 1.93844E-09 2.66802E-09
 -1      6229-1.03132E-01 2.36461E-01 1.77618E-07-5.22580E-01-2.00008E-10-2.75362E-10
 -1      6230-1.03132E-01 2.36461E-01 1.98250E-07-5.22580E-01-2.02047E-08-2.78097E-08
 -1      6231-1.03132E-01 2.36461E-01 2.28690E-07-5.22580E-01-5.52011E-08-7.59783E-08
 -1      6232-1.03132E-01 2.36461E-01 1.85045E-07-5.22580E-01-1.01681E-07-1.39952E-07
 -1      6233 6.66643E-02 6.66643E-02 1.85042E-07-5.49473E-01 1.22322E-07 1.22320E-07
 -1      6234 6.66643E-02 6.66643E-02 2.28685E-07-5.49473E-01 6.64071E-08 6.64055E-08
 -1      6235 6.66642E-02 6.66642E-02 1.98246E-07-5.49473E-01 2.43060E-08 2.43046E-08
 -1      6236 6.66642E-02 6.66642E-02 1.77614E-07-5.49473E-01 2.40750E-10 2.39660E-10
 -1      6237 6.66643E-02 6.66643E-02 1.64830E-07-5.49473E-01-2.33197E-09-2.33228E-09
 -1      6238 6.66643E-02 6.66643E-02 1.64830E-07-5.49473E-01 2.33191E-09 2.33232E-09
 -1      6239 6.66642E-02 6.66642E-02 1.77614E-07-5.49473E-01-2.40681E-10-2.39687E-10
 -1      6240 6.66642E-02 6.66642E-02 1.98246E-07-5.49473E-01-2.43060E-08-2.43045E-08
 -1      6241 6.66643E-02 6.66643E-02 2.28685E-07-5.49473E-01-6.64071E-08-6.64055E-08
 -1      6242 6.66643E-02 6.66643E-02 1.85042E-07-5.49473E-01-1.22322E-07-1.22320E-07
 -1      6243 2.36461E-01-1.03132E-01 1.85043E-07-5.22580E-01 1.39947E-07 1.01676E-07
 -1      6244 2.36461E-01-1.03132E-01 2.28688E-07-5.22580E-01 7.59742E-08 5.51947E-08
 -1      6245 2.36461E-01-1.03132E-01 1.98243E-07-5.22580E-01 2.78068E-08 2.01998E-08
 -1      6246 2.36461E-01-1.03132E-01 1.77610E-07-5.22580E-01 2.71911E-10 1.95702E-10
 -1      6247 2.36461E-01-1.03132E-01 1.64824E-07-5.22580E-01-2.66915E-09-1.93992E-09
 -1      6248 2.36461E-01-1.03132E-01 1.64824E-07-5.22580E-01 2.66919E-09 1.93993E-09
 -1      6249 2.36461E-01-1.03132E-01 1.77610E-07-5.22580E-01-2.71948E-10-1.95682E-10
 -1      6250 2.36461E-01-1.03132E-01 1.98243E-07-5.22580E-01-2.78068E-08-2.01998E-08
 -1      6251 2.36461E-01-1.03132E-01 2.28688E-07-5.22580E-01-7.59741E-08-5.51947E-08
 -1      6252 2.36461E-01-1.03132E-01 1.85043E-07-5.22580E-01-1.39947E-07-1.01676E-07
 -1      6253 3.89636E-01-2.56308E-01 1.85059E-07-4.44533E-01 1.54135E-07 7.85403E-08
 -1      6254 3.89636E-01-2.56308E-01 2.28689E-07-4.44533E-01 8.36704E-08 4.26366E-08
 -1      6255 3.89636E-01-2.56308E-01 1.98246E-07-4.44533E-01 3.06156E-08 1.56032E-08
 -1      6256 3.89636E-01-2.56308E-01 1.77612E-07-4.44533E-01 2.99186E-10 1.55014E-10
 -1      6257 3.89636E-01-2.56308E-01 1.64828E-07-4.44533E-01-2.94051E-09-1.49734E-09
 -1      6258 3.89636E-01-2.56308E-01 1.64828E-07-4.44533E-01 2.94052E-09 1.49733E-09
 -1      6259 3.89636E-01-2.56308E-01 1.77612E-07-4.44533E-01-2.99166E-10-1.55005E-10
 -1      6260 3.89636E-01-2.56308E-01 1.98246E-07-4.44533E-01-3.06156E-08-1.56032E-08
 -1      6261 3.89636E-01-2.56308E-01 2.28689E-07-4.44533E-01-8.36704E-08-4.26366E-08
 -1      6262 3.89636E-01-2.56308E-01 1.85060E-07-4.44533E-01-1.54136E-07-7.85403E-08
 -1      6263 5.11197E-01-3.77868E-01 1.85034E-07-3.22972E-01 1.64518E-07 5.34591E-08
 -1      6264 5.11197E-01-3.77868E-01 2.28695E-07-3.22972E-01 8.93230E-08 2.90269E-08
 -1      6265 5.11197E-01-3.77868E-01 1.98258E-07-3.22972E-01 3.27030E-08 1.06294E-08
 -1      6266 5.11197E-01-3.77868E-01 1.77630E-07-3.22972E-01 3.26596E-10 1.08536E-10
 -1      6267 5.11197E-01-3.77868E-01 1.64846E-07-3.22972E-01-3.13477E-09-1.01767E-09
 -1      6268 5.11197E-01-3.77868E-01 1.64846E-07-3.22972E-01 3.13478E-09 1.01766E-09
 -1      6269 5.11197E-01-3.77868E-01 1.77630E-07-3.22972E-01-3.26577E-10-1.08535E-10
 -1      6270 5.11197E-01-3.77868E-01 1.98258E-07-3.22972E-01-3.27030E-08-1.06294E-08
 -1      6271 5.11197E-01-3.77868E-01 2.28695E-07-3.22972E-01-8.93230E-08-2.90269E-08
 -1      6272 5.11197E-01-3.77868E-01 1.85034E-07-3.22972E-01-1.64518E-07-5.34591E-08
 -1      6273 5.89244E-01-4.55915E-01 1.85052E-07-1.69796E-01 1.70865E-07 2.70609E-08
 -1      6274 5.89244E-01-4.55915E-01 2.28698E-07-1.69796E-01 9.27657E-08 1.46893E-08
 -1      6275 5.89244E-01-4.55915E-01 1.98263E-07-1.69796E-01 3.39572E-08 5.37571E-09
 -1      6276 5.89244E-01-4.55915E-01 1.77633E-07-1.69796E-01 3.42139E-10 5.25957E-11
 -1      6277 5.89244E-01-4.55915E-01 1.64851E-07-1.69796E-01-3.25520E-09-5.16147E-10
 -1      6278 5.89244E-01-4.55915E-01 1.64851E-07-1.69796E-01 3.25520E-09 5.16135E-10
 -1      6279 5.89244E-01-4.55915E-01 1.77633E-07-1.69796E-01-3.42131E-10-5.25980E-11
 -1      6280 5.89244E-01-4.55915E-01 1.98263E-07-1.69796E-01-3.39572E-08-5.37571E-09
 -1      6281 5.89244E-01-4.55915E-01 2.28698E-07-1.69796E-01-9.27657E-08-1.46893E-08
 -1      6282 5.89244E-01-4.55915E-01 1.85052E-07-1.69796E-01-1.70865E-07-2.70609E-08
 -1      6283-3.88716E-01 5.22044E-01-6.10629E-08-1.47962E-01-9.52337E-09-6.01284E-08
 -1      6284-3.88716E-01 5.22044E-01-7.67734E-08-1.47962E-01-4.08536E-09-2.57941E-08
 -1      6285-3.88716E-01 5.22044E-01-6.38635E-08-1.47962E-01-1.28386E-09-8.10601E-09
 -1      6286-3.88716E-01 5.22044E-01-5.63418E-08-1.47962E-01-3.36035E-10-2.12167E-09
 -1      6287-3.88716E-01 5.22044E-01-5.41979E-08-1.47962E-01 2.63280E-12 1.66129E-11
 -1      6288-3.88716E-01 5.22044E-01-5.41979E-08-1.47962E-01-2.62990E-12-1.65942E-11
 -1      6289-3.88716E-01 5.22044E-01-5.63418E-08-1.47962E-01 3.36031E-10 2.12165E-09
 -1      6290-3.88716E-01 5.22044E-01-6.38635E-08-1.47962E-01 1.28385E-09 8.10598E-09
 -1      6291-3.88716E-01 5.22044E-01-7.67734E-08-1.47962E-01 4.08536E-09 2.57941E-08
 -1      6292-3.88716E-01 5.22044E-01-6.10629E-08-1.47962E-01 9.52337E-09 6.01285E-08
 -1      6293-3.20705E-01 4.54033E-01-6.10630E-08-2.81440E-01-1.88123E-08-5.78984E-08
 -1      6294-3.20705E-01 4.54033E-01-7.67733E-08-2.81440E-01-8.07014E-09-2.48374E-08
 -1      6295-3.20705E-01 4.54033E-01-6.38634E-08-2.81440E-01-2.53611E-09-7.80538E-09
 -1      6296-3.20705E-01 4.54033E-01-5.63417E-08-2.81440E-01-6.63809E-10-2.04292E-09
 -1      6297-3.20705E-01 4.54033E-01-5.41978E-08-2.81440E-01 5.19795E-12 1.60048E-11
 -1      6298-3.20705E-01 4.54033E-01-5.41978E-08-2.81440E-01-5.19270E-12-1.60303E-11
 -1      6299-3.20705E-01 4.54033E-01-5.63417E-08-2.81440E-01 6.63787E-10 2.04297E-09
 -1      6300-3.20705E-01 4.54033E-01-6.38634E-08-2.81440E-01 2.53611E-09 7.80537E-09
 -1      6301-3.20705E-01 4.54033E-01-7.67733E-08-2.81440E-01 8.07015E-09 2.48374E-08
 -1      6302-3.20705E-01 4.54033E-01-6.10629E-08-2.81440E-01 1.88123E-08 5.78984E-08
 -1      6303-2.14776E-01 3.48104E-01-6.10626E-08-3.87369E-01-2.76380E-08-5.42427E-08
 -1      6304-2.14776E-01 3.48104E-01-7.67729E-08-3.87369E-01-1.18562E-08-2.32692E-08
 -1      6305-2.14776E-01 3.48104E-01-6.38631E-08-3.87369E-01-3.72591E-09-7.31254E-09
 -1      6306-2.14776E-01 3.48104E-01-5.63415E-08-3.87369E-01-9.75193E-10-1.91401E-09
 -1      6307-2.14776E-01 3.48104E-01-5.41975E-08-3.87369E-01 7.61944E-12 1.50011E-11
 -1      6308-2.14776E-01 3.48104E-01-5.41975E-08-3.87369E-01-7.65259E-12-1.49339E-11
 -1      6309-2.14776E-01 3.48104E-01-5.63415E-08-3.87369E-01 9.75182E-10 1.91398E-09
 -1      6310-2.14776E-01 3.48104E-01-6.38632E-08-3.87369E-01 3.72591E-09 7.31254E-09
 -1      6311-2.14776E-01 3.48104E-01-7.67730E-08-3.87369E-01 1.18562E-08 2.32692E-08
 -1      6312-2.14776E-01 3.48104E-01-6.10626E-08-3.87369E-01 2.76380E-08 5.42427E-08
 -1      6313-8.12979E-02 2.14626E-01-6.10624E-08-4.55380E-01-3.57833E-08-4.92512E-08
 -1      6314-8.12979E-02 2.14626E-01-7.67727E-08-4.55380E-01-1.53504E-08-2.11278E-08
 -1      6315-8.12979E-02 2.14626E-01-6.38628E-08-4.55380E-01-4.82396E-09-6.63954E-09
 -1      6316-8.12979E-02 2.14626E-01-5.63412E-08-4.55380E-01-1.26267E-09-1.73778E-09
 -1      6317-8.12979E-02 2.14626E-01-5.41973E-08-4.55380E-01 9.87689E-12 1.36233E-11
 -1      6318-8.12979E-02 2.14626E-01-5.41973E-08-4.55380E-01-9.88713E-12-1.36383E-11
 -1      6319-8.12979E-02 2.14626E-01-5.63412E-08-4.55380E-01 1.26267E-09 1.73783E-09
 -1      6320-8.12979E-02 2.14626E-01-6.38628E-08-4.55380E-01 4.82397E-09 6.63956E-09
 -1      6321-8.12979E-02 2.14626E-01-7.67727E-08-4.55380E-01 1.53504E-08 2.11279E-08
 -1      6322-8.12979E-02 2.14626E-01-6.10624E-08-4.55380E-01 3.57833E-08 4.92512E-08
 -1      6323 6.66639E-02 6.66639E-02-6.10624E-08-4.78815E-01-4.30471E-08-4.30466E-08
 -1      6324 6.66639E-02 6.66639E-02-7.67726E-08-4.78815E-01-1.84666E-08-1.84666E-08
 -1      6325 6.66639E-02 6.66639E-02-6.38632E-08-4.78815E-01-5.80345E-09-5.80352E-09
 -1      6326 6.66639E-02 6.66639E-02-5.63418E-08-4.78815E-01-1.51896E-09-1.51911E-09
 -1      6327 6.66639E-02 6.66639E-02-5.41979E-08-4.78815E-01 1.18571E-11 1.17699E-11
 -1      6328 6.66639E-02 6.66639E-02-5.41979E-08-4.78815E-01-1.18609E-11-1.17649E-11
 -1      6329 6.66639E-02 6.66639E-02-5.63417E-08-4.78815E-01 1.51896E-09 1.51913E-09
 -1      6330 6.66639E-02 6.66639E-02-6.38632E-08-4.78815E-01 5.80346E-09 5.80352E-09
 -1      6331 6.66639E-02 6.66639E-02-7.67726E-08-4.78815E-01 1.84666E-08 1.84666E-08
 -1      6332 6.66639E-02 6.66639E-02-6.10624E-08-4.78815E-01 4.30470E-08 4.30466E-08
 -1      6333 2.14626E-01-8.12979E-02-6.10630E-08-4.55380E-01-4.92526E-08-3.57846E-08
 -1      6334 2.14626E-01-8.12979E-02-7.67753E-08-4.55380E-01-2.11288E-08-1.53514E-08
 -1      6335 2.14626E-01-8.12979E-02-6.38658E-08-4.55380E-01-6.64046E-09-4.82531E-09
 -1      6336 2.14626E-01-8.12979E-02-5.63448E-08-4.55380E-01-1.73896E-09-1.26388E-09
 -1      6337 2.14626E-01-8.12979E-02-5.42015E-08-4.55380E-01 1.33537E-11 9.55664E-12
 -1      6338 2.14626E-01-8.12979E-02-5.42014E-08-4.55380E-01-1.33430E-11-9.53388E-12
 -1      6339 2.14626E-01-8.12979E-02-5.63448E-08-4.55380E-01 1.73894E-09 1.26387E-09
 -1      6340 2.14626E-01-8.12979E-02-6.38658E-08-4.55380E-01 6.64045E-09 4.82533E-09
 -1      6341 2.14626E-01-8.12979E-02-7.67754E-08-4.55380E-01 2.11289E-08 1.53514E-08
 -1      6342 2.14626E-01-8.12979E-02-6.10630E-08-4.55380E-01 4.92526E-08 3.57845E-08
 -1      6343 3.48104E-01-2.14776E-01-6.10686E-08-3.87369E-01-5.42395E-08-2.76367E-08
 -1      6344 3.48104E-01-2.14776E-01-7.67740E-08-3.87369E-01-2.32719E-08-1.18572E-08
 -1      6345 3.48104E-01-2.14776E-01-6.38656E-08-3.87369E-01-7.31541E-09-3.72668E-09
 -1      6346 3.48104E-01-2.14776E-01-5.63452E-08-3.87369E-01-1.91456E-09-9.75024E-10
 -1      6347 3.48104E-01-2.14776E-01-5.42014E-08-3.87369E-01 1.41328E-11 7.38324E-12
 -1      6348 3.48104E-01-2.14776E-01-5.42015E-08-3.87369E-01-1.41158E-11-7.38696E-12
 -1      6349 3.48104E-01-2.14776E-01-5.63453E-08-3.87369E-01 1.91458E-09 9.75034E-10
 -1      6350 3.48104E-01-2.14776E-01-6.38656E-08-3.87369E-01 7.31544E-09 3.72668E-09
 -1      6351 3.48104E-01-2.14776E-01-7.67740E-08-3.87369E-01 2.32719E-08 1.18572E-08
 -1      6352 3.48104E-01-2.14776E-01-6.10687E-08-3.87369E-01 5.42394E-08 2.76367E-08
 -1      6353 4.54033E-01-3.20705E-01-6.10578E-08-2.81440E-01-5.79013E-08-1.88136E-08
 -1      6354 4.54033E-01-3.20705E-01-7.67734E-08-2.81440E-01-2.48349E-08-8.06894E-09
 -1      6355 4.54033E-01-3.20705E-01-6.38620E-08-2.81440E-01-7.80274E-09-2.53460E-09
 -1      6356 4.54033E-01-3.20705E-01-5.63391E-08-2.81440E-01-2.04268E-09-6.63239E-10
 -1      6357 4.54033E-01-3.20705E-01-5.41950E-08-2.81440E-01 1.67984E-11 5.63905E-12
 -1      6358 4.54033E-01-3.20705E-01-5.41950E-08-2.81440E-01-1.67987E-11-5.64389E-12
 -1      6359 4.54033E-01-3.20705E-01-5.63391E-08-2.81440E-01 2.04268E-09 6.63214E-10
 -1      6360 4.54033E-01-3.20705E-01-6.38620E-08-2.81440E-01 7.80278E-09 2.53460E-09
 -1      6361 4.54033E-01-3.20705E-01-7.67734E-08-2.81440E-01 2.48349E-08 8.06894E-09
 -1      6362 4.54033E-01-3.20705E-01-6.10578E-08-2.81440E-01 5.79013E-08 1.88136E-08
 -1      6363 5.22044E-01-3.88716E-01-6.10636E-08-1.47962E-01-6.01263E-08-9.52369E-09
 -1      6364 5.22044E-01-3.88716E-01-7.67722E-08-1.47962E-01-2.57928E-08-4.08565E-09
 -1      6365 5.22044E-01-3.88716E-01-6.38622E-08-1.47962E-01-8.10454E-09-1.28430E-09
 -1      6366 5.22044E-01-3.88716E-01-5.63397E-08-1.47962E-01-2.11998E-09-3.36195E-10
 -1      6367 5.22044E-01-3.88716E-01-5.41951E-08-1.47962E-01 1.70576E-11 2.54185E-12
 -1      6368 5.22044E-01-3.88716E-01-5.41951E-08-1.47962E-01-1.70469E-11-2.55042E-12
 -1      6369 5.22044E-01-3.88716E-01-5.63397E-08-1.47962E-01 2.11999E-09 3.36189E-10
 -1      6370 5.22044E-01-3.88716E-01-6.38621E-08-1.47962E-01 8.10457E-09 1.28429E-09
 -1      6371 5.22044E-01-3.88716E-01-7.67722E-08-1.47962E-01 2.57928E-08 4.08564E-09
 -1      6372 5.22044E-01-3.88716E-01-6.10636E-08-1.47962E-01 6.01263E-08 9.52369E-09
 -1      6373-3.33681E-01 4.67009E-01 1.06426E-08-1.30080E-01 2.15076E-09 1.35794E-08
 -1      6374-3.33681E-01 4.67009E-01 1.38576E-08-1.30080E-01 1.33341E-09 8.41890E-09
 -1      6375-3.33681E-01 4.67009E-01 9.10396E-09-1.30080E-01 3.71907E-10 2.34809E-09
 -1      6376-3.33681E-01 4.67009E-01 6.82025E-09-1.30080E-01 1.39240E-11 8.79110E-11
 -1      6377-3.33681E-01 4.67009E-01 5.87737E-09-1.30080E-01 2.99886E-12 1.89143E-11
 -1      6378-3.33681E-01 4.67009E-01 5.87739E-09-1.30080E-01-2.99610E-12-1.89037E-11
 -1      6379-3.33681E-01 4.67009E-01 6.82026E-09-1.30080E-01-1.39177E-11-8.78944E-11
 -1      6380-3.33681E-01 4.67009E-01 9.10396E-09-1.30080E-01-3.71895E-10-2.34811E-09
 -1      6381-3.33681E-01 4.67009E-01 1.38576E-08-1.30080E-01-1.33341E-09-8.41888E-09
 -1      6382-3.33681E-01 4.67009E-01 1.06426E-08-1.30080E-01-2.15075E-09-1.35794E-08
 -1      6383-2.73890E-01 4.07218E-01 1.06426E-08-2.47427E-01 4.24854E-09 1.30757E-08
 -1      6384-2.73890E-01 4.07218E-01 1.38576E-08-2.47427E-01 2.63400E-09 8.10663E-09
 -1      6385-2.73890E-01 4.07218E-01 9.10391E-09-2.47427E-01 7.34630E-10 2.26104E-09
 -1      6386-2.73890E-01 4.07218E-01 6.82020E-09-2.47427E-01 2.75124E-11 8.46516E-11
 -1      6387-2.73890E-01 4.07218E-01 5.87732E-09-2.47427E-01 5.90640E-12 1.82065E-11
 -1      6388-2.73890E-01 4.07218E-01 5.87731E-09-2.47427E-01-5.92190E-12-1.82177E-11
 -1      6389-2.73890E-01 4.07218E-01 6.82019E-09-2.47427E-01-2.75163E-11-8.46627E-11
 -1      6390-2.73890E-01 4.07218E-01 9.10391E-09-2.47427E-01-7.34642E-10-2.26103E-09
 -1      6391-2.73890E-01 4.07218E-01 1.38575E-08-2.47427E-01-2.63399E-09-8.10666E-09
 -1      6392-2.73890E-01 4.07218E-01 1.06426E-08-2.47427E-01-4.24856E-09-1.30757E-08
 -1      6393-1.80763E-01 3.14091E-01 1.06426E-08-3.40554E-01 6.24175E-09 1.22501E-08
 -1      6394-1.80763E-01 3.14091E-01 1.38575E-08-3.40554E-01 3.86971E-09 7.59476E-09
 -1      6395-1.80763E-01 3.14091E-01 9.10384E-09-3.40554E-01 1.07932E-09 2.11824E-09
 -1      6396-1.80763E-01 3.14091E-01 6.82015E-09-3.40554E-01 4.03577E-11 7.93480E-11
 -1      6397-1.80763E-01 3.14091E-01 5.87728E-09-3.40554E-01 8.68975E-12 1.70454E-11
 -1      6398-1.80763E-01 3.14091E-01 5.87727E-09-3.40554E-01-8.68180E-12-1.70632E-11
 -1      6399-1.80763E-01 3.14091E-01 6.82016E-09-3.40554E-01-4.04064E-11-7.92940E-11
 -1      6400-1.80763E-01 3.14091E-01 9.10386E-09-3.40554E-01-1.07932E-09-2.11822E-09
 -1      6401-1.80763E-01 3.14091E-01 1.38575E-08-3.40554E-01-3.86974E-09-7.59478E-09
 -1      6402-1.80763E-01 3.14091E-01 1.06426E-08-3.40554E-01-6.24174E-09-1.22501E-08
 -1      6403-6.34160E-02 1.96744E-01 1.06425E-08-4.00345E-01 8.08128E-09 1.11229E-08
 -1      6404-6.34160E-02 1.96744E-01 1.38575E-08-4.00345E-01 5.01021E-09 6.89593E-09
 -1      6405-6.34160E-02 1.96744E-01 9.10379E-09-4.00345E-01 1.39737E-09 1.92337E-09
 -1      6406-6.34160E-02 1.96744E-01 6.82009E-09-4.00345E-01 5.23232E-11 7.20278E-11
 -1      6407-6.34160E-02 1.96744E-01 5.87722E-09-4.00345E-01 1.12501E-11 1.54934E-11
 -1      6408-6.34160E-02 1.96744E-01 5.87721E-09-4.00345E-01-1.12643E-11-1.54968E-11
 -1      6409-6.34160E-02 1.96744E-01 6.82009E-09-4.00345E-01-5.23391E-11-7.20168E-11
 -1      6410-6.34160E-02 1.96744E-01 9.10379E-09-4.00345E-01-1.39740E-09-1.92338E-09
 -1      6411-6.34160E-02 1.96744E-01 1.38574E-08-4.00345E-01-5.01019E-09-6.89593E-09
 -1      6412-6.34160E-02 1.96744E-01 1.06425E-08-4.00345E-01-8.08128E-09-1.11228E-08
 -1      6413 6.66640E-02 6.66640E-02 1.06427E-08-4.20948E-01 9.72174E-09 9.72173E-09
 -1      6414 6.66640E-02 6.66640E-02 1.38577E-08-4.20948E-01 6.02721E-09 6.02728E-09
 -1      6415 6.66640E-02 6.66640E-02 9.10402E-09-4.20948E-01 1.68102E-09 1.68105E-09
 -1      6416 6.66640E-02 6.66640E-02 6.82027E-09-4.20948E-01 6.29549E-11 6.29645E-11
 -1      6417 6.66640E-02 6.66640E-02 5.87736E-09-4.20948E-01 1.35231E-11 1.35515E-11
 -1      6418 6.66640E-02 6.66640E-02 5.87736E-09-4.20948E-01-1.35273E-11-1.34808E-11
 -1      6419 6.66640E-02 6.66640E-02 6.82025E-09-4.20948E-01-6.29228E-11-6.29911E-11
 -1      6420 6.66640E-02 6.66640E-02 9.10402E-09-4.20948E-01-1.68100E-09-1.68105E-09
 -1      6421 6.66640E-02 6.66640E-02 1.38577E-08-4.20948E-01-6.02720E-09-6.02726E-09
 -1      6422 6.66640E-02 6.66640E-02 1.06427E-08-4.20948E-01-9.72172E-09-9.72172E-09
 -1      6423 1.96744E-01-6.34160E-02 1.06428E-08-4.00345E-01 1.11225E-08 8.08105E-09
 -1      6424 1.96744E-01-6.34160E-02 1.38578E-08-4.00345E-01 6.89589E-09 5.01008E-09
 -1      6425 1.96744E-01-6.34160E-02 9.10375E-09-4.00345E-01 1.92324E-09 1.39723E-09
 -1      6426 1.96744E-01-6.34160E-02 6.81983E-09-4.00345E-01 7.17931E-11 5.20909E-11
 -1      6427 1.96744E-01-6.34160E-02 5.87682E-09-4.00345E-01 1.54849E-11 1.12072E-11
 -1      6428 1.96744E-01-6.34160E-02 5.87682E-09-4.00345E-01-1.54908E-11-1.12322E-11
 -1      6429 1.96744E-01-6.34160E-02 6.81985E-09-4.00345E-01-7.17792E-11-5.20713E-11
 -1      6430 1.96744E-01-6.34160E-02 9.10373E-09-4.00345E-01-1.92322E-09-1.39724E-09
 -1      6431 1.96744E-01-6.34160E-02 1.38578E-08-4.00345E-01-6.89588E-09-5.01008E-09
 -1      6432 1.96744E-01-6.34160E-02 1.06428E-08-4.00345E-01-1.11225E-08-8.08104E-09
 -1      6433 3.14091E-01-1.80763E-01 1.06435E-08-3.40554E-01 1.22515E-08 6.24247E-09
 -1      6434 3.14091E-01-1.80763E-01 1.38574E-08-3.40554E-01 7.59405E-09 3.86937E-09
 -1      6435 3.14091E-01-1.80763E-01 9.10356E-09-3.40554E-01 2.11782E-09 1.07908E-09
 -1      6436 3.14091E-01-1.80763E-01 6.81964E-09-3.40554E-01 7.93965E-11 4.04722E-11
 -1      6437 3.14091E-01-1.80763E-01 5.87677E-09-3.40554E-01 1.67315E-11 8.54164E-12
 -1      6438 3.14091E-01-1.80763E-01 5.87677E-09-3.40554E-01-1.66990E-11-8.54210E-12
 -1      6439 3.14091E-01-1.80763E-01 6.81961E-09-3.40554E-01-7.94048E-11-4.04847E-11
 -1      6440 3.14091E-01-1.80763E-01 9.10357E-09-3.40554E-01-2.11782E-09-1.07909E-09
 -1      6441 3.14091E-01-1.80763E-01 1.38574E-08-3.40554E-01-7.59405E-09-3.86935E-09
 -1      6442 3.14091E-01-1.80763E-01 1.06435E-08-3.40554E-01-1.22514E-08-6.24250E-09
 -1      6443 4.07218E-01-2.73890E-01 1.06420E-08-2.47427E-01 1.30742E-08 4.24816E-09
 -1      6444 4.07218E-01-2.73890E-01 1.38582E-08-2.47427E-01 8.10746E-09 2.63426E-09
 -1      6445 4.07218E-01-2.73890E-01 9.10467E-09-2.47427E-01 2.26151E-09 7.34809E-10
 -1      6446 4.07218E-01-2.73890E-01 6.82120E-09-2.47427E-01 8.45479E-11 2.74921E-11
 -1      6447 4.07218E-01-2.73890E-01 5.87831E-09-2.47427E-01 1.85436E-11 6.03037E-12
 -1      6448 4.07218E-01-2.73890E-01 5.87832E-09-2.47427E-01-1.85658E-11-6.04475E-12
 -1      6449 4.07218E-01-2.73890E-01 6.82121E-09-2.47427E-01-8.45647E-11-2.74930E-11
 -1      6450 4.07218E-01-2.73890E-01 9.10466E-09-2.47427E-01-2.26149E-09-7.34796E-10
 -1      6451 4.07218E-01-2.73890E-01 1.38581E-08-2.47427E-01-8.10742E-09-2.63429E-09
 -1      6452 4.07218E-01-2.73890E-01 1.06420E-08-2.47427E-01-1.30742E-08-4.24815E-09
 -1      6453 4.67009E-01-3.33681E-01 1.06427E-08-1.30080E-01 1.35798E-08 2.15096E-09
 -1      6454 4.67009E-01-3.33681E-01 1.38578E-08-1.30080E-01 8.41896E-09 1.33338E-09
 -1      6455 4.67009E-01-3.33681E-01 9.10451E-09-1.30080E-01 2.34827E-09 3.71862E-10
 -1      6456 4.67009E-01-3.33681E-01 6.82097E-09-1.30080E-01 8.82683E-11 1.39167E-11
 -1      6457 4.67009E-01-3.33681E-01 5.87824E-09-1.30080E-01 1.89502E-11 2.97459E-12
 -1      6458 4.67009E-01-3.33681E-01 5.87823E-09-1.30080E-01-1.89350E-11-2.96772E-12
 -1      6459 4.67009E-01-3.33681E-01 6.82096E-09-1.30080E-01-8.82394E-11-1.39237E-11
 -1      6460 4.67009E-01-3.33681E-01 9.10451E-09-1.30080E-01-2.34825E-09-3.71862E-10
 -1      6461 4.67009E-01-3.33681E-01 1.38578E-08-1.30080E-01-8.41899E-09-1.33338E-09
 -1      6462 4.67009E-01-3.33681E-01 1.06427E-08-1.30080E-01-1.35798E-08-2.15095E-09
 -1      6463-2.88047E-01 4.21375E-01-8.31462E-09-1.15253E-01-8.27356E-10-5.22373E-09
 -1      6464-2.88047E-01 4.21375E-01-9.49455E-09-1.15253E-01-2.28026E-10-1.43976E-09
 -1      6465-2.88047E-01 4.21375E-01-7.70155E-09-1.15253E-01-1.06781E-10-6.74133E-10
 -1      6466-2.88047E-01 4.21375E-01-6.97200E-09-1.15253E-01-1.27365E-11-8.03597E-11
 -1      6467-2.88047E-01 4.21375E-01-6.81561E-09-1.15253E-01 1.41832E-11 8.95569E-11
 -1      6468-2.88047E-01 4.21375E-01-6.81562E-09-1.15253E-01-1.41790E-11-8.95864E-11
 -1      6469-2.88047E-01 4.21375E-01-6.97198E-09-1.15253E-01 1.27321E-11 8.04052E-11
 -1      6470-2.88047E-01 4.21375E-01-7.70153E-09-1.15253E-01 1.06766E-10 6.74147E-10
 -1      6471-2.88047E-01 4.21375E-01-9.49456E-09-1.15253E-01 2.28024E-10 1.43969E-09
 -1      6472-2.88047E-01 4.21375E-01-8.31459E-09-1.15253E-01 8.27358E-10 5.22372E-09
 -1      6473-2.35071E-01 3.68399E-01-8.31460E-09-2.19224E-01-1.63435E-09-5.02996E-09
 -1      6474-2.35071E-01 3.68399E-01-9.49454E-09-2.19224E-01-4.50451E-10-1.38630E-09
 -1      6475-2.35071E-01 3.68399E-01-7.70151E-09-2.19224E-01-2.10883E-10-6.49142E-10
 -1      6476-2.35071E-01 3.68399E-01-6.97198E-09-2.19224E-01-2.51540E-11-7.74195E-11
 -1      6477-2.35071E-01 3.68399E-01-6.81560E-09-2.19224E-01 2.80087E-11 8.62363E-11
 -1      6478-2.35071E-01 3.68399E-01-6.81559E-09-2.19224E-01-2.80422E-11-8.62338E-11
 -1      6479-2.35071E-01 3.68399E-01-6.97199E-09-2.19224E-01 2.51499E-11 7.74015E-11
 -1      6480-2.35071E-01 3.68399E-01-7.70153E-09-2.19224E-01 2.10906E-10 6.49122E-10
 -1      6481-2.35071E-01 3.68399E-01-9.49453E-09-2.19224E-01 4.50454E-10 1.38635E-09
 -1      6482-2.35071E-01 3.68399E-01-8.31461E-09-2.19224E-01 1.63436E-09 5.02997E-09
 -1      6483-1.52560E-01 2.85888E-01-8.31457E-09-3.01735E-01-2.40110E-09-4.71239E-09
 -1      6484-1.52560E-01 2.85888E-01-9.49449E-09-3.01735E-01-6.61785E-10-1.29875E-09
 -1      6485-1.52560E-01 2.85888E-01-7.70151E-09-3.01735E-01-3.09887E-10-6.08130E-10
 -1      6486-1.52560E-01 2.85888E-01-6.97196E-09-3.01735E-01-3.69407E-11-7.25329E-11
 -1      6487-1.52560E-01 2.85888E-01-6.81559E-09-3.01735E-01 4.11826E-11 8.08005E-11
 -1      6488-1.52560E-01 2.85888E-01-6.81556E-09-3.01735E-01-4.12052E-11-8.07959E-11
 -1      6489-1.52560E-01 2.85888E-01-6.97195E-09-3.01735E-01 3.69570E-11 7.25242E-11
 -1      6490-1.52560E-01 2.85888E-01-7.70150E-09-3.01735E-01 3.09859E-10 6.08148E-10
 -1      6491-1.52560E-01 2.85888E-01-9.49449E-09-3.01735E-01 6.61773E-10 1.29874E-09
 -1      6492-1.52560E-01 2.85888E-01-8.31458E-09-3.01735E-01 2.40108E-09 4.71241E-09
 -1      6493-4.85887E-02 1.81917E-01-8.31466E-09-3.54711E-01-3.10872E-09-4.27878E-09
 -1      6494-4.85887E-02 1.81917E-01-9.49457E-09-3.54711E-01-8.56778E-10-1.17921E-09
 -1      6495-4.85887E-02 1.81917E-01-7.70158E-09-3.54711E-01-4.01146E-10-5.52152E-10
 -1      6496-4.85887E-02 1.81917E-01-6.97202E-09-3.54711E-01-4.78740E-11-6.58196E-11
 -1      6497-4.85887E-02 1.81917E-01-6.81562E-09-3.54711E-01 5.32928E-11 7.33826E-11
 -1      6498-4.85887E-02 1.81917E-01-6.81562E-09-3.54711E-01-5.32972E-11-7.33809E-11
 -1      6499-4.85887E-02 1.81917E-01-6.97202E-09-3.54711E-01 4.78141E-11 6.58458E-11
 -1      6500-4.85887E-02 1.81917E-01-7.70157E-09-3.54711E-01 4.01160E-10 5.52174E-10
 -1      6501-4.85887E-02 1.81917E-01-9.49460E-09-3.54711E-01 8.56746E-10 1.17922E-09
 -1      6502-4.85887E-02 1.81917E-01-8.31466E-09-3.54711E-01 3.10869E-09 4.27874E-09
 -1      6503 6.66640E-02 6.66640E-02-8.31463E-09-3.72966E-01-3.73973E-09-3.73968E-09
 -1      6504 6.66640E-02 6.66640E-02-9.49453E-09-3.72966E-01-1.03068E-09-1.03068E-09
 -1      6505 6.66640E-02 6.66640E-02-7.70154E-09-3.72966E-01-4.82625E-10-4.82579E-10
 -1      6506 6.66640E-02 6.66640E-02-6.97196E-09-3.72966E-01-5.75437E-11-5.75250E-11
 -1      6507 6.66640E-02 6.66640E-02-6.81558E-09-3.72966E-01 6.41767E-11 6.40922E-11
 -1      6508 6.66640E-02 6.66640E-02-6.81556E-09-3.72966E-01-6.41495E-11-6.40931E-11
 -1      6509 6.66640E-02 6.66640E-02-6.97196E-09-3.72966E-01 5.75285E-11 5.75005E-11
 -1      6510 6.66640E-02 6.66640E-02-7.70153E-09-3.72966E-01 4.82577E-10 4.82584E-10
 -1      6511 6.66640E-02 6.66640E-02-9.49451E-09-3.72966E-01 1.03076E-09 1.03070E-09
 -1      6512 6.66640E-02 6.66640E-02-8.31459E-09-3.72966E-01 3.73973E-09 3.73973E-09
 -1      6513 1.81917E-01-4.85887E-02-8.31458E-09-3.54711E-01-4.27885E-09-3.10878E-09
 -1      6514 1.81917E-01-4.85887E-02-9.49465E-09-3.54711E-01-1.17917E-09-8.56695E-10
 -1      6515 1.81917E-01-4.85887E-02-7.70162E-09-3.54711E-01-5.52126E-10-4.01153E-10
 -1      6516 1.81917E-01-4.85887E-02-6.97211E-09-3.54711E-01-6.58574E-11-4.78758E-11
 -1      6517 1.81917E-01-4.85887E-02-6.81572E-09-3.54711E-01 7.33457E-11 5.33664E-11
 -1      6518 1.81917E-01-4.85887E-02-6.81576E-09-3.54711E-01-7.33639E-11-5.33208E-11
 -1      6519 1.81917E-01-4.85887E-02-6.97211E-09-3.54711E-01 6.59055E-11 4.78826E-11
 -1      6520 1.81917E-01-4.85887E-02-7.70162E-09-3.54711E-01 5.52138E-10 4.01144E-10
 -1      6521 1.81917E-01-4.85887E-02-9.49468E-09-3.54711E-01 1.17912E-09 8.56693E-10
 -1      6522 1.81917E-01-4.85887E-02-8.31459E-09-3.54711E-01 4.27889E-09 3.10878E-09
 -1      6523 2.85888E-01-1.52560E-01-8.31514E-09-3.01735E-01-4.71172E-09-2.40082E-09
 -1      6524 2.85888E-01-1.52560E-01-9.49456E-09-3.01735E-01-1.29905E-09-6.61955E-10
 -1      6525 2.85888E-01-1.52560E-01-7.70171E-09-3.01735E-01-6.08128E-10-3.09882E-10
 -1      6526 2.85888E-01-1.52560E-01-6.97222E-09-3.01735E-01-7.24375E-11-3.69272E-11
 -1      6527 2.85888E-01-1.52560E-01-6.81582E-09-3.01735E-01 8.07397E-11 4.10772E-11
 -1      6528 2.85888E-01-1.52560E-01-6.81582E-09-3.01735E-01-8.06911E-11-4.11023E-11
 -1      6529 2.85888E-01-1.52560E-01-6.97222E-09-3.01735E-01 7.23923E-11 3.69176E-11
 -1      6530 2.85888E-01-1.52560E-01-7.70171E-09-3.01735E-01 6.08126E-10 3.09881E-10
 -1      6531 2.85888E-01-1.52560E-01-9.49455E-09-3.01735E-01 1.29908E-09 6.61958E-10
 -1      6532 2.85888E-01-1.52560E-01-8.31516E-09-3.01735E-01 4.71167E-09 2.40082E-09
 -1      6533 3.68399E-01-2.35071E-01-8.31417E-09-2.19224E-01-5.03066E-09-1.63465E-09
 -1      6534 3.68399E-01-2.35071E-01-9.49464E-09-2.19224E-01-1.38597E-09-4.50374E-10
 -1      6535 3.68399E-01-2.35071E-01-7.70143E-09-2.19224E-01-6.49098E-10-2.10955E-10
 -1      6536 3.68399E-01-2.35071E-01-6.97185E-09-2.19224E-01-7.75168E-11-2.52209E-11
 -1      6537 3.68399E-01-2.35071E-01-6.81547E-09-2.19224E-01 8.63892E-11 2.80718E-11
 -1      6538 3.68399E-01-2.35071E-01-6.81544E-09-2.19224E-01-8.63924E-11-2.80668E-11
 -1      6539 3.68399E-01-2.35071E-01-6.97183E-09-2.19224E-01 7.75388E-11 2.52126E-11
 -1      6540 3.68399E-01-2.35071E-01-7.70144E-09-2.19224E-01 6.49103E-10 2.10943E-10
 -1      6541 3.68399E-01-2.35071E-01-9.49460E-09-2.19224E-01 1.38599E-09 4.50390E-10
 -1      6542 3.68399E-01-2.35071E-01-8.31412E-09-2.19224E-01 5.03068E-09 1.63464E-09
 -1      6543 4.21375E-01-2.88047E-01-8.31463E-09-1.15253E-01-5.22361E-09-8.27358E-10
 -1      6544 4.21375E-01-2.88047E-01-9.49450E-09-1.15253E-01-1.43985E-09-2.28055E-10
 -1      6545 4.21375E-01-2.88047E-01-7.70155E-09-1.15253E-01-6.74171E-10-1.06790E-10
 -1      6546 4.21375E-01-2.88047E-01-6.97192E-09-1.15253E-01-8.03777E-11-1.27219E-11
 -1      6547 4.21375E-01-2.88047E-01-6.81547E-09-1.15253E-01 8.95359E-11 1.41668E-11
 -1      6548 4.21375E-01-2.88047E-01-6.81553E-09-1.15253E-01-8.95154E-11-1.41727E-11
 -1      6549 4.21375E-01-2.88047E-01-6.97195E-09-1.15253E-01 8.03718E-11 1.27359E-11
 -1      6550 4.21375E-01-2.88047E-01-7.70152E-09-1.15253E-01 6.74178E-10 1.06792E-10
 -1      6551 4.21375E-01-2.88047E-01-9.49446E-09-1.15253E-01 1.43986E-09 2.28055E-10
 -1      6552 4.21375E-01-2.88047E-01-8.31466E-09-1.15253E-01 5.22361E-09 8.27367E-10
 -1      6553-2.49790E-01 3.83118E-01-1.69541E-09-1.02822E-01 1.54633E-10 9.76310E-10
 -1      6554-2.49790E-01 3.83118E-01-1.47986E-09-1.02822E-01 1.31350E-10 8.29289E-10
 -1      6555-2.49790E-01 3.83118E-01-1.98895E-09-1.02822E-01 1.75558E-11 1.10854E-10
 -1      6556-2.49790E-01 3.83118E-01-2.19485E-09-1.02822E-01 1.03100E-11 6.51284E-11
 -1      6557-2.49790E-01 3.83118E-01-2.24724E-09-1.02822E-01 5.36895E-12 3.39600E-11
 -1      6558-2.49790E-01 3.83118E-01-2.24726E-09-1.02822E-01-5.39320E-12-3.39696E-11
 -1      6559-2.49790E-01 3.83118E-01-2.19486E-09-1.02822E-01-1.03227E-11-6.51324E-11
 -1      6560-2.49790E-01 3.83118E-01-1.98894E-09-1.02822E-01-1.75602E-11-1.10874E-10
 -1      6561-2.49790E-01 3.83118E-01-1.47987E-09-1.02822E-01-1.31350E-10-8.29314E-10
 -1      6562-2.49790E-01 3.83118E-01-1.69542E-09-1.02822E-01-1.54633E-10-9.76321E-10
 -1      6563-2.02528E-01 3.35855E-01-1.69544E-09-1.95579E-01 3.05462E-10 9.40092E-10
 -1      6564-2.02528E-01 3.35855E-01-1.47989E-09-1.95579E-01 2.59466E-10 7.98566E-10
 -1      6565-2.02528E-01 3.35855E-01-1.98894E-09-1.95579E-01 3.46730E-11 1.06770E-10
 -1      6566-2.02528E-01 3.35855E-01-2.19487E-09-1.95579E-01 2.03755E-11 6.27090E-11
 -1      6567-2.02528E-01 3.35855E-01-2.24725E-09-1.95579E-01 1.06162E-11 3.26737E-11
 -1      6568-2.02528E-01 3.35855E-01-2.24724E-09-1.95579E-01-1.06248E-11-3.27069E-11
 -1      6569-2.02528E-01 3.35855E-01-2.19486E-09-1.95579E-01-2.03867E-11-6.27199E-11
 -1      6570-2.02528E-01 3.35855E-01-1.98897E-09-1.95579E-01-3.46903E-11-1.06730E-10
 -1      6571-2.02528E-01 3.35855E-01-1.47988E-09-1.95579E-01-2.59471E-10-7.98542E-10
 -1      6572-2.02528E-01 3.35855E-01-1.69545E-09-1.95579E-01-3.05463E-10-9.40103E-10
 -1      6573-1.28915E-01 2.62243E-01-1.69542E-09-2.69192E-01 4.48759E-10 8.80747E-10
 -1      6574-1.28915E-01 2.62243E-01-1.47987E-09-2.69192E-01 3.81181E-10 7.48131E-10
 -1      6575-1.28915E-01 2.62243E-01-1.98894E-09-2.69192E-01 5.09556E-11 1.00009E-10
 -1      6576-1.28915E-01 2.62243E-01-2.19483E-09-2.69192E-01 2.99403E-11 5.87765E-11
 -1      6577-1.28915E-01 2.62243E-01-2.24722E-09-2.69192E-01 1.56027E-11 3.06581E-11
 -1      6578-1.28915E-01 2.62243E-01-2.24724E-09-2.69192E-01-1.56155E-11-3.06445E-11
 -1      6579-1.28915E-01 2.62243E-01-2.19485E-09-2.69192E-01-2.99424E-11-5.87866E-11
 -1      6580-1.28915E-01 2.62243E-01-1.98894E-09-2.69192E-01-5.09558E-11-1.00022E-10
 -1      6581-1.28915E-01 2.62243E-01-1.47988E-09-2.69192E-01-3.81197E-10-7.48148E-10
 -1      6582-1.28915E-01 2.62243E-01-1.69541E-09-2.69192E-01-4.48750E-10-8.80736E-10
 -1      6583-3.61580E-02 1.69486E-01-1.69543E-09-3.16454E-01 5.81000E-10 7.99685E-10
 -1      6584-3.61580E-02 1.69486E-01-1.47987E-09-3.16454E-01 4.93537E-10 6.79294E-10
 -1      6585-3.61580E-02 1.69486E-01-1.98893E-09-3.16454E-01 6.59754E-11 9.08327E-11
 -1      6586-3.61580E-02 1.69486E-01-2.19482E-09-3.16454E-01 3.87687E-11 5.33707E-11
 -1      6587-3.61580E-02 1.69486E-01-2.24724E-09-3.16454E-01 2.02175E-11 2.78055E-11
 -1      6588-3.61580E-02 1.69486E-01-2.24721E-09-3.16454E-01-2.02270E-11-2.78134E-11
 -1      6589-3.61580E-02 1.69486E-01-2.19483E-09-3.16454E-01-3.87828E-11-5.33688E-11
 -1      6590-3.61580E-02 1.69486E-01-1.98892E-09-3.16454E-01-6.59959E-11-9.08153E-11
 -1      6591-3.61580E-02 1.69486E-01-1.47986E-09-3.16454E-01-4.93546E-10-6.79316E-10
 -1      6592-3.61580E-02 1.69486E-01-1.69542E-09-3.16454E-01-5.81026E-10-7.99711E-10
 -1      6593 6.66640E-02 6.66640E-02-1.69538E-09-3.32739E-01 6.98980E-10 6.98992E-10
 -1      6594 6.66640E-02 6.66640E-02-1.47981E-09-3.32739E-01 5.93737E-10 5.93752E-10
 -1      6595 6.66640E-02 6.66640E-02-1.98888E-09-3.32739E-01 7.93742E-11 7.94060E-11
 -1      6596 6.66640E-02 6.66640E-02-2.19479E-09-3.32739E-01 4.66414E-11 4.66381E-11
 -1      6597 6.66640E-02 6.66640E-02-2.24715E-09-3.32739E-01 2.42831E-11 2.43398E-11
 -1      6598 6.66640E-02 6.66640E-02-2.24717E-09-3.32739E-01-2.42997E-11-2.43017E-11
 -1      6599 6.66640E-02 6.66640E-02-2.19477E-09-3.32739E-01-4.66588E-11-4.66418E-11
 -1      6600 6.66640E-02 6.66640E-02-1.98889E-09-3.32739E-01-7.93750E-11-7.93586E-11
 -1      6601 6.66640E-02 6.66640E-02-1.47981E-09-3.32739E-01-5.93721E-10-5.93750E-10
 -1      6602 6.66640E-02 6.66640E-02-1.69539E-09-3.32739E-01-6.98971E-10-6.98973E-10
 -1      6603 1.69486E-01-3.61580E-02-1.69542E-09-3.16454E-01 7.99670E-10 5.81024E-10
 -1      6604 1.69486E-01-3.61580E-02-1.47985E-09-3.16454E-01 6.79375E-10 4.93594E-10
 -1      6605 1.69486E-01-3.61580E-02-1.98891E-09-3.16454E-01 9.08453E-11 6.60184E-11
 -1      6606 1.69486E-01-3.61580E-02-2.19480E-09-3.16454E-01 5.33537E-11 3.87962E-11
 -1      6607 1.69486E-01-3.61580E-02-2.24722E-09-3.16454E-01 2.78531E-11 2.02250E-11
 -1      6608 1.69486E-01-3.61580E-02-2.24722E-09-3.16454E-01-2.78406E-11-2.02197E-11
 -1      6609 1.69486E-01-3.61580E-02-2.19484E-09-3.16454E-01-5.33764E-11-3.87767E-11
 -1      6610 1.69486E-01-3.61580E-02-1.98891E-09-3.16454E-01-9.08174E-11-6.60142E-11
 -1      6611 1.69486E-01-3.61580E-02-1.47985E-09-3.16454E-01-6.79368E-10-4.93580E-10
 -1      6612 1.69486E-01-3.61580E-02-1.69543E-09-3.16454E-01-7.99669E-10-5.80997E-10
 -1      6613 2.62243E-01-1.28915E-01-1.69541E-09-2.69192E-01 8.81038E-10 4.48893E-10
 -1      6614 2.62243E-01-1.28915E-01-1.47988E-09-2.69192E-01 7.48018E-10 3.81105E-10
 -1      6615 2.62243E-01-1.28915E-01-1.98895E-09-2.69192E-01 1.00087E-10 5.09685E-11
 -1      6616 2.62243E-01-1.28915E-01-2.19487E-09-2.69192E-01 5.88165E-11 2.99462E-11
 -1      6617 2.62243E-01-1.28915E-01-2.24724E-09-2.69192E-01 3.05780E-11 1.55695E-11
 -1      6618 2.62243E-01-1.28915E-01-2.24724E-09-2.69192E-01-3.05624E-11-1.55855E-11
 -1      6619 2.62243E-01-1.28915E-01-2.19486E-09-2.69192E-01-5.88089E-11-2.99534E-11
 -1      6620 2.62243E-01-1.28915E-01-1.98897E-09-2.69192E-01-1.00102E-10-5.09678E-11
 -1      6621 2.62243E-01-1.28915E-01-1.47990E-09-2.69192E-01-7.48051E-10-3.81112E-10
 -1      6622 2.62243E-01-1.28915E-01-1.69539E-09-2.69192E-01-8.81021E-10-4.48912E-10
 -1      6623 3.35855E-01-2.02528E-01-1.69538E-09-1.95579E-01 9.39788E-10 3.05351E-10
 -1      6624 3.35855E-01-2.02528E-01-1.47980E-09-1.95579E-01 7.98707E-10 2.59493E-10
 -1      6625 3.35855E-01-2.02528E-01-1.98887E-09-1.95579E-01 1.06706E-10 3.46472E-11
 -1      6626 3.35855E-01-2.02528E-01-2.19477E-09-1.95579E-01 6.26915E-11 2.03402E-11
 -1      6627 3.35855E-01-2.02528E-01-2.24719E-09-1.95579E-01 3.27959E-11 1.06346E-11
 -1      6628 3.35855E-01-2.02528E-01-2.24719E-09-1.95579E-01-3.27862E-11-1.06395E-11
 -1      6629 3.35855E-01-2.02528E-01-2.19478E-09-1.95579E-01-6.26823E-11-2.03613E-11
 -1      6630 3.35855E-01-2.02528E-01-1.98885E-09-1.95579E-01-1.06696E-10-3.46556E-11
 -1      6631 3.35855E-01-2.02528E-01-1.47978E-09-1.95579E-01-7.98688E-10-2.59494E-10
 -1      6632 3.35855E-01-2.02528E-01-1.69539E-09-1.95579E-01-9.39802E-10-3.05327E-10
 -1      6633 3.83118E-01-2.49790E-01-1.69547E-09-1.02822E-01 9.76353E-10 1.54638E-10
 -1      6634 3.83118E-01-2.49790E-01-1.47991E-09-1.02822E-01 8.29229E-10 1.31330E-10
 -1      6635 3.83118E-01-2.49790E-01-1.98899E-09-1.02822E-01 1.10810E-10 1.75562E-11
 -1      6636 3.83118E-01-2.49790E-01-2.19492E-09-1.02822E-01 6.51068E-11 1.03172E-11
 -1      6637 3.83118E-01-2.49790E-01-2.24729E-09-1.02822E-01 3.39200E-11 5.37462E-12
 -1      6638 3.83118E-01-2.49790E-01-2.24726E-09-1.02822E-01-3.39091E-11-5.37276E-12
 -1      6639 3.83118E-01-2.49790E-01-2.19490E-09-1.02822E-01-6.51363E-11-1.03128E-11
 -1      6640 3.83118E-01-2.49790E-01-1.98898E-09-1.02822E-01-1.10823E-10-1.75488E-11
 -1      6641 3.83118E-01-2.49790E-01-1.47991E-09-1.02822E-01-8.29240E-10-1.31334E-10
 -1      6642 3.83118E-01-2.49790E-01-1.69545E-09-1.02822E-01-9.76329E-10-1.54649E-10
 -1      6643-2.17401E-01 3.50729E-01-2.69312E-09-9.22982E-02-6.79872E-11-4.29235E-10
 -1      6644-2.17401E-01 3.50729E-01-2.76482E-09-9.22982E-02-5.66439E-12-3.57659E-11
 -1      6645-2.17401E-01 3.50729E-01-2.56932E-09-9.22982E-02-1.41137E-11-8.91153E-11
 -1      6646-2.17401E-01 3.50729E-01-2.50846E-09-9.22982E-02 2.52304E-12 1.59938E-11
 -1      6647-2.17401E-01 3.50729E-01-2.49242E-09-9.22982E-02 1.39129E-12 8.81129E-12
 -1      6648-2.17401E-01 3.50729E-01-2.49241E-09-9.22982E-02-1.39170E-12-8.80956E-12
 -1      6649-2.17401E-01 3.50729E-01-2.50846E-09-9.22982E-02-2.53139E-12-1.59785E-11
 -1      6650-2.17401E-01 3.50729E-01-2.56932E-09-9.22982E-02 1.41090E-11 8.90789E-11
 -1      6651-2.17401E-01 3.50729E-01-2.76482E-09-9.22982E-02 5.66367E-12 3.57728E-11
 -1      6652-2.17401E-01 3.50729E-01-2.69311E-09-9.22982E-02 6.79851E-11 4.29186E-10
 -1      6653-1.74976E-01 3.08304E-01-2.69314E-09-1.75562E-01-1.34288E-10-4.13288E-10
 -1      6654-1.74976E-01 3.08304E-01-2.76485E-09-1.75562E-01-1.12108E-11-3.44417E-11
 -1      6655-1.74976E-01 3.08304E-01-2.56934E-09-1.75562E-01-2.78722E-11-8.57828E-11
 -1      6656-1.74976E-01 3.08304E-01-2.50846E-09-1.75562E-01 4.97394E-12 1.53630E-11
 -1      6657-1.74976E-01 3.08304E-01-2.49244E-09-1.75562E-01 2.74971E-12 8.49544E-12
 -1      6658-1.74976E-01 3.08304E-01-2.49245E-09-1.75562E-01-2.76671E-12-8.50623E-12
 -1      6659-1.74976E-01 3.08304E-01-2.50846E-09-1.75562E-01-4.99572E-12-1.53334E-11
 -1      6660-1.74976E-01 3.08304E-01-2.56933E-09-1.75562E-01 2.78621E-11 8.57887E-11
 -1      6661-1.74976E-01 3.08304E-01-2.76485E-09-1.75562E-01 1.11994E-11 3.44478E-11
 -1      6662-1.74976E-01 3.08304E-01-2.69312E-09-1.75562E-01 1.34293E-10 4.13314E-10
 -1      6663-1.08898E-01 2.42226E-01-2.69311E-09-2.41640E-01-1.97298E-10-3.87183E-10
 -1      6664-1.08898E-01 2.42226E-01-2.76484E-09-2.41640E-01-1.64425E-11-3.22668E-11
 -1      6665-1.08898E-01 2.42226E-01-2.56932E-09-2.41640E-01-4.09427E-11-8.03667E-11
 -1      6666-1.08898E-01 2.42226E-01-2.50848E-09-2.41640E-01 7.33236E-12 1.44132E-11
 -1      6667-1.08898E-01 2.42226E-01-2.49244E-09-2.41640E-01 4.05211E-12 7.94364E-12
 -1      6668-1.08898E-01 2.42226E-01-2.49243E-09-2.41640E-01-4.07054E-12-7.94408E-12
 -1      6669-1.08898E-01 2.42226E-01-2.50846E-09-2.41640E-01-7.33457E-12-1.44267E-11
 -1      6670-1.08898E-01 2.42226E-01-2.56935E-09-2.41640E-01 4.09499E-11 8.03428E-11
 -1      6671-1.08898E-01 2.42226E-01-2.76483E-09-2.41640E-01 1.64308E-11 3.22915E-11
 -1      6672-1.08898E-01 2.42226E-01-2.69314E-09-2.41640E-01 1.97287E-10 3.87190E-10
 -1      6673-2.56343E-02 1.58962E-01-2.69310E-09-2.84065E-01-2.55419E-10-3.51574E-10
 -1      6674-2.56343E-02 1.58962E-01-2.76485E-09-2.84065E-01-2.12818E-11-2.93051E-11
 -1      6675-2.56343E-02 1.58962E-01-2.56930E-09-2.84065E-01-5.30175E-11-7.29563E-11
 -1      6676-2.56343E-02 1.58962E-01-2.50844E-09-2.84065E-01 9.50237E-12 1.30716E-11
 -1      6677-2.56343E-02 1.58962E-01-2.49240E-09-2.84065E-01 5.24985E-12 7.26075E-12
 -1      6678-2.56343E-02 1.58962E-01-2.49241E-09-2.84065E-01-5.26380E-12-7.20211E-12
 -1      6679-2.56343E-02 1.58962E-01-2.50844E-09-2.84065E-01-9.50165E-12-1.30703E-11
 -1      6680-2.56343E-02 1.58962E-01-2.56931E-09-2.84065E-01 5.30233E-11 7.29594E-11
 -1      6681-2.56343E-02 1.58962E-01-2.76483E-09-2.84065E-01 2.12860E-11 2.92954E-11
 -1      6682-2.56343E-02 1.58962E-01-2.69312E-09-2.84065E-01 2.55423E-10 3.51555E-10
 -1      6683 6.66640E-02 6.66640E-02-2.69307E-09-2.98683E-01-3.07276E-10-3.07273E-10
 -1      6684 6.66640E-02 6.66640E-02-2.76476E-09-2.98683E-01-2.56210E-11-2.56127E-11
 -1      6685 6.66640E-02 6.66640E-02-2.56926E-09-2.98683E-01-6.37687E-11-6.37585E-11
 -1      6686 6.66640E-02 6.66640E-02-2.50841E-09-2.98683E-01 1.14034E-11 1.14360E-11
 -1      6687 6.66640E-02 6.66640E-02-2.49240E-09-2.98683E-01 6.32162E-12 6.32869E-12
 -1      6688 6.66640E-02 6.66640E-02-2.49239E-09-2.98683E-01-6.28674E-12-6.31324E-12
 -1      6689 6.66640E-02 6.66640E-02-2.50841E-09-2.98683E-01-1.14234E-11-1.14395E-11
 -1      6690 6.66640E-02 6.66640E-02-2.56929E-09-2.98683E-01 6.37634E-11 6.37765E-11
 -1      6691 6.66640E-02 6.66640E-02-2.76478E-09-2.98683E-01 2.56104E-11 2.55929E-11
 -1      6692 6.66640E-02 6.66640E-02-2.69306E-09-2.98683E-01 3.07290E-10 3.07271E-10
 -1      6693 1.58962E-01-2.56343E-02-2.69316E-09-2.84065E-01-3.51584E-10-2.55438E-10
 -1      6694 1.58962E-01-2.56343E-02-2.76487E-09-2.84065E-01-2.92652E-11-2.12663E-11
 -1      6695 1.58962E-01-2.56343E-02-2.56934E-09-2.84065E-01-7.29675E-11-5.30118E-11
 -1      6696 1.58962E-01-2.56343E-02-2.50847E-09-2.84065E-01 1.31063E-11 9.50657E-12
 -1      6697 1.58962E-01-2.56343E-02-2.49244E-09-2.84065E-01 7.22205E-12 5.26654E-12
 -1      6698 1.58962E-01-2.56343E-02-2.49244E-09-2.84065E-01-7.23627E-12-5.25514E-12
 -1      6699 1.58962E-01-2.56343E-02-2.50847E-09-2.84065E-01-1.30700E-11-9.50128E-12
 -1      6700 1.58962E-01-2.56343E-02-2.56932E-09-2.84065E-01 7.29453E-11 5.30072E-11
 -1      6701 1.58962E-01-2.56343E-02-2.76486E-09-2.84065E-01 2.92784E-11 2.12793E-11
 -1      6702 1.58962E-01-2.56343E-02-2.69315E-09-2.84065E-01 3.51594E-10 2.55425E-10
 -1      6703 2.42226E-01-1.08898E-01-2.69318E-09-2.41640E-01-3.87069E-10-1.97232E-10
 -1      6704 2.42226E-01-1.08898E-01-2.76484E-09-2.41640E-01-3.23417E-11-1.64699E-11
 -1      6705 2.42226E-01-1.08898E-01-2.56934E-09-2.41640E-01-8.03126E-11-4.09273E-11
 -1      6706 2.42226E-01-1.08898E-01-2.50847E-09-2.41640E-01 1.44119E-11 7.33179E-12
 -1      6707 2.42226E-01-1.08898E-01-2.49245E-09-2.41640E-01 7.94030E-12 4.03552E-12
 -1      6708 2.42226E-01-1.08898E-01-2.49243E-09-2.41640E-01-7.91706E-12-4.03506E-12
 -1      6709 2.42226E-01-1.08898E-01-2.50845E-09-2.41640E-01-1.44323E-11-7.34839E-12
 -1      6710 2.42226E-01-1.08898E-01-2.56934E-09-2.41640E-01 8.03172E-11 4.09357E-11
 -1      6711 2.42226E-01-1.08898E-01-2.76482E-09-2.41640E-01 3.23268E-11 1.64856E-11
 -1      6712 2.42226E-01-1.08898E-01-2.69318E-09-2.41640E-01 3.87042E-10 1.97227E-10
 -1      6713 3.08304E-01-1.74976E-01-2.69298E-09-1.75562E-01-4.13407E-10-1.34347E-10
 -1      6714 3.08304E-01-1.74976E-01-2.76475E-09-1.75562E-01-3.43758E-11-1.11763E-11
 -1      6715 3.08304E-01-1.74976E-01-2.56924E-09-1.75562E-01-8.57939E-11-2.78918E-11
 -1      6716 3.08304E-01-1.74976E-01-2.50837E-09-1.75562E-01 1.53662E-11 4.98533E-12
 -1      6717 3.08304E-01-1.74976E-01-2.49231E-09-1.75562E-01 8.52810E-12 2.76846E-12
 -1      6718 3.08304E-01-1.74976E-01-2.49235E-09-1.75562E-01-8.52896E-12-2.77480E-12
 -1      6719 3.08304E-01-1.74976E-01-2.50837E-09-1.75562E-01-1.53826E-11-4.97688E-12
 -1      6720 3.08304E-01-1.74976E-01-2.56923E-09-1.75562E-01 8.58163E-11 2.78877E-11
 -1      6721 3.08304E-01-1.74976E-01-2.76477E-09-1.75562E-01 3.43768E-11 1.11694E-11
 -1      6722 3.08304E-01-1.74976E-01-2.69301E-09-1.75562E-01 4.13427E-10 1.34339E-10
 -1      6723 3.50729E-01-2.17401E-01-2.69314E-09-9.22982E-02-4.29185E-10-6.79801E-11
 -1      6724 3.50729E-01-2.17401E-01-2.76484E-09-9.22982E-02-3.58128E-11-5.66980E-12
 -1      6725 3.50729E-01-2.17401E-01-2.56936E-09-9.22982E-02-8.91091E-11-1.41117E-11
 -1      6726 3.50729E-01-2.17401E-01-2.50852E-09-9.22982E-02 1.59581E-11 2.52617E-12
 -1      6727 3.50729E-01-2.17401E-01-2.49249E-09-9.22982E-02 8.79398E-12 1.39577E-12
 -1      6728 3.50729E-01-2.17401E-01-2.49249E-09-9.22982E-02-8.82173E-12-1.39357E-12
 -1      6729 3.50729E-01-2.17401E-01-2.50850E-09-9.22982E-02-1.59187E-11-2.53665E-12
 -1      6730 3.50729E-01-2.17401E-01-2.56936E-09-9.22982E-02 8.90788E-11 1.41048E-11
 -1      6731 3.50729E-01-2.17401E-01-2.76486E-09-9.22982E-02 3.58336E-11 5.67417E-12
 -1      6732 3.50729E-01-2.17401E-01-2.69313E-09-9.22982E-02 4.29192E-10 6.79835E-11
 -1      6733-1.89739E-01 3.23067E-01-1.73067E-09-8.33105E-02 1.42306E-11 8.98050E-11
 -1      6734-1.89739E-01 3.23067E-01-1.71282E-09-8.33105E-02 1.31550E-11 8.30566E-11
 -1      6735-1.89739E-01 3.23067E-01-1.75931E-09-8.33105E-02-1.91908E-12-1.20743E-11
 -1      6736-1.89739E-01 3.23067E-01-1.77797E-09-8.33105E-02 2.67576E-12 1.68794E-11
 -1      6737-1.89739E-01 3.23067E-01-1.77943E-09-8.33105E-02 2.53796E-15 1.78319E-14
 -1      6738-1.89739E-01 3.23067E-01-1.77943E-09-8.33105E-02-1.74972E-14-2.72207E-14
 -1      6739-1.89739E-01 3.23067E-01-1.77796E-09-8.33105E-02-2.68305E-12-1.68792E-11
 -1      6740-1.89739E-01 3.23067E-01-1.75930E-09-8.33105E-02 1.90111E-12 1.20464E-11
 -1      6741-1.89739E-01 3.23067E-01-1.71282E-09-8.33105E-02-1.31582E-11-8.30912E-11
 -1      6742-1.89739E-01 3.23067E-01-1.73067E-09-8.33105E-02-1.42252E-11-8.98078E-11
 -1      6743-1.51446E-01 2.84774E-01-1.73070E-09-1.58466E-01 2.80825E-11 8.64867E-11
 -1      6744-1.51446E-01 2.84774E-01-1.71285E-09-1.58466E-01 2.59868E-11 7.99615E-11
 -1      6745-1.51446E-01 2.84774E-01-1.75933E-09-1.58466E-01-3.77840E-12-1.16417E-11
 -1      6746-1.51446E-01 2.84774E-01-1.77799E-09-1.58466E-01 5.26650E-12 1.62500E-11
 -1      6747-1.51446E-01 2.84774E-01-1.77945E-09-1.58466E-01 5.77790E-17 4.47098E-14
 -1      6748-1.51446E-01 2.84774E-01-1.77946E-09-1.58466E-01-1.93856E-14-3.48709E-14
 -1      6749-1.51446E-01 2.84774E-01-1.77800E-09-1.58466E-01-5.27747E-12-1.62613E-11
 -1      6750-1.51446E-01 2.84774E-01-1.75932E-09-1.58466E-01 3.78595E-12 1.16568E-11
 -1      6751-1.51446E-01 2.84774E-01-1.71283E-09-1.58466E-01-2.59872E-11-7.99745E-11
 -1      6752-1.51446E-01 2.84774E-01-1.73071E-09-1.58466E-01-2.80895E-11-8.64700E-11
 -1      6753-9.18021E-02 2.25130E-01-1.73068E-09-2.18110E-01 4.12849E-11 8.10107E-11
 -1      6754-9.18021E-02 2.25130E-01-1.71284E-09-2.18110E-01 3.81770E-11 7.49571E-11
 -1      6755-9.18021E-02 2.25130E-01-1.75932E-09-2.18110E-01-5.55275E-12-1.08554E-11
 -1      6756-9.18021E-02 2.25130E-01-1.77799E-09-2.18110E-01 7.75089E-12 1.52181E-11
 -1      6757-9.18021E-02 2.25130E-01-1.77944E-09-2.18110E-01 1.88863E-14 2.22823E-14
 -1      6758-9.18021E-02 2.25130E-01-1.77945E-09-2.18110E-01-1.29407E-14-2.61966E-14
 -1      6759-9.18021E-02 2.25130E-01-1.77799E-09-2.18110E-01-7.77018E-12-1.52316E-11
 -1      6760-9.18021E-02 2.25130E-01-1.75933E-09-2.18110E-01 5.53906E-12 1.09057E-11
 -1      6761-9.18021E-02 2.25130E-01-1.71284E-09-2.18110E-01-3.81809E-11-7.49393E-11
 -1      6762-9.18021E-02 2.25130E-01-1.73067E-09-2.18110E-01-4.12785E-11-8.10077E-11
 -1      6763-1.66465E-02 1.49975E-01-1.73066E-09-2.56403E-01 5.34446E-11 7.35701E-11
 -1      6764-1.66465E-02 1.49975E-01-1.71280E-09-2.56403E-01 4.94375E-11 6.80463E-11
 -1      6765-1.66465E-02 1.49975E-01-1.75929E-09-2.56403E-01-7.18635E-12-9.88428E-12
 -1      6766-1.66465E-02 1.49975E-01-1.77794E-09-2.56403E-01 1.00535E-11 1.38264E-11
 -1      6767-1.66465E-02 1.49975E-01-1.77940E-09-2.56403E-01 2.30666E-14 4.35132E-14
 -1      6768-1.66465E-02 1.49975E-01-1.77938E-09-2.56403E-01 4.65519E-15-4.26171E-14
 -1      6769-1.66465E-02 1.49975E-01-1.77793E-09-2.56403E-01-1.00713E-11-1.37772E-11
 -1      6770-1.66465E-02 1.49975E-01-1.75927E-09-2.56403E-01 7.17501E-12 9.89449E-12
 -1      6771-1.66465E-02 1.49975E-01-1.71279E-09-2.56403E-01-4.94402E-11-6.80431E-11
 -1      6772-1.66465E-02 1.49975E-01-1.73064E-09-2.56403E-01-5.34537E-11-7.35666E-11
 -1      6773 6.66640E-02 6.66640E-02-1.73062E-09-2.69599E-01 6.43128E-11 6.42998E-11
 -1      6774 6.66640E-02 6.66640E-02-1.71279E-09-2.69599E-01 5.94628E-11 5.94716E-11
 -1      6775 6.66640E-02 6.66640E-02-1.75927E-09-2.69599E-01-8.66299E-12-8.61397E-12
 -1      6776 6.66640E-02 6.66640E-02-1.77793E-09-2.69599E-01 1.20856E-11 1.20841E-11
 -1      6777 6.66640E-02 6.66640E-02-1.77938E-09-2.69599E-01 6.05344E-15 2.21413E-14
 -1      6778 6.66640E-02 6.66640E-02-1.77940E-09-2.69599E-01-1.91811E-14-1.16938E-14
 -1      6779 6.66640E-02 6.66640E-02-1.77792E-09-2.69599E-01-1.21030E-11-1.20813E-11
 -1      6780 6.66640E-02 6.66640E-02-1.75927E-09-2.69599E-01 8.63117E-12 8.62747E-12
 -1      6781 6.66640E-02 6.66640E-02-1.71278E-09-2.69599E-01-5.94778E-11-5.94568E-11
 -1      6782 6.66640E-02 6.66640E-02-1.73064E-09-2.69599E-01-6.42982E-11-6.42969E-11
 -1      6783 1.49975E-01-1.66465E-02-1.73071E-09-2.56403E-01 7.35399E-11 5.34479E-11
 -1      6784 1.49975E-01-1.66465E-02-1.71286E-09-2.56403E-01 6.80331E-11 4.94504E-11
 -1      6785 1.49975E-01-1.66465E-02-1.75936E-09-2.56403E-01-9.87156E-12-7.20152E-12
 -1      6786 1.49975E-01-1.66465E-02-1.77801E-09-2.56403E-01 1.38230E-11 1.00608E-11
 -1      6787 1.49975E-01-1.66465E-02-1.77948E-09-2.56403E-01 5.82971E-14 2.44883E-14
 -1      6788 1.49975E-01-1.66465E-02-1.77947E-09-2.56403E-01-4.55947E-14-2.32943E-14
 -1      6789 1.49975E-01-1.66465E-02-1.77802E-09-2.56403E-01-1.38125E-11-1.00503E-11
 -1      6790 1.49975E-01-1.66465E-02-1.75936E-09-2.56403E-01 9.90234E-12 7.17498E-12
 -1      6791 1.49975E-01-1.66465E-02-1.71287E-09-2.56403E-01-6.80398E-11-4.94524E-11
 -1      6792 1.49975E-01-1.66465E-02-1.73072E-09-2.56403E-01-7.35295E-11-5.34366E-11
 -1      6793 2.25130E-01-9.18021E-02-1.73071E-09-2.18110E-01 8.10818E-11 4.13035E-11
 -1      6794 2.25130E-01-9.18021E-02-1.71284E-09-2.18110E-01 7.49272E-11 3.81639E-11
 -1      6795 2.25130E-01-9.18021E-02-1.75932E-09-2.18110E-01-1.08706E-11-5.52571E-12
 -1      6796 2.25130E-01-9.18021E-02-1.77799E-09-2.18110E-01 1.52392E-11 7.75596E-12
 -1      6797 2.25130E-01-9.18021E-02-1.77943E-09-2.18110E-01-1.07803E-15 2.14873E-14
 -1      6798 2.25130E-01-9.18021E-02-1.77943E-09-2.18110E-01-9.24211E-15-4.40627E-15
 -1      6799 2.25130E-01-9.18021E-02-1.77797E-09-2.18110E-01-1.52113E-11-7.74653E-12
 -1      6800 2.25130E-01-9.18021E-02-1.75931E-09-2.18110E-01 1.08633E-11 5.54815E-12
 -1      6801 2.25130E-01-9.18021E-02-1.71283E-09-2.18110E-01-7.48889E-11-3.81479E-11
 -1      6802 2.25130E-01-9.18021E-02-1.73071E-09-2.18110E-01-8.10833E-11-4.13226E-11
 -1      6803 2.84774E-01-1.51446E-01-1.73056E-09-1.58466E-01 8.64244E-11 2.80875E-11
 -1      6804 2.84774E-01-1.51446E-01-1.71270E-09-1.58466E-01 8.00466E-11 2.60070E-11
 -1      6805 2.84774E-01-1.51446E-01-1.75918E-09-1.58466E-01-1.16143E-11-3.78552E-12
 -1      6806 2.84774E-01-1.51446E-01-1.77785E-09-1.58466E-01 1.62610E-11 5.28197E-12
 -1      6807 2.84774E-01-1.51446E-01-1.77930E-09-1.58466E-01 4.63810E-14 1.43226E-14
 -1      6808 2.84774E-01-1.51446E-01-1.77933E-09-1.58466E-01-6.05738E-14-1.89637E-14
 -1      6809 2.84774E-01-1.51446E-01-1.77785E-09-1.58466E-01-1.62778E-11-5.28909E-12
 -1      6810 2.84774E-01-1.51446E-01-1.75919E-09-1.58466E-01 1.16339E-11 3.77107E-12
 -1      6811 2.84774E-01-1.51446E-01-1.71274E-09-1.58466E-01-8.00360E-11-2.59968E-11
 -1      6812 2.84774E-01-1.51446E-01-1.73057E-09-1.58466E-01-8.64386E-11-2.80694E-11
 -1      6813 3.23067E-01-1.89739E-01-1.73069E-09-8.33105E-02 8.98160E-11 1.42148E-11
 -1      6814 3.23067E-01-1.89739E-01-1.71285E-09-8.33105E-02 8.30324E-11 1.31488E-11
 -1      6815 3.23067E-01-1.89739E-01-1.75935E-09-8.33105E-02-1.20997E-11-1.91639E-12
 -1      6816 3.23067E-01-1.89739E-01-1.77801E-09-8.33105E-02 1.68837E-11 2.67435E-12
 -1      6817 3.23067E-01-1.89739E-01-1.77948E-09-8.33105E-02 3.66240E-14 4.88974E-15
 -1      6818 3.23067E-01-1.89739E-01-1.77947E-09-8.33105E-02-1.89266E-14-4.94187E-15
 -1      6819 3.23067E-01-1.89739E-01-1.77802E-09-8.33105E-02-1.68677E-11-2.67335E-12
 -1      6820 3.23067E-01-1.89739E-01-1.75935E-09-8.33105E-02 1.20958E-11 1.91140E-12
 -1      6821 3.23067E-01-1.89739E-01-1.71285E-09-8.33105E-02-8.30609E-11-1.31548E-11
 -1      6822 3.23067E-01-1.89739E-01-1.73069E-09-8.33105E-02-8.98210E-11-1.42195E-11
 -1      6823-1.65929E-01 2.99257E-01-1.49709E-09-7.55740E-02-1.03290E-12-6.47615E-12
 -1      6824-1.65929E-01 2.99257E-01-1.49426E-09-7.55740E-02 1.22954E-13 8.66709E-13
 -1      6825-1.65929E-01 2.99257E-01-1.47528E-09-7.55740E-02-2.54635E-12-1.60445E-11
 -1      6826-1.65929E-01 2.99257E-01-1.47209E-09-7.55740E-02 9.93601E-13 6.31312E-12
 -1      6827-1.65929E-01 2.99257E-01-1.47010E-09-7.55740E-02-4.20825E-13-2.56426E-12
 -1      6828-1.65929E-01 2.99257E-01-1.47010E-09-7.55740E-02 3.99469E-13 2.59173E-12
 -1      6829-1.65929E-01 2.99257E-01-1.47207E-09-7.55740E-02-1.01027E-12-6.33671E-12
 -1      6830-1.65929E-01 2.99257E-01-1.47530E-09-7.55740E-02 2.53178E-12 1.60435E-11
 -1      6831-1.65929E-01 2.99257E-01-1.49426E-09-7.55740E-02-1.44515E-13-8.76963E-13
 -1      6832-1.65929E-01 2.99257E-01-1.49710E-09-7.55740E-02 1.02168E-12 6.44657E-12
 -1      6833-1.31191E-01 2.64519E-01-1.49707E-09-1.43750E-01-2.02504E-12-6.22967E-12
 -1      6834-1.31191E-01 2.64519E-01-1.49426E-09-1.43750E-01 2.69263E-13 8.08770E-13
 -1      6835-1.31191E-01 2.64519E-01-1.47530E-09-1.43750E-01-5.02472E-12-1.54482E-11
 -1      6836-1.31191E-01 2.64519E-01-1.47209E-09-1.43750E-01 1.96917E-12 6.09743E-12
 -1      6837-1.31191E-01 2.64519E-01-1.47012E-09-1.43750E-01-8.10197E-13-2.52384E-12
 -1      6838-1.31191E-01 2.64519E-01-1.47010E-09-1.43750E-01 7.90896E-13 2.50603E-12
 -1      6839-1.31191E-01 2.64519E-01-1.47209E-09-1.43750E-01-1.98877E-12-6.08598E-12
 -1      6840-1.31191E-01 2.64519E-01-1.47528E-09-1.43750E-01 5.00618E-12 1.54788E-11
 -1      6841-1.31191E-01 2.64519E-01-1.49428E-09-1.43750E-01-2.63277E-13-8.43451E-13
 -1      6842-1.31191E-01 2.64519E-01-1.49708E-09-1.43750E-01 2.02070E-12 6.24626E-12
 -1      6843-7.70862E-02 2.10414E-01-1.49713E-09-1.97855E-01-2.99477E-12-5.82706E-12
 -1      6844-7.70862E-02 2.10414E-01-1.49429E-09-1.97855E-01 4.02671E-13 8.12064E-13
 -1      6845-7.70862E-02 2.10414E-01-1.47529E-09-1.97855E-01-7.37520E-12-1.44772E-11
 -1      6846-7.70862E-02 2.10414E-01-1.47207E-09-1.97855E-01 2.90019E-12 5.69585E-12
 -1      6847-7.70862E-02 2.10414E-01-1.47010E-09-1.97855E-01-1.19131E-12-2.33372E-12
 -1      6848-7.70862E-02 2.10414E-01-1.47009E-09-1.97855E-01 1.19540E-12 2.36038E-12
 -1      6849-7.70862E-02 2.10414E-01-1.47209E-09-1.97855E-01-2.89706E-12-5.69304E-12
 -1      6850-7.70862E-02 2.10414E-01-1.47529E-09-1.97855E-01 7.38043E-12 1.44488E-11
 -1      6851-7.70862E-02 2.10414E-01-1.49428E-09-1.97855E-01-4.08925E-13-7.81215E-13
 -1      6852-7.70862E-02 2.10414E-01-1.49711E-09-1.97855E-01 2.95874E-12 5.85615E-12
 -1      6853-8.90999E-03 1.42238E-01-1.49706E-09-2.32593E-01-3.83431E-12-5.31292E-12
 -1      6854-8.90999E-03 1.42238E-01-1.49424E-09-2.32593E-01 5.19573E-13 7.26008E-13
 -1      6855-8.90999E-03 1.42238E-01-1.47524E-09-2.32593E-01-9.54049E-12-1.31378E-11
 -1      6856-8.90999E-03 1.42238E-01-1.47203E-09-2.32593E-01 3.78528E-12 5.18052E-12
 -1      6857-8.90999E-03 1.42238E-01-1.47004E-09-2.32593E-01-1.55112E-12-2.10786E-12
 -1      6858-8.90999E-03 1.42238E-01-1.47006E-09-2.32593E-01 1.51015E-12 2.12921E-12
 -1      6859-8.90999E-03 1.42238E-01-1.47202E-09-2.32593E-01-3.75637E-12-5.17352E-12
 -1      6860-8.90999E-03 1.42238E-01-1.47524E-09-2.32593E-01 9.54050E-12 1.31291E-11
 -1      6861-8.90999E-03 1.42238E-01-1.49422E-09-2.32593E-01-5.34749E-13-6.89056E-13
 -1      6862-8.90999E-03 1.42238E-01-1.49706E-09-2.32593E-01 3.84451E-12 5.30683E-12
 -1      6863 6.66640E-02 6.66640E-02-1.49704E-09-2.44563E-01-4.61514E-12-4.60941E-12
 -1      6864 6.66640E-02 6.66640E-02-1.49420E-09-2.44563E-01 6.20410E-13 6.18971E-13
 -1      6865 6.66640E-02 6.66640E-02-1.47522E-09-2.44563E-01-1.14784E-11-1.14945E-11
 -1      6866 6.66640E-02 6.66640E-02-1.47201E-09-2.44563E-01 4.51096E-12 4.55511E-12
 -1      6867 6.66640E-02 6.66640E-02-1.47004E-09-2.44563E-01-1.84946E-12-1.89875E-12
 -1      6868 6.66640E-02 6.66640E-02-1.47005E-09-2.44563E-01 1.83154E-12 1.86086E-12
 -1      6869 6.66640E-02 6.66640E-02-1.47201E-09-2.44563E-01-4.55437E-12-4.51028E-12
 -1      6870 6.66640E-02 6.66640E-02-1.47522E-09-2.44563E-01 1.14739E-11 1.15100E-11
 -1      6871 6.66640E-02 6.66640E-02-1.49421E-09-2.44563E-01-6.20298E-13-6.50572E-13
 -1      6872 6.66640E-02 6.66640E-02-1.49706E-09-2.44563E-01 4.62567E-12 4.63504E-12
 -1      6873 1.42238E-01-8.90999E-03-1.49716E-09-2.32593E-01-5.32513E-12-3.86272E-12
 -1      6874 1.42238E-01-8.90999E-03-1.49433E-09-2.32593E-01 7.23040E-13 5.14535E-13
 -1      6875 1.42238E-01-8.90999E-03-1.47534E-09-2.32593E-01-1.31778E-11-9.52808E-12
 -1      6876 1.42238E-01-8.90999E-03-1.47215E-09-2.32593E-01 5.17380E-12 3.76137E-12
 -1      6877 1.42238E-01-8.90999E-03-1.47017E-09-2.32593E-01-2.13548E-12-1.51384E-12
 -1      6878 1.42238E-01-8.90999E-03-1.47016E-09-2.32593E-01 2.14149E-12 1.54608E-12
 -1      6879 1.42238E-01-8.90999E-03-1.47213E-09-2.32593E-01-5.16017E-12-3.77123E-12
 -1      6880 1.42238E-01-8.90999E-03-1.47533E-09-2.32593E-01 1.31488E-11 9.54529E-12
 -1      6881 1.42238E-01-8.90999E-03-1.49434E-09-2.32593E-01-7.17352E-13-5.02852E-13
 -1      6882 1.42238E-01-8.90999E-03-1.49717E-09-2.32593E-01 5.31091E-12 3.84760E-12
 -1      6883 2.10414E-01-7.70863E-02-1.49711E-09-1.97855E-01-5.80635E-12-2.94398E-12
 -1      6884 2.10414E-01-7.70863E-02-1.49428E-09-1.97855E-01 7.71380E-13 4.00757E-13
 -1      6885 2.10414E-01-7.70863E-02-1.47529E-09-1.97855E-01-1.44273E-11-7.36854E-12
 -1      6886 2.10414E-01-7.70863E-02-1.47208E-09-1.97855E-01 5.71555E-12 2.91071E-12
 -1      6887 2.10414E-01-7.70863E-02-1.47010E-09-1.97855E-01-2.32640E-12-1.19472E-12
 -1      6888 2.10414E-01-7.70863E-02-1.47012E-09-1.97855E-01 2.34052E-12 1.21772E-12
 -1      6889 2.10414E-01-7.70863E-02-1.47208E-09-1.97855E-01-5.71409E-12-2.90378E-12
 -1      6890 2.10414E-01-7.70863E-02-1.47528E-09-1.97855E-01 1.44603E-11 7.35568E-12
 -1      6891 2.10414E-01-7.70863E-02-1.49429E-09-1.97855E-01-7.48968E-13-4.09984E-13
 -1      6892 2.10414E-01-7.70863E-02-1.49713E-09-1.97855E-01 5.82009E-12 2.97185E-12
 -1      6893 2.64519E-01-1.31191E-01-1.49694E-09-1.43750E-01-6.23871E-12-2.03706E-12
 -1      6894 2.64519E-01-1.31191E-01-1.49414E-09-1.43750E-01 8.99806E-13 2.81302E-13
 -1      6895 2.64519E-01-1.31191E-01-1.47511E-09-1.43750E-01-1.54453E-11-5.02202E-12
 -1      6896 2.64519E-01-1.31191E-01-1.47191E-09-1.43750E-01 6.12787E-12 1.98270E-12
 -1      6897 2.64519E-01-1.31191E-01-1.46994E-09-1.43750E-01-2.50583E-12-8.02610E-13
 -1      6898 2.64519E-01-1.31191E-01-1.46992E-09-1.43750E-01 2.50022E-12 8.07979E-13
 -1      6899 2.64519E-01-1.31191E-01-1.47191E-09-1.43750E-01-6.13180E-12-1.98490E-12
 -1      6900 2.64519E-01-1.31191E-01-1.47513E-09-1.43750E-01 1.54429E-11 5.02357E-12
 -1      6901 2.64519E-01-1.31191E-01-1.49412E-09-1.43750E-01-8.74269E-13-2.92337E-13
 -1      6902 2.64519E-01-1.31191E-01-1.49693E-09-1.43750E-01 6.20778E-12 2.02556E-12
 -1      6903 2.99257E-01-1.65929E-01-1.49710E-09-7.55740E-02-6.47316E-12-1.04062E-12
 -1      6904 2.99257E-01-1.65929E-01-1.49426E-09-7.55740E-02 8.52737E-13 1.23345E-13
 -1      6905 2.99257E-01-1.65929E-01-1.47529E-09-7.55740E-02-1.60438E-11-2.55060E-12
 -1      6906 2.99257E-01-1.65929E-01-1.47205E-09-7.55740E-02 6.29243E-12 9.96282E-13
 -1      6907 2.99257E-01-1.65929E-01-1.47010E-09-7.55740E-02-2.55726E-12-4.10361E-13
 -1      6908 2.99257E-01-1.65929E-01-1.47014E-09-7.55740E-02 2.61443E-12 4.11788E-13
 -1      6909 2.99257E-01-1.65929E-01-1.47210E-09-7.55740E-02-6.30916E-12-9.96696E-13
 -1      6910 2.99257E-01-1.65929E-01-1.47529E-09-7.55740E-02 1.60374E-11 2.54542E-12
 -1      6911 2.99257E-01-1.65929E-01-1.49429E-09-7.55740E-02-8.58057E-13-1.20030E-13
 -1      6912 2.99257E-01-1.65929E-01-1.49711E-09-7.55740E-02 6.45545E-12 1.04310E-12
 -1      6913-1.45286E-01 2.78614E-01-1.17583E-09-6.88668E-02 5.35246E-12 3.37912E-11
 -1      6914-1.45286E-01 2.78614E-01-1.16947E-09-6.88668E-02 4.80677E-13 3.05063E-12
 -1      6915-1.45286E-01 2.78614E-01-1.17335E-09-6.88668E-02-6.83007E-13-4.32348E-12
 -1      6916-1.45286E-01 2.78614E-01-1.17572E-09-6.88668E-02 6.17848E-13 3.95763E-12
 -1      6917-1.45286E-01 2.78614E-01-1.17541E-09-6.88668E-02-3.43582E-13-2.12084E-12
 -1      6918-1.45286E-01 2.78614E-01-1.17541E-09-6.88668E-02 3.33004E-13 2.10979E-12
 -1      6919-1.45286E-01 2.78614E-01-1.17573E-09-6.88668E-02-6.31970E-13-3.91877E-12
 -1      6920-1.45286E-01 2.78614E-01-1.17337E-09-6.88668E-02 6.71991E-13 4.31331E-12
 -1      6921-1.45286E-01 2.78614E-01-1.16948E-09-6.88668E-02-4.88043E-13-3.05862E-12
 -1      6922-1.45286E-01 2.78614E-01-1.17584E-09-6.88668E-02-5.35036E-12-3.37963E-11
 -1      6923-1.13632E-01 2.46959E-01-1.17586E-09-1.30992E-01 1.05553E-11 3.25512E-11
 -1      6924-1.13632E-01 2.46959E-01-1.16949E-09-1.30992E-01 9.44378E-13 2.94410E-12
 -1      6925-1.13632E-01 2.46959E-01-1.17338E-09-1.30992E-01-1.35820E-12-4.16253E-12
 -1      6926-1.13632E-01 2.46959E-01-1.17574E-09-1.30992E-01 1.21838E-12 3.75382E-12
 -1      6927-1.13632E-01 2.46959E-01-1.17541E-09-1.30992E-01-6.78281E-13-2.06345E-12
 -1      6928-1.13632E-01 2.46959E-01-1.17541E-09-1.30992E-01 6.62560E-13 2.05890E-12
 -1      6929-1.13632E-01 2.46959E-01-1.17574E-09-1.30992E-01-1.23222E-12-3.77015E-12
 -1      6930-1.13632E-01 2.46959E-01-1.17337E-09-1.30992E-01 1.35144E-12 4.14519E-12
 -1      6931-1.13632E-01 2.46959E-01-1.16948E-09-1.30992E-01-9.64223E-13-2.92538E-12
 -1      6932-1.13632E-01 2.46959E-01-1.17585E-09-1.30992E-01-1.05788E-11-3.25486E-11
 -1      6933-6.43284E-02 1.97656E-01-1.17586E-09-1.80295E-01 1.55425E-11 3.05014E-11
 -1      6934-6.43284E-02 1.97656E-01-1.16950E-09-1.80295E-01 1.40242E-12 2.74747E-12
 -1      6935-6.43284E-02 1.97656E-01-1.17336E-09-1.80295E-01-1.99171E-12-3.89142E-12
 -1      6936-6.43284E-02 1.97656E-01-1.17574E-09-1.80295E-01 1.80410E-12 3.56288E-12
 -1      6937-6.43284E-02 1.97656E-01-1.17542E-09-1.80295E-01-9.81210E-13-1.89720E-12
 -1      6938-6.43284E-02 1.97656E-01-1.17542E-09-1.80295E-01 9.82557E-13 1.92102E-12
 -1      6939-6.43284E-02 1.97656E-01-1.17573E-09-1.80295E-01-1.80867E-12-3.52733E-12
 -1      6940-6.43284E-02 1.97656E-01-1.17340E-09-1.80295E-01 1.97947E-12 3.89761E-12
 -1      6941-6.43284E-02 1.97656E-01-1.16952E-09-1.80295E-01-1.39816E-12-2.76272E-12
 -1      6942-6.43284E-02 1.97656E-01-1.17588E-09-1.80295E-01-1.55230E-11-3.04765E-11
 -1      6943-2.20277E-03 1.35531E-01-1.17581E-09-2.11950E-01 2.01217E-11 2.76838E-11
 -1      6944-2.20277E-03 1.35531E-01-1.16942E-09-2.11950E-01 1.82521E-12 2.48289E-12
 -1      6945-2.20277E-03 1.35531E-01-1.17331E-09-2.11950E-01-2.57186E-12-3.50502E-12
 -1      6946-2.20277E-03 1.35531E-01-1.17567E-09-2.11950E-01 2.33264E-12 3.22842E-12
 -1      6947-2.20277E-03 1.35531E-01-1.17533E-09-2.11950E-01-1.27406E-12-1.76809E-12
 -1      6948-2.20277E-03 1.35531E-01-1.17534E-09-2.11950E-01 1.29342E-12 1.78131E-12
 -1      6949-2.20277E-03 1.35531E-01-1.17565E-09-2.11950E-01-2.34788E-12-3.21560E-12
 -1      6950-2.20277E-03 1.35531E-01-1.17331E-09-2.11950E-01 2.55491E-12 3.53105E-12
 -1      6951-2.20277E-03 1.35531E-01-1.16944E-09-2.11950E-01-1.82553E-12-2.49453E-12
 -1      6952-2.20277E-03 1.35531E-01-1.17581E-09-2.11950E-01-2.01246E-11-2.76776E-11
 -1      6953 6.66640E-02 6.66640E-02-1.17575E-09-2.22857E-01 2.42073E-11 2.41907E-11
 -1      6954 6.66640E-02 6.66640E-02-1.16940E-09-2.22857E-01 2.19482E-12 2.23897E-12
 -1      6955 6.66640E-02 6.66640E-02-1.17332E-09-2.22857E-01-3.05129E-12-3.09125E-12
 -1      6956 6.66640E-02 6.66640E-02-1.17566E-09-2.22857E-01 2.82053E-12 2.78002E-12
 -1      6957 6.66640E-02 6.66640E-02-1.17535E-09-2.22857E-01-1.53360E-12-1.53430E-12
 -1      6958 6.66640E-02 6.66640E-02-1.17534E-09-2.22857E-01 1.51421E-12 1.52077E-12
 -1      6959 6.66640E-02 6.66640E-02-1.17568E-09-2.22857E-01-2.82309E-12-2.81766E-12
 -1      6960 6.66640E-02 6.66640E-02-1.17330E-09-2.22857E-01 3.09879E-12 3.08091E-12
 -1      6961 6.66640E-02 6.66640E-02-1.16941E-09-2.22857E-01-2.20308E-12-2.18015E-12
 -1      6962 6.66640E-02 6.66640E-02-1.17574E-09-2.22857E-01-2.42053E-11-2.41877E-11
 -1      6963 1.35531E-01-2.20277E-03-1.17596E-09-2.11950E-01 2.76462E-11 2.01106E-11
 -1      6964 1.35531E-01-2.20277E-03-1.16959E-09-2.11950E-01 2.46289E-12 1.80885E-12
 -1      6965 1.35531E-01-2.20277E-03-1.17348E-09-2.11950E-01-3.57360E-12-2.57212E-12
 -1      6966 1.35531E-01-2.20277E-03-1.17584E-09-2.11950E-01 3.21082E-12 2.35873E-12
 -1      6967 1.35531E-01-2.20277E-03-1.17552E-09-2.11950E-01-1.74249E-12-1.27706E-12
 -1      6968 1.35531E-01-2.20277E-03-1.17552E-09-2.11950E-01 1.75297E-12 1.27044E-12
 -1      6969 1.35531E-01-2.20277E-03-1.17585E-09-2.11950E-01-3.23048E-12-2.32822E-12
 -1      6970 1.35531E-01-2.20277E-03-1.17347E-09-2.11950E-01 3.54872E-12 2.58931E-12
 -1      6971 1.35531E-01-2.20277E-03-1.16956E-09-2.11950E-01-2.47598E-12-1.81143E-12
 -1      6972 1.35531E-01-2.20277E-03-1.17594E-09-2.11950E-01-2.76721E-11-2.00991E-11
 -1      6973 1.97656E-01-6.43284E-02-1.17588E-09-1.80295E-01 3.05044E-11 1.55483E-11
 -1      6974 1.97656E-01-6.43284E-02-1.16951E-09-1.80295E-01 2.75927E-12 1.41766E-12
 -1      6975 1.97656E-01-6.43284E-02-1.17341E-09-1.80295E-01-3.88023E-12-1.96866E-12
 -1      6976 1.97656E-01-6.43284E-02-1.17574E-09-1.80295E-01 3.56696E-12 1.80926E-12
 -1      6977 1.97656E-01-6.43284E-02-1.17542E-09-1.80295E-01-1.90941E-12-9.74982E-13
 -1      6978 1.97656E-01-6.43284E-02-1.17541E-09-1.80295E-01 1.92381E-12 9.93182E-13
 -1      6979 1.97656E-01-6.43284E-02-1.17575E-09-1.80295E-01-3.53902E-12-1.80176E-12
 -1      6980 1.97656E-01-6.43284E-02-1.17340E-09-1.80295E-01 3.88807E-12 1.97137E-12
 -1      6981 1.97656E-01-6.43284E-02-1.16951E-09-1.80295E-01-2.73769E-12-1.40918E-12
 -1      6982 1.97656E-01-6.43284E-02-1.17589E-09-1.80295E-01-3.04849E-11-1.55572E-11
 -1      6983 2.46959E-01-1.13632E-01-1.17565E-09-1.30992E-01 3.25758E-11 1.05646E-11
 -1      6984 2.46959E-01-1.13632E-01-1.16926E-09-1.30992E-01 2.99212E-12 9.60338E-13
 -1      6985 2.46959E-01-1.13632E-01-1.17316E-09-1.30992E-01-4.11553E-12-1.33275E-12
 -1      6986 2.46959E-01-1.13632E-01-1.17551E-09-1.30992E-01 3.79082E-12 1.23733E-12
 -1      6987 2.46959E-01-1.13632E-01-1.17519E-09-1.30992E-01-2.06253E-12-6.66821E-13
 -1      6988 2.46959E-01-1.13632E-01-1.17519E-09-1.30992E-01 2.05219E-12 6.74813E-13
 -1      6989 2.46959E-01-1.13632E-01-1.17549E-09-1.30992E-01-3.80789E-12-1.23135E-12
 -1      6990 2.46959E-01-1.13632E-01-1.17316E-09-1.30992E-01 4.10924E-12 1.33539E-12
 -1      6991 2.46959E-01-1.13632E-01-1.16928E-09-1.30992E-01-2.98993E-12-9.46299E-13
 -1      6992 2.46959E-01-1.13632E-01-1.17568E-09-1.30992E-01-3.25805E-11-1.05690E-11
 -1      6993 2.78614E-01-1.45286E-01-1.17585E-09-6.88668E-02 3.38048E-11 5.33233E-12
 -1      6994 2.78614E-01-1.45286E-01-1.16949E-09-6.88668E-02 3.04057E-12 4.69481E-13
 -1      6995 2.78614E-01-1.45286E-01-1.17339E-09-6.88668E-02-4.31522E-12-6.86166E-13
 -1      6996 2.78614E-01-1.45286E-01-1.17576E-09-6.88668E-02 3.92954E-12 6.29154E-13
 -1      6997 2.78614E-01-1.45286E-01-1.17543E-09-6.88668E-02-2.14852E-12-3.32875E-13
 -1      6998 2.78614E-01-1.45286E-01-1.17542E-09-6.88668E-02 2.16459E-12 3.38181E-13
 -1      6999 2.78614E-01-1.45286E-01-1.17574E-09-6.88668E-02-3.90776E-12-6.20432E-13
 -1      7000 2.78614E-01-1.45286E-01-1.17339E-09-6.88668E-02 4.32331E-12 6.95320E-13
 -1      7001 2.78614E-01-1.45286E-01-1.16949E-09-6.88668E-02-3.07499E-12-4.65184E-13
 -1      7002 2.78614E-01-1.45286E-01-1.17584E-09-6.88668E-02-3.37932E-11-5.32332E-12
 -1      7003-1.27273E-01 2.60601E-01-9.69423E-10-6.30141E-02 3.75174E-12 2.37022E-11
 -1      7004-1.27273E-01 2.60601E-01-9.64314E-10-6.30141E-02-7.42564E-13-4.67026E-12
 -1      7005-1.27273E-01 2.60601E-01-9.62602E-10-6.30141E-02-3.08653E-13-1.95066E-12
 -1      7006-1.27273E-01 2.60601E-01-9.62968E-10-6.30141E-02 2.64842E-13 1.70944E-12
 -1      7007-1.27273E-01 2.60601E-01-9.62563E-10-6.30141E-02-2.44274E-13-1.49011E-12
 -1      7008-1.27273E-01 2.60601E-01-9.62574E-10-6.30141E-02 2.31782E-13 1.51384E-12
 -1      7009-1.27273E-01 2.60601E-01-9.62972E-10-6.30141E-02-2.72982E-13-1.70619E-12
 -1      7010-1.27273E-01 2.60601E-01-9.62587E-10-6.30141E-02 3.00538E-13 1.96202E-12
 -1      7011-1.27273E-01 2.60601E-01-9.64303E-10-6.30141E-02 7.33199E-13 4.66097E-12
 -1      7012-1.27273E-01 2.60601E-01-9.69417E-10-6.30141E-02-3.75027E-12-2.37112E-11
 -1      7013-9.83091E-02 2.31637E-01-9.69425E-10-1.19860E-01 7.41198E-12 2.27979E-11
 -1      7014-9.83091E-02 2.31637E-01-9.64288E-10-1.19860E-01-1.47364E-12-4.50193E-12
 -1      7015-9.83091E-02 2.31637E-01-9.62570E-10-1.19860E-01-6.12241E-13-1.87150E-12
 -1      7016-9.83091E-02 2.31637E-01-9.62962E-10-1.19860E-01 5.27395E-13 1.62369E-12
 -1      7017-9.83091E-02 2.31637E-01-9.62600E-10-1.19860E-01-4.80740E-13-1.45737E-12
 -1      7018-9.83091E-02 2.31637E-01-9.62575E-10-1.19860E-01 4.76305E-13 1.45453E-12
 -1      7019-9.83091E-02 2.31637E-01-9.62961E-10-1.19860E-01-5.34977E-13-1.65218E-12
 -1      7020-9.83091E-02 2.31637E-01-9.62590E-10-1.19860E-01 6.08691E-13 1.89583E-12
 -1      7021-9.83091E-02 2.31637E-01-9.64313E-10-1.19860E-01 1.46306E-12 4.49676E-12
 -1      7022-9.83091E-02 2.31637E-01-9.69434E-10-1.19860E-01-7.40802E-12-2.27851E-11
 -1      7023-5.31960E-02 1.86524E-01-9.69470E-10-1.64973E-01 1.08681E-11 2.13624E-11
 -1      7024-5.31960E-02 1.86524E-01-9.64345E-10-1.64973E-01-2.15338E-12-4.19847E-12
 -1      7025-5.31960E-02 1.86524E-01-9.62633E-10-1.64973E-01-9.06820E-13-1.76617E-12
 -1      7026-5.31960E-02 1.86524E-01-9.63003E-10-1.64973E-01 7.78512E-13 1.52321E-12
 -1      7027-5.31960E-02 1.86524E-01-9.62601E-10-1.64973E-01-6.93076E-13-1.33884E-12
 -1      7028-5.31960E-02 1.86524E-01-9.62616E-10-1.64973E-01 6.91486E-13 1.36354E-12
 -1      7029-5.31960E-02 1.86524E-01-9.62995E-10-1.64973E-01-7.72082E-13-1.51105E-12
 -1      7030-5.31960E-02 1.86524E-01-9.62617E-10-1.64973E-01 9.01752E-13 1.76227E-12
 -1      7031-5.31960E-02 1.86524E-01-9.64351E-10-1.64973E-01 2.16246E-12 4.22753E-12
 -1      7032-5.31960E-02 1.86524E-01-9.69476E-10-1.64973E-01-1.08835E-11-2.13747E-11
 -1      7033 3.64988E-03 1.29678E-01-9.69377E-10-1.93937E-01 1.40917E-11 1.94144E-11
 -1      7034 3.64988E-03 1.29678E-01-9.64249E-10-1.93937E-01-2.73974E-12-3.81779E-12
 -1      7035 3.64988E-03 1.29678E-01-9.62518E-10-1.93937E-01-1.14250E-12-1.60613E-12
 -1      7036 3.64988E-03 1.29678E-01-9.62882E-10-1.93937E-01 1.03077E-12 1.39789E-12
 -1      7037 3.64988E-03 1.29678E-01-9.62502E-10-1.93937E-01-8.91072E-13-1.24713E-12
 -1      7038 3.64988E-03 1.29678E-01-9.62492E-10-1.93937E-01 9.00839E-13 1.24884E-12
 -1      7039 3.64988E-03 1.29678E-01-9.62882E-10-1.93937E-01-1.00292E-12-1.42649E-12
 -1      7040 3.64988E-03 1.29678E-01-9.62528E-10-1.93937E-01 1.16422E-12 1.61821E-12
 -1      7041 3.64988E-03 1.29678E-01-9.64236E-10-1.93937E-01 2.76033E-12 3.81998E-12
 -1      7042 3.64988E-03 1.29678E-01-9.69373E-10-1.93937E-01-1.41164E-11-1.94147E-11
 -1      7043 6.66640E-02 6.66640E-02-9.69345E-10-2.03918E-01 1.69866E-11 1.69746E-11
 -1      7044 6.66640E-02 6.66640E-02-9.64216E-10-2.03918E-01-3.32110E-12-3.34437E-12
 -1      7045 6.66640E-02 6.66640E-02-9.62514E-10-2.03918E-01-1.37766E-12-1.36457E-12
 -1      7046 6.66640E-02 6.66640E-02-9.62870E-10-2.03918E-01 1.18443E-12 1.20525E-12
 -1      7047 6.66640E-02 6.66640E-02-9.62484E-10-2.03918E-01-1.05650E-12-1.12078E-12
 -1      7048 6.66640E-02 6.66640E-02-9.62500E-10-2.03918E-01 1.03873E-12 1.09819E-12
 -1      7049 6.66640E-02 6.66640E-02-9.62874E-10-2.03918E-01-1.21780E-12-1.20067E-12
 -1      7050 6.66640E-02 6.66640E-02-9.62505E-10-2.03918E-01 1.38105E-12 1.39176E-12
 -1      7051 6.66640E-02 6.66640E-02-9.64213E-10-2.03918E-01 3.32615E-12 3.32311E-12
 -1      7052 6.66640E-02 6.66640E-02-9.69346E-10-2.03918E-01-1.69746E-11-1.69373E-11
 -1      7053 1.29678E-01 3.64988E-03-9.69555E-10-1.93937E-01 1.93613E-11 1.40848E-11
 -1      7054 1.29678E-01 3.64988E-03-9.64446E-10-1.93937E-01-3.87165E-12-2.78668E-12
 -1      7055 1.29678E-01 3.64988E-03-9.62726E-10-1.93937E-01-1.63215E-12-1.18395E-12
 -1      7056 1.29678E-01 3.64988E-03-9.63118E-10-1.93937E-01 1.40461E-12 1.00395E-12
 -1      7057 1.29678E-01 3.64988E-03-9.62722E-10-1.93937E-01-1.27885E-12-8.78181E-13
 -1      7058 1.29678E-01 3.64988E-03-9.62729E-10-1.93937E-01 1.27780E-12 9.03035E-13
 -1      7059 1.29678E-01 3.64988E-03-9.63115E-10-1.93937E-01-1.37920E-12-1.00976E-12
 -1      7060 1.29678E-01 3.64988E-03-9.62739E-10-1.93937E-01 1.60604E-12 1.17209E-12
 -1      7061 1.29678E-01 3.64988E-03-9.64445E-10-1.93937E-01 3.86026E-12 2.79184E-12
 -1      7062 1.29678E-01 3.64988E-03-9.69551E-10-1.93937E-01-1.93518E-11-1.40920E-11
 -1      7063 1.86524E-01-5.31960E-02-9.69493E-10-1.64973E-01 2.13779E-11 1.09103E-11
 -1      7064 1.86524E-01-5.31960E-02-9.64349E-10-1.64973E-01-4.20927E-12-2.11930E-12
 -1      7065 1.86524E-01-5.31960E-02-9.62625E-10-1.64973E-01-1.76710E-12-8.81234E-13
 -1      7066 1.86524E-01-5.31960E-02-9.62997E-10-1.64973E-01 1.51446E-12 7.82965E-13
 -1      7067 1.86524E-01-5.31960E-02-9.62589E-10-1.64973E-01-1.33546E-12-7.00822E-13
 -1      7068 1.86524E-01-5.31960E-02-9.62593E-10-1.64973E-01 1.38942E-12 6.89590E-13
 -1      7069 1.86524E-01-5.31960E-02-9.62984E-10-1.64973E-01-1.53328E-12-7.70406E-13
 -1      7070 1.86524E-01-5.31960E-02-9.62632E-10-1.64973E-01 1.78806E-12 9.02577E-13
 -1      7071 1.86524E-01-5.31960E-02-9.64367E-10-1.64973E-01 4.20863E-12 2.12140E-12
 -1      7072 1.86524E-01-5.31960E-02-9.69494E-10-1.64973E-01-2.13613E-11-1.08962E-11
 -1      7073 2.31637E-01-9.83091E-02-9.69200E-10-1.19860E-01 2.28316E-11 7.40769E-12
 -1      7074 2.31637E-01-9.83091E-02-9.64040E-10-1.19860E-01-4.44123E-12-1.44759E-12
 -1      7075 2.31637E-01-9.83091E-02-9.62293E-10-1.19860E-01-1.81793E-12-6.07177E-13
 -1      7076 2.31637E-01-9.83091E-02-9.62656E-10-1.19860E-01 1.66740E-12 5.56003E-13
 -1      7077 2.31637E-01-9.83091E-02-9.62281E-10-1.19860E-01-1.44565E-12-4.62568E-13
 -1      7078 2.31637E-01-9.83091E-02-9.62274E-10-1.19860E-01 1.44982E-12 4.78337E-13
 -1      7079 2.31637E-01-9.83091E-02-9.62667E-10-1.19860E-01-1.66529E-12-5.43526E-13
 -1      7080 2.31637E-01-9.83091E-02-9.62297E-10-1.19860E-01 1.82551E-12 5.99593E-13
 -1      7081 2.31637E-01-9.83091E-02-9.64047E-10-1.19860E-01 4.44272E-12 1.45849E-12
 -1      7082 2.31637E-01-9.83091E-02-9.69197E-10-1.19860E-01-2.28696E-11-7.40775E-12
 -1      7083 2.60601E-01-1.27273E-01-9.69426E-10-6.30141E-02 2.37090E-11 3.71405E-12
 -1      7084 2.60601E-01-1.27273E-01-9.64318E-10-6.30141E-02-4.68488E-12-7.63307E-13
 -1      7085 2.60601E-01-1.27273E-01-9.62617E-10-6.30141E-02-1.94588E-12-3.20588E-13
 -1      7086 2.60601E-01-1.27273E-01-9.63009E-10-6.30141E-02 1.69004E-12 2.62965E-13
 -1      7087 2.60601E-01-1.27273E-01-9.62603E-10-6.30141E-02-1.50448E-12-2.38338E-13
 -1      7088 2.60601E-01-1.27273E-01-9.62609E-10-6.30141E-02 1.49620E-12 2.42149E-13
 -1      7089 2.60601E-01-1.27273E-01-9.62985E-10-6.30141E-02-1.69075E-12-2.61764E-13
 -1      7090 2.60601E-01-1.27273E-01-9.62606E-10-6.30141E-02 1.94827E-12 3.28554E-13
 -1      7091 2.60601E-01-1.27273E-01-9.64310E-10-6.30141E-02 4.68057E-12 7.74914E-13
 -1      7092 2.60601E-01-1.27273E-01-9.69428E-10-6.30141E-02-2.36850E-11-3.71287E-12
 -1      7093-1.11463E-01 2.44791E-01-7.96318E-10-5.78768E-02 3.58204E-12 2.25906E-11
 -1      7094-1.11463E-01 2.44791E-01-7.92139E-10-5.78768E-02-7.03592E-13-4.39156E-12
 -1      7095-1.11463E-01 2.44791E-01-7.92456E-10-5.78768E-02-1.57861E-14-1.04776E-13
 -1      7096-1.11463E-01 2.44791E-01-7.92982E-10-5.78768E-02 1.51806E-13 9.45504E-13
 -1      7097-1.11463E-01 2.44791E-01-7.92802E-10-5.78768E-02-1.49376E-13-9.50117E-13
 -1      7098-1.11463E-01 2.44791E-01-7.92789E-10-5.78768E-02 1.45163E-13 9.41712E-13
 -1      7099-1.11463E-01 2.44791E-01-7.92984E-10-5.78768E-02-1.60212E-13-9.16859E-13
 -1      7100-1.11463E-01 2.44791E-01-7.92461E-10-5.78768E-02 5.41805E-15 5.89802E-14
 -1      7101-1.11463E-01 2.44791E-01-7.92141E-10-5.78768E-02 6.95679E-13 4.43063E-12
 -1      7102-1.11463E-01 2.44791E-01-7.96350E-10-5.78768E-02-3.58301E-12-2.26017E-11
 -1      7103-8.48595E-02 2.18187E-01-7.96333E-10-1.10088E-01 7.05437E-12 2.17664E-11
 -1      7104-8.48595E-02 2.18187E-01-7.92128E-10-1.10088E-01-1.38636E-12-4.27034E-12
 -1      7105-8.48595E-02 2.18187E-01-7.92423E-10-1.10088E-01-3.63603E-14-7.75539E-14
 -1      7106-8.48595E-02 2.18187E-01-7.92963E-10-1.10088E-01 2.91061E-13 8.86477E-13
 -1      7107-8.48595E-02 2.18187E-01-7.92777E-10-1.10088E-01-3.01653E-13-9.12861E-13
 -1      7108-8.48595E-02 2.18187E-01-7.92788E-10-1.10088E-01 2.99912E-13 9.18469E-13
 -1      7109-8.48595E-02 2.18187E-01-7.92970E-10-1.10088E-01-2.98349E-13-8.90472E-13
 -1      7110-8.48595E-02 2.18187E-01-7.92452E-10-1.10088E-01 3.52410E-14 1.23332E-13
 -1      7111-8.48595E-02 2.18187E-01-7.92144E-10-1.10088E-01 1.38209E-12 4.26994E-12
 -1      7112-8.48595E-02 2.18187E-01-7.96327E-10-1.10088E-01-7.06924E-12-2.17851E-11
 -1      7113-4.34243E-02 1.76752E-01-7.96405E-10-1.51524E-01 1.03681E-11 2.03901E-11
 -1      7114-4.34243E-02 1.76752E-01-7.92215E-10-1.51524E-01-2.04811E-12-4.00077E-12
 -1      7115-4.34243E-02 1.76752E-01-7.92501E-10-1.51524E-01-5.50910E-14-9.40334E-14
 -1      7116-4.34243E-02 1.76752E-01-7.93013E-10-1.51524E-01 4.15012E-13 8.38620E-13
 -1      7117-4.34243E-02 1.76752E-01-7.92825E-10-1.51524E-01-4.37172E-13-8.59706E-13
 -1      7118-4.34243E-02 1.76752E-01-7.92819E-10-1.51524E-01 4.47935E-13 8.67986E-13
 -1      7119-4.34243E-02 1.76752E-01-7.93039E-10-1.51524E-01-4.07482E-13-8.30126E-13
 -1      7120-4.34243E-02 1.76752E-01-7.92497E-10-1.51524E-01 5.95689E-14 9.94405E-14
 -1      7121-4.34243E-02 1.76752E-01-7.92208E-10-1.51524E-01 2.05164E-12 3.98700E-12
 -1      7122-4.34243E-02 1.76752E-01-7.96388E-10-1.51524E-01-1.03738E-11-2.03904E-11
 -1      7123 8.78716E-03 1.24541E-01-7.96290E-10-1.78127E-01 1.34800E-11 1.85470E-11
 -1      7124 8.78716E-03 1.24541E-01-7.92085E-10-1.78127E-01-2.61005E-12-3.61979E-12
 -1      7125 8.78716E-03 1.24541E-01-7.92375E-10-1.78127E-01-3.07206E-14-7.71157E-14
 -1      7126 8.78716E-03 1.24541E-01-7.92906E-10-1.78127E-01 5.67436E-13 7.79489E-13
 -1      7127 8.78716E-03 1.24541E-01-7.92716E-10-1.78127E-01-5.67321E-13-7.87302E-13
 -1      7128 8.78716E-03 1.24541E-01-7.92710E-10-1.78127E-01 5.90177E-13 7.88416E-13
 -1      7129 8.78716E-03 1.24541E-01-7.92888E-10-1.78127E-01-5.72991E-13-7.75551E-13
 -1      7130 8.78716E-03 1.24541E-01-7.92377E-10-1.78127E-01 5.01048E-14 6.59158E-14
 -1      7131 8.78716E-03 1.24541E-01-7.92075E-10-1.78127E-01 2.61404E-12 3.60444E-12
 -1      7132 8.78716E-03 1.24541E-01-7.96290E-10-1.78127E-01-1.34732E-11-1.85300E-11
 -1      7133 6.66640E-02 6.66640E-02-7.96210E-10-1.87293E-01 1.62256E-11 1.61707E-11
 -1      7134 6.66640E-02 6.66640E-02-7.92027E-10-1.87293E-01-3.13476E-12-3.13135E-12
 -1      7135 6.66640E-02 6.66640E-02-7.92310E-10-1.87293E-01-6.08006E-14-3.96738E-14
 -1      7136 6.66640E-02 6.66640E-02-7.92864E-10-1.87293E-01 6.68303E-13 6.32966E-13
 -1      7137 6.66640E-02 6.66640E-02-7.92658E-10-1.87293E-01-6.93583E-13-6.75841E-13
 -1      7138 6.66640E-02 6.66640E-02-7.92664E-10-1.87293E-01 6.95206E-13 6.86192E-13
 -1      7139 6.66640E-02 6.66640E-02-7.92860E-10-1.87293E-01-6.72602E-13-6.58143E-13
 -1      7140 6.66640E-02 6.66640E-02-7.92325E-10-1.87293E-01 5.18947E-14 6.88934E-14
 -1      7141 6.66640E-02 6.66640E-02-7.92018E-10-1.87293E-01 3.15848E-12 3.18128E-12
 -1      7142 6.66640E-02 6.66640E-02-7.96218E-10-1.87293E-01-1.62174E-11-1.62058E-11
 -1      7143 1.24541E-01 8.78716E-03-7.96492E-10-1.78127E-01 1.84598E-11 1.34426E-11
 -1      7144 1.24541E-01 8.78716E-03-7.92312E-10-1.78127E-01-3.68336E-12-2.66117E-12
 -1      7145 1.24541E-01 8.78716E-03-7.92639E-10-1.78127E-01-1.13825E-13-6.99693E-14
 -1      7146 1.24541E-01 8.78716E-03-7.93184E-10-1.78127E-01 7.25848E-13 5.64423E-13
 -1      7147 1.24541E-01 8.78716E-03-7.93003E-10-1.78127E-01-7.84058E-13-5.82667E-13
 -1      7148 1.24541E-01 8.78716E-03-7.93011E-10-1.78127E-01 7.84998E-13 5.80940E-13
 -1      7149 1.24541E-01 8.78716E-03-7.93187E-10-1.78127E-01-7.19016E-13-5.51161E-13
 -1      7150 1.24541E-01 8.78716E-03-7.92650E-10-1.78127E-01 1.10242E-13 5.54037E-14
 -1      7151 1.24541E-01 8.78716E-03-7.92333E-10-1.78127E-01 3.66825E-12 2.63865E-12
 -1      7152 1.24541E-01 8.78716E-03-7.96514E-10-1.78127E-01-1.84584E-11-1.34373E-11
 -1      7153 1.76752E-01-4.34243E-02-7.96437E-10-1.51524E-01 2.03864E-11 1.04311E-11
 -1      7154 1.76752E-01-4.34243E-02-7.92215E-10-1.51524E-01-4.01503E-12-2.00181E-12
 -1      7155 1.76752E-01-4.34243E-02-7.92503E-10-1.51524E-01-9.72034E-14-3.22715E-14
 -1      7156 1.76752E-01-4.34243E-02-7.93028E-10-1.51524E-01 8.20642E-13 4.28599E-13
 -1      7157 1.76752E-01-4.34243E-02-7.92810E-10-1.51524E-01-8.63062E-13-4.43820E-13
 -1      7158 1.76752E-01-4.34243E-02-7.92816E-10-1.51524E-01 8.69229E-13 4.35997E-13
 -1      7159 1.76752E-01-4.34243E-02-7.93030E-10-1.51524E-01-8.01514E-13-4.23711E-13
 -1      7160 1.76752E-01-4.34243E-02-7.92492E-10-1.51524E-01 1.15512E-13 4.01931E-14
 -1      7161 1.76752E-01-4.34243E-02-7.92217E-10-1.51524E-01 4.03343E-12 2.02511E-12
 -1      7162 1.76752E-01-4.34243E-02-7.96445E-10-1.51524E-01-2.03875E-11-1.04226E-11
 -1      7163 2.18187E-01-8.48595E-02-7.96036E-10-1.10088E-01 2.18656E-11 7.07994E-12
 -1      7164 2.18187E-01-8.48595E-02-7.91814E-10-1.10088E-01-4.18240E-12-1.35845E-12
 -1      7165 2.18187E-01-8.48595E-02-7.92105E-10-1.10088E-01-3.06177E-14 3.69471E-15
 -1      7166 2.18187E-01-8.48595E-02-7.92608E-10-1.10088E-01 9.72929E-13 2.99292E-13
 -1      7167 2.18187E-01-8.48595E-02-7.92398E-10-1.10088E-01-8.93082E-13-2.89383E-13
 -1      7168 2.18187E-01-8.48595E-02-7.92387E-10-1.10088E-01 8.89007E-13 2.93873E-13
 -1      7169 2.18187E-01-8.48595E-02-7.92587E-10-1.10088E-01-9.22626E-13-3.09687E-13
 -1      7170 2.18187E-01-8.48595E-02-7.92067E-10-1.10088E-01 2.11407E-14 3.42210E-14
 -1      7171 2.18187E-01-8.48595E-02-7.91814E-10-1.10088E-01 4.19466E-12 1.36821E-12
 -1      7172 2.18187E-01-8.48595E-02-7.96043E-10-1.10088E-01-2.18200E-11-7.07680E-12
 -1      7173 2.44791E-01-1.11463E-01-7.96340E-10-5.78768E-02 2.26089E-11 3.52204E-12
 -1      7174 2.44791E-01-1.11463E-01-7.92156E-10-5.78768E-02-4.40778E-12-7.58270E-13
 -1      7175 2.44791E-01-1.11463E-01-7.92449E-10-5.78768E-02-7.90240E-14-4.24065E-14
 -1      7176 2.44791E-01-1.11463E-01-7.93006E-10-5.78768E-02 9.22756E-13 1.43565E-13
 -1      7177 2.44791E-01-1.11463E-01-7.92825E-10-5.78768E-02-9.82877E-13-1.47525E-13
 -1      7178 2.44791E-01-1.11463E-01-7.92821E-10-5.78768E-02 9.74034E-13 1.62570E-13
 -1      7179 2.44791E-01-1.11463E-01-7.92993E-10-5.78768E-02-9.38302E-13-1.26823E-13
 -1      7180 2.44791E-01-1.11463E-01-7.92445E-10-5.78768E-02 1.04953E-13 3.40021E-14
 -1      7181 2.44791E-01-1.11463E-01-7.92142E-10-5.78768E-02 4.38583E-12 7.46937E-13
 -1      7182 2.44791E-01-1.11463E-01-7.96320E-10-5.78768E-02-2.26176E-11-3.51668E-12
 -1      7183-9.75087E-02 2.30837E-01-6.63230E-10-5.33429E-02 2.79211E-12 1.76327E-11
 -1      7184-9.75087E-02 2.30837E-01-6.59709E-10-5.33429E-02-6.39815E-13-4.06087E-12
 -1      7185-9.75087E-02 2.30837E-01-6.59635E-10-5.33429E-02 2.44219E-14 9.39396E-14
 -1      7186-9.75087E-02 2.30837E-01-6.59921E-10-5.33429E-02 9.23588E-14 6.20209E-13
 -1      7187-9.75087E-02 2.30837E-01-6.59781E-10-5.33429E-02-1.21439E-13-7.15842E-13
 -1      7188-9.75087E-02 2.30837E-01-6.59800E-10-5.33429E-02 1.12022E-13 7.83495E-13
 -1      7189-9.75087E-02 2.30837E-01-6.59942E-10-5.33429E-02-8.92080E-14-6.61771E-13
 -1      7190-9.75087E-02 2.30837E-01-6.59662E-10-5.33429E-02-2.61897E-14-1.03128E-13
 -1      7191-9.75087E-02 2.30837E-01-6.59722E-10-5.33429E-02 6.31101E-13 4.07867E-12
 -1      7192-9.75087E-02 2.30837E-01-6.63224E-10-5.33429E-02-2.80872E-12-1.76271E-11
 -1      7193-7.29896E-02 2.06318E-01-6.63190E-10-1.01464E-01 5.52757E-12 1.70069E-11
 -1      7194-7.29896E-02 2.06318E-01-6.59712E-10-1.01464E-01-1.30598E-12-3.97306E-12
 -1      7195-7.29896E-02 2.06318E-01-6.59654E-10-1.01464E-01 2.75580E-14 1.42062E-13
 -1      7196-7.29896E-02 2.06318E-01-6.59913E-10-1.01464E-01 1.66195E-13 5.85767E-13
 -1      7197-7.29896E-02 2.06318E-01-6.59774E-10-1.01464E-01-2.20371E-13-7.23788E-13
 -1      7198-7.29896E-02 2.06318E-01-6.59758E-10-1.01464E-01 2.43424E-13 6.83857E-13
 -1      7199-7.29896E-02 2.06318E-01-6.59930E-10-1.01464E-01-1.77004E-13-5.13498E-13
 -1      7200-7.29896E-02 2.06318E-01-6.59619E-10-1.01464E-01-2.18731E-14-8.54842E-14
 -1      7201-7.29896E-02 2.06318E-01-6.59680E-10-1.01464E-01 1.31869E-12 3.91047E-12
 -1      7202-7.29896E-02 2.06318E-01-6.63196E-10-1.01464E-01-5.50283E-12-1.69804E-11
 -1      7203-3.48003E-02 1.68128E-01-6.63289E-10-1.39654E-01 8.06708E-12 1.59408E-11
 -1      7204-3.48003E-02 1.68128E-01-6.59758E-10-1.39654E-01-1.89731E-12-3.69338E-12
 -1      7205-3.48003E-02 1.68128E-01-6.59703E-10-1.39654E-01 3.06854E-14 7.01059E-14
 -1      7206-3.48003E-02 1.68128E-01-6.59982E-10-1.39654E-01 2.68508E-13 5.38668E-13
 -1      7207-3.48003E-02 1.68128E-01-6.59829E-10-1.39654E-01-3.28471E-13-6.75955E-13
 -1      7208-3.48003E-02 1.68128E-01-6.59861E-10-1.39654E-01 3.42472E-13 6.99642E-13
 -1      7209-3.48003E-02 1.68128E-01-6.60006E-10-1.39654E-01-2.54248E-13-5.46794E-13
 -1      7210-3.48003E-02 1.68128E-01-6.59739E-10-1.39654E-01-2.72932E-14-1.40771E-13
 -1      7211-3.48003E-02 1.68128E-01-6.59773E-10-1.39654E-01 1.89363E-12 3.67756E-12
 -1      7212-3.48003E-02 1.68128E-01-6.63297E-10-1.39654E-01-8.08875E-12-1.59383E-11
 -1      7213 1.33211E-02 1.20007E-01-6.63159E-10-1.64173E-01 1.05625E-11 1.44388E-11
 -1      7214 1.33211E-02 1.20007E-01-6.59657E-10-1.64173E-01-2.40463E-12-3.33869E-12
 -1      7215 1.33211E-02 1.20007E-01-6.59581E-10-1.64173E-01 1.19977E-13 1.26829E-13
 -1      7216 1.33211E-02 1.20007E-01-6.59861E-10-1.64173E-01 3.99787E-13 4.85733E-13
 -1      7217 1.33211E-02 1.20007E-01-6.59715E-10-1.64173E-01-4.26829E-13-5.83504E-13
 -1      7218 1.33211E-02 1.20007E-01-6.59672E-10-1.64173E-01 4.13903E-13 5.61931E-13
 -1      7219 1.33211E-02 1.20007E-01-6.59815E-10-1.64173E-01-3.83080E-13-5.03722E-13
 -1      7220 1.33211E-02 1.20007E-01-6.59518E-10-1.64173E-01-7.70906E-14-1.14095E-13
 -1      7221 1.33211E-02 1.20007E-01-6.59632E-10-1.64173E-01 2.40709E-12 3.31923E-12
 -1      7222 1.33211E-02 1.20007E-01-6.63130E-10-1.64173E-01-1.05240E-11-1.44651E-11
 -1      7223 6.66640E-02 6.66640E-02-6.63041E-10-1.72621E-01 1.26518E-11 1.26645E-11
 -1      7224 6.66640E-02 6.66640E-02-6.59545E-10-1.72621E-01-2.85948E-12-2.93320E-12
 -1      7225 6.66640E-02 6.66640E-02-6.59496E-10-1.72621E-01 1.21503E-13 8.69261E-14
 -1      7226 6.66640E-02 6.66640E-02-6.59782E-10-1.72621E-01 4.46812E-13 4.21220E-13
 -1      7227 6.66640E-02 6.66640E-02-6.59647E-10-1.72621E-01-5.11013E-13-5.27759E-13
 -1      7228 6.66640E-02 6.66640E-02-6.59633E-10-1.72621E-01 5.36318E-13 4.98029E-13
 -1      7229 6.66640E-02 6.66640E-02-6.59804E-10-1.72621E-01-4.14804E-13-4.00705E-13
 -1      7230 6.66640E-02 6.66640E-02-6.59485E-10-1.72621E-01-1.14257E-13-6.15411E-14
 -1      7231 6.66640E-02 6.66640E-02-6.59541E-10-1.72621E-01 2.85744E-12 2.92542E-12
 -1      7232 6.66640E-02 6.66640E-02-6.63027E-10-1.72621E-01-1.26801E-11-1.26408E-11
 -1      7233 1.20007E-01 1.33211E-02-6.63414E-10-1.64173E-01 1.43841E-11 1.04891E-11
 -1      7234 1.20007E-01 1.33211E-02-6.59911E-10-1.64173E-01-3.41337E-12-2.45794E-12
 -1      7235 1.20007E-01 1.33211E-02-6.59896E-10-1.64173E-01 2.51735E-14 5.02971E-14
 -1      7236 1.20007E-01 1.33211E-02-6.60208E-10-1.64173E-01 4.55698E-13 3.37583E-13
 -1      7237 1.20007E-01 1.33211E-02-6.60054E-10-1.64173E-01-6.10193E-13-4.05183E-13
 -1      7238 1.20007E-01 1.33211E-02-6.60046E-10-1.64173E-01 6.00946E-13 4.20700E-13
 -1      7239 1.20007E-01 1.33211E-02-6.60168E-10-1.64173E-01-4.34440E-13-3.52791E-13
 -1      7240 1.20007E-01 1.33211E-02-6.59902E-10-1.64173E-01-6.64673E-14-3.80609E-14
 -1      7241 1.20007E-01 1.33211E-02-6.59953E-10-1.64173E-01 3.41351E-12 2.45956E-12
 -1      7242 1.20007E-01 1.33211E-02-6.63431E-10-1.64173E-01-1.44167E-11-1.04877E-11
 -1      7243 1.68128E-01-3.48003E-02-6.63287E-10-1.39654E-01 1.59180E-11 8.12610E-12
 -1      7244 1.68128E-01-3.48003E-02-6.59779E-10-1.39654E-01-3.73329E-12-1.82968E-12
 -1      7245 1.68128E-01-3.48003E-02-6.59683E-10-1.39654E-01 8.37225E-14 7.60534E-14
 -1      7246 1.68128E-01-3.48003E-02-6.59959E-10-1.39654E-01 5.13480E-13 2.83098E-13
 -1      7247 1.68128E-01-3.48003E-02-6.59872E-10-1.39654E-01-6.99943E-13-3.42997E-13
 -1      7248 1.68128E-01-3.48003E-02-6.59901E-10-1.39654E-01 7.08553E-13 3.46883E-13
 -1      7249 1.68128E-01-3.48003E-02-6.60000E-10-1.39654E-01-5.35936E-13-2.60671E-13
 -1      7250 1.68128E-01-3.48003E-02-6.59721E-10-1.39654E-01-3.83127E-14-7.74372E-14
 -1      7251 1.68128E-01-3.48003E-02-6.59783E-10-1.39654E-01 3.73343E-12 1.84274E-12
 -1      7252 1.68128E-01-3.48003E-02-6.63295E-10-1.39654E-01-1.58398E-11-8.14198E-12
 -1      7253 2.06318E-01-7.29896E-02-6.62861E-10-1.01464E-01 1.70905E-11 5.52929E-12
 -1      7254 2.06318E-01-7.29896E-02-6.59307E-10-1.01464E-01-3.77290E-12-1.27778E-12
 -1      7255 2.06318E-01-7.29896E-02-6.59207E-10-1.01464E-01 2.45421E-13 3.70008E-14
 -1      7256 2.06318E-01-7.29896E-02-6.59454E-10-1.01464E-01 6.16407E-13 1.95605E-13
 -1      7257 2.06318E-01-7.29896E-02-6.59291E-10-1.01464E-01-6.84903E-13-2.27163E-13
 -1      7258 2.06318E-01-7.29896E-02-6.59297E-10-1.01464E-01 6.65597E-13 2.23867E-13
 -1      7259 2.06318E-01-7.29896E-02-6.59433E-10-1.01464E-01-6.86405E-13-2.07626E-13
 -1      7260 2.06318E-01-7.29896E-02-6.59218E-10-1.01464E-01-1.55677E-13-6.63734E-14
 -1      7261 2.06318E-01-7.29896E-02-6.59301E-10-1.01464E-01 3.84370E-12 1.26639E-12
 -1      7262 2.06318E-01-7.29896E-02-6.62855E-10-1.01464E-01-1.70940E-11-5.51072E-12
 -1      7263 2.30837E-01-9.75087E-02-6.63188E-10-5.33429E-02 1.76849E-11 2.70613E-12
 -1      7264 2.30837E-01-9.75087E-02-6.59717E-10-5.33429E-02-4.08278E-12-7.07109E-13
 -1      7265 2.30837E-01-9.75087E-02-6.59662E-10-5.33429E-02 1.19066E-13-2.45754E-14
 -1      7266 2.30837E-01-9.75087E-02-6.59940E-10-5.33429E-02 6.34806E-13 5.94524E-14
 -1      7267 2.30837E-01-9.75087E-02-6.59793E-10-5.33429E-02-7.19510E-13-1.30327E-13
 -1      7268 2.30837E-01-9.75087E-02-6.59768E-10-5.33429E-02 7.20687E-13 1.24452E-13
 -1      7269 2.30837E-01-9.75087E-02-6.59933E-10-5.33429E-02-6.25467E-13-7.17123E-14
 -1      7270 2.30837E-01-9.75087E-02-6.59653E-10-5.33429E-02-1.47412E-13 3.66868E-14
 -1      7271 2.30837E-01-9.75087E-02-6.59711E-10-5.33429E-02 4.09704E-12 7.22937E-13
 -1      7272 2.30837E-01-9.75087E-02-6.63197E-10-5.33429E-02-1.76760E-11-2.71648E-12
 -1      7273-8.51321E-02 2.18460E-01-5.56400E-10-4.93215E-02 2.16918E-12 1.36545E-11
 -1      7274-8.51321E-02 2.18460E-01-5.53694E-10-4.93215E-02-3.77436E-13-2.44565E-12
 -1      7275-8.51321E-02 2.18460E-01-5.53674E-10-4.93215E-02-2.47762E-14-1.94250E-13
 -1      7276-8.51321E-02 2.18460E-01-5.53866E-10-4.93215E-02 1.30915E-13 8.09587E-13
 -1      7277-8.51321E-02 2.18460E-01-5.53779E-10-4.93215E-02-1.10771E-13-6.89201E-13
 -1      7278-8.51321E-02 2.18460E-01-5.53765E-10-4.93215E-02 1.13516E-13 7.04012E-13
 -1      7279-8.51321E-02 2.18460E-01-5.53837E-10-4.93215E-02-1.32852E-13-7.99191E-13
 -1      7280-8.51321E-02 2.18460E-01-5.53659E-10-4.93215E-02 2.20577E-14 2.03176E-13
 -1      7281-8.51321E-02 2.18460E-01-5.53708E-10-4.93215E-02 3.76840E-13 2.46800E-12
 -1      7282-8.51321E-02 2.18460E-01-5.56394E-10-4.93215E-02-2.16516E-12-1.36627E-11
 -1      7283-6.24615E-02 1.95789E-01-5.56338E-10-9.38151E-02 4.26269E-12 1.31585E-11
 -1      7284-6.24615E-02 1.95789E-01-5.53638E-10-9.38151E-02-7.70399E-13-2.34949E-12
 -1      7285-6.24615E-02 1.95789E-01-5.53604E-10-9.38151E-02-7.10683E-14-2.09788E-13
 -1      7286-6.24615E-02 1.95789E-01-5.53791E-10-9.38151E-02 2.56134E-13 7.48110E-13
 -1      7287-6.24615E-02 1.95789E-01-5.53722E-10-9.38151E-02-2.23814E-13-7.03778E-13
 -1      7288-6.24615E-02 1.95789E-01-5.53743E-10-9.38151E-02 2.34402E-13 7.12930E-13
 -1      7289-6.24615E-02 1.95789E-01-5.53796E-10-9.38151E-02-2.33758E-13-7.52038E-13
 -1      7290-6.24615E-02 1.95789E-01-5.53612E-10-9.38151E-02 8.91779E-14 2.23376E-13
 -1      7291-6.24615E-02 1.95789E-01-5.53642E-10-9.38151E-02 7.74089E-13 2.37881E-12
 -1      7292-6.24615E-02 1.95789E-01-5.56336E-10-9.38151E-02-4.26461E-12-1.31396E-11
 -1      7293-2.71512E-02 1.60479E-01-5.56492E-10-1.29125E-01 6.24979E-12 1.23049E-11
 -1      7294-2.71512E-02 1.60479E-01-5.53768E-10-1.29125E-01-1.16451E-12-2.23251E-12
 -1      7295-2.71512E-02 1.60479E-01-5.53733E-10-1.29125E-01-1.32220E-13-2.10129E-13
 -1      7296-2.71512E-02 1.60479E-01-5.53906E-10-1.29125E-01 3.54943E-13 7.01245E-13
 -1      7297-2.71512E-02 1.60479E-01-5.53839E-10-1.29125E-01-3.35095E-13-6.56835E-13
 -1      7298-2.71512E-02 1.60479E-01-5.53813E-10-1.29125E-01 3.50301E-13 6.61229E-13
 -1      7299-2.71512E-02 1.60479E-01-5.53896E-10-1.29125E-01-3.41307E-13-7.36246E-13
 -1      7300-2.71512E-02 1.60479E-01-5.53695E-10-1.29125E-01 1.22371E-13 1.95408E-13
 -1      7301-2.71512E-02 1.60479E-01-5.53754E-10-1.29125E-01 1.17362E-12 2.20143E-12
 -1      7302-2.71512E-02 1.60479E-01-5.56483E-10-1.29125E-01-6.24171E-12-1.23252E-11
 -1      7303 1.73425E-02 1.15986E-01-5.56346E-10-1.51796E-01 8.15696E-12 1.12078E-11
 -1      7304 1.73425E-02 1.15986E-01-5.53621E-10-1.51796E-01-1.41196E-12-1.99149E-12
 -1      7305 1.73425E-02 1.15986E-01-5.53550E-10-1.51796E-01-9.34478E-14-1.42995E-13
 -1      7306 1.73425E-02 1.15986E-01-5.53708E-10-1.51796E-01 5.04427E-13 6.69624E-13
 -1      7307 1.73425E-02 1.15986E-01-5.53614E-10-1.51796E-01-4.07403E-13-5.85349E-13
 -1      7308 1.73425E-02 1.15986E-01-5.53625E-10-1.51796E-01 4.25505E-13 5.89910E-13
 -1      7309 1.73425E-02 1.15986E-01-5.53711E-10-1.51796E-01-5.15240E-13-6.76658E-13
 -1      7310 1.73425E-02 1.15986E-01-5.53541E-10-1.51796E-01 1.02289E-13 1.52063E-13
 -1      7311 1.73425E-02 1.15986E-01-5.53620E-10-1.51796E-01 1.43466E-12 1.97688E-12
 -1      7312 1.73425E-02 1.15986E-01-5.56359E-10-1.51796E-01-8.14729E-12-1.12017E-11
 -1      7313 6.66640E-02 6.66640E-02-5.56163E-10-1.59608E-01 9.82849E-12 9.78514E-12
 -1      7314 6.66640E-02 6.66640E-02-5.53475E-10-1.59608E-01-1.69402E-12-1.77710E-12
 -1      7315 6.66640E-02 6.66640E-02-5.53448E-10-1.59608E-01-8.64642E-14-1.56369E-13
 -1      7316 6.66640E-02 6.66640E-02-5.53640E-10-1.59608E-01 6.09979E-13 5.74036E-13
 -1      7317 6.66640E-02 6.66640E-02-5.53566E-10-1.59608E-01-5.48579E-13-5.31167E-13
 -1      7318 6.66640E-02 6.66640E-02-5.53574E-10-1.59608E-01 5.54050E-13 5.51107E-13
 -1      7319 6.66640E-02 6.66640E-02-5.53656E-10-1.59608E-01-5.82657E-13-5.83652E-13
 -1      7320 6.66640E-02 6.66640E-02-5.53439E-10-1.59608E-01 1.08391E-13 1.72480E-13
 -1      7321 6.66640E-02 6.66640E-02-5.53457E-10-1.59608E-01 1.69137E-12 1.79549E-12
 -1      7322 6.66640E-02 6.66640E-02-5.56165E-10-1.59608E-01-9.85891E-12-9.78346E-12
 -1      7323 1.15986E-01 1.73424E-02-5.56651E-10-1.51796E-01 1.10983E-11 8.09259E-12
 -1      7324 1.15986E-01 1.73424E-02-5.53980E-10-1.51796E-01-2.11195E-12-1.48183E-12
 -1      7325 1.15986E-01 1.73424E-02-5.53970E-10-1.51796E-01-2.48143E-13-1.52056E-13
 -1      7326 1.15986E-01 1.73424E-02-5.54171E-10-1.51796E-01 5.94678E-13 4.51702E-13
 -1      7327 1.15986E-01 1.73424E-02-5.54114E-10-1.51796E-01-6.00031E-13-4.48302E-13
 -1      7328 1.15986E-01 1.73424E-02-5.54107E-10-1.51796E-01 5.85229E-13 4.41709E-13
 -1      7329 1.15986E-01 1.73424E-02-5.54169E-10-1.51796E-01-5.87507E-13-4.43344E-13
 -1      7330 1.15986E-01 1.73424E-02-5.53951E-10-1.51796E-01 2.41011E-13 1.80976E-13
 -1      7331 1.15986E-01 1.73424E-02-5.53966E-10-1.51796E-01 2.10403E-12 1.49877E-12
 -1      7332 1.15986E-01 1.73424E-02-5.56645E-10-1.51796E-01-1.11022E-11-8.09585E-12
 -1      7333 1.60479E-01-2.71512E-02-5.56499E-10-1.29125E-01 1.22723E-11 6.33446E-12
 -1      7334 1.60479E-01-2.71512E-02-5.53772E-10-1.29125E-01-2.25560E-12-1.08920E-12
 -1      7335 1.60479E-01-2.71512E-02-5.53722E-10-1.29125E-01-2.30108E-13-8.18928E-14
 -1      7336 1.60479E-01-2.71512E-02-5.53908E-10-1.29125E-01 6.91949E-13 3.82523E-13
 -1      7337 1.60479E-01-2.71512E-02-5.53820E-10-1.29125E-01-6.83300E-13-3.29792E-13
 -1      7338 1.60479E-01-2.71512E-02-5.53816E-10-1.29125E-01 6.76447E-13 3.33241E-13
 -1      7339 1.60479E-01-2.71512E-02-5.53899E-10-1.29125E-01-6.86057E-13-3.77862E-13
 -1      7340 1.60479E-01-2.71512E-02-5.53732E-10-1.29125E-01 2.67838E-13 6.32677E-14
 -1      7341 1.60479E-01-2.71512E-02-5.53782E-10-1.29125E-01 2.26861E-12 1.06464E-12
 -1      7342 1.60479E-01-2.71512E-02-5.56512E-10-1.29125E-01-1.22458E-11-6.33700E-12
 -1      7343 1.95789E-01-6.24615E-02-5.55976E-10-9.38151E-02 1.32895E-11 4.27954E-12
 -1      7344 1.95789E-01-6.24615E-02-5.53185E-10-9.38151E-02-2.20032E-12-7.43097E-13
 -1      7345 1.95789E-01-6.24615E-02-5.53044E-10-9.38151E-02-8.75772E-14-3.64649E-14
 -1      7346 1.95789E-01-6.24615E-02-5.53196E-10-9.38151E-02 8.59264E-13 2.69056E-13
 -1      7347 1.95789E-01-6.24615E-02-5.53086E-10-9.38151E-02-6.27824E-13-2.24807E-13
 -1      7348 1.95789E-01-6.24615E-02-5.53099E-10-9.38151E-02 6.37177E-13 2.09559E-13
 -1      7349 1.95789E-01-6.24615E-02-5.53207E-10-9.38151E-02-8.55912E-13-2.77914E-13
 -1      7350 1.95789E-01-6.24615E-02-5.53085E-10-9.38151E-02 8.57220E-14 4.37760E-14
 -1      7351 1.95789E-01-6.24615E-02-5.53189E-10-9.38151E-02 2.21825E-12 7.44731E-13
 -1      7352 1.95789E-01-6.24615E-02-5.55953E-10-9.38151E-02-1.32985E-11-4.28269E-12
 -1      7353 2.18460E-01-8.51321E-02-5.56344E-10-4.93215E-02 1.36916E-11 2.04284E-12
 -1      7354 2.18460E-01-8.51321E-02-5.53667E-10-4.93215E-02-2.42992E-12-4.98062E-13
 -1      7355 2.18460E-01-8.51321E-02-5.53649E-10-4.93215E-02-1.83626E-13-1.03671E-13
 -1      7356 2.18460E-01-8.51321E-02-5.53842E-10-4.93215E-02 8.15225E-13 9.47075E-14
 -1      7357 2.18460E-01-8.51321E-02-5.53759E-10-4.93215E-02-7.29077E-13-1.25006E-13
 -1      7358 2.18460E-01-8.51321E-02-5.53755E-10-4.93215E-02 7.45924E-13 1.23584E-13
 -1      7359 2.18460E-01-8.51321E-02-5.53847E-10-4.93215E-02-8.17253E-13-8.49930E-14
 -1      7360 2.18460E-01-8.51321E-02-5.53650E-10-4.93215E-02 1.82549E-13 1.06111E-13
 -1      7361 2.18460E-01-8.51321E-02-5.53665E-10-4.93215E-02 2.42424E-12 5.04781E-13
 -1      7362 2.18460E-01-8.51321E-02-5.56369E-10-4.93215E-02-1.36742E-11-2.03543E-12
 -1      7363-7.41038E-02 2.07432E-01-4.69907E-10-4.57382E-02 1.27366E-12 7.98046E-12
 -1      7364-7.41038E-02 2.07432E-01-4.66922E-10-4.57382E-02-3.60329E-14-2.78306E-13
 -1      7365-7.41038E-02 2.07432E-01-4.67793E-10-4.57382E-02-1.98720E-13-1.33627E-12
 -1      7366-7.41038E-02 2.07432E-01-4.68144E-10-4.57382E-02 2.40314E-13 1.46776E-12
 -1      7367-7.41038E-02 2.07432E-01-4.68198E-10-4.57382E-02-1.41941E-13-9.50225E-13
 -1      7368-7.41038E-02 2.07432E-01-4.68184E-10-4.57382E-02 1.44570E-13 9.69080E-13
 -1      7369-7.41038E-02 2.07432E-01-4.68165E-10-4.57382E-02-2.34938E-13-1.45181E-12
 -1      7370-7.41038E-02 2.07432E-01-4.67795E-10-4.57382E-02 2.00759E-13 1.33907E-12
 -1      7371-7.41038E-02 2.07432E-01-4.66926E-10-4.57382E-02 3.10096E-14 2.88971E-13
 -1      7372-7.41038E-02 2.07432E-01-4.69875E-10-4.57382E-02-1.26995E-12-7.96875E-12
 -1      7373-5.30802E-02 1.86408E-01-4.69834E-10-8.69993E-02 2.48617E-12 7.68472E-12
 -1      7374-5.30802E-02 1.86408E-01-4.66850E-10-8.69993E-02-1.01416E-13-2.74897E-13
 -1      7375-5.30802E-02 1.86408E-01-4.67713E-10-8.69993E-02-4.27896E-13-1.28694E-12
 -1      7376-5.30802E-02 1.86408E-01-4.68107E-10-8.69993E-02 4.56925E-13 1.37358E-12
 -1      7377-5.30802E-02 1.86408E-01-4.68151E-10-8.69993E-02-2.80744E-13-9.06632E-13
 -1      7378-5.30802E-02 1.86408E-01-4.68144E-10-8.69993E-02 3.06328E-13 8.77224E-13
 -1      7379-5.30802E-02 1.86408E-01-4.68105E-10-8.69993E-02-4.45462E-13-1.37436E-12
 -1      7380-5.30802E-02 1.86408E-01-4.67728E-10-8.69993E-02 4.32624E-13 1.33284E-12
 -1      7381-5.30802E-02 1.86408E-01-4.66855E-10-8.69993E-02 1.17587E-13 3.12426E-13
 -1      7382-5.30802E-02 1.86408E-01-4.69847E-10-8.69993E-02-2.47586E-12-7.66879E-12
 -1      7383-2.03353E-02 1.53663E-01-4.70001E-10-1.19744E-01 3.61197E-12 7.17613E-12
 -1      7384-2.03353E-02 1.53663E-01-4.67019E-10-1.19744E-01-1.89432E-13-2.94648E-13
 -1      7385-2.03353E-02 1.53663E-01-4.67878E-10-1.19744E-01-6.36076E-13-1.23245E-12
 -1      7386-2.03353E-02 1.53663E-01-4.68235E-10-1.19744E-01 6.22972E-13 1.30238E-12
 -1      7387-2.03353E-02 1.53663E-01-4.68260E-10-1.19744E-01-4.42487E-13-8.61341E-13
 -1      7388-2.03353E-02 1.53663E-01-4.68264E-10-1.19744E-01 4.39831E-13 8.53564E-13
 -1      7389-2.03353E-02 1.53663E-01-4.68214E-10-1.19744E-01-6.43914E-13-1.30689E-12
 -1      7390-2.03353E-02 1.53663E-01-4.67868E-10-1.19744E-01 6.53757E-13 1.20360E-12
 -1      7391-2.03353E-02 1.53663E-01-4.67020E-10-1.19744E-01 1.69388E-13 2.56072E-13
 -1      7392-2.03353E-02 1.53663E-01-4.69992E-10-1.19744E-01-3.61045E-12-7.20544E-12
 -1      7393 2.09258E-02 1.12402E-01-4.69844E-10-1.40768E-01 4.78331E-12 6.53277E-12
 -1      7394 2.09258E-02 1.12402E-01-4.66831E-10-1.40768E-01-1.24064E-13-1.94999E-13
 -1      7395 2.09258E-02 1.12402E-01-4.67659E-10-1.40768E-01-7.57940E-13-1.07501E-12
 -1      7396 2.09258E-02 1.12402E-01-4.67989E-10-1.40768E-01 8.92554E-13 1.19035E-12
 -1      7397 2.09258E-02 1.12402E-01-4.68013E-10-1.40768E-01-5.38076E-13-7.49331E-13
 -1      7398 2.09258E-02 1.12402E-01-4.68002E-10-1.40768E-01 5.35780E-13 7.49308E-13
 -1      7399 2.09258E-02 1.12402E-01-4.67994E-10-1.40768E-01-8.73175E-13-1.20162E-12
 -1      7400 2.09258E-02 1.12402E-01-4.67657E-10-1.40768E-01 7.67511E-13 1.08608E-12
 -1      7401 2.09258E-02 1.12402E-01-4.66829E-10-1.40768E-01 1.42938E-13 2.20987E-13
 -1      7402 2.09258E-02 1.12402E-01-4.69851E-10-1.40768E-01-4.77779E-12-6.52753E-12
 -1      7403 6.66640E-02 6.66640E-02-4.69619E-10-1.48012E-01 5.81301E-12 5.66724E-12
 -1      7404 6.66640E-02 6.66640E-02-4.66638E-10-1.48012E-01-8.91222E-14-2.18359E-13
 -1      7405 6.66640E-02 6.66640E-02-4.67522E-10-1.48012E-01-8.78594E-13-9.63487E-13
 -1      7406 6.66640E-02 6.66640E-02-4.67889E-10-1.48012E-01 1.07724E-12 1.04639E-12
 -1      7407 6.66640E-02 6.66640E-02-4.67954E-10-1.48012E-01-6.49195E-13-6.74148E-13
 -1      7408 6.66640E-02 6.66640E-02-4.67935E-10-1.48012E-01 6.64923E-13 6.88677E-13
 -1      7409 6.66640E-02 6.66640E-02-4.67878E-10-1.48012E-01-1.07050E-12-1.00628E-12
 -1      7410 6.66640E-02 6.66640E-02-4.67512E-10-1.48012E-01 8.87013E-13 9.55487E-13
 -1      7411 6.66640E-02 6.66640E-02-4.66653E-10-1.48012E-01 1.06066E-13 2.26628E-13
 -1      7412 6.66640E-02 6.66640E-02-4.69624E-10-1.48012E-01-5.81770E-12-5.67991E-12
 -1      7413 1.12402E-01 2.09258E-02-4.70183E-10-1.40768E-01 6.40157E-12 4.71044E-12
 -1      7414 1.12402E-01 2.09258E-02-4.67250E-10-1.40768E-01-3.74615E-13-2.34420E-13
 -1      7415 1.12402E-01 2.09258E-02-4.68157E-10-1.40768E-01-1.20101E-12-8.50349E-13
 -1      7416 1.12402E-01 2.09258E-02-4.68561E-10-1.40768E-01 1.11419E-12 8.11664E-13
 -1      7417 1.12402E-01 2.09258E-02-4.68622E-10-1.40768E-01-7.84087E-13-5.66551E-13
 -1      7418 1.12402E-01 2.09258E-02-4.68641E-10-1.40768E-01 7.98368E-13 5.61360E-13
 -1      7419 1.12402E-01 2.09258E-02-4.68580E-10-1.40768E-01-1.10917E-12-8.26922E-13
 -1      7420 1.12402E-01 2.09258E-02-4.68172E-10-1.40768E-01 1.20864E-12 8.71705E-13
 -1      7421 1.12402E-01 2.09258E-02-4.67255E-10-1.40768E-01 3.61666E-13 2.26939E-13
 -1      7422 1.12402E-01 2.09258E-02-4.70184E-10-1.40768E-01-6.40689E-12-4.70081E-12
 -1      7423 1.53663E-01-2.03353E-02-4.70025E-10-1.19744E-01 7.09573E-12 3.74901E-12
 -1      7424 1.53663E-01-2.03353E-02-4.67017E-10-1.19744E-01-3.41165E-13-3.18736E-14
 -1      7425 1.53663E-01-2.03353E-02-4.67844E-10-1.19744E-01-1.29296E-12-5.47485E-13
 -1      7426 1.53663E-01-2.03353E-02-4.68207E-10-1.19744E-01 1.27825E-12 7.03982E-13
 -1      7427 1.53663E-01-2.03353E-02-4.68241E-10-1.19744E-01-8.71562E-13-4.28522E-13
 -1      7428 1.53663E-01-2.03353E-02-4.68252E-10-1.19744E-01 8.67199E-13 4.07486E-13
 -1      7429 1.53663E-01-2.03353E-02-4.68199E-10-1.19744E-01-1.26641E-12-6.98712E-13
 -1      7430 1.53663E-01-2.03353E-02-4.67853E-10-1.19744E-01 1.27380E-12 5.40984E-13
 -1      7431 1.53663E-01-2.03353E-02-4.67012E-10-1.19744E-01 3.55936E-13 4.21288E-14
 -1      7432 1.53663E-01-2.03353E-02-4.70021E-10-1.19744E-01-7.07856E-12-3.74971E-12
 -1      7433 1.86408E-01-5.30802E-02-4.69387E-10-8.69993E-02 7.84153E-12 2.51419E-12
 -1      7434 1.86408E-01-5.30802E-02-4.66313E-10-8.69993E-02-1.07128E-13-4.67046E-14
 -1      7435 1.86408E-01-5.30802E-02-4.67073E-10-8.69993E-02-1.11736E-12-3.86226E-13
 -1      7436 1.86408E-01-5.30802E-02-4.67347E-10-8.69993E-02 1.49777E-12 4.75777E-13
 -1      7437 1.86408E-01-5.30802E-02-4.67367E-10-8.69993E-02-8.51933E-13-2.75301E-13
 -1      7438 1.86408E-01-5.30802E-02-4.67332E-10-8.69993E-02 8.59571E-13 2.80305E-13
 -1      7439 1.86408E-01-5.30802E-02-4.67335E-10-8.69993E-02-1.50820E-12-4.85172E-13
 -1      7440 1.86408E-01-5.30802E-02-4.67053E-10-8.69993E-02 1.13733E-12 3.79335E-13
 -1      7441 1.86408E-01-5.30802E-02-4.66300E-10-8.69993E-02 8.06156E-14 6.01766E-14
 -1      7442 1.86408E-01-5.30802E-02-4.69371E-10-8.69993E-02-7.87405E-12-2.51237E-12
 -1      7443 2.07432E-01-7.41038E-02-4.69852E-10-4.57382E-02 8.02272E-12 1.08434E-12
 -1      7444 2.07432E-01-7.41038E-02-4.66891E-10-4.57382E-02-2.18504E-13-2.18212E-13
 -1      7445 2.07432E-01-7.41038E-02-4.67772E-10-4.57382E-02-1.31801E-12-3.23595E-13
 -1      7446 2.07432E-01-7.41038E-02-4.68129E-10-4.57382E-02 1.47714E-12 1.72925E-13
 -1      7447 2.07432E-01-7.41038E-02-4.68169E-10-4.57382E-02-9.07177E-13-1.64350E-13
 -1      7448 2.07432E-01-7.41038E-02-4.68188E-10-4.57382E-02 9.10065E-13 1.63878E-13
 -1      7449 2.07432E-01-7.41038E-02-4.68145E-10-4.57382E-02-1.46181E-12-1.73241E-13
 -1      7450 2.07432E-01-7.41038E-02-4.67757E-10-4.57382E-02 1.29075E-12 3.25145E-13
 -1      7451 2.07432E-01-7.41038E-02-4.66887E-10-4.57382E-02 2.57131E-13 2.17253E-13
 -1      7452 2.07432E-01-7.41038E-02-4.69856E-10-4.57382E-02-8.00714E-12-1.08966E-12
 -1      7453-6.42348E-02 1.97563E-01-4.03110E-10-4.25316E-02 7.42700E-13 4.59002E-12
 -1      7454-6.42348E-02 1.97563E-01-4.02465E-10-4.25316E-02 9.26330E-13 5.69609E-12
 -1      7455-6.42348E-02 1.97563E-01-4.01358E-10-4.25316E-02-3.62055E-13-2.40679E-12
 -1      7456-6.42348E-02 1.97563E-01-4.01238E-10-4.25316E-02 5.23182E-13 3.20992E-12
 -1      7457-6.42348E-02 1.97563E-01-4.01316E-10-4.25316E-02-1.67871E-13-1.08744E-12
 -1      7458-6.42348E-02 1.97563E-01-4.01320E-10-4.25316E-02 1.73982E-13 1.10255E-12
 -1      7459-6.42348E-02 1.97563E-01-4.01247E-10-4.25316E-02-5.18236E-13-3.20074E-12
 -1      7460-6.42348E-02 1.97563E-01-4.01358E-10-4.25316E-02 3.63179E-13 2.39681E-12
 -1      7461-6.42348E-02 1.97563E-01-4.02471E-10-4.25316E-02-9.19988E-13-5.69031E-12
 -1      7462-6.42348E-02 1.97563E-01-4.03112E-10-4.25316E-02-7.39422E-13-4.60245E-12
 -1      7463-4.46852E-02 1.78013E-01-4.03045E-10-8.08999E-02 1.42043E-12 4.42933E-12
 -1      7464-4.46852E-02 1.78013E-01-4.02406E-10-8.08999E-02 1.77025E-12 5.49023E-12
 -1      7465-4.46852E-02 1.78013E-01-4.01313E-10-8.08999E-02-7.52323E-13-2.32676E-12
 -1      7466-4.46852E-02 1.78013E-01-4.01206E-10-8.08999E-02 1.00184E-12 3.09111E-12
 -1      7467-4.46852E-02 1.78013E-01-4.01285E-10-8.08999E-02-3.42343E-13-1.08306E-12
 -1      7468-4.46852E-02 1.78013E-01-4.01296E-10-8.08999E-02 3.51268E-13 1.02985E-12
 -1      7469-4.46852E-02 1.78013E-01-4.01204E-10-8.08999E-02-9.94251E-13-3.05263E-12
 -1      7470-4.46852E-02 1.78013E-01-4.01327E-10-8.08999E-02 7.65061E-13 2.33187E-12
 -1      7471-4.46852E-02 1.78013E-01-4.02394E-10-8.08999E-02-1.77001E-12-5.47715E-12
 -1      7472-4.46852E-02 1.78013E-01-4.03024E-10-8.08999E-02-1.41745E-12-4.41193E-12
 -1      7473-1.42359E-02 1.47564E-01-4.03219E-10-1.11349E-01 2.04700E-12 4.12541E-12
 -1      7474-1.42359E-02 1.47564E-01-4.02582E-10-1.11349E-01 2.56293E-12 5.12201E-12
 -1      7475-1.42359E-02 1.47564E-01-4.01464E-10-1.11349E-01-1.16730E-12-2.20500E-12
 -1      7476-1.42359E-02 1.47564E-01-4.01321E-10-1.11349E-01 1.45206E-12 2.87442E-12
 -1      7477-1.42359E-02 1.47564E-01-4.01398E-10-1.11349E-01-5.14162E-13-1.01083E-12
 -1      7478-1.42359E-02 1.47564E-01-4.01394E-10-1.11349E-01 5.14692E-13 9.98391E-13
 -1      7479-1.42359E-02 1.47564E-01-4.01328E-10-1.11349E-01-1.43281E-12-2.88839E-12
 -1      7480-1.42359E-02 1.47564E-01-4.01443E-10-1.11349E-01 1.15829E-12 2.18689E-12
 -1      7481-1.42359E-02 1.47564E-01-4.02558E-10-1.11349E-01-2.54711E-12-5.13741E-12
 -1      7482-1.42359E-02 1.47564E-01-4.03232E-10-1.11349E-01-2.04610E-12-4.13751E-12
 -1      7483 2.41324E-02 1.09196E-01-4.03055E-10-1.30899E-01 2.77172E-12 3.78539E-12
 -1      7484 2.41324E-02 1.09196E-01-4.02359E-10-1.30899E-01 3.41726E-12 4.70347E-12
 -1      7485 2.41324E-02 1.09196E-01-4.01183E-10-1.30899E-01-1.40006E-12-1.94300E-12
 -1      7486 2.41324E-02 1.09196E-01-4.01046E-10-1.30899E-01 1.91406E-12 2.64265E-12
 -1      7487 2.41324E-02 1.09196E-01-4.01081E-10-1.30899E-01-6.44387E-13-8.94324E-13
 -1      7488 2.41324E-02 1.09196E-01-4.01082E-10-1.30899E-01 6.45645E-13 9.12619E-13
 -1      7489 2.41324E-02 1.09196E-01-4.01033E-10-1.30899E-01-1.92850E-12-2.63788E-12
 -1      7490 2.41324E-02 1.09196E-01-4.01199E-10-1.30899E-01 1.41721E-12 1.95897E-12
 -1      7491 2.41324E-02 1.09196E-01-4.02347E-10-1.30899E-01-3.43113E-12-4.70102E-12
 -1      7492 2.41324E-02 1.09196E-01-4.03037E-10-1.30899E-01-2.76191E-12-3.77534E-12
 -1      7493 6.66640E-02 6.66640E-02-4.02797E-10-1.37635E-01 3.42557E-12 3.28792E-12
 -1      7494 6.66640E-02 6.66640E-02-4.02181E-10-1.37635E-01 4.23396E-12 4.06405E-12
 -1      7495 6.66640E-02 6.66640E-02-4.01089E-10-1.37635E-01-1.60203E-12-1.70388E-12
 -1      7496 6.66640E-02 6.66640E-02-4.00957E-10-1.37635E-01 2.38714E-12 2.31491E-12
 -1      7497 6.66640E-02 6.66640E-02-4.01055E-10-1.37635E-01-7.62228E-13-7.80492E-13
 -1      7498 6.66640E-02 6.66640E-02-4.01041E-10-1.37635E-01 7.82387E-13 7.86034E-13
 -1      7499 6.66640E-02 6.66640E-02-4.00970E-10-1.37635E-01-2.36756E-12-2.28402E-12
 -1      7500 6.66640E-02 6.66640E-02-4.01079E-10-1.37635E-01 1.59572E-12 1.73185E-12
 -1      7501 6.66640E-02 6.66640E-02-4.02187E-10-1.37635E-01-4.22635E-12-4.07033E-12
 -1      7502 6.66640E-02 6.66640E-02-4.02819E-10-1.37635E-01-3.42513E-12-3.30283E-12
 -1      7503 1.09196E-01 2.41324E-02-4.03438E-10-1.30899E-01 3.61587E-12 2.65847E-12
 -1      7504 1.09196E-01 2.41324E-02-4.02866E-10-1.30899E-01 4.49186E-12 3.30414E-12
 -1      7505 1.09196E-01 2.41324E-02-4.01843E-10-1.30899E-01-2.10907E-12-1.53451E-12
 -1      7506 1.09196E-01 2.41324E-02-4.01775E-10-1.30899E-01 2.53897E-12 1.83324E-12
 -1      7507 1.09196E-01 2.41324E-02-4.01871E-10-1.30899E-01-9.23297E-13-6.74411E-13
 -1      7508 1.09196E-01 2.41324E-02-4.01879E-10-1.30899E-01 9.28632E-13 6.85167E-13
 -1      7509 1.09196E-01 2.41324E-02-4.01784E-10-1.30899E-01-2.52815E-12-1.83932E-12
 -1      7510 1.09196E-01 2.41324E-02-4.01850E-10-1.30899E-01 2.12394E-12 1.51661E-12
 -1      7511 1.09196E-01 2.41324E-02-4.02857E-10-1.30899E-01-4.50293E-12-3.29072E-12
 -1      7512 1.09196E-01 2.41324E-02-4.03442E-10-1.30899E-01-3.61254E-12-2.65412E-12
 -1      7513 1.47564E-01-1.42359E-02-4.03246E-10-1.11349E-01 4.01986E-12 2.24678E-12
 -1      7514 1.47564E-01-1.42359E-02-4.02561E-10-1.11349E-01 5.01767E-12 2.75883E-12
 -1      7515 1.47564E-01-1.42359E-02-4.01440E-10-1.11349E-01-2.25214E-12-9.97039E-13
 -1      7516 1.47564E-01-1.42359E-02-4.01311E-10-1.11349E-01 2.81963E-12 1.53340E-12
 -1      7517 1.47564E-01-1.42359E-02-4.01390E-10-1.11349E-01-1.00553E-12-4.82558E-13
 -1      7518 1.47564E-01-1.42359E-02-4.01387E-10-1.11349E-01 1.03767E-12 4.97855E-13
 -1      7519 1.47564E-01-1.42359E-02-4.01319E-10-1.11349E-01-2.83104E-12-1.54515E-12
 -1      7520 1.47564E-01-1.42359E-02-4.01457E-10-1.11349E-01 2.28327E-12 9.90111E-13
 -1      7521 1.47564E-01-1.42359E-02-4.02600E-10-1.11349E-01-5.02734E-12-2.76697E-12
 -1      7522 1.47564E-01-1.42359E-02-4.03250E-10-1.11349E-01-4.00559E-12-2.23853E-12
 -1      7523 1.78013E-01-4.46852E-02-4.02526E-10-8.08999E-02 4.66116E-12 1.46471E-12
 -1      7524 1.78013E-01-4.46852E-02-4.01749E-10-8.08999E-02 5.74128E-12 1.83493E-12
 -1      7525 1.78013E-01-4.46852E-02-4.00510E-10-8.08999E-02-2.12212E-12-6.99601E-13
 -1      7526 1.78013E-01-4.46852E-02-4.00286E-10-8.08999E-02 3.21941E-12 1.03460E-12
 -1      7527 1.78013E-01-4.46852E-02-4.00283E-10-8.08999E-02-1.01044E-12-3.40234E-13
 -1      7528 1.78013E-01-4.46852E-02-4.00295E-10-8.08999E-02 9.97380E-13 3.24625E-13
 -1      7529 1.78013E-01-4.46852E-02-4.00266E-10-8.08999E-02-3.22562E-12-1.04734E-12
 -1      7530 1.78013E-01-4.46852E-02-4.00464E-10-8.08999E-02 2.08319E-12 6.91759E-13
 -1      7531 1.78013E-01-4.46852E-02-4.01718E-10-8.08999E-02-5.73674E-12-1.83657E-12
 -1      7532 1.78013E-01-4.46852E-02-4.02515E-10-8.08999E-02-4.66705E-12-1.46711E-12
 -1      7533 1.97563E-01-6.42348E-02-4.03061E-10-4.25316E-02 4.64782E-12 4.73724E-13
 -1      7534 1.97563E-01-6.42348E-02-4.02434E-10-4.25316E-02 5.78065E-12 6.44135E-13
 -1      7535 1.97563E-01-6.42348E-02-4.01348E-10-4.25316E-02-2.33917E-12-5.64347E-13
 -1      7536 1.97563E-01-6.42348E-02-4.01229E-10-4.25316E-02 3.24161E-12 4.09432E-13
 -1      7537 1.97563E-01-6.42348E-02-4.01311E-10-4.25316E-02-1.07295E-12-2.03220E-13
 -1      7538 1.97563E-01-6.42348E-02-4.01305E-10-4.25316E-02 1.10036E-12 2.09608E-13
 -1      7539 1.97563E-01-6.42348E-02-4.01234E-10-4.25316E-02-3.24987E-12-4.00325E-13
 -1      7540 1.97563E-01-6.42348E-02-4.01361E-10-4.25316E-02 2.33852E-12 5.63483E-13
 -1      7541 1.97563E-01-6.42348E-02-4.02451E-10-4.25316E-02-5.77150E-12-6.46834E-13
 -1      7542 1.97563E-01-6.42348E-02-4.03048E-10-4.25316E-02-4.65698E-12-4.71404E-13
 -1      7543-5.53683E-02 1.88696E-01-3.38111E-10-3.96507E-02-2.44610E-12-1.56075E-11
 -1      7544-5.53683E-02 1.88696E-01-3.28757E-10-3.96507E-02 1.62583E-12 1.00456E-11
 -1      7545-5.53683E-02 1.88696E-01-3.36356E-10-3.96507E-02-1.02798E-12-6.67971E-12
 -1      7546-5.53683E-02 1.88696E-01-3.38821E-10-3.96507E-02 8.61208E-13 5.35544E-12
 -1      7547-5.53683E-02 1.88696E-01-3.39501E-10-3.96507E-02-1.89197E-13-1.25220E-12
 -1      7548-5.53683E-02 1.88696E-01-3.39521E-10-3.96507E-02 1.90487E-13 1.25552E-12
 -1      7549-5.53683E-02 1.88696E-01-3.38824E-10-3.96507E-02-8.66640E-13-5.36338E-12
 -1      7550-5.53683E-02 1.88696E-01-3.36353E-10-3.96507E-02 1.03462E-12 6.69741E-12
 -1      7551-5.53683E-02 1.88696E-01-3.28742E-10-3.96507E-02-1.61974E-12-1.00370E-11
 -1      7552-5.53683E-02 1.88696E-01-3.38106E-10-3.96507E-02 2.45303E-12 1.56126E-11
 -1      7553-3.71429E-02 1.70471E-01-3.38098E-10-7.54201E-02-4.90416E-12-1.50247E-11
 -1      7554-3.71429E-02 1.70471E-01-3.28722E-10-7.54201E-02 3.12924E-12 9.65195E-12
 -1      7555-3.71429E-02 1.70471E-01-3.36329E-10-7.54201E-02-2.10231E-12-6.43633E-12
 -1      7556-3.71429E-02 1.70471E-01-3.38834E-10-7.54201E-02 1.68865E-12 5.15565E-12
 -1      7557-3.71429E-02 1.70471E-01-3.39554E-10-7.54201E-02-3.82298E-13-1.20582E-12
 -1      7558-3.71429E-02 1.70471E-01-3.39550E-10-7.54201E-02 3.88590E-13 1.20741E-12
 -1      7559-3.71429E-02 1.70471E-01-3.38854E-10-7.54201E-02-1.67674E-12-5.18009E-12
 -1      7560-3.71429E-02 1.70471E-01-3.36331E-10-7.54201E-02 2.09888E-12 6.43173E-12
 -1      7561-3.71429E-02 1.70471E-01-3.28753E-10-7.54201E-02-3.12603E-12-9.67080E-12
 -1      7562-3.71429E-02 1.70471E-01-3.38093E-10-7.54201E-02 4.89616E-12 1.50287E-11
 -1      7563-8.75610E-03 1.42084E-01-3.38212E-10-1.03807E-01-7.25759E-12-1.41063E-11
 -1      7564-8.75610E-03 1.42084E-01-3.28840E-10-1.03807E-01 4.52210E-12 9.02309E-12
 -1      7565-8.75610E-03 1.42084E-01-3.36425E-10-1.03807E-01-3.13521E-12-6.06144E-12
 -1      7566-8.75610E-03 1.42084E-01-3.38918E-10-1.03807E-01 2.41753E-12 4.80951E-12
 -1      7567-8.75610E-03 1.42084E-01-3.39605E-10-1.03807E-01-5.74381E-13-1.13364E-12
 -1      7568-8.75610E-03 1.42084E-01-3.39598E-10-1.03807E-01 5.93247E-13 1.12906E-12
 -1      7569-8.75610E-03 1.42084E-01-3.38905E-10-1.03807E-01-2.43433E-12-4.81396E-12
 -1      7570-8.75610E-03 1.42084E-01-3.36409E-10-1.03807E-01 3.15216E-12 6.06594E-12
 -1      7571-8.75610E-03 1.42084E-01-3.28854E-10-1.03807E-01-4.51629E-12-9.03744E-12
 -1      7572-8.75610E-03 1.42084E-01-3.38226E-10-1.03807E-01 7.26197E-12 1.41055E-11
 -1      7573 2.70133E-02 1.06315E-01-3.38026E-10-1.22032E-01-9.27273E-12-1.27530E-11
 -1      7574 2.70133E-02 1.06315E-01-3.28576E-10-1.22032E-01 5.98818E-12 8.23687E-12
 -1      7575 2.70133E-02 1.06315E-01-3.36123E-10-1.22032E-01-3.99779E-12-5.41859E-12
 -1      7576 2.70133E-02 1.06315E-01-3.38531E-10-1.22032E-01 3.18739E-12 4.40898E-12
 -1      7577 2.70133E-02 1.06315E-01-3.39213E-10-1.22032E-01-7.37770E-13-1.00977E-12
 -1      7578 2.70133E-02 1.06315E-01-3.39231E-10-1.22032E-01 7.23297E-13 1.00181E-12
 -1      7579 2.70133E-02 1.06315E-01-3.38549E-10-1.22032E-01-3.18695E-12-4.41454E-12
 -1      7580 2.70133E-02 1.06315E-01-3.36097E-10-1.22032E-01 3.95258E-12 5.44558E-12
 -1      7581 2.70133E-02 1.06315E-01-3.28581E-10-1.22032E-01-6.00561E-12-8.22383E-12
 -1      7582 2.70133E-02 1.06315E-01-3.38031E-10-1.22032E-01 9.27081E-12 1.27431E-11
 -1      7583 6.66640E-02 6.66640E-02-3.37883E-10-1.28312E-01-1.09846E-11-1.11774E-11
 -1      7584 6.66640E-02 6.66640E-02-3.28503E-10-1.28312E-01 7.43424E-12 7.19945E-12
 -1      7585 6.66640E-02 6.66640E-02-3.36101E-10-1.28312E-01-4.54054E-12-4.79653E-12
 -1      7586 6.66640E-02 6.66640E-02-3.38599E-10-1.28312E-01 3.96040E-12 3.88540E-12
 -1      7587 6.66640E-02 6.66640E-02-3.39292E-10-1.28312E-01-8.33155E-13-8.61960E-13
 -1      7588 6.66640E-02 6.66640E-02-3.39304E-10-1.28312E-01 8.47716E-13 8.88230E-13
 -1      7589 6.66640E-02 6.66640E-02-3.38602E-10-1.28312E-01-3.95942E-12-3.85145E-12
 -1      7590 6.66640E-02 6.66640E-02-3.36129E-10-1.28312E-01 4.58184E-12 4.78419E-12
 -1      7591 6.66640E-02 6.66640E-02-3.28507E-10-1.28312E-01-7.42979E-12-7.18906E-12
 -1      7592 6.66640E-02 6.66640E-02-3.37873E-10-1.28312E-01 1.09544E-11 1.12041E-11
 -1      7593 1.06315E-01 2.70133E-02-3.38479E-10-1.22032E-01-1.29868E-11-9.41357E-12
 -1      7594 1.06315E-01 2.70133E-02-3.29233E-10-1.22032E-01 7.98476E-12 5.81565E-12
 -1      7595 1.06315E-01 2.70133E-02-3.36904E-10-1.22032E-01-5.67679E-12-4.10364E-12
 -1      7596 1.06315E-01 2.70133E-02-3.39462E-10-1.22032E-01 4.26118E-12 3.07643E-12
 -1      7597 1.06315E-01 2.70133E-02-3.40219E-10-1.22032E-01-1.04135E-12-7.78685E-13
 -1      7598 1.06315E-01 2.70133E-02-3.40213E-10-1.22032E-01 1.07601E-12 7.60587E-13
 -1      7599 1.06315E-01 2.70133E-02-3.39455E-10-1.22032E-01-4.26177E-12-3.09446E-12
 -1      7600 1.06315E-01 2.70133E-02-3.36881E-10-1.22032E-01 5.68256E-12 4.13682E-12
 -1      7601 1.06315E-01 2.70133E-02-3.29211E-10-1.22032E-01-7.99418E-12-5.82975E-12
 -1      7602 1.06315E-01 2.70133E-02-3.38472E-10-1.22032E-01 1.30020E-11 9.39327E-12
 -1      7603 1.42084E-01-8.75610E-03-3.38224E-10-1.03807E-01-1.42651E-11-6.97414E-12
 -1      7604 1.42084E-01-8.75610E-03-3.28831E-10-1.03807E-01 8.87558E-12 4.84822E-12
 -1      7605 1.42084E-01-8.75610E-03-3.36376E-10-1.03807E-01-6.16790E-12-2.90424E-12
 -1      7606 1.42084E-01-8.75610E-03-3.38867E-10-1.03807E-01 4.77487E-12 2.56548E-12
 -1      7607 1.42084E-01-8.75610E-03-3.39558E-10-1.03807E-01-1.14834E-12-5.25215E-13
 -1      7608 1.42084E-01-8.75610E-03-3.39569E-10-1.03807E-01 1.14083E-12 5.39977E-13
 -1      7609 1.42084E-01-8.75610E-03-3.38860E-10-1.03807E-01-4.73903E-12-2.56387E-12
 -1      7610 1.42084E-01-8.75610E-03-3.36396E-10-1.03807E-01 6.16501E-12 2.89500E-12
 -1      7611 1.42084E-01-8.75610E-03-3.28825E-10-1.03807E-01-8.87944E-12-4.82919E-12
 -1      7612 1.42084E-01-8.75610E-03-3.38222E-10-1.03807E-01 1.42523E-11 6.97685E-12
 -1      7613 1.70471E-01-3.71429E-02-3.37543E-10-7.54201E-02-1.47208E-11-4.83250E-12
 -1      7614 1.70471E-01-3.71429E-02-3.27984E-10-7.54201E-02 9.97620E-12 3.21013E-12
 -1      7615 1.70471E-01-3.71429E-02-3.35367E-10-7.54201E-02-6.14091E-12-2.01090E-12
 -1      7616 1.70471E-01-3.71429E-02-3.37686E-10-7.54201E-02 5.32538E-12 1.73003E-12
 -1      7617 1.70471E-01-3.71429E-02-3.38328E-10-7.54201E-02-1.13584E-12-3.71617E-13
 -1      7618 1.70471E-01-3.71429E-02-3.38324E-10-7.54201E-02 1.11465E-12 3.51979E-13
 -1      7619 1.70471E-01-3.71429E-02-3.37685E-10-7.54201E-02-5.35892E-12-1.73410E-12
 -1      7620 1.70471E-01-3.71429E-02-3.35360E-10-7.54201E-02 6.14193E-12 1.99954E-12
 -1      7621 1.70471E-01-3.71429E-02-3.27967E-10-7.54201E-02-9.97292E-12-3.22892E-12
 -1      7622 1.70471E-01-3.71429E-02-3.37521E-10-7.54201E-02 1.47209E-11 4.82846E-12
 -1      7623 1.88696E-01-5.53683E-02-3.38072E-10-3.96507E-02-1.54956E-11-2.83853E-12
 -1      7624 1.88696E-01-5.53683E-02-3.28741E-10-3.96507E-02 1.01882E-11 1.20886E-12
 -1      7625 1.88696E-01-5.53683E-02-3.36342E-10-3.96507E-02-6.57095E-12-1.33624E-12
 -1      7626 1.88696E-01-5.53683E-02-3.38862E-10-3.96507E-02 5.46517E-12 6.92972E-13
 -1      7627 1.88696E-01-5.53683E-02-3.39565E-10-3.96507E-02-1.21604E-12-2.41312E-13
 -1      7628 1.88696E-01-5.53683E-02-3.39554E-10-3.96507E-02 1.24785E-12 2.51020E-13
 -1      7629 1.88696E-01-5.53683E-02-3.38847E-10-3.96507E-02-5.44950E-12-6.89744E-13
 -1      7630 1.88696E-01-5.53683E-02-3.36354E-10-3.96507E-02 6.59003E-12 1.34354E-12
 -1      7631 1.88696E-01-5.53683E-02-3.28747E-10-3.96507E-02-1.01948E-11-1.20787E-12
 -1      7632 1.88696E-01-5.53683E-02-3.38089E-10-3.96507E-02 1.54981E-11 2.83759E-12
 -1      7633-4.73728E-02 1.80701E-01-3.23873E-10-3.70528E-02 3.35187E-13 1.99872E-12
 -1      7634-4.73728E-02 1.80701E-01-3.41044E-10-3.70528E-02 7.04506E-12 4.42824E-11
 -1      7635-4.73728E-02 1.80701E-01-3.24680E-10-3.70528E-02-7.99388E-13-5.26112E-12
 -1      7636-4.73728E-02 1.80701E-01-3.18653E-10-3.70528E-02 1.81575E-12 1.13457E-11
 -1      7637-4.73728E-02 1.80701E-01-3.17350E-10-3.70528E-02-2.09299E-15-3.17528E-14
 -1      7638-4.73728E-02 1.80701E-01-3.17346E-10-3.70528E-02 2.96538E-15 5.25882E-14
 -1      7639-4.73728E-02 1.80701E-01-3.18671E-10-3.70528E-02-1.80769E-12-1.13358E-11
 -1      7640-4.73728E-02 1.80701E-01-3.24693E-10-3.70528E-02 8.00700E-13 5.23440E-12
 -1      7641-4.73728E-02 1.80701E-01-3.41054E-10-3.70528E-02-7.04237E-12-4.42549E-11
 -1      7642-4.73728E-02 1.80701E-01-3.23886E-10-3.70528E-02-3.38369E-13-1.98353E-12
 -1      7643-3.03415E-02 1.63670E-01-3.24008E-10-7.04786E-02 6.21519E-13 1.92786E-12
 -1      7644-3.03415E-02 1.63670E-01-3.41220E-10-7.04786E-02 1.38508E-11 4.26228E-11
 -1      7645-3.03415E-02 1.63670E-01-3.24874E-10-7.04786E-02-1.63299E-12-5.02817E-12
 -1      7646-3.03415E-02 1.63670E-01-3.18836E-10-7.04786E-02 3.54755E-12 1.09039E-11
 -1      7647-3.03415E-02 1.63670E-01-3.17511E-10-7.04786E-02-5.56745E-16-2.08028E-14
 -1      7648-3.03415E-02 1.63670E-01-3.17512E-10-7.04786E-02 1.17123E-14 2.29017E-14
 -1      7649-3.03415E-02 1.63670E-01-3.18842E-10-7.04786E-02-3.54952E-12-1.08987E-11
 -1      7650-3.03415E-02 1.63670E-01-3.24879E-10-7.04786E-02 1.63895E-12 5.02907E-12
 -1      7651-3.03415E-02 1.63670E-01-3.41211E-10-7.04786E-02-1.38449E-11-4.26482E-11
 -1      7652-3.03415E-02 1.63670E-01-3.24001E-10-7.04786E-02-6.09599E-13-1.93560E-12
 -1      7653-3.81465E-03 1.37143E-01-3.23899E-10-9.70055E-02 8.12914E-13 1.75577E-12
 -1      7654-3.81465E-03 1.37143E-01-3.41051E-10-9.70055E-02 2.02596E-11 3.98985E-11
 -1      7655-3.81465E-03 1.37143E-01-3.24687E-10-9.70055E-02-2.49133E-12-4.75494E-12
 -1      7656-3.81465E-03 1.37143E-01-3.18669E-10-9.70055E-02 5.16110E-12 1.02055E-11
 -1      7657-3.81465E-03 1.37143E-01-3.17349E-10-9.70055E-02-3.59715E-14-4.38676E-14
 -1      7658-3.81465E-03 1.37143E-01-3.17347E-10-9.70055E-02 2.11016E-14 4.06203E-14
 -1      7659-3.81465E-03 1.37143E-01-3.18662E-10-9.70055E-02-5.15515E-12-1.01896E-11
 -1      7660-3.81465E-03 1.37143E-01-3.24708E-10-9.70055E-02 2.47447E-12 4.76214E-12
 -1      7661-3.81465E-03 1.37143E-01-3.41059E-10-9.70055E-02-2.02540E-11-3.98874E-11
 -1      7662-3.81465E-03 1.37143E-01-3.23885E-10-9.70055E-02-8.17142E-13-1.75547E-12
 -1      7663 2.96112E-02 1.03717E-01-3.23693E-10-1.14037E-01 1.17265E-12 1.67570E-12
 -1      7664 2.96112E-02 1.03717E-01-3.40806E-10-1.14037E-01 2.62976E-11 3.63062E-11
 -1      7665 2.96112E-02 1.03717E-01-3.24344E-10-1.14037E-01-3.15491E-12-4.25794E-12
 -1      7666 2.96112E-02 1.03717E-01-3.18242E-10-1.14037E-01 6.69939E-12 9.30465E-12
 -1      7667 2.96112E-02 1.03717E-01-3.16876E-10-1.14037E-01-3.81609E-14-2.40711E-14
 -1      7668 2.96112E-02 1.03717E-01-3.16871E-10-1.14037E-01 3.71464E-14 8.90245E-15
 -1      7669 2.96112E-02 1.03717E-01-3.18238E-10-1.14037E-01-6.71381E-12-9.29856E-12
 -1      7670 2.96112E-02 1.03717E-01-3.24341E-10-1.14037E-01 3.15502E-12 4.24360E-12
 -1      7671 2.96112E-02 1.03717E-01-3.40799E-10-1.14037E-01-2.63084E-11-3.63029E-11
 -1      7672 2.96112E-02 1.03717E-01-3.23701E-10-1.14037E-01-1.19124E-12-1.68243E-12
 -1      7673 6.66640E-02 6.66640E-02-3.23877E-10-1.19905E-01 1.73857E-12 1.43552E-12
 -1      7674 6.66640E-02 6.66640E-02-3.41082E-10-1.19905E-01 3.21019E-11 3.17522E-11
 -1      7675 6.66640E-02 6.66640E-02-3.24736E-10-1.19905E-01-3.41720E-12-3.66548E-12
 -1      7676 6.66640E-02 6.66640E-02-3.18702E-10-1.19905E-01 8.36699E-12 8.14587E-12
 -1      7677 6.66640E-02 6.66640E-02-3.17381E-10-1.19905E-01 5.24468E-14-4.54762E-15
 -1      7678 6.66640E-02 6.66640E-02-3.17392E-10-1.19905E-01-5.00274E-14 1.88962E-14
 -1      7679 6.66640E-02 6.66640E-02-3.18700E-10-1.19905E-01-8.32766E-12-8.15868E-12
 -1      7680 6.66640E-02 6.66640E-02-3.24741E-10-1.19905E-01 3.41586E-12 3.68731E-12
 -1      7681 6.66640E-02 6.66640E-02-3.41080E-10-1.19905E-01-3.20814E-11-3.17355E-11
 -1      7682 6.66640E-02 6.66640E-02-3.23866E-10-1.19905E-01-1.73657E-12-1.42931E-12
 -1      7683 1.03717E-01 2.96112E-02-3.24233E-10-1.14037E-01 1.37408E-12 9.84647E-13
 -1      7684 1.03717E-01 2.96112E-02-3.41483E-10-1.14037E-01 3.59064E-11 2.60515E-11
 -1      7685 1.03717E-01 2.96112E-02-3.25269E-10-1.14037E-01-4.58213E-12-3.38923E-12
 -1      7686 1.03717E-01 2.96112E-02-3.19326E-10-1.14037E-01 9.07959E-12 6.56657E-12
 -1      7687 1.03717E-01 2.96112E-02-3.18051E-10-1.14037E-01-9.43934E-14-8.49379E-14
 -1      7688 1.03717E-01 2.96112E-02-3.18042E-10-1.14037E-01 1.14435E-13 7.87785E-14
 -1      7689 1.03717E-01 2.96112E-02-3.19314E-10-1.14037E-01-9.08623E-12-6.54322E-12
 -1      7690 1.03717E-01 2.96112E-02-3.25264E-10-1.14037E-01 4.59524E-12 3.37092E-12
 -1      7691 1.03717E-01 2.96112E-02-3.41486E-10-1.14037E-01-3.59102E-11-2.60563E-11
 -1      7692 1.03717E-01 2.96112E-02-3.24234E-10-1.14037E-01-1.38011E-12-9.80804E-13
 -1      7693 1.37143E-01-3.81465E-03-3.23826E-10-9.70055E-02 1.54104E-12 1.22226E-12
 -1      7694 1.37143E-01-3.81465E-03-3.40959E-10-9.70055E-02 3.96740E-11 2.07096E-11
 -1      7695 1.37143E-01-3.81465E-03-3.24590E-10-9.70055E-02-4.93740E-12-2.11704E-12
 -1      7696 1.37143E-01-3.81465E-03-3.18547E-10-9.70055E-02 1.00914E-11 5.38969E-12
 -1      7697 1.37143E-01-3.81465E-03-3.17217E-10-9.70055E-02-8.34887E-14 3.52524E-14
 -1      7698 1.37143E-01-3.81465E-03-3.17209E-10-9.70055E-02 9.17986E-14-3.29514E-14
 -1      7699 1.37143E-01-3.81465E-03-3.18536E-10-9.70055E-02-1.00811E-11-5.37578E-12
 -1      7700 1.37143E-01-3.81465E-03-3.24577E-10-9.70055E-02 4.92893E-12 2.12691E-12
 -1      7701 1.37143E-01-3.81465E-03-3.40975E-10-9.70055E-02-3.96685E-11-2.07186E-11
 -1      7702 1.37143E-01-3.81465E-03-3.23833E-10-9.70055E-02-1.54890E-12-1.21846E-12
 -1      7703 1.63670E-01-3.03415E-02-3.23429E-10-7.04786E-02 2.32158E-12 7.14299E-13
 -1      7704 1.63670E-01-3.03415E-02-3.40374E-10-7.04786E-02 4.30360E-11 1.39790E-11
 -1      7705 1.63670E-01-3.03415E-02-3.23744E-10-7.04786E-02-4.66403E-12-1.50906E-12
 -1      7706 1.63670E-01-3.03415E-02-3.17517E-10-7.04786E-02 1.11307E-11 3.62971E-12
 -1      7707 1.63670E-01-3.03415E-02-3.16120E-10-7.04786E-02 6.92718E-14 2.60266E-14
 -1      7708 1.63670E-01-3.03415E-02-3.16124E-10-7.04786E-02-8.27770E-14-2.86893E-14
 -1      7709 1.63670E-01-3.03415E-02-3.17542E-10-7.04786E-02-1.11602E-11-3.63792E-12
 -1      7710 1.63670E-01-3.03415E-02-3.23774E-10-7.04786E-02 4.67554E-12 1.50044E-12
 -1      7711 1.63670E-01-3.03415E-02-3.40394E-10-7.04786E-02-4.30543E-11-1.39776E-11
 -1      7712 1.63670E-01-3.03415E-02-3.23443E-10-7.04786E-02-2.29447E-12-7.24616E-13
 -1      7713 1.80701E-01-4.73728E-02-3.23952E-10-3.70528E-02 2.19162E-12-2.05917E-13
 -1      7714 1.80701E-01-4.73728E-02-3.41164E-10-3.70528E-02 4.45216E-11 6.44205E-12
 -1      7715 1.80701E-01-4.73728E-02-3.24842E-10-3.70528E-02-4.99992E-12-1.25546E-12
 -1      7716 1.80701E-01-4.73728E-02-3.18806E-10-3.70528E-02 1.14828E-11 1.54388E-12
 -1      7717 1.80701E-01-4.73728E-02-3.17482E-10-3.70528E-02 1.95992E-14-8.83340E-14
 -1      7718 1.80701E-01-4.73728E-02-3.17477E-10-3.70528E-02 7.15312E-15 9.01528E-14
 -1      7719 1.80701E-01-4.73728E-02-3.18816E-10-3.70528E-02-1.14570E-11-1.53853E-12
 -1      7720 1.80701E-01-4.73728E-02-3.24830E-10-3.70528E-02 5.02056E-12 1.26184E-12
 -1      7721 1.80701E-01-4.73728E-02-3.41156E-10-3.70528E-02-4.45245E-11-6.43681E-12
 -1      7722 1.80701E-01-4.73728E-02-3.23949E-10-3.70528E-02-2.18706E-12 2.13291E-13
 -1      7723-4.01381E-02 1.73466E-01-1.82430E-10-3.47021E-02-2.67499E-11-1.69041E-10
 -1      7724-4.01381E-02 1.73466E-01-8.88307E-11-3.47021E-02 1.53129E-12 9.48304E-12
 -1      7725-4.01381E-02 1.73466E-01-1.47549E-10-3.47021E-02-6.58800E-12-4.17413E-11
 -1      7726-4.01381E-02 1.73466E-01-1.67028E-10-3.47021E-02 7.31279E-13 4.54792E-12
 -1      7727-4.01381E-02 1.73466E-01-1.68990E-10-3.47021E-02-4.57601E-14-3.18704E-13
 -1      7728-4.01381E-02 1.73466E-01-1.69016E-10-3.47021E-02 4.97339E-14 3.33089E-13
 -1      7729-4.01381E-02 1.73466E-01-1.67030E-10-3.47021E-02-7.31095E-13-4.54498E-12
 -1      7730-4.01381E-02 1.73466E-01-1.47571E-10-3.47021E-02 6.59309E-12 4.17287E-11
 -1      7731-4.01381E-02 1.73466E-01-8.88371E-11-3.47021E-02-1.52710E-12-9.49123E-12
 -1      7732-4.01381E-02 1.73466E-01-1.82417E-10-3.47021E-02 2.67573E-11 1.69043E-10
 -1      7733-2.41873E-02 1.57515E-01-1.82898E-10-6.60073E-02-5.28892E-11-1.62772E-10
 -1      7734-2.41873E-02 1.57515E-01-8.93176E-11-6.60073E-02 2.99030E-12 9.15761E-12
 -1      7735-2.41873E-02 1.57515E-01-1.48066E-10-6.60073E-02-1.30288E-11-4.01837E-11
 -1      7736-2.41873E-02 1.57515E-01-1.67573E-10-6.60073E-02 1.45559E-12 4.38695E-12
 -1      7737-2.41873E-02 1.57515E-01-1.69562E-10-6.60073E-02-9.28591E-14-3.08220E-13
 -1      7738-2.41873E-02 1.57515E-01-1.69558E-10-6.60073E-02 9.23269E-14 3.09291E-13
 -1      7739-2.41873E-02 1.57515E-01-1.67579E-10-6.60073E-02-1.44372E-12-4.38947E-12
 -1      7740-2.41873E-02 1.57515E-01-1.48063E-10-6.60073E-02 1.30296E-11 4.01723E-11
 -1      7741-2.41873E-02 1.57515E-01-8.93131E-11-6.60073E-02-2.97997E-12-9.17140E-12
 -1      7742-2.41873E-02 1.57515E-01-1.82894E-10-6.60073E-02 5.28929E-11 1.62770E-10
 -1      7743 6.56683E-04 1.32671E-01-1.82067E-10-9.08513E-02-7.78192E-11-1.52548E-10
 -1      7744 6.56683E-04 1.32671E-01-8.85042E-11-9.08513E-02 4.24272E-12 8.52656E-12
 -1      7745 6.56683E-04 1.32671E-01-1.47241E-10-9.08513E-02-1.92741E-11-3.77102E-11
 -1      7746 6.56683E-04 1.32671E-01-1.66737E-10-9.08513E-02 2.02124E-12 4.07504E-12
 -1      7747 6.56683E-04 1.32671E-01-1.68703E-10-9.08513E-02-1.75496E-13-3.03212E-13
 -1      7748 6.56683E-04 1.32671E-01-1.68706E-10-9.08513E-02 1.64281E-13 3.06447E-13
 -1      7749 6.56683E-04 1.32671E-01-1.66738E-10-9.08513E-02-2.03152E-12-4.05955E-12
 -1      7750 6.56683E-04 1.32671E-01-1.47252E-10-9.08513E-02 1.92775E-11 3.76963E-11
 -1      7751 6.56683E-04 1.32671E-01-8.85308E-11-9.08513E-02-4.26068E-12-8.49303E-12
 -1      7752 6.56683E-04 1.32671E-01-1.82083E-10-9.08513E-02 7.78204E-11 1.52542E-10
 -1      7753 3.19619E-02 1.01366E-01-1.82027E-10-1.06802E-01-1.00680E-10-1.38383E-10
 -1      7754 3.19619E-02 1.01366E-01-8.83552E-11-1.06802E-01 5.51460E-12 7.83835E-12
 -1      7755 3.19619E-02 1.01366E-01-1.46979E-10-1.06802E-01-2.49606E-11-3.41252E-11
 -1      7756 3.19619E-02 1.01366E-01-1.66375E-10-1.06802E-01 2.61785E-12 3.74355E-12
 -1      7757 3.19619E-02 1.01366E-01-1.68307E-10-1.06802E-01-2.23696E-13-2.56509E-13
 -1      7758 3.19619E-02 1.01366E-01-1.68306E-10-1.06802E-01 2.19880E-13 2.30158E-13
 -1      7759 3.19619E-02 1.01366E-01-1.66364E-10-1.06802E-01-2.62145E-12-3.77600E-12
 -1      7760 3.19619E-02 1.01366E-01-1.46958E-10-1.06802E-01 2.49556E-11 3.41407E-11
 -1      7761 3.19619E-02 1.01366E-01-8.83312E-11-1.06802E-01-5.51120E-12-7.84985E-12
 -1      7762 3.19619E-02 1.01366E-01-1.82012E-10-1.06802E-01 1.00678E-10 1.38385E-10
 -1      7763 6.66640E-02 6.66640E-02-1.83288E-10-1.12298E-01-1.20520E-10-1.20962E-10
 -1      7764 6.66640E-02 6.66640E-02-8.96370E-11-1.12298E-01 7.47536E-12 6.98573E-12
 -1      7765 6.66640E-02 6.66640E-02-1.48393E-10-1.12298E-01-2.92798E-11-2.96929E-11
 -1      7766 6.66640E-02 6.66640E-02-1.67894E-10-1.12298E-01 3.66665E-12 3.41078E-12
 -1      7767 6.66640E-02 6.66640E-02-1.69869E-10-1.12298E-01-5.47957E-14-1.80416E-13
 -1      7768 6.66640E-02 6.66640E-02-1.69874E-10-1.12298E-01 1.08157E-13 1.74640E-13
 -1      7769 6.66640E-02 6.66640E-02-1.67900E-10-1.12298E-01-3.65558E-12-3.40717E-12
 -1      7770 6.66640E-02 6.66640E-02-1.48407E-10-1.12298E-01 2.92799E-11 2.97094E-11
 -1      7771 6.66640E-02 6.66640E-02-8.96493E-11-1.12298E-01-7.47667E-12-6.96285E-12
 -1      7772 6.66640E-02 6.66640E-02-1.83291E-10-1.12298E-01 1.20519E-10 1.20949E-10
 -1      7773 1.01366E-01 3.19619E-02-1.82244E-10-1.06802E-01-1.38875E-10-1.00990E-10
 -1      7774 1.01366E-01 3.19619E-02-8.89409E-11-1.06802E-01 7.21930E-12 5.09753E-12
 -1      7775 1.01366E-01 3.19619E-02-1.47764E-10-1.06802E-01-3.46887E-11-2.53551E-11
 -1      7776 1.01366E-01 3.19619E-02-1.67359E-10-1.06802E-01 3.37783E-12 2.33960E-12
 -1      7777 1.01366E-01 3.19619E-02-1.69382E-10-1.06802E-01-4.11409E-13-3.17320E-13
 -1      7778 1.01366E-01 3.19619E-02-1.69383E-10-1.06802E-01 3.66670E-13 3.31147E-13
 -1      7779 1.01366E-01 3.19619E-02-1.67352E-10-1.06802E-01-3.35601E-12-2.34206E-12
 -1      7780 1.01366E-01 3.19619E-02-1.47779E-10-1.06802E-01 3.46923E-11 2.53637E-11
 -1      7781 1.01366E-01 3.19619E-02-8.89615E-11-1.06802E-01-7.22033E-12-5.09102E-12
 -1      7782 1.01366E-01 3.19619E-02-1.82254E-10-1.06802E-01 1.38862E-10 1.00991E-10
 -1      7783 1.32671E-01 6.56681E-04-1.81779E-10-9.08513E-02-1.52833E-10-7.72278E-11
 -1      7784 1.32671E-01 6.56681E-04-8.82343E-11-9.08513E-02 8.16420E-12 4.92907E-12
 -1      7785 1.32671E-01 6.56681E-04-1.46927E-10-9.08513E-02-3.79466E-11-1.87537E-11
 -1      7786 1.32671E-01 6.56681E-04-1.66403E-10-9.08513E-02 3.89284E-12 2.35286E-12
 -1      7787 1.32671E-01 6.56681E-04-1.68376E-10-9.08513E-02-3.48580E-13-4.89188E-14
 -1      7788 1.32671E-01 6.56681E-04-1.68374E-10-9.08513E-02 3.56979E-13 6.88558E-14
 -1      7789 1.32671E-01 6.56681E-04-1.66401E-10-9.08513E-02-3.88965E-12-2.34612E-12
 -1      7790 1.32671E-01 6.56681E-04-1.46901E-10-9.08513E-02 3.79665E-11 1.87437E-11
 -1      7791 1.32671E-01 6.56681E-04-8.82043E-11-9.08513E-02-8.16428E-12-4.92494E-12
 -1      7792 1.32671E-01 6.56681E-04-1.81770E-10-9.08513E-02 1.52832E-10 7.72214E-11
 -1      7793 1.57515E-01-2.41873E-02-1.82713E-10-6.60073E-02-1.62232E-10-5.26974E-11
 -1      7794 1.57515E-01-2.41873E-02-8.87852E-11-6.60073E-02 9.77543E-12 3.22470E-12
 -1      7795 1.57515E-01-2.41873E-02-1.47197E-10-6.60073E-02-3.96372E-11-1.28014E-11
 -1      7796 1.57515E-01-2.41873E-02-1.66438E-10-6.60073E-02 4.75047E-12 1.60588E-12
 -1      7797 1.57515E-01-2.41873E-02-1.68311E-10-6.60073E-02-1.61589E-13-3.43137E-14
 -1      7798 1.57515E-01-2.41873E-02-1.68310E-10-6.60073E-02 1.75587E-13 2.61091E-14
 -1      7799 1.57515E-01-2.41873E-02-1.66450E-10-6.60073E-02-4.76786E-12-1.60453E-12
 -1      7800 1.57515E-01-2.41873E-02-1.47227E-10-6.60073E-02 3.96217E-11 1.28063E-11
 -1      7801 1.57515E-01-2.41873E-02-8.87859E-11-6.60073E-02-9.75585E-12-3.21850E-12
 -1      7802 1.57515E-01-2.41873E-02-1.82716E-10-6.60073E-02 1.62218E-10 5.27093E-11
 -1      7803 1.73466E-01-4.01381E-02-1.82763E-10-3.47021E-02-1.68694E-10-2.75418E-11
 -1      7804 1.73466E-01-4.01381E-02-8.92159E-11-3.47021E-02 9.94539E-12 6.54894E-13
 -1      7805 1.73466E-01-4.01381E-02-1.47963E-10-3.47021E-02-4.13353E-11-7.26929E-12
 -1      7806 1.73466E-01-4.01381E-02-1.67460E-10-3.47021E-02 4.81083E-12 3.26355E-13
 -1      7807 1.73466E-01-4.01381E-02-1.69427E-10-3.47021E-02-2.25561E-13-1.82527E-13
 -1      7808 1.73466E-01-4.01381E-02-1.69434E-10-3.47021E-02 2.33836E-13 1.81130E-13
 -1      7809 1.73466E-01-4.01381E-02-1.67447E-10-3.47021E-02-4.78502E-12-3.23716E-13
 -1      7810 1.73466E-01-4.01381E-02-1.47967E-10-3.47021E-02 4.13405E-11 7.26626E-12
 -1      7811 1.73466E-01-4.01381E-02-8.92158E-11-3.47021E-02-9.93688E-12-6.51787E-13
 -1      7812 1.73466E-01-4.01381E-02-1.82772E-10-3.47021E-02 1.68702E-10 2.75366E-11
 -1      7813-3.35705E-02 1.66898E-01-5.30717E-10-3.25681E-02 2.81047E-11 1.77408E-10
 -1      7814-3.35705E-02 1.66898E-01-7.59370E-10-3.25681E-02 4.19411E-11 2.64741E-10
 -1      7815-3.35705E-02 1.66898E-01-5.75009E-10-3.25681E-02-7.47882E-13-4.70525E-12
 -1      7816-3.35705E-02 1.66898E-01-4.83762E-10-3.25681E-02 7.98394E-13 5.07732E-12
 -1      7817-3.35705E-02 1.66898E-01-4.49720E-10-3.25681E-02 2.40571E-13 1.54161E-12
 -1      7818-3.35705E-02 1.66898E-01-4.49722E-10-3.25681E-02-2.42727E-13-1.51658E-12
 -1      7819-3.35705E-02 1.66898E-01-4.83762E-10-3.25681E-02-8.04370E-13-5.09229E-12
 -1      7820-3.35705E-02 1.66898E-01-5.75011E-10-3.25681E-02 7.41153E-13 4.68977E-12
 -1      7821-3.35705E-02 1.66898E-01-7.59386E-10-3.25681E-02-4.19416E-11-2.64731E-10
 -1      7822-3.35705E-02 1.66898E-01-5.30725E-10-3.25681E-02-2.81059E-11-1.77402E-10
 -1      7823-1.86005E-02 1.51929E-01-5.31709E-10-6.19483E-02 5.55404E-11 1.70782E-10
 -1      7824-1.86005E-02 1.51929E-01-7.60375E-10-6.19483E-02 8.29274E-11 2.54936E-10
 -1      7825-1.86005E-02 1.51929E-01-5.76009E-10-6.19483E-02-1.38879E-12-4.48791E-12
 -1      7826-1.86005E-02 1.51929E-01-4.84788E-10-6.19483E-02 1.65226E-12 4.96686E-12
 -1      7827-1.86005E-02 1.51929E-01-4.50783E-10-6.19483E-02 4.95034E-13 1.47758E-12
 -1      7828-1.86005E-02 1.51929E-01-4.50779E-10-6.19483E-02-4.88755E-13-1.48215E-12
 -1      7829-1.86005E-02 1.51929E-01-4.84777E-10-6.19483E-02-1.65651E-12-4.93232E-12
 -1      7830-1.86005E-02 1.51929E-01-5.76017E-10-6.19483E-02 1.39401E-12 4.46396E-12
 -1      7831-1.86005E-02 1.51929E-01-7.60388E-10-6.19483E-02-8.29386E-11-2.54994E-10
 -1      7832-1.86005E-02 1.51929E-01-5.31721E-10-6.19483E-02-5.55462E-11-1.70767E-10
 -1      7833 4.71569E-03 1.28612E-01-5.29338E-10-8.52645E-02 8.14279E-11 1.59971E-10
 -1      7834 4.71569E-03 1.28612E-01-7.57962E-10-8.52645E-02 1.21555E-10 2.38694E-10
 -1      7835 4.71569E-03 1.28612E-01-5.73630E-10-8.52645E-02-2.27756E-12-4.31910E-12
 -1      7836 4.71569E-03 1.28612E-01-4.82403E-10-8.52645E-02 2.26341E-12 4.48956E-12
 -1      7837 4.71569E-03 1.28612E-01-4.48396E-10-8.52645E-02 6.78321E-13 1.34005E-12
 -1      7838 4.71569E-03 1.28612E-01-4.48407E-10-8.52645E-02-6.80383E-13-1.34602E-12
 -1      7839 4.71569E-03 1.28612E-01-4.82425E-10-8.52645E-02-2.26790E-12-4.51177E-12
 -1      7840 4.71569E-03 1.28612E-01-5.73635E-10-8.52645E-02 2.27286E-12 4.35685E-12
 -1      7841 4.71569E-03 1.28612E-01-7.57970E-10-8.52645E-02-1.21554E-10-2.38711E-10
 -1      7842 4.71569E-03 1.28612E-01-5.29335E-10-8.52645E-02-8.14286E-11-1.59958E-10
 -1      7843 3.40958E-02 9.92321E-02-5.30098E-10-1.00234E-01 1.05386E-10 1.45429E-10
 -1      7844 3.40958E-02 9.92321E-02-7.58587E-10-1.00234E-01 1.57252E-10 2.16971E-10
 -1      7845 3.40958E-02 9.92321E-02-5.74075E-10-1.00234E-01-3.06422E-12-3.73163E-12
 -1      7846 3.40958E-02 9.92321E-02-4.82770E-10-1.00234E-01 2.85315E-12 4.24602E-12
 -1      7847 3.40958E-02 9.92321E-02-4.48716E-10-1.00234E-01 8.47959E-13 1.26673E-12
 -1      7848 3.40958E-02 9.92321E-02-4.48719E-10-1.00234E-01-8.70066E-13-1.27850E-12
 -1      7849 3.40958E-02 9.92321E-02-4.82763E-10-1.00234E-01-2.85938E-12-4.25340E-12
 -1      7850 3.40958E-02 9.92321E-02-5.74067E-10-1.00234E-01 3.07277E-12 3.70040E-12
 -1      7851 3.40958E-02 9.92321E-02-7.58579E-10-1.00234E-01-1.57255E-10-2.16958E-10
 -1      7852 3.40958E-02 9.92321E-02-5.30099E-10-1.00234E-01-1.05404E-10-1.45436E-10
 -1      7853 6.66640E-02 6.66640E-02-5.33196E-10-1.05393E-01 1.27820E-10 1.27186E-10
 -1      7854 6.66640E-02 6.66640E-02-7.62059E-10-1.05393E-01 1.90771E-10 1.89949E-10
 -1      7855 6.66640E-02 6.66640E-02-5.77644E-10-1.05393E-01-2.25613E-12-2.81741E-12
 -1      7856 6.66640E-02 6.66640E-02-4.86436E-10-1.05393E-01 4.40004E-12 4.03589E-12
 -1      7857 6.66640E-02 6.66640E-02-4.52414E-10-1.05393E-01 1.34946E-12 1.25537E-12
 -1      7858 6.66640E-02 6.66640E-02-4.52402E-10-1.05393E-01-1.34980E-12-1.24541E-12
 -1      7859 6.66640E-02 6.66640E-02-4.86420E-10-1.05393E-01-4.38476E-12-4.03835E-12
 -1      7860 6.66640E-02 6.66640E-02-5.77617E-10-1.05393E-01 2.26174E-12 2.84707E-12
 -1      7861 6.66640E-02 6.66640E-02-7.62045E-10-1.05393E-01-1.90757E-10-1.89983E-10
 -1      7862 6.66640E-02 6.66640E-02-5.33206E-10-1.05393E-01-1.27827E-10-1.27181E-10
 -1      7863 9.92321E-02 3.40958E-02-5.29560E-10-1.00234E-01 1.44606E-10 1.04793E-10
 -1      7864 9.92321E-02 3.40958E-02-7.57809E-10-1.00234E-01 2.15781E-10 1.56389E-10
 -1      7865 9.92321E-02 3.40958E-02-5.73663E-10-1.00234E-01-4.82725E-12-3.82933E-12
 -1      7866 9.92321E-02 3.40958E-02-4.82511E-10-1.00234E-01 3.47452E-12 2.30407E-12
 -1      7867 9.92321E-02 3.40958E-02-4.48551E-10-1.00234E-01 9.98436E-13 6.53703E-13
 -1      7868 9.92321E-02 3.40958E-02-4.48567E-10-1.00234E-01-1.01865E-12-6.50981E-13
 -1      7869 9.92321E-02 3.40958E-02-4.82533E-10-1.00234E-01-3.48903E-12-2.28679E-12
 -1      7870 9.92321E-02 3.40958E-02-5.73674E-10-1.00234E-01 4.83364E-12 3.83224E-12
 -1      7871 9.92321E-02 3.40958E-02-7.57815E-10-1.00234E-01-2.15782E-10-1.56367E-10
 -1      7872 9.92321E-02 3.40958E-02-5.29550E-10-1.00234E-01-1.44597E-10-1.04801E-10
 -1      7873 1.28612E-01 4.71568E-03-5.28578E-10-8.52645E-02 1.59586E-10 8.22458E-11
 -1      7874 1.28612E-01 4.71568E-03-7.57073E-10-8.52645E-02 2.38216E-10 1.22517E-10
 -1      7875 1.28612E-01 4.71568E-03-5.72732E-10-8.52645E-02-4.72130E-12-1.46190E-12
 -1      7876 1.28612E-01 4.71568E-03-4.81544E-10-8.52645E-02 4.27275E-12 2.74247E-12
 -1      7877 1.28612E-01 4.71568E-03-4.47562E-10-8.52645E-02 1.27621E-12 8.39093E-13
 -1      7878 1.28612E-01 4.71568E-03-4.47559E-10-8.52645E-02-1.25272E-12-8.36407E-13
 -1      7879 1.28612E-01 4.71568E-03-4.81539E-10-8.52645E-02-4.29408E-12-2.75199E-12
 -1      7880 1.28612E-01 4.71568E-03-5.72731E-10-8.52645E-02 4.70804E-12 1.47686E-12
 -1      7881 1.28612E-01 4.71568E-03-7.57075E-10-8.52645E-02-2.38200E-10-1.22533E-10
 -1      7882 1.28612E-01 4.71568E-03-5.28594E-10-8.52645E-02-1.59555E-10-8.22399E-11
 -1      7883 1.51929E-01-1.86005E-02-5.32843E-10-6.19483E-02 1.71605E-10 5.58391E-11
 -1      7884 1.51929E-01-1.86005E-02-7.61280E-10-6.19483E-02 2.56013E-10 8.33509E-11
 -1      7885 1.51929E-01-1.86005E-02-5.76470E-10-6.19483E-02-3.43838E-12-9.35255E-13
 -1      7886 1.51929E-01-1.86005E-02-4.85041E-10-6.19483E-02 5.65454E-12 1.95139E-12
 -1      7887 1.51929E-01-1.86005E-02-4.50899E-10-6.19483E-02 1.73440E-12 6.05416E-13
 -1      7888 1.51929E-01-1.86005E-02-4.50913E-10-6.19483E-02-1.73334E-12-6.02556E-13
 -1      7889 1.51929E-01-1.86005E-02-4.85058E-10-6.19483E-02-5.62288E-12-1.95477E-12
 -1      7890 1.51929E-01-1.86005E-02-5.76474E-10-6.19483E-02 3.42439E-12 9.24014E-13
 -1      7891 1.51929E-01-1.86005E-02-7.61288E-10-6.19483E-02-2.56048E-10-8.33491E-11
 -1      7892 1.51929E-01-1.86005E-02-5.32833E-10-6.19483E-02-1.71595E-10-5.58352E-11
 -1      7893 1.66898E-01-3.35705E-02-5.31560E-10-3.25682E-02 1.77917E-10 2.69950E-11
 -1      7894 1.66898E-01-3.35705E-02-7.60152E-10-3.25682E-02 2.65481E-10 4.06165E-11
 -1      7895 1.66898E-01-3.35705E-02-5.75771E-10-3.25682E-02-3.97077E-12-1.72760E-12
 -1      7896 1.66898E-01-3.35705E-02-4.84531E-10-3.25682E-02 5.57263E-12 2.03162E-13
 -1      7897 1.66898E-01-3.35705E-02-4.50484E-10-3.25682E-02 1.70430E-12 4.41704E-14
 -1      7898 1.66898E-01-3.35705E-02-4.50479E-10-3.25682E-02-1.67995E-12-4.81097E-14
 -1      7899 1.66898E-01-3.35705E-02-4.84517E-10-3.25682E-02-5.56224E-12-2.02960E-13
 -1      7900 1.66898E-01-3.35705E-02-5.75746E-10-3.25682E-02 3.98581E-12 1.72795E-12
 -1      7901 1.66898E-01-3.35705E-02-7.60126E-10-3.25682E-02-2.65466E-10-4.06207E-11
 -1      7902 1.66898E-01-3.35705E-02-5.31547E-10-3.25682E-02-1.77919E-10-2.69905E-11
 -1      7903-2.75904E-02 1.60918E-01 8.11834E-10-3.06251E-02-2.63072E-10-1.66076E-09
 -1      7904-2.75904E-02 1.60918E-01 1.86908E-09-3.06251E-02-8.83529E-11-5.57150E-10
 -1      7905-2.75904E-02 1.60918E-01 1.44072E-09-3.06251E-02-6.80740E-11-4.29337E-10
 -1      7906-2.75904E-02 1.60918E-01 1.25794E-09-3.06251E-02-2.74675E-11-1.73182E-10
 -1      7907-2.75904E-02 1.60918E-01 1.24589E-09-3.06251E-02-4.86591E-12-3.06277E-11
 -1      7908-2.75904E-02 1.60918E-01 1.24589E-09-3.06251E-02 4.87492E-12 3.06373E-11
 -1      7909-2.75904E-02 1.60918E-01 1.25793E-09-3.06251E-02 2.74731E-11 1.73183E-10
 -1      7910-2.75904E-02 1.60918E-01 1.44072E-09-3.06251E-02 6.80748E-11 4.29313E-10
 -1      7911-2.75904E-02 1.60918E-01 1.86905E-09-3.06251E-02 8.83442E-11 5.57153E-10
 -1      7912-2.75904E-02 1.60918E-01 8.11835E-10-3.06251E-02 2.63070E-10 1.66077E-09
 -1      7913-1.35136E-02 1.46842E-01 8.10507E-10-5.82524E-02-5.19512E-10-1.59926E-09
 -1      7914-1.35136E-02 1.46842E-01 1.86770E-09-5.82524E-02-1.74183E-10-5.36412E-10
 -1      7915-1.35136E-02 1.46842E-01 1.43927E-09-5.82524E-02-1.34118E-10-4.13303E-10
 -1      7916-1.35136E-02 1.46842E-01 1.25645E-09-5.82524E-02-5.40324E-11-1.66661E-10
 -1      7917-1.35136E-02 1.46842E-01 1.24439E-09-5.82524E-02-9.52421E-12-2.95052E-11
 -1      7918-1.35136E-02 1.46842E-01 1.24441E-09-5.82524E-02 9.52545E-12 2.94931E-11
 -1      7919-1.35136E-02 1.46842E-01 1.25646E-09-5.82524E-02 5.40238E-11 1.66652E-10
 -1      7920-1.35136E-02 1.46842E-01 1.43926E-09-5.82524E-02 1.34109E-10 4.13325E-10
 -1      7921-1.35136E-02 1.46842E-01 1.86770E-09-5.82524E-02 1.74180E-10 5.36411E-10
 -1      7922-1.35136E-02 1.46842E-01 8.10504E-10-5.82524E-02 5.19522E-10 1.59919E-09
 -1      7923 8.41155E-03 1.24916E-01 8.16176E-10-8.01776E-02-7.63484E-10-1.49815E-09
 -1      7924 8.41155E-03 1.24916E-01 1.87292E-09-8.01776E-02-2.56287E-10-5.02758E-10
 -1      7925 8.41155E-03 1.24916E-01 1.44433E-09-8.01776E-02-1.97394E-10-3.87538E-10
 -1      7926 8.41155E-03 1.24916E-01 1.26139E-09-8.01776E-02-7.96065E-11-1.56429E-10
 -1      7927 8.41155E-03 1.24916E-01 1.24928E-09-8.01776E-02-1.40940E-11-2.77434E-11
 -1      7928 8.41155E-03 1.24916E-01 1.24926E-09-8.01776E-02 1.40897E-11 2.77314E-11
 -1      7929 8.41155E-03 1.24916E-01 1.26140E-09-8.01776E-02 7.96179E-11 1.56434E-10
 -1      7930 8.41155E-03 1.24916E-01 1.44433E-09-8.01776E-02 1.97408E-10 3.87538E-10
 -1      7931 8.41155E-03 1.24916E-01 1.87293E-09-8.01776E-02 2.56282E-10 5.02759E-10
 -1      7932 8.41155E-03 1.24916E-01 8.16158E-10-8.01776E-02 7.63473E-10 1.49816E-09
 -1      7933 3.60389E-02 9.72891E-02 8.12303E-10-9.42544E-02-9.88760E-10-1.36006E-09
 -1      7934 3.60389E-02 9.72891E-02 1.86935E-09-9.42544E-02-3.32263E-10-4.55939E-10
 -1      7935 3.60389E-02 9.72891E-02 1.44090E-09-9.42544E-02-2.56049E-10-3.51352E-10
 -1      7936 3.60389E-02 9.72891E-02 1.25822E-09-9.42544E-02-1.03444E-10-1.41664E-10
 -1      7937 3.60389E-02 9.72891E-02 1.24625E-09-9.42544E-02-1.83679E-11-2.50458E-11
 -1      7938 3.60389E-02 9.72891E-02 1.24626E-09-9.42544E-02 1.83671E-11 2.50152E-11
 -1      7939 3.60389E-02 9.72891E-02 1.25825E-09-9.42544E-02 1.03430E-10 1.41640E-10
 -1      7940 3.60389E-02 9.72891E-02 1.44093E-09-9.42544E-02 2.56022E-10 3.51354E-10
 -1      7941 3.60389E-02 9.72891E-02 1.86936E-09-9.42544E-02 3.32255E-10 4.55956E-10
 -1      7942 3.60389E-02 9.72891E-02 8.12306E-10-9.42544E-02 9.88770E-10 1.36003E-09
 -1      7943 6.66640E-02 6.66640E-02 8.04248E-10-9.91050E-02-1.18755E-09-1.18849E-09
 -1      7944 6.66640E-02 6.66640E-02 1.86231E-09-9.91050E-02-3.96806E-10-3.97746E-10
 -1      7945 6.66640E-02 6.66640E-02 1.43383E-09-9.91050E-02-3.05320E-10-3.06261E-10
 -1      7946 6.66640E-02 6.66640E-02 1.25124E-09-9.91050E-02-1.22651E-10-1.23156E-10
 -1      7947 6.66640E-02 6.66640E-02 1.23934E-09-9.91050E-02-2.15035E-11-2.16444E-11
 -1      7948 6.66640E-02 6.66640E-02 1.23933E-09-9.91050E-02 2.14722E-11 2.16844E-11
 -1      7949 6.66640E-02 6.66640E-02 1.25123E-09-9.91050E-02 1.22666E-10 1.23206E-10
 -1      7950 6.66640E-02 6.66640E-02 1.43380E-09-9.91050E-02 3.05361E-10 3.06263E-10
 -1      7951 6.66640E-02 6.66640E-02 1.86230E-09-9.91050E-02 3.96819E-10 3.97727E-10
 -1      7952 6.66640E-02 6.66640E-02 8.04256E-10-9.91050E-02 1.18757E-09 1.18847E-09
 -1      7953 9.72891E-02 3.60389E-02 8.18911E-10-9.42544E-02-1.36161E-09-9.89792E-10
 -1      7954 9.72891E-02 3.60389E-02 1.87390E-09-9.42544E-02-4.58219E-10-3.33666E-10
 -1      7955 9.72891E-02 3.60389E-02 1.44542E-09-9.42544E-02-3.53475E-10-2.57684E-10
 -1      7956 9.72891E-02 3.60389E-02 1.26241E-09-9.42544E-02-1.43141E-10-1.04556E-10
 -1      7957 9.72891E-02 3.60389E-02 1.25027E-09-9.42544E-02-2.55675E-11-1.87468E-11
 -1      7958 9.72891E-02 3.60389E-02 1.25027E-09-9.42544E-02 2.55548E-11 1.87595E-11
 -1      7959 9.72891E-02 3.60389E-02 1.26241E-09-9.42544E-02 1.43121E-10 1.04544E-10
 -1      7960 9.72891E-02 3.60389E-02 1.44542E-09-9.42544E-02 3.53481E-10 2.57666E-10
 -1      7961 9.72891E-02 3.60389E-02 1.87391E-09-9.42544E-02 4.58228E-10 3.33661E-10
 -1      7962 9.72891E-02 3.60389E-02 8.18887E-10-9.42544E-02 1.36159E-09 9.89790E-10
 -1      7963 1.24916E-01 8.41155E-03 8.17710E-10-8.01776E-02-1.49868E-09-7.62038E-10
 -1      7964 1.24916E-01 8.41155E-03 1.87395E-09-8.01776E-02-5.03473E-10-2.54638E-10
 -1      7965 1.24916E-01 8.41155E-03 1.44536E-09-8.01776E-02-3.88099E-10-1.96311E-10
 -1      7966 1.24916E-01 8.41155E-03 1.26253E-09-8.01776E-02-1.56782E-10-7.89600E-11
 -1      7967 1.24916E-01 8.41155E-03 1.25044E-09-8.01776E-02-2.78425E-11-1.38923E-11
 -1      7968 1.24916E-01 8.41155E-03 1.25046E-09-8.01776E-02 2.78114E-11 1.38789E-11
 -1      7969 1.24916E-01 8.41155E-03 1.26252E-09-8.01776E-02 1.56799E-10 7.89522E-11
 -1      7970 1.24916E-01 8.41155E-03 1.44536E-09-8.01776E-02 3.88110E-10 1.96299E-10
 -1      7971 1.24916E-01 8.41155E-03 1.87397E-09-8.01776E-02 5.03496E-10 2.54668E-10
 -1      7972 1.24916E-01 8.41155E-03 8.17729E-10-8.01776E-02 1.49866E-09 7.62065E-10
 -1      7973 1.46842E-01-1.35136E-02 8.02601E-10-5.82524E-02-1.59781E-09-5.18889E-10
 -1      7974 1.46842E-01-1.35136E-02 1.86088E-09-5.82524E-02-5.34419E-10-1.73134E-10
 -1      7975 1.46842E-01-1.35136E-02 1.43270E-09-5.82524E-02-4.11307E-10-1.33243E-10
 -1      7976 1.46842E-01-1.35136E-02 1.25053E-09-5.82524E-02-1.65372E-10-5.34000E-11
 -1      7977 1.46842E-01-1.35136E-02 1.23877E-09-5.82524E-02-2.90028E-11-9.29571E-12
 -1      7978 1.46842E-01-1.35136E-02 1.23878E-09-5.82524E-02 2.90311E-11 9.30061E-12
 -1      7979 1.46842E-01-1.35136E-02 1.25055E-09-5.82524E-02 1.65349E-10 5.34041E-11
 -1      7980 1.46842E-01-1.35136E-02 1.43269E-09-5.82524E-02 4.11312E-10 1.33249E-10
 -1      7981 1.46842E-01-1.35136E-02 1.86087E-09-5.82524E-02 5.34428E-10 1.73132E-10
 -1      7982 1.46842E-01-1.35136E-02 8.02573E-10-5.82524E-02 1.59780E-09 5.18884E-10
 -1      7983 1.60918E-01-2.75904E-02 8.09300E-10-3.06251E-02-1.65972E-09-2.64764E-10
 -1      7984 1.60918E-01-2.75904E-02 1.86632E-09-3.06251E-02-5.55866E-10-9.01626E-11
 -1      7985 1.60918E-01-2.75904E-02 1.43806E-09-3.06251E-02-4.28265E-10-6.96076E-11
 -1      7986 1.60918E-01-2.75904E-02 1.25558E-09-3.06251E-02-1.72480E-10-2.83757E-11
 -1      7987 1.60918E-01-2.75904E-02 1.24363E-09-3.06251E-02-3.04286E-11-5.17091E-12
 -1      7988 1.60918E-01-2.75904E-02 1.24363E-09-3.06251E-02 3.04213E-11 5.16837E-12
 -1      7989 1.60918E-01-2.75904E-02 1.25557E-09-3.06251E-02 1.72493E-10 2.83736E-11
 -1      7990 1.60918E-01-2.75904E-02 1.43806E-09-3.06251E-02 4.28250E-10 6.95993E-11
 -1      7991 1.60918E-01-2.75904E-02 1.86632E-09-3.06251E-02 5.55851E-10 9.01619E-11
 -1      7992 1.60918E-01-2.75904E-02 8.09325E-10-3.06251E-02 1.65973E-09 2.64764E-10
 -1      7993-2.21300E-02 1.55458E-01-3.94938E-09-2.88509E-02 4.80643E-10 3.03567E-09
 -1      7994-2.21300E-02 1.55458E-01-6.72478E-09-2.88509E-02 3.43592E-10 2.16954E-09
 -1      7995-2.21300E-02 1.55458E-01-5.30605E-09-2.88509E-02 5.49240E-11 3.47706E-10
 -1      7996-2.21300E-02 1.55458E-01-4.45285E-09-2.88509E-02-3.38596E-11-2.12805E-10
 -1      7997-2.21300E-02 1.55458E-01-4.06469E-09-2.88509E-02-1.40864E-11-8.85408E-11
 -1      7998-2.21300E-02 1.55458E-01-4.06468E-09-2.88509E-02 1.40875E-11 8.85376E-11
 -1      7999-2.21300E-02 1.55458E-01-4.45284E-09-2.88509E-02 3.38553E-11 2.12789E-10
 -1      8000-2.21300E-02 1.55458E-01-5.30606E-09-2.88509E-02-5.49294E-11-3.47725E-10
 -1      8001-2.21300E-02 1.55458E-01-6.72477E-09-2.88509E-02-3.43591E-10-2.16953E-09
 -1      8002-2.21300E-02 1.55458E-01-3.94937E-09-2.88509E-02-4.80649E-10-3.03568E-09
 -1      8003-8.86871E-03 1.42197E-01-3.94881E-09-5.48777E-02 9.50001E-10 2.92315E-09
 -1      8004-8.86871E-03 1.42197E-01-6.72444E-09-5.48777E-02 6.79636E-10 2.08909E-09
 -1      8005-8.86871E-03 1.42197E-01-5.30584E-09-5.48777E-02 1.09414E-10 3.34923E-10
 -1      8006-8.86871E-03 1.42197E-01-4.45273E-09-5.48777E-02-6.61977E-11-2.04809E-10
 -1      8007-8.86871E-03 1.42197E-01-4.06465E-09-5.48777E-02-2.75890E-11-8.52062E-11
 -1      8008-8.86871E-03 1.42197E-01-4.06466E-09-5.48777E-02 2.75796E-11 8.51951E-11
 -1      8009-8.86871E-03 1.42197E-01-4.45273E-09-5.48777E-02 6.61991E-11 2.04832E-10
 -1      8010-8.86871E-03 1.42197E-01-5.30583E-09-5.48777E-02-1.09406E-10-3.34952E-10
 -1      8011-8.86871E-03 1.42197E-01-6.72443E-09-5.48777E-02-6.79634E-10-2.08912E-09
 -1      8012-8.86871E-03 1.42197E-01-3.94880E-09-5.48777E-02-9.50002E-10-2.92315E-09
 -1      8013 1.17863E-02 1.21542E-01-3.93905E-09-7.55327E-02 1.39566E-09 2.73924E-09
 -1      8014 1.17863E-02 1.21542E-01-6.71475E-09-7.55327E-02 9.97706E-10 1.95687E-09
 -1      8015 1.17863E-02 1.21542E-01-5.29675E-09-7.55327E-02 1.60071E-10 3.13313E-10
 -1      8016 1.17863E-02 1.21542E-01-4.44410E-09-7.55327E-02-9.76827E-11-1.92217E-10
 -1      8017 1.17863E-02 1.21542E-01-4.05636E-09-7.55327E-02-4.06529E-11-7.99593E-11
 -1      8018 1.17863E-02 1.21542E-01-4.05635E-09-7.55327E-02 4.06501E-11 7.99646E-11
 -1      8019 1.17863E-02 1.21542E-01-4.44410E-09-7.55327E-02 9.76797E-11 1.92215E-10
 -1      8020 1.17863E-02 1.21542E-01-5.29676E-09-7.55327E-02-1.60070E-10-3.13321E-10
 -1      8021 1.17863E-02 1.21542E-01-6.71475E-09-7.55327E-02-9.97718E-10-1.95685E-09
 -1      8022 1.17863E-02 1.21542E-01-3.93905E-09-7.55327E-02-1.39567E-09-2.73923E-09
 -1      8023 3.78131E-02 9.55149E-02-3.95068E-09-8.87940E-02 1.80574E-09 2.48718E-09
 -1      8024 3.78131E-02 9.55149E-02-6.72540E-09-8.87940E-02 1.28996E-09 1.77767E-09
 -1      8025 3.78131E-02 9.55149E-02-5.30591E-09-8.87940E-02 2.05548E-10 2.85552E-10
 -1      8026 3.78131E-02 9.55149E-02-4.45260E-09-8.87940E-02-1.27592E-10-1.73727E-10
 -1      8027 3.78131E-02 9.55149E-02-4.06453E-09-8.87940E-02-5.30441E-11-7.22967E-11
 -1      8028 3.78131E-02 9.55149E-02-4.06453E-09-8.87940E-02 5.30129E-11 7.22791E-11
 -1      8029 3.78131E-02 9.55149E-02-4.45261E-09-8.87940E-02 1.27577E-10 1.73714E-10
 -1      8030 3.78131E-02 9.55149E-02-5.30590E-09-8.87940E-02-2.05570E-10-2.85567E-10
 -1      8031 3.78131E-02 9.55149E-02-6.72539E-09-8.87940E-02-1.28996E-09-1.77768E-09
 -1      8032 3.78131E-02 9.55149E-02-3.95069E-09-8.87940E-02-1.80575E-09-2.48718E-09
 -1      8033 6.66640E-02 6.66640E-02-3.95902E-09-9.33635E-02 2.17490E-09 2.17388E-09
 -1      8034 6.66640E-02 6.66640E-02-6.73545E-09-9.33635E-02 1.55675E-09 1.55402E-09
 -1      8035 6.66640E-02 6.66640E-02-5.31451E-09-9.33635E-02 2.51687E-10 2.50375E-10
 -1      8036 6.66640E-02 6.66640E-02-4.46023E-09-9.33635E-02-1.50470E-10-1.51301E-10
 -1      8037 6.66640E-02 6.66640E-02-4.07158E-09-9.33635E-02-6.27077E-11-6.30094E-11
 -1      8038 6.66640E-02 6.66640E-02-4.07161E-09-9.33635E-02 6.27290E-11 6.30234E-11
 -1      8039 6.66640E-02 6.66640E-02-4.46023E-09-9.33635E-02 1.50487E-10 1.51304E-10
 -1      8040 6.66640E-02 6.66640E-02-5.31451E-09-9.33635E-02-2.51666E-10-2.50346E-10
 -1      8041 6.66640E-02 6.66640E-02-6.73545E-09-9.33635E-02-1.55672E-09-1.55402E-09
 -1      8042 6.66640E-02 6.66640E-02-3.95902E-09-9.33635E-02-2.17489E-09-2.17389E-09
 -1      8043 9.55149E-02 3.78131E-02-3.93302E-09-8.87940E-02 2.48594E-09 1.80498E-09
 -1      8044 9.55149E-02 3.78131E-02-6.70479E-09-8.87940E-02 1.77481E-09 1.28667E-09
 -1      8045 9.55149E-02 3.78131E-02-5.28855E-09-8.87940E-02 2.82572E-10 2.03472E-10
 -1      8046 9.55149E-02 3.78131E-02-4.43704E-09-8.87940E-02-1.75671E-10-1.28958E-10
 -1      8047 9.55149E-02 3.78131E-02-4.04994E-09-8.87940E-02-7.29497E-11-5.35067E-11
 -1      8048 9.55149E-02 3.78131E-02-4.04993E-09-8.87940E-02 7.29466E-11 5.34959E-11
 -1      8049 9.55149E-02 3.78131E-02-4.43706E-09-8.87940E-02 1.75653E-10 1.28954E-10
 -1      8050 9.55149E-02 3.78131E-02-5.28855E-09-8.87940E-02-2.82572E-10-2.03476E-10
 -1      8051 9.55149E-02 3.78131E-02-6.70478E-09-8.87940E-02-1.77481E-09-1.28668E-09
 -1      8052 9.55149E-02 3.78131E-02-3.93302E-09-8.87940E-02-2.48595E-09-1.80498E-09
 -1      8053 1.21542E-01 1.17863E-02-3.93535E-09-7.55327E-02 2.73884E-09 1.39743E-09
 -1      8054 1.21542E-01 1.17863E-02-6.70963E-09-7.55327E-02 1.95559E-09 9.99533E-10
 -1      8055 1.21542E-01 1.17863E-02-5.29140E-09-7.55327E-02 3.12350E-10 1.61937E-10
 -1      8056 1.21542E-01 1.17863E-02-4.43917E-09-7.55327E-02-1.92728E-10-9.64624E-11
 -1      8057 1.21542E-01 1.17863E-02-4.05161E-09-7.55327E-02-8.01114E-11-4.02698E-11
 -1      8058 1.21542E-01 1.17863E-02-4.05163E-09-7.55327E-02 8.01122E-11 4.02636E-11
 -1      8059 1.21542E-01 1.17863E-02-4.43916E-09-7.55327E-02 1.92710E-10 9.64450E-11
 -1      8060 1.21542E-01 1.17863E-02-5.29141E-09-7.55327E-02-3.12369E-10-1.61947E-10
 -1      8061 1.21542E-01 1.17863E-02-6.70964E-09-7.55327E-02-1.95558E-09-9.99530E-10
 -1      8062 1.21542E-01 1.17863E-02-3.93534E-09-7.55327E-02-2.73884E-09-1.39744E-09
 -1      8063 1.42197E-01-8.86871E-03-3.96858E-09-5.48777E-02 2.92373E-09 9.50659E-10
 -1      8064 1.42197E-01-8.86871E-03-6.74313E-09-5.48777E-02 2.09136E-09 6.80449E-10
 -1      8065 1.42197E-01-8.86871E-03-5.32046E-09-5.48777E-02 3.37301E-10 1.10902E-10
 -1      8066 1.42197E-01-8.86871E-03-4.46613E-09-5.48777E-02-2.02971E-10-6.51506E-11
 -1      8067 1.42197E-01-8.86871E-03-4.07742E-09-5.48777E-02-8.45701E-11-2.72219E-11
 -1      8068 1.42197E-01-8.86871E-03-4.07742E-09-5.48777E-02 8.45613E-11 2.72315E-11
 -1      8069 1.42197E-01-8.86871E-03-4.46614E-09-5.48777E-02 2.02989E-10 6.51657E-11
 -1      8070 1.42197E-01-8.86871E-03-5.32044E-09-5.48777E-02-3.37288E-10-1.10889E-10
 -1      8071 1.42197E-01-8.86871E-03-6.74311E-09-5.48777E-02-2.09136E-09-6.80448E-10
 -1      8072 1.42197E-01-8.86871E-03-3.96857E-09-5.48777E-02-2.92372E-09-9.50659E-10
 -1      8073 1.55458E-01-2.21300E-02-3.95062E-09-2.88509E-02 3.03669E-09 4.78707E-10
 -1      8074 1.55458E-01-2.21300E-02-6.72412E-09-2.88509E-02 2.17050E-09 3.39417E-10
 -1      8075 1.55458E-01-2.21300E-02-5.30420E-09-2.88509E-02 3.48897E-10 5.23003E-11
 -1      8076 1.55458E-01-2.21300E-02-4.45089E-09-2.88509E-02-2.11851E-10-3.55660E-11
 -1      8077 1.55458E-01-2.21300E-02-4.06254E-09-2.88509E-02-8.82358E-11-1.46722E-11
 -1      8078 1.55458E-01-2.21300E-02-4.06252E-09-2.88509E-02 8.82449E-11 1.46772E-11
 -1      8079 1.55458E-01-2.21300E-02-4.45087E-09-2.88509E-02 2.11835E-10 3.55674E-11
 -1      8080 1.55458E-01-2.21300E-02-5.30420E-09-2.88509E-02-3.48911E-10-5.23006E-11
 -1      8081 1.55458E-01-2.21300E-02-6.72412E-09-2.88509E-02-2.17050E-09-3.39417E-10
 -1      8082 1.55458E-01-2.21300E-02-3.95062E-09-2.88509E-02-3.03670E-09-4.78699E-10
 -1      8083-1.71304E-02 1.50458E-01 1.32458E-08-2.72265E-02-2.66457E-09-1.68271E-08
 -1      8084-1.71304E-02 1.50458E-01 2.42844E-08-2.72265E-02-1.40875E-09-8.89129E-09
 -1      8085-1.71304E-02 1.50458E-01 2.18694E-08-2.72265E-02-6.46890E-10-4.08115E-09
 -1      8086-1.71304E-02 1.50458E-01 1.98865E-08-2.72265E-02-2.80156E-10-1.76694E-09
 -1      8087-1.71304E-02 1.50458E-01 1.93308E-08-2.72265E-02-6.32746E-11-3.98981E-10
 -1      8088-1.71304E-02 1.50458E-01 1.93308E-08-2.72265E-02 6.32776E-11 3.98993E-10
 -1      8089-1.71304E-02 1.50458E-01 1.98865E-08-2.72265E-02 2.80155E-10 1.76696E-09
 -1      8090-1.71304E-02 1.50458E-01 2.18694E-08-2.72265E-02 6.46892E-10 4.08114E-09
 -1      8091-1.71304E-02 1.50458E-01 2.42844E-08-2.72265E-02 1.40874E-09 8.89129E-09
 -1      8092-1.71304E-02 1.50458E-01 1.32458E-08-2.72265E-02 2.66457E-09 1.68271E-08
 -1      8093-4.61578E-03 1.37944E-01 1.32511E-08-5.17878E-02-5.26244E-09-1.62030E-08
 -1      8094-4.61579E-03 1.37944E-01 2.42894E-08-5.17878E-02-2.78105E-09-8.56102E-09
 -1      8095-4.61579E-03 1.37944E-01 2.18738E-08-5.17878E-02-1.27598E-09-3.92934E-09
 -1      8096-4.61579E-03 1.37944E-01 1.98903E-08-5.17878E-02-5.52140E-10-1.70115E-09
 -1      8097-4.61580E-03 1.37944E-01 1.93343E-08-5.17878E-02-1.24571E-10-3.84105E-10
 -1      8098-4.61580E-03 1.37944E-01 1.93343E-08-5.17878E-02 1.24557E-10 3.84117E-10
 -1      8099-4.61579E-03 1.37944E-01 1.98903E-08-5.17878E-02 5.52143E-10 1.70112E-09
 -1      8100-4.61579E-03 1.37944E-01 2.18738E-08-5.17878E-02 1.27597E-09 3.92934E-09
 -1      8101-4.61579E-03 1.37944E-01 2.42894E-08-5.17878E-02 2.78105E-09 8.56100E-09
 -1      8102-4.61578E-03 1.37944E-01 1.32511E-08-5.17878E-02 5.26245E-09 1.62030E-08
 -1      8103 1.48762E-02 1.18452E-01 1.32628E-08-7.12798E-02-7.73193E-09-1.51781E-08
 -1      8104 1.48762E-02 1.18452E-01 2.42975E-08-7.12798E-02-4.08630E-09-8.01826E-09
 -1      8105 1.48762E-02 1.18452E-01 2.18799E-08-7.12798E-02-1.87508E-09-3.67949E-09
 -1      8106 1.48762E-02 1.18452E-01 1.98946E-08-7.12798E-02-8.11424E-10-1.59256E-09
 -1      8107 1.48762E-02 1.18452E-01 1.93377E-08-7.12798E-02-1.83099E-10-3.59438E-10
 -1      8108 1.48762E-02 1.18452E-01 1.93378E-08-7.12798E-02 1.83085E-10 3.59443E-10
 -1      8109 1.48762E-02 1.18452E-01 1.98946E-08-7.12798E-02 8.11429E-10 1.59257E-09
 -1      8110 1.48762E-02 1.18452E-01 2.18799E-08-7.12798E-02 1.87507E-09 3.67949E-09
 -1      8111 1.48762E-02 1.18452E-01 2.42975E-08-7.12798E-02 4.08629E-09 8.01827E-09
 -1      8112 1.48762E-02 1.18452E-01 1.32628E-08-7.12798E-02 7.73193E-09 1.51781E-08
 -1      8113 3.94376E-02 9.38905E-02 1.32339E-08-8.37944E-02-1.00164E-08-1.37842E-08
 -1      8114 3.94376E-02 9.38905E-02 2.42739E-08-8.37944E-02-5.29566E-09-7.28053E-09
 -1      8115 3.94376E-02 9.38905E-02 2.18579E-08-8.37944E-02-2.43179E-09-3.34004E-09
 -1      8116 3.94376E-02 9.38905E-02 1.98748E-08-8.37944E-02-1.05342E-09-1.44551E-09
 -1      8117 3.94376E-02 9.38905E-02 1.93194E-08-8.37944E-02-2.38101E-10-3.26209E-10
 -1      8118 3.94376E-02 9.38905E-02 1.93194E-08-8.37944E-02 2.38100E-10 3.26194E-10
 -1      8119 3.94376E-02 9.38905E-02 1.98748E-08-8.37944E-02 1.05342E-09 1.44550E-09
 -1      8120 3.94376E-02 9.38905E-02 2.18579E-08-8.37944E-02 2.43178E-09 3.34002E-09
 -1      8121 3.94376E-02 9.38905E-02 2.42739E-08-8.37944E-02 5.29565E-09 7.28053E-09
 -1      8122 3.94376E-02 9.38905E-02 1.32339E-08-8.37944E-02 1.00164E-08 1.37842E-08
 -1      8123 6.66640E-02 6.66640E-02 1.32158E-08-8.81067E-02-1.20451E-08-1.20501E-08
 -1      8124 6.66640E-02 6.66640E-02 2.42679E-08-8.81067E-02-6.36579E-09-6.36562E-09
 -1      8125 6.66640E-02 6.66640E-02 2.18557E-08-8.81067E-02-2.92015E-09-2.92280E-09
 -1      8126 6.66640E-02 6.66640E-02 1.98762E-08-8.81067E-02-1.26423E-09-1.26598E-09
 -1      8127 6.66640E-02 6.66640E-02 1.93228E-08-8.81067E-02-2.85512E-10-2.86083E-10
 -1      8128 6.66640E-02 6.66640E-02 1.93228E-08-8.81067E-02 2.85543E-10 2.86092E-10
 -1      8129 6.66640E-02 6.66640E-02 1.98762E-08-8.81067E-02 1.26423E-09 1.26601E-09
 -1      8130 6.66640E-02 6.66640E-02 2.18557E-08-8.81067E-02 2.92013E-09 2.92282E-09
 -1      8131 6.66640E-02 6.66640E-02 2.42679E-08-8.81067E-02 6.36578E-09 6.36561E-09
 -1      8132 6.66640E-02 6.66640E-02 1.32158E-08-8.81067E-02 1.20451E-08 1.20501E-08
 -1      8133 9.38905E-02 3.94376E-02 1.32972E-08-8.37944E-02-1.37803E-08-1.00165E-08
 -1      8134 9.38905E-02 3.94376E-02 2.43104E-08-8.37944E-02-7.27776E-09-5.28954E-09
 -1      8135 9.38905E-02 3.94376E-02 2.18865E-08-8.37944E-02-3.33704E-09-2.42935E-09
 -1      8136 9.38905E-02 3.94376E-02 1.98958E-08-8.37944E-02-1.44297E-09-1.05187E-09
 -1      8137 9.38905E-02 3.94376E-02 1.93356E-08-8.37944E-02-3.25213E-10-2.37422E-10
 -1      8138 9.38905E-02 3.94376E-02 1.93356E-08-8.37944E-02 3.25181E-10 2.37432E-10
 -1      8139 9.38905E-02 3.94376E-02 1.98958E-08-8.37944E-02 1.44299E-09 1.05187E-09
 -1      8140 9.38905E-02 3.94376E-02 2.18865E-08-8.37944E-02 3.33705E-09 2.42934E-09
 -1      8141 9.38905E-02 3.94376E-02 2.43104E-08-8.37944E-02 7.27776E-09 5.28953E-09
 -1      8142 9.38905E-02 3.94376E-02 1.32972E-08-8.37944E-02 1.37804E-08 1.00165E-08
 -1      8143 1.18452E-01 1.48762E-02 1.32640E-08-7.12798E-02-1.51792E-08-7.72927E-09
 -1      8144 1.18452E-01 1.48762E-02 2.42936E-08-7.12798E-02-8.01938E-09-4.07952E-09
 -1      8145 1.18452E-01 1.48762E-02 2.18731E-08-7.12798E-02-3.68040E-09-1.87038E-09
 -1      8146 1.18452E-01 1.48762E-02 1.98881E-08-7.12798E-02-1.59334E-09-8.09209E-10
 -1      8147 1.18452E-01 1.48762E-02 1.93315E-08-7.12798E-02-3.59751E-10-1.82370E-10
 -1      8148 1.18452E-01 1.48762E-02 1.93315E-08-7.12798E-02 3.59743E-10 1.82368E-10
 -1      8149 1.18452E-01 1.48762E-02 1.98881E-08-7.12798E-02 1.59334E-09 8.09214E-10
 -1      8150 1.18452E-01 1.48762E-02 2.18731E-08-7.12798E-02 3.68038E-09 1.87039E-09
 -1      8151 1.18452E-01 1.48762E-02 2.42936E-08-7.12798E-02 8.01939E-09 4.07953E-09
 -1      8152 1.18452E-01 1.48762E-02 1.32640E-08-7.12798E-02 1.51791E-08 7.72927E-09
 -1      8153 1.37944E-01-4.61579E-03 1.31808E-08-5.17878E-02-1.62094E-08-5.26525E-09
 -1      8154 1.37944E-01-4.61580E-03 2.42351E-08-5.17878E-02-8.56643E-09-2.77919E-09
 -1      8155 1.37944E-01-4.61580E-03 2.18225E-08-5.17878E-02-3.93267E-09-1.27542E-09
 -1      8156 1.37944E-01-4.61580E-03 1.98476E-08-5.17878E-02-1.70468E-09-5.52234E-10
 -1      8157 1.37944E-01-4.61580E-03 1.92971E-08-5.17878E-02-3.85615E-10-1.24642E-10
 -1      8158 1.37944E-01-4.61580E-03 1.92971E-08-5.17878E-02 3.85640E-10 1.24639E-10
 -1      8159 1.37944E-01-4.61580E-03 1.98476E-08-5.17878E-02 1.70468E-09 5.52249E-10
 -1      8160 1.37944E-01-4.61580E-03 2.18225E-08-5.17878E-02 3.93269E-09 1.27542E-09
 -1      8161 1.37944E-01-4.61580E-03 2.42351E-08-5.17878E-02 8.56644E-09 2.77920E-09
 -1      8162 1.37944E-01-4.61579E-03 1.31808E-08-5.17878E-02 1.62094E-08 5.26526E-09
 -1      8163 1.50458E-01-1.71304E-02 1.32344E-08-2.72265E-02-1.68270E-08-2.67185E-09
 -1      8164 1.50458E-01-1.71304E-02 2.42709E-08-2.72265E-02-8.88940E-09-1.41205E-09
 -1      8165 1.50458E-01-1.71304E-02 2.18549E-08-2.72265E-02-4.08016E-09-6.52394E-10
 -1      8166 1.50458E-01-1.71304E-02 1.98754E-08-2.72265E-02-1.76741E-09-2.83367E-10
 -1      8167 1.50458E-01-1.71304E-02 1.93214E-08-2.72265E-02-3.99295E-10-6.43011E-11
 -1      8168 1.50458E-01-1.71304E-02 1.93215E-08-2.72265E-02 3.99289E-10 6.42990E-11
 -1      8169 1.50458E-01-1.71304E-02 1.98754E-08-2.72265E-02 1.76743E-09 2.83365E-10
 -1      8170 1.50458E-01-1.71304E-02 2.18549E-08-2.72265E-02 4.08013E-09 6.52393E-10
 -1      8171 1.50458E-01-1.71304E-02 2.42709E-08-2.72265E-02 8.88941E-09 1.41205E-09
 -1      8172 1.50458E-01-1.71304E-02 1.32344E-08-2.72265E-02 1.68270E-08 2.67185E-09
 -1      8173-1.25423E-02 1.45870E-01-5.08393E-08-2.57357E-02 6.46318E-09 4.08381E-08
 -1      8174-1.25423E-02 1.45870E-01-8.29854E-08-2.57357E-02 4.22096E-09 2.66543E-08
 -1      8175-1.25423E-02 1.45870E-01-7.92211E-08-2.57357E-02 1.77731E-09 1.12182E-08
 -1      8176-1.25423E-02 1.45870E-01-7.46935E-08-2.57357E-02 1.83904E-10 1.15702E-09
 -1      8177-1.25423E-02 1.45870E-01-7.15539E-08-2.57357E-02-9.81752E-11-6.21471E-10
 -1      8178-1.25423E-02 1.45870E-01-7.15539E-08-2.57357E-02 9.81705E-11 6.21480E-10
 -1      8179-1.25423E-02 1.45870E-01-7.46935E-08-2.57357E-02-1.83905E-10-1.15701E-09
 -1      8180-1.25423E-02 1.45870E-01-7.92211E-08-2.57357E-02-1.77731E-09-1.12181E-08
 -1      8181-1.25423E-02 1.45870E-01-8.29854E-08-2.57357E-02-4.22096E-09-2.66543E-08
 -1      8182-1.25423E-02 1.45870E-01-5.08393E-08-2.57357E-02-6.46318E-09-4.08381E-08
 -1      8183-7.12961E-04 1.34041E-01-5.08304E-08-4.89521E-02 1.27706E-08 3.93301E-08
 -1      8184-7.12955E-04 1.34041E-01-8.29796E-08-4.89521E-02 8.34085E-09 2.56685E-08
 -1      8185-7.12941E-04 1.34041E-01-7.92164E-08-4.89521E-02 3.51178E-09 1.08032E-08
 -1      8186-7.12940E-04 1.34041E-01-7.46877E-08-4.89521E-02 3.63343E-10 1.11429E-09
 -1      8187-7.12943E-04 1.34041E-01-7.15472E-08-4.89521E-02-1.93997E-10-5.98469E-10
 -1      8188-7.12943E-04 1.34041E-01-7.15472E-08-4.89521E-02 1.93989E-10 5.98459E-10
 -1      8189-7.12940E-04 1.34041E-01-7.46877E-08-4.89521E-02-3.63345E-10-1.11431E-09
 -1      8190-7.12941E-04 1.34041E-01-7.92164E-08-4.89521E-02-3.51179E-09-1.08033E-08
 -1      8191-7.12955E-04 1.34041E-01-8.29796E-08-4.89521E-02-8.34086E-09-2.56685E-08
 -1      8192-7.12961E-04 1.34041E-01-5.08303E-08-4.89521E-02-1.27707E-08-3.93301E-08
 -1      8193 1.77117E-02 1.15616E-01-5.08468E-08-6.73768E-02 1.87702E-08 3.68607E-08
 -1      8194 1.77117E-02 1.15616E-01-8.29967E-08-6.73768E-02 1.22579E-08 2.40598E-08
 -1      8195 1.77118E-02 1.15616E-01-7.92391E-08-6.73768E-02 5.16318E-09 1.01318E-08
 -1      8196 1.77118E-02 1.15616E-01-7.47142E-08-6.73768E-02 5.36571E-10 1.05147E-09
 -1      8197 1.77118E-02 1.15616E-01-7.15758E-08-6.73768E-02-2.83921E-10-5.57975E-10
 -1      8198 1.77118E-02 1.15616E-01-7.15758E-08-6.73768E-02 2.83924E-10 5.58005E-10
 -1      8199 1.77118E-02 1.15616E-01-7.47142E-08-6.73768E-02-5.36584E-10-1.05143E-09
 -1      8200 1.77118E-02 1.15616E-01-7.92391E-08-6.73768E-02-5.16318E-09-1.01318E-08
 -1      8201 1.77117E-02 1.15616E-01-8.29967E-08-6.73768E-02-1.22579E-08-2.40598E-08
 -1      8202 1.77117E-02 1.15616E-01-5.08468E-08-6.73768E-02-1.87702E-08-3.68607E-08
 -1      8203 4.09282E-02 9.23995E-02-5.08867E-08-7.92062E-02 2.42900E-08 3.34532E-08
 -1      8204 4.09282E-02 9.23995E-02-8.30321E-08-7.92062E-02 1.58557E-08 2.18300E-08
 -1      8205 4.09282E-02 9.23995E-02-7.92602E-08-7.92062E-02 6.67162E-09 9.18367E-09
 -1      8206 4.09282E-02 9.23995E-02-7.47267E-08-7.92062E-02 6.85571E-10 9.43374E-10
 -1      8207 4.09282E-02 9.23995E-02-7.15843E-08-7.92062E-02-3.70816E-10-5.10801E-10
 -1      8208 4.09282E-02 9.23995E-02-7.15843E-08-7.92062E-02 3.70796E-10 5.10783E-10
 -1      8209 4.09282E-02 9.23995E-02-7.47267E-08-7.92062E-02-6.85577E-10-9.43380E-10
 -1      8210 4.09282E-02 9.23995E-02-7.92603E-08-7.92062E-02-6.67164E-09-9.18369E-09
 -1      8211 4.09282E-02 9.23995E-02-8.30321E-08-7.92062E-02-1.58557E-08-2.18300E-08
 -1      8212 4.09282E-02 9.23995E-02-5.08867E-08-7.92062E-02-2.42900E-08-3.34532E-08
 -1      8213 6.66639E-02 6.66639E-02-5.08524E-08-8.32823E-02 2.92119E-08 2.92325E-08
 -1      8214 6.66639E-02 6.66639E-02-8.30103E-08-8.32823E-02 1.90692E-08 1.90556E-08
 -1      8215 6.66639E-02 6.66639E-02-7.92216E-08-8.32823E-02 8.00956E-09 8.00671E-09
 -1      8216 6.66639E-02 6.66639E-02-7.46730E-08-8.32823E-02 8.10568E-10 8.10725E-10
 -1      8217 6.66639E-02 6.66639E-02-7.15221E-08-8.32823E-02-4.51683E-10-4.51539E-10
 -1      8218 6.66639E-02 6.66639E-02-7.15221E-08-8.32823E-02 4.51685E-10 4.51549E-10
 -1      8219 6.66639E-02 6.66639E-02-7.46730E-08-8.32823E-02-8.10600E-10-8.10700E-10
 -1      8220 6.66639E-02 6.66639E-02-7.92216E-08-8.32823E-02-8.00956E-09-8.00671E-09
 -1      8221 6.66639E-02 6.66639E-02-8.30103E-08-8.32823E-02-1.90692E-08-1.90556E-08
 -1      8222 6.66639E-02 6.66639E-02-5.08524E-08-8.32823E-02-2.92119E-08-2.92325E-08
 -1      8223 9.23995E-02 4.09282E-02-5.08423E-08-7.92062E-02 3.34969E-08 2.43450E-08
 -1      8224 9.23995E-02 4.09282E-02-8.29748E-08-7.92062E-02 2.18804E-08 1.58807E-08
 -1      8225 9.23995E-02 4.09282E-02-7.92408E-08-7.92062E-02 9.22880E-09 6.69992E-09
 -1      8226 9.23995E-02 4.09282E-02-7.47365E-08-7.92062E-02 9.75150E-10 7.07960E-10
 -1      8227 9.23995E-02 4.09282E-02-7.16084E-08-7.92062E-02-4.99115E-10-3.62588E-10
 -1      8228 9.23995E-02 4.09282E-02-7.16084E-08-7.92062E-02 4.99118E-10 3.62588E-10
 -1      8229 9.23995E-02 4.09282E-02-7.47365E-08-7.92062E-02-9.75138E-10-7.07957E-10
 -1      8230 9.23995E-02 4.09282E-02-7.92408E-08-7.92062E-02-9.22880E-09-6.69992E-09
 -1      8231 9.23995E-02 4.09282E-02-8.29748E-08-7.92062E-02-2.18804E-08-1.58807E-08
 -1      8232 9.23995E-02 4.09282E-02-5.08424E-08-7.92062E-02-3.34969E-08-2.43450E-08
 -1      8233 1.15616E-01 1.77117E-02-5.08531E-08-6.73768E-02 3.68683E-08 1.87822E-08
 -1      8234 1.15616E-01 1.77117E-02-8.29975E-08-6.73768E-02 2.40581E-08 1.22598E-08
 -1      8235 1.15616E-01 1.77118E-02-7.92303E-08-6.73768E-02 1.01305E-08 5.16094E-09
 -1      8236 1.15616E-01 1.77118E-02-7.47054E-08-6.73768E-02 1.05184E-09 5.36508E-10
 -1      8237 1.15616E-01 1.77118E-02-7.15680E-08-6.73768E-02-5.57525E-10-2.83986E-10
 -1      8238 1.15616E-01 1.77118E-02-7.15680E-08-6.73768E-02 5.57538E-10 2.83978E-10
 -1      8239 1.15616E-01 1.77118E-02-7.47054E-08-6.73768E-02-1.05184E-09-5.36515E-10
 -1      8240 1.15616E-01 1.77118E-02-7.92303E-08-6.73768E-02-1.01305E-08-5.16094E-09
 -1      8241 1.15616E-01 1.77117E-02-8.29975E-08-6.73768E-02-2.40581E-08-1.22598E-08
 -1      8242 1.15616E-01 1.77117E-02-5.08531E-08-6.73768E-02-3.68683E-08-1.87821E-08
 -1      8243 1.34041E-01-7.12968E-04-5.08986E-08-4.89521E-02 3.92751E-08 1.27669E-08
 -1      8244 1.34041E-01-7.12961E-04-8.30411E-08-4.89521E-02 2.56083E-08 8.31855E-09
 -1      8245 1.34041E-01-7.12947E-04-7.92197E-08-4.89521E-02 1.07432E-08 3.49349E-09
 -1      8246 1.34041E-01-7.12946E-04-7.46622E-08-4.89521E-02 1.07418E-09 3.52260E-10
 -1      8247 1.34041E-01-7.12949E-04-7.15102E-08-4.89521E-02-6.12564E-10-1.97973E-10
 -1      8248 1.34041E-01-7.12949E-04-7.15102E-08-4.89521E-02 6.12577E-10 1.97975E-10
 -1      8249 1.34041E-01-7.12946E-04-7.46623E-08-4.89521E-02-1.07417E-09-3.52266E-10
 -1      8250 1.34041E-01-7.12947E-04-7.92197E-08-4.89521E-02-1.07432E-08-3.49349E-09
 -1      8251 1.34041E-01-7.12961E-04-8.30411E-08-4.89521E-02-2.56082E-08-8.31855E-09
 -1      8252 1.34041E-01-7.12968E-04-5.08986E-08-4.89521E-02-3.92751E-08-1.27669E-08
 -1      8253 1.45870E-01-1.25423E-02-5.08434E-08-2.57357E-02 4.08403E-08 6.48274E-09
 -1      8254 1.45870E-01-1.25423E-02-8.29775E-08-2.57357E-02 2.66399E-08 4.20465E-09
 -1      8255 1.45870E-01-1.25423E-02-7.91887E-08-2.57357E-02 1.11998E-08 1.77576E-09
 -1      8256 1.45870E-01-1.25423E-02-7.46567E-08-2.57357E-02 1.14686E-09 1.85273E-10
 -1      8257 1.45870E-01-1.25423E-02-7.15169E-08-2.57357E-02-6.24734E-10-9.74981E-11
 -1      8258 1.45870E-01-1.25423E-02-7.15169E-08-2.57357E-02 6.24736E-10 9.74980E-11
 -1      8259 1.45870E-01-1.25423E-02-7.46568E-08-2.57357E-02-1.14688E-09-1.85274E-10
 -1      8260 1.45870E-01-1.25423E-02-7.91887E-08-2.57357E-02-1.11997E-08-1.77576E-09
 -1      8261 1.45870E-01-1.25423E-02-8.29775E-08-2.57357E-02-2.66400E-08-4.20465E-09
 -1      8262 1.45870E-01-1.25423E-02-5.08434E-08-2.57357E-02-4.08403E-08-6.48274E-09
 -1      8263-8.31741E-03 1.41646E-01 1.80121E-07-2.43631E-02-2.55074E-08-1.61173E-07
 -1      8264-8.31751E-03 1.41646E-01 2.89643E-07-2.43631E-02-1.79825E-08-1.13581E-07
 -1      8265-8.31757E-03 1.41646E-01 3.04271E-07-2.43631E-02-6.78814E-09-4.28600E-08
 -1      8266-8.31757E-03 1.41646E-01 2.90159E-07-2.43631E-02-1.31804E-09-8.30709E-09
 -1      8267-8.31756E-03 1.41646E-01 2.76441E-07-2.43631E-02-4.16053E-11-2.54493E-10
 -1      8268-8.31756E-03 1.41646E-01 2.76441E-07-2.43631E-02 4.16033E-11 2.54533E-10
 -1      8269-8.31757E-03 1.41646E-01 2.90159E-07-2.43631E-02 1.31804E-09 8.30709E-09
 -1      8270-8.31757E-03 1.41646E-01 3.04271E-07-2.43631E-02 6.78814E-09 4.28600E-08
 -1      8271-8.31751E-03 1.41646E-01 2.89643E-07-2.43631E-02 1.79825E-08 1.13581E-07
 -1      8272-8.31741E-03 1.41646E-01 1.80121E-07-2.43631E-02 2.55074E-08 1.61173E-07
 -1      8273 2.88108E-03 1.30448E-01 1.80153E-07-4.63414E-02-5.03838E-08-1.55188E-07
 -1      8274 2.88099E-03 1.30448E-01 2.89671E-07-4.63414E-02-3.55239E-08-1.09356E-07
 -1      8275 2.88093E-03 1.30448E-01 3.04302E-07-4.63414E-02-1.34085E-08-4.12578E-08
 -1      8276 2.88093E-03 1.30448E-01 2.90191E-07-4.63414E-02-2.60193E-09-7.98886E-09
 -1      8277 2.88094E-03 1.30448E-01 2.76472E-07-4.63414E-02-8.13550E-11-2.41085E-10
 -1      8278 2.88094E-03 1.30448E-01 2.76472E-07-4.63414E-02 8.13559E-11 2.41064E-10
 -1      8279 2.88093E-03 1.30448E-01 2.90191E-07-4.63414E-02 2.60192E-09 7.98886E-09
 -1      8280 2.88093E-03 1.30448E-01 3.04302E-07-4.63414E-02 1.34085E-08 4.12578E-08
 -1      8281 2.88099E-03 1.30448E-01 2.89671E-07-4.63414E-02 3.55239E-08 1.09356E-07
 -1      8282 2.88108E-03 1.30448E-01 1.80153E-07-4.63414E-02 5.03838E-08 1.55188E-07
 -1      8283 2.03231E-02 1.13006E-01 1.80169E-07-6.37834E-02-7.40166E-08-1.45384E-07
 -1      8284 2.03231E-02 1.13006E-01 2.89661E-07-6.37835E-02-5.21576E-08-1.02422E-07
 -1      8285 2.03230E-02 1.13006E-01 3.04277E-07-6.37835E-02-1.96614E-08-3.86190E-08
 -1      8286 2.03230E-02 1.13006E-01 2.90147E-07-6.37835E-02-3.79137E-09-7.45891E-09
 -1      8287 2.03230E-02 1.13006E-01 2.76415E-07-6.37835E-02-1.07464E-10-2.16233E-10
 -1      8288 2.03230E-02 1.13006E-01 2.76415E-07-6.37835E-02 1.07461E-10 2.16280E-10
 -1      8289 2.03230E-02 1.13006E-01 2.90147E-07-6.37835E-02 3.79137E-09 7.45895E-09
 -1      8290 2.03230E-02 1.13006E-01 3.04277E-07-6.37835E-02 1.96614E-08 3.86190E-08
 -1      8291 2.03231E-02 1.13006E-01 2.89661E-07-6.37835E-02 5.21576E-08 1.02423E-07
 -1      8292 2.03231E-02 1.13006E-01 1.80169E-07-6.37834E-02 7.40166E-08 1.45384E-07
 -1      8293 4.23014E-02 9.10276E-02 1.80253E-07-7.49819E-02-9.59048E-08-1.32103E-07
 -1      8294 4.23013E-02 9.10276E-02 2.89795E-07-7.49820E-02-6.76007E-08-9.31169E-08
 -1      8295 4.23013E-02 9.10276E-02 3.04434E-07-7.49820E-02-2.55165E-08-3.51692E-08
 -1      8296 4.23013E-02 9.10276E-02 2.90322E-07-7.49820E-02-4.94771E-09-6.84589E-09
 -1      8297 4.23013E-02 9.10276E-02 2.76600E-07-7.49820E-02-1.52521E-10-2.22837E-10
 -1      8298 4.23013E-02 9.10276E-02 2.76600E-07-7.49820E-02 1.52534E-10 2.22827E-10
 -1      8299 4.23013E-02 9.10276E-02 2.90322E-07-7.49820E-02 4.94769E-09 6.84588E-09
 -1      8300 4.23013E-02 9.10276E-02 3.04434E-07-7.49820E-02 2.55165E-08 3.51692E-08
 -1      8301 4.23013E-02 9.10276E-02 2.89795E-07-7.49820E-02 6.76007E-08 9.31169E-08
 -1      8302 4.23014E-02 9.10276E-02 1.80253E-07-7.49819E-02 9.59048E-08 1.32103E-07
 -1      8303 6.66645E-02 6.66645E-02 1.80254E-07-7.88407E-02-1.15409E-07-1.15500E-07
 -1      8304 6.66645E-02 6.66645E-02 2.89894E-07-7.88407E-02-8.14649E-08-8.13957E-08
 -1      8305 6.66644E-02 6.66644E-02 3.04574E-07-7.88407E-02-3.08283E-08-3.07661E-08
 -1      8306 6.66644E-02 6.66644E-02 2.90508E-07-7.88407E-02-6.04941E-09-6.00416E-09
 -1      8307 6.66644E-02 6.66644E-02 2.76814E-07-7.88407E-02-2.19175E-10-2.02046E-10
 -1      8308 6.66644E-02 6.66644E-02 2.76814E-07-7.88407E-02 2.19142E-10 2.02040E-10
 -1      8309 6.66644E-02 6.66644E-02 2.90508E-07-7.88407E-02 6.04943E-09 6.00416E-09
 -1      8310 6.66644E-02 6.66644E-02 3.04574E-07-7.88407E-02 3.08283E-08 3.07661E-08
 -1      8311 6.66645E-02 6.66645E-02 2.89894E-07-7.88407E-02 8.14649E-08 8.13957E-08
 -1      8312 6.66645E-02 6.66645E-02 1.80254E-07-7.88407E-02 1.15409E-07 1.15500E-07
 -1      8313 9.10276E-02 4.23014E-02 1.80366E-07-7.49819E-02-1.31876E-07-9.58847E-08
 -1      8314 9.10276E-02 4.23013E-02 2.89669E-07-7.49820E-02-9.28335E-08-6.73963E-08
 -1      8315 9.10276E-02 4.23013E-02 3.04192E-07-7.49820E-02-3.48979E-08-2.53081E-08
 -1      8316 9.10276E-02 4.23013E-02 2.90003E-07-7.49820E-02-6.65429E-09-4.80402E-09
 -1      8317 9.10276E-02 4.23013E-02 2.76242E-07-7.49820E-02-1.54169E-10-1.00826E-10
 -1      8318 9.10276E-02 4.23013E-02 2.76242E-07-7.49820E-02 1.54183E-10 1.00820E-10
 -1      8319 9.10276E-02 4.23013E-02 2.90003E-07-7.49820E-02 6.65428E-09 4.80401E-09
 -1      8320 9.10276E-02 4.23013E-02 3.04192E-07-7.49820E-02 3.48980E-08 2.53081E-08
 -1      8321 9.10276E-02 4.23013E-02 2.89669E-07-7.49820E-02 9.28336E-08 6.73963E-08
 -1      8322 9.10276E-02 4.23014E-02 1.80366E-07-7.49819E-02 1.31876E-07 9.58847E-08
 -1      8323 1.13006E-01 2.03231E-02 1.80324E-07-6.37834E-02-1.45372E-07-7.41148E-08
 -1      8324 1.13006E-01 2.03231E-02 2.89822E-07-6.37835E-02-1.02364E-07-5.22378E-08
 -1      8325 1.13006E-01 2.03230E-02 3.04391E-07-6.37835E-02-3.85560E-08-1.97106E-08
 -1      8326 1.13006E-01 2.03230E-02 2.90242E-07-6.37835E-02-7.41077E-09-3.83438E-09
 -1      8327 1.13006E-01 2.03230E-02 2.76502E-07-6.37835E-02-1.98666E-10-1.24006E-10
 -1      8328 1.13006E-01 2.03230E-02 2.76502E-07-6.37835E-02 1.98681E-10 1.23997E-10
 -1      8329 1.13006E-01 2.03230E-02 2.90242E-07-6.37835E-02 7.41078E-09 3.83438E-09
 -1      8330 1.13006E-01 2.03230E-02 3.04391E-07-6.37835E-02 3.85560E-08 1.97106E-08
 -1      8331 1.13006E-01 2.03231E-02 2.89822E-07-6.37835E-02 1.02364E-07 5.22378E-08
 -1      8332 1.13006E-01 2.03231E-02 1.80324E-07-6.37834E-02 1.45372E-07 7.41148E-08
 -1      8333 1.30448E-01 2.88107E-03 1.80369E-07-4.63414E-02-1.55453E-07-5.05368E-08
 -1      8334 1.30448E-01 2.88098E-03 2.90123E-07-4.63414E-02-1.09691E-07-3.56306E-08
 -1      8335 1.30448E-01 2.88092E-03 3.04780E-07-4.63414E-02-4.15455E-08-1.35022E-08
 -1      8336 1.30448E-01 2.88092E-03 2.90711E-07-4.63414E-02-8.18965E-09-2.67401E-09
 -1      8337 1.30448E-01 2.88093E-03 2.77021E-07-4.63414E-02-3.13603E-10-1.08108E-10
 -1      8338 1.30448E-01 2.88093E-03 2.77021E-07-4.63414E-02 3.13616E-10 1.08115E-10
 -1      8339 1.30448E-01 2.88092E-03 2.90711E-07-4.63414E-02 8.18963E-09 2.67401E-09
 -1      8340 1.30448E-01 2.88092E-03 3.04780E-07-4.63414E-02 4.15455E-08 1.35022E-08
 -1      8341 1.30448E-01 2.88098E-03 2.90123E-07-4.63414E-02 1.09691E-07 3.56306E-08
 -1      8342 1.30448E-01 2.88107E-03 1.80369E-07-4.63414E-02 1.55453E-07 5.05368E-08
 -1      8343 1.41646E-01-8.31742E-03 1.80300E-07-2.43631E-02-1.61269E-07-2.55597E-08
 -1      8344 1.41646E-01-8.31752E-03 2.89865E-07-2.43631E-02-1.13644E-07-1.78539E-08
 -1      8345 1.41646E-01-8.31757E-03 3.04431E-07-2.43631E-02-4.28908E-08-6.68970E-09
 -1      8346 1.41646E-01-8.31757E-03 2.90317E-07-2.43631E-02-8.33414E-09-1.24876E-09
 -1      8347 1.41646E-01-8.31757E-03 2.76609E-07-2.43631E-02-2.65648E-10-1.63694E-11
 -1      8348 1.41646E-01-8.31757E-03 2.76609E-07-2.43631E-02 2.65644E-10 1.63623E-11
 -1      8349 1.41646E-01-8.31757E-03 2.90317E-07-2.43631E-02 8.33416E-09 1.24876E-09
 -1      8350 1.41646E-01-8.31757E-03 3.04431E-07-2.43631E-02 4.28909E-08 6.68970E-09
 -1      8351 1.41646E-01-8.31752E-03 2.89865E-07-2.43631E-02 1.13644E-07 1.78539E-08
 -1      8352 1.41646E-01-8.31742E-03 1.80300E-07-2.43631E-02 1.61269E-07 2.55597E-08
 -1      8353-4.43548E-03 1.37760E-01-7.58420E-07-2.31010E-02 7.74593E-08 4.89519E-07
 -1      8354-4.43525E-03 1.37760E-01-1.05577E-06-2.31010E-02 4.73771E-08 2.99477E-07
 -1      8355-4.43517E-03 1.37760E-01-1.15883E-06-2.31009E-02 2.52979E-08 1.60024E-07
 -1      8356-4.43514E-03 1.37760E-01-1.17789E-06-2.31009E-02 1.27919E-08 8.09682E-08
 -1      8357-4.43512E-03 1.37760E-01-1.18051E-06-2.31009E-02 3.94125E-09 2.49524E-08
 -1      8358-4.43512E-03 1.37760E-01-1.18051E-06-2.31009E-02-3.94126E-09-2.49524E-08
 -1      8359-4.43514E-03 1.37760E-01-1.17789E-06-2.31009E-02-1.27919E-08-8.09681E-08
 -1      8360-4.43517E-03 1.37760E-01-1.15883E-06-2.31009E-02-2.52979E-08-1.60024E-07
 -1      8361-4.43525E-03 1.37760E-01-1.05577E-06-2.31010E-02-4.73772E-08-2.99477E-07
 -1      8362-4.43548E-03 1.37760E-01-7.58420E-07-2.31010E-02-7.74593E-08-4.89519E-07
 -1      8363 6.18288E-03 1.27141E-01-7.58425E-07-4.39407E-02 1.53046E-07 4.71473E-07
 -1      8364 6.18310E-03 1.27141E-01-1.05573E-06-4.39406E-02 9.36522E-08 2.88473E-07
 -1      8365 6.18317E-03 1.27141E-01-1.15881E-06-4.39406E-02 5.00338E-08 1.54185E-07
 -1      8366 6.18320E-03 1.27141E-01-1.17788E-06-4.39406E-02 2.53103E-08 7.80322E-08
 -1      8367 6.18321E-03 1.27141E-01-1.18051E-06-4.39406E-02 7.79988E-09 2.40501E-08
 -1      8368 6.18321E-03 1.27141E-01-1.18051E-06-4.39406E-02-7.79988E-09-2.40501E-08
 -1      8369 6.18320E-03 1.27141E-01-1.17788E-06-4.39406E-02-2.53103E-08-7.80322E-08
 -1      8370 6.18317E-03 1.27141E-01-1.15881E-06-4.39406E-02-5.00338E-08-1.54185E-07
 -1      8371 6.18310E-03 1.27141E-01-1.05573E-06-4.39406E-02-9.36522E-08-2.88473E-07
 -1      8372 6.18288E-03 1.27141E-01-7.58425E-07-4.39407E-02-1.53046E-07-4.71473E-07
 -1      8373 2.27214E-02 1.10603E-01-7.58373E-07-6.04792E-02 2.24995E-07 4.41771E-07
 -1      8374 2.27216E-02 1.10603E-01-1.05562E-06-6.04791E-02 1.37750E-07 2.70308E-07
 -1      8375 2.27216E-02 1.10603E-01-1.15873E-06-6.04790E-02 7.36852E-08 1.44494E-07
 -1      8376 2.27216E-02 1.10603E-01-1.17784E-06-6.04790E-02 3.73145E-08 7.31398E-08
 -1      8377 2.27217E-02 1.10603E-01-1.18048E-06-6.04790E-02 1.15059E-08 2.25438E-08
 -1      8378 2.27217E-02 1.10603E-01-1.18048E-06-6.04790E-02-1.15059E-08-2.25438E-08
 -1      8379 2.27216E-02 1.10603E-01-1.17784E-06-6.04790E-02-3.73145E-08-7.31398E-08
 -1      8380 2.27216E-02 1.10603E-01-1.15873E-06-6.04790E-02-7.36852E-08-1.44494E-07
 -1      8381 2.27216E-02 1.10603E-01-1.05562E-06-6.04791E-02-1.37750E-07-2.70308E-07
 -1      8382 2.27214E-02 1.10603E-01-7.58373E-07-6.04792E-02-2.24995E-07-4.41771E-07
 -1      8383 4.35611E-02 8.97631E-02-7.57828E-07-7.10975E-02 2.91101E-07 4.00838E-07
 -1      8384 4.35612E-02 8.97631E-02-1.05503E-06-7.10974E-02 1.78062E-07 2.45082E-07
 -1      8385 4.35613E-02 8.97631E-02-1.15804E-06-7.10974E-02 9.51558E-08 1.30834E-07
 -1      8386 4.35613E-02 8.97632E-02-1.17706E-06-7.10974E-02 4.81434E-08 6.61549E-08
 -1      8387 4.35613E-02 8.97632E-02-1.17965E-06-7.10974E-02 1.48363E-08 2.03789E-08
 -1      8388 4.35613E-02 8.97632E-02-1.17965E-06-7.10974E-02-1.48363E-08-2.03789E-08
 -1      8389 4.35613E-02 8.97632E-02-1.17706E-06-7.10974E-02-4.81434E-08-6.61549E-08
 -1      8390 4.35613E-02 8.97631E-02-1.15804E-06-7.10974E-02-9.51558E-08-1.30834E-07
 -1      8391 4.35612E-02 8.97631E-02-1.05503E-06-7.10974E-02-1.78062E-07-2.45082E-07
 -1      8392 4.35611E-02 8.97631E-02-7.57828E-07-7.10975E-02-2.91101E-07-4.00838E-07
 -1      8393 6.66621E-02 6.66621E-02-7.58073E-07-7.47564E-02 3.49779E-07 3.50693E-07
 -1      8394 6.66622E-02 6.66622E-02-1.05538E-06-7.47562E-02 2.13915E-07 2.14380E-07
 -1      8395 6.66622E-02 6.66622E-02-1.15833E-06-7.47562E-02 1.14108E-07 1.14514E-07
 -1      8396 6.66622E-02 6.66622E-02-1.17730E-06-7.47562E-02 5.76374E-08 5.79367E-08
 -1      8397 6.66622E-02 6.66622E-02-1.17987E-06-7.47562E-02 1.77434E-08 1.78541E-08
 -1      8398 6.66622E-02 6.66622E-02-1.17987E-06-7.47562E-02-1.77434E-08-1.78540E-08
 -1      8399 6.66622E-02 6.66622E-02-1.17730E-06-7.47562E-02-5.76374E-08-5.79367E-08
 -1      8400 6.66622E-02 6.66622E-02-1.15833E-06-7.47562E-02-1.14108E-07-1.14514E-07
 -1      8401 6.66622E-02 6.66622E-02-1.05538E-06-7.47562E-02-2.13915E-07-2.14380E-07
 -1      8402 6.66621E-02 6.66621E-02-7.58073E-07-7.47564E-02-3.49779E-07-3.50693E-07
 -1      8403 8.97631E-02 4.35611E-02-7.59955E-07-7.10975E-02 4.01714E-07 2.92461E-07
 -1      8404 8.97631E-02 4.35612E-02-1.05722E-06-7.10974E-02 2.46140E-07 1.79047E-07
 -1      8405 8.97632E-02 4.35613E-02-1.16041E-06-7.10974E-02 1.31823E-07 9.59142E-08
 -1      8406 8.97632E-02 4.35613E-02-1.17965E-06-7.10974E-02 6.68273E-08 4.86570E-08
 -1      8407 8.97632E-02 4.35613E-02-1.18237E-06-7.10974E-02 2.06158E-08 1.50171E-08
 -1      8408 8.97632E-02 4.35613E-02-1.18237E-06-7.10974E-02-2.06158E-08-1.50171E-08
 -1      8409 8.97632E-02 4.35613E-02-1.17965E-06-7.10974E-02-6.68273E-08-4.86570E-08
 -1      8410 8.97632E-02 4.35613E-02-1.16041E-06-7.10974E-02-1.31823E-07-9.59141E-08
 -1      8411 8.97631E-02 4.35612E-02-1.05722E-06-7.10974E-02-2.46140E-07-1.79047E-07
 -1      8412 8.97631E-02 4.35611E-02-7.59955E-07-7.10975E-02-4.01714E-07-2.92461E-07
 -1      8413 1.10603E-01 2.27214E-02-7.59129E-07-6.04792E-02 4.42020E-07 2.24918E-07
 -1      8414 1.10603E-01 2.27216E-02-1.05651E-06-6.04791E-02 2.70550E-07 1.37474E-07
 -1      8415 1.10603E-01 2.27216E-02-1.15951E-06-6.04790E-02 1.44751E-07 7.32056E-08
 -1      8416 1.10603E-01 2.27216E-02-1.17857E-06-6.04790E-02 7.33253E-08 3.69543E-08
 -1      8417 1.10603E-01 2.27217E-02-1.18119E-06-6.04790E-02 2.26123E-08 1.13726E-08
 -1      8418 1.10603E-01 2.27217E-02-1.18119E-06-6.04790E-02-2.26123E-08-1.13726E-08
 -1      8419 1.10603E-01 2.27216E-02-1.17857E-06-6.04790E-02-7.33253E-08-3.69543E-08
 -1      8420 1.10603E-01 2.27216E-02-1.15951E-06-6.04790E-02-1.44751E-07-7.32056E-08
 -1      8421 1.10603E-01 2.27216E-02-1.05651E-06-6.04791E-02-2.70550E-07-1.37474E-07
 -1      8422 1.10603E-01 2.27214E-02-7.59129E-07-6.04792E-02-4.42020E-07-2.24918E-07
 -1      8423 1.27141E-01 6.18287E-03-7.57785E-07-4.39407E-02 4.70255E-07 1.53015E-07
 -1      8424 1.27141E-01 6.18309E-03-1.05530E-06-4.39406E-02 2.87172E-07 9.32879E-08
 -1      8425 1.27141E-01 6.18317E-03-1.15795E-06-4.39406E-02 1.52938E-07 4.95813E-08
 -1      8426 1.27141E-01 6.18319E-03-1.17669E-06-4.39406E-02 7.71698E-08 2.49986E-08
 -1      8427 1.27141E-01 6.18321E-03-1.17914E-06-4.39406E-02 2.37455E-08 7.69113E-09
 -1      8428 1.27141E-01 6.18321E-03-1.17914E-06-4.39406E-02-2.37455E-08-7.69115E-09
 -1      8429 1.27141E-01 6.18319E-03-1.17669E-06-4.39406E-02-7.71698E-08-2.49986E-08
 -1      8430 1.27141E-01 6.18317E-03-1.15795E-06-4.39406E-02-1.52938E-07-4.95813E-08
 -1      8431 1.27141E-01 6.18309E-03-1.05530E-06-4.39406E-02-2.87172E-07-9.32879E-08
 -1      8432 1.27141E-01 6.18287E-03-7.57785E-07-4.39407E-02-4.70255E-07-1.53015E-07
 -1      8433 1.37760E-01-4.43549E-03-7.60119E-07-2.31010E-02 4.89612E-07 7.85268E-08
 -1      8434 1.37760E-01-4.43525E-03-1.05785E-06-2.31009E-02 2.99413E-07 4.79490E-08
 -1      8435 1.37760E-01-4.43517E-03-1.16070E-06-2.31009E-02 1.59791E-07 2.58807E-08
 -1      8436 1.37760E-01-4.43514E-03-1.17963E-06-2.31009E-02 8.07781E-08 1.32302E-08
 -1      8437 1.37760E-01-4.43513E-03-1.18222E-06-2.31009E-02 2.48821E-08 4.10602E-09
 -1      8438 1.37760E-01-4.43513E-03-1.18222E-06-2.31009E-02-2.48821E-08-4.10603E-09
 -1      8439 1.37760E-01-4.43514E-03-1.17963E-06-2.31009E-02-8.07781E-08-1.32302E-08
 -1      8440 1.37760E-01-4.43517E-03-1.16070E-06-2.31009E-02-1.59791E-07-2.58808E-08
 -1      8441 1.37760E-01-4.43525E-03-1.05785E-06-2.31009E-02-2.99413E-07-4.79490E-08
 -1      8442 1.37760E-01-4.43549E-03-7.60119E-07-2.31010E-02-4.89612E-07-7.85268E-08
 -1      8443-7.61223E-04 1.34092E-01 4.14919E-07-2.19083E-02-7.72385E-08-4.87428E-07
 -1      8444-7.61213E-04 1.34093E-01 6.38280E-07-2.19083E-02-2.88100E-08-1.80567E-07
 -1      8445-7.61160E-04 1.34093E-01 7.71279E-07-2.19083E-02-1.34901E-08-8.41511E-08
 -1      8446-7.61154E-04 1.34093E-01 8.55656E-07-2.19083E-02-7.37584E-09-4.60664E-08
 -1      8447-7.61159E-04 1.34093E-01 8.98399E-07-2.19083E-02-2.43426E-09-1.52135E-08
 -1      8448-7.61159E-04 1.34093E-01 8.98399E-07-2.19083E-02 2.43425E-09 1.52135E-08
 -1      8449-7.61154E-04 1.34093E-01 8.55656E-07-2.19083E-02 7.37584E-09 4.60664E-08
 -1      8450-7.61160E-04 1.34093E-01 7.71279E-07-2.19083E-02 1.34901E-08 8.41511E-08
 -1      8451-7.61213E-04 1.34093E-01 6.38280E-07-2.19083E-02 2.88100E-08 1.80567E-07
 -1      8452-7.61223E-04 1.34092E-01 4.14919E-07-2.19083E-02 7.72385E-08 4.87427E-07
 -1      8453 9.30892E-03 1.24022E-01 4.14795E-07-4.16721E-02-1.52369E-07-4.69298E-07
 -1      8454 9.30894E-03 1.24022E-01 6.38095E-07-4.16721E-02-5.66085E-08-1.73605E-07
 -1      8455 9.30899E-03 1.24022E-01 7.71122E-07-4.16721E-02-2.63987E-08-8.08260E-08
 -1      8456 9.30900E-03 1.24022E-01 8.55557E-07-4.16721E-02-1.44115E-08-4.42550E-08
 -1      8457 9.30900E-03 1.24022E-01 8.98324E-07-4.16721E-02-4.75372E-09-1.46177E-08
 -1      8458 9.30900E-03 1.24022E-01 8.98324E-07-4.16721E-02 4.75372E-09 1.46177E-08
 -1      8459 9.30900E-03 1.24022E-01 8.55557E-07-4.16721E-02 1.44115E-08 4.42550E-08
 -1      8460 9.30899E-03 1.24022E-01 7.71122E-07-4.16721E-02 2.63987E-08 8.08260E-08
 -1      8461 9.30894E-03 1.24022E-01 6.38095E-07-4.16721E-02 5.66085E-08 1.73605E-07
 -1      8462 9.30892E-03 1.24022E-01 4.14795E-07-4.16721E-02 1.52369E-07 4.69298E-07
 -1      8463 2.49935E-02 1.08338E-01 4.14897E-07-5.73567E-02-2.23642E-07-4.40087E-07
 -1      8464 2.49936E-02 1.08338E-01 6.38124E-07-5.73567E-02-8.26924E-08-1.62741E-07
 -1      8465 2.49936E-02 1.08338E-01 7.71186E-07-5.73567E-02-3.83428E-08-7.57976E-08
 -1      8466 2.49936E-02 1.08338E-01 8.55677E-07-5.73567E-02-2.08672E-08-4.15504E-08
 -1      8467 2.49936E-02 1.08338E-01 8.98453E-07-5.73567E-02-6.87299E-09-1.37323E-08
 -1      8468 2.49936E-02 1.08338E-01 8.98453E-07-5.73567E-02 6.87299E-09 1.37323E-08
 -1      8469 2.49936E-02 1.08338E-01 8.55677E-07-5.73567E-02 2.08672E-08 4.15504E-08
 -1      8470 2.49936E-02 1.08338E-01 7.71186E-07-5.73567E-02 3.83428E-08 7.57976E-08
 -1      8471 2.49936E-02 1.08338E-01 6.38124E-07-5.73567E-02 8.26924E-08 1.62741E-07
 -1      8472 2.49935E-02 1.08338E-01 4.14897E-07-5.73567E-02 2.23642E-07 4.40087E-07
 -1      8473 4.47573E-02 8.85739E-02 4.15466E-07-6.74268E-02-2.90010E-07-4.00657E-07
 -1      8474 4.47573E-02 8.85740E-02 6.39036E-07-6.74269E-02-1.07664E-07-1.48687E-07
 -1      8475 4.47574E-02 8.85741E-02 7.72398E-07-6.74269E-02-5.03365E-08-6.94945E-08
 -1      8476 4.47574E-02 8.85741E-02 8.57070E-07-6.74269E-02-2.75526E-08-3.81592E-08
 -1      8477 4.47574E-02 8.85741E-02 8.99898E-07-6.74269E-02-9.09373E-09-1.26181E-08
 -1      8478 4.47574E-02 8.85741E-02 8.99898E-07-6.74269E-02 9.09372E-09 1.26181E-08
 -1      8479 4.47574E-02 8.85741E-02 8.57070E-07-6.74269E-02 2.75526E-08 3.81592E-08
 -1      8480 4.47574E-02 8.85741E-02 7.72398E-07-6.74269E-02 5.03365E-08 6.94945E-08
 -1      8481 4.47573E-02 8.85740E-02 6.39036E-07-6.74269E-02 1.07664E-07 1.48687E-07
 -1      8482 4.47573E-02 8.85739E-02 4.15466E-07-6.74268E-02 2.90010E-07 4.00657E-07
 -1      8483 6.66656E-02 6.66656E-02 4.15246E-07-7.08968E-02-3.48897E-07-3.50121E-07
 -1      8484 6.66656E-02 6.66657E-02 6.39028E-07-7.08968E-02-1.30023E-07-1.29454E-07
 -1      8485 6.66657E-02 6.66657E-02 7.72441E-07-7.08968E-02-6.13747E-08-5.99371E-08
 -1      8486 6.66657E-02 6.66657E-02 8.57179E-07-7.08968E-02-3.38884E-08-3.26851E-08
 -1      8487 6.66657E-02 6.66657E-02 9.00072E-07-7.08968E-02-1.12301E-08-1.07760E-08
 -1      8488 6.66657E-02 6.66657E-02 9.00072E-07-7.08968E-02 1.12301E-08 1.07760E-08
 -1      8489 6.66657E-02 6.66657E-02 8.57179E-07-7.08968E-02 3.38884E-08 3.26851E-08
 -1      8490 6.66657E-02 6.66657E-02 7.72441E-07-7.08968E-02 6.13747E-08 5.99372E-08
 -1      8491 6.66656E-02 6.66657E-02 6.39028E-07-7.08968E-02 1.30023E-07 1.29454E-07
 -1      8492 6.66656E-02 6.66656E-02 4.15246E-07-7.08968E-02 3.48897E-07 3.50121E-07
 -1      8493 8.85740E-02 4.47573E-02 4.14141E-07-6.74269E-02-3.97757E-07-2.90871E-07
 -1      8494 8.85740E-02 4.47574E-02 6.36634E-07-6.74269E-02-1.45758E-07-1.06614E-07
 -1      8495 8.85741E-02 4.47574E-02 7.68917E-07-6.74269E-02-6.72272E-08-4.88409E-08
 -1      8496 8.85741E-02 4.47574E-02 8.53158E-07-6.74269E-02-3.66947E-08-2.65552E-08
 -1      8497 8.85741E-02 4.47574E-02 8.95928E-07-6.74269E-02-1.21145E-08-8.75441E-09
 -1      8498 8.85741E-02 4.47574E-02 8.95928E-07-6.74269E-02 1.21145E-08 8.75439E-09
 -1      8499 8.85741E-02 4.47574E-02 8.53158E-07-6.74269E-02 3.66947E-08 2.65552E-08
 -1      8500 8.85741E-02 4.47574E-02 7.68917E-07-6.74269E-02 6.72272E-08 4.88409E-08
 -1      8501 8.85740E-02 4.47574E-02 6.36634E-07-6.74269E-02 1.45758E-07 1.06614E-07
 -1      8502 8.85740E-02 4.47573E-02 4.14141E-07-6.74269E-02 3.97757E-07 2.90871E-07
 -1      8503 1.08338E-01 2.49936E-02 4.15501E-07-5.73567E-02-4.39894E-07-2.26833E-07
 -1      8504 1.08338E-01 2.49936E-02 6.38957E-07-5.73567E-02-1.62190E-07-8.52564E-08
 -1      8505 1.08338E-01 2.49936E-02 7.71803E-07-5.73567E-02-7.49570E-08-4.04822E-08
 -1      8506 1.08338E-01 2.49936E-02 8.56248E-07-5.73567E-02-4.08153E-08-2.25176E-08
 -1      8507 1.08338E-01 2.49936E-02 8.99041E-07-5.73568E-02-1.34483E-08-7.49335E-09
 -1      8508 1.08338E-01 2.49936E-02 8.99041E-07-5.73568E-02 1.34484E-08 7.49334E-09
 -1      8509 1.08338E-01 2.49936E-02 8.56248E-07-5.73567E-02 4.08153E-08 2.25176E-08
 -1      8510 1.08338E-01 2.49936E-02 7.71803E-07-5.73567E-02 7.49570E-08 4.04822E-08
 -1      8511 1.08338E-01 2.49936E-02 6.38957E-07-5.73567E-02 1.62190E-07 8.52563E-08
 -1      8512 1.08338E-01 2.49936E-02 4.15501E-07-5.73567E-02 4.39894E-07 2.26833E-07
 -1      8513 1.24022E-01 9.30892E-03 4.17295E-07-4.16721E-02-4.72827E-07-1.55357E-07
 -1      8514 1.24022E-01 9.30894E-03 6.42115E-07-4.16721E-02-1.77560E-07-5.86060E-08
 -1      8515 1.24022E-01 9.30899E-03 7.75744E-07-4.16721E-02-8.39065E-08-2.74124E-08
 -1      8516 1.24022E-01 9.30900E-03 8.60472E-07-4.16721E-02-4.61952E-08-1.49602E-08
 -1      8517 1.24022E-01 9.30900E-03 9.03320E-07-4.16721E-02-1.52777E-08-4.93275E-09
 -1      8518 1.24022E-01 9.30900E-03 9.03320E-07-4.16721E-02 1.52777E-08 4.93272E-09
 -1      8519 1.24022E-01 9.30900E-03 8.60472E-07-4.16721E-02 4.61952E-08 1.49602E-08
 -1      8520 1.24022E-01 9.30899E-03 7.75744E-07-4.16721E-02 8.39065E-08 2.74124E-08
 -1      8521 1.24022E-01 9.30894E-03 6.42115E-07-4.16721E-02 1.77560E-07 5.86060E-08
 -1      8522 1.24022E-01 9.30892E-03 4.17295E-07-4.16721E-02 4.72827E-07 1.55357E-07
 -1      8523 1.34092E-01-7.61236E-04 4.15662E-07-2.19083E-02-4.88864E-07-7.76003E-08
 -1      8524 1.34093E-01-7.61227E-04 6.39463E-07-2.19083E-02-1.81785E-07-2.73750E-08
 -1      8525 1.34093E-01-7.61174E-04 7.71906E-07-2.19083E-02-8.48948E-08-1.09821E-08
 -1      8526 1.34093E-01-7.61167E-04 8.56043E-07-2.19083E-02-4.65466E-08-5.23156E-09
 -1      8527 1.34093E-01-7.61173E-04 8.98784E-07-2.19084E-02-1.53852E-08-1.61570E-09
 -1      8528 1.34093E-01-7.61173E-04 8.98784E-07-2.19084E-02 1.53852E-08 1.61568E-09
 -1      8529 1.34093E-01-7.61167E-04 8.56043E-07-2.19083E-02 4.65466E-08 5.23155E-09
 -1      8530 1.34093E-01-7.61174E-04 7.71906E-07-2.19083E-02 8.48948E-08 1.09821E-08
 -1      8531 1.34093E-01-7.61227E-04 6.39463E-07-2.19083E-02 1.81785E-07 2.73750E-08
 -1      8532 1.34092E-01-7.61236E-04 4.15662E-07-2.19083E-02 4.88864E-07 7.76003E-08
 -1      8533-7.78701E-01 9.12032E-01-3.94942E-07-2.74676E-01-3.98018E-07-2.51299E-06
 -1      8534-8.00401E-01 9.33733E-01 9.97004E-08-1.37330E-01-2.24882E-07-2.85740E-06
 -1      8535-8.65308E-01 9.98650E-01 2.00532E-06-3.02818E-01 5.92490E-08 3.74077E-07
 -1      8540-7.78701E-01 9.12033E-01 4.71604E-07-2.74676E-01-2.65937E-07-1.67906E-06
 -1      8541-8.00401E-01 9.33733E-01 7.99149E-07-1.37330E-01-7.03479E-08-8.93860E-07
 -1      8542-8.65310E-01 9.98650E-01 2.76054E-06-3.02819E-01 2.01226E-09 1.27008E-08
 -1      8547-7.78701E-01 9.12033E-01 1.08175E-06-2.74676E-01-8.89946E-08-5.61890E-07
 -1      8548-8.00401E-01 9.33733E-01 1.18584E-06-1.37330E-01-2.23608E-08-2.84122E-07
 -1      8549-8.65310E-01 9.98650E-01 3.13236E-06-3.02819E-01-1.17684E-08-7.42973E-08
 -1      8554-7.78701E-01 9.12033E-01 1.26874E-06-2.74676E-01-3.20960E-08-2.02646E-07
 -1      8555-8.00401E-01 9.33733E-01 1.26543E-06-1.37330E-01-8.75577E-09-1.11253E-07
 -1      8556-8.65310E-01 9.98650E-01 3.24148E-06-3.02819E-01-1.09541E-08-6.91583E-08
 -1      8561-7.78701E-01 9.12033E-01 1.26995E-06-2.74676E-01-1.18836E-08-7.50304E-08
 -1      8562-8.00401E-01 9.33733E-01 1.25256E-06-1.37330E-01-2.52545E-09-3.20888E-08
 -1      8563-8.65310E-01 9.98650E-01 3.27320E-06-3.02819E-01-4.17506E-09-2.63606E-08
 -1      8568-7.78701E-01 9.12033E-01 1.25710E-06-2.74676E-01-1.04843E-14 3.14796E-14
 -1      8569-8.00401E-01 9.33733E-01 1.25256E-06-1.37330E-01 2.52544E-09 3.20888E-08
 -1      8570-8.65310E-01 9.98650E-01 3.27320E-06-3.02819E-01 4.17504E-09 2.63606E-08
 -1      8575-7.78701E-01 9.12033E-01 1.26995E-06-2.74676E-01 1.18836E-08 7.50304E-08
 -1      8576-8.00401E-01 9.33733E-01 1.26543E-06-1.37330E-01 8.75577E-09 1.11253E-07
 -1      8577-8.65310E-01 9.98650E-01 3.24148E-06-3.02819E-01 1.09541E-08 6.91583E-08
 -1      8582-7.78701E-01 9.12033E-01 1.26874E-06-2.74676E-01 3.20960E-08 2.02646E-07
 -1      8583-8.00401E-01 9.33733E-01 1.18584E-06-1.37330E-01 2.23608E-08 2.84122E-07
 -1      8584-8.65310E-01 9.98650E-01 3.13236E-06-3.02819E-01 1.17684E-08 7.42973E-08
 -1      8589-7.78701E-01 9.12033E-01 1.08175E-06-2.74676E-01 8.89946E-08 5.61890E-07
 -1      8590-8.00401E-01 9.33733E-01 7.99149E-07-1.37330E-01 7.03479E-08 8.93859E-07
 -1      8591-8.65310E-01 9.98650E-01 2.76054E-06-3.02819E-01-2.01228E-09-1.27008E-08
 -1      8596-7.78701E-01 9.12033E-01 4.71604E-07-2.74676E-01 2.65937E-07 1.67906E-06
 -1      8597-8.00401E-01 9.33733E-01 9.97004E-08-1.37330E-01 2.24882E-07 2.85740E-06
 -1      8598-8.65308E-01 9.98650E-01 2.00532E-06-3.02818E-01-5.92490E-08-3.74077E-07
 -1      8603-7.78701E-01 9.12032E-01-3.94942E-07-2.74676E-01 3.98018E-07 2.51299E-06
 -1      8607-6.52446E-01 7.85778E-01-3.94948E-07-5.22465E-01-7.86235E-07-2.41979E-06
 -1      8608-7.15527E-01 8.48858E-01 9.96957E-08-3.98547E-01-6.69110E-07-2.78705E-06
 -1      8609-7.26118E-01 8.59460E-01 2.00533E-06-5.75995E-01 1.17040E-07 3.60212E-07
 -1      8614-6.52446E-01 7.85778E-01 4.71596E-07-5.22465E-01-5.25325E-07-1.61679E-06
 -1      8615-7.15526E-01 8.48859E-01 7.99148E-07-3.98547E-01-2.09312E-07-8.71850E-07
 -1      8616-7.26119E-01 8.59460E-01 2.76055E-06-5.75995E-01 3.97872E-09 1.22304E-08
 -1      8621-6.52446E-01 7.85778E-01 1.08175E-06-5.22465E-01-1.75797E-07-5.41050E-07
 -1      8622-7.15527E-01 8.48859E-01 1.18584E-06-3.98547E-01-6.65314E-08-2.77126E-07
 -1      8623-7.26120E-01 8.59460E-01 3.13236E-06-5.75995E-01-2.32427E-08-7.15414E-08
 -1      8628-6.52446E-01 7.85778E-01 1.26874E-06-5.22466E-01-6.34007E-08-1.95130E-07
 -1      8629-7.15527E-01 8.48859E-01 1.26544E-06-3.98547E-01-2.60514E-08-1.08513E-07
 -1      8630-7.26120E-01 8.59460E-01 3.24149E-06-5.75995E-01-2.16363E-08-6.65932E-08
 -1      8635-6.52446E-01 7.85778E-01 1.26995E-06-5.22466E-01-2.34739E-08-7.22477E-08
 -1      8636-7.15527E-01 8.48859E-01 1.25256E-06-3.98547E-01-7.51404E-09-3.12985E-08
 -1      8637-7.26120E-01 8.59460E-01 3.27320E-06-5.75995E-01-8.24669E-09-2.53831E-08
 -1      8642-6.52446E-01 7.85778E-01 1.25710E-06-5.22466E-01-5.20294E-15-1.01287E-14
 -1      8643-7.15527E-01 8.48859E-01 1.25256E-06-3.98547E-01 7.51402E-09 3.12985E-08
 -1      8644-7.26120E-01 8.59460E-01 3.27320E-06-5.75995E-01 8.24667E-09 2.53830E-08
 -1      8649-6.52446E-01 7.85778E-01 1.26995E-06-5.22466E-01 2.34739E-08 7.22476E-08
 -1      8650-7.15527E-01 8.48859E-01 1.26544E-06-3.98547E-01 2.60514E-08 1.08513E-07
 -1      8651-7.26120E-01 8.59460E-01 3.24149E-06-5.75995E-01 2.16363E-08 6.65932E-08
 -1      8656-6.52446E-01 7.85778E-01 1.26874E-06-5.22466E-01 6.34007E-08 1.95130E-07
 -1      8657-7.15527E-01 8.48859E-01 1.18584E-06-3.98547E-01 6.65314E-08 2.77126E-07
 -1      8658-7.26120E-01 8.59460E-01 3.13236E-06-5.75995E-01 2.32427E-08 7.15414E-08
 -1      8663-6.52446E-01 7.85778E-01 1.08175E-06-5.22465E-01 1.75797E-07 5.41050E-07
 -1      8664-7.15526E-01 8.48859E-01 7.99148E-07-3.98547E-01 2.09312E-07 8.71850E-07
 -1      8665-7.26119E-01 8.59460E-01 2.76055E-06-5.75995E-01-3.97874E-09-1.22304E-08
 -1      8670-6.52446E-01 7.85778E-01 4.71597E-07-5.22465E-01 5.25325E-07 1.61679E-06
 -1      8671-7.15527E-01 8.48858E-01 9.96957E-08-3.98547E-01 6.69110E-07 2.78705E-06
 -1      8672-7.26118E-01 8.59460E-01 2.00533E-06-5.75995E-01-1.17040E-07-3.60212E-07
 -1      8677-6.52446E-01 7.85778E-01-3.94948E-07-5.22465E-01 7.86235E-07 2.41979E-06
 -1      8681-4.55800E-01 5.89131E-01-3.94932E-07-7.19112E-01-1.15509E-06-2.26701E-06
 -1      8682-5.54086E-01 6.87417E-01 9.96988E-08-6.20752E-01-1.09687E-06-2.64806E-06
 -1      8683-5.09324E-01 6.42666E-01 2.00531E-06-7.92789E-01 1.71944E-07 3.37456E-07
 -1      8688-4.55800E-01 5.89131E-01 4.71613E-07-7.19112E-01-7.71781E-07-1.51471E-06
 -1      8689-5.54085E-01 6.87418E-01 7.99151E-07-6.20751E-01-3.43123E-07-8.28374E-07
 -1      8690-5.09325E-01 6.42665E-01 2.76053E-06-7.92789E-01 5.83692E-09 1.14466E-08
 -1      8695-4.55799E-01 5.89132E-01 1.08175E-06-7.19112E-01-2.58275E-07-5.06891E-07
 -1      8696-5.54086E-01 6.87418E-01 1.18585E-06-6.20752E-01-1.09064E-07-2.63308E-07
 -1      8697-5.09325E-01 6.42665E-01 3.13235E-06-7.92790E-01-3.41509E-08-6.70288E-08
 -1      8702-4.55800E-01 5.89132E-01 1.26874E-06-7.19112E-01-9.31484E-08-1.82812E-07
 -1      8703-5.54086E-01 6.87418E-01 1.26544E-06-6.20752E-01-4.27059E-08-1.03103E-07
 -1      8704-5.09326E-01 6.42665E-01 3.24148E-06-7.92790E-01-3.17902E-08-6.23894E-08
 -1      8709-4.55800E-01 5.89131E-01 1.26995E-06-7.19112E-01-3.44887E-08-6.76872E-08
 -1      8710-5.54086E-01 6.87418E-01 1.25256E-06-6.20752E-01-1.23177E-08-2.97382E-08
 -1      8711-5.09326E-01 6.42665E-01 3.27319E-06-7.92790E-01-1.21169E-08-2.37807E-08
 -1      8716-4.55800E-01 5.89131E-01 1.25710E-06-7.19112E-01-2.19272E-14-1.04583E-14
 -1      8717-5.54086E-01 6.87418E-01 1.25256E-06-6.20752E-01 1.23177E-08 2.97382E-08
 -1      8718-5.09326E-01 6.42665E-01 3.27319E-06-7.92790E-01 1.21169E-08 2.37807E-08
 -1      8723-4.55800E-01 5.89131E-01 1.26995E-06-7.19112E-01 3.44887E-08 6.76872E-08
 -1      8724-5.54086E-01 6.87418E-01 1.26544E-06-6.20752E-01 4.27059E-08 1.03103E-07
 -1      8725-5.09326E-01 6.42665E-01 3.24148E-06-7.92790E-01 3.17902E-08 6.23894E-08
 -1      8730-4.55800E-01 5.89132E-01 1.26874E-06-7.19112E-01 9.31484E-08 1.82812E-07
 -1      8731-5.54086E-01 6.87418E-01 1.18585E-06-6.20752E-01 1.09064E-07 2.63308E-07
 -1      8732-5.09325E-01 6.42665E-01 3.13235E-06-7.92790E-01 3.41509E-08 6.70288E-08
 -1      8737-4.55799E-01 5.89132E-01 1.08175E-06-7.19112E-01 2.58275E-07 5.06891E-07
 -1      8738-5.54085E-01 6.87418E-01 7.99151E-07-6.20751E-01 3.43123E-07 8.28374E-07
 -1      8739-5.09325E-01 6.42665E-01 2.76053E-06-7.92789E-01-5.83694E-09-1.14466E-08
 -1      8744-4.55800E-01 5.89131E-01 4.71613E-07-7.19112E-01 7.71781E-07 1.51471E-06
 -1      8745-5.54086E-01 6.87417E-01 9.96988E-08-6.20752E-01 1.09687E-06 2.64806E-06
 -1      8746-5.09324E-01 6.42666E-01 2.00531E-06-7.92789E-01-1.71944E-07-3.37456E-07
 -1      8751-4.55800E-01 5.89131E-01-3.94932E-07-7.19112E-01 1.15509E-06 2.26701E-06
 -1      8755-2.08011E-01 3.41342E-01-3.94951E-07-8.45367E-01-1.49550E-06-2.05841E-06
 -1      8756-3.31881E-01 4.65213E-01 9.97040E-08-7.82193E-01-1.49760E-06-2.44387E-06
 -1      8757-2.36148E-01 3.69489E-01 2.00531E-06-9.31979E-01 2.22624E-07 3.06441E-07
 -1      8762-2.08010E-01 3.41342E-01 4.71584E-07-8.45367E-01-9.99222E-07-1.37533E-06
 -1      8763-3.31881E-01 4.65213E-01 7.99148E-07-7.82192E-01-4.68484E-07-7.64498E-07
 -1      8764-2.36148E-01 3.69489E-01 2.76053E-06-9.31980E-01 7.54966E-09 1.04052E-08
 -1      8769-2.08010E-01 3.41342E-01 1.08173E-06-8.45367E-01-3.34384E-07-4.60244E-07
 -1      8770-3.31881E-01 4.65213E-01 1.18584E-06-7.82193E-01-1.48913E-07-2.43004E-07
 -1      8771-2.36149E-01 3.69489E-01 3.13235E-06-9.31980E-01-4.42141E-08-6.08561E-08
 -1      8776-2.08010E-01 3.41342E-01 1.26873E-06-8.45367E-01-1.20596E-07-1.65986E-07
 -1      8777-3.31881E-01 4.65213E-01 1.26543E-06-7.82193E-01-5.83099E-08-9.51523E-08
 -1      8778-2.36149E-01 3.69489E-01 3.24147E-06-9.31980E-01-4.11586E-08-5.66446E-08
 -1      8783-2.08010E-01 3.41342E-01 1.26994E-06-8.45367E-01-4.46513E-08-6.14567E-08
 -1      8784-3.31881E-01 4.65213E-01 1.25256E-06-7.82193E-01-1.68184E-08-2.74448E-08
 -1      8785-2.36149E-01 3.69489E-01 3.27318E-06-9.31980E-01-1.56883E-08-2.15911E-08
 -1      8790-2.08011E-01 3.41342E-01 1.25709E-06-8.45367E-01-2.25120E-14 2.27103E-14
 -1      8791-3.31881E-01 4.65213E-01 1.25256E-06-7.82193E-01 1.68184E-08 2.74448E-08
 -1      8792-2.36149E-01 3.69489E-01 3.27318E-06-9.31980E-01 1.56883E-08 2.15912E-08
 -1      8797-2.08010E-01 3.41342E-01 1.26994E-06-8.45367E-01 4.46512E-08 6.14567E-08
 -1      8798-3.31881E-01 4.65213E-01 1.26543E-06-7.82193E-01 5.83099E-08 9.51523E-08
 -1      8799-2.36149E-01 3.69489E-01 3.24147E-06-9.31980E-01 4.11586E-08 5.66446E-08
 -1      8804-2.08010E-01 3.41342E-01 1.26873E-06-8.45367E-01 1.20596E-07 1.65986E-07
 -1      8805-3.31881E-01 4.65213E-01 1.18584E-06-7.82193E-01 1.48913E-07 2.43004E-07
 -1      8806-2.36149E-01 3.69489E-01 3.13235E-06-9.31980E-01 4.42141E-08 6.08561E-08
 -1      8811-2.08010E-01 3.41342E-01 1.08173E-06-8.45367E-01 3.34384E-07 4.60244E-07
 -1      8812-3.31881E-01 4.65213E-01 7.99148E-07-7.82192E-01 4.68484E-07 7.64498E-07
 -1      8813-2.36148E-01 3.69489E-01 2.76053E-06-9.31980E-01-7.54965E-09-1.04052E-08
 -1      8818-2.08010E-01 3.41342E-01 4.71584E-07-8.45367E-01 9.99222E-07 1.37533E-06
 -1      8819-3.31881E-01 4.65213E-01 9.97040E-08-7.82193E-01 1.49760E-06 2.44387E-06
 -1      8820-2.36148E-01 3.69489E-01 2.00531E-06-9.31979E-01-2.22624E-07-3.06441E-07
 -1      8825-2.08011E-01 3.41342E-01-3.94951E-07-8.45367E-01 1.49550E-06 2.05841E-06
 -1      8829 6.66657E-02 6.66657E-02-3.94931E-07-8.88871E-01-1.79914E-06-1.79916E-06
 -1      8830-7.06642E-02 2.03996E-01 9.96710E-08-8.67067E-01-1.86149E-06-2.17952E-06
 -1      8831 6.66709E-02 6.66709E-02 2.00532E-06-9.79941E-01 2.67888E-07 2.67832E-07
 -1      8836 6.66659E-02 6.66659E-02 4.71622E-07-8.88871E-01-1.20211E-06-1.20211E-06
 -1      8837-7.06638E-02 2.03996E-01 7.99165E-07-8.67067E-01-5.82311E-07-6.81802E-07
 -1      8838 6.66701E-02 6.66701E-02 2.76045E-06-9.79942E-01 9.08398E-09 9.09817E-09
 -1      8843 6.66661E-02 6.66661E-02 1.08176E-06-8.88871E-01-4.02278E-07-4.02280E-07
 -1      8844-7.06640E-02 2.03996E-01 1.18587E-06-8.67067E-01-1.85091E-07-2.16718E-07
 -1      8845 6.66699E-02 6.66699E-02 3.13231E-06-9.79942E-01-5.31923E-08-5.32044E-08
 -1      8850 6.66660E-02 6.66660E-02 1.26877E-06-8.88871E-01-1.45082E-07-1.45081E-07
 -1      8851-7.06640E-02 2.03996E-01 1.26547E-06-8.67067E-01-7.24755E-08-8.48602E-08
 -1      8852 6.66698E-02 6.66699E-02 3.24144E-06-9.79942E-01-4.95117E-08-4.95160E-08
 -1      8857 6.66659E-02 6.66659E-02 1.26999E-06-8.88871E-01-5.37187E-08-5.37170E-08
 -1      8858-7.06641E-02 2.03996E-01 1.25259E-06-8.67067E-01-2.09041E-08-2.44763E-08
 -1      8859 6.66698E-02 6.66698E-02 3.27315E-06-9.79942E-01-1.88728E-08-1.88732E-08
 -1      8864 6.66659E-02 6.66659E-02 1.25714E-06-8.88871E-01 3.82311E-15-9.82898E-15
 -1      8865-7.06641E-02 2.03996E-01 1.25259E-06-8.67067E-01 2.09041E-08 2.44764E-08
 -1      8866 6.66698E-02 6.66698E-02 3.27315E-06-9.79942E-01 1.88728E-08 1.88732E-08
 -1      8871 6.66659E-02 6.66659E-02 1.26999E-06-8.88871E-01 5.37187E-08 5.37170E-08
 -1      8872-7.06640E-02 2.03996E-01 1.26547E-06-8.67067E-01 7.24755E-08 8.48602E-08
 -1      8873 6.66698E-02 6.66699E-02 3.24144E-06-9.79942E-01 4.95117E-08 4.95160E-08
 -1      8878 6.66660E-02 6.66660E-02 1.26877E-06-8.88871E-01 1.45082E-07 1.45081E-07
 -1      8879-7.06640E-02 2.03996E-01 1.18587E-06-8.67067E-01 1.85091E-07 2.16718E-07
 -1      8880 6.66699E-02 6.66699E-02 3.13231E-06-9.79942E-01 5.31923E-08 5.32044E-08
 -1      8885 6.66661E-02 6.66661E-02 1.08176E-06-8.88871E-01 4.02278E-07 4.02280E-07
 -1      8886-7.06638E-02 2.03996E-01 7.99165E-07-8.67067E-01 5.82311E-07 6.81802E-07
 -1      8887 6.66701E-02 6.66701E-02 2.76045E-06-9.79942E-01-9.08399E-09-9.09816E-09
 -1      8892 6.66659E-02 6.66659E-02 4.71622E-07-8.88871E-01 1.20211E-06 1.20211E-06
 -1      8893-7.06642E-02 2.03996E-01 9.96710E-08-8.67067E-01 1.86149E-06 2.17952E-06
 -1      8894 6.66709E-02 6.66709E-02 2.00532E-06-9.79941E-01-2.67888E-07-2.67832E-07
 -1      8899 6.66657E-02 6.66657E-02-3.94931E-07-8.88871E-01 1.79914E-06 1.79916E-06
 -1      8903 3.41342E-01-2.08011E-01-3.94758E-07-8.45367E-01-2.05827E-06-1.49539E-06
 -1      8904 2.03996E-01-7.06642E-02 9.97932E-08-8.67067E-01-2.17943E-06-1.86141E-06
 -1      8905 3.69489E-01-2.36148E-01 2.00475E-06-9.31979E-01 3.06479E-07 2.22689E-07
 -1      8910 3.41342E-01-2.08010E-01 4.71791E-07-8.45367E-01-1.37520E-06-9.99227E-07
 -1      8911 2.03996E-01-7.06638E-02 7.99127E-07-8.67067E-01-6.81794E-07-5.82282E-07
 -1      8912 3.69489E-01-2.36148E-01 2.76016E-06-9.31980E-01 1.02893E-08 7.71101E-09
 -1      8917 3.41342E-01-2.08010E-01 1.08177E-06-8.45367E-01-4.60209E-07-3.34394E-07
 -1      8918 2.03996E-01-7.06639E-02 1.18584E-06-8.67067E-01-2.16720E-07-1.85078E-07
 -1      8919 3.69489E-01-2.36149E-01 3.13200E-06-9.31980E-01-6.09260E-08-4.40793E-08
 -1      8924 3.41342E-01-2.08010E-01 1.26870E-06-8.45367E-01-1.65968E-07-1.20583E-07
 -1      8925 2.03996E-01-7.06640E-02 1.26544E-06-8.67067E-01-8.48597E-08-7.24638E-08
 -1      8926 3.69489E-01-2.36149E-01 3.24115E-06-9.31980E-01-5.66736E-08-4.10746E-08
 -1      8931 3.41342E-01-2.08010E-01 1.26991E-06-8.45367E-01-6.14450E-08-4.46366E-08
 -1      8932 2.03996E-01-7.06641E-02 1.25257E-06-8.67067E-01-2.44760E-08-2.08996E-08
 -1      8933 3.69489E-01-2.36149E-01 3.27286E-06-9.31980E-01-2.15984E-08-1.56608E-08
 -1      8938 3.41342E-01-2.08011E-01 1.25706E-06-8.45367E-01-3.99436E-14 1.70907E-14
 -1      8939 2.03996E-01-7.06641E-02 1.25257E-06-8.67067E-01 2.44760E-08 2.08996E-08
 -1      8940 3.69489E-01-2.36149E-01 3.27286E-06-9.31980E-01 2.15983E-08 1.56608E-08
 -1      8945 3.41342E-01-2.08010E-01 1.26991E-06-8.45367E-01 6.14450E-08 4.46367E-08
 -1      8946 2.03996E-01-7.06640E-02 1.26544E-06-8.67067E-01 8.48596E-08 7.24638E-08
 -1      8947 3.69489E-01-2.36149E-01 3.24115E-06-9.31980E-01 5.66735E-08 4.10746E-08
 -1      8952 3.41342E-01-2.08010E-01 1.26870E-06-8.45367E-01 1.65968E-07 1.20583E-07
 -1      8953 2.03996E-01-7.06639E-02 1.18584E-06-8.67067E-01 2.16720E-07 1.85078E-07
 -1      8954 3.69489E-01-2.36149E-01 3.13200E-06-9.31980E-01 6.09259E-08 4.40793E-08
 -1      8959 3.41342E-01-2.08010E-01 1.08177E-06-8.45367E-01 4.60209E-07 3.34394E-07
 -1      8960 2.03996E-01-7.06638E-02 7.99127E-07-8.67067E-01 6.81794E-07 5.82282E-07
 -1      8961 3.69489E-01-2.36148E-01 2.76016E-06-9.31980E-01-1.02892E-08-7.71099E-09
 -1      8966 3.41342E-01-2.08010E-01 4.71791E-07-8.45367E-01 1.37520E-06 9.99227E-07
 -1      8967 2.03996E-01-7.06642E-02 9.97932E-08-8.67067E-01 2.17943E-06 1.86141E-06
 -1      8968 3.69489E-01-2.36148E-01 2.00475E-06-9.31979E-01-3.06479E-07-2.22689E-07
 -1      8973 3.41342E-01-2.08011E-01-3.94758E-07-8.45367E-01 2.05827E-06 1.49539E-06
 -1      8977 5.89131E-01-4.55800E-01-3.96339E-07-7.19112E-01-2.26763E-06-1.15544E-06
 -1      8978 4.65213E-01-3.31881E-01 9.91479E-08-7.82193E-01-2.44414E-06-1.49810E-06
 -1      8979 6.42666E-01-5.09324E-01 2.00817E-06-7.92789E-01 3.38843E-07 1.72500E-07
 -1      8984 5.89131E-01-4.55800E-01 4.69977E-07-7.19112E-01-1.51500E-06-7.71864E-07
 -1      8985 4.65213E-01-3.31881E-01 7.99115E-07-7.82192E-01-7.64423E-07-4.68582E-07
 -1      8986 6.42665E-01-5.09325E-01 2.76295E-06-7.92789E-01 1.22321E-08 6.02486E-09
 -1      8991 5.89132E-01-4.55799E-01 1.08133E-06-7.19112E-01-5.06754E-07-2.58177E-07
 -1      8992 4.65213E-01-3.31881E-01 1.18608E-06-7.82193E-01-2.42874E-07-1.48881E-07
 -1      8993 6.42665E-01-5.09325E-01 3.13459E-06-7.92790E-01-6.67034E-08-3.41386E-08
 -1      8998 5.89132E-01-4.55800E-01 1.26885E-06-7.19112E-01-1.82649E-07-9.30635E-08
 -1      8999 4.65213E-01-3.31881E-01 1.26580E-06-7.82193E-01-9.50715E-08-5.82727E-08
 -1      9000 6.42665E-01-5.09326E-01 3.24362E-06-7.92790E-01-6.22349E-08-3.17946E-08
 -1      9005 5.89131E-01-4.55800E-01 1.27023E-06-7.19112E-01-6.76040E-08-3.44508E-08
 -1      9006 4.65213E-01-3.31881E-01 1.25298E-06-7.82193E-01-2.74180E-08-1.68045E-08
 -1      9007 6.42665E-01-5.09326E-01 3.27528E-06-7.92790E-01-2.37369E-08-1.21209E-08
 -1      9012 5.89131E-01-4.55800E-01 1.25742E-06-7.19112E-01 2.48661E-14 1.19020E-14
 -1      9013 4.65213E-01-3.31881E-01 1.25298E-06-7.82193E-01 2.74180E-08 1.68045E-08
 -1      9014 6.42665E-01-5.09326E-01 3.27528E-06-7.92790E-01 2.37369E-08 1.21209E-08
 -1      9019 5.89131E-01-4.55800E-01 1.27023E-06-7.19112E-01 6.76040E-08 3.44509E-08
 -1      9020 4.65213E-01-3.31881E-01 1.26580E-06-7.82193E-01 9.50715E-08 5.82728E-08
 -1      9021 6.42665E-01-5.09326E-01 3.24362E-06-7.92790E-01 6.22349E-08 3.17946E-08
 -1      9026 5.89132E-01-4.55800E-01 1.26885E-06-7.19112E-01 1.82649E-07 9.30635E-08
 -1      9027 4.65213E-01-3.31881E-01 1.18608E-06-7.82193E-01 2.42874E-07 1.48881E-07
 -1      9028 6.42665E-01-5.09325E-01 3.13459E-06-7.92790E-01 6.67034E-08 3.41386E-08
 -1      9033 5.89132E-01-4.55799E-01 1.08133E-06-7.19112E-01 5.06754E-07 2.58177E-07
 -1      9034 4.65213E-01-3.31881E-01 7.99115E-07-7.82192E-01 7.64423E-07 4.68582E-07
 -1      9035 6.42665E-01-5.09325E-01 2.76295E-06-7.92789E-01-1.22321E-08-6.02482E-09
 -1      9040 5.89131E-01-4.55800E-01 4.69977E-07-7.19112E-01 1.51500E-06 7.71864E-07
 -1      9041 4.65213E-01-3.31881E-01 9.91479E-08-7.82193E-01 2.44414E-06 1.49810E-06
 -1      9042 6.42666E-01-5.09324E-01 2.00817E-06-7.92789E-01-3.38843E-07-1.72500E-07
 -1      9047 5.89131E-01-4.55800E-01-3.96339E-07-7.19112E-01 2.26763E-06 1.15544E-06
 -1      9051 7.85778E-01-6.52446E-01-3.93542E-07-5.22465E-01-2.41908E-06-7.86024E-07
 -1      9052 6.87417E-01-5.54086E-01 9.96986E-08-6.20752E-01-2.64823E-06-1.09647E-06
 -1      9053 8.59460E-01-7.26118E-01 2.00247E-06-5.75995E-01 3.58825E-07 1.16452E-07
 -1      9058 7.85778E-01-6.52446E-01 4.73238E-07-5.22465E-01-1.61651E-06-5.25173E-07
 -1      9059 6.87418E-01-5.54085E-01 7.99146E-07-6.20751E-01-8.28446E-07-3.42940E-07
 -1      9060 8.59460E-01-7.26119E-01 2.75814E-06-5.75995E-01 1.15642E-08 3.56496E-09
 -1      9065 7.85778E-01-6.52446E-01 1.08217E-06-5.22465E-01-5.41211E-07-1.75826E-07
 -1      9066 6.87418E-01-5.54086E-01 1.18584E-06-6.20752E-01-2.63328E-07-1.09007E-07
 -1      9067 8.59460E-01-7.26120E-01 3.13013E-06-5.75995E-01-7.17796E-08-2.34624E-08
 -1      9072 7.85778E-01-6.52446E-01 1.26863E-06-5.22466E-01-1.95299E-07-6.34567E-08
 -1      9073 6.87418E-01-5.54086E-01 1.26543E-06-6.20752E-01-1.03105E-07-4.26976E-08
 -1      9074 8.59460E-01-7.26120E-01 3.23936E-06-5.75995E-01-6.66959E-08-2.17503E-08
 -1      9079 7.85778E-01-6.52446E-01 1.26967E-06-5.22466E-01-7.23301E-08-2.35066E-08
 -1      9080 6.87418E-01-5.54086E-01 1.25256E-06-6.20752E-01-2.97373E-08-1.23179E-08
 -1      9081 8.59460E-01-7.26120E-01 3.27113E-06-5.75995E-01-2.54100E-08-8.28115E-09
 -1      9086 7.85778E-01-6.52446E-01 1.25678E-06-5.22466E-01-1.03681E-15-5.75904E-15
 -1      9087 6.87418E-01-5.54086E-01 1.25256E-06-6.20752E-01 2.97373E-08 1.23179E-08
 -1      9088 8.59460E-01-7.26120E-01 3.27113E-06-5.75995E-01 2.54100E-08 8.28116E-09
 -1      9093 7.85778E-01-6.52446E-01 1.26967E-06-5.22466E-01 7.23300E-08 2.35066E-08
 -1      9094 6.87418E-01-5.54086E-01 1.26543E-06-6.20752E-01 1.03104E-07 4.26976E-08
 -1      9095 8.59460E-01-7.26120E-01 3.23936E-06-5.75995E-01 6.66959E-08 2.17503E-08
 -1      9100 7.85778E-01-6.52446E-01 1.26863E-06-5.22466E-01 1.95299E-07 6.34567E-08
 -1      9101 6.87418E-01-5.54086E-01 1.18584E-06-6.20752E-01 2.63328E-07 1.09007E-07
 -1      9102 8.59460E-01-7.26120E-01 3.13013E-06-5.75995E-01 7.17796E-08 2.34625E-08
 -1      9107 7.85778E-01-6.52446E-01 1.08217E-06-5.22465E-01 5.41211E-07 1.75826E-07
 -1      9108 6.87418E-01-5.54085E-01 7.99146E-07-6.20751E-01 8.28446E-07 3.42940E-07
 -1      9109 8.59460E-01-7.26119E-01 2.75814E-06-5.75995E-01-1.15642E-08-3.56496E-09
 -1      9114 7.85778E-01-6.52446E-01 4.73238E-07-5.22465E-01 1.61651E-06 5.25173E-07
 -1      9115 6.87417E-01-5.54086E-01 9.96986E-08-6.20752E-01 2.64823E-06 1.09647E-06
 -1      9116 8.59460E-01-7.26118E-01 2.00247E-06-5.75995E-01-3.58825E-07-1.16452E-07
 -1      9121 7.85778E-01-6.52446E-01-3.93542E-07-5.22465E-01 2.41908E-06 7.86024E-07
 -1      9125 9.12032E-01-7.78701E-01-3.95123E-07-2.74676E-01-2.51315E-06-3.98002E-07
 -1      9126 8.48858E-01-7.15527E-01 1.00242E-07-3.98547E-01-2.78652E-06-6.69271E-07
 -1      9127 9.98650E-01-8.65308E-01 2.00592E-06-3.02818E-01 3.73959E-07 5.92298E-08
 -1      9132 9.12033E-01-7.78701E-01 4.71431E-07-2.74676E-01-1.67915E-06-2.66013E-07
 -1      9133 8.48859E-01-7.15526E-01 7.99183E-07-3.98547E-01-8.71830E-07-2.09434E-07
 -1      9134 9.98650E-01-8.65310E-01 2.76094E-06-3.02819E-01 1.26933E-08 2.19314E-09
 -1      9139 9.12033E-01-7.78701E-01 1.08175E-06-2.74676E-01-5.61912E-07-8.90216E-08
 -1      9140 8.48859E-01-7.15527E-01 1.18561E-06-3.98547E-01-2.77236E-07-6.66005E-08
 -1      9141 9.98650E-01-8.65310E-01 3.13273E-06-3.02819E-01-7.43475E-08-1.16231E-08
 -1      9146 9.12033E-01-7.78701E-01 1.26879E-06-2.74676E-01-2.02669E-07-3.20998E-08
 -1      9147 8.48859E-01-7.15527E-01 1.26507E-06-3.98547E-01-1.08595E-07-2.60827E-08
 -1      9148 9.98650E-01-8.65310E-01 3.24185E-06-3.02819E-01-6.91972E-08-1.08803E-08
 -1      9153 9.12033E-01-7.78701E-01 1.27000E-06-2.74676E-01-7.50495E-08-1.18824E-08
 -1      9154 8.48859E-01-7.15527E-01 1.25215E-06-3.98547E-01-3.13267E-08-7.52332E-09
 -1      9155 9.98650E-01-8.65310E-01 3.27356E-06-3.02819E-01-2.63747E-08-4.15310E-09
 -1      9160 9.12033E-01-7.78701E-01 1.25714E-06-2.74676E-01-1.35034E-14-5.57775E-15
 -1      9161 8.48859E-01-7.15527E-01 1.25215E-06-3.98547E-01 3.13267E-08 7.52332E-09
 -1      9162 9.98650E-01-8.65310E-01 3.27356E-06-3.02819E-01 2.63747E-08 4.15309E-09
 -1      9167 9.12033E-01-7.78701E-01 1.27000E-06-2.74676E-01 7.50495E-08 1.18824E-08
 -1      9168 8.48859E-01-7.15527E-01 1.26507E-06-3.98547E-01 1.08595E-07 2.60827E-08
 -1      9169 9.98650E-01-8.65310E-01 3.24185E-06-3.02819E-01 6.91972E-08 1.08803E-08
 -1      9174 9.12033E-01-7.78701E-01 1.26879E-06-2.74676E-01 2.02669E-07 3.20998E-08
 -1      9175 8.48859E-01-7.15527E-01 1.18561E-06-3.98547E-01 2.77236E-07 6.66005E-08
 -1      9176 9.98650E-01-8.65310E-01 3.13273E-06-3.02819E-01 7.43475E-08 1.16230E-08
 -1      9181 9.12033E-01-7.78701E-01 1.08175E-06-2.74676E-01 5.61912E-07 8.90216E-08
 -1      9182 8.48859E-01-7.15526E-01 7.99183E-07-3.98547E-01 8.71830E-07 2.09434E-07
 -1      9183 9.98650E-01-8.65310E-01 2.76094E-06-3.02819E-01-1.26933E-08-2.19313E-09
 -1      9188 9.12033E-01-7.78701E-01 4.71431E-07-2.74676E-01 1.67915E-06 2.66013E-07
 -1      9189 8.48858E-01-7.15527E-01 1.00242E-07-3.98547E-01 2.78652E-06 6.69271E-07
 -1      9190 9.98650E-01-8.65308E-01 2.00592E-06-3.02818E-01-3.73959E-07-5.92298E-08
 -1      9195 9.12032E-01-7.78701E-01-3.95123E-07-2.74676E-01 2.51315E-06 3.98002E-07
 -1      9199 9.33733E-01-8.00401E-01 9.96310E-08-1.37330E-01-2.85748E-06-2.24889E-07
 -1      9203 9.33733E-01-8.00401E-01 7.99153E-07-1.37330E-01-8.93878E-07-7.03284E-08
 -1      9207 9.33733E-01-8.00401E-01 1.18582E-06-1.37330E-01-2.84129E-07-2.23444E-08
 -1      9211 9.33733E-01-8.00401E-01 1.26540E-06-1.37330E-01-1.11260E-07-8.74521E-09
 -1      9215 9.33733E-01-8.00401E-01 1.25252E-06-1.37330E-01-3.20917E-08-2.52163E-09
 -1      9219 9.33733E-01-8.00401E-01 1.25252E-06-1.37330E-01 3.20917E-08 2.52162E-09
 -1      9223 9.33733E-01-8.00401E-01 1.26540E-06-1.37330E-01 1.11260E-07 8.74521E-09
 -1      9227 9.33733E-01-8.00401E-01 1.18582E-06-1.37330E-01 2.84129E-07 2.23444E-08
 -1      9231 9.33733E-01-8.00401E-01 7.99153E-07-1.37330E-01 8.93878E-07 7.03284E-08
 -1      9235 9.33733E-01-8.00401E-01 9.96310E-08-1.37330E-01 2.85748E-06 2.24889E-07
 -1      9241-6.43923E-01 7.77259E-01 1.54163E-06-2.30885E-01 2.06672E-07 1.30488E-06
 -1      9242-6.62358E-01 7.95696E-01 2.55871E-06-1.15467E-01 1.59388E-07 2.02522E-06
 -1      9243-7.11335E-01 8.44648E-01-2.22835E-06-2.52785E-01-6.68123E-08-4.21840E-07
 -1      9248-6.43922E-01 7.77259E-01 2.91482E-06-2.30885E-01 2.07651E-07 1.31106E-06
 -1      9249-6.62359E-01 7.95696E-01 2.98367E-06-1.15467E-01 7.09867E-08 9.01970E-07
 -1      9250-7.11334E-01 8.44648E-01-3.24928E-06-2.52785E-01-1.94863E-08-1.23033E-07
 -1      9255-6.43923E-01 7.77259E-01 3.10058E-06-2.30885E-01 9.70001E-08 6.12432E-07
 -1      9256-6.62359E-01 7.95696E-01 2.97072E-06-1.15467E-01 2.68092E-08 3.40641E-07
 -1      9257-7.11334E-01 8.44648E-01-3.85074E-06-2.52785E-01-6.20978E-09-3.92084E-08
 -1      9262-6.43923E-01 7.77259E-01 2.92826E-06-2.30885E-01 3.79922E-08 2.39871E-07
 -1      9263-6.62359E-01 7.95696E-01 2.86501E-06-1.15467E-01 1.08537E-08 1.37908E-07
 -1      9264-7.11334E-01 8.44648E-01-4.08295E-06-2.52785E-01-4.45748E-10-2.81546E-09
 -1      9269-6.43923E-01 7.77259E-01 2.83707E-06-2.30885E-01 1.41517E-08 8.93495E-08
 -1      9270-6.62359E-01 7.95696E-01 2.81657E-06-1.15467E-01 3.07296E-09 3.90452E-08
 -1      9271-7.11334E-01 8.44648E-01-4.15370E-06-2.52785E-01 3.46694E-10 2.18862E-09
 -1      9276-6.43923E-01 7.77259E-01 2.81377E-06-2.30885E-01 9.92721E-16-6.06794E-15
 -1      9277-6.62359E-01 7.95696E-01 2.81657E-06-1.15467E-01-3.07295E-09-3.90452E-08
 -1      9278-7.11334E-01 8.44648E-01-4.15370E-06-2.52785E-01-3.46697E-10-2.18858E-09
 -1      9283-6.43923E-01 7.77259E-01 2.83707E-06-2.30885E-01-1.41517E-08-8.93495E-08
 -1      9284-6.62359E-01 7.95696E-01 2.86501E-06-1.15467E-01-1.08537E-08-1.37908E-07
 -1      9285-7.11334E-01 8.44648E-01-4.08295E-06-2.52785E-01 4.45747E-10 2.81550E-09
 -1      9290-6.43923E-01 7.77259E-01 2.92826E-06-2.30885E-01-3.79922E-08-2.39871E-07
 -1      9291-6.62359E-01 7.95696E-01 2.97072E-06-1.15467E-01-2.68092E-08-3.40641E-07
 -1      9292-7.11334E-01 8.44648E-01-3.85074E-06-2.52785E-01 6.20978E-09 3.92084E-08
 -1      9297-6.43923E-01 7.77259E-01 3.10058E-06-2.30885E-01-9.70001E-08-6.12432E-07
 -1      9298-6.62359E-01 7.95696E-01 2.98367E-06-1.15467E-01-7.09867E-08-9.01970E-07
 -1      9299-7.11334E-01 8.44648E-01-3.24928E-06-2.52785E-01 1.94863E-08 1.23033E-07
 -1      9304-6.43922E-01 7.77259E-01 2.91482E-06-2.30885E-01-2.07651E-07-1.31106E-06
 -1      9305-6.62358E-01 7.95696E-01 2.55871E-06-1.15467E-01-1.59388E-07-2.02522E-06
 -1      9306-7.11335E-01 8.44648E-01-2.22835E-06-2.52785E-01 6.68123E-08 4.21840E-07
 -1      9311-6.43923E-01 7.77259E-01 1.54163E-06-2.30885E-01-2.06672E-07-1.30488E-06
 -1      9315-5.37796E-01 6.71133E-01 1.54163E-06-4.39169E-01 4.08256E-07 1.25648E-06
 -1      9316-5.90996E-01 7.24334E-01 2.55871E-06-3.35097E-01 4.74240E-07 1.97535E-06
 -1      9317-5.95142E-01 7.28456E-01-2.22835E-06-4.80825E-01-1.31981E-07-4.06196E-07
 -1      9322-5.37796E-01 6.71133E-01 2.91482E-06-4.39169E-01 4.10188E-07 1.26243E-06
 -1      9323-5.90997E-01 7.24333E-01 2.98367E-06-3.35097E-01 2.11212E-07 8.79761E-07
 -1      9324-5.95142E-01 7.28456E-01-3.24928E-06-4.80825E-01-3.84931E-08-1.18471E-07
 -1      9329-5.37796E-01 6.71133E-01 3.10057E-06-4.39169E-01 1.91611E-07 5.89718E-07
 -1      9330-5.90997E-01 7.24333E-01 2.97072E-06-3.35097E-01 7.97670E-08 3.32253E-07
 -1      9331-5.95142E-01 7.28455E-01-3.85074E-06-4.80825E-01-1.22667E-08-3.77548E-08
 -1      9336-5.37796E-01 6.71133E-01 2.92826E-06-4.39169E-01 7.50484E-08 2.30974E-07
 -1      9337-5.90997E-01 7.24333E-01 2.86501E-06-3.35097E-01 3.22937E-08 1.34512E-07
 -1      9338-5.95142E-01 7.28455E-01-4.08294E-06-4.80825E-01-8.80433E-10-2.71138E-09
 -1      9343-5.37796E-01 6.71133E-01 2.83707E-06-4.39169E-01 2.79547E-08 8.60353E-08
 -1      9344-5.90997E-01 7.24333E-01 2.81657E-06-3.35097E-01 9.14313E-09 3.80836E-08
 -1      9345-5.95142E-01 7.28455E-01-4.15370E-06-4.80825E-01 6.84897E-10 2.10729E-09
 -1      9350-5.37796E-01 6.71133E-01 2.81377E-06-4.39169E-01-7.23791E-15 4.49648E-15
 -1      9351-5.90997E-01 7.24333E-01 2.81657E-06-3.35097E-01-9.14315E-09-3.80836E-08
 -1      9352-5.95142E-01 7.28455E-01-4.15370E-06-4.80825E-01-6.84910E-10-2.10731E-09
 -1      9357-5.37796E-01 6.71133E-01 2.83707E-06-4.39169E-01-2.79547E-08-8.60353E-08
 -1      9358-5.90997E-01 7.24333E-01 2.86501E-06-3.35097E-01-3.22937E-08-1.34512E-07
 -1      9359-5.95142E-01 7.28455E-01-4.08294E-06-4.80825E-01 8.80421E-10 2.71140E-09
 -1      9364-5.37796E-01 6.71133E-01 2.92826E-06-4.39169E-01-7.50484E-08-2.30974E-07
 -1      9365-5.90997E-01 7.24333E-01 2.97072E-06-3.35097E-01-7.97671E-08-3.32253E-07
 -1      9366-5.95142E-01 7.28455E-01-3.85074E-06-4.80825E-01 1.22666E-08 3.77548E-08
 -1      9371-5.37796E-01 6.71133E-01 3.10057E-06-4.39169E-01-1.91611E-07-5.89718E-07
 -1      9372-5.90997E-01 7.24333E-01 2.98367E-06-3.35097E-01-2.11212E-07-8.79761E-07
 -1      9373-5.95142E-01 7.28456E-01-3.24928E-06-4.80825E-01 3.84931E-08 1.18471E-07
 -1      9378-5.37796E-01 6.71133E-01 2.91482E-06-4.39169E-01-4.10188E-07-1.26243E-06
 -1      9379-5.90996E-01 7.24334E-01 2.55871E-06-3.35097E-01-4.74240E-07-1.97535E-06
 -1      9380-5.95142E-01 7.28456E-01-2.22835E-06-4.80825E-01 1.31981E-07 4.06196E-07
 -1      9385-5.37796E-01 6.71133E-01 1.54163E-06-4.39169E-01-4.08256E-07-1.25648E-06
 -1      9389-3.72501E-01 5.05837E-01 1.54163E-06-6.04465E-01 5.99787E-07 1.17715E-06
 -1      9390-4.55257E-01 5.88594E-01 2.55871E-06-5.21926E-01 7.77412E-07 1.87684E-06
 -1      9391-4.14169E-01 5.47482E-01-2.22835E-06-6.61799E-01-1.93899E-07-3.80547E-07
 -1      9396-3.72501E-01 5.05838E-01 2.91482E-06-6.04465E-01 6.02625E-07 1.18272E-06
 -1      9397-4.55258E-01 5.88594E-01 2.98367E-06-5.21926E-01 3.46236E-07 8.35888E-07
 -1      9398-4.14168E-01 5.47482E-01-3.24928E-06-6.61799E-01-5.65529E-08-1.10990E-07
 -1      9403-3.72501E-01 5.05838E-01 3.10058E-06-6.04465E-01 2.81504E-07 5.52483E-07
 -1      9404-4.55258E-01 5.88594E-01 2.97072E-06-5.21926E-01 1.30761E-07 3.15684E-07
 -1      9405-4.14168E-01 5.47482E-01-3.85074E-06-6.61799E-01-1.80230E-08-3.53709E-08
 -1      9410-3.72501E-01 5.05838E-01 2.92826E-06-6.04465E-01 1.10257E-07 2.16391E-07
 -1      9411-4.55258E-01 5.88594E-01 2.86501E-06-5.21926E-01 5.29382E-08 1.27804E-07
 -1      9412-4.14168E-01 5.47482E-01-4.08294E-06-6.61799E-01-1.29457E-09-2.54049E-09
 -1      9417-3.72501E-01 5.05838E-01 2.83707E-06-6.04465E-01 4.10695E-08 8.06033E-08
 -1      9418-4.55258E-01 5.88594E-01 2.81657E-06-5.21926E-01 1.49881E-08 3.61844E-08
 -1      9419-4.14168E-01 5.47482E-01-4.15370E-06-6.61799E-01 1.00581E-09 1.97408E-09
 -1      9424-3.72501E-01 5.05838E-01 2.81378E-06-6.04465E-01-2.15551E-14 2.20520E-15
 -1      9425-4.55258E-01 5.88594E-01 2.81657E-06-5.21926E-01-1.49881E-08-3.61844E-08
 -1      9426-4.14168E-01 5.47482E-01-4.15370E-06-6.61799E-01-1.00585E-09-1.97407E-09
 -1      9431-3.72501E-01 5.05838E-01 2.83707E-06-6.04465E-01-4.10696E-08-8.06033E-08
 -1      9432-4.55258E-01 5.88594E-01 2.86501E-06-5.21926E-01-5.29382E-08-1.27804E-07
 -1      9433-4.14168E-01 5.47482E-01-4.08294E-06-6.61799E-01 1.29456E-09 2.54047E-09
 -1      9438-3.72501E-01 5.05838E-01 2.92826E-06-6.04465E-01-1.10257E-07-2.16391E-07
 -1      9439-4.55258E-01 5.88594E-01 2.97072E-06-5.21926E-01-1.30761E-07-3.15684E-07
 -1      9440-4.14168E-01 5.47482E-01-3.85074E-06-6.61799E-01 1.80230E-08 3.53709E-08
 -1      9445-3.72501E-01 5.05838E-01 3.10058E-06-6.04465E-01-2.81504E-07-5.52483E-07
 -1      9446-4.55258E-01 5.88594E-01 2.98367E-06-5.21926E-01-3.46236E-07-8.35888E-07
 -1      9447-4.14168E-01 5.47482E-01-3.24928E-06-6.61799E-01 5.65528E-08 1.10990E-07
 -1      9452-3.72501E-01 5.05838E-01 2.91482E-06-6.04465E-01-6.02625E-07-1.18272E-06
 -1      9453-4.55257E-01 5.88594E-01 2.55871E-06-5.21926E-01-7.77412E-07-1.87684E-06
 -1      9454-4.14169E-01 5.47482E-01-2.22835E-06-6.61799E-01 1.93899E-07 3.80547E-07
 -1      9459-3.72501E-01 5.05837E-01 1.54163E-06-6.04465E-01-5.99787E-07-1.17715E-06
 -1      9463-1.64217E-01 2.97553E-01 1.54162E-06-7.10591E-01 7.76551E-07 1.06884E-06
 -1      9464-2.68428E-01 4.01766E-01 2.55870E-06-6.57665E-01 1.06144E-06 1.73212E-06
 -1      9465-1.86128E-01 3.19441E-01-2.22833E-06-7.77991E-01-2.51040E-07-3.45542E-07
 -1      9470-1.64216E-01 2.97554E-01 2.91481E-06-7.10591E-01 7.80227E-07 1.07389E-06
 -1      9471-2.68429E-01 4.01765E-01 2.98367E-06-6.57665E-01 4.72735E-07 7.71432E-07
 -1      9472-1.86128E-01 3.19441E-01-3.24926E-06-7.77991E-01-7.32197E-08-1.00780E-07
 -1      9477-1.64217E-01 2.97553E-01 3.10056E-06-7.10591E-01 3.64464E-07 5.01643E-07
 -1      9478-2.68429E-01 4.01765E-01 2.97071E-06-6.57665E-01 1.78535E-07 2.91341E-07
 -1      9479-1.86128E-01 3.19441E-01-3.85072E-06-7.77991E-01-2.33338E-08-3.21171E-08
 -1      9484-1.64217E-01 2.97553E-01 2.92824E-06-7.10591E-01 1.42750E-07 1.96477E-07
 -1      9485-2.68429E-01 4.01765E-01 2.86501E-06-6.57665E-01 7.22794E-08 1.17949E-07
 -1      9486-1.86128E-01 3.19441E-01-4.08293E-06-7.77991E-01-1.67545E-09-2.30677E-09
 -1      9491-1.64217E-01 2.97553E-01 2.83706E-06-7.10591E-01 5.31728E-08 7.31853E-08
 -1      9492-2.68429E-01 4.01765E-01 2.81656E-06-6.57665E-01 2.04640E-08 3.33941E-08
 -1      9493-1.86128E-01 3.19441E-01-4.15368E-06-7.77991E-01 1.30245E-09 1.79247E-09
 -1      9498-1.64217E-01 2.97553E-01 2.81376E-06-7.10591E-01 1.21995E-14-1.04574E-14
 -1      9499-2.68429E-01 4.01765E-01 2.81656E-06-6.57665E-01-2.04640E-08-3.33941E-08
 -1      9500-1.86128E-01 3.19441E-01-4.15368E-06-7.77991E-01-1.30247E-09-1.79246E-09
 -1      9505-1.64217E-01 2.97553E-01 2.83706E-06-7.10591E-01-5.31728E-08-7.31852E-08
 -1      9506-2.68429E-01 4.01765E-01 2.86501E-06-6.57665E-01-7.22795E-08-1.17949E-07
 -1      9507-1.86128E-01 3.19441E-01-4.08293E-06-7.77991E-01 1.67545E-09 2.30678E-09
 -1      9512-1.64217E-01 2.97553E-01 2.92824E-06-7.10591E-01-1.42750E-07-1.96477E-07
 -1      9513-2.68429E-01 4.01765E-01 2.97071E-06-6.57665E-01-1.78535E-07-2.91341E-07
 -1      9514-1.86128E-01 3.19441E-01-3.85072E-06-7.77991E-01 2.33338E-08 3.21171E-08
 -1      9519-1.64217E-01 2.97553E-01 3.10056E-06-7.10591E-01-3.64464E-07-5.01643E-07
 -1      9520-2.68429E-01 4.01765E-01 2.98367E-06-6.57665E-01-4.72735E-07-7.71432E-07
 -1      9521-1.86128E-01 3.19441E-01-3.24926E-06-7.77991E-01 7.32196E-08 1.00780E-07
 -1      9526-1.64216E-01 2.97554E-01 2.91481E-06-7.10591E-01-7.80227E-07-1.07389E-06
 -1      9527-2.68428E-01 4.01766E-01 2.55870E-06-6.57665E-01-1.06144E-06-1.73212E-06
 -1      9528-1.86128E-01 3.19441E-01-2.22833E-06-7.77991E-01 2.51040E-07 3.45542E-07
 -1      9533-1.64217E-01 2.97553E-01 1.54162E-06-7.10591E-01-7.76551E-07-1.06884E-06
 -1      9537 6.66681E-02 6.66681E-02 1.54161E-06-7.47159E-01 9.34187E-07 9.34170E-07
 -1      9538-4.87976E-02 1.82135E-01 2.55873E-06-7.29027E-01 1.31934E-06 1.54474E-06
 -1      9539 6.66566E-02 6.66566E-02-2.22833E-06-8.18029E-01-3.02017E-07-3.01999E-07
 -1      9544 6.66687E-02 6.66687E-02 2.91481E-06-7.47159E-01 9.38606E-07 9.38618E-07
 -1      9545-4.87982E-02 1.82135E-01 2.98368E-06-7.29027E-01 5.87595E-07 6.87982E-07
 -1      9546 6.66568E-02 6.66568E-02-3.24923E-06-8.18028E-01-8.80912E-08-8.80963E-08
 -1      9551 6.66684E-02 6.66684E-02 3.10059E-06-7.47160E-01 4.38451E-07 4.38455E-07
 -1      9552-4.87983E-02 1.82135E-01 2.97073E-06-7.29027E-01 2.21912E-07 2.59823E-07
 -1      9553 6.66568E-02 6.66568E-02-3.85070E-06-8.18028E-01-2.80769E-08-2.80738E-08
 -1      9558 6.66683E-02 6.66683E-02 2.92827E-06-7.47160E-01 1.71725E-07 1.71728E-07
 -1      9559-4.87983E-02 1.82135E-01 2.86502E-06-7.29027E-01 8.98407E-08 1.05188E-07
 -1      9560 6.66567E-02 6.66567E-02-4.08290E-06-8.18028E-01-2.01951E-09-2.01693E-09
 -1      9565 6.66683E-02 6.66683E-02 2.83709E-06-7.47160E-01 6.39654E-08 6.39664E-08
 -1      9566-4.87983E-02 1.82135E-01 2.81658E-06-7.29027E-01 2.54360E-08 2.97811E-08
 -1      9567 6.66567E-02 6.66567E-02-4.15366E-06-8.18028E-01 1.56566E-09 1.56657E-09
 -1      9572 6.66683E-02 6.66683E-02 2.81379E-06-7.47160E-01 2.85275E-15 2.52404E-14
 -1      9573-4.87983E-02 1.82135E-01 2.81658E-06-7.29027E-01-2.54360E-08-2.97811E-08
 -1      9574 6.66567E-02 6.66567E-02-4.15366E-06-8.18028E-01-1.56564E-09-1.56653E-09
 -1      9579 6.66683E-02 6.66683E-02 2.83709E-06-7.47160E-01-6.39653E-08-6.39664E-08
 -1      9580-4.87983E-02 1.82135E-01 2.86502E-06-7.29027E-01-8.98407E-08-1.05188E-07
 -1      9581 6.66567E-02 6.66567E-02-4.08290E-06-8.18028E-01 2.01950E-09 2.01692E-09
 -1      9586 6.66683E-02 6.66683E-02 2.92827E-06-7.47160E-01-1.71725E-07-1.71728E-07
 -1      9587-4.87983E-02 1.82135E-01 2.97073E-06-7.29027E-01-2.21912E-07-2.59823E-07
 -1      9588 6.66568E-02 6.66568E-02-3.85070E-06-8.18028E-01 2.80769E-08 2.80738E-08
 -1      9593 6.66684E-02 6.66684E-02 3.10059E-06-7.47160E-01-4.38451E-07-4.38455E-07
 -1      9594-4.87982E-02 1.82135E-01 2.98368E-06-7.29027E-01-5.87595E-07-6.87982E-07
 -1      9595 6.66568E-02 6.66568E-02-3.24923E-06-8.18028E-01 8.80912E-08 8.80963E-08
 -1      9600 6.66687E-02 6.66687E-02 2.91481E-06-7.47159E-01-9.38606E-07-9.38618E-07
 -1      9601-4.87976E-02 1.82135E-01 2.55873E-06-7.29027E-01-1.31934E-06-1.54474E-06
 -1      9602 6.66566E-02 6.66566E-02-2.22833E-06-8.18029E-01 3.02017E-07 3.01999E-07
 -1      9607 6.66681E-02 6.66681E-02 1.54161E-06-7.47159E-01-9.34187E-07-9.34170E-07
 -1      9611 2.97553E-01-1.64217E-01 1.54158E-06-7.10591E-01 1.06887E-06 7.76589E-07
 -1      9612 1.82135E-01-4.87976E-02 2.55867E-06-7.29027E-01 1.54473E-06 1.31934E-06
 -1      9613 3.19441E-01-1.86128E-01-2.22820E-06-7.77991E-01-3.45461E-07-2.51102E-07
 -1      9618 2.97554E-01-1.64216E-01 2.91468E-06-7.10591E-01 1.07392E-06 7.80166E-07
 -1      9619 1.82135E-01-4.87982E-02 2.98364E-06-7.29027E-01 6.87974E-07 5.87571E-07
 -1      9620 3.19441E-01-1.86128E-01-3.24919E-06-7.77991E-01-1.00729E-07-7.32392E-08
 -1      9625 2.97553E-01-1.64217E-01 3.10037E-06-7.10591E-01 5.01652E-07 3.64412E-07
 -1      9626 1.82135E-01-4.87983E-02 2.97067E-06-7.29027E-01 2.59825E-07 2.21900E-07
 -1      9627 3.19441E-01-1.86128E-01-3.85065E-06-7.77991E-01-3.20934E-08-2.33588E-08
 -1      9632 2.97553E-01-1.64217E-01 2.92805E-06-7.10591E-01 1.96490E-07 1.42713E-07
 -1      9633 1.82135E-01-4.87983E-02 2.86495E-06-7.29027E-01 1.05191E-07 8.98330E-08
 -1      9634 3.19441E-01-1.86128E-01-4.08286E-06-7.77991E-01-2.29170E-09-1.68714E-09
 -1      9639 2.97553E-01-1.64217E-01 2.83686E-06-7.10591E-01 7.31925E-08 5.31533E-08
 -1      9640 1.82135E-01-4.87983E-02 2.81651E-06-7.29027E-01 2.97820E-08 2.54333E-08
 -1      9641 3.19441E-01-1.86128E-01-4.15362E-06-7.77991E-01 1.79753E-09 1.29940E-09
 -1      9646 2.97553E-01-1.64217E-01 2.81357E-06-7.10591E-01 8.03591E-15 2.36830E-15
 -1      9647 1.82135E-01-4.87983E-02 2.81651E-06-7.29027E-01-2.97820E-08-2.54333E-08
 -1      9648 3.19441E-01-1.86128E-01-4.15362E-06-7.77991E-01-1.79755E-09-1.29940E-09
 -1      9653 2.97553E-01-1.64217E-01 2.83686E-06-7.10591E-01-7.31925E-08-5.31533E-08
 -1      9654 1.82135E-01-4.87983E-02 2.86495E-06-7.29027E-01-1.05190E-07-8.98330E-08
 -1      9655 3.19441E-01-1.86128E-01-4.08286E-06-7.77991E-01 2.29169E-09 1.68715E-09
 -1      9660 2.97553E-01-1.64217E-01 2.92805E-06-7.10591E-01-1.96490E-07-1.42713E-07
 -1      9661 1.82135E-01-4.87983E-02 2.97067E-06-7.29027E-01-2.59825E-07-2.21900E-07
 -1      9662 3.19441E-01-1.86128E-01-3.85065E-06-7.77991E-01 3.20934E-08 2.33588E-08
 -1      9667 2.97553E-01-1.64217E-01 3.10037E-06-7.10591E-01-5.01652E-07-3.64412E-07
 -1      9668 1.82135E-01-4.87982E-02 2.98364E-06-7.29027E-01-6.87974E-07-5.87571E-07
 -1      9669 3.19441E-01-1.86128E-01-3.24919E-06-7.77991E-01 1.00729E-07 7.32392E-08
 -1      9674 2.97554E-01-1.64216E-01 2.91468E-06-7.10591E-01-1.07392E-06-7.80166E-07
 -1      9675 1.82135E-01-4.87976E-02 2.55867E-06-7.29027E-01-1.54473E-06-1.31934E-06
 -1      9676 3.19441E-01-1.86128E-01-2.22820E-06-7.77991E-01 3.45461E-07 2.51102E-07
 -1      9681 2.97553E-01-1.64217E-01 1.54158E-06-7.10591E-01-1.06887E-06-7.76589E-07
 -1      9685 5.05837E-01-3.72501E-01 1.54135E-06-6.04465E-01 1.17687E-06 5.99650E-07
 -1      9686 4.01766E-01-2.68428E-01 2.55894E-06-6.57665E-01 1.73214E-06 1.06139E-06
 -1      9687 5.47482E-01-4.14169E-01-2.22825E-06-6.61799E-01-3.80868E-07-1.93957E-07
 -1      9692 5.05838E-01-3.72501E-01 2.91448E-06-6.04465E-01 1.18254E-06 6.02611E-07
 -1      9693 4.01765E-01-2.68429E-01 2.98385E-06-6.57665E-01 7.71406E-07 4.72705E-07
 -1      9694 5.47482E-01-4.14168E-01-3.24888E-06-6.61799E-01-1.11224E-07-5.66118E-08
 -1      9699 5.05838E-01-3.72501E-01 3.10034E-06-6.04465E-01 5.52366E-07 2.81503E-07
 -1      9700 4.01765E-01-2.68429E-01 2.97091E-06-6.57665E-01 2.91288E-07 1.78478E-07
 -1      9701 5.47482E-01-4.14168E-01-3.85024E-06-6.61799E-01-3.54354E-08-1.80166E-08
 -1      9706 5.05838E-01-3.72501E-01 2.92799E-06-6.04465E-01 2.16281E-07 1.10244E-07
 -1      9707 4.01765E-01-2.68429E-01 2.86521E-06-6.57665E-01 1.17918E-07 7.22426E-08
 -1      9708 5.47482E-01-4.14168E-01-4.08237E-06-6.61799E-01-2.55587E-09-1.28146E-09
 -1      9713 5.05838E-01-3.72501E-01 2.83680E-06-6.04465E-01 8.05478E-08 4.10640E-08
 -1      9714 4.01765E-01-2.68429E-01 2.81678E-06-6.57665E-01 3.33852E-08 2.04524E-08
 -1      9715 5.47482E-01-4.14168E-01-4.15307E-06-6.61799E-01 1.97352E-09 1.01179E-09
 -1      9720 5.05838E-01-3.72501E-01 2.81351E-06-6.04465E-01 3.59524E-14-2.14816E-15
 -1      9721 4.01765E-01-2.68429E-01 2.81678E-06-6.57665E-01-3.33852E-08-2.04524E-08
 -1      9722 5.47482E-01-4.14168E-01-4.15307E-06-6.61799E-01-1.97348E-09-1.01178E-09
 -1      9727 5.05838E-01-3.72501E-01 2.83680E-06-6.04465E-01-8.05478E-08-4.10640E-08
 -1      9728 4.01765E-01-2.68429E-01 2.86521E-06-6.57665E-01-1.17918E-07-7.22426E-08
 -1      9729 5.47482E-01-4.14168E-01-4.08237E-06-6.61799E-01 2.55586E-09 1.28147E-09
 -1      9734 5.05838E-01-3.72501E-01 2.92799E-06-6.04465E-01-2.16281E-07-1.10244E-07
 -1      9735 4.01765E-01-2.68429E-01 2.97091E-06-6.57665E-01-2.91288E-07-1.78478E-07
 -1      9736 5.47482E-01-4.14168E-01-3.85024E-06-6.61799E-01 3.54354E-08 1.80166E-08
 -1      9741 5.05838E-01-3.72501E-01 3.10034E-06-6.04465E-01-5.52366E-07-2.81503E-07
 -1      9742 4.01765E-01-2.68429E-01 2.98385E-06-6.57665E-01-7.71406E-07-4.72705E-07
 -1      9743 5.47482E-01-4.14168E-01-3.24888E-06-6.61799E-01 1.11224E-07 5.66118E-08
 -1      9748 5.05838E-01-3.72501E-01 2.91448E-06-6.04465E-01-1.18254E-06-6.02611E-07
 -1      9749 4.01766E-01-2.68428E-01 2.55894E-06-6.57665E-01-1.73214E-06-1.06139E-06
 -1      9750 5.47482E-01-4.14169E-01-2.22825E-06-6.61799E-01 3.80868E-07 1.93957E-07
 -1      9755 5.05837E-01-3.72501E-01 1.54135E-06-6.04465E-01-1.17687E-06-5.99650E-07
 -1      9759 6.71133E-01-5.37796E-01 1.54190E-06-4.39169E-01 1.25677E-06 4.08353E-07
 -1      9760 5.88594E-01-4.55257E-01 2.55871E-06-5.21926E-01 1.87679E-06 7.77544E-07
 -1      9761 7.28456E-01-5.95142E-01-2.22847E-06-4.80825E-01-4.05922E-07-1.31795E-07
 -1      9766 6.71133E-01-5.37796E-01 2.91516E-06-4.39169E-01 1.26257E-06 4.10306E-07
 -1      9767 5.88594E-01-4.55258E-01 2.98367E-06-5.21926E-01 8.35865E-07 3.46295E-07
 -1      9768 7.28456E-01-5.95142E-01-3.24969E-06-4.80825E-01-1.18260E-07-3.83696E-08
 -1      9773 6.71133E-01-5.37796E-01 3.10080E-06-4.39169E-01 5.89804E-07 1.91693E-07
 -1      9774 5.88594E-01-4.55258E-01 2.97072E-06-5.21926E-01 3.15659E-07 1.30824E-07
 -1      9775 7.28455E-01-5.95142E-01-3.85125E-06-4.80825E-01-3.77108E-08-1.22175E-08
 -1      9780 6.71133E-01-5.37796E-01 2.92852E-06-4.39169E-01 2.31062E-07 7.51168E-08
 -1      9781 5.88594E-01-4.55258E-01 2.86501E-06-5.21926E-01 1.27786E-07 5.29836E-08
 -1      9782 7.28455E-01-5.95142E-01-4.08353E-06-4.80825E-01-2.70746E-09-8.60539E-10
 -1      9787 6.71133E-01-5.37796E-01 2.83734E-06-4.39169E-01 8.60791E-08 2.79903E-08
 -1      9788 5.88594E-01-4.55258E-01 2.81657E-06-5.21926E-01 3.61783E-08 1.50036E-08
 -1      9789 7.28455E-01-5.95142E-01-4.15434E-06-4.80825E-01 2.10440E-09 6.89514E-10
 -1      9794 6.71133E-01-5.37796E-01 2.81404E-06-4.39169E-01-3.70072E-14-1.20723E-14
 -1      9795 5.88594E-01-4.55258E-01 2.81657E-06-5.21926E-01-3.61782E-08-1.50036E-08
 -1      9796 7.28455E-01-5.95142E-01-4.15434E-06-4.80825E-01-2.10443E-09-6.89533E-10
 -1      9801 6.71133E-01-5.37796E-01 2.83734E-06-4.39169E-01-8.60791E-08-2.79903E-08
 -1      9802 5.88594E-01-4.55258E-01 2.86501E-06-5.21926E-01-1.27786E-07-5.29836E-08
 -1      9803 7.28455E-01-5.95142E-01-4.08353E-06-4.80825E-01 2.70747E-09 8.60534E-10
 -1      9808 6.71133E-01-5.37796E-01 2.92852E-06-4.39169E-01-2.31062E-07-7.51168E-08
 -1      9809 5.88594E-01-4.55258E-01 2.97072E-06-5.21926E-01-3.15659E-07-1.30824E-07
 -1      9810 7.28455E-01-5.95142E-01-3.85125E-06-4.80825E-01 3.77108E-08 1.22175E-08
 -1      9815 6.71133E-01-5.37796E-01 3.10080E-06-4.39169E-01-5.89804E-07-1.91693E-07
 -1      9816 5.88594E-01-4.55258E-01 2.98367E-06-5.21926E-01-8.35865E-07-3.46295E-07
 -1      9817 7.28456E-01-5.95142E-01-3.24969E-06-4.80825E-01 1.18260E-07 3.83696E-08
 -1      9822 6.71133E-01-5.37796E-01 2.91516E-06-4.39169E-01-1.26257E-06-4.10306E-07
 -1      9823 5.88594E-01-4.55257E-01 2.55871E-06-5.21926E-01-1.87679E-06-7.77545E-07
 -1      9824 7.28456E-01-5.95142E-01-2.22847E-06-4.80825E-01 4.05921E-07 1.31796E-07
 -1      9829 6.71133E-01-5.37796E-01 1.54190E-06-4.39169E-01-1.25677E-06-4.08353E-07
 -1      9833 7.77259E-01-6.43923E-01 1.54167E-06-2.30885E-01 1.30481E-06 2.06665E-07
 -1      9834 7.24334E-01-5.90996E-01 2.55847E-06-3.35097E-01 1.97537E-06 4.74186E-07
 -1      9835 8.44648E-01-7.11335E-01-2.22854E-06-2.52785E-01-4.21837E-07-6.68935E-08
 -1      9840 7.77259E-01-6.43922E-01 2.91496E-06-2.30885E-01 1.31107E-06 2.07585E-07
 -1      9841 7.24333E-01-5.90997E-01 2.98350E-06-3.35097E-01 8.79804E-07 2.11212E-07
 -1      9842 8.44648E-01-7.11334E-01-3.24939E-06-2.52785E-01-1.23049E-07-1.95331E-08
 -1      9847 7.77259E-01-6.43923E-01 3.10079E-06-2.30885E-01 6.12468E-07 9.69559E-08
 -1      9848 7.24333E-01-5.90997E-01 2.97053E-06-3.35097E-01 3.32333E-07 7.97661E-08
 -1      9849 8.44648E-01-7.11334E-01-3.85085E-06-2.52785E-01-3.92043E-08-6.24280E-09
 -1      9854 7.77259E-01-6.43923E-01 2.92848E-06-2.30885E-01 2.39892E-07 3.79587E-08
 -1      9855 7.24333E-01-5.90997E-01 2.86482E-06-3.35097E-01 1.34562E-07 3.22900E-08
 -1      9856 8.44648E-01-7.11334E-01-4.08306E-06-2.52785E-01-2.81639E-09-4.63786E-10
 -1      9861 7.77259E-01-6.43923E-01 2.83729E-06-2.30885E-01 8.93598E-08 1.41340E-08
 -1      9862 7.24333E-01-5.90997E-01 2.81637E-06-3.35097E-01 3.80988E-08 9.14150E-09
 -1      9863 8.44648E-01-7.11334E-01-4.15381E-06-2.52785E-01 2.18767E-09 3.41220E-10
 -1      9868 7.77259E-01-6.43923E-01 2.81400E-06-2.30885E-01-2.19530E-14-2.18706E-15
 -1      9869 7.24333E-01-5.90997E-01 2.81637E-06-3.35097E-01-3.80988E-08-9.14152E-09
 -1      9870 8.44648E-01-7.11334E-01-4.15381E-06-2.52785E-01-2.18772E-09-3.41227E-10
 -1      9875 7.77259E-01-6.43923E-01 2.83729E-06-2.30885E-01-8.93598E-08-1.41340E-08
 -1      9876 7.24333E-01-5.90997E-01 2.86482E-06-3.35097E-01-1.34562E-07-3.22900E-08
 -1      9877 8.44648E-01-7.11334E-01-4.08306E-06-2.52785E-01 2.81639E-09 4.63778E-10
 -1      9882 7.77259E-01-6.43923E-01 2.92848E-06-2.30885E-01-2.39892E-07-3.79587E-08
 -1      9883 7.24333E-01-5.90997E-01 2.97053E-06-3.35097E-01-3.32333E-07-7.97661E-08
 -1      9884 8.44648E-01-7.11334E-01-3.85085E-06-2.52785E-01 3.92043E-08 6.24280E-09
 -1      9889 7.77259E-01-6.43923E-01 3.10079E-06-2.30885E-01-6.12468E-07-9.69559E-08
 -1      9890 7.24333E-01-5.90997E-01 2.98350E-06-3.35097E-01-8.79804E-07-2.11212E-07
 -1      9891 8.44648E-01-7.11334E-01-3.24939E-06-2.52785E-01 1.23049E-07 1.95331E-08
 -1      9896 7.77259E-01-6.43922E-01 2.91496E-06-2.30885E-01-1.31107E-06-2.07585E-07
 -1      9897 7.24334E-01-5.90996E-01 2.55847E-06-3.35097E-01-1.97537E-06-4.74186E-07
 -1      9898 8.44648E-01-7.11335E-01-2.22854E-06-2.52785E-01 4.21837E-07 6.68935E-08
 -1      9903 7.77259E-01-6.43923E-01 1.54167E-06-2.30885E-01-1.30481E-06-2.06665E-07
 -1      9907 7.95696E-01-6.62358E-01 2.55873E-06-1.15467E-01 2.02523E-06 1.59409E-07
 -1      9911 7.95696E-01-6.62359E-01 2.98369E-06-1.15467E-01 9.01996E-07 7.09794E-08
 -1      9915 7.95696E-01-6.62359E-01 2.97076E-06-1.15467E-01 3.40654E-07 2.68035E-08
 -1      9919 7.95696E-01-6.62359E-01 2.86506E-06-1.15467E-01 1.37916E-07 1.08495E-08
 -1      9923 7.95696E-01-6.62359E-01 2.81662E-06-1.15467E-01 3.90480E-08 3.07137E-09
 -1      9927 7.95696E-01-6.62359E-01 2.81662E-06-1.15467E-01-3.90480E-08-3.07137E-09
 -1      9931 7.95696E-01-6.62359E-01 2.86506E-06-1.15467E-01-1.37916E-07-1.08495E-08
 -1      9935 7.95696E-01-6.62359E-01 2.97076E-06-1.15467E-01-3.40654E-07-2.68035E-08
 -1      9939 7.95696E-01-6.62359E-01 2.98369E-06-1.15467E-01-9.01996E-07-7.09794E-08
 -1      9943 7.95696E-01-6.62358E-01 2.55873E-06-1.15467E-01-2.02523E-06-1.59409E-07
 -1      9949-5.39163E-01 6.72489E-01-2.50257E-07-1.96845E-01-3.64197E-08-2.29946E-07
 -1      9950-5.54835E-01 6.88160E-01-6.69970E-07-9.84355E-02-5.19487E-08-6.60071E-07
 -1      9951-5.91597E-01 7.24928E-01 3.31765E-07-2.13882E-01 1.87782E-08 1.18561E-07
 -1      9956-5.39163E-01 6.72489E-01-6.88371E-07-1.96845E-01-6.67694E-08-4.21566E-07
 -1      9957-5.54835E-01 6.88160E-01-8.65811E-07-9.84355E-02-3.08639E-08-3.92164E-07
 -1      9958-5.91597E-01 7.24928E-01 6.84574E-07-2.13882E-01 2.28277E-08 1.44127E-07
 -1      9963-5.39163E-01 6.72489E-01-9.17527E-07-1.96845E-01-4.07401E-08-2.57223E-07
 -1      9964-5.54834E-01 6.88160E-01-8.54202E-07-9.84355E-02-9.92379E-09-1.26094E-07
 -1      9965-5.91597E-01 7.24928E-01 9.57338E-07-2.13882E-01 2.30258E-08 1.45378E-07
 -1      9970-5.39163E-01 6.72489E-01-8.55745E-07-1.96845E-01-1.19268E-08-7.53029E-08
 -1      9971-5.54834E-01 6.88160E-01-7.89480E-07-9.84355E-02-1.44155E-09-1.83170E-08
 -1      9972-5.91597E-01 7.24929E-01 1.11898E-06-2.13883E-01 1.37385E-08 8.67410E-08
 -1      9977-5.39163E-01 6.72489E-01-7.71539E-07-1.96845E-01-1.53533E-09-9.69394E-09
 -1      9978-5.54834E-01 6.88160E-01-7.42319E-07-9.84355E-02 7.32756E-11 9.31044E-10
 -1      9979-5.91597E-01 7.24929E-01 1.17142E-06-2.13883E-01 4.38590E-09 2.76913E-08
 -1      9984-5.39163E-01 6.72489E-01-7.43535E-07-1.96845E-01-3.02464E-15-1.08754E-14
 -1      9985-5.54834E-01 6.88160E-01-7.42319E-07-9.84355E-02-7.32832E-11-9.31024E-10
 -1      9986-5.91597E-01 7.24929E-01 1.17142E-06-2.13883E-01-4.38591E-09-2.76914E-08
 -1      9991-5.39163E-01 6.72489E-01-7.71539E-07-1.96845E-01 1.53533E-09 9.69395E-09
 -1      9992-5.54834E-01 6.88160E-01-7.89480E-07-9.84355E-02 1.44154E-09 1.83170E-08
 -1      9993-5.91597E-01 7.24929E-01 1.11898E-06-2.13883E-01-1.37385E-08-8.67410E-08
 -1      9998-5.39163E-01 6.72489E-01-8.55745E-07-1.96845E-01 1.19268E-08 7.53030E-08
 -1      9999-5.54834E-01 6.88160E-01-8.54202E-07-9.84355E-02 9.92379E-09 1.26094E-07
 -1     10000-5.91597E-01 7.24928E-01 9.57338E-07-2.13882E-01-2.30258E-08-1.45378E-07
 -1     10005-5.39163E-01 6.72489E-01-9.17527E-07-1.96845E-01 4.07401E-08 2.57223E-07
 -1     10006-5.54835E-01 6.88160E-01-8.65811E-07-9.84355E-02 3.08639E-08 3.92164E-07
 -1     10007-5.91597E-01 7.24928E-01 6.84574E-07-2.13882E-01-2.28277E-08-1.44127E-07
 -1     10012-5.39163E-01 6.72489E-01-6.88371E-07-1.96845E-01 6.67694E-08 4.21566E-07
 -1     10013-5.54835E-01 6.88160E-01-6.69970E-07-9.84355E-02 5.19487E-08 6.60071E-07
 -1     10014-5.91597E-01 7.24928E-01 3.31765E-07-2.13882E-01-1.87782E-08-1.18561E-07
 -1     10019-5.39163E-01 6.72489E-01-2.50257E-07-1.96845E-01 3.64196E-08 2.29946E-07
 -1     10023-4.48683E-01 5.82009E-01-2.50257E-07-3.74421E-01-7.19427E-08-2.21418E-07
 -1     10024-4.93998E-01 6.27324E-01-6.69970E-07-2.85671E-01-1.54567E-07-6.43818E-07
 -1     10025-4.93286E-01 6.26617E-01 3.31764E-07-4.06829E-01 3.70940E-08 1.14164E-07
 -1     10030-4.48684E-01 5.82009E-01-6.88371E-07-3.74421E-01-1.31895E-07-4.05931E-07
 -1     10031-4.93998E-01 6.27324E-01-8.65811E-07-2.85671E-01-9.18318E-08-3.82507E-07
 -1     10032-4.93286E-01 6.26618E-01 6.84574E-07-4.06829E-01 4.50929E-08 1.38781E-07
 -1     10037-4.48684E-01 5.82009E-01-9.17527E-07-3.74421E-01-8.04772E-08-2.47683E-07
 -1     10038-4.93998E-01 6.27324E-01-8.54202E-07-2.85671E-01-2.95271E-08-1.22990E-07
 -1     10039-4.93286E-01 6.26618E-01 9.57337E-07-4.06829E-01 4.54844E-08 1.39986E-07
 -1     10044-4.48683E-01 5.82009E-01-8.55746E-07-3.74421E-01-2.35601E-08-7.25103E-08
 -1     10045-4.93998E-01 6.27324E-01-7.89480E-07-2.85671E-01-4.28921E-09-1.78661E-08
 -1     10046-4.93286E-01 6.26618E-01 1.11898E-06-4.06829E-01 2.71386E-08 8.35237E-08
 -1     10051-4.48683E-01 5.82009E-01-7.71539E-07-3.74421E-01-3.03297E-09-9.33449E-09
 -1     10052-4.93998E-01 6.27324E-01-7.42319E-07-2.85671E-01 2.18024E-10 9.08053E-10
 -1     10053-4.93286E-01 6.26618E-01 1.17142E-06-4.06829E-01 8.66376E-09 2.66642E-08
 -1     10058-4.48683E-01 5.82009E-01-7.43536E-07-3.74421E-01-1.48390E-14 4.72206E-14
 -1     10059-4.93998E-01 6.27324E-01-7.42319E-07-2.85671E-01-2.18022E-10-9.08055E-10
 -1     10060-4.93286E-01 6.26618E-01 1.17142E-06-4.06829E-01-8.66377E-09-2.66642E-08
 -1     10065-4.48683E-01 5.82009E-01-7.71540E-07-3.74421E-01 3.03296E-09 9.33449E-09
 -1     10066-4.93998E-01 6.27324E-01-7.89480E-07-2.85671E-01 4.28921E-09 1.78661E-08
 -1     10067-4.93286E-01 6.26618E-01 1.11898E-06-4.06829E-01-2.71386E-08-8.35236E-08
 -1     10072-4.48683E-01 5.82009E-01-8.55746E-07-3.74421E-01 2.35601E-08 7.25103E-08
 -1     10073-4.93998E-01 6.27324E-01-8.54202E-07-2.85671E-01 2.95271E-08 1.22990E-07
 -1     10074-4.93286E-01 6.26618E-01 9.57337E-07-4.06829E-01-4.54844E-08-1.39986E-07
 -1     10079-4.48684E-01 5.82009E-01-9.17527E-07-3.74421E-01 8.04772E-08 2.47683E-07
 -1     10080-4.93998E-01 6.27324E-01-8.65811E-07-2.85671E-01 9.18318E-08 3.82507E-07
 -1     10081-4.93286E-01 6.26618E-01 6.84574E-07-4.06829E-01-4.50929E-08-1.38781E-07
 -1     10086-4.48684E-01 5.82009E-01-6.88371E-07-3.74421E-01 1.31895E-07 4.05931E-07
 -1     10087-4.93998E-01 6.27324E-01-6.69970E-07-2.85671E-01 1.54567E-07 6.43818E-07
 -1     10088-4.93286E-01 6.26617E-01 3.31764E-07-4.06829E-01-3.70940E-08-1.14164E-07
 -1     10093-4.48683E-01 5.82009E-01-2.50257E-07-3.74421E-01 7.19427E-08 2.21418E-07
 -1     10097-3.07758E-01 4.41084E-01-2.50256E-07-5.15346E-01-1.05694E-07-2.07438E-07
 -1     10098-3.78281E-01 5.11606E-01-6.69970E-07-4.44943E-01-2.53379E-07-6.11712E-07
 -1     10099-3.40163E-01 4.73495E-01 3.31761E-07-5.59951E-01 5.44968E-08 1.06956E-07
 -1     10104-3.07758E-01 4.41084E-01-6.88370E-07-5.15346E-01-1.93772E-07-3.80301E-07
 -1     10105-3.78280E-01 5.11606E-01-8.65811E-07-4.44943E-01-1.50539E-07-3.63432E-07
 -1     10106-3.40163E-01 4.73495E-01 6.84571E-07-5.59952E-01 6.62479E-08 1.30019E-07
 -1     10111-3.07758E-01 4.41084E-01-9.17526E-07-5.15346E-01-1.18232E-07-2.32045E-07
 -1     10112-3.78280E-01 5.11606E-01-8.54202E-07-4.44943E-01-4.84035E-08-1.16857E-07
 -1     10113-3.40163E-01 4.73495E-01 9.57334E-07-5.59952E-01 6.68230E-08 1.31147E-07
 -1     10118-3.07758E-01 4.41084E-01-8.55745E-07-5.15346E-01-3.46129E-08-6.79319E-08
 -1     10119-3.78280E-01 5.11606E-01-7.89480E-07-4.44943E-01-7.03133E-09-1.69752E-08
 -1     10120-3.40163E-01 4.73495E-01 1.11898E-06-5.59952E-01 3.98704E-08 7.82499E-08
 -1     10125-3.07758E-01 4.41084E-01-7.71539E-07-5.15346E-01-4.45581E-09-8.74513E-09
 -1     10126-3.78280E-01 5.11606E-01-7.42319E-07-4.44943E-01 3.57366E-10 8.62746E-10
 -1     10127-3.40163E-01 4.73495E-01 1.17142E-06-5.59952E-01 1.27283E-08 2.49806E-08
 -1     10132-3.07758E-01 4.41084E-01-7.43535E-07-5.15346E-01-3.34701E-15-2.58236E-14
 -1     10133-3.78280E-01 5.11606E-01-7.42319E-07-4.44943E-01-3.57388E-10-8.62739E-10
 -1     10134-3.40163E-01 4.73495E-01 1.17142E-06-5.59952E-01-1.27283E-08-2.49807E-08
 -1     10139-3.07758E-01 4.41084E-01-7.71539E-07-5.15346E-01 4.45580E-09 8.74512E-09
 -1     10140-3.78280E-01 5.11606E-01-7.89480E-07-4.44943E-01 7.03132E-09 1.69752E-08
 -1     10141-3.40163E-01 4.73495E-01 1.11898E-06-5.59952E-01-3.98705E-08-7.82499E-08
 -1     10146-3.07758E-01 4.41084E-01-8.55745E-07-5.15346E-01 3.46129E-08 6.79319E-08
 -1     10147-3.78280E-01 5.11606E-01-8.54202E-07-4.44943E-01 4.84035E-08 1.16857E-07
 -1     10148-3.40163E-01 4.73495E-01 9.57334E-07-5.59952E-01-6.68231E-08-1.31147E-07
 -1     10153-3.07758E-01 4.41084E-01-9.17526E-07-5.15346E-01 1.18232E-07 2.32045E-07
 -1     10154-3.78280E-01 5.11606E-01-8.65811E-07-4.44943E-01 1.50539E-07 3.63432E-07
 -1     10155-3.40163E-01 4.73495E-01 6.84571E-07-5.59952E-01-6.62480E-08-1.30019E-07
 -1     10160-3.07758E-01 4.41084E-01-6.88370E-07-5.15346E-01 1.93772E-07 3.80301E-07
 -1     10161-3.78281E-01 5.11606E-01-6.69970E-07-4.44943E-01 2.53379E-07 6.11712E-07
 -1     10162-3.40163E-01 4.73495E-01 3.31761E-07-5.59951E-01-5.44968E-08-1.06956E-07
 -1     10167-3.07758E-01 4.41084E-01-2.50256E-07-5.15346E-01 1.05694E-07 2.07438E-07
 -1     10171-1.30182E-01 2.63508E-01-2.50254E-07-6.05826E-01-1.36844E-07-1.88351E-07
 -1     10172-2.19009E-01 3.52334E-01-6.69971E-07-5.60661E-01-3.45953E-07-5.64544E-07
 -1     10173-1.47216E-01 2.80548E-01 3.31756E-07-6.58262E-01 7.05559E-08 9.71152E-08
 -1     10178-1.30182E-01 2.63508E-01-6.88366E-07-6.05826E-01-2.50881E-07-3.45308E-07
 -1     10179-2.19008E-01 3.52334E-01-8.65812E-07-5.60661E-01-2.05539E-07-3.35409E-07
 -1     10180-1.47216E-01 2.80548E-01 6.84566E-07-6.58263E-01 8.57722E-08 1.18055E-07
 -1     10185-1.30182E-01 2.63508E-01-9.17525E-07-6.05826E-01-1.53077E-07-2.10693E-07
 -1     10186-2.19008E-01 3.52334E-01-8.54203E-07-5.60661E-01-6.60880E-08-1.07846E-07
 -1     10187-1.47217E-01 2.80548E-01 9.57329E-07-6.58263E-01 8.65164E-08 1.19079E-07
 -1     10192-1.30182E-01 2.63508E-01-8.55743E-07-6.05826E-01-4.48139E-08-6.16815E-08
 -1     10193-2.19008E-01 3.52334E-01-7.89480E-07-5.60661E-01-9.60029E-09-1.56665E-08
 -1     10194-1.47217E-01 2.80548E-01 1.11897E-06-6.58263E-01 5.16205E-08 7.10490E-08
 -1     10199-1.30182E-01 2.63508E-01-7.71536E-07-6.05826E-01-5.76914E-09-7.94065E-09
 -1     10200-2.19008E-01 3.52334E-01-7.42320E-07-5.60661E-01 4.87930E-10 7.96126E-10
 -1     10201-1.47217E-01 2.80548E-01 1.17141E-06-6.58263E-01 1.64794E-08 2.26817E-08
 -1     10206-1.30182E-01 2.63508E-01-7.43532E-07-6.05826E-01 3.35711E-15-7.57917E-15
 -1     10207-2.19008E-01 3.52334E-01-7.42320E-07-5.60661E-01-4.87940E-10-7.96137E-10
 -1     10208-1.47217E-01 2.80548E-01 1.17141E-06-6.58263E-01-1.64794E-08-2.26818E-08
 -1     10213-1.30182E-01 2.63508E-01-7.71536E-07-6.05826E-01 5.76912E-09 7.94069E-09
 -1     10214-2.19008E-01 3.52334E-01-7.89480E-07-5.60661E-01 9.60027E-09 1.56665E-08
 -1     10215-1.47217E-01 2.80548E-01 1.11897E-06-6.58263E-01-5.16206E-08-7.10490E-08
 -1     10220-1.30182E-01 2.63508E-01-8.55743E-07-6.05826E-01 4.48139E-08 6.16815E-08
 -1     10221-2.19008E-01 3.52334E-01-8.54203E-07-5.60661E-01 6.60880E-08 1.07846E-07
 -1     10222-1.47217E-01 2.80548E-01 9.57329E-07-6.58263E-01-8.65164E-08-1.19079E-07
 -1     10227-1.30182E-01 2.63508E-01-9.17525E-07-6.05826E-01 1.53077E-07 2.10693E-07
 -1     10228-2.19008E-01 3.52334E-01-8.65812E-07-5.60661E-01 2.05539E-07 3.35409E-07
 -1     10229-1.47216E-01 2.80548E-01 6.84566E-07-6.58263E-01-8.57722E-08-1.18055E-07
 -1     10234-1.30182E-01 2.63508E-01-6.88366E-07-6.05826E-01 2.50881E-07 3.45308E-07
 -1     10235-2.19009E-01 3.52334E-01-6.69971E-07-5.60661E-01 3.45953E-07 5.64544E-07
 -1     10236-1.47216E-01 2.80548E-01 3.31756E-07-6.58262E-01-7.05559E-08-9.71152E-08
 -1     10241-1.30182E-01 2.63508E-01-2.50254E-07-6.05826E-01 1.36844E-07 1.88351E-07
 -1     10245 6.66630E-02 6.66630E-02-2.50250E-07-6.37003E-01-1.64627E-07-1.64620E-07
 -1     10246-3.17730E-02 1.65098E-01-6.69975E-07-6.21498E-01-4.30006E-07-5.03473E-07
 -1     10247 6.66659E-02 6.66659E-02 3.31751E-07-6.92138E-01 8.48816E-08 8.48766E-08
 -1     10252 6.66627E-02 6.66627E-02-6.88360E-07-6.37003E-01-3.01803E-07-3.01809E-07
 -1     10253-3.17727E-02 1.65098E-01-8.65813E-07-6.21497E-01-2.55477E-07-2.99126E-07
 -1     10254 6.66660E-02 6.66660E-02 6.84551E-07-6.92138E-01 1.03180E-07 1.03183E-07
 -1     10259 6.66628E-02 6.66628E-02-9.17516E-07-6.37003E-01-1.84149E-07-1.84153E-07
 -1     10260-3.17726E-02 1.65098E-01-8.54204E-07-6.21497E-01-8.21456E-08-9.61807E-08
 -1     10261 6.66659E-02 6.66659E-02 9.57312E-07-6.92138E-01 1.04077E-07 1.04078E-07
 -1     10266 6.66629E-02 6.66629E-02-8.55738E-07-6.37003E-01-5.39104E-08-5.39129E-08
 -1     10267-3.17726E-02 1.65098E-01-7.89483E-07-6.21497E-01-1.19331E-08-1.39725E-08
 -1     10268 6.66659E-02 6.66659E-02 1.11896E-06-6.92138E-01 6.20986E-08 6.20985E-08
 -1     10273 6.66629E-02 6.66629E-02-7.71533E-07-6.37003E-01-6.93979E-09-6.94102E-09
 -1     10274-3.17726E-02 1.65098E-01-7.42323E-07-6.21497E-01 6.06406E-10 7.09744E-10
 -1     10275 6.66659E-02 6.66659E-02 1.17140E-06-6.92138E-01 1.98245E-08 1.98244E-08
 -1     10280 6.66629E-02 6.66629E-02-7.43530E-07-6.37003E-01 1.25006E-14 1.81668E-14
 -1     10281-3.17726E-02 1.65098E-01-7.42323E-07-6.21497E-01-6.06394E-10-7.09738E-10
 -1     10282 6.66659E-02 6.66659E-02 1.17140E-06-6.92138E-01-1.98244E-08-1.98243E-08
 -1     10287 6.66629E-02 6.66629E-02-7.71533E-07-6.37003E-01 6.93977E-09 6.94104E-09
 -1     10288-3.17726E-02 1.65098E-01-7.89483E-07-6.21497E-01 1.19331E-08 1.39725E-08
 -1     10289 6.66659E-02 6.66659E-02 1.11896E-06-6.92138E-01-6.20986E-08-6.20985E-08
 -1     10294 6.66629E-02 6.66629E-02-8.55738E-07-6.37003E-01 5.39103E-08 5.39129E-08
 -1     10295-3.17726E-02 1.65098E-01-8.54204E-07-6.21497E-01 8.21456E-08 9.61807E-08
 -1     10296 6.66659E-02 6.66659E-02 9.57312E-07-6.92138E-01-1.04077E-07-1.04078E-07
 -1     10301 6.66628E-02 6.66628E-02-9.17516E-07-6.37003E-01 1.84149E-07 1.84153E-07
 -1     10302-3.17727E-02 1.65098E-01-8.65813E-07-6.21497E-01 2.55477E-07 2.99126E-07
 -1     10303 6.66660E-02 6.66660E-02 6.84551E-07-6.92138E-01-1.03180E-07-1.03183E-07
 -1     10308 6.66627E-02 6.66627E-02-6.88360E-07-6.37003E-01 3.01803E-07 3.01809E-07
 -1     10309-3.17730E-02 1.65098E-01-6.69975E-07-6.21498E-01 4.30006E-07 5.03473E-07
 -1     10310 6.66659E-02 6.66659E-02 3.31751E-07-6.92138E-01-8.48816E-08-8.48766E-08
 -1     10315 6.66630E-02 6.66630E-02-2.50250E-07-6.37003E-01 1.64627E-07 1.64620E-07
 -1     10319 2.63508E-01-1.30182E-01-2.50232E-07-6.05826E-01-1.88344E-07-1.36850E-07
 -1     10320 1.65098E-01-3.17730E-02-6.69971E-07-6.21498E-01-5.03474E-07-4.30020E-07
 -1     10321 2.80548E-01-1.47216E-01 3.31727E-07-6.58262E-01 9.71051E-08 7.05405E-08
 -1     10326 2.63508E-01-1.30182E-01-6.88348E-07-6.05826E-01-3.45329E-07-2.50888E-07
 -1     10327 1.65098E-01-3.17727E-02-8.65822E-07-6.21497E-01-2.99128E-07-2.55488E-07
 -1     10328 2.80548E-01-1.47216E-01 6.84553E-07-6.58263E-01 1.18062E-07 8.57391E-08
 -1     10333 2.63508E-01-1.30182E-01-9.17515E-07-6.05826E-01-2.10704E-07-1.53094E-07
 -1     10334 1.65098E-01-3.17726E-02-8.54212E-07-6.21497E-01-9.61799E-08-8.21529E-08
 -1     10335 2.80548E-01-1.47217E-01 9.57316E-07-6.58263E-01 1.19081E-07 8.64857E-08
 -1     10340 2.63508E-01-1.30182E-01-8.55727E-07-6.05826E-01-6.16856E-08-4.48285E-08
 -1     10341 1.65098E-01-3.17726E-02-7.89489E-07-6.21497E-01-1.39725E-08-1.19386E-08
 -1     10342 2.80548E-01-1.47217E-01 1.11895E-06-6.58263E-01 7.10493E-08 5.15999E-08
 -1     10347 2.63508E-01-1.30182E-01-7.71524E-07-6.05826E-01-7.94385E-09-5.77826E-09
 -1     10348 1.65098E-01-3.17726E-02-7.42328E-07-6.21497E-01 7.09697E-10 6.04373E-10
 -1     10349 2.80548E-01-1.47217E-01 1.17139E-06-6.58263E-01 2.26818E-08 1.64722E-08
 -1     10354 2.63508E-01-1.30182E-01-7.43522E-07-6.05826E-01 9.06398E-16 1.31650E-14
 -1     10355 1.65098E-01-3.17726E-02-7.42328E-07-6.21497E-01-7.09700E-10-6.04358E-10
 -1     10356 2.80548E-01-1.47217E-01 1.17139E-06-6.58263E-01-2.26818E-08-1.64722E-08
 -1     10361 2.63508E-01-1.30182E-01-7.71524E-07-6.05826E-01 7.94386E-09 5.77825E-09
 -1     10362 1.65098E-01-3.17726E-02-7.89489E-07-6.21497E-01 1.39725E-08 1.19386E-08
 -1     10363 2.80548E-01-1.47217E-01 1.11895E-06-6.58263E-01-7.10493E-08-5.15999E-08
 -1     10368 2.63508E-01-1.30182E-01-8.55727E-07-6.05826E-01 6.16856E-08 4.48285E-08
 -1     10369 1.65098E-01-3.17726E-02-8.54212E-07-6.21497E-01 9.61799E-08 8.21529E-08
 -1     10370 2.80548E-01-1.47217E-01 9.57316E-07-6.58263E-01-1.19081E-07-8.64857E-08
 -1     10375 2.63508E-01-1.30182E-01-9.17515E-07-6.05826E-01 2.10704E-07 1.53094E-07
 -1     10376 1.65098E-01-3.17727E-02-8.65822E-07-6.21497E-01 2.99128E-07 2.55488E-07
 -1     10377 2.80548E-01-1.47216E-01 6.84553E-07-6.58263E-01-1.18062E-07-8.57390E-08
 -1     10382 2.63508E-01-1.30182E-01-6.88348E-07-6.05826E-01 3.45329E-07 2.50889E-07
 -1     10383 1.65098E-01-3.17730E-02-6.69971E-07-6.21498E-01 5.03474E-07 4.30020E-07
 -1     10384 2.80548E-01-1.47216E-01 3.31727E-07-6.58262E-01-9.71051E-08-7.05405E-08
 -1     10389 2.63508E-01-1.30182E-01-2.50232E-07-6.05826E-01 1.88344E-07 1.36850E-07
 -1     10393 4.41084E-01-3.07758E-01-2.50317E-07-5.15346E-01-2.07446E-07-1.05694E-07
 -1     10394 3.52334E-01-2.19009E-01-6.70024E-07-5.60661E-01-5.64562E-07-3.45959E-07
 -1     10395 4.73495E-01-3.40163E-01 3.31863E-07-5.59951E-01 1.06901E-07 5.44815E-08
 -1     10400 4.41084E-01-3.07758E-01-6.88355E-07-5.15346E-01-3.80285E-07-1.93767E-07
 -1     10401 3.52334E-01-2.19008E-01-8.65842E-07-5.60661E-01-3.35427E-07-2.05554E-07
 -1     10402 4.73495E-01-3.40163E-01 6.84565E-07-5.59952E-01 1.29916E-07 6.62290E-08
 -1     10407 4.41084E-01-3.07758E-01-9.17483E-07-5.15346E-01-2.32074E-07-1.18237E-07
 -1     10408 3.52334E-01-2.19008E-01-8.54242E-07-5.60661E-01-1.07872E-07-6.61076E-08
 -1     10409 4.73495E-01-3.40163E-01 9.57298E-07-5.59952E-01 1.31078E-07 6.68181E-08
 -1     10414 4.41084E-01-3.07758E-01-8.55745E-07-5.15346E-01-6.79704E-08-3.46202E-08
 -1     10415 3.52334E-01-2.19008E-01-7.89532E-07-5.60661E-01-1.56818E-08-9.61227E-09
 -1     10416 4.73495E-01-3.40163E-01 1.11896E-06-5.59952E-01 7.82081E-08 3.98693E-08
 -1     10421 4.41084E-01-3.07758E-01-7.71540E-07-5.15346E-01-8.76177E-09-4.45696E-09
 -1     10422 3.52334E-01-2.19008E-01-7.42377E-07-5.60661E-01 7.90824E-10 4.83860E-10
 -1     10423 4.73495E-01-3.40163E-01 1.17141E-06-5.59952E-01 2.49665E-08 1.27281E-08
 -1     10428 4.41084E-01-3.07758E-01-7.43533E-07-5.15346E-01 1.82306E-14 1.82920E-14
 -1     10429 3.52334E-01-2.19008E-01-7.42377E-07-5.60661E-01-7.90821E-10-4.83844E-10
 -1     10430 4.73495E-01-3.40163E-01 1.17141E-06-5.59952E-01-2.49665E-08-1.27281E-08
 -1     10435 4.41084E-01-3.07758E-01-7.71540E-07-5.15346E-01 8.76178E-09 4.45697E-09
 -1     10436 3.52334E-01-2.19008E-01-7.89532E-07-5.60661E-01 1.56819E-08 9.61228E-09
 -1     10437 4.73495E-01-3.40163E-01 1.11896E-06-5.59952E-01-7.82081E-08-3.98693E-08
 -1     10442 4.41084E-01-3.07758E-01-8.55745E-07-5.15346E-01 6.79704E-08 3.46202E-08
 -1     10443 3.52334E-01-2.19008E-01-8.54242E-07-5.60661E-01 1.07872E-07 6.61076E-08
 -1     10444 4.73495E-01-3.40163E-01 9.57298E-07-5.59952E-01-1.31078E-07-6.68181E-08
 -1     10449 4.41084E-01-3.07758E-01-9.17484E-07-5.15346E-01 2.32074E-07 1.18237E-07
 -1     10450 3.52334E-01-2.19008E-01-8.65842E-07-5.60661E-01 3.35427E-07 2.05554E-07
 -1     10451 4.73495E-01-3.40163E-01 6.84565E-07-5.59952E-01-1.29916E-07-6.62290E-08
 -1     10456 4.41084E-01-3.07758E-01-6.88355E-07-5.15346E-01 3.80285E-07 1.93767E-07
 -1     10457 3.52334E-01-2.19009E-01-6.70024E-07-5.60661E-01 5.64562E-07 3.45960E-07
 -1     10458 4.73495E-01-3.40163E-01 3.31863E-07-5.59951E-01-1.06901E-07-5.44815E-08
 -1     10463 4.41084E-01-3.07758E-01-2.50317E-07-5.15346E-01 2.07446E-07 1.05694E-07
 -1     10467 5.82009E-01-4.48683E-01-2.50196E-07-3.74421E-01-2.21410E-07-7.19352E-08
 -1     10468 5.11606E-01-3.78281E-01-6.69970E-07-4.44943E-01-6.11711E-07-2.53381E-07
 -1     10469 6.26617E-01-4.93286E-01 3.31673E-07-4.06829E-01 1.14210E-07 3.71213E-08
 -1     10474 5.82009E-01-4.48684E-01-6.88386E-07-3.74421E-01-4.05945E-07-1.31901E-07
 -1     10475 5.11606E-01-3.78280E-01-8.65811E-07-4.44943E-01-3.63440E-07-1.50521E-07
 -1     10476 6.26618E-01-4.93286E-01 6.84590E-07-4.06829E-01 1.38867E-07 4.51518E-08
 -1     10481 5.82009E-01-4.48684E-01-9.17571E-07-3.74421E-01-2.47659E-07-8.04589E-08
 -1     10482 5.11606E-01-3.78280E-01-8.54202E-07-4.44943E-01-1.16864E-07-4.83856E-08
 -1     10483 6.26618E-01-4.93286E-01 9.57385E-07-4.06829E-01 1.40040E-07 4.55306E-08
 -1     10488 5.82009E-01-4.48683E-01-8.55746E-07-3.74421E-01-7.24775E-08-2.35375E-08
 -1     10489 5.11606E-01-3.78280E-01-7.89480E-07-4.44943E-01-1.69801E-08-7.01894E-09
 -1     10490 6.26618E-01-4.93286E-01 1.11901E-06-4.06829E-01 8.35549E-08 2.71677E-08
 -1     10495 5.82009E-01-4.48683E-01-7.71540E-07-3.74421E-01-9.32162E-09-3.02175E-09
 -1     10496 5.11606E-01-3.78280E-01-7.42319E-07-4.44943E-01 8.61054E-10 3.61725E-10
 -1     10497 6.26618E-01-4.93286E-01 1.17144E-06-4.06829E-01 2.66746E-08 8.67374E-09
 -1     10502 5.82009E-01-4.48683E-01-7.43538E-07-3.74421E-01-3.92022E-15-1.36605E-14
 -1     10503 5.11606E-01-3.78280E-01-7.42319E-07-4.44943E-01-8.61017E-10-3.61723E-10
 -1     10504 6.26618E-01-4.93286E-01 1.17144E-06-4.06829E-01-2.66747E-08-8.67376E-09
 -1     10509 5.82009E-01-4.48683E-01-7.71540E-07-3.74421E-01 9.32165E-09 3.02175E-09
 -1     10510 5.11606E-01-3.78280E-01-7.89480E-07-4.44943E-01 1.69801E-08 7.01894E-09
 -1     10511 6.26618E-01-4.93286E-01 1.11901E-06-4.06829E-01-8.35549E-08-2.71677E-08
 -1     10516 5.82009E-01-4.48683E-01-8.55746E-07-3.74421E-01 7.24775E-08 2.35375E-08
 -1     10517 5.11606E-01-3.78280E-01-8.54202E-07-4.44943E-01 1.16864E-07 4.83856E-08
 -1     10518 6.26618E-01-4.93286E-01 9.57385E-07-4.06829E-01-1.40040E-07-4.55306E-08
 -1     10523 5.82009E-01-4.48684E-01-9.17571E-07-3.74421E-01 2.47659E-07 8.04589E-08
 -1     10524 5.11606E-01-3.78280E-01-8.65811E-07-4.44943E-01 3.63440E-07 1.50521E-07
 -1     10525 6.26618E-01-4.93286E-01 6.84590E-07-4.06829E-01-1.38867E-07-4.51518E-08
 -1     10530 5.82009E-01-4.48684E-01-6.88386E-07-3.74421E-01 4.05945E-07 1.31901E-07
 -1     10531 5.11606E-01-3.78281E-01-6.69970E-07-4.44943E-01 6.11711E-07 2.53381E-07
 -1     10532 6.26617E-01-4.93286E-01 3.31673E-07-4.06829E-01-1.14210E-07-3.71212E-08
 -1     10537 5.82009E-01-4.48683E-01-2.50196E-07-3.74421E-01 2.21410E-07 7.19352E-08
 -1     10541 6.72489E-01-5.39163E-01-2.50285E-07-1.96845E-01-2.29942E-07-3.64265E-08
 -1     10542 6.27324E-01-4.93998E-01-6.69915E-07-2.85671E-01-6.43799E-07-1.54558E-07
 -1     10543 7.24928E-01-5.91597E-01 3.31815E-07-2.13882E-01 1.18577E-07 1.87701E-08
 -1     10548 6.72489E-01-5.39163E-01-6.88397E-07-1.96845E-01-4.21540E-07-6.67594E-08
 -1     10549 6.27324E-01-4.93998E-01-8.65779E-07-2.85671E-01-3.82482E-07-9.18292E-08
 -1     10550 7.24928E-01-5.91597E-01 6.84607E-07-2.13882E-01 1.44144E-07 2.27994E-08
 -1     10555 6.72489E-01-5.39163E-01-9.17541E-07-1.96845E-01-2.57201E-07-4.07429E-08
 -1     10556 6.27324E-01-4.93998E-01-8.54161E-07-2.85671E-01-1.22957E-07-2.95226E-08
 -1     10557 7.24928E-01-5.91597E-01 9.57371E-07-2.13882E-01 1.45399E-07 2.30035E-08
 -1     10562 6.72489E-01-5.39163E-01-8.55766E-07-1.96845E-01-7.52886E-08-1.19335E-08
 -1     10563 6.27324E-01-4.93998E-01-7.89427E-07-2.85671E-01-1.78460E-08-4.28645E-09
 -1     10564 7.24929E-01-5.91597E-01 1.11902E-06-2.13883E-01 8.67566E-08 1.37245E-08
 -1     10569 6.72489E-01-5.39163E-01-7.71557E-07-1.96845E-01-9.68445E-09-1.53928E-09
 -1     10570 6.27324E-01-4.93998E-01-7.42261E-07-2.85671E-01 9.14971E-10 2.19040E-10
 -1     10571 7.24929E-01-5.91597E-01 1.17147E-06-2.13883E-01 2.76968E-08 4.38111E-09
 -1     10576 6.72489E-01-5.39163E-01-7.43552E-07-1.96845E-01-2.28795E-14-6.02466E-15
 -1     10577 6.27324E-01-4.93998E-01-7.42261E-07-2.85671E-01-9.14942E-10-2.19054E-10
 -1     10578 7.24929E-01-5.91597E-01 1.17147E-06-2.13883E-01-2.76969E-08-4.38112E-09
 -1     10583 6.72489E-01-5.39163E-01-7.71557E-07-1.96845E-01 9.68447E-09 1.53926E-09
 -1     10584 6.27324E-01-4.93998E-01-7.89427E-07-2.85671E-01 1.78460E-08 4.28643E-09
 -1     10585 7.24929E-01-5.91597E-01 1.11902E-06-2.13883E-01-8.67566E-08-1.37246E-08
 -1     10590 6.72489E-01-5.39163E-01-8.55766E-07-1.96845E-01 7.52886E-08 1.19335E-08
 -1     10591 6.27324E-01-4.93998E-01-8.54162E-07-2.85671E-01 1.22957E-07 2.95226E-08
 -1     10592 7.24928E-01-5.91597E-01 9.57371E-07-2.13882E-01-1.45399E-07-2.30035E-08
 -1     10597 6.72489E-01-5.39163E-01-9.17541E-07-1.96845E-01 2.57201E-07 4.07429E-08
 -1     10598 6.27324E-01-4.93998E-01-8.65779E-07-2.85671E-01 3.82482E-07 9.18292E-08
 -1     10599 7.24928E-01-5.91597E-01 6.84607E-07-2.13882E-01-1.44144E-07-2.27994E-08
 -1     10604 6.72489E-01-5.39163E-01-6.88397E-07-1.96845E-01 4.21540E-07 6.67594E-08
 -1     10605 6.27324E-01-4.93998E-01-6.69915E-07-2.85671E-01 6.43799E-07 1.54558E-07
 -1     10606 7.24928E-01-5.91597E-01 3.31815E-07-2.13882E-01-1.18577E-07-1.87701E-08
 -1     10611 6.72489E-01-5.39163E-01-2.50285E-07-1.96845E-01 2.29942E-07 3.64265E-08
 -1     10615 6.88160E-01-5.54835E-01-6.69964E-07-9.84355E-02-6.60063E-07-5.19577E-08
 -1     10619 6.88160E-01-5.54835E-01-8.65798E-07-9.84355E-02-3.92155E-07-3.08695E-08
 -1     10623 6.88160E-01-5.54834E-01-8.54190E-07-9.84355E-02-1.26087E-07-9.92868E-09
 -1     10627 6.88160E-01-5.54834E-01-7.89468E-07-9.84355E-02-1.83111E-08-1.44454E-09
 -1     10631 6.88160E-01-5.54834E-01-7.42306E-07-9.84355E-02 9.33193E-10 7.22566E-11
 -1     10635 6.88160E-01-5.54834E-01-7.42306E-07-9.84355E-02-9.33214E-10-7.22596E-11
 -1     10639 6.88160E-01-5.54834E-01-7.89468E-07-9.84355E-02 1.83111E-08 1.44453E-09
 -1     10643 6.88160E-01-5.54834E-01-8.54190E-07-9.84355E-02 1.26087E-07 9.92867E-09
 -1     10647 6.88160E-01-5.54835E-01-8.65798E-07-9.84355E-02 3.92155E-07 3.08695E-08
 -1     10651 6.88160E-01-5.54835E-01-6.69964E-07-9.84355E-02 6.60063E-07 5.19577E-08
 -1     10657-4.55915E-01 5.89244E-01 1.08986E-07-1.69796E-01 1.21029E-08 7.64150E-08
 -1     10658-4.69445E-01 6.02774E-01 1.85047E-07-8.49114E-02 1.34698E-08 1.71150E-07
 -1     10659-4.97571E-01 6.30898E-01-1.07336E-07-1.83331E-01-1.11908E-08-7.06566E-08
 -1     10664-4.55915E-01 5.89244E-01 1.64504E-07-1.69796E-01 1.32690E-08 8.37771E-08
 -1     10665-4.69445E-01 6.02774E-01 2.28692E-07-8.49114E-02 7.33954E-09 9.32577E-08
 -1     10666-4.97571E-01 6.30898E-01-2.08691E-07-1.83331E-01-7.29616E-09-4.60663E-08
 -1     10671-4.55915E-01 5.89244E-01 2.04043E-07-1.69796E-01 9.31895E-09 5.88374E-08
 -1     10672-4.69445E-01 6.02774E-01 1.98252E-07-8.49114E-02 2.69640E-09 3.42611E-08
 -1     10673-4.97571E-01 6.30898E-01-2.44223E-07-1.83331E-01-7.61750E-09-4.80952E-08
 -1     10678-4.55915E-01 5.89244E-01 2.03201E-07-1.69796E-01 3.17377E-09 2.00382E-08
 -1     10679-4.69445E-01 6.02774E-01 1.77620E-07-8.49114E-02 3.04871E-11 3.87406E-10
 -1     10680-4.97571E-01 6.30898E-01-2.82934E-07-1.83331E-01-4.33742E-09-2.73856E-08
 -1     10685-4.55915E-01 5.89244E-01 1.79293E-07-1.69796E-01-2.96265E-11-1.87110E-10
 -1     10686-4.69445E-01 6.02774E-01 1.64836E-07-8.49114E-02-2.57210E-10-3.26815E-09
 -1     10687-4.97571E-01 6.30898E-01-2.98666E-07-1.83331E-01-1.23522E-09-7.79895E-09
 -1     10692-4.55915E-01 5.89244E-01 1.68198E-07-1.69796E-01 1.10774E-15-1.22734E-14
 -1     10693-4.69445E-01 6.02774E-01 1.64836E-07-8.49114E-02 2.57200E-10 3.26815E-09
 -1     10694-4.97571E-01 6.30898E-01-2.98666E-07-1.83331E-01 1.23522E-09 7.79895E-09
 -1     10699-4.55915E-01 5.89244E-01 1.79293E-07-1.69796E-01 2.96256E-11 1.87135E-10
 -1     10700-4.69445E-01 6.02774E-01 1.77620E-07-8.49114E-02-3.04996E-11-3.87391E-10
 -1     10701-4.97571E-01 6.30898E-01-2.82934E-07-1.83331E-01 4.33742E-09 2.73856E-08
 -1     10706-4.55915E-01 5.89244E-01 2.03201E-07-1.69796E-01-3.17377E-09-2.00382E-08
 -1     10707-4.69445E-01 6.02774E-01 1.98252E-07-8.49114E-02-2.69642E-09-3.42611E-08
 -1     10708-4.97571E-01 6.30898E-01-2.44223E-07-1.83331E-01 7.61750E-09 4.80953E-08
 -1     10713-4.55915E-01 5.89244E-01 2.04043E-07-1.69796E-01-9.31895E-09-5.88374E-08
 -1     10714-4.69445E-01 6.02774E-01 2.28692E-07-8.49114E-02-7.33956E-09-9.32577E-08
 -1     10715-4.97571E-01 6.30898E-01-2.08691E-07-1.83331E-01 7.29616E-09 4.60664E-08
 -1     10720-4.55915E-01 5.89244E-01 1.64504E-07-1.69796E-01-1.32690E-08-8.37770E-08
 -1     10721-4.69445E-01 6.02774E-01 1.85047E-07-8.49114E-02-1.34698E-08-1.71150E-07
 -1     10722-4.97571E-01 6.30898E-01-1.07336E-07-1.83331E-01 1.11908E-08 7.06566E-08
 -1     10727-4.55915E-01 5.89244E-01 1.08986E-07-1.69796E-01-1.21029E-08-7.64150E-08
 -1     10731-3.77868E-01 5.11197E-01 1.08986E-07-3.22972E-01 2.39077E-08 7.35808E-08
 -1     10732-4.16967E-01 5.50296E-01 1.85047E-07-2.46423E-01 4.00777E-08 1.66936E-07
 -1     10733-4.13303E-01 5.46630E-01-1.07336E-07-3.48716E-01-2.21063E-08-6.80364E-08
 -1     10738-3.77868E-01 5.11197E-01 1.64504E-07-3.22972E-01 2.62111E-08 8.06700E-08
 -1     10739-4.16967E-01 5.50296E-01 2.28692E-07-2.46423E-01 2.18379E-08 9.09613E-08
 -1     10740-4.13303E-01 5.46630E-01-2.08690E-07-3.48716E-01-1.44128E-08-4.43580E-08
 -1     10745-3.77868E-01 5.11197E-01 2.04043E-07-3.22972E-01 1.84083E-08 5.66552E-08
 -1     10746-4.16967E-01 5.50296E-01 1.98252E-07-2.46423E-01 8.02282E-09 3.34174E-08
 -1     10747-4.13303E-01 5.46630E-01-2.44223E-07-3.48716E-01-1.50476E-08-4.63116E-08
 -1     10752-3.77868E-01 5.11197E-01 2.03201E-07-3.22972E-01 6.26933E-09 1.92950E-08
 -1     10753-4.16967E-01 5.50296E-01 1.77620E-07-2.46423E-01 9.07156E-11 3.77830E-10
 -1     10754-4.13303E-01 5.46630E-01-2.82933E-07-3.48716E-01-8.56814E-09-2.63700E-08
 -1     10759-3.77868E-01 5.11197E-01 1.79293E-07-3.22972E-01-5.85475E-11-1.80207E-10
 -1     10760-4.16967E-01 5.50296E-01 1.64836E-07-2.46423E-01-7.65291E-10-3.18766E-09
 -1     10761-4.13303E-01 5.46630E-01-2.98666E-07-3.48716E-01-2.44006E-09-7.50969E-09
 -1     10766-3.77868E-01 5.11197E-01 1.68197E-07-3.22972E-01 9.42040E-15 4.32155E-14
 -1     10767-4.16967E-01 5.50296E-01 1.64836E-07-2.46423E-01 7.65302E-10 3.18770E-09
 -1     10768-4.13303E-01 5.46630E-01-2.98666E-07-3.48716E-01 2.44005E-09 7.50977E-09
 -1     10773-3.77868E-01 5.11197E-01 1.79293E-07-3.22972E-01 5.85563E-11 1.80236E-10
 -1     10774-4.16967E-01 5.50296E-01 1.77620E-07-2.46423E-01-9.07035E-11-3.77831E-10
 -1     10775-4.13303E-01 5.46630E-01-2.82933E-07-3.48716E-01 8.56813E-09 2.63700E-08
 -1     10780-3.77868E-01 5.11197E-01 2.03201E-07-3.22972E-01-6.26933E-09-1.92950E-08
 -1     10781-4.16967E-01 5.50296E-01 1.98252E-07-2.46423E-01-8.02281E-09-3.34174E-08
 -1     10782-4.13303E-01 5.46630E-01-2.44223E-07-3.48716E-01 1.50476E-08 4.63116E-08
 -1     10787-3.77868E-01 5.11197E-01 2.04043E-07-3.22972E-01-1.84083E-08-5.66552E-08
 -1     10788-4.16967E-01 5.50296E-01 2.28692E-07-2.46423E-01-2.18379E-08-9.09613E-08
 -1     10789-4.13303E-01 5.46630E-01-2.08690E-07-3.48716E-01 1.44128E-08 4.43580E-08
 -1     10794-3.77868E-01 5.11197E-01 1.64504E-07-3.22972E-01-2.62111E-08-8.06700E-08
 -1     10795-4.16967E-01 5.50296E-01 1.85047E-07-2.46423E-01-4.00777E-08-1.66936E-07
 -1     10796-4.13303E-01 5.46630E-01-1.07336E-07-3.48716E-01 2.21063E-08 6.80363E-08
 -1     10801-3.77868E-01 5.11197E-01 1.08986E-07-3.22972E-01-2.39077E-08-7.35809E-08
 -1     10805-2.56308E-01 3.89636E-01 1.08986E-07-4.44533E-01 3.51240E-08 6.89350E-08
 -1     10806-3.17148E-01 4.50476E-01 1.85047E-07-3.83812E-01 6.56988E-08 1.58611E-07
 -1     10807-2.82053E-01 4.15380E-01-1.07335E-07-4.79967E-01-3.24771E-08-6.37406E-08
 -1     10812-2.56308E-01 3.89636E-01 1.64503E-07-4.44533E-01 3.85079E-08 7.55764E-08
 -1     10813-3.17148E-01 4.50476E-01 2.28692E-07-3.83812E-01 3.57985E-08 8.64252E-08
 -1     10814-2.82053E-01 4.15380E-01-2.08689E-07-4.79967E-01-2.11744E-08-4.15575E-08
 -1     10819-2.56308E-01 3.89636E-01 2.04042E-07-4.44533E-01 2.70445E-08 5.30779E-08
 -1     10820-3.17148E-01 4.50476E-01 1.98252E-07-3.83812E-01 1.31517E-08 3.17509E-08
 -1     10821-2.82053E-01 4.15380E-01-2.44222E-07-4.79967E-01-2.21070E-08-4.33876E-08
 -1     10826-2.56308E-01 3.89636E-01 2.03200E-07-4.44533E-01 9.21048E-09 1.80766E-08
 -1     10827-3.17148E-01 4.50476E-01 1.77620E-07-3.83812E-01 1.48685E-10 3.58955E-10
 -1     10828-2.82053E-01 4.15380E-01-2.82933E-07-4.79967E-01-1.25878E-08-2.47051E-08
 -1     10833-2.56308E-01 3.89636E-01 1.79293E-07-4.44533E-01-8.60587E-11-1.68927E-10
 -1     10834-3.17148E-01 4.50476E-01 1.64836E-07-3.83812E-01-1.25454E-09-3.02871E-09
 -1     10835-2.82053E-01 4.15380E-01-2.98665E-07-4.79967E-01-3.58480E-09-7.03559E-09
 -1     10840-2.56308E-01 3.89636E-01 1.68197E-07-4.44533E-01-5.56683E-15 3.23833E-15
 -1     10841-3.17148E-01 4.50476E-01 1.64836E-07-3.83812E-01 1.25453E-09 3.02873E-09
 -1     10842-2.82053E-01 4.15380E-01-2.98665E-07-4.79967E-01 3.58478E-09 7.03556E-09
 -1     10847-2.56308E-01 3.89636E-01 1.79293E-07-4.44533E-01 8.60228E-11 1.68883E-10
 -1     10848-3.17148E-01 4.50476E-01 1.77620E-07-3.83812E-01-1.48695E-10-3.58964E-10
 -1     10849-2.82053E-01 4.15380E-01-2.82933E-07-4.79967E-01 1.25878E-08 2.47051E-08
 -1     10854-2.56308E-01 3.89636E-01 2.03200E-07-4.44533E-01-9.21052E-09-1.80766E-08
 -1     10855-3.17148E-01 4.50476E-01 1.98252E-07-3.83812E-01-1.31517E-08-3.17509E-08
 -1     10856-2.82053E-01 4.15380E-01-2.44222E-07-4.79967E-01 2.21069E-08 4.33876E-08
 -1     10861-2.56308E-01 3.89636E-01 2.04042E-07-4.44533E-01-2.70445E-08-5.30779E-08
 -1     10862-3.17148E-01 4.50476E-01 2.28692E-07-3.83812E-01-3.57986E-08-8.64252E-08
 -1     10863-2.82053E-01 4.15380E-01-2.08689E-07-4.79967E-01 2.11743E-08 4.15575E-08
 -1     10868-2.56308E-01 3.89636E-01 1.64503E-07-4.44533E-01-3.85079E-08-7.55764E-08
 -1     10869-3.17148E-01 4.50476E-01 1.85047E-07-3.83812E-01-6.56988E-08-1.58611E-07
 -1     10870-2.82053E-01 4.15380E-01-1.07335E-07-4.79967E-01 3.24772E-08 6.37406E-08
 -1     10875-2.56308E-01 3.89636E-01 1.08986E-07-4.44533E-01-3.51240E-08-6.89350E-08
 -1     10879-1.03132E-01 2.36461E-01 1.08985E-07-5.22580E-01 4.54756E-08 6.25916E-08
 -1     10880-1.79758E-01 3.13087E-01 1.85047E-07-4.83632E-01 8.97020E-08 1.46381E-07
 -1     10881-1.16667E-01 2.49994E-01-1.07334E-07-5.64235E-01-4.20488E-08-5.78758E-08
 -1     10886-1.03132E-01 2.36461E-01 1.64502E-07-5.22580E-01 4.98566E-08 6.86221E-08
 -1     10887-1.79758E-01 3.13087E-01 2.28692E-07-4.83632E-01 4.88776E-08 7.97609E-08
 -1     10888-1.16668E-01 2.49994E-01-2.08688E-07-5.64235E-01-2.74150E-08-3.77337E-08
 -1     10893-1.03132E-01 2.36461E-01 2.04041E-07-5.22580E-01 3.50146E-08 4.81939E-08
 -1     10894-1.79758E-01 3.13087E-01 1.98252E-07-4.83632E-01 1.79566E-08 2.93025E-08
 -1     10895-1.16667E-01 2.49994E-01-2.44220E-07-5.64235E-01-2.86224E-08-3.93955E-08
 -1     10900-1.03132E-01 2.36461E-01 2.03199E-07-5.22580E-01 1.19249E-08 1.64133E-08
 -1     10901-1.79758E-01 3.13087E-01 1.77620E-07-4.83632E-01 2.02939E-10 3.31167E-10
 -1     10902-1.16667E-01 2.49995E-01-2.82931E-07-5.64235E-01-1.62977E-08-2.24319E-08
 -1     10907-1.03132E-01 2.36461E-01 1.79291E-07-5.22580E-01-1.11450E-10-1.53361E-10
 -1     10908-1.79758E-01 3.13087E-01 1.64836E-07-4.83632E-01-1.71291E-09-2.79522E-09
 -1     10909-1.16667E-01 2.49995E-01-2.98664E-07-5.64235E-01-4.64130E-09-6.38825E-09
 -1     10914-1.03132E-01 2.36461E-01 1.68195E-07-5.22580E-01-4.98885E-15 2.36059E-15
 -1     10915-1.79758E-01 3.13087E-01 1.64836E-07-4.83632E-01 1.71289E-09 2.79522E-09
 -1     10916-1.16667E-01 2.49995E-01-2.98664E-07-5.64235E-01 4.64131E-09 6.38826E-09
 -1     10921-1.03132E-01 2.36461E-01 1.79291E-07-5.22580E-01 1.11444E-10 1.53363E-10
 -1     10922-1.79758E-01 3.13087E-01 1.77620E-07-4.83632E-01-2.02959E-10-3.31179E-10
 -1     10923-1.16667E-01 2.49995E-01-2.82931E-07-5.64235E-01 1.62977E-08 2.24320E-08
 -1     10928-1.03132E-01 2.36461E-01 2.03199E-07-5.22580E-01-1.19249E-08-1.64133E-08
 -1     10929-1.79758E-01 3.13087E-01 1.98252E-07-4.83632E-01-1.79567E-08-2.93025E-08
 -1     10930-1.16667E-01 2.49994E-01-2.44220E-07-5.64235E-01 2.86224E-08 3.93955E-08
 -1     10935-1.03132E-01 2.36461E-01 2.04041E-07-5.22580E-01-3.50146E-08-4.81939E-08
 -1     10936-1.79758E-01 3.13087E-01 2.28692E-07-4.83632E-01-4.88776E-08-7.97609E-08
 -1     10937-1.16668E-01 2.49994E-01-2.08688E-07-5.64235E-01 2.74150E-08 3.77338E-08
 -1     10942-1.03132E-01 2.36461E-01 1.64502E-07-5.22580E-01-4.98566E-08-6.86220E-08
 -1     10943-1.79758E-01 3.13087E-01 1.85047E-07-4.83632E-01-8.97020E-08-1.46381E-07
 -1     10944-1.16667E-01 2.49994E-01-1.07334E-07-5.64235E-01 4.20488E-08 5.78758E-08
 -1     10949-1.03132E-01 2.36461E-01 1.08985E-07-5.22580E-01-4.54756E-08-6.25916E-08
 -1     10953 6.66642E-02 6.66642E-02 1.08981E-07-5.49473E-01 5.47074E-08 5.47047E-08
 -1     10954-1.82471E-02 1.51576E-01 1.85048E-07-5.36110E-01 1.11496E-07 1.30546E-07
 -1     10955 6.66635E-02 6.66635E-02-1.07332E-07-5.93272E-01-5.05843E-08-5.05848E-08
 -1     10960 6.66643E-02 6.66643E-02 1.64498E-07-5.49473E-01 5.99778E-08 5.99760E-08
 -1     10961-1.82471E-02 1.51576E-01 2.28692E-07-5.36110E-01 6.07529E-08 7.11323E-08
 -1     10962 6.66635E-02 6.66635E-02-2.08687E-07-5.93272E-01-3.29796E-08-3.29822E-08
 -1     10967 6.66643E-02 6.66643E-02 2.04037E-07-5.49473E-01 4.21225E-08 4.21209E-08
 -1     10968-1.82472E-02 1.51576E-01 1.98252E-07-5.36110E-01 2.23192E-08 2.61320E-08
 -1     10969 6.66635E-02 6.66635E-02-2.44221E-07-5.93271E-01-3.44318E-08-3.44341E-08
 -1     10974 6.66643E-02 6.66643E-02 2.03195E-07-5.49473E-01 1.43455E-08 1.43443E-08
 -1     10975-1.82472E-02 1.51576E-01 1.77620E-07-5.36110E-01 2.52235E-10 2.94953E-10
 -1     10976 6.66635E-02 6.66635E-02-2.82931E-07-5.93271E-01-1.96058E-08-1.96073E-08
 -1     10981 6.66643E-02 6.66643E-02 1.79287E-07-5.49473E-01-1.33991E-10-1.34726E-10
 -1     10982-1.82472E-02 1.51576E-01 1.64836E-07-5.36110E-01-2.12912E-09-2.49297E-09
 -1     10983 6.66635E-02 6.66635E-02-2.98664E-07-5.93271E-01-5.58343E-09-5.58389E-09
 -1     10988 6.66643E-02 6.66643E-02 1.68191E-07-5.49473E-01-2.36538E-14 2.95740E-14
 -1     10989-1.82472E-02 1.51576E-01 1.64836E-07-5.36110E-01 2.12911E-09 2.49300E-09
 -1     10990 6.66635E-02 6.66635E-02-2.98664E-07-5.93271E-01 5.58342E-09 5.58391E-09
 -1     10995 6.66643E-02 6.66643E-02 1.79287E-07-5.49473E-01 1.34006E-10 1.34719E-10
 -1     10996-1.82472E-02 1.51576E-01 1.77620E-07-5.36110E-01-2.52212E-10-2.94973E-10
 -1     10997 6.66635E-02 6.66635E-02-2.82931E-07-5.93271E-01 1.96058E-08 1.96072E-08
 -1     11002 6.66643E-02 6.66643E-02 2.03195E-07-5.49473E-01-1.43455E-08-1.43443E-08
 -1     11003-1.82472E-02 1.51576E-01 1.98252E-07-5.36110E-01-2.23192E-08-2.61320E-08
 -1     11004 6.66635E-02 6.66635E-02-2.44221E-07-5.93271E-01 3.44318E-08 3.44341E-08
 -1     11009 6.66643E-02 6.66643E-02 2.04037E-07-5.49473E-01-4.21225E-08-4.21209E-08
 -1     11010-1.82471E-02 1.51576E-01 2.28693E-07-5.36110E-01-6.07529E-08-7.11323E-08
 -1     11011 6.66635E-02 6.66635E-02-2.08687E-07-5.93272E-01 3.29796E-08 3.29822E-08
 -1     11016 6.66643E-02 6.66643E-02 1.64498E-07-5.49473E-01-5.99778E-08-5.99760E-08
 -1     11017-1.82471E-02 1.51576E-01 1.85048E-07-5.36110E-01-1.11496E-07-1.30546E-07
 -1     11018 6.66635E-02 6.66635E-02-1.07332E-07-5.93272E-01 5.05843E-08 5.05848E-08
 -1     11023 6.66642E-02 6.66642E-02 1.08981E-07-5.49473E-01-5.47074E-08-5.47047E-08
 -1     11027 2.36461E-01-1.03132E-01 1.08991E-07-5.22580E-01 6.25895E-08 4.54736E-08
 -1     11028 1.51576E-01-1.82471E-02 1.85048E-07-5.36110E-01 1.30543E-07 1.11495E-07
 -1     11029 2.49994E-01-1.16667E-01-1.07338E-07-5.64235E-01-5.78767E-08-4.20550E-08
 -1     11034 2.36461E-01-1.03132E-01 1.64499E-07-5.22580E-01 6.86183E-08 4.98496E-08
 -1     11035 1.51576E-01-1.82471E-02 2.28693E-07-5.36110E-01 7.11308E-08 6.07503E-08
 -1     11036 2.49994E-01-1.16668E-01-2.08700E-07-5.64235E-01-3.77386E-08-2.74238E-08
 -1     11041 2.36461E-01-1.03132E-01 2.04035E-07-5.22580E-01 4.81908E-08 3.50096E-08
 -1     11042 1.51576E-01-1.82472E-02 1.98251E-07-5.36110E-01 2.61312E-08 2.23167E-08
 -1     11043 2.49994E-01-1.16667E-01-2.44235E-07-5.64235E-01-3.94021E-08-2.86339E-08
 -1     11048 2.36461E-01-1.03132E-01 2.03193E-07-5.22580E-01 1.64101E-08 1.19204E-08
 -1     11049 1.51576E-01-1.82472E-02 1.77618E-07-5.36110E-01 2.94026E-10 2.49821E-10
 -1     11050 2.49995E-01-1.16667E-01-2.82950E-07-5.64235E-01-2.24356E-08-1.63059E-08
 -1     11055 2.36461E-01-1.03132E-01 1.79282E-07-5.22580E-01-1.55763E-10-1.14365E-10
 -1     11056 1.51576E-01-1.82472E-02 1.64834E-07-5.36110E-01-2.49329E-09-2.12992E-09
 -1     11057 2.49995E-01-1.16667E-01-2.98684E-07-5.64235E-01-6.38951E-09-4.64430E-09
 -1     11062 2.36461E-01-1.03132E-01 1.68185E-07-5.22580E-01 1.98772E-14-3.73260E-15
 -1     11063 1.51576E-01-1.82472E-02 1.64834E-07-5.36110E-01 2.49327E-09 2.12994E-09
 -1     11064 2.49995E-01-1.16667E-01-2.98684E-07-5.64235E-01 6.38950E-09 4.64432E-09
 -1     11069 2.36461E-01-1.03132E-01 1.79282E-07-5.22580E-01 1.55753E-10 1.14384E-10
 -1     11070 1.51576E-01-1.82472E-02 1.77618E-07-5.36110E-01-2.94006E-10-2.49822E-10
 -1     11071 2.49995E-01-1.16667E-01-2.82950E-07-5.64235E-01 2.24356E-08 1.63059E-08
 -1     11076 2.36461E-01-1.03132E-01 2.03193E-07-5.22580E-01-1.64101E-08-1.19204E-08
 -1     11077 1.51576E-01-1.82472E-02 1.98251E-07-5.36110E-01-2.61312E-08-2.23167E-08
 -1     11078 2.49994E-01-1.16667E-01-2.44235E-07-5.64235E-01 3.94021E-08 2.86339E-08
 -1     11083 2.36461E-01-1.03132E-01 2.04035E-07-5.22580E-01-4.81907E-08-3.50096E-08
 -1     11084 1.51576E-01-1.82471E-02 2.28693E-07-5.36110E-01-7.11308E-08-6.07503E-08
 -1     11085 2.49994E-01-1.16668E-01-2.08700E-07-5.64235E-01 3.77386E-08 2.74238E-08
 -1     11090 2.36461E-01-1.03132E-01 1.64499E-07-5.22580E-01-6.86183E-08-4.98496E-08
 -1     11091 1.51576E-01-1.82471E-02 1.85048E-07-5.36110E-01-1.30543E-07-1.11495E-07
 -1     11092 2.49994E-01-1.16667E-01-1.07338E-07-5.64235E-01 5.78767E-08 4.20550E-08
 -1     11097 2.36461E-01-1.03132E-01 1.08991E-07-5.22580E-01-6.25895E-08-4.54736E-08
 -1     11101 3.89636E-01-2.56308E-01 1.08977E-07-4.44533E-01 6.89255E-08 3.51214E-08
 -1     11102 3.13087E-01-1.79758E-01 1.85050E-07-4.83632E-01 1.46382E-07 8.97027E-08
 -1     11103 4.15380E-01-2.82053E-01-1.07361E-07-4.79967E-01-6.37641E-08-3.24843E-08
 -1     11108 3.89636E-01-2.56308E-01 1.64510E-07-4.44533E-01 7.55718E-08 3.85110E-08
 -1     11109 3.13087E-01-1.79758E-01 2.28687E-07-4.83632E-01 7.97547E-08 4.88742E-08
 -1     11110 4.15380E-01-2.82053E-01-2.08705E-07-4.79967E-01-4.15809E-08-2.11790E-08
 -1     11115 3.89636E-01-2.56308E-01 2.04043E-07-4.44533E-01 5.30668E-08 2.70429E-08
 -1     11116 3.13087E-01-1.79758E-01 1.98245E-07-4.83632E-01 2.92948E-08 1.79512E-08
 -1     11117 4.15380E-01-2.82053E-01-2.44240E-07-4.79967E-01-4.34038E-08-2.21072E-08
 -1     11122 3.89636E-01-2.56308E-01 2.03191E-07-4.44533E-01 1.80686E-08 9.20952E-09
 -1     11123 3.13087E-01-1.79758E-01 1.77611E-07-4.83632E-01 3.27087E-10 2.00326E-10
 -1     11124 4.15380E-01-2.82053E-01-2.82951E-07-4.79967E-01-2.47204E-08-1.25893E-08
 -1     11129 3.89636E-01-2.56308E-01 1.79286E-07-4.44533E-01-1.71617E-10-8.57141E-11
 -1     11130 3.13087E-01-1.79758E-01 1.64827E-07-4.83632E-01-2.79695E-09-1.71398E-09
 -1     11131 4.15380E-01-2.82053E-01-2.98687E-07-4.79967E-01-7.04113E-09-3.58529E-09
 -1     11136 3.89636E-01-2.56308E-01 1.68190E-07-4.44533E-01 1.63968E-14-3.85666E-15
 -1     11137 3.13087E-01-1.79758E-01 1.64827E-07-4.83632E-01 2.79696E-09 1.71398E-09
 -1     11138 4.15380E-01-2.82053E-01-2.98687E-07-4.79967E-01 7.04118E-09 3.58529E-09
 -1     11143 3.89636E-01-2.56308E-01 1.79286E-07-4.44533E-01 1.71602E-10 8.57265E-11
 -1     11144 3.13087E-01-1.79758E-01 1.77611E-07-4.83632E-01-3.27083E-10-2.00308E-10
 -1     11145 4.15380E-01-2.82053E-01-2.82951E-07-4.79967E-01 2.47204E-08 1.25894E-08
 -1     11150 3.89636E-01-2.56308E-01 2.03191E-07-4.44533E-01-1.80686E-08-9.20953E-09
 -1     11151 3.13087E-01-1.79758E-01 1.98245E-07-4.83632E-01-2.92948E-08-1.79512E-08
 -1     11152 4.15380E-01-2.82053E-01-2.44240E-07-4.79967E-01 4.34038E-08 2.21072E-08
 -1     11157 3.89636E-01-2.56308E-01 2.04043E-07-4.44533E-01-5.30668E-08-2.70429E-08
 -1     11158 3.13087E-01-1.79758E-01 2.28687E-07-4.83632E-01-7.97547E-08-4.88742E-08
 -1     11159 4.15380E-01-2.82053E-01-2.08705E-07-4.79967E-01 4.15809E-08 2.11790E-08
 -1     11164 3.89636E-01-2.56308E-01 1.64510E-07-4.44533E-01-7.55718E-08-3.85111E-08
 -1     11165 3.13087E-01-1.79758E-01 1.85050E-07-4.83632E-01-1.46382E-07-8.97028E-08
 -1     11166 4.15380E-01-2.82053E-01-1.07361E-07-4.79967E-01 6.37641E-08 3.24843E-08
 -1     11171 3.89636E-01-2.56308E-01 1.08977E-07-4.44533E-01-6.89255E-08-3.51214E-08
 -1     11175 5.11197E-01-3.77868E-01 1.08996E-07-3.22972E-01 7.35884E-08 2.39124E-08
 -1     11176 4.50476E-01-3.17148E-01 1.85046E-07-3.83812E-01 1.58610E-07 6.57011E-08
 -1     11177 5.46630E-01-4.13303E-01-1.07314E-07-3.48716E-01-6.80133E-08-2.20938E-08
 -1     11182 5.11197E-01-3.77868E-01 1.64498E-07-3.22972E-01 8.06708E-08 2.62165E-08
 -1     11183 4.50476E-01-3.17148E-01 2.28692E-07-3.83812E-01 8.64246E-08 3.58003E-08
 -1     11184 5.46630E-01-4.13303E-01-2.08680E-07-3.48716E-01-4.43373E-08-1.43988E-08
 -1     11189 5.11197E-01-3.77868E-01 2.04044E-07-3.22972E-01 5.66645E-08 1.84152E-08
 -1     11190 4.50476E-01-3.17148E-01 1.98252E-07-3.83812E-01 3.17494E-08 1.31556E-08
 -1     11191 5.46630E-01-4.13303E-01-2.44210E-07-3.48716E-01-4.62995E-08-1.50358E-08
 -1     11196 5.11197E-01-3.77868E-01 2.03213E-07-3.22972E-01 1.93017E-08 6.27443E-09
 -1     11197 4.50476E-01-3.17148E-01 1.77620E-07-3.83812E-01 3.58003E-10 1.51258E-10
 -1     11198 5.46630E-01-4.13303E-01-2.82920E-07-3.48716E-01-2.63578E-08-8.55818E-09
 -1     11203 5.11197E-01-3.77868E-01 1.79302E-07-3.22972E-01-1.78384E-10-5.63466E-11
 -1     11204 4.50476E-01-3.17148E-01 1.64837E-07-3.83812E-01-3.02907E-09-1.25364E-09
 -1     11205 5.46630E-01-4.13303E-01-2.98649E-07-3.48716E-01-7.50533E-09-2.43639E-09
 -1     11210 5.11197E-01-3.77868E-01 1.68207E-07-3.22972E-01-3.88515E-15 6.00725E-16
 -1     11211 4.50476E-01-3.17148E-01 1.64837E-07-3.83812E-01 3.02907E-09 1.25363E-09
 -1     11212 5.46630E-01-4.13303E-01-2.98649E-07-3.48716E-01 7.50534E-09 2.43638E-09
 -1     11217 5.11197E-01-3.77868E-01 1.79302E-07-3.22972E-01 1.78421E-10 5.63387E-11
 -1     11218 4.50476E-01-3.17148E-01 1.77620E-07-3.83812E-01-3.57998E-10-1.51258E-10
 -1     11219 5.46630E-01-4.13303E-01-2.82920E-07-3.48716E-01 2.63578E-08 8.55817E-09
 -1     11224 5.11197E-01-3.77868E-01 2.03213E-07-3.22972E-01-1.93017E-08-6.27444E-09
 -1     11225 4.50476E-01-3.17148E-01 1.98252E-07-3.83812E-01-3.17494E-08-1.31556E-08
 -1     11226 5.46630E-01-4.13303E-01-2.44210E-07-3.48716E-01 4.62995E-08 1.50358E-08
 -1     11231 5.11197E-01-3.77868E-01 2.04044E-07-3.22972E-01-5.66645E-08-1.84152E-08
 -1     11232 4.50476E-01-3.17148E-01 2.28692E-07-3.83812E-01-8.64246E-08-3.58003E-08
 -1     11233 5.46630E-01-4.13303E-01-2.08680E-07-3.48716E-01 4.43373E-08 1.43988E-08
 -1     11238 5.11197E-01-3.77868E-01 1.64498E-07-3.22972E-01-8.06708E-08-2.62165E-08
 -1     11239 4.50476E-01-3.17148E-01 1.85046E-07-3.83812E-01-1.58610E-07-6.57011E-08
 -1     11240 5.46630E-01-4.13303E-01-1.07314E-07-3.48716E-01 6.80133E-08 2.20938E-08
 -1     11245 5.11197E-01-3.77868E-01 1.08996E-07-3.22972E-01-7.35884E-08-2.39124E-08
 -1     11249 5.89244E-01-4.55915E-01 1.08983E-07-1.69796E-01 7.64166E-08 1.21031E-08
 -1     11250 5.50296E-01-4.16967E-01 1.85042E-07-2.46423E-01 1.66935E-07 4.00770E-08
 -1     11251 6.30898E-01-4.97571E-01-1.07338E-07-1.83331E-01-7.06496E-08-1.11936E-08
 -1     11256 5.89244E-01-4.55915E-01 1.64511E-07-1.69796E-01 8.37844E-08 1.32663E-08
 -1     11257 5.50296E-01-4.16967E-01 2.28697E-07-2.46423E-01 9.09686E-08 2.18401E-08
 -1     11258 6.30898E-01-4.97571E-01-2.08686E-07-1.83331E-01-4.60552E-08-7.29839E-09
 -1     11263 5.89244E-01-4.55915E-01 2.04053E-07-1.69796E-01 5.88435E-08 9.31715E-09
 -1     11264 5.50296E-01-4.16967E-01 1.98259E-07-2.46423E-01 3.34271E-08 8.02457E-09
 -1     11265 6.30898E-01-4.97571E-01-2.44216E-07-1.83331E-01-4.80810E-08-7.62057E-09
 -1     11270 5.89244E-01-4.55915E-01 2.03212E-07-1.69796E-01 2.00440E-08 3.17271E-09
 -1     11271 5.50296E-01-4.16967E-01 1.77630E-07-2.46423E-01 3.82966E-10 9.18462E-11
 -1     11272 6.30898E-01-4.97571E-01-2.82922E-07-1.83331E-01-2.73765E-08-4.34040E-09
 -1     11277 5.89244E-01-4.55915E-01 1.79307E-07-1.69796E-01-1.83132E-10-3.00432E-11
 -1     11278 5.50296E-01-4.16967E-01 1.64847E-07-2.46423E-01-3.18557E-09-7.64797E-10
 -1     11279 6.30898E-01-4.97571E-01-2.98653E-07-1.83331E-01-7.79565E-09-1.23640E-09
 -1     11284 5.89244E-01-4.55915E-01 1.68213E-07-1.69796E-01 2.88972E-14-6.48670E-15
 -1     11285 5.50296E-01-4.16967E-01 1.64847E-07-2.46423E-01 3.18557E-09 7.64785E-10
 -1     11286 6.30898E-01-4.97571E-01-2.98653E-07-1.83331E-01 7.79565E-09 1.23639E-09
 -1     11291 5.89244E-01-4.55915E-01 1.79307E-07-1.69796E-01 1.83101E-10 3.00353E-11
 -1     11292 5.50296E-01-4.16967E-01 1.77630E-07-2.46423E-01-3.82940E-10-9.18489E-11
 -1     11293 6.30898E-01-4.97571E-01-2.82922E-07-1.83331E-01 2.73765E-08 4.34040E-09
 -1     11298 5.89244E-01-4.55915E-01 2.03212E-07-1.69796E-01-2.00440E-08-3.17271E-09
 -1     11299 5.50296E-01-4.16967E-01 1.98259E-07-2.46423E-01-3.34271E-08-8.02458E-09
 -1     11300 6.30898E-01-4.97571E-01-2.44216E-07-1.83331E-01 4.80810E-08 7.62056E-09
 -1     11305 5.89244E-01-4.55915E-01 2.04053E-07-1.69796E-01-5.88435E-08-9.31716E-09
 -1     11306 5.50296E-01-4.16967E-01 2.28697E-07-2.46423E-01-9.09686E-08-2.18401E-08
 -1     11307 6.30898E-01-4.97571E-01-2.08686E-07-1.83331E-01 4.60551E-08 7.29838E-09
 -1     11312 5.89244E-01-4.55915E-01 1.64511E-07-1.69796E-01-8.37844E-08-1.32663E-08
 -1     11313 5.50296E-01-4.16967E-01 1.85042E-07-2.46423E-01-1.66935E-07-4.00770E-08
 -1     11314 6.30898E-01-4.97571E-01-1.07338E-07-1.83331E-01 7.06496E-08 1.11936E-08
 -1     11319 5.89244E-01-4.55915E-01 1.08983E-07-1.69796E-01-7.64166E-08-1.21031E-08
 -1     11323 6.02774E-01-4.69445E-01 1.85043E-07-8.49114E-02 1.71153E-07 1.34705E-08
 -1     11327 6.02774E-01-4.69445E-01 2.28689E-07-8.49114E-02 9.32622E-08 7.33918E-09
 -1     11331 6.02774E-01-4.69445E-01 1.98252E-07-8.49114E-02 3.42652E-08 2.69596E-09
 -1     11335 6.02774E-01-4.69445E-01 1.77623E-07-8.49114E-02 3.90718E-10 2.99981E-11
 -1     11339 6.02774E-01-4.69445E-01 1.64840E-07-8.49114E-02-3.26698E-09-2.57410E-10
 -1     11343 6.02774E-01-4.69445E-01 1.64840E-07-8.49114E-02 3.26697E-09 2.57405E-10
 -1     11347 6.02774E-01-4.69445E-01 1.77623E-07-8.49114E-02-3.90740E-10-2.99965E-11
 -1     11351 6.02774E-01-4.69445E-01 1.98252E-07-8.49114E-02-3.42652E-08-2.69596E-09
 -1     11355 6.02774E-01-4.69445E-01 2.28689E-07-8.49114E-02-9.32622E-08-7.33917E-09
 -1     11359 6.02774E-01-4.69445E-01 1.85043E-07-8.49114E-02-1.71153E-07-1.34705E-08
 -1     11365-3.88716E-01 5.22044E-01-2.63115E-08-1.47962E-01-2.93875E-09-1.85547E-08
 -1     11366-4.00503E-01 5.33831E-01-6.10630E-08-7.39920E-02-4.74208E-09-6.02538E-08
 -1     11367-4.22337E-01 5.55665E-01 3.09092E-08-1.58886E-01 5.22880E-09 3.30133E-08
 -1     11372-3.88716E-01 5.22044E-01-5.94702E-08-1.47962E-01-4.24659E-09-2.68121E-08
 -1     11373-4.00503E-01 5.33831E-01-7.67734E-08-7.39920E-02-2.03825E-09-2.58984E-08
 -1     11374-4.22337E-01 5.55665E-01 6.70711E-08-1.58886E-01 2.06500E-09 1.30378E-08
 -1     11379-3.88716E-01 5.22044E-01-6.58365E-08-1.47962E-01-2.22441E-09-1.40445E-08
 -1     11380-4.00503E-01 5.33831E-01-6.38635E-08-7.39920E-02-6.43286E-10-8.17372E-09
 -1     11381-4.22337E-01 5.55665E-01 6.78173E-08-1.58886E-01 1.13952E-09 7.19448E-09
 -1     11386-3.88716E-01 5.22044E-01-6.19388E-08-1.47962E-01-9.26405E-10-5.84911E-09
 -1     11387-4.00503E-01 5.33831E-01-5.63419E-08-7.39920E-02-1.70377E-10-2.16483E-09
 -1     11388-4.22337E-01 5.55665E-01 7.20066E-08-1.58886E-01 6.98642E-10 4.41096E-09
 -1     11393-3.88716E-01 5.22044E-01-5.90658E-08-1.47962E-01-2.88202E-10-1.81967E-09
 -1     11394-4.00503E-01 5.33831E-01-5.41979E-08-7.39920E-02 5.91289E-13 7.57551E-12
 -1     11395-4.22337E-01 5.55665E-01 7.60225E-08-1.58886E-01 2.09013E-10 1.31963E-09
 -1     11400-3.88716E-01 5.22044E-01-5.72582E-08-1.47962E-01 1.78115E-16 3.36252E-16
 -1     11401-4.00503E-01 5.33831E-01-5.41979E-08-7.39920E-02-6.01958E-13-7.57918E-12
 -1     11402-4.22337E-01 5.55665E-01 7.60225E-08-1.58886E-01-2.09011E-10-1.31961E-09
 -1     11407-3.88716E-01 5.22044E-01-5.90658E-08-1.47962E-01 2.88204E-10 1.81966E-09
 -1     11408-4.00503E-01 5.33831E-01-5.63419E-08-7.39920E-02 1.70369E-10 2.16482E-09
 -1     11409-4.22337E-01 5.55665E-01 7.20066E-08-1.58886E-01-6.98644E-10-4.41097E-09
 -1     11414-3.88716E-01 5.22044E-01-6.19388E-08-1.47962E-01 9.26399E-10 5.84912E-09
 -1     11415-4.00503E-01 5.33831E-01-6.38635E-08-7.39920E-02 6.43282E-10 8.17373E-09
 -1     11416-4.22337E-01 5.55665E-01 6.78174E-08-1.58886E-01-1.13952E-09-7.19450E-09
 -1     11421-3.88716E-01 5.22044E-01-6.58365E-08-1.47962E-01 2.22440E-09 1.40445E-08
 -1     11422-4.00503E-01 5.33831E-01-7.67734E-08-7.39920E-02 2.03825E-09 2.58984E-08
 -1     11423-4.22337E-01 5.55665E-01 6.70711E-08-1.58886E-01-2.06501E-09-1.30378E-08
 -1     11428-3.88716E-01 5.22044E-01-5.94702E-08-1.47962E-01 4.24659E-09 2.68121E-08
 -1     11429-4.00503E-01 5.33831E-01-6.10630E-08-7.39920E-02 4.74208E-09 6.02538E-08
 -1     11430-4.22337E-01 5.55665E-01 3.09092E-08-1.58886E-01-5.22879E-09-3.30133E-08
 -1     11435-3.88716E-01 5.22044E-01-2.63115E-08-1.47962E-01 2.93875E-09 1.85547E-08
 -1     11439-3.20705E-01 4.54033E-01-2.63115E-08-2.81440E-01-5.80517E-09-1.78666E-08
 -1     11440-3.54773E-01 4.88101E-01-6.10631E-08-2.14733E-01-1.41095E-08-5.87702E-08
 -1     11441-3.49305E-01 4.82633E-01 3.09092E-08-3.02219E-01 1.03288E-08 3.17889E-08
 -1     11446-3.20705E-01 4.54033E-01-5.94702E-08-2.81440E-01-8.38862E-09-2.58177E-08
 -1     11447-3.54773E-01 4.88101E-01-7.67734E-08-2.14733E-01-6.06456E-09-2.52607E-08
 -1     11448-3.49305E-01 4.82633E-01 6.70710E-08-3.02219E-01 4.07910E-09 1.25543E-08
 -1     11453-3.20705E-01 4.54033E-01-6.58364E-08-2.81440E-01-4.39406E-09-1.35236E-08
 -1     11454-3.54773E-01 4.88101E-01-6.38636E-08-2.14733E-01-1.91402E-09-7.97250E-09
 -1     11455-3.49305E-01 4.82633E-01 6.78172E-08-3.02219E-01 2.25093E-09 6.92765E-09
 -1     11460-3.20705E-01 4.54033E-01-6.19387E-08-2.81440E-01-1.83000E-09-5.63219E-09
 -1     11461-3.54773E-01 4.88101E-01-5.63419E-08-2.14733E-01-5.06930E-10-2.11151E-09
 -1     11462-3.49305E-01 4.82633E-01 7.20064E-08-3.02219E-01 1.38004E-09 4.24737E-09
 -1     11467-3.20705E-01 4.54033E-01-5.90657E-08-2.81440E-01-5.69325E-10-1.75216E-09
 -1     11468-3.54773E-01 4.88101E-01-5.41979E-08-2.14733E-01 1.77555E-12 7.39550E-12
 -1     11469-3.49305E-01 4.82633E-01 7.60223E-08-3.02219E-01 4.12864E-10 1.27070E-09
 -1     11474-3.20705E-01 4.54033E-01-5.72582E-08-2.81440E-01 7.02505E-15 1.81905E-14
 -1     11475-3.54773E-01 4.88101E-01-5.41979E-08-2.14733E-01-1.77393E-12-7.39441E-12
 -1     11476-3.49305E-01 4.82633E-01 7.60223E-08-3.02219E-01-4.12861E-10-1.27068E-09
 -1     11481-3.20705E-01 4.54033E-01-5.90657E-08-2.81440E-01 5.69303E-10 1.75217E-09
 -1     11482-3.54773E-01 4.88101E-01-5.63419E-08-2.14733E-01 5.06930E-10 2.11153E-09
 -1     11483-3.49305E-01 4.82633E-01 7.20064E-08-3.02219E-01-1.38005E-09-4.24736E-09
 -1     11488-3.20705E-01 4.54033E-01-6.19387E-08-2.81440E-01 1.83000E-09 5.63216E-09
 -1     11489-3.54773E-01 4.88101E-01-6.38635E-08-2.14733E-01 1.91403E-09 7.97247E-09
 -1     11490-3.49305E-01 4.82633E-01 6.78172E-08-3.02219E-01-2.25092E-09-6.92766E-09
 -1     11495-3.20705E-01 4.54033E-01-6.58364E-08-2.81440E-01 4.39408E-09 1.35236E-08
 -1     11496-3.54773E-01 4.88101E-01-7.67734E-08-2.14733E-01 6.06457E-09 2.52607E-08
 -1     11497-3.49305E-01 4.82633E-01 6.70710E-08-3.02219E-01-4.07910E-09-1.25543E-08
 -1     11502-3.20705E-01 4.54033E-01-5.94702E-08-2.81440E-01 8.38863E-09 2.58177E-08
 -1     11503-3.54773E-01 4.88101E-01-6.10630E-08-2.14733E-01 1.41095E-08 5.87702E-08
 -1     11504-3.49305E-01 4.82633E-01 3.09091E-08-3.02219E-01-1.03288E-08-3.17889E-08
 -1     11509-3.20705E-01 4.54033E-01-2.63115E-08-2.81440E-01 5.80518E-09 1.78666E-08
 -1     11513-2.14776E-01 3.48104E-01-2.63112E-08-3.87369E-01-8.52870E-09-1.67384E-08
 -1     11514-2.67791E-01 4.01118E-01-6.10631E-08-3.34455E-01-2.31294E-08-5.58394E-08
 -1     11515-2.35555E-01 3.68883E-01 3.09088E-08-4.15969E-01 1.51745E-08 2.97818E-08
 -1     11520-2.14776E-01 3.48104E-01-5.94698E-08-3.87369E-01-1.23241E-08-2.41876E-08
 -1     11521-2.67791E-01 4.01118E-01-7.67735E-08-3.34455E-01-9.94153E-09-2.40010E-08
 -1     11522-2.35555E-01 3.68883E-01 6.70706E-08-4.15969E-01 5.99279E-09 1.17616E-08
 -1     11527-2.14776E-01 3.48104E-01-6.58361E-08-3.87369E-01-6.45551E-09-1.26698E-08
 -1     11528-2.67791E-01 4.01118E-01-6.38636E-08-3.34455E-01-3.13764E-09-7.57491E-09
 -1     11529-2.35555E-01 3.68883E-01 6.78168E-08-4.15969E-01 3.30693E-09 6.49023E-09
 -1     11534-2.14776E-01 3.48104E-01-6.19384E-08-3.87369E-01-2.68853E-09-5.27657E-09
 -1     11535-2.67791E-01 4.01118E-01-5.63419E-08-3.34455E-01-8.30999E-10-2.00621E-09
 -1     11536-2.35555E-01 3.68883E-01 7.20061E-08-4.15969E-01 2.02750E-09 3.97915E-09
 -1     11541-2.14776E-01 3.48104E-01-5.90655E-08-3.87369E-01-8.36409E-10-1.64154E-09
 -1     11542-2.67791E-01 4.01118E-01-5.41980E-08-3.34455E-01 2.90035E-12 7.03114E-12
 -1     11543-2.35555E-01 3.68883E-01 7.60219E-08-4.15969E-01 6.06548E-10 1.19044E-09
 -1     11548-2.14776E-01 3.48104E-01-5.72579E-08-3.87369E-01-1.49852E-14 8.41074E-15
 -1     11549-2.67791E-01 4.01118E-01-5.41980E-08-3.34455E-01-2.91431E-12-7.01870E-12
 -1     11550-2.35555E-01 3.68883E-01 7.60219E-08-4.15969E-01-6.06579E-10-1.19041E-09
 -1     11555-2.14776E-01 3.48104E-01-5.90655E-08-3.87369E-01 8.36396E-10 1.64158E-09
 -1     11556-2.67791E-01 4.01118E-01-5.63419E-08-3.34455E-01 8.30990E-10 2.00622E-09
 -1     11557-2.35555E-01 3.68883E-01 7.20061E-08-4.15969E-01-2.02752E-09-3.97917E-09
 -1     11562-2.14776E-01 3.48104E-01-6.19385E-08-3.87369E-01 2.68851E-09 5.27657E-09
 -1     11563-2.67791E-01 4.01118E-01-6.38636E-08-3.34455E-01 3.13763E-09 7.57490E-09
 -1     11564-2.35555E-01 3.68883E-01 6.78168E-08-4.15969E-01-3.30695E-09-6.49021E-09
 -1     11569-2.14776E-01 3.48104E-01-6.58361E-08-3.87369E-01 6.45550E-09 1.26698E-08
 -1     11570-2.67791E-01 4.01118E-01-7.67735E-08-3.34455E-01 9.94152E-09 2.40010E-08
 -1     11571-2.35555E-01 3.68883E-01 6.70706E-08-4.15969E-01-5.99280E-09-1.17616E-08
 -1     11576-2.14776E-01 3.48104E-01-5.94698E-08-3.87369E-01 1.23241E-08 2.41876E-08
 -1     11577-2.67791E-01 4.01118E-01-6.10631E-08-3.34455E-01 2.31294E-08 5.58394E-08
 -1     11578-2.35555E-01 3.68883E-01 3.09088E-08-4.15969E-01-1.51745E-08-2.97818E-08
 -1     11583-2.14776E-01 3.48104E-01-2.63111E-08-3.87369E-01 8.52870E-09 1.67384E-08
 -1     11587-8.12979E-02 2.14626E-01-2.63110E-08-4.55380E-01-1.10422E-08-1.51980E-08
 -1     11588-1.48069E-01 2.81397E-01-6.10633E-08-4.21437E-01-3.15798E-08-5.15338E-08
 -1     11589-9.22219E-02 2.25550E-01 3.09088E-08-4.89001E-01 1.96465E-08 2.70413E-08
 -1     11594-8.12979E-02 2.14626E-01-5.94696E-08-4.55380E-01-1.59563E-08-2.19616E-08
 -1     11595-1.48069E-01 2.81397E-01-7.67738E-08-4.21437E-01-1.35737E-08-2.21503E-08
 -1     11596-9.22219E-02 2.25550E-01 6.70705E-08-4.89001E-01 7.75878E-09 1.06793E-08
 -1     11601-8.12979E-02 2.14626E-01-6.58358E-08-4.55380E-01-8.35805E-09-1.15038E-08
 -1     11602-1.48069E-01 2.81397E-01-6.38638E-08-4.21437E-01-4.28399E-09-6.99079E-09
 -1     11603-9.22219E-02 2.25550E-01 6.78166E-08-4.89001E-01 4.28138E-09 5.89302E-09
 -1     11608-8.12979E-02 2.14626E-01-6.19381E-08-4.55380E-01-3.48089E-09-4.79094E-09
 -1     11609-1.48069E-01 2.81397E-01-5.63421E-08-4.21437E-01-1.13464E-09-1.85153E-09
 -1     11610-9.22219E-02 2.25550E-01 7.20058E-08-4.89001E-01 2.62492E-09 3.61301E-09
 -1     11615-8.12979E-02 2.14626E-01-5.90653E-08-4.55380E-01-1.08293E-09-1.49045E-09
 -1     11616-1.48069E-01 2.81397E-01-5.41982E-08-4.21437E-01 3.95739E-12 6.49557E-12
 -1     11617-9.22219E-02 2.25550E-01 7.60216E-08-4.89001E-01 7.85299E-10 1.08090E-09
 -1     11622-8.12979E-02 2.14626E-01-5.72577E-08-4.55380E-01-1.01324E-14-4.26578E-15
 -1     11623-1.48069E-01 2.81397E-01-5.41982E-08-4.21437E-01-3.97091E-12-6.46514E-12
 -1     11624-9.22219E-02 2.25550E-01 7.60216E-08-4.89001E-01-7.85302E-10-1.08090E-09
 -1     11629-8.12979E-02 2.14626E-01-5.90653E-08-4.55380E-01 1.08292E-09 1.49046E-09
 -1     11630-1.48069E-01 2.81397E-01-5.63421E-08-4.21437E-01 1.13463E-09 1.85153E-09
 -1     11631-9.22219E-02 2.25550E-01 7.20058E-08-4.89001E-01-2.62493E-09-3.61299E-09
 -1     11636-8.12979E-02 2.14626E-01-6.19382E-08-4.55380E-01 3.48091E-09 4.79098E-09
 -1     11637-1.48069E-01 2.81397E-01-6.38638E-08-4.21437E-01 4.28399E-09 6.99080E-09
 -1     11638-9.22219E-02 2.25550E-01 6.78165E-08-4.89001E-01-4.28137E-09-5.89299E-09
 -1     11643-8.12979E-02 2.14626E-01-6.58358E-08-4.55380E-01 8.35805E-09 1.15038E-08
 -1     11644-1.48069E-01 2.81397E-01-7.67738E-08-4.21437E-01 1.35737E-08 2.21503E-08
 -1     11645-9.22219E-02 2.25550E-01 6.70705E-08-4.89001E-01-7.75878E-09-1.06793E-08
 -1     11650-8.12979E-02 2.14626E-01-5.94696E-08-4.55380E-01 1.59563E-08 2.19617E-08
 -1     11651-1.48069E-01 2.81397E-01-6.10633E-08-4.21437E-01 3.15798E-08 5.15338E-08
 -1     11652-9.22219E-02 2.25550E-01 3.09088E-08-4.89001E-01-1.96465E-08-2.70413E-08
 -1     11657-8.12979E-02 2.14626E-01-2.63110E-08-4.55380E-01 1.10422E-08 1.51980E-08
 -1     11661 6.66639E-02 6.66639E-02-2.63113E-08-4.78815E-01-1.32840E-08-1.32831E-08
 -1     11662-7.32807E-03 1.40656E-01-6.10634E-08-4.67167E-01-3.92525E-08-4.59591E-08
 -1     11663 6.66641E-02 6.66641E-02 3.09095E-08-5.14166E-01 2.36346E-08 2.36337E-08
 -1     11668 6.66639E-02 6.66639E-02-5.94695E-08-4.78815E-01-1.91953E-08-1.91952E-08
 -1     11669-7.32805E-03 1.40656E-01-7.67737E-08-4.67167E-01-1.68716E-08-1.97543E-08
 -1     11670 6.66641E-02 6.66641E-02 6.70707E-08-5.14166E-01 9.33388E-09 9.33311E-09
 -1     11675 6.66639E-02 6.66639E-02-6.58360E-08-4.78815E-01-1.00549E-08-1.00549E-08
 -1     11676-7.32805E-03 1.40656E-01-6.38640E-08-4.67167E-01-5.32487E-09-6.23468E-09
 -1     11677 6.66641E-02 6.66641E-02 6.78169E-08-5.14166E-01 5.15064E-09 5.14985E-09
 -1     11682 6.66639E-02 6.66639E-02-6.19387E-08-4.78815E-01-4.18760E-09-4.18774E-09
 -1     11683-7.32804E-03 1.40656E-01-5.63424E-08-4.67167E-01-1.41031E-09-1.65126E-09
 -1     11684 6.66641E-02 6.66641E-02 7.20059E-08-5.14166E-01 3.15781E-09 3.15724E-09
 -1     11689 6.66639E-02 6.66639E-02-5.90658E-08-4.78815E-01-1.30276E-09-1.30288E-09
 -1     11690-7.32804E-03 1.40656E-01-5.41985E-08-4.67167E-01 4.92466E-12 5.74617E-12
 -1     11691 6.66641E-02 6.66641E-02 7.60215E-08-5.14166E-01 9.44691E-10 9.44517E-10
 -1     11696 6.66639E-02 6.66639E-02-5.72583E-08-4.78815E-01-9.35522E-15 4.82565E-15
 -1     11697-7.32804E-03 1.40656E-01-5.41985E-08-4.67167E-01-4.93106E-12-5.73907E-12
 -1     11698 6.66641E-02 6.66641E-02 7.60215E-08-5.14166E-01-9.44724E-10-9.44491E-10
 -1     11703 6.66639E-02 6.66639E-02-5.90658E-08-4.78815E-01 1.30276E-09 1.30289E-09
 -1     11704-7.32804E-03 1.40656E-01-5.63424E-08-4.67167E-01 1.41030E-09 1.65130E-09
 -1     11705 6.66641E-02 6.66641E-02 7.20059E-08-5.14166E-01-3.15778E-09-3.15723E-09
 -1     11710 6.66639E-02 6.66639E-02-6.19387E-08-4.78815E-01 4.18762E-09 4.18776E-09
 -1     11711-7.32805E-03 1.40656E-01-6.38640E-08-4.67167E-01 5.32487E-09 6.23469E-09
 -1     11712 6.66641E-02 6.66641E-02 6.78169E-08-5.14166E-01-5.15063E-09-5.14984E-09
 -1     11717 6.66639E-02 6.66639E-02-6.58360E-08-4.78815E-01 1.00549E-08 1.00549E-08
 -1     11718-7.32805E-03 1.40656E-01-7.67737E-08-4.67167E-01 1.68716E-08 1.97543E-08
 -1     11719 6.66641E-02 6.66641E-02 6.70707E-08-5.14166E-01-9.33387E-09-9.33314E-09
 -1     11724 6.66639E-02 6.66639E-02-5.94695E-08-4.78815E-01 1.91953E-08 1.91952E-08
 -1     11725-7.32807E-03 1.40656E-01-6.10634E-08-4.67167E-01 3.92525E-08 4.59591E-08
 -1     11726 6.66641E-02 6.66641E-02 3.09095E-08-5.14166E-01-2.36346E-08-2.36337E-08
 -1     11731 6.66639E-02 6.66639E-02-2.63113E-08-4.78815E-01 1.32840E-08 1.32832E-08
 -1     11735 2.14626E-01-8.12979E-02-2.63110E-08-4.55380E-01-1.51976E-08-1.10425E-08
 -1     11736 1.40656E-01-7.32807E-03-6.10631E-08-4.67167E-01-4.59594E-08-3.92537E-08
 -1     11737 2.25550E-01-9.22219E-02 3.09091E-08-4.89001E-01 2.70404E-08 1.96448E-08
 -1     11742 2.14626E-01-8.12979E-02-5.94719E-08-4.55380E-01-2.19632E-08-1.59571E-08
 -1     11743 1.40656E-01-7.32805E-03-7.67745E-08-4.67167E-01-1.97545E-08-1.68723E-08
 -1     11744 2.25550E-01-9.22219E-02 6.70715E-08-4.89001E-01 1.06771E-08 7.75498E-09
 -1     11749 2.14626E-01-8.12979E-02-6.58386E-08-4.55380E-01-1.15047E-08-8.35939E-09
 -1     11750 1.40656E-01-7.32805E-03-6.38650E-08-4.67167E-01-6.23500E-09-5.32550E-09
 -1     11751 2.25550E-01-9.22219E-02 6.78150E-08-4.89001E-01 5.89038E-09 4.27776E-09
 -1     11756 2.14626E-01-8.12979E-02-6.19411E-08-4.55380E-01-4.79199E-09-3.48218E-09
 -1     11757 1.40656E-01-7.32804E-03-5.63438E-08-4.67167E-01-1.65171E-09-1.41095E-09
 -1     11758 2.25550E-01-9.22219E-02 7.20026E-08-4.89001E-01 3.61132E-09 2.62247E-09
 -1     11763 2.14626E-01-8.12979E-02-5.90693E-08-4.55380E-01-1.49118E-09-1.08369E-09
 -1     11764 1.40656E-01-7.32804E-03-5.42003E-08-4.67167E-01 5.65930E-12 4.72820E-12
 -1     11765 2.25550E-01-9.22219E-02 7.60178E-08-4.89001E-01 1.08023E-09 7.84363E-10
 -1     11770 2.14626E-01-8.12979E-02-5.72618E-08-4.55380E-01 1.39878E-14 9.94308E-15
 -1     11771 1.40656E-01-7.32804E-03-5.42003E-08-4.67167E-01-5.65464E-12-4.72139E-12
 -1     11772 2.25550E-01-9.22219E-02 7.60178E-08-4.89001E-01-1.08021E-09-7.84349E-10
 -1     11777 2.14626E-01-8.12979E-02-5.90693E-08-4.55380E-01 1.49117E-09 1.08370E-09
 -1     11778 1.40656E-01-7.32804E-03-5.63438E-08-4.67167E-01 1.65171E-09 1.41096E-09
 -1     11779 2.25550E-01-9.22219E-02 7.20026E-08-4.89001E-01-3.61135E-09-2.62248E-09
 -1     11784 2.14626E-01-8.12979E-02-6.19411E-08-4.55380E-01 4.79197E-09 3.48218E-09
 -1     11785 1.40656E-01-7.32805E-03-6.38649E-08-4.67167E-01 6.23500E-09 5.32551E-09
 -1     11786 2.25550E-01-9.22219E-02 6.78150E-08-4.89001E-01-5.89040E-09-4.27777E-09
 -1     11791 2.14626E-01-8.12979E-02-6.58386E-08-4.55380E-01 1.15047E-08 8.35940E-09
 -1     11792 1.40656E-01-7.32805E-03-7.67745E-08-4.67167E-01 1.97545E-08 1.68723E-08
 -1     11793 2.25550E-01-9.22219E-02 6.70715E-08-4.89001E-01-1.06770E-08-7.75497E-09
 -1     11798 2.14626E-01-8.12979E-02-5.94719E-08-4.55380E-01 2.19632E-08 1.59571E-08
 -1     11799 1.40656E-01-7.32807E-03-6.10631E-08-4.67167E-01 4.59594E-08 3.92536E-08
 -1     11800 2.25550E-01-9.22219E-02 3.09091E-08-4.89001E-01-2.70404E-08-1.96448E-08
 -1     11805 2.14626E-01-8.12979E-02-2.63109E-08-4.55380E-01 1.51976E-08 1.10425E-08
 -1     11809 3.48104E-01-2.14776E-01-2.63193E-08-3.87369E-01-1.67392E-08-8.52912E-09
 -1     11810 2.81397E-01-1.48069E-01-6.10649E-08-4.21437E-01-5.15339E-08-3.15798E-08
 -1     11811 3.68883E-01-2.35555E-01 3.09173E-08-4.15969E-01 2.97761E-08 1.51735E-08
 -1     11816 3.48104E-01-2.14776E-01-5.94693E-08-3.87369E-01-2.41865E-08-1.23239E-08
 -1     11817 2.81397E-01-1.48069E-01-7.67732E-08-4.21437E-01-2.21522E-08-1.35751E-08
 -1     11818 3.68883E-01-2.35555E-01 6.70694E-08-4.15969E-01 1.17566E-08 5.99271E-09
 -1     11823 3.48104E-01-2.14776E-01-6.58378E-08-3.87369E-01-1.26725E-08-6.45634E-09
 -1     11824 2.81397E-01-1.48069E-01-6.38649E-08-4.21437E-01-6.99280E-09-4.28530E-09
 -1     11825 3.68883E-01-2.35555E-01 6.78145E-08-4.15969E-01 6.48542E-09 3.30668E-09
 -1     11830 3.48104E-01-2.14776E-01-6.19431E-08-3.87369E-01-5.27834E-09-2.68886E-09
 -1     11831 2.81397E-01-1.48069E-01-5.63443E-08-4.21437E-01-1.85254E-09-1.13526E-09
 -1     11832 3.68883E-01-2.35555E-01 7.20031E-08-4.15969E-01 3.97450E-09 2.02675E-09
 -1     11837 3.48104E-01-2.14776E-01-5.90686E-08-3.87369E-01-1.64224E-09-8.36429E-10
 -1     11838 2.81397E-01-1.48069E-01-5.42007E-08-4.21437E-01 5.90298E-12 3.58343E-12
 -1     11839 3.68883E-01-2.35555E-01 7.60178E-08-4.15969E-01 1.18903E-09 6.06443E-10
 -1     11844 3.48104E-01-2.14776E-01-5.72622E-08-3.87369E-01 9.82024E-15-8.24756E-15
 -1     11845 2.81397E-01-1.48069E-01-5.42007E-08-4.21437E-01-5.88400E-12-3.58445E-12
 -1     11846 3.68883E-01-2.35555E-01 7.60178E-08-4.15969E-01-1.18902E-09-6.06442E-10
 -1     11851 3.48104E-01-2.14776E-01-5.90686E-08-3.87369E-01 1.64226E-09 8.36443E-10
 -1     11852 2.81397E-01-1.48069E-01-5.63443E-08-4.21437E-01 1.85254E-09 1.13526E-09
 -1     11853 3.68883E-01-2.35555E-01 7.20030E-08-4.15969E-01-3.97448E-09-2.02673E-09
 -1     11858 3.48104E-01-2.14776E-01-6.19431E-08-3.87369E-01 5.27836E-09 2.68886E-09
 -1     11859 2.81397E-01-1.48069E-01-6.38649E-08-4.21437E-01 6.99281E-09 4.28531E-09
 -1     11860 3.68883E-01-2.35555E-01 6.78145E-08-4.15969E-01-6.48539E-09-3.30667E-09
 -1     11865 3.48104E-01-2.14776E-01-6.58378E-08-3.87369E-01 1.26725E-08 6.45634E-09
 -1     11866 2.81397E-01-1.48069E-01-7.67733E-08-4.21437E-01 2.21522E-08 1.35751E-08
 -1     11867 3.68883E-01-2.35555E-01 6.70694E-08-4.15969E-01-1.17566E-08-5.99270E-09
 -1     11872 3.48104E-01-2.14776E-01-5.94693E-08-3.87369E-01 2.41865E-08 1.23239E-08
 -1     11873 2.81397E-01-1.48069E-01-6.10649E-08-4.21437E-01 5.15339E-08 3.15798E-08
 -1     11874 3.68883E-01-2.35555E-01 3.09173E-08-4.15969E-01-2.97762E-08-1.51735E-08
 -1     11879 3.48104E-01-2.14776E-01-2.63193E-08-3.87369E-01 1.67392E-08 8.52912E-09
 -1     11883 4.54033E-01-3.20705E-01-2.63042E-08-2.81440E-01-1.78654E-08-5.80492E-09
 -1     11884 4.01118E-01-2.67791E-01-6.10629E-08-3.34455E-01-5.58394E-08-2.31296E-08
 -1     11885 4.82633E-01-3.49305E-01 3.09026E-08-3.02219E-01 3.17933E-08 1.03319E-08
 -1     11890 4.54033E-01-3.20705E-01-5.94718E-08-2.81440E-01-2.58186E-08-8.38918E-09
 -1     11891 4.01118E-01-2.67791E-01-7.67734E-08-3.34455E-01-2.40013E-08-9.94079E-09
 -1     11892 4.82633E-01-3.49305E-01 6.70746E-08-3.02219E-01 1.25577E-08 4.08250E-09
 -1     11897 4.54033E-01-3.20705E-01-6.58358E-08-2.81440E-01-1.35211E-08-4.39270E-09
 -1     11898 4.01118E-01-2.67791E-01-6.38635E-08-3.34455E-01-7.57515E-09-3.13700E-09
 -1     11899 4.82633E-01-3.49305E-01 6.78219E-08-3.02219E-01 6.93131E-09 2.25419E-09
 -1     11904 4.54033E-01-3.20705E-01-6.19351E-08-2.81440E-01-5.63070E-09-1.82896E-09
 -1     11905 4.01118E-01-2.67791E-01-5.63419E-08-3.34455E-01-2.00639E-09-8.30613E-10
 -1     11906 4.82633E-01-3.49305E-01 7.20120E-08-3.02219E-01 4.25126E-09 1.38287E-09
 -1     11911 4.54033E-01-3.20705E-01-5.90637E-08-2.81440E-01-1.75167E-09-5.68832E-10
 -1     11912 4.01118E-01-2.67791E-01-5.41979E-08-3.34455E-01 6.95345E-12 3.09673E-12
 -1     11913 4.82633E-01-3.49305E-01 7.60291E-08-3.02219E-01 1.27178E-09 4.13801E-10
 -1     11918 4.54033E-01-3.20705E-01-5.72550E-08-2.81440E-01 6.95007E-15 3.73102E-16
 -1     11919 4.01118E-01-2.67791E-01-5.41979E-08-3.34455E-01-6.95460E-12-3.09835E-12
 -1     11920 4.82633E-01-3.49305E-01 7.60291E-08-3.02219E-01-1.27177E-09-4.13807E-10
 -1     11925 4.54033E-01-3.20705E-01-5.90637E-08-2.81440E-01 1.75166E-09 5.68820E-10
 -1     11926 4.01118E-01-2.67791E-01-5.63419E-08-3.34455E-01 2.00640E-09 8.30604E-10
 -1     11927 4.82633E-01-3.49305E-01 7.20120E-08-3.02219E-01-4.25125E-09-1.38288E-09
 -1     11932 4.54033E-01-3.20705E-01-6.19351E-08-2.81440E-01 5.63069E-09 1.82894E-09
 -1     11933 4.01118E-01-2.67791E-01-6.38635E-08-3.34455E-01 7.57518E-09 3.13699E-09
 -1     11934 4.82633E-01-3.49305E-01 6.78219E-08-3.02219E-01-6.93128E-09-2.25419E-09
 -1     11939 4.54033E-01-3.20705E-01-6.58359E-08-2.81440E-01 1.35212E-08 4.39270E-09
 -1     11940 4.01118E-01-2.67791E-01-7.67734E-08-3.34455E-01 2.40013E-08 9.94079E-09
 -1     11941 4.82633E-01-3.49305E-01 6.70745E-08-3.02219E-01-1.25577E-08-4.08250E-09
 -1     11946 4.54033E-01-3.20705E-01-5.94718E-08-2.81440E-01 2.58186E-08 8.38917E-09
 -1     11947 4.01118E-01-2.67791E-01-6.10629E-08-3.34455E-01 5.58394E-08 2.31296E-08
 -1     11948 4.82633E-01-3.49305E-01 3.09026E-08-3.02219E-01-3.17933E-08-1.03319E-08
 -1     11953 4.54033E-01-3.20705E-01-2.63042E-08-2.81440E-01 1.78654E-08 5.80492E-09
 -1     11957 5.22044E-01-3.88716E-01-2.63127E-08-1.47962E-01-1.85547E-08-2.93961E-09
 -1     11958 4.88101E-01-3.54773E-01-6.10607E-08-2.14733E-01-5.87702E-08-1.41092E-08
 -1     11959 5.55665E-01-4.22337E-01 3.09108E-08-1.58886E-01 3.30149E-08 5.22792E-09
 -1     11964 5.22044E-01-3.88716E-01-5.94694E-08-1.47962E-01-2.68104E-08-4.24648E-09
 -1     11965 4.88101E-01-3.54773E-01-7.67732E-08-2.14733E-01-2.52584E-08-6.06418E-09
 -1     11966 5.55665E-01-4.22337E-01 6.70724E-08-1.58886E-01 1.30422E-08 2.06361E-09
 -1     11971 5.22044E-01-3.88716E-01-6.58353E-08-1.47962E-01-1.40430E-08-2.22487E-09
 -1     11972 4.88101E-01-3.54773E-01-6.38620E-08-2.14733E-01-7.97011E-09-1.91358E-09
 -1     11973 5.55665E-01-4.22337E-01 6.78216E-08-1.58886E-01 7.19915E-09 1.13860E-09
 -1     11978 5.22044E-01-3.88716E-01-6.19374E-08-1.47962E-01-5.84755E-09-9.26713E-10
 -1     11979 4.88101E-01-3.54773E-01-5.63392E-08-2.14733E-01-2.11032E-09-5.06670E-10
 -1     11980 5.55665E-01-4.22337E-01 7.20126E-08-1.58886E-01 4.41406E-09 6.97974E-10
 -1     11985 5.22044E-01-3.88716E-01-5.90631E-08-1.47962E-01-1.81859E-09-2.88320E-10
 -1     11986 4.88101E-01-3.54773E-01-5.41949E-08-2.14733E-01 8.10857E-12 1.91976E-12
 -1     11987 5.55665E-01-4.22337E-01 7.60292E-08-1.58886E-01 1.32085E-09 2.08783E-10
 -1     11992 5.22044E-01-3.88716E-01-5.72555E-08-1.47962E-01-1.24350E-14-3.70384E-15
 -1     11993 4.88101E-01-3.54773E-01-5.41949E-08-2.14733E-01-8.09755E-12-1.91910E-12
 -1     11994 5.55665E-01-4.22337E-01 7.60292E-08-1.58886E-01-1.32085E-09-2.08793E-10
 -1     11999 5.22044E-01-3.88716E-01-5.90631E-08-1.47962E-01 1.81860E-09 2.88310E-10
 -1     12000 4.88101E-01-3.54773E-01-5.63392E-08-2.14733E-01 2.11033E-09 5.06659E-10
 -1     12001 5.55665E-01-4.22337E-01 7.20126E-08-1.58886E-01-4.41405E-09-6.97981E-10
 -1     12006 5.22044E-01-3.88716E-01-6.19374E-08-1.47962E-01 5.84757E-09 9.26706E-10
 -1     12007 4.88101E-01-3.54773E-01-6.38620E-08-2.14733E-01 7.97013E-09 1.91357E-09
 -1     12008 5.55665E-01-4.22337E-01 6.78216E-08-1.58886E-01-7.19917E-09-1.13861E-09
 -1     12013 5.22044E-01-3.88716E-01-6.58352E-08-1.47962E-01 1.40430E-08 2.22487E-09
 -1     12014 4.88101E-01-3.54773E-01-7.67732E-08-2.14733E-01 2.52584E-08 6.06416E-09
 -1     12015 5.55665E-01-4.22337E-01 6.70724E-08-1.58886E-01-1.30422E-08-2.06362E-09
 -1     12020 5.22044E-01-3.88716E-01-5.94695E-08-1.47962E-01 2.68104E-08 4.24648E-09
 -1     12021 4.88101E-01-3.54773E-01-6.10607E-08-2.14733E-01 5.87702E-08 1.41092E-08
 -1     12022 5.55665E-01-4.22337E-01 3.09108E-08-1.58886E-01-3.30149E-08-5.22792E-09
 -1     12027 5.22044E-01-3.88716E-01-2.63127E-08-1.47962E-01 1.85547E-08 2.93961E-09
 -1     12031 5.33831E-01-4.00503E-01-6.10624E-08-7.39920E-02-6.02531E-08-4.74230E-09
 -1     12035 5.33831E-01-4.00503E-01-7.67720E-08-7.39920E-02-2.58977E-08-2.03834E-09
 -1     12039 5.33831E-01-4.00503E-01-6.38617E-08-7.39920E-02-8.17288E-09-6.43422E-10
 -1     12043 5.33831E-01-4.00503E-01-5.63394E-08-7.39920E-02-2.16397E-09-1.70478E-10
 -1     12047 5.33831E-01-4.00503E-01-5.41950E-08-7.39920E-02 7.86322E-12 5.57806E-13
 -1     12051 5.33831E-01-4.00503E-01-5.41950E-08-7.39920E-02-7.85794E-12-5.52565E-13
 -1     12055 5.33831E-01-4.00503E-01-5.63394E-08-7.39920E-02 2.16397E-09 1.70482E-10
 -1     12059 5.33831E-01-4.00503E-01-6.38617E-08-7.39920E-02 8.17288E-09 6.43422E-10
 -1     12063 5.33831E-01-4.00503E-01-7.67720E-08-7.39920E-02 2.58977E-08 2.03834E-09
 -1     12067 5.33831E-01-4.00503E-01-6.10624E-08-7.39920E-02 6.02531E-08 4.74231E-09
 -1     12073-3.33681E-01 4.67009E-01 5.42759E-09-1.30080E-01 8.48917E-10 5.35986E-09
 -1     12074-3.44044E-01 4.77372E-01 1.06427E-08-6.50498E-02 1.06661E-09 1.35525E-08
 -1     12075-3.61213E-01 4.94540E-01-5.49335E-09-1.39025E-01-1.40270E-09-8.85639E-09
 -1     12080-3.33681E-01 4.67009E-01 5.49269E-09-1.30080E-01 8.61573E-10 5.43980E-09
 -1     12081-3.44044E-01 4.77372E-01 1.38577E-08-6.50498E-02 6.65666E-10 8.45811E-09
 -1     12082-3.61213E-01 4.94540E-01-1.51200E-08-1.39025E-01-8.61327E-10-5.43823E-09
 -1     12087-3.33681E-01 4.67009E-01 9.85929E-09-1.30080E-01 6.96518E-10 4.39764E-09
 -1     12088-3.44044E-01 4.77372E-01 9.10399E-09-6.50498E-02 1.86427E-10 2.36877E-09
 -1     12089-3.61213E-01 4.94540E-01-1.43843E-08-1.39025E-01-4.78993E-10-3.02428E-09
 -1     12094-3.33681E-01 4.67009E-01 9.05289E-09-1.30080E-01 2.17240E-10 1.37157E-09
 -1     12095-3.44044E-01 4.77372E-01 6.82029E-09-6.50498E-02 7.59328E-12 9.65085E-11
 -1     12096-3.61213E-01 4.94540E-01-1.56199E-08-1.39025E-01-2.10638E-10-1.32993E-09
 -1     12101-3.33681E-01 4.67009E-01 7.37197E-09-1.30080E-01 4.21169E-11 2.65912E-10
 -1     12102-3.44044E-01 4.77372E-01 5.87741E-09-6.50498E-02 1.80520E-12 2.29098E-11
 -1     12103-3.61213E-01 4.94540E-01-1.64817E-08-1.39025E-01-7.45098E-11-4.70462E-10
 -1     12108-3.33681E-01 4.67009E-01 7.09659E-09-1.30080E-01 1.19778E-15 1.56949E-14
 -1     12109-3.44044E-01 4.77372E-01 5.87741E-09-6.50498E-02-1.79764E-12-2.29040E-11
 -1     12110-3.61213E-01 4.94540E-01-1.64817E-08-1.39025E-01 7.45151E-11 4.70481E-10
 -1     12115-3.33681E-01 4.67009E-01 7.37197E-09-1.30080E-01-4.21110E-11-2.65918E-10
 -1     12116-3.44044E-01 4.77372E-01 6.82029E-09-6.50498E-02-7.58569E-12-9.65037E-11
 -1     12117-3.61213E-01 4.94540E-01-1.56199E-08-1.39025E-01 2.10638E-10 1.32992E-09
 -1     12122-3.33681E-01 4.67009E-01 9.05289E-09-1.30080E-01-2.17231E-10-1.37158E-09
 -1     12123-3.44044E-01 4.77372E-01 9.10400E-09-6.50498E-02-1.86418E-10-2.36877E-09
 -1     12124-3.61213E-01 4.94540E-01-1.43843E-08-1.39025E-01 4.78995E-10 3.02425E-09
 -1     12129-3.33681E-01 4.67009E-01 9.85930E-09-1.30080E-01-6.96512E-10-4.39764E-09
 -1     12130-3.44044E-01 4.77372E-01 1.38577E-08-6.50498E-02-6.65664E-10-8.45810E-09
 -1     12131-3.61213E-01 4.94540E-01-1.51200E-08-1.39025E-01 8.61325E-10 5.43824E-09
 -1     12136-3.33681E-01 4.67009E-01 5.49269E-09-1.30080E-01-8.61573E-10-5.43980E-09
 -1     12137-3.44044E-01 4.77372E-01 1.06427E-08-6.50498E-02-1.06660E-09-1.35525E-08
 -1     12138-3.61213E-01 4.94540E-01-5.49333E-09-1.39025E-01 1.40270E-09 8.85639E-09
 -1     12143-3.33681E-01 4.67009E-01 5.42760E-09-1.30080E-01-8.48915E-10-5.35987E-09
 -1     12147-2.73890E-01 4.07218E-01 5.42753E-09-2.47427E-01 1.67693E-09 5.16108E-09
 -1     12148-3.03841E-01 4.37169E-01 1.06427E-08-1.88782E-01 3.17355E-09 1.32188E-08
 -1     12149-2.97310E-01 4.30637E-01-5.49330E-09-2.64442E-01-2.77088E-09-8.52794E-09
 -1     12154-2.73890E-01 4.07218E-01 5.49262E-09-2.47427E-01 1.70193E-09 5.23803E-09
 -1     12155-3.03841E-01 4.37169E-01 1.38577E-08-1.88782E-01 1.98062E-09 8.24983E-09
 -1     12156-2.97310E-01 4.30637E-01-1.51200E-08-2.64442E-01-1.70144E-09-5.23654E-09
 -1     12161-2.73890E-01 4.07218E-01 9.85924E-09-2.47427E-01 1.37587E-09 4.23455E-09
 -1     12162-3.03841E-01 4.37169E-01 9.10400E-09-1.88782E-01 5.54688E-10 2.31045E-09
 -1     12163-2.97310E-01 4.30637E-01-1.43842E-08-2.64442E-01-9.46202E-10-2.91210E-09
 -1     12168-2.73890E-01 4.07218E-01 9.05284E-09-2.47427E-01 4.29119E-10 1.32074E-09
 -1     12169-3.03841E-01 4.37169E-01 6.82029E-09-1.88782E-01 2.26029E-11 9.41313E-11
 -1     12170-2.97310E-01 4.30637E-01-1.56198E-08-2.64442E-01-4.16088E-10-1.28057E-09
 -1     12175-2.73890E-01 4.07218E-01 7.37192E-09-2.47427E-01 8.31931E-11 2.56043E-10
 -1     12176-3.03841E-01 4.37169E-01 5.87741E-09-1.88782E-01 5.35710E-12 2.23519E-11
 -1     12177-2.97310E-01 4.30637E-01-1.64817E-08-2.64442E-01-1.47196E-10-4.53010E-10
 -1     12182-2.73890E-01 4.07218E-01 7.09651E-09-2.47427E-01-3.99295E-15 3.51097E-16
 -1     12183-3.03841E-01 4.37169E-01 5.87742E-09-1.88782E-01-5.36622E-12-2.23531E-11
 -1     12184-2.97310E-01 4.30637E-01-1.64817E-08-2.64442E-01 1.47194E-10 4.52996E-10
 -1     12189-2.73890E-01 4.07218E-01 7.37191E-09-2.47427E-01-8.32038E-11-2.56070E-10
 -1     12190-3.03841E-01 4.37169E-01 6.82030E-09-1.88782E-01-2.26065E-11-9.41277E-11
 -1     12191-2.97310E-01 4.30637E-01-1.56198E-08-2.64442E-01 4.16082E-10 1.28060E-09
 -1     12196-2.73890E-01 4.07218E-01 9.05284E-09-2.47427E-01-4.29126E-10-1.32072E-09
 -1     12197-3.03841E-01 4.37169E-01 9.10400E-09-1.88782E-01-5.54690E-10-2.31045E-09
 -1     12198-2.97310E-01 4.30637E-01-1.43842E-08-2.64442E-01 9.46199E-10 2.91210E-09
 -1     12203-2.73890E-01 4.07218E-01 9.85923E-09-2.47427E-01-1.37587E-09-4.23454E-09
 -1     12204-3.03841E-01 4.37169E-01 1.38577E-08-1.88782E-01-1.98061E-09-8.24984E-09
 -1     12205-2.97310E-01 4.30637E-01-1.51199E-08-2.64442E-01 1.70145E-09 5.23652E-09
 -1     12210-2.73890E-01 4.07218E-01 5.49262E-09-2.47427E-01-1.70193E-09-5.23808E-09
 -1     12211-3.03841E-01 4.37169E-01 1.06427E-08-1.88782E-01-3.17355E-09-1.32188E-08
 -1     12212-2.97310E-01 4.30637E-01-5.49331E-09-2.64442E-01 2.77088E-09 8.52792E-09
 -1     12217-2.73890E-01 4.07218E-01 5.42753E-09-2.47427E-01-1.67694E-09-5.16104E-09
 -1     12221-1.80763E-01 3.14091E-01 5.42752E-09-3.40554E-01 2.46369E-09 4.83515E-09
 -1     12222-2.27371E-01 3.60699E-01 1.06428E-08-2.94035E-01 5.20235E-09 1.25596E-08
 -1     12223-1.97778E-01 3.31106E-01-5.49328E-09-3.63973E-01-4.07081E-09-7.98946E-09
 -1     12228-1.80763E-01 3.14091E-01 5.49257E-09-3.40554E-01 2.50039E-09 4.90729E-09
 -1     12229-2.27371E-01 3.60699E-01 1.38577E-08-2.94035E-01 3.24678E-09 7.83843E-09
 -1     12230-1.97778E-01 3.31106E-01-1.51200E-08-3.63973E-01-2.49967E-09-4.90593E-09
 -1     12235-1.80763E-01 3.14091E-01 9.85918E-09-3.40554E-01 2.02136E-09 3.96714E-09
 -1     12236-2.27371E-01 3.60699E-01 9.10406E-09-2.94035E-01 9.09292E-10 2.19523E-09
 -1     12237-1.97778E-01 3.31106E-01-1.43843E-08-3.63973E-01-1.39009E-09-2.72824E-09
 -1     12242-1.80763E-01 3.14091E-01 9.05278E-09-3.40554E-01 6.30442E-10 1.23734E-09
 -1     12243-2.27371E-01 3.60699E-01 6.82034E-09-2.94035E-01 3.70289E-11 8.94605E-11
 -1     12244-1.97778E-01 3.31106E-01-1.56199E-08-3.63973E-01-6.11311E-10-1.19973E-09
 -1     12249-1.80763E-01 3.14091E-01 7.37187E-09-3.40554E-01 1.22201E-10 2.39887E-10
 -1     12250-2.27371E-01 3.60699E-01 5.87747E-09-2.94035E-01 8.78820E-12 2.12233E-11
 -1     12251-1.97778E-01 3.31106E-01-1.64817E-08-3.63973E-01-2.16256E-10-4.24415E-10
 -1     12256-1.80763E-01 3.14091E-01 7.09649E-09-3.40554E-01-4.76313E-15 1.02539E-14
 -1     12257-2.27371E-01 3.60699E-01 5.87746E-09-2.94035E-01-8.79560E-12-2.12326E-11
 -1     12258-1.97778E-01 3.31106E-01-1.64817E-08-3.63973E-01 2.16248E-10 4.24440E-10
 -1     12263-1.80763E-01 3.14091E-01 7.37188E-09-3.40554E-01-1.22218E-10-2.39890E-10
 -1     12264-2.27371E-01 3.60699E-01 6.82035E-09-2.94035E-01-3.70553E-11-8.94359E-11
 -1     12265-1.97778E-01 3.31106E-01-1.56199E-08-3.63973E-01 6.11278E-10 1.19975E-09
 -1     12270-1.80763E-01 3.14091E-01 9.05279E-09-3.40554E-01-6.30455E-10-1.23729E-09
 -1     12271-2.27371E-01 3.60699E-01 9.10405E-09-2.94035E-01-9.09298E-10-2.19522E-09
 -1     12272-1.97778E-01 3.31106E-01-1.43843E-08-3.63973E-01 1.39009E-09 2.72825E-09
 -1     12277-1.80763E-01 3.14091E-01 9.85919E-09-3.40554E-01-2.02138E-09-3.96716E-09
 -1     12278-2.27371E-01 3.60699E-01 1.38577E-08-2.94035E-01-3.24679E-09-7.83844E-09
 -1     12279-1.97778E-01 3.31106E-01-1.51199E-08-3.63973E-01 2.49965E-09 4.90592E-09
 -1     12284-1.80763E-01 3.14091E-01 5.49256E-09-3.40554E-01-2.50042E-09-4.90731E-09
 -1     12285-2.27371E-01 3.60699E-01 1.06427E-08-2.94035E-01-5.20234E-09-1.25596E-08
 -1     12286-1.97778E-01 3.31106E-01-5.49328E-09-3.63973E-01 4.07080E-09 7.98944E-09
 -1     12291-1.80763E-01 3.14091E-01 5.42753E-09-3.40554E-01-2.46367E-09-4.83518E-09
 -1     12295-6.34160E-02 1.96744E-01 5.42746E-09-4.00345E-01 3.18976E-09 4.39022E-09
 -1     12296-1.22118E-01 2.55446E-01 1.06427E-08-3.70505E-01 7.10303E-09 1.15912E-08
 -1     12297-7.23615E-02 2.05689E-01-5.49337E-09-4.27876E-01-5.27052E-09-7.25416E-09
 -1     12302-6.34160E-02 1.96744E-01 5.49250E-09-4.00345E-01 3.23732E-09 4.45573E-09
 -1     12303-1.22118E-01 2.55446E-01 1.38577E-08-3.70505E-01 4.43299E-09 7.23403E-09
 -1     12304-7.23615E-02 2.05689E-01-1.51200E-08-4.27876E-01-3.23635E-09-4.45437E-09
 -1     12309-6.34160E-02 1.96744E-01 9.85912E-09-4.00345E-01 2.61710E-09 3.60215E-09
 -1     12310-1.22118E-01 2.55446E-01 9.10400E-09-3.70505E-01 1.24149E-09 2.02596E-09
 -1     12311-7.23615E-02 2.05689E-01-1.43843E-08-4.27876E-01-1.79980E-09-2.47713E-09
 -1     12316-6.34160E-02 1.96744E-01 9.05274E-09-4.00345E-01 8.16238E-10 1.12350E-09
 -1     12317-1.22118E-01 2.55446E-01 6.82029E-09-3.70505E-01 5.05521E-11 8.25744E-11
 -1     12318-7.23615E-02 2.05689E-01-1.56200E-08-4.27876E-01-7.91466E-10-1.08930E-09
 -1     12323-6.34160E-02 1.96744E-01 7.37181E-09-4.00345E-01 1.58247E-10 2.17828E-10
 -1     12324-1.22118E-01 2.55446E-01 5.87742E-09-3.70505E-01 1.20024E-11 1.95872E-11
 -1     12325-7.23615E-02 2.05689E-01-1.64818E-08-4.27876E-01-2.79994E-10-3.85358E-10
 -1     12330-6.34160E-02 1.96744E-01 7.09643E-09-4.00345E-01-5.81931E-15-6.85738E-15
 -1     12331-1.22118E-01 2.55446E-01 5.87741E-09-3.70505E-01-1.20065E-11-1.96014E-11
 -1     12332-7.23615E-02 2.05689E-01-1.64818E-08-4.27876E-01 2.79972E-10 3.85349E-10
 -1     12337-6.34160E-02 1.96744E-01 7.37180E-09-4.00345E-01-1.58256E-10-2.17812E-10
 -1     12338-1.22118E-01 2.55446E-01 6.82029E-09-3.70505E-01-5.05860E-11-8.25424E-11
 -1     12339-7.23615E-02 2.05689E-01-1.56200E-08-4.27876E-01 7.91455E-10 1.08933E-09
 -1     12344-6.34160E-02 1.96744E-01 9.05274E-09-4.00345E-01-8.16271E-10-1.12350E-09
 -1     12345-1.22118E-01 2.55446E-01 9.10400E-09-3.70505E-01-1.24151E-09-2.02595E-09
 -1     12346-7.23615E-02 2.05689E-01-1.43843E-08-4.27876E-01 1.79978E-09 2.47715E-09
 -1     12351-6.34160E-02 1.96744E-01 9.85912E-09-4.00345E-01-2.61711E-09-3.60215E-09
 -1     12352-1.22118E-01 2.55446E-01 1.38577E-08-3.70505E-01-4.43300E-09-7.23403E-09
 -1     12353-7.23615E-02 2.05689E-01-1.51200E-08-4.27876E-01 3.23636E-09 4.45439E-09
 -1     12358-6.34160E-02 1.96744E-01 5.49252E-09-4.00345E-01-3.23732E-09-4.45573E-09
 -1     12359-1.22118E-01 2.55446E-01 1.06427E-08-3.70505E-01-7.10302E-09-1.15912E-08
 -1     12360-7.23615E-02 2.05689E-01-5.49337E-09-4.27876E-01 5.27054E-09 7.25418E-09
 -1     12365-6.34160E-02 1.96744E-01 5.42748E-09-4.00345E-01-3.18976E-09-4.39019E-09
 -1     12369 6.66640E-02 6.66640E-02 5.42758E-09-4.20948E-01 3.83721E-09 3.83710E-09
 -1     12370 1.61418E-03 1.31714E-01 1.06428E-08-4.10708E-01 8.82885E-09 1.03374E-08
 -1     12371 6.66640E-02 6.66640E-02-5.49365E-09-4.49896E-01-6.34054E-09-6.34031E-09
 -1     12376 6.66640E-02 6.66640E-02 5.49285E-09-4.20948E-01 3.89445E-09 3.89450E-09
 -1     12377 1.61418E-03 1.31714E-01 1.38578E-08-4.10708E-01 5.51005E-09 6.45151E-09
 -1     12378 6.66640E-02 6.66640E-02-1.51204E-08-4.49896E-01-3.89338E-09-3.89336E-09
 -1     12383 6.66640E-02 6.66640E-02 9.85938E-09-4.20948E-01 3.14833E-09 3.14838E-09
 -1     12384 1.61418E-03 1.31714E-01 9.10412E-09-4.10708E-01 1.54312E-09 1.80681E-09
 -1     12385 6.66640E-02 6.66640E-02-1.43849E-08-4.49896E-01-2.16516E-09-2.16521E-09
 -1     12390 6.66640E-02 6.66640E-02 9.05289E-09-4.20948E-01 9.81932E-10 9.81957E-10
 -1     12391 1.61418E-03 1.31714E-01 6.82041E-09-4.10708E-01 6.28830E-11 7.36364E-11
 -1     12392 6.66640E-02 6.66640E-02-1.56206E-08-4.49896E-01-9.52155E-10-9.52227E-10
 -1     12397 6.66640E-02 6.66640E-02 7.37198E-09-4.20948E-01 1.90369E-10 1.90410E-10
 -1     12398 1.61418E-03 1.31714E-01 5.87752E-09-4.10708E-01 1.49100E-11 1.74845E-11
 -1     12399 6.66640E-02 6.66640E-02-1.64825E-08-4.49896E-01-3.36813E-10-3.36854E-10
 -1     12404 6.66640E-02 6.66640E-02 7.09654E-09-4.20948E-01 5.69598E-15 9.21749E-15
 -1     12405 1.61418E-03 1.31714E-01 5.87752E-09-4.10708E-01-1.49298E-11-1.74504E-11
 -1     12406 6.66640E-02 6.66640E-02-1.64825E-08-4.49896E-01 3.36811E-10 3.36883E-10
 -1     12411 6.66640E-02 6.66640E-02 7.37198E-09-4.20948E-01-1.90365E-10-1.90363E-10
 -1     12412 1.61418E-03 1.31714E-01 6.82039E-09-4.10708E-01-6.28705E-11-7.36457E-11
 -1     12413 6.66640E-02 6.66640E-02-1.56206E-08-4.49896E-01 9.52174E-10 9.52224E-10
 -1     12418 6.66640E-02 6.66640E-02 9.05288E-09-4.20948E-01-9.81904E-10-9.81969E-10
 -1     12419 1.61418E-03 1.31714E-01 9.10414E-09-4.10708E-01-1.54312E-09-1.80680E-09
 -1     12420 6.66640E-02 6.66640E-02-1.43849E-08-4.49896E-01 2.16518E-09 2.16521E-09
 -1     12425 6.66640E-02 6.66640E-02 9.85937E-09-4.20948E-01-3.14831E-09-3.14836E-09
 -1     12426 1.61418E-03 1.31714E-01 1.38578E-08-4.10708E-01-5.51005E-09-6.45150E-09
 -1     12427 6.66640E-02 6.66640E-02-1.51204E-08-4.49896E-01 3.89340E-09 3.89336E-09
 -1     12432 6.66640E-02 6.66640E-02 5.49284E-09-4.20948E-01-3.89445E-09-3.89447E-09
 -1     12433 1.61418E-03 1.31714E-01 1.06428E-08-4.10708E-01-8.82884E-09-1.03374E-08
 -1     12434 6.66640E-02 6.66640E-02-5.49367E-09-4.49896E-01 6.34053E-09 6.34032E-09
 -1     12439 6.66640E-02 6.66640E-02 5.42756E-09-4.20948E-01-3.83718E-09-3.83713E-09
 -1     12443 1.96744E-01-6.34160E-02 5.42839E-09-4.00345E-01 4.39018E-09 3.18974E-09
 -1     12444 1.31714E-01 1.61418E-03 1.06424E-08-4.10708E-01 1.03372E-08 8.82885E-09
 -1     12445 2.05689E-01-7.23615E-02-5.49381E-09-4.27876E-01-7.25435E-09-5.27089E-09
 -1     12450 1.96744E-01-6.34160E-02 5.49255E-09-4.00345E-01 4.45555E-09 3.23707E-09
 -1     12451 1.31714E-01 1.61418E-03 1.38573E-08-4.10708E-01 6.45149E-09 5.51010E-09
 -1     12452 2.05689E-01-7.23615E-02-1.51212E-08-4.27876E-01-4.45506E-09-3.23707E-09
 -1     12457 1.96744E-01-6.34160E-02 9.85923E-09-4.00345E-01 3.60209E-09 2.61700E-09
 -1     12458 1.31714E-01 1.61418E-03 9.10347E-09-4.10708E-01 1.80676E-09 1.54310E-09
 -1     12459 2.05689E-01-7.23615E-02-1.43859E-08-4.27876E-01-2.47788E-09-1.80067E-09
 -1     12464 1.96744E-01-6.34160E-02 9.05271E-09-4.00345E-01 1.12331E-09 8.16053E-10
 -1     12465 1.31714E-01 1.61418E-03 6.81968E-09-4.10708E-01 7.35492E-11 6.27822E-11
 -1     12466 2.05689E-01-7.23615E-02-1.56220E-08-4.27876E-01-1.08978E-09-7.92070E-10
 -1     12471 1.96744E-01-6.34160E-02 7.37139E-09-4.00345E-01 2.17681E-10 1.58104E-10
 -1     12472 1.31714E-01 1.61418E-03 5.87674E-09-4.10708E-01 1.74670E-11 1.49235E-11
 -1     12473 2.05689E-01-7.23615E-02-1.64841E-08-4.27876E-01-3.85575E-10-2.80236E-10
 -1     12478 1.96744E-01-6.34160E-02 7.09611E-09-4.00345E-01 8.30573E-15-7.81910E-16
 -1     12479 1.31714E-01 1.61418E-03 5.87674E-09-4.10708E-01-1.74758E-11-1.48993E-11
 -1     12480 2.05689E-01-7.23615E-02-1.64841E-08-4.27876E-01 3.85582E-10 2.80239E-10
 -1     12485 1.96744E-01-6.34160E-02 7.37139E-09-4.00345E-01-2.17691E-10-1.58105E-10
 -1     12486 1.31714E-01 1.61418E-03 6.81968E-09-4.10708E-01-7.35319E-11-6.27879E-11
 -1     12487 2.05689E-01-7.23615E-02-1.56220E-08-4.27876E-01 1.08977E-09 7.92079E-10
 -1     12492 1.96744E-01-6.34160E-02 9.05271E-09-4.00345E-01-1.12330E-09-8.16064E-10
 -1     12493 1.31714E-01 1.61418E-03 9.10347E-09-4.10708E-01-1.80675E-09-1.54311E-09
 -1     12494 2.05689E-01-7.23615E-02-1.43859E-08-4.27876E-01 2.47788E-09 1.80068E-09
 -1     12499 1.96744E-01-6.34160E-02 9.85922E-09-4.00345E-01-3.60206E-09-2.61700E-09
 -1     12500 1.31714E-01 1.61418E-03 1.38573E-08-4.10708E-01-6.45149E-09-5.51010E-09
 -1     12501 2.05689E-01-7.23615E-02-1.51212E-08-4.27876E-01 4.45508E-09 3.23708E-09
 -1     12506 1.96744E-01-6.34160E-02 5.49255E-09-4.00345E-01-4.45555E-09-3.23707E-09
 -1     12507 1.31714E-01 1.61418E-03 1.06424E-08-4.10708E-01-1.03372E-08-8.82884E-09
 -1     12508 2.05689E-01-7.23615E-02-5.49381E-09-4.27876E-01 7.25436E-09 5.27089E-09
 -1     12513 1.96744E-01-6.34160E-02 5.42839E-09-4.00345E-01-4.39018E-09-3.18974E-09
 -1     12517 3.14091E-01-1.80763E-01 5.42560E-09-3.40554E-01 4.83486E-09 2.46353E-09
 -1     12518 2.55446E-01-1.22118E-01 1.06431E-08-3.70505E-01 1.15917E-08 7.10338E-09
 -1     12519 3.31106E-01-1.97778E-01-5.49504E-09-3.63973E-01-7.99121E-09-4.07172E-09
 -1     12524 3.14091E-01-1.80763E-01 5.49405E-09-3.40554E-01 4.90757E-09 2.50058E-09
 -1     12525 2.55446E-01-1.22118E-01 1.38574E-08-3.70505E-01 7.23360E-09 4.43270E-09
 -1     12526 3.31106E-01-1.97778E-01-1.51209E-08-3.63973E-01-4.90682E-09-2.49990E-09
 -1     12531 3.14091E-01-1.80763E-01 9.85888E-09-3.40554E-01 3.96643E-09 2.02100E-09
 -1     12532 2.55446E-01-1.22118E-01 9.10354E-09-3.70505E-01 2.02567E-09 1.24123E-09
 -1     12533 3.31106E-01-1.97778E-01-1.43856E-08-3.63973E-01-2.72923E-09-1.39024E-09
 -1     12538 3.14091E-01-1.80763E-01 9.05203E-09-3.40554E-01 1.23719E-09 6.30395E-10
 -1     12539 2.55446E-01-1.22118E-01 6.81960E-09-3.70505E-01 8.24345E-11 5.04931E-11
 -1     12540 3.31106E-01-1.97778E-01-1.56216E-08-3.63973E-01-1.20089E-09-6.11584E-10
 -1     12545 3.14091E-01-1.80763E-01 7.37178E-09-3.40554E-01 2.39790E-10 1.22193E-10
 -1     12546 2.55446E-01-1.22118E-01 5.87663E-09-3.70505E-01 1.94222E-11 1.18827E-11
 -1     12547 3.31106E-01-1.97778E-01-1.64839E-08-3.63973E-01-4.24634E-10-2.16251E-10
 -1     12552 3.14091E-01-1.80763E-01 7.09567E-09-3.40554E-01 1.77359E-14-4.51159E-15
 -1     12553 2.55446E-01-1.22118E-01 5.87663E-09-3.70505E-01-1.94123E-11-1.18922E-11
 -1     12554 3.31106E-01-1.97778E-01-1.64839E-08-3.63973E-01 4.24650E-10 2.16240E-10
 -1     12559 3.14091E-01-1.80763E-01 7.37178E-09-3.40554E-01-2.39779E-10-1.22199E-10
 -1     12560 2.55446E-01-1.22118E-01 6.81960E-09-3.70505E-01-8.24310E-11-5.04897E-11
 -1     12561 3.31106E-01-1.97778E-01-1.56216E-08-3.63973E-01 1.20089E-09 6.11583E-10
 -1     12566 3.14091E-01-1.80763E-01 9.05202E-09-3.40554E-01-1.23719E-09-6.30395E-10
 -1     12567 2.55446E-01-1.22118E-01 9.10353E-09-3.70505E-01-2.02565E-09-1.24124E-09
 -1     12568 3.31106E-01-1.97778E-01-1.43856E-08-3.63973E-01 2.72924E-09 1.39024E-09
 -1     12573 3.14091E-01-1.80763E-01 9.85887E-09-3.40554E-01-3.96645E-09-2.02099E-09
 -1     12574 2.55446E-01-1.22118E-01 1.38574E-08-3.70505E-01-7.23359E-09-4.43268E-09
 -1     12575 3.31106E-01-1.97778E-01-1.51209E-08-3.63973E-01 4.90681E-09 2.49990E-09
 -1     12580 3.14091E-01-1.80763E-01 5.49406E-09-3.40554E-01-4.90755E-09-2.50058E-09
 -1     12581 2.55446E-01-1.22118E-01 1.06431E-08-3.70505E-01-1.15917E-08-7.10338E-09
 -1     12582 3.31106E-01-1.97778E-01-5.49502E-09-3.63973E-01 7.99120E-09 4.07172E-09
 -1     12587 3.14091E-01-1.80763E-01 5.42560E-09-3.40554E-01-4.83487E-09-2.46353E-09
 -1     12591 4.07218E-01-2.73890E-01 5.42983E-09-2.47427E-01 5.16133E-09 1.67710E-09
 -1     12592 3.60699E-01-2.27371E-01 1.06426E-08-2.94035E-01 1.25597E-08 5.20227E-09
 -1     12593 4.30637E-01-2.97310E-01-5.49213E-09-2.64442E-01-8.52596E-09-2.77025E-09
 -1     12598 4.07218E-01-2.73890E-01 5.49166E-09-2.47427E-01 5.23775E-09 1.70191E-09
 -1     12599 3.60699E-01-2.27371E-01 1.38576E-08-2.94035E-01 7.83845E-09 3.24677E-09
 -1     12600 4.30637E-01-2.97310E-01-1.51197E-08-2.64442E-01-5.23570E-09-1.70093E-09
 -1     12605 4.07218E-01-2.73890E-01 9.86003E-09-2.47427E-01 4.23532E-09 1.37613E-09
 -1     12606 3.60699E-01-2.27371E-01 9.10392E-09-2.94035E-01 2.19520E-09 9.09354E-10
 -1     12607 4.30637E-01-2.97310E-01-1.43836E-08-2.64442E-01-2.91126E-09-9.45578E-10
 -1     12612 4.07218E-01-2.73890E-01 9.05406E-09-2.47427E-01 1.32089E-09 4.29196E-10
 -1     12613 3.60699E-01-2.27371E-01 6.82023E-09-2.94035E-01 8.94305E-11 3.70589E-11
 -1     12614 4.30637E-01-2.97310E-01-1.56188E-08-2.64442E-01-1.27957E-09-4.15473E-10
 -1     12619 4.07218E-01-2.73890E-01 7.37249E-09-2.47427E-01 2.56153E-10 8.32353E-11
 -1     12620 3.60699E-01-2.27371E-01 5.87735E-09-2.94035E-01 2.12284E-11 8.81569E-12
 -1     12621 4.30637E-01-2.97310E-01-1.64802E-08-2.64442E-01-4.52857E-10-1.47040E-10
 -1     12626 4.07218E-01-2.73890E-01 7.09782E-09-2.47427E-01-9.27135E-15-5.58853E-15
 -1     12627 3.60699E-01-2.27371E-01 5.87735E-09-2.94035E-01-2.12156E-11-8.81875E-12
 -1     12628 4.30637E-01-2.97310E-01-1.64802E-08-2.64442E-01 4.52848E-10 1.47031E-10
 -1     12633 4.07218E-01-2.73890E-01 7.37250E-09-2.47427E-01-2.56170E-10-8.32483E-11
 -1     12634 3.60699E-01-2.27371E-01 6.82023E-09-2.94035E-01-8.94414E-11-3.70673E-11
 -1     12635 4.30637E-01-2.97310E-01-1.56188E-08-2.64442E-01 1.27956E-09 4.15460E-10
 -1     12640 4.07218E-01-2.73890E-01 9.05406E-09-2.47427E-01-1.32089E-09-4.29187E-10
 -1     12641 3.60699E-01-2.27371E-01 9.10392E-09-2.94035E-01-2.19519E-09-9.09356E-10
 -1     12642 4.30637E-01-2.97310E-01-1.43836E-08-2.64442E-01 2.91128E-09 9.45578E-10
 -1     12647 4.07218E-01-2.73890E-01 9.86002E-09-2.47427E-01-4.23530E-09-1.37614E-09
 -1     12648 3.60699E-01-2.27371E-01 1.38576E-08-2.94035E-01-7.83844E-09-3.24677E-09
 -1     12649 4.30637E-01-2.97310E-01-1.51197E-08-2.64442E-01 5.23572E-09 1.70092E-09
 -1     12654 4.07218E-01-2.73890E-01 5.49163E-09-2.47427E-01-5.23773E-09-1.70192E-09
 -1     12655 3.60699E-01-2.27371E-01 1.06426E-08-2.94035E-01-1.25597E-08-5.20227E-09
 -1     12656 4.30637E-01-2.97310E-01-5.49214E-09-2.64442E-01 8.52597E-09 2.77025E-09
 -1     12661 4.07218E-01-2.73890E-01 5.42982E-09-2.47427E-01-5.16134E-09-1.67710E-09
 -1     12665 4.67009E-01-3.33681E-01 5.42696E-09-1.30080E-01 5.35985E-09 8.49065E-10
 -1     12666 4.37169E-01-3.03841E-01 1.06422E-08-1.88782E-01 1.32183E-08 3.17338E-09
 -1     12667 4.94540E-01-3.61213E-01-5.49322E-09-1.39025E-01-8.85606E-09-1.40296E-09
 -1     12672 4.67009E-01-3.33681E-01 5.49314E-09-1.30080E-01 5.44007E-09 8.61603E-10
 -1     12673 4.37169E-01-3.03841E-01 1.38579E-08-1.88782E-01 8.25039E-09 1.98066E-09
 -1     12674 4.94540E-01-3.61213E-01-1.51192E-08-1.39025E-01-5.43731E-09-8.61469E-10
 -1     12679 4.67009E-01-3.33681E-01 9.85969E-09-1.30080E-01 4.39770E-09 6.96482E-10
 -1     12680 4.37169E-01-3.03841E-01 9.10442E-09-1.88782E-01 2.31085E-09 5.54694E-10
 -1     12681 4.94540E-01-3.61213E-01-1.43832E-08-1.39025E-01-3.02313E-09-4.79168E-10
 -1     12686 4.67009E-01-3.33681E-01 9.05337E-09-1.30080E-01 1.37186E-09 2.17222E-10
 -1     12687 4.37169E-01-3.03841E-01 6.82095E-09-1.88782E-01 9.42998E-11 2.26100E-11
 -1     12688 4.94540E-01-3.61213E-01-1.56182E-08-1.39025E-01-1.32916E-09-2.10793E-10
 -1     12693 4.67009E-01-3.33681E-01 7.37286E-09-1.30080E-01 2.66117E-10 4.21007E-11
 -1     12694 4.37169E-01-3.03841E-01 5.87817E-09-1.88782E-01 2.25610E-11 5.39135E-12
 -1     12695 4.94540E-01-3.61213E-01-1.64797E-08-1.39025E-01-4.70095E-10-7.45559E-11
 -1     12700 4.67009E-01-3.33681E-01 7.09735E-09-1.30080E-01 1.08017E-15 5.39636E-15
 -1     12701 4.37169E-01-3.03841E-01 5.87816E-09-1.88782E-01-2.25613E-11-5.39497E-12
 -1     12702 4.94540E-01-3.61213E-01-1.64797E-08-1.39025E-01 4.70104E-10 7.45544E-11
 -1     12707 4.67009E-01-3.33681E-01 7.37286E-09-1.30080E-01-2.66083E-10-4.21030E-11
 -1     12708 4.37169E-01-3.03841E-01 6.82094E-09-1.88782E-01-9.42982E-11-2.26117E-11
 -1     12709 4.94540E-01-3.61213E-01-1.56182E-08-1.39025E-01 1.32917E-09 2.10789E-10
 -1     12714 4.67009E-01-3.33681E-01 9.05336E-09-1.30080E-01-1.37184E-09-2.17224E-10
 -1     12715 4.37169E-01-3.03841E-01 9.10441E-09-1.88782E-01-2.31083E-09-5.54687E-10
 -1     12716 4.94540E-01-3.61213E-01-1.43832E-08-1.39025E-01 3.02315E-09 4.79163E-10
 -1     12721 4.67009E-01-3.33681E-01 9.85968E-09-1.30080E-01-4.39771E-09-6.96482E-10
 -1     12722 4.37169E-01-3.03841E-01 1.38579E-08-1.88782E-01-8.25039E-09-1.98067E-09
 -1     12723 4.94540E-01-3.61213E-01-1.51192E-08-1.39025E-01 5.43729E-09 8.61469E-10
 -1     12728 4.67009E-01-3.33681E-01 5.49315E-09-1.30080E-01-5.44008E-09-8.61597E-10
 -1     12729 4.37169E-01-3.03841E-01 1.06422E-08-1.88782E-01-1.32183E-08-3.17339E-09
 -1     12730 4.94540E-01-3.61213E-01-5.49322E-09-1.39025E-01 8.85606E-09 1.40297E-09
 -1     12735 4.67009E-01-3.33681E-01 5.42697E-09-1.30080E-01-5.35983E-09-8.49059E-10
 -1     12739 4.77372E-01-3.44044E-01 1.06428E-08-6.50498E-02 1.35526E-08 1.06659E-09
 -1     12743 4.77372E-01-3.44044E-01 1.38579E-08-6.50498E-02 8.45812E-09 6.65627E-10
 -1     12747 4.77372E-01-3.44044E-01 9.10441E-09-6.50498E-02 2.36885E-09 1.86404E-10
 -1     12751 4.77372E-01-3.44044E-01 6.82079E-09-6.50498E-02 9.66289E-11 7.57261E-12
 -1     12755 4.77372E-01-3.44044E-01 5.87800E-09-6.50498E-02 2.29209E-11 1.80010E-12
 -1     12759 4.77372E-01-3.44044E-01 5.87800E-09-6.50498E-02-2.29247E-11-1.79655E-12
 -1     12763 4.77372E-01-3.44044E-01 6.82080E-09-6.50498E-02-9.66148E-11-7.57174E-12
 -1     12767 4.77372E-01-3.44044E-01 9.10441E-09-6.50498E-02-2.36884E-09-1.86403E-10
 -1     12771 4.77372E-01-3.44044E-01 1.38579E-08-6.50498E-02-8.45812E-09-6.65625E-10
 -1     12775 4.77372E-01-3.44044E-01 1.06428E-08-6.50498E-02-1.35526E-08-1.06660E-09
 -1     12781-2.88047E-01 4.21375E-01-5.03514E-09-1.15253E-01-2.44551E-10-1.54403E-09
 -1     12782-2.97229E-01 4.30557E-01-8.31463E-09-5.76350E-02-4.11561E-10-5.22944E-09
 -1     12783-3.10874E-01 4.44202E-01 4.46813E-09-1.22670E-01 6.30863E-10 3.98312E-09
 -1     12788-2.88047E-01 4.21375E-01-8.14950E-09-1.15253E-01-2.63051E-10-1.66086E-09
 -1     12789-2.97229E-01 4.30557E-01-9.49457E-09-5.76350E-02-1.13244E-10-1.43898E-09
 -1     12790-3.10874E-01 4.44202E-01 7.74495E-09-1.22670E-01 1.94843E-10 1.23018E-09
 -1     12795-2.88047E-01 4.21375E-01-7.44583E-09-1.15253E-01-9.87481E-11-6.23503E-10
 -1     12796-2.97229E-01 4.30557E-01-7.70157E-09-5.76350E-02-5.35718E-11-6.80731E-10
 -1     12797-3.10874E-01 4.44202E-01 6.68801E-09-1.22670E-01 1.26645E-10 7.99611E-10
 -1     12802-2.88047E-01 4.21375E-01-7.58266E-09-1.15253E-01-6.71734E-11-4.24037E-10
 -1     12803-2.97229E-01 4.30557E-01-6.97201E-09-5.76350E-02-6.61294E-12-8.41100E-11
 -1     12804-3.10874E-01 4.44202E-01 6.71735E-09-1.22670E-01 6.09424E-11 3.84807E-10
 -1     12809-2.88047E-01 4.21375E-01-7.38869E-09-1.15253E-01-9.53363E-12-6.02067E-11
 -1     12810-2.97229E-01 4.30557E-01-6.81563E-09-5.76350E-02 7.03570E-12 8.93806E-11
 -1     12811-3.10874E-01 4.44202E-01 6.98704E-09-1.22670E-01 1.02190E-11 6.45168E-11
 -1     12816-2.88047E-01 4.21375E-01-7.12378E-09-1.15253E-01-2.42856E-15-1.19152E-14
 -1     12817-2.97229E-01 4.30557E-01-6.81562E-09-5.76350E-02-7.03129E-12-8.93977E-11
 -1     12818-3.10874E-01 4.44202E-01 6.98705E-09-1.22670E-01-1.02187E-11-6.45350E-11
 -1     12823-2.88047E-01 4.21375E-01-7.38867E-09-1.15253E-01 9.53625E-12 6.02031E-11
 -1     12824-2.97229E-01 4.30557E-01-6.97201E-09-5.76350E-02 6.61752E-12 8.41210E-11
 -1     12825-3.10874E-01 4.44202E-01 6.71737E-09-1.22670E-01-6.09419E-11-3.84775E-10
 -1     12830-2.88047E-01 4.21375E-01-7.58266E-09-1.15253E-01 6.71604E-11 4.24073E-10
 -1     12831-2.97229E-01 4.30557E-01-7.70155E-09-5.76350E-02 5.35720E-11 6.80733E-10
 -1     12832-3.10874E-01 4.44202E-01 6.68804E-09-1.22670E-01-1.26647E-10-7.99613E-10
 -1     12837-2.88047E-01 4.21375E-01-7.44582E-09-1.15253E-01 9.87451E-11 6.23471E-10
 -1     12838-2.97229E-01 4.30557E-01-9.49457E-09-5.76350E-02 1.13246E-10 1.43898E-09
 -1     12839-3.10874E-01 4.44202E-01 7.74498E-09-1.22670E-01-1.94843E-10-1.23020E-09
 -1     12844-2.88047E-01 4.21375E-01-8.14947E-09-1.15253E-01 2.63052E-10 1.66083E-09
 -1     12845-2.97229E-01 4.30557E-01-8.31462E-09-5.76350E-02 4.11561E-10 5.22943E-09
 -1     12846-3.10874E-01 4.44202E-01 4.46814E-09-1.22670E-01-6.30861E-10-3.98314E-09
 -1     12851-2.88047E-01 4.21375E-01-5.03513E-09-1.15253E-01 2.44552E-10 1.54402E-09
 -1     12855-2.35071E-01 3.68399E-01-5.03515E-09-2.19224E-01-4.83092E-10-1.48677E-09
 -1     12856-2.61609E-01 3.94937E-01-8.31464E-09-1.67263E-01-1.22457E-09-5.10066E-09
 -1     12857-2.54489E-01 3.87817E-01 4.46816E-09-2.33331E-01 1.24618E-09 3.83541E-09
 -1     12862-2.35071E-01 3.68399E-01-8.14946E-09-2.19224E-01-5.19633E-10-1.59921E-09
 -1     12863-2.61609E-01 3.94937E-01-9.49458E-09-1.67263E-01-3.36971E-10-1.40355E-09
 -1     12864-2.54489E-01 3.87817E-01 7.74499E-09-2.33331E-01 3.84885E-10 1.18457E-09
 -1     12869-2.35071E-01 3.68399E-01-7.44579E-09-2.19224E-01-1.95052E-10-6.00318E-10
 -1     12870-2.61609E-01 3.94937E-01-7.70157E-09-1.67263E-01-1.59403E-10-6.63988E-10
 -1     12871-2.54489E-01 3.87817E-01 6.68807E-09-2.33331E-01 2.50181E-10 7.69968E-10
 -1     12876-2.35071E-01 3.68399E-01-7.58264E-09-2.19224E-01-1.32656E-10-4.08337E-10
 -1     12877-2.61609E-01 3.94937E-01-6.97201E-09-1.67263E-01-1.97028E-11-8.20343E-11
 -1     12878-2.54489E-01 3.87817E-01 6.71738E-09-2.33331E-01 1.20389E-10 3.70510E-10
 -1     12883-2.35071E-01 3.68399E-01-7.38867E-09-2.19224E-01-1.88427E-11-5.79794E-11
 -1     12884-2.61609E-01 3.94937E-01-6.81562E-09-1.67263E-01 2.09203E-11 8.71586E-11
 -1     12885-2.54489E-01 3.87817E-01 6.98707E-09-2.33331E-01 2.01741E-11 6.21207E-11
 -1     12890-2.35071E-01 3.68399E-01-7.12376E-09-2.19224E-01-1.57386E-14 6.54117E-15
 -1     12891-2.61609E-01 3.94937E-01-6.81562E-09-1.67263E-01-2.09342E-11-8.71716E-11
 -1     12892-2.54489E-01 3.87817E-01 6.98707E-09-2.33331E-01-2.01971E-11-6.21213E-11
 -1     12897-2.35071E-01 3.68399E-01-7.38867E-09-2.19224E-01 1.88195E-11 5.79650E-11
 -1     12898-2.61609E-01 3.94937E-01-6.97202E-09-1.67263E-01 1.96925E-11 8.20388E-11
 -1     12899-2.54489E-01 3.87817E-01 6.71738E-09-2.33331E-01-1.20394E-10-3.70524E-10
 -1     12904-2.35071E-01 3.68399E-01-7.58266E-09-2.19224E-01 1.32673E-10 4.08295E-10
 -1     12905-2.61609E-01 3.94937E-01-7.70155E-09-1.67263E-01 1.59399E-10 6.63974E-10
 -1     12906-2.54489E-01 3.87817E-01 6.68805E-09-2.33331E-01-2.50174E-10-7.69975E-10
 -1     12911-2.35071E-01 3.68399E-01-7.44580E-09-2.19224E-01 1.95057E-10 6.00367E-10
 -1     12912-2.61609E-01 3.94937E-01-9.49457E-09-1.67263E-01 3.36961E-10 1.40354E-09
 -1     12913-2.54489E-01 3.87817E-01 7.74498E-09-2.33331E-01-3.84877E-10-1.18456E-09
 -1     12918-2.35071E-01 3.68399E-01-8.14946E-09-2.19224E-01 5.19638E-10 1.59927E-09
 -1     12919-2.61609E-01 3.94937E-01-8.31463E-09-1.67263E-01 1.22456E-09 5.10066E-09
 -1     12920-2.54489E-01 3.87817E-01 4.46817E-09-2.33331E-01-1.24618E-09-3.83539E-09
 -1     12925-2.35071E-01 3.68399E-01-5.03514E-09-2.19224E-01 4.83099E-10 1.48675E-09
 -1     12929-1.52560E-01 2.85888E-01-5.03511E-09-3.01735E-01-7.09731E-10-1.39290E-09
 -1     12930-1.93855E-01 3.27183E-01-8.31462E-09-2.60519E-01-2.00740E-09-4.84631E-09
 -1     12931-1.66667E-01 2.99995E-01 4.46815E-09-3.21153E-01 1.83083E-09 3.59318E-09
 -1     12936-1.52560E-01 2.85888E-01-8.14943E-09-3.01735E-01-7.63421E-10-1.49825E-09
 -1     12937-1.93855E-01 3.27183E-01-9.49456E-09-2.60519E-01-5.52385E-10-1.33354E-09
 -1     12938-1.66667E-01 2.99995E-01 7.74498E-09-3.21153E-01 5.65433E-10 1.10977E-09
 -1     12943-1.52560E-01 2.85888E-01-7.44578E-09-3.01735E-01-2.86606E-10-5.62411E-10
 -1     12944-1.93855E-01 3.27183E-01-7.70156E-09-2.60519E-01-2.61309E-10-6.30863E-10
 -1     12945-1.66667E-01 2.99995E-01 6.68806E-09-3.21153E-01 3.67543E-10 7.21347E-10
 -1     12950-1.52560E-01 2.85888E-01-7.58263E-09-3.01735E-01-1.94916E-10-3.82545E-10
 -1     12951-1.93855E-01 3.27183E-01-6.97201E-09-2.60519E-01-3.22854E-11-7.79539E-11
 -1     12952-1.66667E-01 2.99995E-01 6.71737E-09-3.21153E-01 1.76847E-10 3.47138E-10
 -1     12957-1.52560E-01 2.85888E-01-7.38865E-09-3.01735E-01-2.76652E-11-5.43067E-11
 -1     12958-1.93855E-01 3.27183E-01-6.81563E-09-2.60519E-01 3.43085E-11 8.28165E-11
 -1     12959-1.66667E-01 2.99995E-01 6.98708E-09-3.21153E-01 2.96619E-11 5.81954E-11
 -1     12964-1.52560E-01 2.85888E-01-7.12374E-09-3.01735E-01-7.07049E-15-7.59732E-15
 -1     12965-1.93855E-01 3.27183E-01-6.81561E-09-2.60519E-01-3.43336E-11-8.28212E-11
 -1     12966-1.66667E-01 2.99995E-01 6.98707E-09-3.21153E-01-2.96707E-11-5.82053E-11
 -1     12971-1.52560E-01 2.85888E-01-7.38864E-09-3.01735E-01 2.76531E-11 5.43333E-11
 -1     12972-1.93855E-01 3.27183E-01-6.97201E-09-2.60519E-01 3.22827E-11 7.79497E-11
 -1     12973-1.66667E-01 2.99995E-01 6.71739E-09-3.21153E-01-1.76867E-10-3.47115E-10
 -1     12978-1.52560E-01 2.85888E-01-7.58262E-09-3.01735E-01 1.94925E-10 3.82548E-10
 -1     12979-1.93855E-01 3.27183E-01-7.70155E-09-2.60519E-01 2.61297E-10 6.30873E-10
 -1     12980-1.66667E-01 2.99995E-01 6.68805E-09-3.21153E-01-3.67556E-10-7.21334E-10
 -1     12985-1.52560E-01 2.85888E-01-7.44577E-09-3.01735E-01 2.86572E-10 5.62390E-10
 -1     12986-1.93855E-01 3.27183E-01-9.49455E-09-2.60519E-01 5.52375E-10 1.33354E-09
 -1     12987-1.66667E-01 2.99995E-01 7.74498E-09-3.21153E-01-5.65454E-10-1.10978E-09
 -1     12992-1.52560E-01 2.85888E-01-8.14944E-09-3.01735E-01 7.63410E-10 1.49827E-09
 -1     12993-1.93855E-01 3.27183E-01-8.31464E-09-2.60519E-01 2.00739E-09 4.84630E-09
 -1     12994-1.66667E-01 2.99995E-01 4.46814E-09-3.21153E-01-1.83084E-09-3.59321E-09
 -1     12999-1.52560E-01 2.85888E-01-5.03512E-09-3.01735E-01 7.09727E-10 1.39290E-09
 -1     13003-4.85887E-02 1.81917E-01-5.03519E-09-3.54711E-01-9.18890E-10-1.26473E-09
 -1     13004-1.00599E-01 2.33927E-01-8.31467E-09-3.28273E-01-2.74082E-09-4.47263E-09
 -1     13005-5.60055E-02 1.89334E-01 4.46824E-09-3.77538E-01 2.37041E-09 3.26256E-09
 -1     13010-4.85887E-02 1.81917E-01-8.14953E-09-3.54711E-01-9.88392E-10-1.36037E-09
 -1     13011-1.00599E-01 2.33927E-01-9.49459E-09-3.28273E-01-7.54181E-10-1.23069E-09
 -1     13012-5.60055E-02 1.89334E-01 7.74509E-09-3.77538E-01 7.32129E-10 1.00768E-09
 -1     13017-4.85887E-02 1.81917E-01-7.44585E-09-3.54711E-01-3.71006E-10-5.10632E-10
 -1     13018-1.00599E-01 2.33927E-01-7.70158E-09-3.28273E-01-3.56772E-10-5.82212E-10
 -1     13019-5.60055E-02 1.89333E-01 6.68814E-09-3.77538E-01 4.75870E-10 6.54999E-10
 -1     13024-4.85887E-02 1.81917E-01-7.58269E-09-3.54711E-01-2.52355E-10-3.47296E-10
 -1     13025-1.00599E-01 2.33927E-01-6.97204E-09-3.28273E-01-4.40904E-11-7.19313E-11
 -1     13026-5.60055E-02 1.89333E-01 6.71748E-09-3.77538E-01 2.28980E-10 3.15214E-10
 -1     13031-4.85887E-02 1.81917E-01-7.38870E-09-3.54711E-01-3.58464E-11-4.92988E-11
 -1     13032-1.00599E-01 2.33927E-01-6.81564E-09-3.28273E-01 4.68426E-11 7.64332E-11
 -1     13033-5.60055E-02 1.89333E-01 6.98718E-09-3.77538E-01 3.83879E-11 5.28575E-11
 -1     13038-4.85887E-02 1.81917E-01-7.12379E-09-3.54711E-01-4.34086E-15 8.22878E-15
 -1     13039-1.00599E-01 2.33927E-01-6.81564E-09-3.28273E-01-4.68487E-11-7.64344E-11
 -1     13040-5.60055E-02 1.89333E-01 6.98718E-09-3.77538E-01-3.83896E-11-5.28504E-11
 -1     13045-4.85887E-02 1.81917E-01-7.38871E-09-3.54711E-01 3.58050E-11 4.92849E-11
 -1     13046-1.00599E-01 2.33927E-01-6.97203E-09-3.28273E-01 4.40768E-11 7.19419E-11
 -1     13047-5.60055E-02 1.89333E-01 6.71748E-09-3.77538E-01-2.29015E-10-3.15186E-10
 -1     13052-4.85887E-02 1.81917E-01-7.58268E-09-3.54711E-01 2.52325E-10 3.47341E-10
 -1     13053-1.00599E-01 2.33927E-01-7.70159E-09-3.28273E-01 3.56783E-10 5.82216E-10
 -1     13054-5.60055E-02 1.89333E-01 6.68815E-09-3.77538E-01-4.75874E-10-6.54981E-10
 -1     13059-4.85887E-02 1.81917E-01-7.44586E-09-3.54711E-01 3.70999E-10 5.10654E-10
 -1     13060-1.00599E-01 2.33927E-01-9.49460E-09-3.28273E-01 7.54177E-10 1.23069E-09
 -1     13061-5.60055E-02 1.89334E-01 7.74507E-09-3.77538E-01-7.32133E-10-1.00768E-09
 -1     13066-4.85887E-02 1.81917E-01-8.14953E-09-3.54711E-01 9.88369E-10 1.36036E-09
 -1     13067-1.00599E-01 2.33927E-01-8.31467E-09-3.28273E-01 2.74080E-09 4.47263E-09
 -1     13068-5.60055E-02 1.89334E-01 4.46825E-09-3.77538E-01-2.37043E-09-3.26258E-09
 -1     13073-4.85887E-02 1.81917E-01-5.03519E-09-3.54711E-01 9.18864E-10 1.26468E-09
 -1     13077 6.66640E-02 6.66640E-02-5.03519E-09-3.72966E-01-1.10542E-09-1.10534E-09
 -1     13078 9.02895E-03 1.24299E-01-8.31457E-09-3.63893E-01-3.40674E-09-3.98877E-09
 -1     13079 6.66640E-02 6.66640E-02 4.46822E-09-3.96967E-01 2.85156E-09 2.85158E-09
 -1     13084 6.66640E-02 6.66640E-02-8.14945E-09-3.72966E-01-1.18898E-09-1.18897E-09
 -1     13085 9.02895E-03 1.24299E-01-9.49447E-09-3.63893E-01-9.37422E-10-1.09753E-09
 -1     13086 6.66640E-02 6.66640E-02 7.74503E-09-3.96967E-01 8.80745E-10 8.80768E-10
 -1     13091 6.66640E-02 6.66640E-02-7.44582E-09-3.72966E-01-4.46334E-10-4.46318E-10
 -1     13092 9.02895E-03 1.24299E-01-7.70148E-09-3.63893E-01-4.43470E-10-5.19195E-10
 -1     13093 6.66640E-02 6.66640E-02 6.68811E-09-3.96967E-01 5.72465E-10 5.72488E-10
 -1     13098 6.66640E-02 6.66640E-02-7.58266E-09-3.72966E-01-3.03589E-10-3.03559E-10
 -1     13099 9.02895E-03 1.24299E-01-6.97194E-09-3.63893E-01-5.48184E-11-6.41257E-11
 -1     13100 6.66640E-02 6.66640E-02 6.71741E-09-3.96967E-01 2.75465E-10 2.75481E-10
 -1     13105 6.66640E-02 6.66640E-02-7.38863E-09-3.72966E-01-4.30619E-11-4.31011E-11
 -1     13106 9.02895E-03 1.24299E-01-6.81553E-09-3.63893E-01 5.82280E-11 6.81585E-11
 -1     13107 6.66640E-02 6.66640E-02 6.98708E-09-3.96967E-01 4.62241E-11 4.61994E-11
 -1     13112 6.66640E-02 6.66640E-02-7.12375E-09-3.72966E-01 1.25548E-14 1.91127E-14
 -1     13113 9.02895E-03 1.24299E-01-6.81554E-09-3.63893E-01-5.82333E-11-6.81565E-11
 -1     13114 6.66640E-02 6.66640E-02 6.98709E-09-3.96967E-01-4.62156E-11-4.61681E-11
 -1     13119 6.66640E-02 6.66640E-02-7.38862E-09-3.72966E-01 4.30802E-11 4.30825E-11
 -1     13120 9.02895E-03 1.24299E-01-6.97192E-09-3.63893E-01 5.47775E-11 6.41357E-11
 -1     13121 6.66640E-02 6.66640E-02 6.71741E-09-3.96967E-01-2.75465E-10-2.75512E-10
 -1     13126 6.66640E-02 6.66640E-02-7.58264E-09-3.72966E-01 3.03560E-10 3.03547E-10
 -1     13127 9.02895E-03 1.24299E-01-7.70149E-09-3.63893E-01 4.43441E-10 5.19213E-10
 -1     13128 6.66640E-02 6.66640E-02 6.68810E-09-3.96967E-01-5.72487E-10-5.72494E-10
 -1     13133 6.66640E-02 6.66640E-02-7.44579E-09-3.72966E-01 4.46344E-10 4.46315E-10
 -1     13134 9.02895E-03 1.24299E-01-9.49447E-09-3.63893E-01 9.37430E-10 1.09755E-09
 -1     13135 6.66640E-02 6.66640E-02 7.74504E-09-3.96967E-01-8.80703E-10-8.80749E-10
 -1     13140 6.66640E-02 6.66640E-02-8.14944E-09-3.72966E-01 1.18903E-09 1.18900E-09
 -1     13141 9.02895E-03 1.24299E-01-8.31456E-09-3.63893E-01 3.40672E-09 3.98877E-09
 -1     13142 6.66640E-02 6.66640E-02 4.46822E-09-3.96967E-01-2.85156E-09-2.85156E-09
 -1     13147 6.66640E-02 6.66640E-02-5.03517E-09-3.72966E-01 1.10541E-09 1.10538E-09
 -1     13151 1.81917E-01-4.85887E-02-5.03496E-09-3.54711E-01-1.26463E-09-9.18871E-10
 -1     13152 1.24299E-01 9.02895E-03-8.31467E-09-3.63893E-01-3.98880E-09-3.40676E-09
 -1     13153 1.89334E-01-5.60055E-02 4.46814E-09-3.77538E-01 3.26267E-09 2.37046E-09
 -1     13158 1.81917E-01-4.85887E-02-8.14965E-09-3.54711E-01-1.36041E-09-9.88357E-10
 -1     13159 1.24299E-01 9.02895E-03-9.49465E-09-3.63893E-01-1.09751E-09-9.37342E-10
 -1     13160 1.89334E-01-5.60055E-02 7.74505E-09-3.77538E-01 1.00755E-09 7.31995E-10
 -1     13165 1.81917E-01-4.85887E-02-7.44585E-09-3.54711E-01-5.10590E-10-3.70971E-10
 -1     13166 1.24299E-01 9.02895E-03-7.70164E-09-3.63893E-01-5.19204E-10-4.43422E-10
 -1     13167 1.89333E-01-5.60055E-02 6.68785E-09-3.77538E-01 6.54885E-10 4.75759E-10
 -1     13172 1.81917E-01-4.85887E-02-7.58272E-09-3.54711E-01-3.47309E-10-2.52340E-10
 -1     13173 1.24299E-01 9.02895E-03-6.97210E-09-3.63893E-01-6.41490E-11-5.47998E-11
 -1     13174 1.89333E-01-5.60055E-02 6.71707E-09-3.77538E-01 3.15142E-10 2.28901E-10
 -1     13179 1.81917E-01-4.85887E-02-7.38885E-09-3.54711E-01-4.93297E-11-3.58274E-11
 -1     13180 1.24299E-01 9.02895E-03-6.81572E-09-3.63893E-01 6.81885E-11 5.82399E-11
 -1     13181 1.89333E-01-5.60055E-02 6.98671E-09-3.77538E-01 5.27633E-11 3.83518E-11
 -1     13186 1.81917E-01-4.85887E-02-7.12386E-09-3.54711E-01-2.69178E-14 1.50481E-14
 -1     13187 1.24299E-01 9.02895E-03-6.81573E-09-3.63893E-01-6.81754E-11-5.82190E-11
 -1     13188 1.89333E-01-5.60055E-02 6.98670E-09-3.77538E-01-5.27812E-11-3.83427E-11
 -1     13193 1.81917E-01-4.85887E-02-7.38885E-09-3.54711E-01 4.93262E-11 3.58255E-11
 -1     13194 1.24299E-01 9.02895E-03-6.97209E-09-3.63893E-01 6.41651E-11 5.47878E-11
 -1     13195 1.89333E-01-5.60055E-02 6.71705E-09-3.77538E-01-3.15116E-10-2.28883E-10
 -1     13200 1.81917E-01-4.85887E-02-7.58273E-09-3.54711E-01 3.47386E-10 2.52372E-10
 -1     13201 1.24299E-01 9.02895E-03-7.70163E-09-3.63893E-01 5.19182E-10 4.43426E-10
 -1     13202 1.89333E-01-5.60055E-02 6.68785E-09-3.77538E-01-6.54869E-10-4.75764E-10
 -1     13207 1.81917E-01-4.85887E-02-7.44587E-09-3.54711E-01 5.10578E-10 3.70964E-10
 -1     13208 1.24299E-01 9.02895E-03-9.49465E-09-3.63893E-01 1.09752E-09 9.37349E-10
 -1     13209 1.89334E-01-5.60055E-02 7.74502E-09-3.77538E-01-1.00758E-09-7.32006E-10
 -1     13214 1.81917E-01-4.85887E-02-8.14967E-09-3.54711E-01 1.36041E-09 9.88361E-10
 -1     13215 1.24299E-01 9.02895E-03-8.31467E-09-3.63893E-01 3.98882E-09 3.40677E-09
 -1     13216 1.89334E-01-5.60055E-02 4.46814E-09-3.77538E-01-3.26265E-09-2.37047E-09
 -1     13221 1.81917E-01-4.85887E-02-5.03498E-09-3.54711E-01 1.26464E-09 9.18869E-10
 -1     13225 2.85888E-01-1.52560E-01-5.03622E-09-3.01735E-01-1.39298E-09-7.09781E-10
 -1     13226 2.33927E-01-1.00599E-01-8.31471E-09-3.28273E-01-4.47237E-09-2.74068E-09
 -1     13227 2.99995E-01-1.66667E-01 4.46884E-09-3.21153E-01 3.59272E-09 1.83058E-09
 -1     13232 2.85888E-01-1.52560E-01-8.14904E-09-3.01735E-01-1.49800E-09-7.63344E-10
 -1     13233 2.33927E-01-1.00599E-01-9.49443E-09-3.28273E-01-1.23078E-09-7.54276E-10
 -1     13234 2.99995E-01-1.66667E-01 7.74480E-09-3.21153E-01 1.10986E-09 5.65480E-10
 -1     13239 2.85888E-01-1.52560E-01-7.44612E-09-3.01735E-01-5.62556E-10-2.86677E-10
 -1     13240 2.33927E-01-1.00599E-01-7.70155E-09-3.28273E-01-5.82188E-10-3.56795E-10
 -1     13241 2.99995E-01-1.66667E-01 6.68794E-09-3.21153E-01 7.21170E-10 3.67443E-10
 -1     13246 2.85888E-01-1.52560E-01-7.58296E-09-3.01735E-01-3.82496E-10-1.94927E-10
 -1     13247 2.33927E-01-1.00599E-01-6.97204E-09-3.28273E-01-7.19046E-11-4.40930E-11
 -1     13248 2.99995E-01-1.66667E-01 6.71714E-09-3.21153E-01 3.46867E-10 1.76751E-10
 -1     13253 2.85888E-01-1.52560E-01-7.38872E-09-3.01735E-01-5.42951E-11-2.76995E-11
 -1     13254 2.33927E-01-1.00599E-01-6.81565E-09-3.28273E-01 7.64115E-11 4.68084E-11
 -1     13255 2.99995E-01-1.66667E-01 6.98673E-09-3.21153E-01 5.82724E-11 2.96674E-11
 -1     13260 2.85888E-01-1.52560E-01-7.12416E-09-3.01735E-01 6.18088E-15-7.92205E-15
 -1     13261 2.33927E-01-1.00599E-01-6.81566E-09-3.28273E-01-7.63836E-11-4.68030E-11
 -1     13262 2.99995E-01-1.66667E-01 6.98671E-09-3.21153E-01-5.82292E-11-2.96771E-11
 -1     13267 2.85888E-01-1.52560E-01-7.38874E-09-3.01735E-01 5.43411E-11 2.76885E-11
 -1     13268 2.33927E-01-1.00599E-01-6.97204E-09-3.28273E-01 7.19007E-11 4.40804E-11
 -1     13269 2.99995E-01-1.66667E-01 6.71714E-09-3.21153E-01-3.46890E-10-1.76765E-10
 -1     13274 2.85888E-01-1.52560E-01-7.58294E-09-3.01735E-01 3.82426E-10 1.94903E-10
 -1     13275 2.33927E-01-1.00599E-01-7.70155E-09-3.28273E-01 5.82192E-10 3.56788E-10
 -1     13276 2.99995E-01-1.66667E-01 6.68792E-09-3.21153E-01-7.21166E-10-3.67448E-10
 -1     13281 2.85888E-01-1.52560E-01-7.44612E-09-3.01735E-01 5.62602E-10 2.86673E-10
 -1     13282 2.33927E-01-1.00599E-01-9.49444E-09-3.28273E-01 1.23078E-09 7.54273E-10
 -1     13283 2.99995E-01-1.66667E-01 7.74480E-09-3.21153E-01-1.10984E-09-5.65467E-10
 -1     13288 2.85888E-01-1.52560E-01-8.14906E-09-3.01735E-01 1.49798E-09 7.63362E-10
 -1     13289 2.33927E-01-1.00599E-01-8.31472E-09-3.28273E-01 4.47237E-09 2.74068E-09
 -1     13290 2.99995E-01-1.66667E-01 4.46883E-09-3.21153E-01-3.59274E-09-1.83060E-09
 -1     13295 2.85888E-01-1.52560E-01-5.03622E-09-3.01735E-01 1.39296E-09 7.09785E-10
 -1     13299 3.68399E-01-2.35071E-01-5.03414E-09-2.19224E-01-1.48668E-09-4.83099E-10
 -1     13300 3.27183E-01-1.93855E-01-8.31464E-09-2.60519E-01-4.84628E-09-2.00748E-09
 -1     13301 3.87817E-01-2.54489E-01 4.46754E-09-2.33331E-01 3.83592E-09 1.24638E-09
 -1     13306 3.68399E-01-2.35071E-01-8.15003E-09-2.19224E-01-1.59946E-09-5.19772E-10
 -1     13307 3.27183E-01-1.93855E-01-9.49458E-09-2.60519E-01-1.33354E-09-5.52393E-10
 -1     13308 3.87817E-01-2.54489E-01 7.74526E-09-2.33331E-01 1.18452E-09 3.84853E-10
 -1     13313 3.68399E-01-2.35071E-01-7.44559E-09-2.19224E-01-6.00127E-10-1.95043E-10
 -1     13314 3.27183E-01-1.93855E-01-7.70156E-09-2.60519E-01-6.30845E-10-2.61341E-10
 -1     13315 3.87817E-01-2.54489E-01 6.68827E-09-2.33331E-01 7.70184E-10 2.50227E-10
 -1     13320 3.68399E-01-2.35071E-01-7.58244E-09-2.19224E-01-4.08380E-10-1.32737E-10
 -1     13321 3.27183E-01-1.93855E-01-6.97203E-09-2.60519E-01-7.79600E-11-3.23235E-11
 -1     13322 3.87817E-01-2.54489E-01 6.71771E-09-2.33331E-01 3.70767E-10 1.20476E-10
 -1     13327 3.68399E-01-2.35071E-01-7.38870E-09-2.19224E-01-5.79381E-11-1.88437E-11
 -1     13328 3.27183E-01-1.93855E-01-6.81565E-09-2.60519E-01 8.28434E-11 3.42976E-11
 -1     13329 3.87817E-01-2.54489E-01 6.98751E-09-2.33331E-01 6.20842E-11 2.01767E-11
 -1     13334 3.68399E-01-2.35071E-01-7.12344E-09-2.19224E-01-1.32542E-14 3.02809E-15
 -1     13335 3.27183E-01-1.93855E-01-6.81562E-09-2.60519E-01-8.28261E-11-3.43101E-11
 -1     13336 3.87817E-01-2.54489E-01 6.98753E-09-2.33331E-01-6.21008E-11-2.01827E-11
 -1     13341 3.68399E-01-2.35071E-01-7.38868E-09-2.19224E-01 5.79501E-11 1.88400E-11
 -1     13342 3.27183E-01-1.93855E-01-6.97203E-09-2.60519E-01 7.79573E-11 3.23191E-11
 -1     13343 3.87817E-01-2.54489E-01 6.71772E-09-2.33331E-01-3.70763E-10-1.20483E-10
 -1     13348 3.68399E-01-2.35071E-01-7.58245E-09-2.19224E-01 4.08408E-10 1.32724E-10
 -1     13349 3.27183E-01-1.93855E-01-7.70156E-09-2.60519E-01 6.30843E-10 2.61340E-10
 -1     13350 3.87817E-01-2.54489E-01 6.68827E-09-2.33331E-01-7.70166E-10-2.50227E-10
 -1     13355 3.68399E-01-2.35071E-01-7.44557E-09-2.19224E-01 6.00141E-10 1.95050E-10
 -1     13356 3.27183E-01-1.93855E-01-9.49457E-09-2.60519E-01 1.33356E-09 5.52395E-10
 -1     13357 3.87817E-01-2.54489E-01 7.74528E-09-2.33331E-01-1.18449E-09-3.84854E-10
 -1     13362 3.68399E-01-2.35071E-01-8.14996E-09-2.19224E-01 1.59948E-09 5.19779E-10
 -1     13363 3.27183E-01-1.93855E-01-8.31463E-09-2.60519E-01 4.84628E-09 2.00747E-09
 -1     13364 3.87817E-01-2.54489E-01 4.46754E-09-2.33331E-01-3.83590E-09-1.24638E-09
 -1     13369 3.68399E-01-2.35071E-01-5.03412E-09-2.19224E-01 1.48669E-09 4.83099E-10
 -1     13373 4.21375E-01-2.88047E-01-5.03532E-09-1.15253E-01-1.54411E-09-2.44614E-10
 -1     13374 3.94937E-01-2.61609E-01-8.31449E-09-1.67263E-01-5.10095E-09-1.22461E-09
 -1     13375 4.44202E-01-3.10874E-01 4.46818E-09-1.22670E-01 3.98299E-09 6.30870E-10
 -1     13380 4.21375E-01-2.88047E-01-8.14933E-09-1.15253E-01-1.66085E-09-2.63044E-10
 -1     13381 3.94937E-01-2.61609E-01-9.49466E-09-1.67263E-01-1.40344E-09-3.36965E-10
 -1     13382 4.44202E-01-3.10874E-01 7.74494E-09-1.22670E-01 1.23034E-09 1.94836E-10
 -1     13387 4.21375E-01-2.88047E-01-7.44585E-09-1.15253E-01-6.23553E-10-9.87743E-11
 -1     13388 3.94937E-01-2.61609E-01-7.70155E-09-1.67263E-01-6.63987E-10-1.59435E-10
 -1     13389 4.44202E-01-3.10874E-01 6.68828E-09-1.22670E-01 7.99757E-10 1.26629E-10
 -1     13394 4.21375E-01-2.88047E-01-7.58264E-09-1.15253E-01-4.24070E-10-6.71633E-11
 -1     13395 3.94937E-01-2.61609E-01-6.97195E-09-1.67263E-01-8.20939E-11-1.97164E-11
 -1     13396 4.44202E-01-3.10874E-01 6.71774E-09-1.22670E-01 3.84885E-10 6.09195E-11
 -1     13401 4.21375E-01-2.88047E-01-7.38852E-09-1.15253E-01-6.02177E-11-9.54006E-12
 -1     13402 3.94937E-01-2.61609E-01-6.81555E-09-1.67263E-01 8.72254E-11 2.09308E-11
 -1     13403 4.44202E-01-3.10874E-01 6.98748E-09-1.22670E-01 6.46138E-11 1.02147E-11
 -1     13408 4.21375E-01-2.88047E-01-7.12372E-09-1.15253E-01 2.51330E-14-1.53962E-15
 -1     13409 3.94937E-01-2.61609E-01-6.81555E-09-1.67263E-01-8.72181E-11-2.09269E-11
 -1     13410 4.44202E-01-3.10874E-01 6.98747E-09-1.22670E-01-6.45876E-11-1.02125E-11
 -1     13415 4.21375E-01-2.88047E-01-7.38857E-09-1.15253E-01 6.02162E-11 9.54265E-12
 -1     13416 3.94937E-01-2.61609E-01-6.97196E-09-1.67263E-01 8.20989E-11 1.97215E-11
 -1     13417 4.44202E-01-3.10874E-01 6.71773E-09-1.22670E-01-3.84875E-10-6.09165E-11
 -1     13422 4.21375E-01-2.88047E-01-7.58265E-09-1.15253E-01 4.24062E-10 6.71743E-11
 -1     13423 3.94937E-01-2.61609E-01-7.70154E-09-1.67263E-01 6.63979E-10 1.59431E-10
 -1     13424 4.44202E-01-3.10874E-01 6.68828E-09-1.22670E-01-7.99757E-10-1.26628E-10
 -1     13429 4.21375E-01-2.88047E-01-7.44580E-09-1.15253E-01 6.23552E-10 9.87773E-11
 -1     13430 3.94937E-01-2.61609E-01-9.49464E-09-1.67263E-01 1.40345E-09 3.36968E-10
 -1     13431 4.44202E-01-3.10874E-01 7.74495E-09-1.22670E-01-1.23034E-09-1.94830E-10
 -1     13436 4.21375E-01-2.88047E-01-8.14933E-09-1.15253E-01 1.66086E-09 2.63043E-10
 -1     13437 3.94937E-01-2.61609E-01-8.31448E-09-1.67263E-01 5.10096E-09 1.22461E-09
 -1     13438 4.44202E-01-3.10874E-01 4.46818E-09-1.22670E-01-3.98298E-09-6.30862E-10
 -1     13443 4.21375E-01-2.88047E-01-5.03533E-09-1.15253E-01 1.54410E-09 2.44622E-10
 -1     13447 4.30557E-01-2.97229E-01-8.31462E-09-5.76350E-02-5.22943E-09-4.11571E-10
 -1     13451 4.30557E-01-2.97229E-01-9.49455E-09-5.76350E-02-1.43908E-09-1.13252E-10
 -1     13455 4.30557E-01-2.97229E-01-7.70153E-09-5.76350E-02-6.80799E-10-5.35859E-11
 -1     13459 4.30557E-01-2.97229E-01-6.97196E-09-5.76350E-02-8.41683E-11-6.62518E-12
 -1     13463 4.30557E-01-2.97229E-01-6.81554E-09-5.76350E-02 8.93505E-11 7.02703E-12
 -1     13467 4.30557E-01-2.97229E-01-6.81556E-09-5.76350E-02-8.93442E-11-7.02993E-12
 -1     13471 4.30557E-01-2.97229E-01-6.97196E-09-5.76350E-02 8.41595E-11 6.62720E-12
 -1     13475 4.30557E-01-2.97229E-01-7.70153E-09-5.76350E-02 6.80807E-10 5.35842E-11
 -1     13479 4.30557E-01-2.97229E-01-9.49452E-09-5.76350E-02 1.43909E-09 1.13251E-10
 -1     13483 4.30557E-01-2.97229E-01-8.31461E-09-5.76350E-02 5.22946E-09 4.11575E-10
 -1     13489-2.49790E-01 3.83118E-01-1.98759E-09-1.02822E-01 4.44084E-11 2.80376E-10
 -1     13490-2.57981E-01 3.91309E-01-1.69543E-09-5.14188E-02 7.64053E-11 9.70883E-10
 -1     13491-2.68925E-01 4.02253E-01 9.96495E-10-1.09040E-01-1.20302E-10-7.59565E-10
 -1     13496-2.49790E-01 3.83118E-01-2.47174E-09-1.02822E-01 6.01646E-11 3.79836E-10
 -1     13497-2.57981E-01 3.91309E-01-1.47987E-09-5.14188E-02 6.56196E-11 8.33789E-10
 -1     13498-2.68925E-01 4.02253E-01 2.31085E-10-1.09040E-01-8.47543E-11-5.35158E-10
 -1     13503-2.49790E-01 3.83118E-01-1.81125E-09-1.02822E-01 5.53979E-11 3.49775E-10
 -1     13504-2.57981E-01 3.91309E-01-1.98894E-09-5.14188E-02 8.75887E-12 1.11301E-10
 -1     13505-2.68925E-01 4.02253E-01 5.52133E-10-1.09040E-01-1.38939E-11-8.76934E-11
 -1     13510-2.49790E-01 3.83118E-01-2.08045E-09-1.02822E-01 1.24936E-11 7.89080E-11
 -1     13511-2.57981E-01 3.91309E-01-2.19485E-09-5.14188E-02 5.23228E-12 6.65217E-11
 -1     13512-2.68925E-01 4.02253E-01 6.04850E-10-1.09040E-01-5.62400E-12-3.54616E-11
 -1     13517-2.49790E-01 3.83118E-01-2.11339E-09-1.02822E-01 1.12262E-11 7.09298E-11
 -1     13518-2.57981E-01 3.91309E-01-2.24723E-09-5.14188E-02 2.72672E-12 3.46510E-11
 -1     13519-2.68925E-01 4.02253E-01 5.59661E-10-1.09040E-01-3.82078E-12-2.40869E-11
 -1     13524-2.49790E-01 3.83118E-01-2.07986E-09-1.02822E-01-1.19041E-14-5.85363E-15
 -1     13525-2.57981E-01 3.91309E-01-2.24724E-09-5.14188E-02-2.73248E-12-3.46781E-11
 -1     13526-2.68925E-01 4.02253E-01 5.59657E-10-1.09040E-01 3.81239E-12 2.40741E-11
 -1     13531-2.49790E-01 3.83118E-01-2.11341E-09-1.02822E-01-1.12447E-11-7.09151E-11
 -1     13532-2.57981E-01 3.91309E-01-2.19485E-09-5.14188E-02-5.23619E-12-6.65161E-11
 -1     13533-2.68925E-01 4.02253E-01 6.04857E-10-1.09040E-01 5.61661E-12 3.54887E-11
 -1     13538-2.49790E-01 3.83118E-01-2.08044E-09-1.02822E-01-1.25026E-11-7.89259E-11
 -1     13539-2.57981E-01 3.91309E-01-1.98894E-09-5.14188E-02-8.75908E-12-1.11307E-10
 -1     13540-2.68925E-01 4.02253E-01 5.52143E-10-1.09040E-01 1.38858E-11 8.76955E-11
 -1     13545-2.49790E-01 3.83118E-01-1.81125E-09-1.02822E-01-5.53992E-11-3.49803E-10
 -1     13546-2.57981E-01 3.91309E-01-1.47987E-09-5.14188E-02-6.56215E-11-8.33792E-10
 -1     13547-2.68925E-01 4.02253E-01 2.31080E-10-1.09040E-01 8.47517E-11 5.35111E-10
 -1     13552-2.49790E-01 3.83118E-01-2.47175E-09-1.02822E-01-6.01659E-11-3.79860E-10
 -1     13553-2.57981E-01 3.91309E-01-1.69542E-09-5.14188E-02-7.64125E-11-9.70893E-10
 -1     13554-2.68925E-01 4.02253E-01 9.96502E-10-1.09040E-01 1.20301E-10 7.59537E-10
 -1     13559-2.49790E-01 3.83118E-01-1.98760E-09-1.02822E-01-4.44093E-11-2.80388E-10
 -1     13563-2.02528E-01 3.35855E-01-1.98762E-09-1.95579E-01 8.77306E-11 2.69995E-10
 -1     13564-2.26203E-01 3.59531E-01-1.69541E-09-1.49223E-01 2.27344E-10 9.46977E-10
 -1     13565-2.18805E-01 3.52133E-01 9.96507E-10-2.07406E-01-2.37640E-10-7.31373E-10
 -1     13570-2.02528E-01 3.35855E-01-2.47177E-09-1.95579E-01 1.18843E-10 3.65762E-10
 -1     13571-2.26203E-01 3.59531E-01-1.47986E-09-1.49223E-01 1.95240E-10 8.13257E-10
 -1     13572-2.18805E-01 3.52133E-01 2.31103E-10-2.07406E-01-1.67427E-10-5.15253E-10
 -1     13577-2.02528E-01 3.35855E-01-1.81127E-09-1.95579E-01 1.09429E-10 3.36811E-10
 -1     13578-2.26203E-01 3.59531E-01-1.98893E-09-1.49223E-01 2.60540E-11 1.08563E-10
 -1     13579-2.18805E-01 3.52133E-01 5.52143E-10-2.07406E-01-2.74281E-11-8.44362E-11
 -1     13584-2.02528E-01 3.35855E-01-2.08045E-09-1.95579E-01 2.46832E-11 7.60039E-11
 -1     13585-2.26203E-01 3.59531E-01-2.19485E-09-1.49223E-01 1.55711E-11 6.48767E-11
 -1     13586-2.18805E-01 3.52133E-01 6.04864E-10-2.07406E-01-1.11032E-11-3.41735E-11
 -1     13591-2.02528E-01 3.35855E-01-2.11341E-09-1.95579E-01 2.21842E-11 6.82796E-11
 -1     13592-2.26203E-01 3.59531E-01-2.24723E-09-1.49223E-01 8.11294E-12 3.38061E-11
 -1     13593-2.18805E-01 3.52133E-01 5.59681E-10-2.07406E-01-7.54830E-12-2.32126E-11
 -1     13598-2.02528E-01 3.35855E-01-2.07986E-09-1.95579E-01-7.74477E-15-2.61107E-14
 -1     13599-2.26203E-01 3.59531E-01-2.24724E-09-1.49223E-01-8.12480E-12-3.38278E-11
 -1     13600-2.18805E-01 3.52133E-01 5.59673E-10-2.07406E-01 7.52532E-12 2.31919E-11
 -1     13605-2.02528E-01 3.35855E-01-2.11340E-09-1.95579E-01-2.21924E-11-6.83049E-11
 -1     13606-2.26203E-01 3.59531E-01-2.19485E-09-1.49223E-01-1.55853E-11-6.48892E-11
 -1     13607-2.18805E-01 3.52133E-01 6.04845E-10-2.07406E-01 1.10915E-11 3.41536E-11
 -1     13612-2.02528E-01 3.35855E-01-2.08046E-09-1.95579E-01-2.46938E-11-7.59685E-11
 -1     13613-2.26203E-01 3.59531E-01-1.98895E-09-1.49223E-01-2.60637E-11-1.08560E-10
 -1     13614-2.18805E-01 3.52133E-01 5.52142E-10-2.07406E-01 2.74254E-11 8.44468E-11
 -1     13619-2.02528E-01 3.35855E-01-1.81127E-09-1.95579E-01-1.09444E-10-3.36796E-10
 -1     13620-2.26203E-01 3.59531E-01-1.47986E-09-1.49223E-01-1.95248E-10-8.13256E-10
 -1     13621-2.18805E-01 3.52133E-01 2.31102E-10-2.07406E-01 1.67429E-10 5.15290E-10
 -1     13626-2.02528E-01 3.35855E-01-2.47178E-09-1.95579E-01-1.18847E-10-3.65742E-10
 -1     13627-2.26203E-01 3.59531E-01-1.69543E-09-1.49223E-01-2.27357E-10-9.46992E-10
 -1     13628-2.18805E-01 3.52133E-01 9.96492E-10-2.07406E-01 2.37644E-10 7.31370E-10
 -1     13633-2.02528E-01 3.35855E-01-1.98763E-09-1.95579E-01-8.77230E-11-2.69991E-10
 -1     13637-1.28915E-01 2.62243E-01-1.98759E-09-2.69192E-01 1.28879E-10 2.52935E-10
 -1     13638-1.65756E-01 2.99084E-01-1.69540E-09-2.32420E-01 3.72693E-10 8.99755E-10
 -1     13639-1.40742E-01 2.74070E-01 9.96491E-10-2.85469E-01-3.49135E-10-6.85195E-10
 -1     13644-1.28915E-01 2.62243E-01-2.47175E-09-2.69192E-01 1.74587E-10 3.42662E-10
 -1     13645-1.65756E-01 2.99084E-01-1.47986E-09-2.32420E-01 3.20062E-10 7.72711E-10
 -1     13646-1.40742E-01 2.74070E-01 2.31078E-10-2.85469E-01-2.45983E-10-4.82731E-10
 -1     13651-1.28915E-01 2.62243E-01-1.81125E-09-2.69192E-01 1.60774E-10 3.15559E-10
 -1     13652-1.65756E-01 2.99084E-01-1.98892E-09-2.32420E-01 4.27232E-11 1.03153E-10
 -1     13653-1.40742E-01 2.74070E-01 5.52116E-10-2.85469E-01-4.03177E-11-7.91029E-11
 -1     13658-1.28915E-01 2.62243E-01-2.08044E-09-2.69192E-01 3.62697E-11 7.11814E-11
 -1     13659-1.65756E-01 2.99084E-01-2.19482E-09-2.32420E-01 2.55370E-11 6.16523E-11
 -1     13660-1.40742E-01 2.74070E-01 6.04834E-10-2.85469E-01-1.63027E-11-3.20036E-11
 -1     13665-1.28915E-01 2.62243E-01-2.11337E-09-2.69192E-01 3.25950E-11 6.40050E-11
 -1     13666-1.65756E-01 2.99084E-01-2.24721E-09-2.32420E-01 1.33007E-11 3.21293E-11
 -1     13667-1.40742E-01 2.74070E-01 5.59660E-10-2.85469E-01-1.10731E-11-2.17176E-11
 -1     13672-1.28915E-01 2.62243E-01-2.07983E-09-2.69192E-01 5.57680E-16-3.42848E-15
 -1     13673-1.65756E-01 2.99084E-01-2.24721E-09-2.32420E-01-1.33125E-11-3.21304E-11
 -1     13674-1.40742E-01 2.74070E-01 5.59657E-10-2.85469E-01 1.10513E-11 2.17244E-11
 -1     13679-1.28915E-01 2.62243E-01-2.11339E-09-2.69192E-01-3.26048E-11-6.39904E-11
 -1     13680-1.65756E-01 2.99084E-01-2.19482E-09-2.32420E-01-2.55432E-11-6.16636E-11
 -1     13681-1.40742E-01 2.74070E-01 6.04846E-10-2.85469E-01 1.63132E-11 3.19902E-11
 -1     13686-1.28915E-01 2.62243E-01-2.08045E-09-2.69192E-01-3.62777E-11-7.12174E-11
 -1     13687-1.65756E-01 2.99084E-01-1.98892E-09-2.32420E-01-4.27272E-11-1.03151E-10
 -1     13688-1.40742E-01 2.74070E-01 5.52119E-10-2.85469E-01 4.03063E-11 7.91040E-11
 -1     13693-1.28915E-01 2.62243E-01-1.81126E-09-2.69192E-01-1.60781E-10-3.15547E-10
 -1     13694-1.65756E-01 2.99084E-01-1.47985E-09-2.32420E-01-3.20071E-10-7.72711E-10
 -1     13695-1.40742E-01 2.74070E-01 2.31085E-10-2.85469E-01 2.45968E-10 4.82708E-10
 -1     13700-1.28915E-01 2.62243E-01-2.47175E-09-2.69192E-01-1.74593E-10-3.42675E-10
 -1     13701-1.65756E-01 2.99084E-01-1.69540E-09-2.32420E-01-3.72695E-10-8.99758E-10
 -1     13702-1.40742E-01 2.74070E-01 9.96497E-10-2.85469E-01 3.49129E-10 6.85210E-10
 -1     13707-1.28915E-01 2.62243E-01-1.98758E-09-2.69192E-01-1.28875E-10-2.52936E-10
 -1     13711-3.61580E-02 1.69486E-01-1.98760E-09-3.16454E-01 1.66849E-10 2.29659E-10
 -1     13712-8.25591E-02 2.15887E-01-1.69545E-09-2.92867E-01 5.08855E-10 8.30381E-10
 -1     13713-4.23756E-02 1.75704E-01 9.96486E-10-3.35589E-01-4.52036E-10-6.22166E-10
 -1     13718-3.61580E-02 1.69486E-01-2.47176E-09-3.16454E-01 2.26044E-10 3.11131E-10
 -1     13719-8.25591E-02 2.15887E-01-1.47989E-09-2.92867E-01 4.37001E-10 7.13123E-10
 -1     13720-4.23756E-02 1.75704E-01 2.31084E-10-3.35589E-01-3.18454E-10-4.38286E-10
 -1     13725-3.61580E-02 1.69486E-01-1.81124E-09-3.16454E-01 2.08182E-10 2.86527E-10
 -1     13726-8.25591E-02 2.15887E-01-1.98897E-09-2.92867E-01 5.83309E-11 9.52039E-11
 -1     13727-4.23756E-02 1.75704E-01 5.52132E-10-3.35589E-01-5.21753E-11-7.18043E-11
 -1     13732-3.61580E-02 1.69486E-01-2.08042E-09-3.16454E-01 4.69582E-11 6.46500E-11
 -1     13733-8.25591E-02 2.15887E-01-2.19487E-09-2.92867E-01 3.48680E-11 5.69118E-11
 -1     13734-4.23756E-02 1.75704E-01 6.04850E-10-3.35589E-01-2.11223E-11-2.90404E-11
 -1     13739-3.61580E-02 1.69486E-01-2.11338E-09-3.16454E-01 4.22061E-11 5.81063E-11
 -1     13740-8.25591E-02 2.15887E-01-2.24726E-09-2.92867E-01 1.81722E-11 2.96528E-11
 -1     13741-4.23756E-02 1.75704E-01 5.59671E-10-3.35589E-01-1.43326E-11-1.97292E-11
 -1     13746-3.61580E-02 1.69486E-01-2.07984E-09-3.16454E-01-3.23870E-15-4.01930E-15
 -1     13747-8.25591E-02 2.15887E-01-2.24726E-09-2.92867E-01-1.81820E-11-2.96517E-11
 -1     13748-4.23756E-02 1.75704E-01 5.59673E-10-3.35589E-01 1.43232E-11 1.97164E-11
 -1     13753-3.61580E-02 1.69486E-01-2.11335E-09-3.16454E-01-4.22201E-11-5.81064E-11
 -1     13754-8.25591E-02 2.15887E-01-2.19487E-09-2.92867E-01-3.48706E-11-5.69092E-11
 -1     13755-4.23756E-02 1.75704E-01 6.04863E-10-3.35589E-01 2.10857E-11 2.90436E-11
 -1     13760-3.61580E-02 1.69486E-01-2.08042E-09-3.16454E-01-4.69812E-11-6.46509E-11
 -1     13761-8.25591E-02 2.15887E-01-1.98896E-09-2.92867E-01-5.83376E-11-9.51930E-11
 -1     13762-4.23756E-02 1.75704E-01 5.52130E-10-3.35589E-01 5.21657E-11 7.18123E-11
 -1     13767-3.61580E-02 1.69486E-01-1.81124E-09-3.16454E-01-2.08176E-10-2.86535E-10
 -1     13768-8.25591E-02 2.15887E-01-1.47990E-09-2.92867E-01-4.37005E-10-7.13135E-10
 -1     13769-4.23756E-02 1.75704E-01 2.31078E-10-3.35589E-01 3.18428E-10 4.38285E-10
 -1     13774-3.61580E-02 1.69486E-01-2.47175E-09-3.16454E-01-2.26069E-10-3.11151E-10
 -1     13775-8.25591E-02 2.15887E-01-1.69545E-09-2.92867E-01-5.08853E-10-8.30385E-10
 -1     13776-4.23756E-02 1.75704E-01 9.96484E-10-3.35589E-01 4.52008E-10 6.22132E-10
 -1     13781-3.61580E-02 1.69486E-01-1.98759E-09-3.16454E-01-1.66870E-10-2.29664E-10
 -1     13785 6.66640E-02 6.66640E-02-1.98758E-09-3.32739E-01 2.00746E-10 2.00742E-10
 -1     13786 1.52452E-02 1.18083E-01-1.69541E-09-3.24645E-01 6.32496E-10 7.40572E-10
 -1     13787 6.66640E-02 6.66640E-02 9.96481E-10-3.52859E-01-5.43772E-10-5.43740E-10
 -1     13792 6.66640E-02 6.66640E-02-2.47169E-09-3.32739E-01 2.71953E-10 2.71968E-10
 -1     13793 1.52452E-02 1.18083E-01-1.47984E-09-3.24645E-01 5.43183E-10 6.35992E-10
 -1     13794 6.66640E-02 6.66640E-02 2.31079E-10-3.52859E-01-3.83062E-10-3.83055E-10
 -1     13799 6.66640E-02 6.66640E-02-1.81119E-09-3.32739E-01 2.50432E-10 2.50457E-10
 -1     13800 1.52452E-02 1.18083E-01-1.98890E-09-3.24645E-01 7.25041E-11 8.49239E-11
 -1     13801 6.66640E-02 6.66640E-02 5.52128E-10-3.52859E-01-6.27675E-11-6.27300E-11
 -1     13806 6.66640E-02 6.66640E-02-2.08039E-09-3.32739E-01 5.65060E-11 5.65273E-11
 -1     13807 1.52452E-02 1.18083E-01-2.19480E-09-3.24645E-01 4.33393E-11 5.07649E-11
 -1     13808 6.66640E-02 6.66640E-02 6.04867E-10-3.52859E-01-2.53907E-11-2.53831E-11
 -1     13813 6.66640E-02 6.66640E-02-2.11332E-09-3.32739E-01 5.07619E-11 5.07889E-11
 -1     13814 1.52452E-02 1.18083E-01-2.24719E-09-3.24645E-01 2.25704E-11 2.64563E-11
 -1     13815 6.66640E-02 6.66640E-02 5.59681E-10-3.52859E-01-1.72221E-11-1.72328E-11
 -1     13820 6.66640E-02 6.66640E-02-2.07976E-09-3.32739E-01 5.42651E-15 1.57680E-14
 -1     13821 1.52452E-02 1.18083E-01-2.24719E-09-3.24645E-01-2.25908E-11-2.64333E-11
 -1     13822 6.66640E-02 6.66640E-02 5.59684E-10-3.52859E-01 1.72303E-11 1.72625E-11
 -1     13827 6.66640E-02 6.66640E-02-2.11332E-09-3.32739E-01-5.07986E-11-5.07716E-11
 -1     13828 1.52452E-02 1.18083E-01-2.19481E-09-3.24645E-01-4.33590E-11-5.07581E-11
 -1     13829 6.66640E-02 6.66640E-02 6.04863E-10-3.52859E-01 2.53800E-11 2.53742E-11
 -1     13834 6.66640E-02 6.66640E-02-2.08038E-09-3.32739E-01-5.65204E-11-5.64892E-11
 -1     13835 1.52452E-02 1.18083E-01-1.98892E-09-3.24645E-01-7.25210E-11-8.49010E-11
 -1     13836 6.66640E-02 6.66640E-02 5.52137E-10-3.52859E-01 6.27455E-11 6.27566E-11
 -1     13841 6.66640E-02 6.66640E-02-1.81119E-09-3.32739E-01-2.50417E-10-2.50441E-10
 -1     13842 1.52452E-02 1.18083E-01-1.47985E-09-3.24645E-01-5.43186E-10-6.36002E-10
 -1     13843 6.66640E-02 6.66640E-02 2.31096E-10-3.52859E-01 3.83114E-10 3.83069E-10
 -1     13848 6.66640E-02 6.66640E-02-2.47169E-09-3.32739E-01-2.71937E-10-2.71958E-10
 -1     13849 1.52452E-02 1.18083E-01-1.69541E-09-3.24645E-01-6.32500E-10-7.40569E-10
 -1     13850 6.66640E-02 6.66640E-02 9.96487E-10-3.52859E-01 5.43782E-10 5.43770E-10
 -1     13855 6.66640E-02 6.66640E-02-1.98758E-09-3.32739E-01-2.00735E-10-2.00717E-10
 -1     13859 1.69486E-01-3.61580E-02-1.98752E-09-3.16454E-01 2.29668E-10 1.66892E-10
 -1     13860 1.18083E-01 1.52452E-02-1.69549E-09-3.24645E-01 7.40560E-10 6.32499E-10
 -1     13861 1.75704E-01-4.23756E-02 9.96491E-10-3.35589E-01-6.22075E-10-4.51965E-10
 -1     13866 1.69486E-01-3.61580E-02-2.47181E-09-3.16454E-01 3.11165E-10 2.26078E-10
 -1     13867 1.18083E-01 1.52452E-02-1.47992E-09-3.24645E-01 6.36034E-10 5.43219E-10
 -1     13868 1.75704E-01-4.23756E-02 2.31072E-10-3.35589E-01-4.38286E-10-3.18417E-10
 -1     13873 1.69486E-01-3.61580E-02-1.81120E-09-3.16454E-01 2.86581E-10 2.08214E-10
 -1     13874 1.18083E-01 1.52452E-02-1.98898E-09-3.24645E-01 8.49257E-11 7.25480E-11
 -1     13875 1.75704E-01-4.23756E-02 5.52121E-10-3.35589E-01-7.17792E-11-5.21501E-11
 -1     13880 1.69486E-01-3.61580E-02-2.08039E-09-3.16454E-01 6.46443E-11 4.69899E-11
 -1     13881 1.18083E-01 1.52452E-02-2.19488E-09-3.24645E-01 5.07587E-11 4.33563E-11
 -1     13882 1.75704E-01-4.23756E-02 6.04807E-10-3.35589E-01-2.90308E-11-2.10951E-11
 -1     13887 1.69486E-01-3.61580E-02-2.11338E-09-3.16454E-01 5.81143E-11 4.22437E-11
 -1     13888 1.18083E-01 1.52452E-02-2.24726E-09-3.24645E-01 2.64526E-11 2.26040E-11
 -1     13889 1.75704E-01-4.23756E-02 5.59618E-10-3.35589E-01-1.97522E-11-1.43201E-11
 -1     13894 1.69486E-01-3.61580E-02-2.07981E-09-3.16454E-01 2.14607E-15 8.55589E-15
 -1     13895 1.18083E-01 1.52452E-02-2.24727E-09-3.24645E-01-2.64488E-11-2.25919E-11
 -1     13896 1.75704E-01-4.23756E-02 5.59613E-10-3.35589E-01 1.97485E-11 1.43416E-11
 -1     13901 1.69486E-01-3.61580E-02-2.11340E-09-3.16454E-01-5.80971E-11-4.22168E-11
 -1     13902 1.18083E-01 1.52452E-02-2.19488E-09-3.24645E-01-5.07715E-11-4.33520E-11
 -1     13903 1.75704E-01-4.23756E-02 6.04811E-10-3.35589E-01 2.90478E-11 2.11084E-11
 -1     13908 1.69486E-01-3.61580E-02-2.08041E-09-3.16454E-01-6.46673E-11-4.69906E-11
 -1     13909 1.18083E-01 1.52452E-02-1.98898E-09-3.24645E-01-8.49106E-11-7.25240E-11
 -1     13910 1.75704E-01-4.23756E-02 5.52095E-10-3.35589E-01 7.18064E-11 5.21524E-11
 -1     13915 1.69486E-01-3.61580E-02-1.81121E-09-3.16454E-01-2.86568E-10-2.08213E-10
 -1     13916 1.18083E-01 1.52452E-02-1.47992E-09-3.24645E-01-6.36018E-10-5.43227E-10
 -1     13917 1.75704E-01-4.23756E-02 2.31064E-10-3.35589E-01 4.38270E-10 3.18428E-10
 -1     13922 1.69486E-01-3.61580E-02-2.47182E-09-3.16454E-01-3.11161E-10-2.26060E-10
 -1     13923 1.18083E-01 1.52452E-02-1.69549E-09-3.24645E-01-7.40562E-10-6.32494E-10
 -1     13924 1.75704E-01-4.23756E-02 9.96489E-10-3.35589E-01 6.22098E-10 4.51977E-10
 -1     13929 1.69486E-01-3.61580E-02-1.98752E-09-3.16454E-01-2.29660E-10-1.66876E-10
 -1     13933 2.62243E-01-1.28915E-01-1.98799E-09-2.69192E-01 2.52923E-10 1.28862E-10
 -1     13934 2.15887E-01-8.25591E-02-1.69535E-09-2.92867E-01 8.30511E-10 5.08943E-10
 -1     13935 2.74070E-01-1.40742E-01 9.96428E-10-2.85469E-01-6.85385E-10-3.49258E-10
 -1     13940 2.62243E-01-1.28915E-01-2.47150E-09-2.69192E-01 3.42750E-10 1.74617E-10
 -1     13941 2.15887E-01-8.25591E-02-1.47981E-09-2.92867E-01 7.13111E-10 4.36975E-10
 -1     13942 2.74070E-01-1.40742E-01 2.31089E-10-2.85469E-01-4.82616E-10-2.45948E-10
 -1     13947 2.62243E-01-1.28915E-01-1.81137E-09-2.69192E-01 3.15517E-10 1.60735E-10
 -1     13948 2.15887E-01-8.25591E-02-1.98887E-09-2.92867E-01 9.52510E-11 5.83605E-11
 -1     13949 2.74070E-01-1.40742E-01 5.52120E-10-2.85469E-01-7.91176E-11-4.03381E-11
 -1     13954 2.62243E-01-1.28915E-01-2.08047E-09-2.69192E-01 7.12654E-11 3.62942E-11
 -1     13955 2.15887E-01-8.25591E-02-2.19478E-09-2.92867E-01 5.69347E-11 3.48911E-11
 -1     13956 2.74070E-01-1.40742E-01 6.04813E-10-2.85469E-01-3.20465E-11-1.63441E-11
 -1     13961 2.62243E-01-1.28915E-01-2.11334E-09-2.69192E-01 6.39726E-11 3.25759E-11
 -1     13962 2.15887E-01-8.25591E-02-2.24717E-09-2.92867E-01 2.96489E-11 1.81554E-11
 -1     13963 2.74070E-01-1.40742E-01 5.59602E-10-2.85469E-01-2.16536E-11-1.10679E-11
 -1     13968 2.62243E-01-1.28915E-01-2.07994E-09-2.69192E-01 2.16306E-14-1.24152E-14
 -1     13969 2.15887E-01-8.25591E-02-2.24718E-09-2.92867E-01-2.96307E-11-1.81546E-11
 -1     13970 2.74070E-01-1.40742E-01 5.59611E-10-2.85469E-01 2.16829E-11 1.10503E-11
 -1     13975 2.62243E-01-1.28915E-01-2.11332E-09-2.69192E-01-6.39776E-11-3.25901E-11
 -1     13976 2.15887E-01-8.25591E-02-2.19480E-09-2.92867E-01-5.69342E-11-3.48804E-11
 -1     13977 2.74070E-01-1.40742E-01 6.04804E-10-2.85469E-01 3.20225E-11 1.63352E-11
 -1     13982 2.62243E-01-1.28915E-01-2.08047E-09-2.69192E-01-7.12587E-11-3.62854E-11
 -1     13983 2.15887E-01-8.25591E-02-1.98887E-09-2.92867E-01-9.52399E-11-5.83491E-11
 -1     13984 2.74070E-01-1.40742E-01 5.52126E-10-2.85469E-01 7.91106E-11 4.03368E-11
 -1     13989 2.62243E-01-1.28915E-01-1.81139E-09-2.69192E-01-3.15538E-10-1.60736E-10
 -1     13990 2.15887E-01-8.25591E-02-1.47982E-09-2.92867E-01-7.13123E-10-4.36966E-10
 -1     13991 2.74070E-01-1.40742E-01 2.31082E-10-2.85469E-01 4.82622E-10 2.45947E-10
 -1     13996 2.62243E-01-1.28915E-01-2.47151E-09-2.69192E-01-3.42762E-10-1.74634E-10
 -1     13997 2.15887E-01-8.25591E-02-1.69534E-09-2.92867E-01-8.30502E-10-5.08933E-10
 -1     13998 2.74070E-01-1.40742E-01 9.96417E-10-2.85469E-01 6.85370E-10 3.49255E-10
 -1     14003 2.62243E-01-1.28915E-01-1.98799E-09-2.69192E-01-2.52927E-10-1.28882E-10
 -1     14007 3.35855E-01-2.02528E-01-1.98714E-09-1.95579E-01 2.70013E-10 8.77225E-11
 -1     14008 2.99084E-01-1.65756E-01-1.69546E-09-2.32420E-01 8.99768E-10 3.72665E-10
 -1     14009 3.52133E-01-2.18805E-01 9.96510E-10-2.07406E-01-7.31181E-10-2.37611E-10
 -1     14014 3.35855E-01-2.02528E-01-2.47195E-09-1.95579E-01 3.65676E-10 1.18802E-10
 -1     14015 2.99084E-01-1.65756E-01-1.47991E-09-2.32420E-01 7.72719E-10 3.20044E-10
 -1     14016 3.52133E-01-2.18805E-01 2.31020E-10-2.07406E-01-5.15350E-10-1.67484E-10
 -1     14021 3.35855E-01-2.02528E-01-1.81108E-09-1.95579E-01 3.36875E-10 1.09436E-10
 -1     14022 2.99084E-01-1.65756E-01-1.98899E-09-2.32420E-01 1.03158E-10 4.27011E-11
 -1     14023 3.52133E-01-2.18805E-01 5.52087E-10-2.07406E-01-8.43876E-11-2.74534E-11
 -1     14028 3.35855E-01-2.02528E-01-2.08036E-09-1.95579E-01 7.59324E-11 2.46479E-11
 -1     14029 2.99084E-01-1.65756E-01-2.19490E-09-2.32420E-01 6.16600E-11 2.55098E-11
 -1     14030 3.52133E-01-2.18805E-01 6.04834E-10-2.07406E-01-3.41135E-11-1.11107E-11
 -1     14035 3.35855E-01-2.02528E-01-2.11340E-09-1.95579E-01 6.83454E-11 2.21810E-11
 -1     14036 2.99084E-01-1.65756E-01-2.24729E-09-2.32420E-01 3.21402E-11 1.32935E-11
 -1     14037 3.52133E-01-2.18805E-01 5.59664E-10-2.07406E-01-2.32148E-11-7.55241E-12
 -1     14042 3.35855E-01-2.02528E-01-2.07972E-09-1.95579E-01 7.28244E-15-3.23284E-15
 -1     14043 2.99084E-01-1.65756E-01-2.24729E-09-2.32420E-01-3.21347E-11-1.33135E-11
 -1     14044 3.52133E-01-2.18805E-01 5.59681E-10-2.07406E-01 2.32180E-11 7.55207E-12
 -1     14049 3.35855E-01-2.02528E-01-2.11341E-09-1.95579E-01-6.83262E-11-2.21919E-11
 -1     14050 2.99084E-01-1.65756E-01-2.19489E-09-2.32420E-01-6.16570E-11-2.55301E-11
 -1     14051 3.52133E-01-2.18805E-01 6.04853E-10-2.07406E-01 3.41250E-11 1.10986E-11
 -1     14056 3.35855E-01-2.02528E-01-2.08035E-09-1.95579E-01-7.59350E-11-2.46633E-11
 -1     14057 2.99084E-01-1.65756E-01-1.98898E-09-2.32420E-01-1.03161E-10-4.27115E-11
 -1     14058 3.52133E-01-2.18805E-01 5.52098E-10-2.07406E-01 8.43907E-11 2.74451E-11
 -1     14063 3.35855E-01-2.02528E-01-1.81106E-09-1.95579E-01-3.36865E-10-1.09442E-10
 -1     14064 2.99084E-01-1.65756E-01-1.47990E-09-2.32420E-01-7.72719E-10-3.20051E-10
 -1     14065 3.52133E-01-2.18805E-01 2.31054E-10-2.07406E-01 5.15365E-10 1.67489E-10
 -1     14070 3.35855E-01-2.02528E-01-2.47195E-09-1.95579E-01-3.65677E-10-1.18790E-10
 -1     14071 2.99084E-01-1.65756E-01-1.69546E-09-2.32420E-01-8.99759E-10-3.72660E-10
 -1     14072 3.52133E-01-2.18805E-01 9.96540E-10-2.07406E-01 7.31172E-10 2.37618E-10
 -1     14077 3.35855E-01-2.02528E-01-1.98714E-09-1.95579E-01-2.70014E-10-8.77121E-11
 -1     14081 3.83118E-01-2.49790E-01-1.98771E-09-1.02822E-01 2.80364E-10 4.44002E-11
 -1     14082 3.59531E-01-2.26203E-01-1.69550E-09-1.49223E-01 9.46833E-10 2.27327E-10
 -1     14083 4.02253E-01-2.68925E-01 9.96491E-10-1.09040E-01-7.59631E-10-1.20331E-10
 -1     14088 3.83118E-01-2.49790E-01-2.47174E-09-1.02822E-01 3.79831E-10 6.01513E-11
 -1     14089 3.59531E-01-2.26203E-01-1.47993E-09-1.49223E-01 8.13296E-10 1.95248E-10
 -1     14090 4.02253E-01-2.68925E-01 2.31077E-10-1.09040E-01-5.35142E-10-8.47608E-11
 -1     14095 3.83118E-01-2.49790E-01-1.81131E-09-1.02822E-01 3.49723E-10 5.53896E-11
 -1     14096 3.59531E-01-2.26203E-01-1.98900E-09-1.49223E-01 1.08505E-10 2.60520E-11
 -1     14097 4.02253E-01-2.68925E-01 5.52113E-10-1.09040E-01-8.77230E-11-1.38965E-11
 -1     14102 3.83118E-01-2.49790E-01-2.08053E-09-1.02822E-01 7.88834E-11 1.24992E-11
 -1     14103 3.59531E-01-2.26203E-01-2.19490E-09-1.49223E-01 6.48470E-11 1.55680E-11
 -1     14104 4.02253E-01-2.68925E-01 6.04851E-10-1.09040E-01-3.55169E-11-5.62215E-12
 -1     14109 3.83118E-01-2.49790E-01-2.11343E-09-1.02822E-01 7.08930E-11 1.12287E-11
 -1     14110 3.59531E-01-2.26203E-01-2.24730E-09-1.49223E-01 3.38349E-11 8.11806E-12
 -1     14111 4.02253E-01-2.68925E-01 5.59704E-10-1.09040E-01-2.40739E-11-3.81695E-12
 -1     14116 3.83118E-01-2.49790E-01-2.07991E-09-1.02822E-01-8.96079E-15 2.26525E-15
 -1     14117 3.59531E-01-2.26203E-01-2.24729E-09-1.49223E-01-3.38267E-11-8.11940E-12
 -1     14118 4.02253E-01-2.68925E-01 5.59678E-10-1.09040E-01 2.40825E-11 3.81573E-12
 -1     14123 3.83118E-01-2.49790E-01-2.11340E-09-1.02822E-01-7.09031E-11-1.12279E-11
 -1     14124 3.59531E-01-2.26203E-01-2.19491E-09-1.49223E-01-6.48585E-11-1.55712E-11
 -1     14125 4.02253E-01-2.68925E-01 6.04850E-10-1.09040E-01 3.54964E-11 5.62909E-12
 -1     14130 3.83118E-01-2.49790E-01-2.08050E-09-1.02822E-01-7.88871E-11-1.24957E-11
 -1     14131 3.59531E-01-2.26203E-01-1.98899E-09-1.49223E-01-1.08505E-10-2.60484E-11
 -1     14132 4.02253E-01-2.68925E-01 5.52125E-10-1.09040E-01 8.77225E-11 1.38998E-11
 -1     14137 3.83118E-01-2.49790E-01-1.81131E-09-1.02822E-01-3.49728E-10-5.53850E-11
 -1     14138 3.59531E-01-2.26203E-01-1.47992E-09-1.49223E-01-8.13294E-10-1.95247E-10
 -1     14139 4.02253E-01-2.68925E-01 2.31082E-10-1.09040E-01 5.35137E-10 8.47588E-11
 -1     14144 3.83118E-01-2.49790E-01-2.47172E-09-1.02822E-01-3.79829E-10-6.01585E-11
 -1     14145 3.59531E-01-2.26203E-01-1.69550E-09-1.49223E-01-9.46831E-10-2.27318E-10
 -1     14146 4.02253E-01-2.68925E-01 9.96485E-10-1.09040E-01 7.59640E-10 1.20329E-10
 -1     14151 3.83118E-01-2.49790E-01-1.98771E-09-1.02822E-01-2.80346E-10-4.44050E-11
 -1     14155 3.91309E-01-2.57981E-01-1.69536E-09-5.14188E-02 9.70870E-10 7.64109E-11
 -1     14159 3.91309E-01-2.57981E-01-1.47981E-09-5.14188E-02 8.33729E-10 6.56182E-11
 -1     14163 3.91309E-01-2.57981E-01-1.98891E-09-5.14188E-02 1.11248E-10 8.75890E-12
 -1     14167 3.91309E-01-2.57981E-01-2.19482E-09-5.14188E-02 6.64815E-11 5.23225E-12
 -1     14171 3.91309E-01-2.57981E-01-2.24723E-09-5.14188E-02 3.46446E-11 2.72428E-12
 -1     14175 3.91309E-01-2.57981E-01-2.24721E-09-5.14188E-02-3.46490E-11-2.73391E-12
 -1     14179 3.91309E-01-2.57981E-01-2.19482E-09-5.14188E-02-6.64909E-11-5.23700E-12
 -1     14183 3.91309E-01-2.57981E-01-1.98890E-09-5.14188E-02-1.11250E-10-8.75979E-12
 -1     14187 3.91309E-01-2.57981E-01-1.47982E-09-5.14188E-02-8.33731E-10-6.56205E-11
 -1     14191 3.91309E-01-2.57981E-01-1.69537E-09-5.14188E-02-9.70874E-10-7.64132E-11
 -1     14197-2.17401E-01 3.50729E-01-2.36767E-09-9.22982E-02-3.44477E-11-2.17464E-10
 -1     14198-2.24754E-01 3.58082E-01-2.69312E-09-4.61561E-02-3.38040E-11-4.29516E-10
 -1     14199-2.33600E-01 3.66928E-01 1.51865E-09-9.75617E-02 6.24130E-11 3.94069E-10
 -1     14204-2.17401E-01 3.50729E-01-2.71341E-09-9.22982E-02-1.32124E-11-8.34085E-11
 -1     14205-2.24754E-01 3.58082E-01-2.76484E-09-4.61561E-02-2.73469E-12-3.47323E-11
 -1     14206-2.33600E-01 3.66928E-01 1.79096E-09-9.75617E-02 1.44357E-11 9.11303E-11
 -1     14211-2.17401E-01 3.50729E-01-2.47962E-09-9.22982E-02-2.02675E-12-1.28213E-11
 -1     14212-2.24754E-01 3.58082E-01-2.56933E-09-4.61561E-02-7.09232E-12-9.00641E-11
 -1     14213-2.33600E-01 3.66928E-01 1.63910E-09-9.75617E-02 1.78064E-11 1.12427E-10
 -1     14218-2.17401E-01 3.50729E-01-2.59315E-09-9.22982E-02-6.07950E-12-3.83434E-11
 -1     14219-2.24754E-01 3.58082E-01-2.50846E-09-4.61561E-02 1.24842E-12 1.58960E-11
 -1     14220-2.33600E-01 3.66928E-01 1.63999E-09-9.75617E-02 5.08279E-12 3.21402E-11
 -1     14225-2.17401E-01 3.50729E-01-2.53970E-09-9.22982E-02 1.58668E-12 1.00618E-11
 -1     14226-2.24754E-01 3.58082E-01-2.49243E-09-4.61561E-02 6.90318E-13 8.79269E-12
 -1     14227-2.33600E-01 3.66928E-01 1.65490E-09-9.75617E-02 9.88945E-13 6.28978E-12
 -1     14232-2.17401E-01 3.50729E-01-2.52015E-09-9.22982E-02 6.95270E-16-1.24206E-14
 -1     14233-2.24754E-01 3.58082E-01-2.49243E-09-4.61561E-02-6.90842E-13-8.80244E-12
 -1     14234-2.33600E-01 3.66928E-01 1.65490E-09-9.75617E-02-1.00130E-12-6.29041E-12
 -1     14239-2.17401E-01 3.50729E-01-2.53971E-09-9.22982E-02-1.59372E-12-1.00551E-11
 -1     14240-2.24754E-01 3.58082E-01-2.50846E-09-4.61561E-02-1.25566E-12-1.58979E-11
 -1     14241-2.33600E-01 3.66928E-01 1.63998E-09-9.75617E-02-5.09335E-12-3.21360E-11
 -1     14246-2.17401E-01 3.50729E-01-2.59315E-09-9.22982E-02 6.07396E-12 3.83520E-11
 -1     14247-2.24754E-01 3.58082E-01-2.56932E-09-4.61561E-02 7.08527E-12 9.00569E-11
 -1     14248-2.33600E-01 3.66928E-01 1.63911E-09-9.75617E-02-1.78126E-11-1.12459E-10
 -1     14253-2.17401E-01 3.50729E-01-2.47961E-09-9.22982E-02 2.02480E-12 1.27858E-11
 -1     14254-2.24754E-01 3.58082E-01-2.76483E-09-4.61561E-02 2.73206E-12 3.47353E-11
 -1     14255-2.33600E-01 3.66928E-01 1.79094E-09-9.75617E-02-1.44362E-11-9.11411E-11
 -1     14260-2.17401E-01 3.50729E-01-2.71340E-09-9.22982E-02 1.32110E-11 8.33891E-11
 -1     14261-2.24754E-01 3.58082E-01-2.69312E-09-4.61561E-02 3.38038E-11 4.29502E-10
 -1     14262-2.33600E-01 3.66928E-01 1.51865E-09-9.75617E-02-6.24142E-11-3.94098E-10
 -1     14267-2.17401E-01 3.50729E-01-2.36766E-09-9.22982E-02 3.44468E-11 2.17431E-10
 -1     14271-1.74976E-01 3.08304E-01-2.36768E-09-1.75562E-01-6.80421E-11-2.09406E-10
 -1     14272-1.96228E-01 3.29556E-01-2.69313E-09-1.33950E-01-1.00574E-10-4.18936E-10
 -1     14273-1.88756E-01 3.22084E-01 1.51866E-09-1.85573E-01 1.23298E-10 3.79468E-10
 -1     14278-1.74976E-01 3.08304E-01-2.71344E-09-1.75562E-01-2.61003E-11-8.02907E-11
 -1     14279-1.96228E-01 3.29556E-01-2.76484E-09-1.33950E-01-8.14505E-12-3.38789E-11
 -1     14280-1.88756E-01 3.22084E-01 1.79096E-09-1.85573E-01 2.85066E-11 8.77665E-11
 -1     14285-1.74976E-01 3.08304E-01-2.47964E-09-1.75562E-01-4.01260E-12-1.23160E-11
 -1     14286-1.96228E-01 3.29556E-01-2.56933E-09-1.33950E-01-2.10941E-11-8.78494E-11
 -1     14287-1.88756E-01 3.22084E-01 1.63913E-09-1.85573E-01 3.51758E-11 1.08291E-10
 -1     14292-1.74976E-01 3.08304E-01-2.59316E-09-1.75562E-01-1.20121E-11-3.69350E-11
 -1     14293-1.96228E-01 3.29556E-01-2.50846E-09-1.33950E-01 3.70956E-12 1.55064E-11
 -1     14294-1.88756E-01 3.22084E-01 1.64001E-09-1.85573E-01 1.00406E-11 3.09225E-11
 -1     14299-1.74976E-01 3.08304E-01-2.53972E-09-1.75562E-01 3.13554E-12 9.67814E-12
 -1     14300-1.96228E-01 3.29556E-01-2.49243E-09-1.33950E-01 2.05305E-12 8.58557E-12
 -1     14301-1.88756E-01 3.22084E-01 1.65492E-09-1.85573E-01 1.96060E-12 6.05398E-12
 -1     14306-1.74976E-01 3.08304E-01-2.52018E-09-1.75562E-01-6.27719E-15-1.86575E-15
 -1     14307-1.96228E-01 3.29556E-01-2.49244E-09-1.33950E-01-2.06202E-12-8.58652E-12
 -1     14308-1.88756E-01 3.22084E-01 1.65493E-09-1.85573E-01-1.97419E-12-6.07500E-12
 -1     14313-1.74976E-01 3.08304E-01-2.53973E-09-1.75562E-01-3.15233E-12-9.67431E-12
 -1     14314-1.96228E-01 3.29556E-01-2.50847E-09-1.33950E-01-3.72699E-12-1.54949E-11
 -1     14315-1.88756E-01 3.22084E-01 1.64001E-09-1.85573E-01-1.00546E-11-3.09249E-11
 -1     14320-1.74976E-01 3.08304E-01-2.59316E-09-1.75562E-01 1.19902E-11 3.69450E-11
 -1     14321-1.96228E-01 3.29556E-01-2.56933E-09-1.33950E-01 2.10797E-11 8.78381E-11
 -1     14322-1.88756E-01 3.22084E-01 1.63912E-09-1.85573E-01-3.51881E-11-1.08265E-10
 -1     14327-1.74976E-01 3.08304E-01-2.47963E-09-1.75562E-01 4.00655E-12 1.23345E-11
 -1     14328-1.96228E-01 3.29556E-01-2.76484E-09-1.33950E-01 8.13004E-12 3.38866E-11
 -1     14329-1.88756E-01 3.22084E-01 1.79096E-09-1.85573E-01-2.85162E-11-8.77520E-11
 -1     14334-1.74976E-01 3.08304E-01-2.71343E-09-1.75562E-01 2.60987E-11 8.03163E-11
 -1     14335-1.96228E-01 3.29556E-01-2.69312E-09-1.33950E-01 1.00573E-10 4.18934E-10
 -1     14336-1.88756E-01 3.22084E-01 1.51865E-09-1.85573E-01-1.23294E-10-3.79455E-10
 -1     14341-1.74976E-01 3.08304E-01-2.36768E-09-1.75562E-01 6.80389E-11 2.09411E-10
 -1     14345-1.08898E-01 2.42226E-01-2.36768E-09-2.41640E-01-9.99581E-11-1.96158E-10
 -1     14346-1.41968E-01 2.75296E-01-2.69311E-09-2.08632E-01-1.64872E-10-3.98041E-10
 -1     14347-1.18909E-01 2.52237E-01 1.51866E-09-2.55420E-01 1.81138E-10 3.55520E-10
 -1     14352-1.08898E-01 2.42226E-01-2.71342E-09-2.41640E-01-3.83432E-11-7.52302E-11
 -1     14353-1.41968E-01 2.75296E-01-2.76482E-09-2.08632E-01-1.33424E-11-3.21989E-11
 -1     14354-1.18909E-01 2.52237E-01 1.79095E-09-2.55420E-01 4.18851E-11 8.22208E-11
 -1     14359-1.08898E-01 2.42226E-01-2.47963E-09-2.41640E-01-5.87535E-12-1.15405E-11
 -1     14360-1.41968E-01 2.75296E-01-2.56931E-09-2.08632E-01-3.45674E-11-8.34556E-11
 -1     14361-1.18909E-01 2.52237E-01 1.63912E-09-2.55420E-01 5.16862E-11 1.01439E-10
 -1     14366-1.08898E-01 2.42226E-01-2.59316E-09-2.41640E-01-1.76368E-11-3.46000E-11
 -1     14367-1.41968E-01 2.75296E-01-2.50845E-09-2.08632E-01 6.09293E-12 1.47341E-11
 -1     14368-1.18909E-01 2.52237E-01 1.64000E-09-2.55420E-01 1.47697E-11 2.90063E-11
 -1     14373-1.08898E-01 2.42226E-01-2.53972E-09-2.41640E-01 4.63301E-12 9.07843E-12
 -1     14374-1.41968E-01 2.75296E-01-2.49242E-09-2.08632E-01 3.37419E-12 8.14209E-12
 -1     14375-1.18909E-01 2.52237E-01 1.65492E-09-2.55420E-01 2.89275E-12 5.68674E-12
 -1     14380-1.08898E-01 2.42226E-01-2.52017E-09-2.41640E-01-1.46965E-14 1.19277E-14
 -1     14381-1.41968E-01 2.75296E-01-2.49243E-09-2.08632E-01-3.38871E-12-8.15488E-12
 -1     14382-1.18909E-01 2.52237E-01 1.65492E-09-2.55420E-01-2.90376E-12-5.67319E-12
 -1     14387-1.08898E-01 2.42226E-01-2.53972E-09-2.41640E-01-4.62707E-12-9.09663E-12
 -1     14388-1.41968E-01 2.75296E-01-2.50844E-09-2.08632E-01-6.10068E-12-1.47178E-11
 -1     14389-1.18909E-01 2.52237E-01 1.63999E-09-2.55420E-01-1.47699E-11-2.90093E-11
 -1     14394-1.08898E-01 2.42226E-01-2.59317E-09-2.41640E-01 1.76256E-11 3.45862E-11
 -1     14395-1.41968E-01 2.75296E-01-2.56932E-09-2.08632E-01 3.45659E-11 8.34445E-11
 -1     14396-1.18909E-01 2.52237E-01 1.63912E-09-2.55420E-01-5.16845E-11-1.01458E-10
 -1     14401-1.08898E-01 2.42226E-01-2.47962E-09-2.41640E-01 5.88567E-12 1.15399E-11
 -1     14402-1.41968E-01 2.75296E-01-2.76482E-09-2.08632E-01 1.33323E-11 3.22040E-11
 -1     14403-1.18909E-01 2.52237E-01 1.79095E-09-2.55420E-01-4.18994E-11-8.22111E-11
 -1     14408-1.08898E-01 2.42226E-01-2.71343E-09-2.41640E-01 3.83197E-11 7.52474E-11
 -1     14409-1.41968E-01 2.75296E-01-2.69311E-09-2.08632E-01 1.64875E-10 3.98047E-10
 -1     14410-1.18909E-01 2.52237E-01 1.51865E-09-2.55420E-01-1.81137E-10-3.55509E-10
 -1     14415-1.08898E-01 2.42226E-01-2.36768E-09-2.41640E-01 9.99478E-11 1.96161E-10
 -1     14419-2.56343E-02 1.58962E-01-2.36766E-09-2.84065E-01-1.29398E-10-1.78117E-10
 -1     14420-6.72862E-02 2.00614E-01-2.69313E-09-2.62892E-01-2.25118E-10-3.67351E-10
 -1     14421-3.08977E-02 1.64226E-01 1.51865E-09-3.00264E-01 2.34523E-10 3.22786E-10
 -1     14426-2.56343E-02 1.58962E-01-2.71342E-09-2.84065E-01-4.96199E-11-6.83258E-11
 -1     14427-6.72862E-02 2.00614E-01-2.76485E-09-2.62892E-01-1.82124E-11-2.97147E-11
 -1     14428-3.08977E-02 1.64226E-01 1.79095E-09-3.00264E-01 5.42382E-11 7.46506E-11
 -1     14433-2.56343E-02 1.58962E-01-2.47962E-09-2.84065E-01-7.61535E-12-1.04695E-11
 -1     14434-6.72862E-02 2.00614E-01-2.56934E-09-2.62892E-01-4.72034E-11-7.70189E-11
 -1     14435-3.08977E-02 1.64226E-01 1.63913E-09-3.00264E-01 6.69161E-11 9.21182E-11
 -1     14440-2.56343E-02 1.58962E-01-2.59313E-09-2.84065E-01-2.28254E-11-3.14082E-11
 -1     14441-6.72862E-02 2.00614E-01-2.50849E-09-2.62892E-01 8.32355E-12 1.35908E-11
 -1     14442-3.08977E-02 1.64226E-01 1.64001E-09-3.00264E-01 1.91226E-11 2.63214E-11
 -1     14447-2.56343E-02 1.58962E-01-2.53969E-09-2.84065E-01 5.99712E-12 8.25838E-12
 -1     14448-6.72862E-02 2.00614E-01-2.49244E-09-2.62892E-01 4.60760E-12 7.52999E-12
 -1     14449-3.08977E-02 1.64226E-01 1.65493E-09-3.00264E-01 3.74882E-12 5.16784E-12
 -1     14454-2.56343E-02 1.58962E-01-2.52014E-09-2.84065E-01-8.51976E-15 2.80838E-14
 -1     14455-6.72862E-02 2.00614E-01-2.49245E-09-2.62892E-01-4.62359E-12-7.50906E-12
 -1     14456-3.08977E-02 1.64226E-01 1.65494E-09-3.00264E-01-3.75805E-12-5.14104E-12
 -1     14461-2.56343E-02 1.58962E-01-2.53970E-09-2.84065E-01-6.00521E-12-8.23759E-12
 -1     14462-6.72862E-02 2.00614E-01-2.50848E-09-2.62892E-01-8.32241E-12-1.36033E-11
 -1     14463-3.08977E-02 1.64226E-01 1.64002E-09-3.00264E-01-1.91337E-11-2.63229E-11
 -1     14468-2.56343E-02 1.58962E-01-2.59313E-09-2.84065E-01 2.28336E-11 3.14248E-11
 -1     14469-6.72862E-02 2.00614E-01-2.56934E-09-2.62892E-01 4.72084E-11 7.70045E-11
 -1     14470-3.08977E-02 1.64226E-01 1.63913E-09-3.00264E-01-6.69253E-11-9.21126E-11
 -1     14475-2.56343E-02 1.58962E-01-2.47962E-09-2.84065E-01 7.61687E-12 1.04822E-11
 -1     14476-6.72862E-02 2.00614E-01-2.76485E-09-2.62892E-01 1.82059E-11 2.97199E-11
 -1     14477-3.08977E-02 1.64226E-01 1.79096E-09-3.00264E-01-5.42417E-11-7.46674E-11
 -1     14482-2.56343E-02 1.58962E-01-2.71342E-09-2.84065E-01 4.96327E-11 6.82975E-11
 -1     14483-6.72862E-02 2.00614E-01-2.69314E-09-2.62892E-01 2.25116E-10 3.67344E-10
 -1     14484-3.08977E-02 1.64226E-01 1.51866E-09-3.00264E-01-2.34534E-10-3.22804E-10
 -1     14489-2.56343E-02 1.58962E-01-2.36767E-09-2.84065E-01 1.29409E-10 1.78100E-10
 -1     14493 6.66640E-02 6.66640E-02-2.36764E-09-2.98683E-01-1.55684E-10-1.55655E-10
 -1     14494 2.05079E-02 1.12820E-01-2.69311E-09-2.91418E-01-2.79801E-10-3.27606E-10
 -1     14495 6.66640E-02 6.66640E-02 1.51866E-09-3.15716E-01 2.82133E-10 2.82146E-10
 -1     14500 6.66640E-02 6.66640E-02-2.71335E-09-2.98683E-01-5.97031E-11-5.97177E-11
 -1     14501 2.05079E-02 1.12820E-01-2.76482E-09-2.91418E-01-2.26359E-11-2.64950E-11
 -1     14502 6.66640E-02 6.66640E-02 1.79097E-09-3.15716E-01 6.52604E-11 6.52665E-11
 -1     14507 6.66640E-02 6.66640E-02-2.47955E-09-2.98683E-01-9.16636E-12-9.14317E-12
 -1     14508 2.05079E-02 1.12820E-01-2.56931E-09-2.91418E-01-5.86618E-11-6.86710E-11
 -1     14509 6.66640E-02 6.66640E-02 1.63914E-09-3.15716E-01 8.05096E-11 8.05341E-11
 -1     14514 6.66640E-02 6.66640E-02-2.59309E-09-2.98683E-01-2.74603E-11-2.74520E-11
 -1     14515 2.05079E-02 1.12820E-01-2.50844E-09-2.91418E-01 1.03502E-11 1.21272E-11
 -1     14516 6.66640E-02 6.66640E-02 1.64001E-09-3.15716E-01 2.29960E-11 2.30082E-11
 -1     14521 6.66640E-02 6.66640E-02-2.53967E-09-2.98683E-01 7.18419E-12 7.20002E-12
 -1     14522 2.05079E-02 1.12820E-01-2.49242E-09-2.91418E-01 5.73314E-12 6.73334E-12
 -1     14523 6.66640E-02 6.66640E-02 1.65493E-09-3.15716E-01 4.50613E-12 4.53510E-12
 -1     14528 6.66640E-02 6.66640E-02-2.52013E-09-2.98683E-01 1.96614E-14 1.41307E-14
 -1     14529 2.05079E-02 1.12820E-01-2.49241E-09-2.91418E-01-5.72907E-12-6.69888E-12
 -1     14530 6.66640E-02 6.66640E-02 1.65493E-09-3.15716E-01-4.49153E-12-4.50443E-12
 -1     14535 6.66640E-02 6.66640E-02-2.53967E-09-2.98683E-01-7.19811E-12-7.19834E-12
 -1     14536 2.05079E-02 1.12820E-01-2.50844E-09-2.91418E-01-1.03591E-11-1.21249E-11
 -1     14537 6.66640E-02 6.66640E-02 1.64002E-09-3.15716E-01-2.30107E-11-2.30110E-11
 -1     14542 6.66640E-02 6.66640E-02-2.59311E-09-2.98683E-01 2.74821E-11 2.74438E-11
 -1     14543 2.05079E-02 1.12820E-01-2.56931E-09-2.91418E-01 5.86633E-11 6.86868E-11
 -1     14544 6.66640E-02 6.66640E-02 1.63913E-09-3.15716E-01-8.05119E-11-8.04921E-11
 -1     14549 6.66640E-02 6.66640E-02-2.47958E-09-2.98683E-01 9.14211E-12 9.15757E-12
 -1     14550 2.05079E-02 1.12820E-01-2.76483E-09-2.91418E-01 2.26393E-11 2.64937E-11
 -1     14551 6.66640E-02 6.66640E-02 1.79095E-09-3.15716E-01-6.52583E-11-6.52756E-11
 -1     14556 6.66640E-02 6.66640E-02-2.71336E-09-2.98683E-01 5.97047E-11 5.96954E-11
 -1     14557 2.05079E-02 1.12820E-01-2.69311E-09-2.91418E-01 2.79813E-10 3.27601E-10
 -1     14558 6.66640E-02 6.66640E-02 1.51866E-09-3.15716E-01-2.82122E-10-2.82135E-10
 -1     14563 6.66640E-02 6.66640E-02-2.36763E-09-2.98683E-01 1.55690E-10 1.55681E-10
 -1     14567 1.58962E-01-2.56343E-02-2.36768E-09-2.84065E-01-1.78102E-10-1.29418E-10
 -1     14568 1.12820E-01 2.05079E-02-2.69315E-09-2.91418E-01-3.27613E-10-2.79809E-10
 -1     14569 1.64226E-01-3.08977E-02 1.51866E-09-3.00264E-01 3.22831E-10 2.34563E-10
 -1     14574 1.58962E-01-2.56343E-02-2.71349E-09-2.84065E-01-6.83024E-11-4.96130E-11
 -1     14575 1.12820E-01 2.05079E-02-2.76486E-09-2.91418E-01-2.64799E-11-2.26199E-11
 -1     14576 1.64226E-01-3.08977E-02 1.79099E-09-3.00264E-01 7.46720E-11 5.42531E-11
 -1     14581 1.58962E-01-2.56343E-02-2.47964E-09-2.84065E-01-1.04728E-11-7.60280E-12
 -1     14582 1.12820E-01 2.05079E-02-2.56934E-09-2.91418E-01-6.86806E-11-5.86503E-11
 -1     14583 1.64226E-01-3.08977E-02 1.63914E-09-3.00264E-01 9.21272E-11 6.69363E-11
 -1     14588 1.58962E-01-2.56343E-02-2.59317E-09-2.84065E-01-3.13946E-11-2.28180E-11
 -1     14589 1.12820E-01 2.05079E-02-2.50848E-09-2.91418E-01 1.21274E-11 1.03689E-11
 -1     14590 1.64226E-01-3.08977E-02 1.64004E-09-3.00264E-01 2.63414E-11 1.91460E-11
 -1     14595 1.58962E-01-2.56343E-02-2.53974E-09-2.84065E-01 8.25495E-12 5.99766E-12
 -1     14596 1.12820E-01 2.05079E-02-2.49245E-09-2.91418E-01 6.71096E-12 5.75317E-12
 -1     14597 1.64226E-01-3.08977E-02 1.65496E-09-3.00264E-01 5.15170E-12 3.75112E-12
 -1     14602 1.58962E-01-2.56343E-02-2.52016E-09-2.84065E-01 7.98661E-15 1.89233E-15
 -1     14603 1.12820E-01 2.05079E-02-2.49245E-09-2.91418E-01-6.71124E-12-5.73570E-12
 -1     14604 1.64226E-01-3.08977E-02 1.65495E-09-3.00264E-01-5.15972E-12-3.74779E-12
 -1     14609 1.58962E-01-2.56343E-02-2.53974E-09-2.84065E-01-8.26150E-12-5.98912E-12
 -1     14610 1.12820E-01 2.05079E-02-2.50847E-09-2.91418E-01-1.21226E-11-1.03665E-11
 -1     14611 1.64226E-01-3.08977E-02 1.64003E-09-3.00264E-01-2.63391E-11-1.91380E-11
 -1     14616 1.58962E-01-2.56343E-02-2.59316E-09-2.84065E-01 3.14044E-11 2.28164E-11
 -1     14617 1.12820E-01 2.05079E-02-2.56935E-09-2.91418E-01 6.86666E-11 5.86619E-11
 -1     14618 1.64226E-01-3.08977E-02 1.63916E-09-3.00264E-01-9.21273E-11-6.69459E-11
 -1     14623 1.58962E-01-2.56343E-02-2.47962E-09-2.84065E-01 1.04665E-11 7.61186E-12
 -1     14624 1.12820E-01 2.05079E-02-2.76486E-09-2.91418E-01 2.64849E-11 2.26179E-11
 -1     14625 1.64226E-01-3.08977E-02 1.79099E-09-3.00264E-01-7.46640E-11-5.42456E-11
 -1     14630 1.58962E-01-2.56343E-02-2.71347E-09-2.84065E-01 6.83164E-11 4.96208E-11
 -1     14631 1.12820E-01 2.05079E-02-2.69314E-09-2.91418E-01 3.27621E-10 2.79803E-10
 -1     14632 1.64226E-01-3.08977E-02 1.51866E-09-3.00264E-01-3.22822E-10-2.34554E-10
 -1     14637 1.58962E-01-2.56343E-02-2.36767E-09-2.84065E-01 1.78114E-10 1.29400E-10
 -1     14641 2.42226E-01-1.08898E-01-2.36787E-09-2.41640E-01-1.96180E-10-9.99653E-11
 -1     14642 2.00614E-01-6.72862E-02-2.69307E-09-2.62892E-01-3.67291E-10-2.25083E-10
 -1     14643 2.52237E-01-1.18909E-01 1.51873E-09-2.55420E-01 3.55435E-10 1.81090E-10
 -1     14648 2.42226E-01-1.08898E-01-2.71332E-09-2.41640E-01-7.51952E-11-3.83165E-11
 -1     14649 2.00614E-01-6.72862E-02-2.76476E-09-2.62892E-01-2.97188E-11-1.82213E-11
 -1     14650 2.52237E-01-1.18909E-01 1.79095E-09-2.55420E-01 8.22832E-11 4.19163E-11
 -1     14655 2.42226E-01-1.08898E-01-2.47969E-09-2.41640E-01-1.15523E-11-5.89738E-12
 -1     14656 2.00614E-01-6.72862E-02-2.56925E-09-2.62892E-01-7.69859E-11-4.71872E-11
 -1     14657 2.52237E-01-1.18909E-01 1.63916E-09-2.55420E-01 1.01458E-10 5.16801E-11
 -1     14662 2.42226E-01-1.08898E-01-2.59316E-09-2.41640E-01-3.45838E-11-1.76118E-11
 -1     14663 2.00614E-01-6.72862E-02-2.50839E-09-2.62892E-01 1.36149E-11 8.33335E-12
 -1     14664 2.52237E-01-1.18909E-01 1.64002E-09-2.55420E-01 2.89865E-11 1.47550E-11
 -1     14669 2.42226E-01-1.08898E-01-2.53970E-09-2.41640E-01 9.09691E-12 4.61362E-12
 -1     14670 2.00614E-01-6.72862E-02-2.49236E-09-2.62892E-01 7.51908E-12 4.60621E-12
 -1     14671 2.52237E-01-1.18909E-01 1.65494E-09-2.55420E-01 5.70118E-12 2.89409E-12
 -1     14676 2.42226E-01-1.08898E-01-2.52021E-09-2.41640E-01 3.15695E-15 3.72061E-15
 -1     14677 2.00614E-01-6.72862E-02-2.49236E-09-2.62892E-01-7.51628E-12-4.59426E-12
 -1     14678 2.52237E-01-1.18909E-01 1.65494E-09-2.55420E-01-5.68145E-12-2.90271E-12
 -1     14683 2.42226E-01-1.08898E-01-2.53968E-09-2.41640E-01-9.07873E-12-4.63097E-12
 -1     14684 2.00614E-01-6.72862E-02-2.50837E-09-2.62892E-01-1.36078E-11-8.33365E-12
 -1     14685 2.52237E-01-1.18909E-01 1.64003E-09-2.55420E-01-2.89930E-11-1.47639E-11
 -1     14690 2.42226E-01-1.08898E-01-2.59316E-09-2.41640E-01 3.45646E-11 1.76212E-11
 -1     14691 2.00614E-01-6.72862E-02-2.56925E-09-2.62892E-01 7.69795E-11 4.71881E-11
 -1     14692 2.52237E-01-1.18909E-01 1.63915E-09-2.55420E-01-1.01466E-10-5.16721E-11
 -1     14697 2.42226E-01-1.08898E-01-2.47969E-09-2.41640E-01 1.15554E-11 5.90172E-12
 -1     14698 2.00614E-01-6.72862E-02-2.76475E-09-2.62892E-01 2.97206E-11 1.82298E-11
 -1     14699 2.52237E-01-1.18909E-01 1.79095E-09-2.55420E-01-8.23176E-11-4.19092E-11
 -1     14704 2.42226E-01-1.08898E-01-2.71331E-09-2.41640E-01 7.51835E-11 3.83205E-11
 -1     14705 2.00614E-01-6.72862E-02-2.69307E-09-2.62892E-01 3.67289E-10 2.25072E-10
 -1     14706 2.52237E-01-1.18909E-01 1.51873E-09-2.55420E-01-3.55447E-10-1.81104E-10
 -1     14711 2.42226E-01-1.08898E-01-2.36787E-09-2.41640E-01 1.96165E-10 9.99642E-11
 -1     14715 3.08304E-01-1.74976E-01-2.36742E-09-1.75562E-01-2.09370E-10-6.80573E-11
 -1     14716 2.75296E-01-1.41968E-01-2.69315E-09-2.08632E-01-3.98039E-10-1.64887E-10
 -1     14717 3.22084E-01-1.88756E-01 1.51854E-09-1.85573E-01 3.79545E-10 1.23314E-10
 -1     14722 3.08304E-01-1.74976E-01-2.71344E-09-1.75562E-01-8.03141E-11-2.61115E-11
 -1     14723 2.75296E-01-1.41968E-01-2.76487E-09-2.08632E-01-3.22134E-11-1.33403E-11
 -1     14724 3.22084E-01-1.88756E-01 1.79092E-09-1.85573E-01 8.76981E-11 2.84760E-11
 -1     14729 3.08304E-01-1.74976E-01-2.47948E-09-1.75562E-01-1.23038E-11-4.00343E-12
 -1     14730 2.75296E-01-1.41968E-01-2.56937E-09-2.08632E-01-8.34401E-11-3.45787E-11
 -1     14731 3.22084E-01-1.88756E-01 1.63905E-09-1.85573E-01 1.08293E-10 3.51674E-11
 -1     14736 3.08304E-01-1.74976E-01-2.59307E-09-1.75562E-01-3.69452E-11-1.20185E-11
 -1     14737 2.75296E-01-1.41968E-01-2.50851E-09-2.08632E-01 1.47261E-11 6.08854E-12
 -1     14738 3.22084E-01-1.88756E-01 1.63995E-09-1.85573E-01 3.09540E-11 1.00384E-11
 -1     14743 3.08304E-01-1.74976E-01-2.53963E-09-1.75562E-01 9.70719E-12 3.14826E-12
 -1     14744 2.75296E-01-1.41968E-01-2.49248E-09-2.08632E-01 8.15545E-12 3.37582E-12
 -1     14745 3.22084E-01-1.88756E-01 1.65487E-09-1.85573E-01 6.06381E-12 1.95776E-12
 -1     14750 3.08304E-01-1.74976E-01-2.52003E-09-1.75562E-01-2.69052E-15-4.21139E-15
 -1     14751 2.75296E-01-1.41968E-01-2.49248E-09-2.08632E-01-8.14076E-12-3.37628E-12
 -1     14752 3.22084E-01-1.88756E-01 1.65486E-09-1.85573E-01-6.05782E-12-1.96292E-12
 -1     14757 3.08304E-01-1.74976E-01-2.53965E-09-1.75562E-01-9.71797E-12-3.14132E-12
 -1     14758 2.75296E-01-1.41968E-01-2.50850E-09-2.08632E-01-1.47420E-11-6.09510E-12
 -1     14759 3.22084E-01-1.88756E-01 1.63995E-09-1.85573E-01-3.09603E-11-1.00475E-11
 -1     14764 3.08304E-01-1.74976E-01-2.59307E-09-1.75562E-01 3.69500E-11 1.20182E-11
 -1     14765 2.75296E-01-1.41968E-01-2.56937E-09-2.08632E-01 8.34480E-11 3.45771E-11
 -1     14766 3.22084E-01-1.88756E-01 1.63906E-09-1.85573E-01-1.08275E-10-3.51751E-11
 -1     14771 3.08304E-01-1.74976E-01-2.47948E-09-1.75562E-01 1.22865E-11 3.99617E-12
 -1     14772 2.75296E-01-1.41968E-01-2.76487E-09-2.08632E-01 3.21957E-11 1.33399E-11
 -1     14773 3.22084E-01-1.88756E-01 1.79091E-09-1.85573E-01-8.76798E-11-2.84805E-11
 -1     14778 3.08304E-01-1.74976E-01-2.71347E-09-1.75562E-01 8.03651E-11 2.61115E-11
 -1     14779 2.75296E-01-1.41968E-01-2.69316E-09-2.08632E-01 3.98034E-10 1.64881E-10
 -1     14780 3.22084E-01-1.88756E-01 1.51853E-09-1.85573E-01-3.79540E-10-1.23305E-10
 -1     14785 3.08304E-01-1.74976E-01-2.36743E-09-1.75562E-01 2.09371E-10 6.80397E-11
 -1     14789 3.50729E-01-2.17401E-01-2.36771E-09-9.22982E-02-2.17469E-10-3.44514E-11
 -1     14790 3.29556E-01-1.96228E-01-2.69315E-09-1.33950E-01-4.18990E-10-1.00583E-10
 -1     14791 3.66928E-01-2.33600E-01 1.51862E-09-9.75617E-02 3.94042E-10 6.24043E-11
 -1     14796 3.50729E-01-2.17401E-01-2.71341E-09-9.22982E-02-8.34040E-11-1.32110E-11
 -1     14797 3.29556E-01-1.96228E-01-2.76489E-09-1.33950E-01-3.38823E-11-8.12994E-12
 -1     14798 3.66928E-01-2.33600E-01 1.79090E-09-9.75617E-02 9.11166E-11 1.44322E-11
 -1     14803 3.50729E-01-2.17401E-01-2.47966E-09-9.22982E-02-1.28324E-11-2.03178E-12
 -1     14804 3.29556E-01-1.96228E-01-2.56938E-09-1.33950E-01-8.78665E-11-2.10959E-11
 -1     14805 3.66928E-01-2.33600E-01 1.63907E-09-9.75617E-02 1.12406E-10 1.78070E-11
 -1     14810 3.50729E-01-2.17401E-01-2.59321E-09-9.22982E-02-3.83695E-11-6.07743E-12
 -1     14811 3.29556E-01-1.96228E-01-2.50854E-09-1.33950E-01 1.54891E-11 3.71565E-12
 -1     14812 3.66928E-01-2.33600E-01 1.63993E-09-9.75617E-02 3.21095E-11 5.08651E-12
 -1     14817 3.50729E-01-2.17401E-01-2.53977E-09-9.22982E-02 1.00410E-11 1.59266E-12
 -1     14818 3.29556E-01-1.96228E-01-2.49250E-09-1.33950E-01 8.58739E-12 2.06214E-12
 -1     14819 3.66928E-01-2.33600E-01 1.65486E-09-9.75617E-02 6.27729E-12 9.98621E-13
 -1     14824 3.50729E-01-2.17401E-01-2.52023E-09-9.22982E-02-1.09505E-14-8.49365E-16
 -1     14825 3.29556E-01-1.96228E-01-2.49251E-09-1.33950E-01-8.59418E-12-2.06106E-12
 -1     14826 3.66928E-01-2.33600E-01 1.65485E-09-9.75617E-02-6.28966E-12-9.97461E-13
 -1     14831 3.50729E-01-2.17401E-01-2.53976E-09-9.22982E-02-1.00286E-11-1.59401E-12
 -1     14832 3.29556E-01-1.96228E-01-2.50852E-09-1.33950E-01-1.54788E-11-3.71905E-12
 -1     14833 3.66928E-01-2.33600E-01 1.63994E-09-9.75617E-02-3.20943E-11-5.08816E-12
 -1     14838 3.50729E-01-2.17401E-01-2.59319E-09-9.22982E-02 3.83663E-11 6.06712E-12
 -1     14839 3.29556E-01-1.96228E-01-2.56938E-09-1.33950E-01 8.78631E-11 2.10906E-11
 -1     14840 3.66928E-01-2.33600E-01 1.63908E-09-9.75617E-02-1.12422E-10-1.78068E-11
 -1     14845 3.50729E-01-2.17401E-01-2.47966E-09-9.22982E-02 1.28365E-11 2.02724E-12
 -1     14846 3.29556E-01-1.96228E-01-2.76489E-09-1.33950E-01 3.38892E-11 8.12782E-12
 -1     14847 3.66928E-01-2.33600E-01 1.79091E-09-9.75617E-02-9.11151E-11-1.44324E-11
 -1     14852 3.50729E-01-2.17401E-01-2.71341E-09-9.22982E-02 8.34049E-11 1.32186E-11
 -1     14853 3.29556E-01-1.96228E-01-2.69316E-09-1.33950E-01 4.19002E-10 1.00582E-10
 -1     14854 3.66928E-01-2.33600E-01 1.51863E-09-9.75617E-02-3.94027E-10-6.24076E-11
 -1     14859 3.50729E-01-2.17401E-01-2.36771E-09-9.22982E-02 2.17473E-10 3.44538E-11
 -1     14863 3.58082E-01-2.24754E-01-2.69306E-09-4.61561E-02-4.29511E-10-3.38011E-11
 -1     14867 3.58082E-01-2.24754E-01-2.76476E-09-4.61561E-02-3.47695E-11-2.73052E-12
 -1     14871 3.58082E-01-2.24754E-01-2.56927E-09-4.61561E-02-9.00790E-11-7.08751E-12
 -1     14875 3.58082E-01-2.24754E-01-2.50842E-09-4.61561E-02 1.58836E-11 1.24992E-12
 -1     14879 3.58082E-01-2.24754E-01-2.49240E-09-4.61561E-02 8.78176E-12 6.90599E-13
 -1     14883 3.58082E-01-2.24754E-01-2.49240E-09-4.61561E-02-8.79991E-12-6.93578E-13
 -1     14887 3.58082E-01-2.24754E-01-2.50842E-09-4.61561E-02-1.58644E-11-1.25710E-12
 -1     14891 3.58082E-01-2.24754E-01-2.56928E-09-4.61561E-02 9.00716E-11 7.08156E-12
 -1     14895 3.58082E-01-2.24754E-01-2.76477E-09-4.61561E-02 3.47757E-11 2.72723E-12
 -1     14899 3.58082E-01-2.24754E-01-2.69306E-09-4.61561E-02 4.29520E-10 3.37952E-11
 -1     14905-1.89739E-01 3.23067E-01-1.75282E-09-8.33105E-02-8.68983E-12-5.48776E-11
 -1     14906-1.96377E-01 3.29705E-01-1.73067E-09-4.16615E-02 7.04241E-12 8.94976E-11
 -1     14907-2.03574E-01 3.36902E-01 9.70165E-10-8.78055E-02-1.12204E-11-7.08553E-11
 -1     14912-1.89739E-01 3.23067E-01-1.82691E-09-8.33105E-02 6.67469E-12 4.21130E-11
 -1     14913-1.96377E-01 3.29705E-01-1.71284E-09-4.16615E-02 6.57691E-12 8.36306E-11
 -1     14914-2.03574E-01 3.36902E-01 9.12383E-10-8.78055E-02-9.09641E-12-5.74329E-11
 -1     14919-1.89739E-01 3.23067E-01-1.71814E-09-8.33105E-02 3.73249E-12 2.36059E-11
 -1     14920-1.96377E-01 3.29705E-01-1.75931E-09-4.16615E-02-9.73273E-13-1.23093E-11
 -1     14921-2.03574E-01 3.36902E-01 9.52957E-10-8.78055E-02 1.72986E-12 1.09437E-11
 -1     14926-1.89739E-01 3.23067E-01-1.78702E-09-8.33105E-02-1.79511E-13-1.13336E-12
 -1     14927-1.96377E-01 3.29705E-01-1.77798E-09-4.16615E-02 1.34735E-12 1.71162E-11
 -1     14928-2.03574E-01 3.36902E-01 9.69883E-10-8.78055E-02-6.74026E-13-4.23822E-12
 -1     14933-1.89739E-01 3.23067E-01-1.76236E-09-8.33105E-02 1.66205E-12 1.04943E-11
 -1     14934-1.96377E-01 3.29705E-01-1.77944E-09-4.16615E-02 1.42160E-15 4.90290E-14
 -1     14935-2.03574E-01 3.36902E-01 9.66707E-10-8.78055E-02 1.28199E-13 8.24575E-13
 -1     14940-1.89739E-01 3.23067E-01-1.76615E-09-8.33105E-02-6.32915E-15 8.25165E-15
 -1     14941-1.96377E-01 3.29705E-01-1.77943E-09-4.16615E-02-9.29431E-15-6.53771E-14
 -1     14942-2.03574E-01 3.36902E-01 9.66723E-10-8.78055E-02-1.36741E-13-8.34683E-13
 -1     14947-1.89739E-01 3.23067E-01-1.76236E-09-8.33105E-02-1.67349E-12-1.05041E-11
 -1     14948-1.96377E-01 3.29705E-01-1.77797E-09-4.16615E-02-1.34806E-12-1.71338E-11
 -1     14949-2.03574E-01 3.36902E-01 9.69897E-10-8.78055E-02 6.65821E-13 4.23900E-12
 -1     14954-1.89739E-01 3.23067E-01-1.78701E-09-8.33105E-02 1.67796E-13 1.09295E-12
 -1     14955-1.96377E-01 3.29705E-01-1.75931E-09-4.16615E-02 9.68081E-13 1.23004E-11
 -1     14956-2.03574E-01 3.36902E-01 9.52956E-10-8.78055E-02-1.74097E-12-1.09772E-11
 -1     14961-1.89739E-01 3.23067E-01-1.71812E-09-8.33105E-02-3.74876E-12-2.36135E-11
 -1     14962-1.96377E-01 3.29705E-01-1.71282E-09-4.16615E-02-6.57961E-12-8.36408E-11
 -1     14963-2.03574E-01 3.36902E-01 9.12392E-10-8.78055E-02 9.09534E-12 5.74200E-11
 -1     14968-1.89739E-01 3.23067E-01-1.82691E-09-8.33105E-02-6.67005E-12-4.21259E-11
 -1     14969-1.96377E-01 3.29705E-01-1.73068E-09-4.16615E-02-7.04362E-12-8.95022E-11
 -1     14970-2.03574E-01 3.36902E-01 9.70160E-10-8.78055E-02 1.12211E-11 7.08303E-11
 -1     14975-1.89739E-01 3.23067E-01-1.75282E-09-8.33105E-02 8.68930E-12 5.48700E-11
 -1     14979-1.51446E-01 2.84774E-01-1.75284E-09-1.58466E-01-1.71745E-11-5.28029E-11
 -1     14980-1.70628E-01 3.03956E-01-1.73068E-09-1.20907E-01 2.09542E-11 8.73021E-11
 -1     14981-1.63214E-01 2.96542E-01 9.70164E-10-1.67016E-01-2.21735E-11-6.82130E-11
 -1     14986-1.51446E-01 2.84774E-01-1.82694E-09-1.58466E-01 1.31695E-11 4.05324E-11
 -1     14987-1.70628E-01 3.03956E-01-1.71283E-09-1.20907E-01 1.95804E-11 8.15605E-11
 -1     14988-1.63214E-01 2.96542E-01 9.12382E-10-1.67016E-01-1.79775E-11-5.53084E-11
 -1     14993-1.51446E-01 2.84774E-01-1.71816E-09-1.58466E-01 7.38413E-12 2.26961E-11
 -1     14994-1.70628E-01 3.03956E-01-1.75932E-09-1.20907E-01-2.88569E-12-1.20078E-11
 -1     14995-1.63214E-01 2.96542E-01 9.52958E-10-1.67016E-01 3.42843E-12 1.05426E-11
 -1     15000-1.51446E-01 2.84774E-01-1.78703E-09-1.58466E-01-3.58553E-13-1.07652E-12
 -1     15001-1.70628E-01 3.03956E-01-1.77798E-09-1.20907E-01 4.00589E-12 1.67096E-11
 -1     15002-1.63214E-01 2.96542E-01 9.69896E-10-1.67016E-01-1.34516E-12-4.08973E-12
 -1     15007-1.51446E-01 2.84774E-01-1.76238E-09-1.58466E-01 3.27382E-12 1.01144E-11
 -1     15008-1.70628E-01 3.03956E-01-1.77944E-09-1.20907E-01 2.96734E-15 4.50987E-14
 -1     15009-1.63214E-01 2.96542E-01 9.66721E-10-1.67016E-01 2.52863E-13 8.12120E-13
 -1     15014-1.51446E-01 2.84774E-01-1.76616E-09-1.58466E-01-7.62288E-15-6.18124E-16
 -1     15015-1.70628E-01 3.03956E-01-1.77944E-09-1.20907E-01-2.32774E-14-5.52218E-14
 -1     15016-1.63214E-01 2.96542E-01 9.66716E-10-1.67016E-01-2.69321E-13-8.08759E-13
 -1     15021-1.51446E-01 2.84774E-01-1.76239E-09-1.58466E-01-3.28845E-12-1.01137E-11
 -1     15022-1.70628E-01 3.03956E-01-1.77797E-09-1.20907E-01-4.01283E-12-1.67072E-11
 -1     15023-1.63214E-01 2.96542E-01 9.69886E-10-1.67016E-01 1.32818E-12 4.09934E-12
 -1     15028-1.51446E-01 2.84774E-01-1.78703E-09-1.58466E-01 3.52458E-13 1.08021E-12
 -1     15029-1.70628E-01 3.03956E-01-1.75931E-09-1.20907E-01 2.87824E-12 1.20108E-11
 -1     15030-1.63214E-01 2.96542E-01 9.52955E-10-1.67016E-01-3.42862E-12-1.05282E-11
 -1     15035-1.51446E-01 2.84774E-01-1.71814E-09-1.58466E-01-7.37403E-12-2.27025E-11
 -1     15036-1.70628E-01 3.03956E-01-1.71282E-09-1.20907E-01-1.95901E-11-8.15795E-11
 -1     15037-1.63214E-01 2.96542E-01 9.12395E-10-1.67016E-01 1.79726E-11 5.53009E-11
 -1     15042-1.51446E-01 2.84774E-01-1.82693E-09-1.58466E-01-1.31714E-11-4.05449E-11
 -1     15043-1.70628E-01 3.03956E-01-1.73069E-09-1.20907E-01-2.09612E-11-8.72961E-11
 -1     15044-1.63214E-01 2.96542E-01 9.70165E-10-1.67016E-01 2.21726E-11 6.82314E-11
 -1     15049-1.51446E-01 2.84774E-01-1.75284E-09-1.58466E-01 1.71760E-11 5.28346E-11
 -1     15053-9.18021E-02 2.25130E-01-1.75283E-09-2.18110E-01-2.52196E-11-4.95029E-11
 -1     15054-1.21652E-01 2.54980E-01-1.73066E-09-1.88316E-01 3.43554E-11 8.29434E-11
 -1     15055-1.00352E-01 2.33680E-01 9.70166E-10-2.29878E-01-3.25692E-11-6.39045E-11
 -1     15060-9.18021E-02 2.25130E-01-1.82692E-09-2.18110E-01 1.93595E-11 3.80097E-11
 -1     15061-1.21652E-01 2.54980E-01-1.71281E-09-1.88316E-01 3.21010E-11 7.75003E-11
 -1     15062-1.00352E-01 2.33680E-01 9.12387E-10-2.29878E-01-2.64003E-11-5.18007E-11
 -1     15067-9.18021E-02 2.25130E-01-1.71815E-09-2.18110E-01 1.08381E-11 2.13192E-11
 -1     15068-1.21652E-01 2.54980E-01-1.75930E-09-1.88316E-01-4.72620E-12-1.14074E-11
 -1     15069-1.00352E-01 2.33680E-01 9.52962E-10-2.29878E-01 5.03923E-12 9.90300E-12
 -1     15074-9.18021E-02 2.25130E-01-1.78703E-09-2.18110E-01-5.13703E-13-9.98741E-13
 -1     15075-1.21652E-01 2.54980E-01-1.77797E-09-1.88316E-01 6.56660E-12 1.58702E-11
 -1     15076-1.00352E-01 2.33680E-01 9.69883E-10-2.29878E-01-1.95592E-12-3.83102E-12
 -1     15081-9.18021E-02 2.25130E-01-1.76238E-09-2.18110E-01 4.82330E-12 9.47929E-12
 -1     15082-1.21652E-01 2.54980E-01-1.77941E-09-1.88316E-01 1.76604E-14 5.32604E-14
 -1     15083-1.00352E-01 2.33680E-01 9.66721E-10-2.29878E-01 3.83204E-13 7.38524E-13
 -1     15088-9.18021E-02 2.25130E-01-1.76615E-09-2.18110E-01 1.46248E-15-9.58468E-15
 -1     15089-1.21652E-01 2.54980E-01-1.77942E-09-1.88316E-01-2.26306E-14-4.20543E-14
 -1     15090-1.00352E-01 2.33680E-01 9.66723E-10-2.29878E-01-3.93485E-13-7.46705E-13
 -1     15095-9.18021E-02 2.25130E-01-1.76237E-09-2.18110E-01-4.83564E-12-9.48300E-12
 -1     15096-1.21652E-01 2.54980E-01-1.77796E-09-1.88316E-01-6.57870E-12-1.58828E-11
 -1     15097-1.00352E-01 2.33680E-01 9.69889E-10-2.29878E-01 1.94903E-12 3.81518E-12
 -1     15102-9.18021E-02 2.25130E-01-1.78704E-09-2.18110E-01 5.09855E-13 1.02055E-12
 -1     15103-1.21652E-01 2.54980E-01-1.75930E-09-1.88316E-01 4.71837E-12 1.14308E-11
 -1     15104-1.00352E-01 2.33680E-01 9.52954E-10-2.29878E-01-5.04247E-12-9.89164E-12
 -1     15109-9.18021E-02 2.25130E-01-1.71816E-09-2.18110E-01-1.08569E-11-2.12815E-11
 -1     15110-1.21652E-01 2.54980E-01-1.71281E-09-1.88316E-01-3.21115E-11-7.75034E-11
 -1     15111-1.00352E-01 2.33680E-01 9.12393E-10-2.29878E-01 2.63919E-11 5.18172E-11
 -1     15116-9.18021E-02 2.25130E-01-1.82692E-09-2.18110E-01-1.93563E-11-3.79943E-11
 -1     15117-1.21652E-01 2.54980E-01-1.73067E-09-1.88316E-01-3.43620E-11-8.29391E-11
 -1     15118-1.00352E-01 2.33680E-01 9.70171E-10-2.29878E-01 3.25629E-11 6.39085E-11
 -1     15123-9.18021E-02 2.25130E-01-1.75282E-09-2.18110E-01 2.52216E-11 4.95005E-11
 -1     15127-1.66465E-02 1.49975E-01-1.75280E-09-2.56403E-01-3.26532E-11-4.49390E-11
 -1     15128-5.42425E-02 1.87570E-01-1.73069E-09-2.37292E-01 4.69133E-11 7.65527E-11
 -1     15129-2.11416E-02 1.54470E-01 9.70161E-10-2.70238E-01-4.21557E-11-5.80283E-11
 -1     15134-1.66465E-02 1.49975E-01-1.82689E-09-2.56403E-01 2.50679E-11 3.45020E-11
 -1     15135-5.42425E-02 1.87570E-01-1.71284E-09-2.37292E-01 4.38281E-11 7.15374E-11
 -1     15136-2.11416E-02 1.54470E-01 9.12381E-10-2.70238E-01-3.41668E-11-4.70360E-11
 -1     15141-1.66465E-02 1.49975E-01-1.71811E-09-2.56403E-01 1.40446E-11 1.93301E-11
 -1     15142-5.42425E-02 1.87570E-01-1.75933E-09-2.37292E-01-6.45727E-12-1.05158E-11
 -1     15143-2.11416E-02 1.54470E-01 9.52960E-10-2.70238E-01 6.52171E-12 8.98714E-12
 -1     15148-1.66465E-02 1.49975E-01-1.78699E-09-2.56403E-01-6.57819E-13-9.08367E-13
 -1     15149-5.42425E-02 1.87570E-01-1.77799E-09-2.37292E-01 8.97788E-12 1.46458E-11
 -1     15150-2.11416E-02 1.54470E-01 9.69909E-10-2.70238E-01-2.51825E-12-3.47707E-12
 -1     15155-1.66465E-02 1.49975E-01-1.76233E-09-2.56403E-01 6.24276E-12 8.60777E-12
 -1     15156-5.42425E-02 1.87570E-01-1.77945E-09-2.37292E-01 3.08699E-14 4.61949E-14
 -1     15157-2.11416E-02 1.54470E-01 9.66733E-10-2.70238E-01 4.97649E-13 7.09259E-13
 -1     15162-1.66465E-02 1.49975E-01-1.76610E-09-2.56403E-01 8.35906E-15 6.24889E-15
 -1     15163-5.42425E-02 1.87570E-01-1.77944E-09-2.37292E-01-1.46481E-14-5.12744E-14
 -1     15164-2.11416E-02 1.54470E-01 9.66730E-10-2.70238E-01-4.91078E-13-6.78695E-13
 -1     15169-1.66465E-02 1.49975E-01-1.76231E-09-2.56403E-01-6.23537E-12-8.57834E-12
 -1     15170-5.42425E-02 1.87570E-01-1.77798E-09-2.37292E-01-8.99315E-12-1.46321E-11
 -1     15171-2.11416E-02 1.54470E-01 9.69911E-10-2.70238E-01 2.51231E-12 3.50548E-12
 -1     15176-1.66465E-02 1.49975E-01-1.78698E-09-2.56403E-01 6.43845E-13 9.33400E-13
 -1     15177-5.42425E-02 1.87570E-01-1.75932E-09-2.37292E-01 6.44633E-12 1.05356E-11
 -1     15178-2.11416E-02 1.54470E-01 9.52965E-10-2.70238E-01-6.51974E-12-8.97360E-12
 -1     15183-1.66465E-02 1.49975E-01-1.71810E-09-2.56403E-01-1.40537E-11-1.93293E-11
 -1     15184-5.42425E-02 1.87570E-01-1.71283E-09-2.37292E-01-4.38299E-11-7.15275E-11
 -1     15185-2.11416E-02 1.54470E-01 9.12388E-10-2.70238E-01 3.41711E-11 4.70379E-11
 -1     15190-1.66465E-02 1.49975E-01-1.82687E-09-2.56403E-01-2.50718E-11-3.45058E-11
 -1     15191-5.42425E-02 1.87570E-01-1.73068E-09-2.37292E-01-4.69127E-11-7.65458E-11
 -1     15192-2.11416E-02 1.54470E-01 9.70163E-10-2.70238E-01 4.21564E-11 5.80226E-11
 -1     15197-1.66465E-02 1.49975E-01-1.75280E-09-2.56403E-01 3.26435E-11 4.49418E-11
 -1     15201 6.66640E-02 6.66640E-02-1.75277E-09-2.69599E-01-3.92718E-11-3.92878E-11
 -1     15202 2.50024E-02 1.08326E-01-1.73069E-09-2.63041E-01 5.83102E-11 6.82757E-11
 -1     15203 6.66640E-02 6.66640E-02 9.70161E-10-2.84145E-01-5.07154E-11-5.07178E-11
 -1     15208 6.66640E-02 6.66640E-02-1.82687E-09-2.69599E-01 3.01535E-11 3.01547E-11
 -1     15209 2.50024E-02 1.08326E-01-1.71284E-09-2.63041E-01 5.44772E-11 6.37935E-11
 -1     15210 6.66640E-02 6.66640E-02 9.12394E-10-2.84145E-01-4.11229E-11-4.11117E-11
 -1     15215 6.66640E-02 6.66640E-02-1.71810E-09-2.69599E-01 1.68805E-11 1.69079E-11
 -1     15216 2.50024E-02 1.08326E-01-1.75933E-09-2.63041E-01-8.03317E-12-9.37158E-12
 -1     15217 6.66640E-02 6.66640E-02 9.52964E-10-2.84145E-01 7.84179E-12 7.86638E-12
 -1     15222 6.66640E-02 6.66640E-02-1.78698E-09-2.69599E-01-8.08275E-13-7.75391E-13
 -1     15223 2.50024E-02 1.08326E-01-1.77799E-09-2.63041E-01 1.11632E-11 1.30677E-11
 -1     15224 6.66640E-02 6.66640E-02 9.69895E-10-2.84145E-01-3.05476E-12-3.03605E-12
 -1     15229 6.66640E-02 6.66640E-02-1.76231E-09-2.69599E-01 7.52380E-12 7.52325E-12
 -1     15230 2.50024E-02 1.08326E-01-1.77944E-09-2.63041E-01 2.60502E-14 5.14987E-14
 -1     15231 6.66640E-02 6.66640E-02 9.66731E-10-2.84145E-01 5.95506E-13 6.07142E-13
 -1     15236 6.66640E-02 6.66640E-02-1.76610E-09-2.69599E-01-1.92391E-14-1.97410E-14
 -1     15237 2.50024E-02 1.08326E-01-1.77945E-09-2.63041E-01-2.18022E-14-4.97186E-14
 -1     15238 6.66640E-02 6.66640E-02 9.66713E-10-2.84145E-01-5.85142E-13-5.95680E-13
 -1     15243 6.66640E-02 6.66640E-02-1.76232E-09-2.69599E-01-7.51976E-12-7.48949E-12
 -1     15244 2.50024E-02 1.08326E-01-1.77799E-09-2.63041E-01-1.11795E-11-1.30481E-11
 -1     15245 6.66640E-02 6.66640E-02 9.69905E-10-2.84145E-01 3.03329E-12 3.03711E-12
 -1     15250 6.66640E-02 6.66640E-02-1.78698E-09-2.69599E-01 7.80316E-13 7.92103E-13
 -1     15251 2.50024E-02 1.08326E-01-1.75933E-09-2.63041E-01 8.02083E-12 9.38598E-12
 -1     15252 6.66640E-02 6.66640E-02 9.52952E-10-2.84145E-01-7.86073E-12-7.85941E-12
 -1     15257 6.66640E-02 6.66640E-02-1.71809E-09-2.69599E-01-1.68984E-11-1.69117E-11
 -1     15258 2.50024E-02 1.08326E-01-1.71284E-09-2.63041E-01-5.44787E-11-6.37797E-11
 -1     15259 6.66640E-02 6.66640E-02 9.12386E-10-2.84145E-01 4.11075E-11 4.11054E-11
 -1     15264 6.66640E-02 6.66640E-02-1.82687E-09-2.69599E-01-3.01738E-11-3.01395E-11
 -1     15265 2.50024E-02 1.08326E-01-1.73069E-09-2.63041E-01-5.83064E-11-6.82690E-11
 -1     15266 6.66640E-02 6.66640E-02 9.70161E-10-2.84145E-01 5.07236E-11 5.07153E-11
 -1     15271 6.66640E-02 6.66640E-02-1.75279E-09-2.69599E-01 3.92953E-11 3.92917E-11
 -1     15275 1.49975E-01-1.66465E-02-1.75286E-09-2.56403E-01-4.49497E-11-3.26443E-11
 -1     15276 1.08326E-01 2.50024E-02-1.73069E-09-2.63041E-01 6.82687E-11 5.83128E-11
 -1     15277 1.54470E-01-2.11416E-02 9.70187E-10-2.70238E-01-5.80184E-11-4.21445E-11
 -1     15282 1.49975E-01-1.66465E-02-1.82696E-09-2.56403E-01 3.44906E-11 2.50729E-11
 -1     15283 1.08326E-01 2.50024E-02-1.71285E-09-2.63041E-01 6.37870E-11 5.44984E-11
 -1     15284 1.54470E-01-2.11416E-02 9.12417E-10-2.70238E-01-4.70346E-11-3.41641E-11
 -1     15289 1.49975E-01-1.66465E-02-1.71817E-09-2.56403E-01 1.93307E-11 1.40431E-11
 -1     15290 1.08326E-01 2.50024E-02-1.75933E-09-2.63041E-01-9.38826E-12-8.00728E-12
 -1     15291 1.54470E-01-2.11416E-02 9.52988E-10-2.70238E-01 8.98888E-12 6.52115E-12
 -1     15296 1.49975E-01-1.66465E-02-1.78707E-09-2.56403E-01-9.12990E-13-6.67434E-13
 -1     15297 1.08326E-01 2.50024E-02-1.77799E-09-2.63041E-01 1.30628E-11 1.11662E-11
 -1     15298 1.54470E-01-2.11416E-02 9.69928E-10-2.70238E-01-3.45278E-12-2.51139E-12
 -1     15303 1.49975E-01-1.66465E-02-1.76241E-09-2.56403E-01 8.60590E-12 6.25850E-12
 -1     15304 1.08326E-01 2.50024E-02-1.77944E-09-2.63041E-01 4.74415E-14 3.66465E-14
 -1     15305 1.54470E-01-2.11416E-02 9.66759E-10-2.70238E-01 6.91556E-13 5.02552E-13
 -1     15310 1.49975E-01-1.66465E-02-1.76618E-09-2.56403E-01 4.59553E-15 1.36672E-14
 -1     15311 1.08326E-01 2.50024E-02-1.77944E-09-2.63041E-01-4.96336E-14-3.03768E-14
 -1     15312 1.54470E-01-2.11416E-02 9.66751E-10-2.70238E-01-6.87824E-13-4.93158E-13
 -1     15317 1.49975E-01-1.66465E-02-1.76241E-09-2.56403E-01-8.58324E-12-6.26409E-12
 -1     15318 1.08326E-01 2.50024E-02-1.77798E-09-2.63041E-01-1.30728E-11-1.11572E-11
 -1     15319 1.54470E-01-2.11416E-02 9.69927E-10-2.70238E-01 3.48835E-12 2.52274E-12
 -1     15324 1.49975E-01-1.66465E-02-1.78706E-09-2.56403E-01 9.37028E-13 6.60235E-13
 -1     15325 1.08326E-01 2.50024E-02-1.75932E-09-2.63041E-01 9.38914E-12 8.01284E-12
 -1     15326 1.54470E-01-2.11416E-02 9.52999E-10-2.70238E-01-8.98422E-12-6.53153E-12
 -1     15331 1.49975E-01-1.66465E-02-1.71818E-09-2.56403E-01-1.93332E-11-1.40626E-11
 -1     15332 1.08326E-01 2.50024E-02-1.71283E-09-2.63041E-01-6.37940E-11-5.44863E-11
 -1     15333 1.54470E-01-2.11416E-02 9.12418E-10-2.70238E-01 4.70494E-11 3.41776E-11
 -1     15338 1.49975E-01-1.66465E-02-1.82697E-09-2.56403E-01-3.44798E-11-2.50710E-11
 -1     15339 1.08326E-01 2.50024E-02-1.73069E-09-2.63041E-01-6.82633E-11-5.83101E-11
 -1     15340 1.54470E-01-2.11416E-02 9.70189E-10-2.70238E-01 5.80297E-11 4.21435E-11
 -1     15345 1.49975E-01-1.66465E-02-1.75286E-09-2.56403E-01 4.49488E-11 3.26546E-11
 -1     15349 2.25130E-01-9.18021E-02-1.75292E-09-2.18110E-01-4.94880E-11-2.52266E-11
 -1     15350 1.87570E-01-5.42425E-02-1.73061E-09-2.37292E-01 7.65714E-11 4.69204E-11
 -1     15351 2.33680E-01-1.00352E-01 9.70188E-10-2.29878E-01-6.39373E-11-3.25865E-11
 -1     15356 2.25130E-01-9.18021E-02-1.82689E-09-2.18110E-01 3.80264E-11 1.93587E-11
 -1     15357 1.87570E-01-5.42425E-02-1.71275E-09-2.37292E-01 7.15257E-11 4.38273E-11
 -1     15358 2.33680E-01-1.00352E-01 9.12429E-10-2.29878E-01-5.17699E-11-2.63834E-11
 -1     15363 2.25130E-01-9.18021E-02-1.71818E-09-2.18110E-01 2.12908E-11 1.08543E-11
 -1     15364 1.87570E-01-5.42425E-02-1.75924E-09-2.37292E-01-1.05014E-11-6.44923E-12
 -1     15365 2.33680E-01-1.00352E-01 9.53003E-10-2.29878E-01 9.88607E-12 5.04255E-12
 -1     15370 2.25130E-01-9.18021E-02-1.78702E-09-2.18110E-01-9.88069E-13-5.01131E-13
 -1     15371 1.87570E-01-5.42425E-02-1.77790E-09-2.37292E-01 1.46623E-11 8.98633E-12
 -1     15372 2.33680E-01-1.00352E-01 9.69939E-10-2.29878E-01-3.82914E-12-1.96078E-12
 -1     15377 2.25130E-01-9.18021E-02-1.76236E-09-2.18110E-01 9.47553E-12 4.82611E-12
 -1     15378 1.87570E-01-5.42425E-02-1.77936E-09-2.37292E-01 4.62464E-14 3.63535E-14
 -1     15379 2.33680E-01-1.00352E-01 9.66757E-10-2.29878E-01 7.52875E-13 3.89663E-13
 -1     15384 2.25130E-01-9.18021E-02-1.76616E-09-2.18110E-01-7.72689E-15-2.76148E-16
 -1     15385 1.87570E-01-5.42425E-02-1.77935E-09-2.37292E-01-4.75541E-14-1.94184E-14
 -1     15386 2.33680E-01-1.00352E-01 9.66765E-10-2.29878E-01-7.51039E-13-3.80787E-13
 -1     15391 2.25130E-01-9.18021E-02-1.76234E-09-2.18110E-01-9.47839E-12-4.80314E-12
 -1     15392 1.87570E-01-5.42425E-02-1.77791E-09-2.37292E-01-1.46448E-11-8.97153E-12
 -1     15393 2.33680E-01-1.00352E-01 9.69942E-10-2.29878E-01 3.82947E-12 1.95673E-12
 -1     15398 2.25130E-01-9.18021E-02-1.78701E-09-2.18110E-01 1.00870E-12 5.15827E-13
 -1     15399 1.87570E-01-5.42425E-02-1.75924E-09-2.37292E-01 1.05137E-11 6.44394E-12
 -1     15400 2.33680E-01-1.00352E-01 9.53008E-10-2.29878E-01-9.89301E-12-5.03112E-12
 -1     15405 2.25130E-01-9.18021E-02-1.71817E-09-2.18110E-01-2.12903E-11-1.08311E-11
 -1     15406 1.87570E-01-5.42425E-02-1.71275E-09-2.37292E-01-7.15110E-11-4.38175E-11
 -1     15407 2.33680E-01-1.00352E-01 9.12425E-10-2.29878E-01 5.17824E-11 2.63941E-11
 -1     15412 2.25130E-01-9.18021E-02-1.82687E-09-2.18110E-01-3.80025E-11-1.93595E-11
 -1     15413 1.87570E-01-5.42425E-02-1.73061E-09-2.37292E-01-7.65725E-11-4.69240E-11
 -1     15414 2.33680E-01-1.00352E-01 9.70191E-10-2.29878E-01 6.39295E-11 3.25784E-11
 -1     15419 2.25130E-01-9.18021E-02-1.75292E-09-2.18110E-01 4.95007E-11 2.52128E-11
 -1     15423 2.84774E-01-1.51446E-01-1.75265E-09-1.58466E-01-5.28223E-11-1.71577E-11
 -1     15424 2.54980E-01-1.21652E-01-1.73072E-09-1.88316E-01 8.29433E-11 3.43589E-11
 -1     15425 2.96542E-01-1.63214E-01 9.70128E-10-1.67016E-01-6.81773E-11-2.21603E-11
 -1     15430 2.84774E-01-1.51446E-01-1.82685E-09-1.58466E-01 4.05489E-11 1.31790E-11
 -1     15431 2.54980E-01-1.21652E-01-1.71287E-09-1.88316E-01 7.75101E-11 3.21004E-11
 -1     15432 2.96542E-01-1.63214E-01 9.12348E-10-1.67016E-01-5.53218E-11-1.79814E-11
 -1     15437 2.84774E-01-1.51446E-01-1.71798E-09-1.58466E-01 2.27666E-11 7.38751E-12
 -1     15438 2.54980E-01-1.21652E-01-1.75935E-09-1.88316E-01-1.14056E-11-4.73002E-12
 -1     15439 2.96542E-01-1.63214E-01 9.52915E-10-1.67016E-01 1.05867E-11 3.42698E-12
 -1     15444 2.84774E-01-1.51446E-01-1.78690E-09-1.58466E-01-1.05709E-12-3.51967E-13
 -1     15445 2.54980E-01-1.21652E-01-1.77802E-09-1.88316E-01 1.58855E-11 6.57181E-12
 -1     15446 2.96542E-01-1.63214E-01 9.69858E-10-1.67016E-01-4.07877E-12-1.32801E-12
 -1     15451 2.84774E-01-1.51446E-01-1.76224E-09-1.58466E-01 1.01070E-11 3.28711E-12
 -1     15452 2.54980E-01-1.21652E-01-1.77947E-09-1.88316E-01 4.26751E-14 2.68302E-14
 -1     15453 2.96542E-01-1.63214E-01 9.66684E-10-1.67016E-01 8.07654E-13 2.59802E-13
 -1     15458 2.84774E-01-1.51446E-01-1.76600E-09-1.58466E-01 4.23311E-15-2.73441E-15
 -1     15459 2.54980E-01-1.21652E-01-1.77948E-09-1.88316E-01-4.42721E-14-1.68089E-14
 -1     15460 2.96542E-01-1.63214E-01 9.66669E-10-1.67016E-01-8.06849E-13-2.63901E-13
 -1     15465 2.84774E-01-1.51446E-01-1.76226E-09-1.58466E-01-1.01371E-11-3.29902E-12
 -1     15466 2.54980E-01-1.21652E-01-1.77801E-09-1.88316E-01-1.58714E-11-6.56645E-12
 -1     15467 2.96542E-01-1.63214E-01 9.69850E-10-1.67016E-01 4.06313E-12 1.32972E-12
 -1     15472 2.84774E-01-1.51446E-01-1.78690E-09-1.58466E-01 1.06193E-12 3.45567E-13
 -1     15473 2.54980E-01-1.21652E-01-1.75935E-09-1.88316E-01 1.14058E-11 4.73109E-12
 -1     15474 2.96542E-01-1.63214E-01 9.52897E-10-1.67016E-01-1.05675E-11-3.43425E-12
 -1     15479 2.84774E-01-1.51446E-01-1.71800E-09-1.58466E-01-2.27366E-11-7.38807E-12
 -1     15480 2.54980E-01-1.21652E-01-1.71287E-09-1.88316E-01-7.74996E-11-3.20857E-11
 -1     15481 2.96542E-01-1.63214E-01 9.12336E-10-1.67016E-01 5.53251E-11 1.79819E-11
 -1     15486 2.84774E-01-1.51446E-01-1.82688E-09-1.58466E-01-4.05639E-11-1.31672E-11
 -1     15487 2.54980E-01-1.21652E-01-1.73072E-09-1.88316E-01-8.29555E-11-3.43505E-11
 -1     15488 2.96542E-01-1.63214E-01 9.70096E-10-1.67016E-01 6.81704E-11 2.21633E-11
 -1     15493 2.84774E-01-1.51446E-01-1.75264E-09-1.58466E-01 5.28092E-11 1.71717E-11
 -1     15497 3.23067E-01-1.89739E-01-1.75285E-09-8.33105E-02-5.48733E-11-8.70660E-12
 -1     15498 3.03956E-01-1.70628E-01-1.73075E-09-1.20907E-01 8.72672E-11 2.09619E-11
 -1     15499 3.36902E-01-2.03574E-01 9.70133E-10-8.78055E-02-7.08533E-11-1.12302E-11
 -1     15504 3.23067E-01-1.89739E-01-1.82692E-09-8.33105E-02 4.21015E-11 6.65983E-12
 -1     15505 3.03956E-01-1.70628E-01-1.71290E-09-1.20907E-01 8.15797E-11 1.95900E-11
 -1     15506 3.36902E-01-2.03574E-01 9.12351E-10-8.78055E-02-5.74477E-11-9.09624E-12
 -1     15511 3.23067E-01-1.89739E-01-1.71817E-09-8.33105E-02 2.35718E-11 3.73088E-12
 -1     15512 3.03956E-01-1.70628E-01-1.75939E-09-1.20907E-01-1.20227E-11-2.88528E-12
 -1     15513 3.36902E-01-2.03574E-01 9.52898E-10-8.78055E-02 1.09329E-11 1.73288E-12
 -1     15518 3.23067E-01-1.89739E-01-1.78705E-09-8.33105E-02-1.12090E-12-1.77375E-13
 -1     15519 3.03956E-01-1.70628E-01-1.77805E-09-1.20907E-01 1.67056E-11 4.01057E-12
 -1     15520 3.36902E-01-2.03574E-01 9.69837E-10-8.78055E-02-4.24648E-12-6.72995E-13
 -1     15525 3.23067E-01-1.89739E-01-1.76240E-09-8.33105E-02 1.05068E-11 1.66415E-12
 -1     15526 3.03956E-01-1.70628E-01-1.77951E-09-1.20907E-01 6.01901E-14 8.40578E-15
 -1     15527 3.36902E-01-2.03574E-01 9.66651E-10-8.78055E-02 8.34940E-13 1.31402E-13
 -1     15532 3.23067E-01-1.89739E-01-1.76619E-09-8.33105E-02-2.79040E-15 1.24863E-15
 -1     15533 3.03956E-01-1.70628E-01-1.77952E-09-1.20907E-01-5.63492E-14-1.64183E-14
 -1     15534 3.36902E-01-2.03574E-01 9.66661E-10-8.78055E-02-8.41841E-13-1.33087E-13
 -1     15539 3.23067E-01-1.89739E-01-1.76240E-09-8.33105E-02-1.04753E-11-1.66539E-12
 -1     15540 3.03956E-01-1.70628E-01-1.77805E-09-1.20907E-01-1.67114E-11-4.01400E-12
 -1     15541 3.36902E-01-2.03574E-01 9.69831E-10-8.78055E-02 4.27937E-12 6.70418E-13
 -1     15546 3.23067E-01-1.89739E-01-1.78706E-09-8.33105E-02 1.12910E-12 1.78893E-13
 -1     15547 3.03956E-01-1.70628E-01-1.75939E-09-1.20907E-01 1.20307E-11 2.87706E-12
 -1     15548 3.36902E-01-2.03574E-01 9.52911E-10-8.78055E-02-1.09456E-11-1.73847E-12
 -1     15553 3.23067E-01-1.89739E-01-1.71818E-09-8.33105E-02-2.35878E-11-3.73599E-12
 -1     15554 3.03956E-01-1.70628E-01-1.71291E-09-1.20907E-01-8.15782E-11-1.95905E-11
 -1     15555 3.36902E-01-2.03574E-01 9.12346E-10-8.78055E-02 5.74394E-11 9.09587E-12
 -1     15560 3.23067E-01-1.89739E-01-1.82692E-09-8.33105E-02-4.21165E-11-6.66572E-12
 -1     15561 3.03956E-01-1.70628E-01-1.73074E-09-1.20907E-01-8.72681E-11-2.09603E-11
 -1     15562 3.36902E-01-2.03574E-01 9.70138E-10-8.78055E-02 7.08607E-11 1.12286E-11
 -1     15567 3.23067E-01-1.89739E-01-1.75285E-09-8.33105E-02 5.48792E-11 8.70178E-12
 -1     15571 3.29705E-01-1.96377E-01-1.73060E-09-4.16615E-02 8.95001E-11 7.04958E-12
 -1     15575 3.29705E-01-1.96377E-01-1.71275E-09-4.16615E-02 8.36277E-11 6.58559E-12
 -1     15579 3.29705E-01-1.96377E-01-1.75923E-09-4.16615E-02-1.23217E-11-9.69408E-13
 -1     15583 3.29705E-01-1.96377E-01-1.77790E-09-4.16615E-02 1.71210E-11 1.34612E-12
 -1     15587 3.29705E-01-1.96377E-01-1.77937E-09-4.16615E-02 5.71107E-14 1.12931E-15
 -1     15591 3.29705E-01-1.96377E-01-1.77936E-09-4.16615E-02-4.96623E-14-8.22434E-15
 -1     15595 3.29705E-01-1.96377E-01-1.77791E-09-4.16615E-02-1.71202E-11-1.35336E-12
 -1     15599 3.29705E-01-1.96377E-01-1.75923E-09-4.16615E-02 1.23153E-11 9.59622E-13
 -1     15603 3.29705E-01-1.96377E-01-1.71275E-09-4.16615E-02-8.36200E-11-6.59409E-12
 -1     15607 3.29705E-01-1.96377E-01-1.73060E-09-4.16615E-02-8.95104E-11-7.05481E-12
 -1     15613-1.65929E-01 2.99257E-01-1.47910E-09-7.55740E-02-1.18731E-11-7.49501E-11
 -1     15614-1.71950E-01 3.05278E-01-1.49709E-09-3.77927E-02-4.80962E-13-6.14751E-12
 -1     15615-1.77837E-01 3.11165E-01 8.38211E-10-7.94431E-02 3.02646E-12 1.91158E-11
 -1     15620-1.65929E-01 2.99257E-01-1.49634E-09-7.55740E-02 1.53106E-12 9.75557E-12
 -1     15621-1.71950E-01 3.05278E-01-1.49426E-09-3.77927E-02 7.92757E-14 9.98497E-13
 -1     15622-1.77837E-01 3.11165E-01 8.54271E-10-7.94431E-02 6.03094E-13 3.85292E-12
 -1     15627-1.65929E-01 2.99257E-01-1.45658E-09-7.55740E-02-4.18362E-13-2.59952E-12
 -1     15628-1.71950E-01 3.05278E-01-1.47526E-09-3.77927E-02-1.27533E-12-1.62187E-11
 -1     15629-1.77837E-01 3.11165E-01 8.36982E-10-7.94431E-02 2.25999E-12 1.43087E-11
 -1     15634-1.65929E-01 2.99257E-01-1.48689E-09-7.55740E-02-7.92213E-13-4.95882E-12
 -1     15635-1.71950E-01 3.05278E-01-1.47207E-09-3.77927E-02 4.98662E-13 6.38273E-12
 -1     15636-1.77837E-01 3.11165E-01 8.38779E-10-7.94431E-02-1.69820E-13-1.04760E-12
 -1     15641-1.65929E-01 2.99257E-01-1.46981E-09-7.55740E-02 3.37087E-13 2.16142E-12
 -1     15642-1.71950E-01 3.05278E-01-1.47009E-09-3.77927E-02-2.10930E-13-2.63846E-12
 -1     15643-1.77837E-01 3.11165E-01 8.38538E-10-7.94431E-02 2.88756E-13 1.86976E-12
 -1     15648-1.65929E-01 2.99257E-01-1.47529E-09-7.55740E-02-1.13367E-14 2.02569E-14
 -1     15649-1.71950E-01 3.05278E-01-1.47009E-09-3.77927E-02 2.07765E-13 2.63556E-12
 -1     15650-1.77837E-01 3.11165E-01 8.38534E-10-7.94431E-02-3.05336E-13-1.85515E-12
 -1     15655-1.65929E-01 2.99257E-01-1.46979E-09-7.55740E-02-3.55267E-13-2.18219E-12
 -1     15656-1.71950E-01 3.05278E-01-1.47207E-09-3.77927E-02-4.99964E-13-6.40074E-12
 -1     15657-1.77837E-01 3.11165E-01 8.38775E-10-7.94431E-02 1.57212E-13 1.04695E-12
 -1     15662-1.65929E-01 2.99257E-01-1.48689E-09-7.55740E-02 7.76862E-13 4.96127E-12
 -1     15663-1.71950E-01 3.05278E-01-1.47528E-09-3.77927E-02 1.27841E-12 1.62114E-11
 -1     15664-1.77837E-01 3.11165E-01 8.36991E-10-7.94431E-02-2.27797E-12-1.43250E-11
 -1     15669-1.65929E-01 2.99257E-01-1.45659E-09-7.55740E-02 4.03513E-13 2.57274E-12
 -1     15670-1.71950E-01 3.05278E-01-1.49426E-09-3.77927E-02-7.65440E-14-1.00143E-12
 -1     15671-1.77837E-01 3.11165E-01 8.54272E-10-7.94431E-02-6.17143E-13-3.88418E-12
 -1     15676-1.65929E-01 2.99257E-01-1.49634E-09-7.55740E-02-1.55281E-12-9.76889E-12
 -1     15677-1.71950E-01 3.05278E-01-1.49709E-09-3.77927E-02 4.85705E-13 6.13580E-12
 -1     15678-1.77837E-01 3.11165E-01 8.38209E-10-7.94431E-02-3.02898E-12-1.91266E-11
 -1     15683-1.65929E-01 2.99257E-01-1.47911E-09-7.55740E-02 1.18694E-11 7.49495E-11
 -1     15687-1.31191E-01 2.64519E-01-1.47909E-09-1.43750E-01-2.34532E-11-7.21787E-11
 -1     15688-1.48592E-01 2.81920E-01-1.49709E-09-1.09679E-01-1.43841E-12-5.98761E-12
 -1     15689-1.41321E-01 2.74649E-01 8.38234E-10-1.51110E-01 5.97355E-12 1.84147E-11
 -1     15694-1.31191E-01 2.64519E-01-1.49632E-09-1.43750E-01 3.05281E-12 9.39128E-12
 -1     15695-1.48592E-01 2.81920E-01-1.49426E-09-1.09679E-01 2.31367E-13 9.62522E-13
 -1     15696-1.41321E-01 2.74649E-01 8.54282E-10-1.51110E-01 1.20534E-12 3.70023E-12
 -1     15701-1.31191E-01 2.64519E-01-1.45660E-09-1.43750E-01-8.11108E-13-2.49093E-12
 -1     15702-1.48592E-01 2.81920E-01-1.47528E-09-1.09679E-01-3.80500E-12-1.58261E-11
 -1     15703-1.41321E-01 2.74649E-01 8.37001E-10-1.51110E-01 4.47364E-12 1.37732E-11
 -1     15708-1.31191E-01 2.64519E-01-1.48691E-09-1.43750E-01-1.55589E-12-4.78650E-12
 -1     15709-1.48592E-01 2.81920E-01-1.47209E-09-1.09679E-01 1.48316E-12 6.22410E-12
 -1     15710-1.41321E-01 2.74649E-01 8.38791E-10-1.51110E-01-3.40610E-13-1.00369E-12
 -1     15715-1.31191E-01 2.64519E-01-1.46981E-09-1.43750E-01 6.61454E-13 2.08294E-12
 -1     15716-1.48592E-01 2.81920E-01-1.47010E-09-1.09679E-01-6.19634E-13-2.57178E-12
 -1     15717-1.41321E-01 2.74649E-01 8.38547E-10-1.51110E-01 5.77652E-13 1.78608E-12
 -1     15722-1.31191E-01 2.64519E-01-1.47531E-09-1.43750E-01-8.71942E-15 1.81909E-15
 -1     15723-1.48592E-01 2.81920E-01-1.47010E-09-1.09679E-01 6.04337E-13 2.57372E-12
 -1     15724-1.41321E-01 2.74649E-01 8.38549E-10-1.51110E-01-5.98569E-13-1.79146E-12
 -1     15729-1.31191E-01 2.64519E-01-1.46980E-09-1.43750E-01-6.88257E-13-2.08850E-12
 -1     15730-1.48592E-01 2.81920E-01-1.47208E-09-1.09679E-01-1.50128E-12-6.23825E-12
 -1     15731-1.41321E-01 2.74649E-01 8.38785E-10-1.51110E-01 3.23384E-13 1.01285E-12
 -1     15736-1.31191E-01 2.64519E-01-1.48689E-09-1.43750E-01 1.54122E-12 4.79855E-12
 -1     15737-1.48592E-01 2.81920E-01-1.47529E-09-1.09679E-01 3.79027E-12 1.58285E-11
 -1     15738-1.41321E-01 2.74649E-01 8.37018E-10-1.51110E-01-4.47741E-12-1.37452E-11
 -1     15743-1.31191E-01 2.64519E-01-1.45660E-09-1.43750E-01 8.03029E-13 2.49379E-12
 -1     15744-1.48592E-01 2.81920E-01-1.49427E-09-1.09679E-01-2.35906E-13-9.77510E-13
 -1     15745-1.41321E-01 2.74649E-01 8.54292E-10-1.51110E-01-1.20468E-12-3.71643E-12
 -1     15750-1.31191E-01 2.64519E-01-1.49633E-09-1.43750E-01-3.05147E-12-9.40548E-12
 -1     15751-1.48592E-01 2.81920E-01-1.49710E-09-1.09679E-01 1.43421E-12 5.98719E-12
 -1     15752-1.41321E-01 2.74649E-01 8.38230E-10-1.51110E-01-5.98141E-12-1.83985E-11
 -1     15757-1.31191E-01 2.64519E-01-1.47909E-09-1.43750E-01 2.34506E-11 7.21850E-11
 -1     15761-7.70862E-02 2.10414E-01-1.47914E-09-1.97855E-01-3.44578E-11-6.76034E-11
 -1     15762-1.04165E-01 2.37492E-01-1.49708E-09-1.70828E-01-2.36614E-12-5.68302E-12
 -1     15763-8.44458E-02 2.17774E-01 8.38239E-10-2.07985E-01 8.77935E-12 1.72416E-11
 -1     15768-7.70862E-02 2.10414E-01-1.49636E-09-1.97855E-01 4.46929E-12 8.80776E-12
 -1     15769-1.04165E-01 2.37492E-01-1.49425E-09-1.70828E-01 3.79505E-13 9.29332E-13
 -1     15770-8.44458E-02 2.17774E-01 8.54298E-10-2.07985E-01 1.77629E-12 3.51250E-12
 -1     15775-7.70862E-02 2.10414E-01-1.45661E-09-1.97855E-01-1.17516E-12-2.30962E-12
 -1     15776-1.04165E-01 2.37492E-01-1.47526E-09-1.70828E-01-6.23719E-12-1.50305E-11
 -1     15777-8.44458E-02 2.17774E-01 8.37022E-10-2.07985E-01 6.57395E-12 1.29243E-11
 -1     15782-7.70862E-02 2.10414E-01-1.48689E-09-1.97855E-01-2.29280E-12-4.48081E-12
 -1     15783-1.04165E-01 2.37492E-01-1.47206E-09-1.70828E-01 2.43930E-12 5.92413E-12
 -1     15784-8.44458E-02 2.17774E-01 8.38817E-10-2.07985E-01-4.92459E-13-9.58819E-13
 -1     15789-7.70862E-02 2.10414E-01-1.46979E-09-1.97855E-01 1.00006E-12 1.94545E-12
 -1     15790-1.04165E-01 2.37492E-01-1.47008E-09-1.70828E-01-1.01464E-12-2.44756E-12
 -1     15791-8.44458E-02 2.17774E-01 8.38568E-10-2.07985E-01 8.54085E-13 1.67828E-12
 -1     15796-7.70862E-02 2.10414E-01-1.47529E-09-1.97855E-01-2.12295E-16 2.63550E-14
 -1     15797-1.04165E-01 2.37492E-01-1.47007E-09-1.70828E-01 9.97435E-13 2.45211E-12
 -1     15798-8.44458E-02 2.17774E-01 8.38580E-10-2.07985E-01-8.55615E-13-1.67269E-12
 -1     15803-7.70862E-02 2.10414E-01-1.46979E-09-1.97855E-01-9.88986E-13-1.94645E-12
 -1     15804-1.04165E-01 2.37492E-01-1.47207E-09-1.70828E-01-2.45484E-12-5.91773E-12
 -1     15805-8.44458E-02 2.17774E-01 8.38813E-10-2.07985E-01 4.80715E-13 9.49659E-13
 -1     15810-7.70862E-02 2.10414E-01-1.48690E-09-1.97855E-01 2.29280E-12 4.47188E-12
 -1     15811-1.04165E-01 2.37492E-01-1.47527E-09-1.70828E-01 6.21967E-12 1.50380E-11
 -1     15812-8.44458E-02 2.17774E-01 8.37014E-10-2.07985E-01-6.57879E-12-1.29139E-11
 -1     15817-7.70862E-02 2.10414E-01-1.45660E-09-1.97855E-01 1.17951E-12 2.32256E-12
 -1     15818-1.04165E-01 2.37492E-01-1.49425E-09-1.70828E-01-3.86759E-13-9.21879E-13
 -1     15819-8.44458E-02 2.17774E-01 8.54287E-10-2.07985E-01-1.77937E-12-3.48771E-12
 -1     15824-7.70862E-02 2.10414E-01-1.49636E-09-1.97855E-01-4.49478E-12-8.80023E-12
 -1     15825-1.04165E-01 2.37492E-01-1.49707E-09-1.70828E-01 2.34595E-12 5.71166E-12
 -1     15826-8.44458E-02 2.17774E-01 8.38247E-10-2.07985E-01-8.79498E-12-1.72311E-11
 -1     15831-7.70862E-02 2.10414E-01-1.47912E-09-1.97855E-01 3.44472E-11 6.76213E-11
 -1     15835-8.90999E-03 1.42238E-01-1.47908E-09-2.32593E-01-4.45945E-11-6.13987E-11
 -1     15836-4.30147E-02 1.76343E-01-1.49710E-09-2.15256E-01-3.21918E-12-5.26096E-12
 -1     15837-1.27791E-02 1.46107E-01 8.38221E-10-2.44501E-01 1.13839E-11 1.56540E-11
 -1     15842-8.90999E-03 1.42238E-01-1.49631E-09-2.32593E-01 5.81936E-12 7.99576E-12
 -1     15843-4.30147E-02 1.76343E-01-1.49426E-09-2.15256E-01 5.26054E-13 8.58880E-13
 -1     15844-1.27791E-02 1.46107E-01 8.54275E-10-2.44501E-01 2.30135E-12 3.17144E-12
 -1     15849-8.90999E-03 1.42238E-01-1.45655E-09-2.32593E-01-1.53812E-12-2.09449E-12
 -1     15850-4.30147E-02 1.76343E-01-1.47527E-09-2.15256E-01-8.49776E-12-1.38783E-11
 -1     15851-1.27791E-02 1.46107E-01 8.37005E-10-2.44501E-01 8.51993E-12 1.17234E-11
 -1     15856-8.90999E-03 1.42238E-01-1.48684E-09-2.32593E-01-2.93903E-12-4.07152E-12
 -1     15857-4.30147E-02 1.76343E-01-1.47207E-09-2.15256E-01 3.35682E-12 5.45964E-12
 -1     15858-1.27791E-02 1.46107E-01 8.38796E-10-2.44501E-01-6.11972E-13-8.58555E-13
 -1     15863-8.90999E-03 1.42238E-01-1.46974E-09-2.32593E-01 1.29695E-12 1.78310E-12
 -1     15864-4.30147E-02 1.76343E-01-1.47009E-09-2.15256E-01-1.38025E-12-2.24598E-12
 -1     15865-1.27791E-02 1.46107E-01 8.38565E-10-2.44501E-01 1.10669E-12 1.54212E-12
 -1     15870-8.90999E-03 1.42238E-01-1.47524E-09-2.32593E-01-1.60408E-14 7.24908E-15
 -1     15871-4.30147E-02 1.76343E-01-1.47009E-09-2.15256E-01 1.36935E-12 2.27066E-12
 -1     15872-1.27791E-02 1.46107E-01 8.38563E-10-2.44501E-01-1.11058E-12-1.53159E-12
 -1     15877-8.90999E-03 1.42238E-01-1.46974E-09-2.32593E-01-1.30453E-12-1.75694E-12
 -1     15878-4.30147E-02 1.76343E-01-1.47207E-09-2.15256E-01-3.34176E-12-5.44833E-12
 -1     15879-1.27791E-02 1.46107E-01 8.38800E-10-2.44501E-01 6.18187E-13 8.85746E-13
 -1     15884-8.90999E-03 1.42238E-01-1.48684E-09-2.32593E-01 2.96060E-12 4.06412E-12
 -1     15885-4.30147E-02 1.76343E-01-1.47527E-09-2.15256E-01 8.50478E-12 1.38580E-11
 -1     15886-1.27791E-02 1.46107E-01 8.37005E-10-2.44501E-01-8.52398E-12-1.17235E-11
 -1     15891-8.90999E-03 1.42238E-01-1.45654E-09-2.32593E-01 1.52395E-12 2.12194E-12
 -1     15892-4.30147E-02 1.76343E-01-1.49426E-09-2.15256E-01-5.28509E-13-8.45593E-13
 -1     15893-1.27791E-02 1.46107E-01 8.54288E-10-2.44501E-01-2.31088E-12-3.15616E-12
 -1     15898-8.90999E-03 1.42238E-01-1.49629E-09-2.32593E-01-5.83490E-12-7.98488E-12
 -1     15899-4.30147E-02 1.76343E-01-1.49709E-09-2.15256E-01 3.21174E-12 5.26618E-12
 -1     15900-1.27791E-02 1.46107E-01 8.38221E-10-2.44501E-01-1.13819E-11-1.56575E-11
 -1     15905-8.90999E-03 1.42238E-01-1.47907E-09-2.32593E-01 4.46101E-11 6.13966E-11
 -1     15909 6.66640E-02 6.66640E-02-1.47906E-09-2.44563E-01-5.36577E-11-5.36523E-11
 -1     15910 2.88713E-02 1.04457E-01-1.49713E-09-2.38614E-01-3.99687E-12-4.68306E-12
 -1     15911 6.66640E-02 6.66640E-02 8.38206E-10-2.57083E-01 1.36965E-11 1.36987E-11
 -1     15916 6.66640E-02 6.66640E-02-1.49628E-09-2.44563E-01 7.00458E-12 7.00030E-12
 -1     15917 2.88713E-02 1.04457E-01-1.49430E-09-2.38614E-01 6.42404E-13 7.64954E-13
 -1     15918 6.66640E-02 6.66640E-02 8.54270E-10-2.57083E-01 2.75766E-12 2.76372E-12
 -1     15923 6.66640E-02 6.66640E-02-1.45652E-09-2.44563E-01-1.83369E-12-1.86317E-12
 -1     15924 2.88713E-02 1.04457E-01-1.47531E-09-2.38614E-01-1.05683E-11-1.23718E-11
 -1     15925 6.66640E-02 6.66640E-02 8.36987E-10-2.57083E-01 1.02369E-11 1.02532E-11
 -1     15930 6.66640E-02 6.66640E-02-1.48682E-09-2.44563E-01-3.55029E-12-3.54230E-12
 -1     15931 2.88713E-02 1.04457E-01-1.47210E-09-2.38614E-01 4.16468E-12 4.88349E-12
 -1     15932 6.66640E-02 6.66640E-02 8.38781E-10-2.57083E-01-7.57476E-13-7.37204E-13
 -1     15937 6.66640E-02 6.66640E-02-1.46973E-09-2.44563E-01 1.53160E-12 1.54312E-12
 -1     15938 2.88713E-02 1.04457E-01-1.47012E-09-2.38614E-01-1.71149E-12-2.02125E-12
 -1     15939 6.66640E-02 6.66640E-02 8.38528E-10-2.57083E-01 1.32755E-12 1.31298E-12
 -1     15944 6.66640E-02 6.66640E-02-1.47524E-09-2.44563E-01-2.25583E-15-1.03101E-14
 -1     15945 2.88713E-02 1.04457E-01-1.47013E-09-2.38614E-01 1.69546E-12 2.01898E-12
 -1     15946 6.66640E-02 6.66640E-02 8.38531E-10-2.57083E-01-1.34426E-12-1.32619E-12
 -1     15951 6.66640E-02 6.66640E-02-1.46974E-09-2.44563E-01-1.58938E-12-1.54871E-12
 -1     15952 2.88713E-02 1.04457E-01-1.47209E-09-2.38614E-01-4.16477E-12-4.86236E-12
 -1     15953 6.66640E-02 6.66640E-02 8.38772E-10-2.57083E-01 7.31536E-13 7.63811E-13
 -1     15958 6.66640E-02 6.66640E-02-1.48682E-09-2.44563E-01 3.54336E-12 3.58207E-12
 -1     15959 2.88713E-02 1.04457E-01-1.47531E-09-2.38614E-01 1.05591E-11 1.23727E-11
 -1     15960 6.66640E-02 6.66640E-02 8.36987E-10-2.57083E-01-1.02528E-11-1.02390E-11
 -1     15965 6.66640E-02 6.66640E-02-1.45653E-09-2.44563E-01 1.82994E-12 1.83754E-12
 -1     15966 2.88713E-02 1.04457E-01-1.49430E-09-2.38614E-01-6.43733E-13-7.62548E-13
 -1     15967 6.66640E-02 6.66640E-02 8.54268E-10-2.57083E-01-2.76436E-12-2.77064E-12
 -1     15972 6.66640E-02 6.66640E-02-1.49629E-09-2.44563E-01-6.98298E-12-7.00247E-12
 -1     15973 2.88713E-02 1.04457E-01-1.49713E-09-2.38614E-01 4.00294E-12 4.68764E-12
 -1     15974 6.66640E-02 6.66640E-02 8.38198E-10-2.57083E-01-1.36888E-11-1.36801E-11
 -1     15979 6.66640E-02 6.66640E-02-1.47906E-09-2.44563E-01 5.36549E-11 5.36573E-11
 -1     15983 1.42238E-01-8.90999E-03-1.47917E-09-2.32593E-01-6.14172E-11-4.46113E-11
 -1     15984 1.04457E-01 2.88713E-02-1.49710E-09-2.38614E-01-4.68293E-12-3.99494E-12
 -1     15985 1.46107E-01-1.27791E-02 8.38257E-10-2.44501E-01 1.56497E-11 1.13805E-11
 -1     15990 1.42238E-01-8.90999E-03-1.49641E-09-2.32593E-01 7.98528E-12 5.80532E-12
 -1     15991 1.04457E-01 2.88713E-02-1.49427E-09-2.38614E-01 7.65749E-13 6.54618E-13
 -1     15992 1.46107E-01-1.27791E-02 8.54321E-10-2.44501E-01 3.16292E-12 2.30443E-12
 -1     15997 1.42238E-01-8.90999E-03-1.45665E-09-2.32593E-01-2.12985E-12-1.52291E-12
 -1     15998 1.04457E-01 2.88713E-02-1.47529E-09-2.38614E-01-1.23777E-11-1.05563E-11
 -1     15999 1.46107E-01-1.27791E-02 8.37038E-10-2.44501E-01 1.17173E-11 8.52420E-12
 -1     16004 1.42238E-01-8.90999E-03-1.48696E-09-2.32593E-01-4.10532E-12-2.94900E-12
 -1     16005 1.04457E-01 2.88713E-02-1.47208E-09-2.38614E-01 4.86545E-12 4.17584E-12
 -1     16006 1.46107E-01-1.27791E-02 8.38818E-10-2.44501E-01-8.65521E-13-6.18081E-13
 -1     16011 1.42238E-01-8.90999E-03-1.46987E-09-2.32593E-01 1.78281E-12 1.30585E-12
 -1     16012 1.04457E-01 2.88713E-02-1.47010E-09-2.38614E-01-2.01366E-12-1.71460E-12
 -1     16013 1.46107E-01-1.27791E-02 8.38584E-10-2.44501E-01 1.53087E-12 1.12137E-12
 -1     16018 1.42238E-01-8.90999E-03-1.47535E-09-2.32593E-01 1.00701E-14 5.58685E-15
 -1     16019 1.04457E-01 2.88713E-02-1.47010E-09-2.38614E-01 2.00020E-12 1.71880E-12
 -1     16020 1.46107E-01-1.27791E-02 8.38592E-10-2.44501E-01-1.52429E-12-1.10718E-12
 -1     16025 1.42238E-01-8.90999E-03-1.46985E-09-2.32593E-01-1.75985E-12-1.28346E-12
 -1     16026 1.04457E-01 2.88713E-02-1.47207E-09-2.38614E-01-4.87921E-12-4.16484E-12
 -1     16027 1.46107E-01-1.27791E-02 8.38837E-10-2.44501E-01 8.71177E-13 6.16447E-13
 -1     16032 1.42238E-01-8.90999E-03-1.48694E-09-2.32593E-01 4.06994E-12 2.95180E-12
 -1     16033 1.04457E-01 2.88713E-02-1.47529E-09-2.38614E-01 1.23654E-11 1.05680E-11
 -1     16034 1.46107E-01-1.27791E-02 8.37041E-10-2.44501E-01-1.17175E-11-8.52647E-12
 -1     16039 1.42238E-01-8.90999E-03-1.45664E-09-2.32593E-01 2.11410E-12 1.54499E-12
 -1     16040 1.04457E-01 2.88713E-02-1.49428E-09-2.38614E-01-7.66272E-13-6.61680E-13
 -1     16041 1.46107E-01-1.27791E-02 8.54318E-10-2.44501E-01-3.16715E-12-2.29983E-12
 -1     16046 1.42238E-01-8.90999E-03-1.49643E-09-2.32593E-01-7.97989E-12-5.80420E-12
 -1     16047 1.04457E-01 2.88713E-02-1.49711E-09-2.38614E-01 4.68341E-12 3.99998E-12
 -1     16048 1.46107E-01-1.27791E-02 8.38256E-10-2.44501E-01-1.56546E-11-1.13878E-11
 -1     16053 1.42238E-01-8.90999E-03-1.47917E-09-2.32593E-01 6.13910E-11 4.46059E-11
 -1     16057 2.10414E-01-7.70863E-02-1.47916E-09-1.97855E-01-6.76079E-11-3.44418E-11
 -1     16058 1.76343E-01-4.30147E-02-1.49700E-09-2.15256E-01-5.23554E-12-3.21613E-12
 -1     16059 2.17774E-01-8.44458E-02 8.38266E-10-2.07985E-01 1.72421E-11 8.78894E-12
 -1     16064 2.10414E-01-7.70863E-02-1.49633E-09-1.97855E-01 8.81571E-12 4.49835E-12
 -1     16065 1.76343E-01-4.30147E-02-1.49418E-09-2.15256E-01 8.68820E-13 5.08280E-13
 -1     16066 2.17774E-01-8.44458E-02 8.54311E-10-2.07985E-01 3.51807E-12 1.78681E-12
 -1     16071 2.10414E-01-7.70863E-02-1.45662E-09-1.97855E-01-2.30842E-12-1.17395E-12
 -1     16072 1.76343E-01-4.30147E-02-1.47520E-09-2.15256E-01-1.38558E-11-8.49704E-12
 -1     16073 2.17774E-01-8.44458E-02 8.37046E-10-2.07985E-01 1.29308E-11 6.58117E-12
 -1     16078 2.10414E-01-7.70863E-02-1.48689E-09-1.97855E-01-4.45015E-12-2.28732E-12
 -1     16079 1.76343E-01-4.30147E-02-1.47199E-09-2.15256E-01 5.47032E-12 3.33987E-12
 -1     16080 2.17774E-01-8.44458E-02 8.38828E-10-2.07985E-01-9.30061E-13-4.80427E-13
 -1     16085 2.10414E-01-7.70863E-02-1.46979E-09-1.97855E-01 1.97242E-12 1.00022E-12
 -1     16086 1.76343E-01-4.30147E-02-1.47002E-09-2.15256E-01-2.25222E-12-1.37883E-12
 -1     16087 2.17774E-01-8.44458E-02 8.38611E-10-2.07985E-01 1.68171E-12 8.62004E-13
 -1     16092 2.10414E-01-7.70863E-02-1.47530E-09-1.97855E-01-5.27212E-16 1.34054E-14
 -1     16093 1.76343E-01-4.30147E-02-1.47002E-09-2.15256E-01 2.25991E-12 1.39311E-12
 -1     16094 2.17774E-01-8.44458E-02 8.38603E-10-2.07985E-01-1.67029E-12-8.42095E-13
 -1     16099 2.10414E-01-7.70863E-02-1.46981E-09-1.97855E-01-1.95152E-12-9.85245E-13
 -1     16100 1.76343E-01-4.30147E-02-1.47198E-09-2.15256E-01-5.46794E-12-3.34519E-12
 -1     16101 2.17774E-01-8.44458E-02 8.38841E-10-2.07985E-01 9.47406E-13 4.91366E-13
 -1     16106 2.10414E-01-7.70863E-02-1.48688E-09-1.97855E-01 4.46463E-12 2.27349E-12
 -1     16107 1.76343E-01-4.30147E-02-1.47518E-09-2.15256E-01 1.38596E-11 8.50388E-12
 -1     16108 2.17774E-01-8.44458E-02 8.37054E-10-2.07985E-01-1.29116E-11-6.57503E-12
 -1     16113 2.10414E-01-7.70863E-02-1.45661E-09-1.97855E-01 2.34302E-12 1.17303E-12
 -1     16114 1.76343E-01-4.30147E-02-1.49419E-09-2.15256E-01-8.50482E-13-5.13947E-13
 -1     16115 2.17774E-01-8.44458E-02 8.54324E-10-2.07985E-01-3.48387E-12-1.78177E-12
 -1     16120 2.10414E-01-7.70863E-02-1.49634E-09-1.97855E-01-8.79164E-12-4.49705E-12
 -1     16121 1.76343E-01-4.30147E-02-1.49701E-09-2.15256E-01 5.23873E-12 3.22071E-12
 -1     16122 2.17774E-01-8.44458E-02 8.38262E-10-2.07985E-01-1.72287E-11-8.77846E-12
 -1     16127 2.10414E-01-7.70863E-02-1.47917E-09-1.97855E-01 6.76092E-11 3.44599E-11
 -1     16131 2.64519E-01-1.31191E-01-1.47892E-09-1.43750E-01-7.21418E-11-2.34555E-11
 -1     16132 2.37492E-01-1.04165E-01-1.49713E-09-1.70828E-01-5.69145E-12-2.36223E-12
 -1     16133 2.74649E-01-1.41321E-01 8.38157E-10-1.51110E-01 1.84331E-11 5.98536E-12
 -1     16138 2.64519E-01-1.31191E-01-1.49623E-09-1.43750E-01 9.42647E-12 3.04777E-12
 -1     16139 2.37492E-01-1.04165E-01-1.49433E-09-1.70828E-01 9.34605E-13 3.77023E-13
 -1     16140 2.74649E-01-1.41321E-01 8.54233E-10-1.51110E-01 3.73283E-12 1.20657E-12
 -1     16145 2.64519E-01-1.31191E-01-1.45643E-09-1.43750E-01-2.44914E-12-8.00741E-13
 -1     16146 2.37492E-01-1.04165E-01-1.47533E-09-1.70828E-01-1.50243E-11-6.22921E-12
 -1     16147 2.74649E-01-1.41321E-01 8.36963E-10-1.51110E-01 1.37984E-11 4.47678E-12
 -1     16152 2.64519E-01-1.31191E-01-1.48672E-09-1.43750E-01-4.76436E-12-1.55742E-12
 -1     16153 2.37492E-01-1.04165E-01-1.47212E-09-1.70828E-01 5.92169E-12 2.45422E-12
 -1     16154 2.74649E-01-1.41321E-01 8.38745E-10-1.51110E-01-9.91065E-13-3.28100E-13
 -1     16159 2.64519E-01-1.31191E-01-1.46963E-09-1.43750E-01 2.09997E-12 6.85838E-13
 -1     16160 2.37492E-01-1.04165E-01-1.47016E-09-1.70828E-01-2.44209E-12-1.00956E-12
 -1     16161 2.74649E-01-1.41321E-01 8.38511E-10-1.51110E-01 1.78595E-12 5.86718E-13
 -1     16166 2.64519E-01-1.31191E-01-1.47512E-09-1.43750E-01-2.39411E-15 2.09861E-15
 -1     16167 2.37492E-01-1.04165E-01-1.47015E-09-1.70828E-01 2.45597E-12 1.03121E-12
 -1     16168 2.74649E-01-1.41321E-01 8.38504E-10-1.51110E-01-1.79984E-12-5.83691E-13
 -1     16173 2.64519E-01-1.31191E-01-1.46962E-09-1.43750E-01-2.11268E-12-6.83367E-13
 -1     16174 2.37492E-01-1.04165E-01-1.47213E-09-1.70828E-01-5.93209E-12-2.44220E-12
 -1     16175 2.74649E-01-1.41321E-01 8.38751E-10-1.51110E-01 9.85879E-13 3.23500E-13
 -1     16180 2.64519E-01-1.31191E-01-1.48674E-09-1.43750E-01 4.76138E-12 1.55404E-12
 -1     16181 2.37492E-01-1.04165E-01-1.47534E-09-1.70828E-01 1.50335E-11 6.23802E-12
 -1     16182 2.74649E-01-1.41321E-01 8.36947E-10-1.51110E-01-1.37883E-11-4.48241E-12
 -1     16187 2.64519E-01-1.31191E-01-1.45642E-09-1.43750E-01 2.46186E-12 7.97006E-13
 -1     16188 2.37492E-01-1.04165E-01-1.49433E-09-1.70828E-01-9.19660E-13-3.79708E-13
 -1     16189 2.74649E-01-1.41321E-01 8.54222E-10-1.51110E-01-3.71548E-12-1.20619E-12
 -1     16194 2.64519E-01-1.31191E-01-1.49621E-09-1.43750E-01-9.43245E-12-3.05794E-12
 -1     16195 2.37492E-01-1.04165E-01-1.49715E-09-1.70828E-01 5.68574E-12 2.36978E-12
 -1     16196 2.74649E-01-1.41321E-01 8.38157E-10-1.51110E-01-1.84488E-11-5.98431E-12
 -1     16201 2.64519E-01-1.31191E-01-1.47894E-09-1.43750E-01 7.21416E-11 2.34515E-11
 -1     16205 2.99257E-01-1.65929E-01-1.47910E-09-7.55740E-02-7.49711E-11-1.18933E-11
 -1     16206 2.81920E-01-1.48592E-01-1.49717E-09-1.09679E-01-6.01294E-12-1.42422E-12
 -1     16207 3.11165E-01-1.77837E-01 8.38198E-10-7.94431E-02 1.90928E-11 3.01300E-12
 -1     16212 2.99257E-01-1.65929E-01-1.49633E-09-7.55740E-02 9.76108E-12 1.53009E-12
 -1     16213 2.81920E-01-1.48592E-01-1.49436E-09-1.09679E-01 9.79493E-13 2.51272E-13
 -1     16214 3.11165E-01-1.77837E-01 8.54257E-10-7.94431E-02 3.84710E-12 6.03865E-13
 -1     16219 2.99257E-01-1.65929E-01-1.45659E-09-7.55740E-02-2.58703E-12-4.22470E-13
 -1     16220 2.81920E-01-1.48592E-01-1.47536E-09-1.09679E-01-1.58300E-11-3.78831E-12
 -1     16221 3.11165E-01-1.77837E-01 8.36970E-10-7.94431E-02 1.42881E-11 2.25915E-12
 -1     16226 2.99257E-01-1.65929E-01-1.48688E-09-7.55740E-02-4.98933E-12-7.95053E-13
 -1     16227 2.81920E-01-1.48592E-01-1.47214E-09-1.09679E-01 6.23748E-12 1.50282E-12
 -1     16228 3.11165E-01-1.77837E-01 8.38765E-10-7.94431E-02-1.06593E-12-1.67997E-13
 -1     16233 2.99257E-01-1.65929E-01-1.46978E-09-7.55740E-02 2.16770E-12 3.39911E-13
 -1     16234 2.81920E-01-1.48592E-01-1.47018E-09-1.09679E-01-2.55864E-12-6.14444E-13
 -1     16235 3.11165E-01-1.77837E-01 8.38498E-10-7.94431E-02 1.89183E-12 2.96329E-13
 -1     16240 2.99257E-01-1.65929E-01-1.47531E-09-7.55740E-02 2.57304E-14 4.98859E-16
 -1     16241 2.81920E-01-1.48592E-01-1.47019E-09-1.09679E-01 2.58353E-12 6.11131E-13
 -1     16242 3.11165E-01-1.77837E-01 8.38508E-10-7.94431E-02-1.84736E-12-2.96328E-13
 -1     16247 2.99257E-01-1.65929E-01-1.46982E-09-7.55740E-02-2.15079E-12-3.37602E-13
 -1     16248 2.81920E-01-1.48592E-01-1.47217E-09-1.09679E-01-6.23173E-12-1.50407E-12
 -1     16249 3.11165E-01-1.77837E-01 8.38743E-10-7.94431E-02 1.06476E-12 1.67125E-13
 -1     16254 2.99257E-01-1.65929E-01-1.48690E-09-7.55740E-02 4.97685E-12 7.90261E-13
 -1     16255 2.81920E-01-1.48592E-01-1.47536E-09-1.09679E-01 1.58253E-11 3.78886E-12
 -1     16256 3.11165E-01-1.77837E-01 8.36961E-10-7.94431E-02-1.43011E-11-2.26489E-12
 -1     16261 2.99257E-01-1.65929E-01-1.45661E-09-7.55740E-02 2.58846E-12 4.20456E-13
 -1     16262 2.81920E-01-1.48592E-01-1.49436E-09-1.09679E-01-9.66376E-13-2.54863E-13
 -1     16263 3.11165E-01-1.77837E-01 8.54241E-10-7.94431E-02-3.86271E-12-6.06262E-13
 -1     16268 2.99257E-01-1.65929E-01-1.49636E-09-7.55740E-02-9.76869E-12-1.52243E-12
 -1     16269 2.81920E-01-1.48592E-01-1.49718E-09-1.09679E-01 6.00843E-12 1.42723E-12
 -1     16270 3.11165E-01-1.77837E-01 8.38199E-10-7.94431E-02-1.91207E-11-3.01428E-12
 -1     16275 2.99257E-01-1.65929E-01-1.47911E-09-7.55740E-02 7.49329E-11 1.18873E-11
 -1     16279 3.05278E-01-1.71950E-01-1.49700E-09-3.77927E-02-6.13903E-12-4.75578E-13
 -1     16283 3.05278E-01-1.71950E-01-1.49417E-09-3.77927E-02 9.89920E-13 8.56101E-14
 -1     16287 3.05278E-01-1.71950E-01-1.47518E-09-3.77927E-02-1.62132E-11-1.27324E-12
 -1     16291 3.05278E-01-1.71950E-01-1.47195E-09-3.77927E-02 6.37360E-12 5.03879E-13
 -1     16295 3.05278E-01-1.71950E-01-1.46998E-09-3.77927E-02-2.62190E-12-2.09189E-13
 -1     16299 3.05278E-01-1.71950E-01-1.47000E-09-3.77927E-02 2.63831E-12 1.99901E-13
 -1     16303 3.05278E-01-1.71950E-01-1.47197E-09-3.77927E-02-6.39006E-12-5.11248E-13
 -1     16307 3.05278E-01-1.71950E-01-1.47517E-09-3.77927E-02 1.62092E-11 1.26489E-12
 -1     16311 3.05278E-01-1.71950E-01-1.49417E-09-3.77927E-02-1.00489E-12-9.15773E-14
 -1     16315 3.05278E-01-1.71950E-01-1.49700E-09-3.77927E-02 6.13939E-12 4.71276E-13
 -1     16321-1.45286E-01 2.78614E-01-1.19142E-09-6.88668E-02-7.72128E-12-4.87319E-11
 -1     16322-1.50773E-01 2.84101E-01-1.17584E-09-3.44386E-02 2.68487E-12 3.41083E-11
 -1     16323-1.55609E-01 2.88937E-01 6.52410E-10-7.22210E-02-3.28774E-12-2.07375E-11
 -1     16328-1.45286E-01 2.78614E-01-1.17788E-09-6.88668E-02 2.38291E-12 1.50636E-11
 -1     16329-1.50773E-01 2.84101E-01-1.16947E-09-3.44386E-02 2.39790E-13 3.05743E-12
 -1     16330-1.55609E-01 2.88937E-01 6.44585E-10-7.22210E-02-7.28964E-13-4.54562E-12
 -1     16335-1.45286E-01 2.78614E-01-1.16632E-09-6.88668E-02-2.78344E-13-1.75022E-12
 -1     16336-1.50773E-01 2.84101E-01-1.17336E-09-3.44386E-02-3.43772E-13-4.37442E-12
 -1     16337-1.55609E-01 2.88937E-01 6.48175E-10-7.22210E-02 3.64585E-13 2.31280E-12
 -1     16342-1.45286E-01 2.78614E-01-1.18019E-09-6.88668E-02-1.23277E-13-7.68536E-13
 -1     16343-1.50773E-01 2.84101E-01-1.17571E-09-3.44386E-02 3.11629E-13 3.97623E-12
 -1     16344-1.55609E-01 2.88937E-01 6.50646E-10-7.22210E-02-3.86681E-13-2.39885E-12
 -1     16349-1.45286E-01 2.78614E-01-1.17156E-09-6.88668E-02 1.70538E-13 1.15610E-12
 -1     16350-1.50773E-01 2.84101E-01-1.17539E-09-3.44386E-02-1.73544E-13-2.15123E-12
 -1     16351-1.55609E-01 2.88937E-01 6.49917E-10-7.22210E-02 1.57543E-13 1.06745E-12
 -1     16356-1.45286E-01 2.78614E-01-1.17631E-09-6.88668E-02-3.05879E-15-1.34275E-14
 -1     16357-1.50773E-01 2.84101E-01-1.17539E-09-3.44386E-02 1.64696E-13 2.14458E-12
 -1     16358-1.55609E-01 2.88937E-01 6.49903E-10-7.22210E-02-1.73749E-13-1.05548E-12
 -1     16363-1.45286E-01 2.78614E-01-1.17156E-09-6.88668E-02-1.84134E-13-1.12342E-12
 -1     16364-1.50773E-01 2.84101E-01-1.17572E-09-3.44386E-02-3.17544E-13-3.98624E-12
 -1     16365-1.55609E-01 2.88937E-01 6.50660E-10-7.22210E-02 3.72670E-13 2.40829E-12
 -1     16370-1.45286E-01 2.78614E-01-1.18021E-09-6.88668E-02 1.10167E-13 7.73658E-13
 -1     16371-1.50773E-01 2.84101E-01-1.17336E-09-3.44386E-02 3.41291E-13 4.36694E-12
 -1     16372-1.55609E-01 2.88937E-01 6.48155E-10-7.22210E-02-3.77538E-13-2.31774E-12
 -1     16377-1.45286E-01 2.78614E-01-1.16633E-09-6.88668E-02 2.69074E-13 1.75131E-12
 -1     16378-1.50773E-01 2.84101E-01-1.16948E-09-3.44386E-02-2.40234E-13-3.06244E-12
 -1     16379-1.55609E-01 2.88937E-01 6.44579E-10-7.22210E-02 7.12071E-13 4.53240E-12
 -1     16384-1.45286E-01 2.78614E-01-1.17788E-09-6.88668E-02-2.38578E-12-1.50698E-11
 -1     16385-1.50773E-01 2.84101E-01-1.17584E-09-3.44386E-02-2.68497E-12-3.41144E-11
 -1     16386-1.55609E-01 2.88937E-01 6.52409E-10-7.22210E-02 3.28235E-12 2.07177E-11
 -1     16391-1.45286E-01 2.78614E-01-1.19142E-09-6.88668E-02 7.72217E-12 4.87202E-11
 -1     16395-1.13632E-01 2.46959E-01-1.19144E-09-1.30992E-01-1.52570E-11-4.69201E-11
 -1     16396-1.29488E-01 2.62816E-01-1.17585E-09-9.99446E-02 7.98584E-12 3.32717E-11
 -1     16397-1.22413E-01 2.55741E-01 6.52436E-10-1.37373E-01-6.49437E-12-1.99561E-11
 -1     16402-1.13632E-01 2.46959E-01-1.17790E-09-1.30992E-01 4.69493E-12 1.45116E-11
 -1     16403-1.29488E-01 2.62816E-01-1.16948E-09-9.99446E-02 7.12555E-13 2.98004E-12
 -1     16404-1.22413E-01 2.55741E-01 6.44604E-10-1.37373E-01-1.42880E-12-4.38736E-12
 -1     16409-1.13632E-01 2.46959E-01-1.16634E-09-1.30992E-01-5.57001E-13-1.69247E-12
 -1     16410-1.29488E-01 2.62816E-01-1.17337E-09-9.99446E-02-1.02659E-12-4.26461E-12
 -1     16411-1.22413E-01 2.55741E-01 6.48176E-10-1.37373E-01 7.19086E-13 2.22677E-12
 -1     16416-1.13632E-01 2.46959E-01-1.18022E-09-1.30992E-01-2.48223E-13-7.51104E-13
 -1     16417-1.29488E-01 2.62816E-01-1.17573E-09-9.99446E-02 9.22640E-13 3.89221E-12
 -1     16418-1.22413E-01 2.55741E-01 6.50667E-10-1.37373E-01-7.63702E-13-2.33088E-12
 -1     16423-1.13632E-01 2.46959E-01-1.17156E-09-1.30992E-01 3.43947E-13 1.06430E-12
 -1     16424-1.29488E-01 2.62816E-01-1.17541E-09-9.99446E-02-5.16402E-13-2.09736E-12
 -1     16425-1.22413E-01 2.55741E-01 6.49923E-10-1.37373E-01 3.21601E-13 9.87023E-13
 -1     16430-1.13632E-01 2.46959E-01-1.17631E-09-1.30992E-01-7.90283E-15 8.45727E-16
 -1     16431-1.29488E-01 2.62816E-01-1.17541E-09-9.99446E-02 4.98175E-13 2.09545E-12
 -1     16432-1.22413E-01 2.55741E-01 6.49918E-10-1.37373E-01-3.39379E-13-1.00557E-12
 -1     16437-1.13632E-01 2.46959E-01-1.17157E-09-1.30992E-01-3.57519E-13-1.08161E-12
 -1     16438-1.29488E-01 2.62816E-01-1.17573E-09-9.99446E-02-9.40475E-13-3.87055E-12
 -1     16439-1.22413E-01 2.55741E-01 6.50659E-10-1.37373E-01 7.47461E-13 2.32858E-12
 -1     16444-1.13632E-01 2.46959E-01-1.18021E-09-1.30992E-01 2.37198E-13 7.29200E-13
 -1     16445-1.29488E-01 2.62816E-01-1.17338E-09-9.99446E-02 1.01795E-12 4.25825E-12
 -1     16446-1.22413E-01 2.55741E-01 6.48182E-10-1.37373E-01-7.33196E-13-2.22954E-12
 -1     16451-1.13632E-01 2.46959E-01-1.16633E-09-1.30992E-01 5.49179E-13 1.69417E-12
 -1     16452-1.29488E-01 2.62816E-01-1.16948E-09-9.99446E-02-7.21840E-13-2.98003E-12
 -1     16453-1.22413E-01 2.55741E-01 6.44583E-10-1.37373E-01 1.42001E-12 4.37513E-12
 -1     16458-1.13632E-01 2.46959E-01-1.17788E-09-1.30992E-01-4.72098E-12-1.44961E-11
 -1     16459-1.29488E-01 2.62816E-01-1.17586E-09-9.99446E-02-7.99424E-12-3.32774E-11
 -1     16460-1.22413E-01 2.55741E-01 6.52431E-10-1.37373E-01 6.48297E-12 1.99631E-11
 -1     16465-1.13632E-01 2.46959E-01-1.19143E-09-1.30992E-01 1.52476E-11 4.69330E-11
 -1     16469-6.43284E-02 1.97656E-01-1.19146E-09-1.80295E-01-2.24021E-11-4.39520E-11
 -1     16470-8.90034E-02 2.22331E-01-1.17583E-09-1.55667E-01 1.30966E-11 3.16173E-11
 -1     16471-7.07085E-02 2.04037E-01 6.52445E-10-1.89077E-01-9.53233E-12-1.86794E-11
 -1     16476-6.43284E-02 1.97656E-01-1.17789E-09-1.80295E-01 6.92942E-12 1.36050E-11
 -1     16477-8.90034E-02 2.22331E-01-1.16947E-09-1.55667E-01 1.17429E-12 2.83353E-12
 -1     16478-7.07085E-02 2.04037E-01 6.44633E-10-1.89077E-01-2.08573E-12-4.08406E-12
 -1     16483-6.43284E-02 1.97656E-01-1.16633E-09-1.80295E-01-8.11194E-13-1.58633E-12
 -1     16484-8.90034E-02 2.22331E-01-1.17335E-09-1.55667E-01-1.67815E-12-4.04734E-12
 -1     16485-7.07085E-02 2.04037E-01 6.48214E-10-1.89077E-01 1.06362E-12 2.09322E-12
 -1     16490-6.43284E-02 1.97656E-01-1.18020E-09-1.80295E-01-3.58522E-13-6.81313E-13
 -1     16491-8.90034E-02 2.22331E-01-1.17571E-09-1.55667E-01 1.52592E-12 3.69093E-12
 -1     16492-7.07085E-02 2.04037E-01 6.50712E-10-1.89077E-01-1.10950E-12-2.16176E-12
 -1     16497-6.43284E-02 1.97656E-01-1.17158E-09-1.80295E-01 5.13810E-13 1.02228E-12
 -1     16498-8.90034E-02 2.22331E-01-1.17539E-09-1.55667E-01-8.34640E-13-1.98957E-12
 -1     16499-7.07085E-02 2.04037E-01 6.49961E-10-1.89077E-01 4.82230E-13 9.64271E-13
 -1     16504-6.43284E-02 1.97656E-01-1.17632E-09-1.80295E-01 2.06878E-16 1.49836E-14
 -1     16505-8.90034E-02 2.22331E-01-1.17539E-09-1.55667E-01 8.29219E-13 1.99779E-12
 -1     16506-7.07085E-02 2.04037E-01 6.49963E-10-1.89077E-01-4.73614E-13-9.30186E-13
 -1     16511-6.43284E-02 1.97656E-01-1.17157E-09-1.80295E-01-5.15056E-13-9.97211E-13
 -1     16512-8.90034E-02 2.22331E-01-1.17571E-09-1.55667E-01-1.53008E-12-3.67715E-12
 -1     16513-7.07085E-02 2.04037E-01 6.50707E-10-1.89077E-01 1.11052E-12 2.18624E-12
 -1     16518-6.43284E-02 1.97656E-01-1.18022E-09-1.80295E-01 3.46319E-13 7.15423E-13
 -1     16519-8.90034E-02 2.22331E-01-1.17336E-09-1.55667E-01 1.67970E-12 4.04992E-12
 -1     16520-7.07085E-02 2.04037E-01 6.48207E-10-1.89077E-01-1.06693E-12-2.10219E-12
 -1     16525-6.43284E-02 1.97656E-01-1.16636E-09-1.80295E-01 8.07080E-13 1.55622E-12
 -1     16526-8.90034E-02 2.22331E-01-1.16947E-09-1.55667E-01-1.17473E-12-2.82614E-12
 -1     16527-7.07085E-02 2.04037E-01 6.44609E-10-1.89077E-01 2.08234E-12 4.09354E-12
 -1     16532-6.43284E-02 1.97656E-01-1.17792E-09-1.80295E-01-6.91352E-12-1.35818E-11
 -1     16533-8.90034E-02 2.22331E-01-1.17584E-09-1.55667E-01-1.30998E-11-3.16133E-11
 -1     16534-7.07085E-02 2.04037E-01 6.52438E-10-1.89077E-01 9.52743E-12 1.87135E-11
 -1     16539-6.43284E-02 1.97656E-01-1.19148E-09-1.80295E-01 2.24058E-11 4.39652E-11
 -1     16543-2.20277E-03 1.35531E-01-1.19139E-09-2.11950E-01-2.89872E-11-3.99046E-11
 -1     16544-3.32806E-02 1.66609E-01-1.17582E-09-1.96152E-01 1.78880E-11 2.91750E-11
 -1     16545-5.55702E-03 1.38885E-01 6.52421E-10-2.22273E-01-1.23254E-11-1.69860E-11
 -1     16550-2.20277E-03 1.35531E-01-1.17783E-09-2.11950E-01 8.96940E-12 1.23234E-11
 -1     16551-3.32806E-02 1.66609E-01-1.16946E-09-1.96152E-01 1.60657E-12 2.59916E-12
 -1     16552-5.55702E-03 1.38885E-01 6.44589E-10-2.22273E-01-2.69635E-12-3.72335E-12
 -1     16557-2.20277E-03 1.35531E-01-1.16626E-09-2.11950E-01-1.04041E-12-1.41904E-12
 -1     16558-3.32806E-02 1.66609E-01-1.17335E-09-1.96152E-01-2.29124E-12-3.73409E-12
 -1     16559-5.55702E-03 1.38885E-01 6.48186E-10-2.22273E-01 1.38396E-12 1.91864E-12
 -1     16564-2.20277E-03 1.35531E-01-1.18016E-09-2.11950E-01-4.54586E-13-6.18639E-13
 -1     16565-3.32806E-02 1.66609E-01-1.17571E-09-1.96152E-01 2.08205E-12 3.40700E-12
 -1     16566-5.55702E-03 1.38885E-01 6.50684E-10-2.22273E-01-1.42637E-12-1.96975E-12
 -1     16571-2.20277E-03 1.35531E-01-1.17149E-09-2.11950E-01 6.58654E-13 9.33229E-13
 -1     16572-3.32806E-02 1.66609E-01-1.17539E-09-1.96152E-01-1.13635E-12-1.84781E-12
 -1     16573-5.55702E-03 1.38885E-01 6.49954E-10-2.22273E-01 6.12510E-13 8.51326E-13
 -1     16578-2.20277E-03 1.35531E-01-1.17623E-09-2.11950E-01 1.00730E-14-1.24047E-14
 -1     16579-3.32806E-02 1.66609E-01-1.17539E-09-1.96152E-01 1.14067E-12 1.86053E-12
 -1     16580-5.55702E-03 1.38885E-01 6.49940E-10-2.22273E-01-6.25436E-13-8.35363E-13
 -1     16585-2.20277E-03 1.35531E-01-1.17149E-09-2.11950E-01-6.58495E-13-9.00011E-13
 -1     16586-3.32806E-02 1.66609E-01-1.17571E-09-1.96152E-01-2.09001E-12-3.39628E-12
 -1     16587-5.55702E-03 1.38885E-01 6.50711E-10-2.22273E-01 1.42966E-12 1.97789E-12
 -1     16592-2.20277E-03 1.35531E-01-1.18014E-09-2.11950E-01 4.41510E-13 6.08027E-13
 -1     16593-3.32806E-02 1.66609E-01-1.17336E-09-1.96152E-01 2.28602E-12 3.74864E-12
 -1     16594-5.55702E-03 1.38885E-01 6.48191E-10-2.22273E-01-1.39208E-12-1.90417E-12
 -1     16599-2.20277E-03 1.35531E-01-1.16627E-09-2.11950E-01 1.03662E-12 1.45010E-12
 -1     16600-3.32806E-02 1.66609E-01-1.16947E-09-1.96152E-01-1.60437E-12-2.60736E-12
 -1     16601-5.55702E-03 1.38885E-01 6.44601E-10-2.22273E-01 2.69527E-12 3.73858E-12
 -1     16606-2.20277E-03 1.35531E-01-1.17784E-09-2.11950E-01-8.97021E-12-1.23309E-11
 -1     16607-3.32806E-02 1.66609E-01-1.17583E-09-1.96152E-01-1.78848E-11-2.91658E-11
 -1     16608-5.55702E-03 1.38885E-01 6.52425E-10-2.22273E-01 1.23268E-11 1.69900E-11
 -1     16613-2.20277E-03 1.35531E-01-1.19140E-09-2.11950E-01 2.89889E-11 3.99173E-11
 -1     16617 6.66640E-02 6.66640E-02-1.19135E-09-2.22857E-01-3.48827E-11-3.48881E-11
 -1     16618 3.22254E-02 1.01103E-01-1.17590E-09-2.17437E-01 2.22211E-11 2.60132E-11
 -1     16619 6.66640E-02 6.66640E-02 6.52406E-10-2.33712E-01-1.48234E-11-1.48322E-11
 -1     16624 6.66640E-02 6.66640E-02-1.17779E-09-2.22857E-01 1.07968E-11 1.08071E-11
 -1     16625 3.22254E-02 1.01103E-01-1.16952E-09-2.17437E-01 1.98835E-12 2.33790E-12
 -1     16626 6.66640E-02 6.66640E-02 6.44571E-10-2.33712E-01-3.24214E-12-3.22058E-12
 -1     16631 6.66640E-02 6.66640E-02-1.16626E-09-2.22857E-01-1.23320E-12-1.23278E-12
 -1     16632 3.22254E-02 1.01103E-01-1.17343E-09-2.17437E-01-2.84045E-12-3.32877E-12
 -1     16633 6.66640E-02 6.66640E-02 6.48156E-10-2.33712E-01 1.68071E-12 1.66046E-12
 -1     16638 6.66640E-02 6.66640E-02-1.18015E-09-2.22857E-01-5.21946E-13-5.62310E-13
 -1     16639 3.22254E-02 1.01103E-01-1.17578E-09-2.17437E-01 2.59070E-12 3.03210E-12
 -1     16640 6.66640E-02 6.66640E-02 6.50643E-10-2.33712E-01-1.72488E-12-1.72604E-12
 -1     16645 6.66640E-02 6.66640E-02-1.17150E-09-2.22857E-01 7.92387E-13 7.86581E-13
 -1     16646 3.22254E-02 1.01103E-01-1.17546E-09-2.17437E-01-1.41125E-12-1.65506E-12
 -1     16647 6.66640E-02 6.66640E-02 6.49895E-10-2.33712E-01 7.46751E-13 7.18732E-13
 -1     16652 6.66640E-02 6.66640E-02-1.17625E-09-2.22857E-01-9.29388E-15-1.69683E-14
 -1     16653 3.22254E-02 1.01103E-01-1.17546E-09-2.17437E-01 1.41049E-12 1.66170E-12
 -1     16654 6.66640E-02 6.66640E-02 6.49892E-10-2.33712E-01-7.69828E-13-7.48927E-13
 -1     16659 6.66640E-02 6.66640E-02-1.17149E-09-2.22857E-01-8.10259E-13-8.11280E-13
 -1     16660 3.22254E-02 1.01103E-01-1.17579E-09-2.17437E-01-2.60308E-12-3.03631E-12
 -1     16661 6.66640E-02 6.66640E-02 6.50647E-10-2.33712E-01 1.70496E-12 1.72890E-12
 -1     16666 6.66640E-02 6.66640E-02-1.18015E-09-2.22857E-01 5.53466E-13 5.56201E-13
 -1     16667 3.22254E-02 1.01103E-01-1.17342E-09-2.17437E-01 2.85924E-12 3.33478E-12
 -1     16668 6.66640E-02 6.66640E-02 6.48147E-10-2.33712E-01-1.66288E-12-1.65806E-12
 -1     16673 6.66640E-02 6.66640E-02-1.16625E-09-2.22857E-01 1.24068E-12 1.24271E-12
 -1     16674 3.22254E-02 1.01103E-01-1.16954E-09-2.17437E-01-1.99313E-12-2.32784E-12
 -1     16675 6.66640E-02 6.66640E-02 6.44566E-10-2.33712E-01 3.23988E-12 3.23454E-12
 -1     16680 6.66640E-02 6.66640E-02-1.17779E-09-2.22857E-01-1.08031E-11-1.07708E-11
 -1     16681 3.22254E-02 1.01103E-01-1.17590E-09-2.17437E-01-2.22271E-11-2.60143E-11
 -1     16682 6.66640E-02 6.66640E-02 6.52395E-10-2.33712E-01 1.48380E-11 1.48457E-11
 -1     16687 6.66640E-02 6.66640E-02-1.19134E-09-2.22857E-01 3.48831E-11 3.48981E-11
 -1     16691 1.35531E-01-2.20277E-03-1.19153E-09-2.11950E-01-3.99443E-11-2.90031E-11
 -1     16692 1.01103E-01 3.22254E-02-1.17586E-09-2.17437E-01 2.60147E-11 2.22298E-11
 -1     16693 1.38885E-01-5.55702E-03 6.52471E-10-2.22273E-01-1.69969E-11-1.23385E-11
 -1     16698 1.35531E-01-2.20277E-03-1.17800E-09-2.11950E-01 1.23006E-11 8.95641E-12
 -1     16699 1.01103E-01 3.22254E-02-1.16949E-09-2.17437E-01 2.31820E-12 2.02537E-12
 -1     16700 1.38885E-01-5.55702E-03 6.44642E-10-2.22273E-01-3.73541E-12-2.70572E-12
 -1     16705 1.35531E-01-2.20277E-03-1.16643E-09-2.11950E-01-1.46521E-12-1.04692E-12
 -1     16706 1.01103E-01 3.22254E-02-1.17337E-09-2.17437E-01-3.34104E-12-2.83670E-12
 -1     16707 1.38885E-01-5.55702E-03 6.48224E-10-2.22273E-01 1.87093E-12 1.38826E-12
 -1     16712 1.35531E-01-2.20277E-03-1.18032E-09-2.11950E-01-6.48782E-13-4.49136E-13
 -1     16713 1.01103E-01 3.22254E-02-1.17573E-09-2.17437E-01 3.03633E-12 2.60051E-12
 -1     16714 1.38885E-01-5.55702E-03 6.50712E-10-2.22273E-01-1.97624E-12-1.42296E-12
 -1     16719 1.35531E-01-2.20277E-03-1.17168E-09-2.11950E-01 9.22083E-13 6.74403E-13
 -1     16720 1.01103E-01 3.22254E-02-1.17540E-09-2.17437E-01-1.64464E-12-1.40435E-12
 -1     16721 1.38885E-01-5.55702E-03 6.49966E-10-2.22273E-01 8.52325E-13 6.36462E-13
 -1     16726 1.35531E-01-2.20277E-03-1.17642E-09-2.11950E-01-6.26768E-15 2.62030E-15
 -1     16727 1.01103E-01 3.22254E-02-1.17540E-09-2.17437E-01 1.64385E-12 1.40605E-12
 -1     16728 1.38885E-01-5.55702E-03 6.49976E-10-2.22273E-01-8.39686E-13-6.19344E-13
 -1     16733 1.35531E-01-2.20277E-03-1.17168E-09-2.11950E-01-9.18790E-13-6.63774E-13
 -1     16734 1.01103E-01 3.22254E-02-1.17574E-09-2.17437E-01-3.05894E-12-2.59274E-12
 -1     16735 1.38885E-01-5.55702E-03 6.50706E-10-2.22273E-01 1.97665E-12 1.42989E-12
 -1     16740 1.35531E-01-2.20277E-03-1.18031E-09-2.11950E-01 6.27838E-13 4.69392E-13
 -1     16741 1.01103E-01 3.22254E-02-1.17337E-09-2.17437E-01 3.33825E-12 2.84654E-12
 -1     16742 1.38885E-01-5.55702E-03 6.48236E-10-2.22273E-01-1.89645E-12-1.38104E-12
 -1     16747 1.35531E-01-2.20277E-03-1.16642E-09-2.11950E-01 1.46750E-12 1.06068E-12
 -1     16748 1.01103E-01 3.22254E-02-1.16948E-09-2.17437E-01-2.33199E-12-1.99429E-12
 -1     16749 1.38885E-01-5.55702E-03 6.44648E-10-2.22273E-01 3.72457E-12 2.70659E-12
 -1     16754 1.35531E-01-2.20277E-03-1.17797E-09-2.11950E-01-1.23271E-11-8.96084E-12
 -1     16755 1.01103E-01 3.22254E-02-1.17585E-09-2.17437E-01-2.60242E-11-2.22142E-11
 -1     16756 1.38885E-01-5.55702E-03 6.52468E-10-2.22273E-01 1.69811E-11 1.23335E-11
 -1     16761 1.35531E-01-2.20277E-03-1.19152E-09-2.11950E-01 3.99261E-11 2.90001E-11
 -1     16765 1.97656E-01-6.43284E-02-1.19150E-09-1.80295E-01-4.39538E-11-2.23983E-11
 -1     16766 1.66609E-01-3.32806E-02-1.17574E-09-1.96152E-01 2.91869E-11 1.78735E-11
 -1     16767 2.04037E-01-7.07085E-02 6.52476E-10-1.89077E-01-1.86977E-11-9.52016E-12
 -1     16772 1.97656E-01-6.43284E-02-1.17790E-09-1.80295E-01 1.36084E-11 6.94326E-12
 -1     16773 1.66609E-01-3.32806E-02-1.16937E-09-1.96152E-01 2.62678E-12 1.59531E-12
 -1     16774 2.04037E-01-7.07085E-02 6.44653E-10-1.89077E-01-4.08080E-12-2.07195E-12
 -1     16779 1.97656E-01-6.43284E-02-1.16637E-09-1.80295E-01-1.59272E-12-7.97548E-13
 -1     16780 1.66609E-01-3.32806E-02-1.17326E-09-1.96152E-01-3.73185E-12-2.29302E-12
 -1     16781 2.04037E-01-7.07085E-02 6.48237E-10-1.89077E-01 2.11638E-12 1.07437E-12
 -1     16786 1.97656E-01-6.43284E-02-1.18022E-09-1.80295E-01-6.67483E-13-3.36973E-13
 -1     16787 1.66609E-01-3.32806E-02-1.17562E-09-1.96152E-01 3.41599E-12 2.09005E-12
 -1     16788 2.04037E-01-7.07085E-02 6.50745E-10-1.89077E-01-2.15255E-12-1.09928E-12
 -1     16793 1.97656E-01-6.43284E-02-1.17157E-09-1.80295E-01 1.02530E-12 5.15774E-13
 -1     16794 1.66609E-01-3.32806E-02-1.17530E-09-1.96152E-01-1.83616E-12-1.13985E-12
 -1     16795 2.04037E-01-7.07085E-02 6.49992E-10-1.89077E-01 9.58660E-13 4.80682E-13
 -1     16800 1.97656E-01-6.43284E-02-1.17631E-09-1.80295E-01 2.24278E-14 6.40373E-15
 -1     16801 1.66609E-01-3.32806E-02-1.17529E-09-1.96152E-01 1.85537E-12 1.13603E-12
 -1     16802 2.04037E-01-7.07085E-02 6.50001E-10-1.89077E-01-9.43845E-13-4.62197E-13
 -1     16807 1.97656E-01-6.43284E-02-1.17158E-09-1.80295E-01-1.02234E-12-5.01358E-13
 -1     16808 1.66609E-01-3.32806E-02-1.17562E-09-1.96152E-01-3.40985E-12-2.07862E-12
 -1     16809 2.04037E-01-7.07085E-02 6.50739E-10-1.89077E-01 2.16953E-12 1.11014E-12
 -1     16814 1.97656E-01-6.43284E-02-1.18023E-09-1.80295E-01 6.83843E-13 3.45124E-13
 -1     16815 1.66609E-01-3.32806E-02-1.17326E-09-1.96152E-01 3.72421E-12 2.29671E-12
 -1     16816 2.04037E-01-7.07085E-02 6.48246E-10-1.89077E-01-2.09607E-12-1.07425E-12
 -1     16821 1.97656E-01-6.43284E-02-1.16636E-09-1.80295E-01 1.60138E-12 7.94102E-13
 -1     16822 1.66609E-01-3.32806E-02-1.16937E-09-1.96152E-01-2.62459E-12-1.59003E-12
 -1     16823 2.04037E-01-7.07085E-02 6.44655E-10-1.89077E-01 4.10376E-12 2.07160E-12
 -1     16828 1.97656E-01-6.43284E-02-1.17790E-09-1.80295E-01-1.35822E-11-6.93738E-12
 -1     16829 1.66609E-01-3.32806E-02-1.17574E-09-1.96152E-01-2.91971E-11-1.78667E-11
 -1     16830 2.04037E-01-7.07085E-02 6.52469E-10-1.89077E-01 1.87072E-11 9.52499E-12
 -1     16835 1.97656E-01-6.43284E-02-1.19151E-09-1.80295E-01 4.39698E-11 2.23917E-11
 -1     16839 2.46959E-01-1.13632E-01-1.19124E-09-1.30992E-01-4.68993E-11-1.52580E-11
 -1     16840 2.22331E-01-8.90034E-02-1.17590E-09-1.55667E-01 3.16116E-11 1.30821E-11
 -1     16841 2.55741E-01-1.22413E-01 6.52357E-10-1.37373E-01-1.99314E-11-6.48947E-12
 -1     16846 2.46959E-01-1.13632E-01-1.17768E-09-1.30992E-01 1.45591E-11 4.71176E-12
 -1     16847 2.22331E-01-8.90034E-02-1.16954E-09-1.55667E-01 2.84045E-12 1.16593E-12
 -1     16848 2.55741E-01-1.22413E-01 6.44552E-10-1.37373E-01-4.34109E-12-1.42040E-12
 -1     16853 2.46959E-01-1.13632E-01-1.16610E-09-1.30992E-01-1.63691E-12-5.36831E-13
 -1     16854 2.22331E-01-8.90034E-02-1.17345E-09-1.55667E-01-4.04278E-12-1.68543E-12
 -1     16855 2.55741E-01-1.22413E-01 6.48141E-10-1.37373E-01 2.25998E-12 7.35498E-13
 -1     16860 2.46959E-01-1.13632E-01-1.17999E-09-1.30992E-01-7.13328E-13-2.25615E-13
 -1     16861 2.22331E-01-8.90034E-02-1.17581E-09-1.55667E-01 3.69550E-12 1.52421E-12
 -1     16862 2.55741E-01-1.22413E-01 6.50647E-10-1.37373E-01-2.30570E-12-7.50214E-13
 -1     16867 2.46959E-01-1.13632E-01-1.17134E-09-1.30992E-01 1.07663E-12 3.57341E-13
 -1     16868 2.22331E-01-8.90034E-02-1.17548E-09-1.55667E-01-1.99922E-12-8.25129E-13
 -1     16869 2.55741E-01-1.22413E-01 6.49897E-10-1.37373E-01 9.96116E-13 3.30544E-13
 -1     16874 2.46959E-01-1.13632E-01-1.17609E-09-1.30992E-01-2.40651E-15 4.33292E-15
 -1     16875 2.22331E-01-8.90034E-02-1.17549E-09-1.55667E-01 2.00341E-12 8.39302E-13
 -1     16876 2.55741E-01-1.22413E-01 6.49897E-10-1.37373E-01-1.00707E-12-3.25008E-13
 -1     16881 2.46959E-01-1.13632E-01-1.17133E-09-1.30992E-01-1.09933E-12-3.48843E-13
 -1     16882 2.22331E-01-8.90034E-02-1.17580E-09-1.55667E-01-3.68703E-12-1.51552E-12
 -1     16883 2.55741E-01-1.22413E-01 6.50648E-10-1.37373E-01 2.28722E-12 7.49262E-13
 -1     16888 2.46959E-01-1.13632E-01-1.17999E-09-1.30992E-01 7.14122E-13 2.33709E-13
 -1     16889 2.22331E-01-8.90034E-02-1.17345E-09-1.55667E-01 4.04579E-12 1.68487E-12
 -1     16890 2.55741E-01-1.22413E-01 6.48132E-10-1.37373E-01-2.26496E-12-7.32241E-13
 -1     16895 2.46959E-01-1.13632E-01-1.16611E-09-1.30992E-01 1.63960E-12 5.45368E-13
 -1     16896 2.22331E-01-8.90034E-02-1.16955E-09-1.55667E-01-2.83098E-12-1.14914E-12
 -1     16897 2.55741E-01-1.22413E-01 6.44531E-10-1.37373E-01 4.35491E-12 1.42552E-12
 -1     16902 2.46959E-01-1.13632E-01-1.17772E-09-1.30992E-01-1.45590E-11-4.70995E-12
 -1     16903 2.22331E-01-8.90034E-02-1.17591E-09-1.55667E-01-3.16062E-11-1.30806E-11
 -1     16904 2.55741E-01-1.22413E-01 6.52354E-10-1.37373E-01 1.99122E-11 6.48415E-12
 -1     16909 2.46959E-01-1.13632E-01-1.19126E-09-1.30992E-01 4.68701E-11 1.52529E-11
 -1     16913 2.78614E-01-1.45286E-01-1.19142E-09-6.88668E-02-4.87180E-11-7.74018E-12
 -1     16914 2.62816E-01-1.29488E-01-1.17596E-09-9.99446E-02 3.32642E-11 8.00046E-12
 -1     16915 2.88937E-01-1.55609E-01 6.52398E-10-7.22210E-02-2.07300E-11-3.29991E-12
 -1     16920 2.78614E-01-1.45286E-01-1.17789E-09-6.88668E-02 1.50431E-11 2.36271E-12
 -1     16921 2.62816E-01-1.29488E-01-1.16959E-09-9.99446E-02 2.97401E-12 7.33011E-13
 -1     16922 2.88937E-01-1.55609E-01 6.44546E-10-7.22210E-02-4.54766E-12-7.30212E-13
 -1     16927 2.78614E-01-1.45286E-01-1.16634E-09-6.88668E-02-1.75557E-12-2.90448E-13
 -1     16928 2.62816E-01-1.29488E-01-1.17349E-09-9.99446E-02-4.26950E-12-1.00345E-12
 -1     16929 2.88937E-01-1.55609E-01 6.48138E-10-7.22210E-02 2.31815E-12 3.62066E-13
 -1     16934 2.78614E-01-1.45286E-01-1.18022E-09-6.88668E-02-7.64974E-13-1.17851E-13
 -1     16935 2.62816E-01-1.29488E-01-1.17586E-09-9.99446E-02 3.88071E-12 9.43712E-13
 -1     16936 2.88937E-01-1.55609E-01 6.50632E-10-7.22210E-02-2.42610E-12-3.80605E-13
 -1     16941 2.78614E-01-1.45286E-01-1.17159E-09-6.88668E-02 1.12078E-12 1.84244E-13
 -1     16942 2.62816E-01-1.29488E-01-1.17553E-09-9.99446E-02-2.11108E-12-5.00231E-13
 -1     16943 2.88937E-01-1.55609E-01 6.49879E-10-7.22210E-02 1.05234E-12 1.69115E-13
 -1     16948 2.78614E-01-1.45286E-01-1.17632E-09-6.88668E-02 1.03839E-14 2.68220E-16
 -1     16949 2.62816E-01-1.29488E-01-1.17553E-09-9.99446E-02 2.11561E-12 5.02865E-13
 -1     16950 2.88937E-01-1.55609E-01 6.49871E-10-7.22210E-02-1.01759E-12-1.63467E-13
 -1     16955 2.78614E-01-1.45286E-01-1.17158E-09-6.88668E-02-1.08871E-12-1.75751E-13
 -1     16956 2.62816E-01-1.29488E-01-1.17584E-09-9.99446E-02-3.87410E-12-9.41662E-13
 -1     16957 2.88937E-01-1.55609E-01 6.50625E-10-7.22210E-02 2.43154E-12 3.84139E-13
 -1     16962 2.78614E-01-1.45286E-01-1.18022E-09-6.88668E-02 7.58214E-13 1.26903E-13
 -1     16963 2.62816E-01-1.29488E-01-1.17350E-09-9.99446E-02 4.26752E-12 1.00275E-12
 -1     16964 2.88937E-01-1.55609E-01 6.48135E-10-7.22210E-02-2.31742E-12-3.60948E-13
 -1     16969 2.78614E-01-1.45286E-01-1.16635E-09-6.88668E-02 1.75286E-12 2.95900E-13
 -1     16970 2.62816E-01-1.29488E-01-1.16959E-09-9.99446E-02-2.98389E-12-7.32600E-13
 -1     16971 2.88937E-01-1.55609E-01 6.44544E-10-7.22210E-02 4.53106E-12 7.33527E-13
 -1     16976 2.78614E-01-1.45286E-01-1.17789E-09-6.88668E-02-1.50672E-11-2.35527E-12
 -1     16977 2.62816E-01-1.29488E-01-1.17596E-09-9.99446E-02-3.32542E-11-8.00530E-12
 -1     16978 2.88937E-01-1.55609E-01 6.52388E-10-7.22210E-02 2.07352E-11 3.30473E-12
 -1     16983 2.78614E-01-1.45286E-01-1.19142E-09-6.88668E-02 4.87305E-11 7.74678E-12
 -1     16987 2.84101E-01-1.50773E-01-1.17573E-09-3.44386E-02 3.41289E-11 2.70437E-12
 -1     16991 2.84101E-01-1.50773E-01-1.16935E-09-3.44386E-02 3.05908E-12 2.62697E-13
 -1     16995 2.84101E-01-1.50773E-01-1.17324E-09-3.44386E-02-4.37242E-12-3.25620E-13
 -1     16999 2.84101E-01-1.50773E-01-1.17560E-09-3.44386E-02 3.97917E-12 3.26949E-13
 -1     17003 2.84101E-01-1.50773E-01-1.17527E-09-3.44386E-02-2.16864E-12-1.64082E-13
 -1     17007 2.84101E-01-1.50773E-01-1.17526E-09-3.44386E-02 2.16542E-12 1.67357E-13
 -1     17011 2.84101E-01-1.50773E-01-1.17559E-09-3.44386E-02-3.97827E-12-3.22222E-13
 -1     17015 2.84101E-01-1.50773E-01-1.17324E-09-3.44386E-02 4.36407E-12 3.30580E-13
 -1     17019 2.84101E-01-1.50773E-01-1.16936E-09-3.44386E-02-3.05599E-12-2.58621E-13
 -1     17023 2.84101E-01-1.50773E-01-1.17573E-09-3.44386E-02-3.41212E-11-2.69755E-12
 -1     17029-1.27273E-01 2.60601E-01-9.80739E-10-6.30141E-02-6.37155E-12-4.02257E-11
 -1     17030-1.32294E-01 2.65622E-01-9.69425E-10-3.15118E-02 1.89078E-12 2.40118E-11
 -1     17031-1.36281E-01 2.69609E-01 5.36165E-10-6.59409E-02-1.87455E-12-1.18251E-11
 -1     17036-1.27273E-01 2.60601E-01-9.60757E-10-6.30141E-02 1.68432E-12 1.06537E-11
 -1     17037-1.32294E-01 2.65622E-01-9.64291E-10-3.15118E-02-3.70522E-13-4.72225E-12
 -1     17038-1.36281E-01 2.69609E-01 5.33755E-10-6.59409E-02 3.52899E-13 2.24694E-12
 -1     17043-1.27273E-01 2.60601E-01-9.60653E-10-6.30141E-02-4.62922E-13-2.91984E-12
 -1     17044-1.32294E-01 2.65622E-01-9.62578E-10-3.15118E-02-1.52769E-13-1.97374E-12
 -1     17045-1.36281E-01 2.69609E-01 5.31964E-10-6.59409E-02 2.03693E-13 1.28583E-12
 -1     17050-1.27273E-01 2.60601E-01-9.65471E-10-6.30141E-02-2.18295E-14-1.01327E-13
 -1     17051-1.32294E-01 2.65622E-01-9.62950E-10-3.15118E-02 1.36289E-13 1.71860E-12
 -1     17052-1.36281E-01 2.69609E-01 5.32488E-10-6.59409E-02-1.84406E-13-1.12168E-12
 -1     17057-1.27273E-01 2.60601E-01-9.61261E-10-6.30141E-02 2.39055E-14 1.75298E-13
 -1     17058-1.32294E-01 2.65622E-01-9.62560E-10-3.15118E-02-1.20988E-13-1.52710E-12
 -1     17059-1.36281E-01 2.69609E-01 5.32094E-10-6.59409E-02 1.13782E-13 7.58294E-13
 -1     17064-1.27273E-01 2.60601E-01-9.64158E-10-6.30141E-02-5.43685E-15 2.84233E-14
 -1     17065-1.32294E-01 2.65622E-01-9.62565E-10-3.15118E-02 1.18601E-13 1.52060E-12
 -1     17066-1.36281E-01 2.69609E-01 5.32106E-10-6.59409E-02-1.24737E-13-7.54225E-13
 -1     17071-1.27273E-01 2.60601E-01-9.61276E-10-6.30141E-02-3.47883E-14-1.93236E-13
 -1     17072-1.32294E-01 2.65622E-01-9.62943E-10-3.15118E-02-1.35282E-13-1.72712E-12
 -1     17073-1.36281E-01 2.69609E-01 5.32475E-10-6.59409E-02 1.74294E-13 1.14491E-12
 -1     17078-1.27273E-01 2.60601E-01-9.65462E-10-6.30141E-02 1.45101E-14 1.25309E-13
 -1     17079-1.32294E-01 2.65622E-01-9.62576E-10-3.15118E-02 1.51638E-13 1.96916E-12
 -1     17080-1.36281E-01 2.69609E-01 5.31954E-10-6.59409E-02-2.11620E-13-1.27837E-12
 -1     17085-1.27273E-01 2.60601E-01-9.60636E-10-6.30141E-02 4.53556E-13 2.91106E-12
 -1     17086-1.32294E-01 2.65622E-01-9.64290E-10-3.15118E-02 3.70058E-13 4.71155E-12
 -1     17087-1.36281E-01 2.69609E-01 5.33755E-10-6.59409E-02-3.59096E-13-2.24251E-12
 -1     17092-1.27273E-01 2.60601E-01-9.60755E-10-6.30141E-02-1.69050E-12-1.06623E-11
 -1     17093-1.32294E-01 2.65622E-01-9.69419E-10-3.15118E-02-1.88924E-12-2.40252E-11
 -1     17094-1.36281E-01 2.69609E-01 5.36154E-10-6.59409E-02 1.87600E-12 1.18209E-11
 -1     17099-1.27273E-01 2.60601E-01-9.80739E-10-6.30141E-02 6.37716E-12 4.02444E-11
 -1     17103-9.83091E-02 2.31637E-01-9.80745E-10-1.19860E-01-1.25942E-11-3.87534E-11
 -1     17104-1.12818E-01 2.46146E-01-9.69445E-10-9.14508E-02 5.61878E-12 2.34270E-11
 -1     17105-1.05972E-01 2.39300E-01 5.36158E-10-1.25427E-01-3.71217E-12-1.14026E-11
 -1     17110-9.83091E-02 2.31637E-01-9.60742E-10-1.19860E-01 3.32801E-12 1.02550E-11
 -1     17111-1.12818E-01 2.46146E-01-9.64315E-10-9.14508E-02-1.12010E-12-4.59805E-12
 -1     17112-1.05972E-01 2.39300E-01 5.33767E-10-1.25427E-01 6.91017E-13 2.15675E-12
 -1     17117-9.83091E-02 2.31637E-01-9.60624E-10-1.19860E-01-9.16708E-13-2.78523E-12
 -1     17118-1.12818E-01 2.46146E-01-9.62596E-10-9.14508E-02-4.68862E-13-1.91576E-12
 -1     17119-1.05972E-01 2.39300E-01 5.31985E-10-1.25427E-01 3.97294E-13 1.23752E-12
 -1     17124-9.83091E-02 2.31637E-01-9.65450E-10-1.19860E-01-4.72370E-14-1.44871E-13
 -1     17125-1.12818E-01 2.46146E-01-9.62976E-10-9.14508E-02 3.93959E-13 1.67215E-12
 -1     17126-1.05972E-01 2.39300E-01 5.32487E-10-1.25427E-01-3.64419E-13-1.12296E-12
 -1     17131-9.83091E-02 2.31637E-01-9.61285E-10-1.19860E-01 4.93415E-14 1.65104E-13
 -1     17132-1.12818E-01 2.46146E-01-9.62582E-10-9.14508E-02-3.71597E-13-1.48600E-12
 -1     17133-1.05972E-01 2.39300E-01 5.32106E-10-1.25427E-01 2.23527E-13 7.12669E-13
 -1     17138-9.83091E-02 2.31637E-01-9.64176E-10-1.19860E-01-5.12908E-15 3.95995E-16
 -1     17139-1.12818E-01 2.46146E-01-9.62586E-10-9.14508E-02 3.49575E-13 1.50354E-12
 -1     17140-1.05972E-01 2.39300E-01 5.32104E-10-1.25427E-01-2.35382E-13-7.18644E-13
 -1     17145-9.83091E-02 2.31637E-01-9.61262E-10-1.19860E-01-5.12355E-14-1.74688E-13
 -1     17146-1.12818E-01 2.46146E-01-9.62970E-10-9.14508E-02-4.09261E-13-1.68432E-12
 -1     17147-1.05972E-01 2.39300E-01 5.32490E-10-1.25427E-01 3.54634E-13 1.09901E-12
 -1     17152-9.83091E-02 2.31637E-01-9.65460E-10-1.19860E-01 3.96888E-14 1.30929E-13
 -1     17153-1.12818E-01 2.46146E-01-9.62596E-10-9.14508E-02 4.49361E-13 1.93200E-12
 -1     17154-1.05972E-01 2.39300E-01 5.31980E-10-1.25427E-01-4.02444E-13-1.23568E-12
 -1     17159-9.83091E-02 2.31637E-01-9.60644E-10-1.19860E-01 9.08371E-13 2.81327E-12
 -1     17160-1.12818E-01 2.46146E-01-9.64320E-10-9.14508E-02 1.09554E-12 4.59502E-12
 -1     17161-1.05972E-01 2.39300E-01 5.33768E-10-1.25427E-01-7.03596E-13-2.15256E-12
 -1     17166-9.83091E-02 2.31637E-01-9.60764E-10-1.19860E-01-3.32795E-12-1.02498E-11
 -1     17167-1.12818E-01 2.46146E-01-9.69443E-10-9.14508E-02-5.62837E-12-2.34197E-11
 -1     17168-1.05972E-01 2.39300E-01 5.36165E-10-1.25427E-01 3.70332E-12 1.14056E-11
 -1     17173-9.83091E-02 2.31637E-01-9.80750E-10-1.19860E-01 1.25952E-11 3.87315E-11
 -1     17177-5.31960E-02 1.86524E-01-9.80801E-10-1.64973E-01-1.85069E-11-3.63060E-11
 -1     17178-7.57740E-02 2.09102E-01-9.69423E-10-1.42438E-01 9.22268E-12 2.22509E-11
 -1     17179-5.87631E-02 1.92091E-01 5.36212E-10-1.72636E-01-5.44248E-12-1.06673E-11
 -1     17184-5.31960E-02 1.86524E-01-9.60798E-10-1.64973E-01 4.88030E-12 9.61223E-12
 -1     17185-7.57740E-02 2.09102E-01-9.64288E-10-1.42438E-01-1.80812E-12-4.37110E-12
 -1     17186-5.87631E-02 1.92091E-01 5.33812E-10-1.72636E-01 1.03061E-12 2.03419E-12
 -1     17191-5.31960E-02 1.86524E-01-9.60680E-10-1.64973E-01-1.34499E-12-2.62497E-12
 -1     17192-7.57740E-02 2.09102E-01-9.62574E-10-1.42438E-01-7.53413E-13-1.82595E-12
 -1     17193-5.87631E-02 1.92091E-01 5.32035E-10-1.72636E-01 5.84149E-13 1.16142E-12
 -1     17198-5.31960E-02 1.86524E-01-9.65505E-10-1.64973E-01-6.49703E-14-1.23316E-13
 -1     17199-7.57740E-02 2.09102E-01-9.62953E-10-1.42438E-01 6.62898E-13 1.58641E-12
 -1     17200-5.87631E-02 1.92091E-01 5.32543E-10-1.72636E-01-5.26073E-13-1.03008E-12
 -1     17205-5.31960E-02 1.86524E-01-9.61305E-10-1.64973E-01 7.99322E-14 1.69043E-13
 -1     17206-7.57740E-02 2.09102E-01-9.62563E-10-1.42438E-01-5.88491E-13-1.40851E-12
 -1     17207-5.87631E-02 1.92091E-01 5.32164E-10-1.72636E-01 3.47332E-13 7.01406E-13
 -1     17212-5.31960E-02 1.86524E-01-9.64194E-10-1.64973E-01 2.71749E-15 1.31296E-14
 -1     17213-7.57740E-02 2.09102E-01-9.62562E-10-1.42438E-01 5.90425E-13 1.41742E-12
 -1     17214-5.87631E-02 1.92091E-01 5.32161E-10-1.72636E-01-3.40276E-13-6.73955E-13
 -1     17219-5.31960E-02 1.86524E-01-9.61297E-10-1.64973E-01-8.51518E-14-1.43729E-13
 -1     17220-7.57740E-02 2.09102E-01-9.62949E-10-1.42438E-01-6.56390E-13-1.59415E-12
 -1     17221-5.87631E-02 1.92091E-01 5.32549E-10-1.72636E-01 5.26473E-13 1.04804E-12
 -1     17226-5.31960E-02 1.86524E-01-9.65498E-10-1.64973E-01 7.15485E-14 1.26101E-13
 -1     17227-7.57740E-02 2.09102E-01-9.62572E-10-1.42438E-01 7.52356E-13 1.83189E-12
 -1     17228-5.87631E-02 1.92091E-01 5.32021E-10-1.72636E-01-5.89753E-13-1.15646E-12
 -1     17233-5.31960E-02 1.86524E-01-9.60674E-10-1.64973E-01 1.34754E-12 2.63146E-12
 -1     17234-7.57740E-02 2.09102E-01-9.64304E-10-1.42438E-01 1.81116E-12 4.37192E-12
 -1     17235-5.87631E-02 1.92091E-01 5.33815E-10-1.72636E-01-1.02051E-12-2.01996E-12
 -1     17240-5.31960E-02 1.86524E-01-9.60799E-10-1.64973E-01-4.88905E-12-9.60306E-12
 -1     17241-7.57740E-02 2.09102E-01-9.69425E-10-1.42438E-01-9.22397E-12-2.22422E-11
 -1     17242-5.87631E-02 1.92091E-01 5.36208E-10-1.72636E-01 5.44763E-12 1.06796E-11
 -1     17247-5.31960E-02 1.86524E-01-9.80796E-10-1.64973E-01 1.85049E-11 3.62985E-11
 -1     17251 3.64988E-03 1.29678E-01-9.80713E-10-1.93937E-01-2.39491E-11-3.29542E-11
 -1     17252-2.47868E-02 1.58115E-01-9.69392E-10-1.79482E-01 1.25806E-11 2.05387E-11
 -1     17253 7.23066E-04 1.32605E-01 5.36162E-10-2.02945E-01-7.04683E-12-9.69479E-12
 -1     17258 3.64988E-03 1.29678E-01-9.60704E-10-1.93937E-01 6.36088E-12 8.73076E-12
 -1     17259-2.47868E-02 1.58115E-01-9.64280E-10-1.79482E-01-2.45515E-12-4.03015E-12
 -1     17260 7.23066E-04 1.32605E-01 5.33784E-10-2.02945E-01 1.34976E-12 1.82082E-12
 -1     17265 3.64988E-03 1.29678E-01-9.60573E-10-1.93937E-01-1.70397E-12-2.38967E-12
 -1     17266-2.47868E-02 1.58115E-01-9.62561E-10-1.79482E-01-1.03085E-12-1.69671E-12
 -1     17267 7.23066E-04 1.32605E-01 5.31993E-10-2.02945E-01 7.67924E-13 1.05732E-12
 -1     17272 3.64988E-03 1.29678E-01-9.65385E-10-1.93937E-01-5.41123E-14-1.02092E-13
 -1     17273-2.47868E-02 1.58115E-01-9.62944E-10-1.79482E-01 9.09923E-13 1.46922E-12
 -1     17274 7.23066E-04 1.32605E-01 5.32519E-10-2.02945E-01-6.73085E-13-9.28019E-13
 -1     17279 3.64988E-03 1.29678E-01-9.61193E-10-1.93937E-01 1.09651E-13 1.50315E-13
 -1     17280-2.47868E-02 1.58115E-01-9.62547E-10-1.79482E-01-7.97153E-13-1.30604E-12
 -1     17281 7.23066E-04 1.32605E-01 5.32135E-10-2.02945E-01 4.47845E-13 5.99086E-13
 -1     17286 3.64988E-03 1.29678E-01-9.64078E-10-1.93937E-01 8.40542E-15 1.16053E-14
 -1     17287-2.47868E-02 1.58115E-01-9.62558E-10-1.79482E-01 8.01064E-13 1.30960E-12
 -1     17288 7.23066E-04 1.32605E-01 5.32141E-10-2.02945E-01-4.34692E-13-5.87148E-13
 -1     17293 3.64988E-03 1.29678E-01-9.61186E-10-1.93937E-01-9.26294E-14-1.69387E-13
 -1     17294-2.47868E-02 1.58115E-01-9.62938E-10-1.79482E-01-8.94952E-13-1.47508E-12
 -1     17295 7.23066E-04 1.32605E-01 5.32516E-10-2.02945E-01 6.78220E-13 9.18249E-13
 -1     17300 3.64988E-03 1.29678E-01-9.65389E-10-1.93937E-01 8.72483E-14 1.01221E-13
 -1     17301-2.47868E-02 1.58115E-01-9.62567E-10-1.79482E-01 1.03258E-12 1.70397E-12
 -1     17302 7.23066E-04 1.32605E-01 5.32002E-10-2.02945E-01-7.68231E-13-1.04286E-12
 -1     17307 3.64988E-03 1.29678E-01-9.60580E-10-1.93937E-01 1.71789E-12 2.39645E-12
 -1     17308-2.47868E-02 1.58115E-01-9.64282E-10-1.79482E-01 2.46664E-12 4.04927E-12
 -1     17309 7.23066E-04 1.32605E-01 5.33789E-10-2.02945E-01-1.34623E-12-1.83305E-12
 -1     17314 3.64988E-03 1.29678E-01-9.60690E-10-1.93937E-01-6.35594E-12-8.74384E-12
 -1     17315-2.47868E-02 1.58115E-01-9.69395E-10-1.79482E-01-1.25912E-11-2.05420E-11
 -1     17316 7.23066E-04 1.32605E-01 5.36167E-10-2.02945E-01 7.02968E-12 9.69232E-12
 -1     17321 3.64988E-03 1.29678E-01-9.80709E-10-1.93937E-01 2.39174E-11 3.29572E-11
 -1     17325 6.66640E-02 6.66640E-02-9.80652E-10-2.03918E-01-2.87890E-11-2.88096E-11
 -1     17326 3.51522E-02 9.81758E-02-9.69512E-10-1.98958E-01 1.56338E-11 1.83294E-11
 -1     17327 6.66640E-02 6.66640E-02 5.36130E-10-2.13389E-01-8.45678E-12-8.47142E-12
 -1     17332 6.66640E-02 6.66640E-02-9.60663E-10-2.03918E-01 7.64946E-12 7.64100E-12
 -1     17333 3.51522E-02 9.81758E-02-9.64392E-10-1.98958E-01-3.07118E-12-3.60002E-12
 -1     17334 6.66640E-02 6.66640E-02 5.33725E-10-2.13389E-01 1.62001E-12 1.63001E-12
 -1     17339 6.66640E-02 6.66640E-02-9.60564E-10-2.03918E-01-2.06340E-12-2.06915E-12
 -1     17340 3.51522E-02 9.81758E-02-9.62667E-10-1.98958E-01-1.28715E-12-1.49688E-12
 -1     17341 6.66640E-02 6.66640E-02 5.31914E-10-2.13389E-01 9.43352E-13 9.32535E-13
 -1     17346 6.66640E-02 6.66640E-02-9.65380E-10-2.03918E-01-9.65468E-14-7.60924E-14
 -1     17347 3.51522E-02 9.81758E-02-9.63041E-10-1.98958E-01 1.10899E-12 1.30923E-12
 -1     17348 6.66640E-02 6.66640E-02 5.32443E-10-2.13389E-01-8.35682E-13-8.40496E-13
 -1     17353 6.66640E-02 6.66640E-02-9.61171E-10-2.03918E-01 1.25602E-13 8.97526E-14
 -1     17354 3.51522E-02 9.81758E-02-9.62651E-10-1.98958E-01-9.80829E-13-1.18665E-12
 -1     17355 6.66640E-02 6.66640E-02 5.32059E-10-2.13389E-01 5.38974E-13 5.08741E-13
 -1     17360 6.66640E-02 6.66640E-02-9.64078E-10-2.03918E-01-1.42016E-14-1.68273E-14
 -1     17361 3.51522E-02 9.81758E-02-9.62653E-10-1.98958E-01 9.80372E-13 1.18119E-12
 -1     17362 6.66640E-02 6.66640E-02 5.32046E-10-2.13389E-01-5.57916E-13-5.26703E-13
 -1     17367 6.66640E-02 6.66640E-02-9.61187E-10-2.03918E-01-1.44798E-13-9.83683E-14
 -1     17368 3.51522E-02 9.81758E-02-9.63036E-10-1.98958E-01-1.11259E-12-1.32866E-12
 -1     17369 6.66640E-02 6.66640E-02 5.32446E-10-2.13389E-01 8.17942E-13 8.26900E-13
 -1     17374 6.66640E-02 6.66640E-02-9.65377E-10-2.03918E-01 7.83358E-14 9.34018E-14
 -1     17375 3.51522E-02 9.81758E-02-9.62680E-10-1.98958E-01 1.28466E-12 1.50817E-12
 -1     17376 6.66640E-02 6.66640E-02 5.31927E-10-2.13389E-01-9.20849E-13-9.20992E-13
 -1     17381 6.66640E-02 6.66640E-02-9.60557E-10-2.03918E-01 2.07401E-12 2.06610E-12
 -1     17382 3.51522E-02 9.81758E-02-9.64382E-10-1.98958E-01 3.07863E-12 3.59073E-12
 -1     17383 6.66640E-02 6.66640E-02 5.33729E-10-2.13389E-01-1.61867E-12-1.60885E-12
 -1     17388 6.66640E-02 6.66640E-02-9.60664E-10-2.03918E-01-7.65228E-12-7.63001E-12
 -1     17389 3.51522E-02 9.81758E-02-9.69518E-10-1.98958E-01-1.56370E-11-1.83136E-11
 -1     17390 6.66640E-02 6.66640E-02 5.36132E-10-2.13389E-01 8.46620E-12 8.49099E-12
 -1     17395 6.66640E-02 6.66640E-02-9.80647E-10-2.03918E-01 2.88077E-11 2.88323E-11
 -1     17399 1.29678E-01 3.64988E-03-9.80871E-10-1.93937E-01-3.29681E-11-2.39634E-11
 -1     17400 9.81758E-02 3.51522E-02-9.69449E-10-1.98958E-01 1.83132E-11 1.56633E-11
 -1     17401 1.32605E-01 7.23066E-04 5.36231E-10-2.02945E-01-9.72472E-12-7.03979E-12
 -1     17406 1.29678E-01 3.64988E-03-9.60892E-10-1.93937E-01 8.67308E-12 6.33287E-12
 -1     17407 9.81758E-02 3.51522E-02-9.64319E-10-1.98958E-01-3.60248E-12-3.05821E-12
 -1     17408 1.32605E-01 7.23066E-04 5.33825E-10-2.02945E-01 1.79869E-12 1.32898E-12
 -1     17413 1.29678E-01 3.64988E-03-9.60778E-10-1.93937E-01-2.43565E-12-1.74649E-12
 -1     17414 9.81758E-02 3.51522E-02-9.62598E-10-1.98958E-01-1.50492E-12-1.25830E-12
 -1     17415 1.32605E-01 7.23066E-04 5.32032E-10-2.02945E-01 1.01756E-12 7.56278E-13
 -1     17420 1.29678E-01 3.64988E-03-9.65605E-10-1.93937E-01-1.17631E-13-9.28167E-14
 -1     17421 9.81758E-02 3.51522E-02-9.62961E-10-1.98958E-01 1.30660E-12 1.12759E-12
 -1     17422 1.32605E-01 7.23066E-04 5.32537E-10-2.02945E-01-9.29146E-13-6.71191E-13
 -1     17427 1.29678E-01 3.64988E-03-9.61421E-10-1.93937E-01 1.39564E-13 1.16228E-13
 -1     17428 9.81758E-02 3.51522E-02-9.62572E-10-1.98958E-01-1.16772E-12-9.92856E-13
 -1     17429 1.32605E-01 7.23066E-04 5.32152E-10-2.02945E-01 5.95688E-13 4.52807E-13
 -1     17434 1.29678E-01 3.64988E-03-9.64314E-10-1.93937E-01-7.01515E-15 8.19877E-15
 -1     17435 9.81758E-02 3.51522E-02-9.62576E-10-1.98958E-01 1.16307E-12 1.00416E-12
 -1     17436 1.32605E-01 7.23066E-04 5.32150E-10-2.02945E-01-5.91081E-13-4.43970E-13
 -1     17441 1.29678E-01 3.64988E-03-9.61422E-10-1.93937E-01-1.11641E-13-1.03967E-13
 -1     17442 9.81758E-02 3.51522E-02-9.62959E-10-1.98958E-01-1.30993E-12-1.12131E-12
 -1     17443 1.32605E-01 7.23066E-04 5.32541E-10-2.02945E-01 9.28750E-13 6.81371E-13
 -1     17448 1.29678E-01 3.64988E-03-9.65612E-10-1.93937E-01 1.18794E-13 8.24502E-14
 -1     17449 9.81758E-02 3.51522E-02-9.62601E-10-1.98958E-01 1.49603E-12 1.28431E-12
 -1     17450 1.32605E-01 7.23066E-04 5.32027E-10-2.02945E-01-1.04430E-12-7.53676E-13
 -1     17455 1.29678E-01 3.64988E-03-9.60782E-10-1.93937E-01 2.39600E-12 1.74971E-12
 -1     17456 9.81758E-02 3.51522E-02-9.64322E-10-1.98958E-01 3.60129E-12 3.05816E-12
 -1     17457 1.32605E-01 7.23066E-04 5.33825E-10-2.02945E-01-1.80800E-12-1.32867E-12
 -1     17462 1.29678E-01 3.64988E-03-9.60883E-10-1.93937E-01-8.67011E-12-6.33233E-12
 -1     17463 9.81758E-02 3.51522E-02-9.69450E-10-1.98958E-01-1.83130E-11-1.56461E-11
 -1     17464 1.32605E-01 7.23066E-04 5.36228E-10-2.02945E-01 9.71270E-12 7.04247E-12
 -1     17469 1.29678E-01 3.64988E-03-9.80879E-10-1.93937E-01 3.29969E-11 2.39551E-11
 -1     17473 1.86524E-01-5.31960E-02-9.80833E-10-1.64973E-01-3.63173E-11-1.84788E-11
 -1     17474 1.58115E-01-2.47868E-02-9.69294E-10-1.79482E-01 2.05525E-11 1.25760E-11
 -1     17475 1.92091E-01-5.87631E-02 5.36223E-10-1.72636E-01-1.06722E-11-5.43014E-12
 -1     17480 1.86524E-01-5.31960E-02-9.60813E-10-1.64973E-01 9.62209E-12 4.92817E-12
 -1     17481 1.58115E-01-2.47868E-02-9.64165E-10-1.79482E-01-4.02345E-12-2.48424E-12
 -1     17482 1.92091E-01-5.87631E-02 5.33835E-10-1.72636E-01 2.03601E-12 1.05328E-12
 -1     17487 1.86524E-01-5.31960E-02-9.60676E-10-1.64973E-01-2.61350E-12-1.32356E-12
 -1     17488 1.58115E-01-2.47868E-02-9.62445E-10-1.79482E-01-1.67278E-12-1.04430E-12
 -1     17489 1.92091E-01-5.87631E-02 5.32059E-10-1.72636E-01 1.16165E-12 6.01843E-13
 -1     17494 1.86524E-01-5.31960E-02-9.65494E-10-1.64973E-01-1.48056E-13-4.65503E-14
 -1     17495 1.58115E-01-2.47868E-02-9.62819E-10-1.79482E-01 1.48473E-12 8.87662E-13
 -1     17496 1.92091E-01-5.87631E-02 5.32571E-10-1.72636E-01-1.02462E-12-5.24523E-13
 -1     17501 1.86524E-01-5.31960E-02-9.61288E-10-1.64973E-01 1.84540E-13 9.00784E-14
 -1     17502 1.58115E-01-2.47868E-02-9.62425E-10-1.79482E-01-1.31664E-12-8.01665E-13
 -1     17503 1.92091E-01-5.87631E-02 5.32209E-10-1.72636E-01 7.00164E-13 3.43720E-13
 -1     17508 1.86524E-01-5.31960E-02-9.64189E-10-1.64973E-01 2.09097E-14-1.09075E-14
 -1     17509 1.58115E-01-2.47868E-02-9.62420E-10-1.79482E-01 1.33094E-12 8.06093E-13
 -1     17510 1.92091E-01-5.87631E-02 5.32204E-10-1.72636E-01-6.66691E-13-3.40371E-13
 -1     17515 1.86524E-01-5.31960E-02-9.61282E-10-1.64973E-01-1.60871E-13-8.42358E-14
 -1     17516 1.58115E-01-2.47868E-02-9.62815E-10-1.79482E-01-1.47951E-12-8.91810E-13
 -1     17517 1.92091E-01-5.87631E-02 5.32584E-10-1.72636E-01 1.03259E-12 5.31601E-13
 -1     17522 1.86524E-01-5.31960E-02-9.65493E-10-1.64973E-01 1.27499E-13 7.38683E-14
 -1     17523 1.58115E-01-2.47868E-02-9.62451E-10-1.79482E-01 1.68777E-12 1.04835E-12
 -1     17524 1.92091E-01-5.87631E-02 5.32053E-10-1.72636E-01-1.14238E-12-5.92278E-13
 -1     17529 1.86524E-01-5.31960E-02-9.60694E-10-1.64973E-01 2.64522E-12 1.32209E-12
 -1     17530 1.58115E-01-2.47868E-02-9.64165E-10-1.79482E-01 4.01664E-12 2.48029E-12
 -1     17531 1.92091E-01-5.87631E-02 5.33833E-10-1.72636E-01-2.02451E-12-1.04908E-12
 -1     17536 1.86524E-01-5.31960E-02-9.60812E-10-1.64973E-01-9.60582E-12-4.91862E-12
 -1     17537 1.58115E-01-2.47868E-02-9.69288E-10-1.79482E-01-2.05513E-11-1.25745E-11
 -1     17538 1.92091E-01-5.87631E-02 5.36222E-10-1.72636E-01 1.06866E-11 5.43007E-12
 -1     17543 1.86524E-01-5.31960E-02-9.80834E-10-1.64973E-01 3.63196E-11 1.84880E-11
 -1     17547 2.31637E-01-9.83091E-02-9.80531E-10-1.19860E-01-3.87217E-11-1.25955E-11
 -1     17548 2.09102E-01-7.57740E-02-9.69513E-10-1.42438E-01 2.22491E-11 9.20364E-12
 -1     17549 2.39300E-01-1.05972E-01 5.36093E-10-1.25427E-01-1.13676E-11-3.70774E-12
 -1     17554 2.31637E-01-9.83091E-02-9.60516E-10-1.19860E-01 1.03120E-11 3.33375E-12
 -1     17555 2.09102E-01-7.57740E-02-9.64389E-10-1.42438E-01-4.36929E-12-1.82577E-12
 -1     17556 2.39300E-01-1.05972E-01 5.33718E-10-1.25427E-01 2.19124E-12 7.04960E-13
 -1     17561 2.31637E-01-9.83091E-02-9.60361E-10-1.19860E-01-2.74898E-12-8.98181E-13
 -1     17562 2.09102E-01-7.57740E-02-9.62689E-10-1.42438E-01-1.81775E-12-7.73324E-13
 -1     17563 2.39300E-01-1.05972E-01 5.31945E-10-1.25427E-01 1.28598E-12 4.10970E-13
 -1     17568 2.31637E-01-9.83091E-02-9.65157E-10-1.19860E-01-7.92089E-14-2.79320E-14
 -1     17569 2.09102E-01-7.57740E-02-9.63056E-10-1.42438E-01 1.59322E-12 6.50040E-13
 -1     17570 2.39300E-01-1.05972E-01 5.32472E-10-1.25427E-01-1.08454E-12-3.43198E-13
 -1     17575 2.31637E-01-9.83091E-02-9.60967E-10-1.19860E-01 1.90418E-13 7.09028E-14
 -1     17576 2.09102E-01-7.57740E-02-9.62682E-10-1.42438E-01-1.40995E-12-5.92848E-13
 -1     17577 2.39300E-01-1.05972E-01 5.32086E-10-1.25427E-01 7.13521E-13 2.37809E-13
 -1     17582 2.31637E-01-9.83091E-02-9.63863E-10-1.19860E-01 3.99938E-15 1.13599E-14
 -1     17583 2.09102E-01-7.57740E-02-9.62676E-10-1.42438E-01 1.43072E-12 5.97527E-13
 -1     17584 2.39300E-01-1.05972E-01 5.32079E-10-1.25427E-01-7.19676E-13-2.26716E-13
 -1     17589 2.31637E-01-9.83091E-02-9.60970E-10-1.19860E-01-1.90046E-13-6.15003E-14
 -1     17590 2.09102E-01-7.57740E-02-9.63068E-10-1.42438E-01-1.60102E-12-6.39317E-13
 -1     17591 2.39300E-01-1.05972E-01 5.32474E-10-1.25427E-01 1.07754E-12 3.52550E-13
 -1     17596 2.31637E-01-9.83091E-02-9.65159E-10-1.19860E-01 9.61844E-14 2.48479E-14
 -1     17597 2.09102E-01-7.57740E-02-9.62683E-10-1.42438E-01 1.82949E-12 7.83606E-13
 -1     17598 2.39300E-01-1.05972E-01 5.31945E-10-1.25427E-01-1.28455E-12-4.13303E-13
 -1     17603 2.31637E-01-9.83091E-02-9.60364E-10-1.19860E-01 2.74720E-12 9.09153E-13
 -1     17604 2.09102E-01-7.57740E-02-9.64396E-10-1.42438E-01 4.37713E-12 1.82784E-12
 -1     17605 2.39300E-01-1.05972E-01 5.33718E-10-1.25427E-01-2.19644E-12-6.92380E-13
 -1     17610 2.31637E-01-9.83091E-02-9.60523E-10-1.19860E-01-1.03128E-11-3.32795E-12
 -1     17611 2.09102E-01-7.57740E-02-9.69512E-10-1.42438E-01-2.22518E-11-9.19799E-12
 -1     17612 2.39300E-01-1.05972E-01 5.36086E-10-1.25427E-01 1.13479E-11 3.70742E-12
 -1     17617 2.31637E-01-9.83091E-02-9.80528E-10-1.19860E-01 3.86838E-11 1.25932E-11
 -1     17621 2.60601E-01-1.27273E-01-9.80740E-10-6.30141E-02-4.02395E-11-6.41250E-12
 -1     17622 2.46146E-01-1.12818E-01-9.69578E-10-9.14508E-02 2.34118E-11 5.64807E-12
 -1     17623 2.69609E-01-1.36281E-01 5.36121E-10-6.59409E-02-1.18275E-11-1.90154E-12
 -1     17628 2.60601E-01-1.27273E-01-9.60755E-10-6.30141E-02 1.06515E-11 1.64781E-12
 -1     17629 2.46146E-01-1.12818E-01-9.64456E-10-9.14508E-02-4.61901E-12-1.07640E-12
 -1     17630 2.69609E-01-1.36281E-01 5.33724E-10-6.59409E-02 2.22870E-12 3.38508E-13
 -1     17635 2.60601E-01-1.27273E-01-9.60666E-10-6.30141E-02-2.91045E-12-4.79740E-13
 -1     17636 2.46146E-01-1.12818E-01-9.62750E-10-9.14508E-02-1.92325E-12-4.44995E-13
 -1     17637 2.69609E-01-1.36281E-01 5.31918E-10-6.59409E-02 1.28909E-12 1.99123E-13
 -1     17642 2.60601E-01-1.27273E-01-9.65498E-10-6.30141E-02-1.21065E-13-3.21126E-14
 -1     17643 2.46146E-01-1.12818E-01-9.63123E-10-9.14508E-02 1.66799E-12 4.24777E-13
 -1     17644 2.69609E-01-1.36281E-01 5.32431E-10-6.59409E-02-1.14751E-12-1.79791E-13
 -1     17649 2.60601E-01-1.27273E-01-9.61307E-10-6.30141E-02 1.72498E-13 2.65320E-14
 -1     17650 2.46146E-01-1.12818E-01-9.62744E-10-9.14508E-02-1.48755E-12-3.47498E-13
 -1     17651 2.69609E-01-1.36281E-01 5.32054E-10-6.59409E-02 7.40148E-13 1.20986E-13
 -1     17656 2.60601E-01-1.27273E-01-9.64193E-10-6.30141E-02-1.20902E-14 1.78187E-15
 -1     17657 2.46146E-01-1.12818E-01-9.62737E-10-9.14508E-02 1.49513E-12 3.64808E-13
 -1     17658 2.69609E-01-1.36281E-01 5.32057E-10-6.59409E-02-7.40006E-13-1.17436E-13
 -1     17663 2.60601E-01-1.27273E-01-9.61297E-10-6.30141E-02-1.81748E-13-2.26261E-14
 -1     17664 2.46146E-01-1.12818E-01-9.63121E-10-9.14508E-02-1.67049E-12-4.11006E-13
 -1     17665 2.69609E-01-1.36281E-01 5.32431E-10-6.59409E-02 1.15195E-12 1.84410E-13
 -1     17670 2.60601E-01-1.27273E-01-9.65484E-10-6.30141E-02 1.37137E-13 3.41218E-14
 -1     17671 2.46146E-01-1.12818E-01-9.62744E-10-9.14508E-02 1.92286E-12 4.44249E-13
 -1     17672 2.69609E-01-1.36281E-01 5.31925E-10-6.59409E-02-1.28059E-12-1.90321E-13
 -1     17677 2.60601E-01-1.27273E-01-9.60645E-10-6.30141E-02 2.91818E-12 4.91629E-13
 -1     17678 2.46146E-01-1.12818E-01-9.64457E-10-9.14508E-02 4.61764E-12 1.07916E-12
 -1     17679 2.69609E-01-1.36281E-01 5.33731E-10-6.59409E-02-2.24437E-12-3.30447E-13
 -1     17684 2.60601E-01-1.27273E-01-9.60756E-10-6.30141E-02-1.06656E-11-1.64295E-12
 -1     17685 2.46146E-01-1.12818E-01-9.69580E-10-9.14508E-02-2.34065E-11-5.64810E-12
 -1     17686 2.69609E-01-1.36281E-01 5.36126E-10-6.59409E-02 1.18473E-11 1.90698E-12
 -1     17691 2.60601E-01-1.27273E-01-9.80738E-10-6.30141E-02 4.02540E-11 6.41320E-12
 -1     17695 2.65622E-01-1.32294E-01-9.69280E-10-3.15118E-02 2.40268E-11 1.91864E-12
 -1     17699 2.65622E-01-1.32294E-01-9.64148E-10-3.15118E-02-4.71052E-12-3.36729E-13
 -1     17703 2.65622E-01-1.32294E-01-9.62423E-10-3.15118E-02-1.97594E-12-1.25107E-13
 -1     17707 2.65622E-01-1.32294E-01-9.62791E-10-3.15118E-02 1.72197E-12 1.56523E-13
 -1     17711 2.65622E-01-1.32294E-01-9.62398E-10-3.15118E-02-1.52855E-12-1.08349E-13
 -1     17715 2.65622E-01-1.32294E-01-9.62405E-10-3.15118E-02 1.53413E-12 1.20922E-13
 -1     17719 2.65622E-01-1.32294E-01-9.62783E-10-3.15118E-02-1.72333E-12-1.46536E-13
 -1     17723 2.65622E-01-1.32294E-01-9.62422E-10-3.15118E-02 1.97527E-12 1.36151E-13
 -1     17727 2.65622E-01-1.32294E-01-9.64148E-10-3.15118E-02 4.71333E-12 3.44989E-13
 -1     17731 2.65622E-01-1.32294E-01-9.69274E-10-3.15118E-02-2.40237E-11-1.91431E-12
 -1     17737-1.11463E-01 2.44791E-01-8.08849E-10-5.78768E-02-4.87203E-12-3.07490E-11
 -1     17738-1.16074E-01 2.49401E-01-7.96329E-10-2.89428E-02 1.79996E-12 2.28774E-11
 -1     17739-1.19369E-01 2.52697E-01 4.37885E-10-6.04458E-02-2.02005E-12-1.27672E-11
 -1     17744-1.11463E-01 2.44791E-01-7.88417E-10-5.78768E-02 1.41635E-12 8.96902E-12
 -1     17745-1.16074E-01 2.49401E-01-7.92131E-10-2.89428E-02-3.56197E-13-4.47622E-12
 -1     17746-1.19369E-01 2.52697E-01 4.34648E-10-6.04458E-02 3.08578E-13 1.97356E-12
 -1     17751-1.11463E-01 2.44791E-01-7.92847E-10-5.78768E-02-3.86237E-13-2.42294E-12
 -1     17752-1.16074E-01 2.49401E-01-7.92431E-10-2.89428E-02-9.76823E-15-1.00078E-13
 -1     17753-1.19369E-01 2.52697E-01 4.35006E-10-6.04458E-02-1.04821E-14-7.31170E-14
 -1     17758-1.11463E-01 2.44791E-01-7.93527E-10-5.78768E-02 5.95921E-14 3.68012E-13
 -1     17759-1.16074E-01 2.49401E-01-7.92963E-10-2.89428E-02 7.47453E-14 9.48813E-13
 -1     17760-1.19369E-01 2.52697E-01 4.35392E-10-6.04458E-02-1.04241E-13-6.45193E-13
 -1     17765-1.11463E-01 2.44791E-01-7.92042E-10-5.78768E-02 4.98983E-15 1.40780E-14
 -1     17766-1.16074E-01 2.49401E-01-7.92775E-10-2.89428E-02-7.41889E-14-9.72736E-13
 -1     17767-1.19369E-01 2.52697E-01 4.35183E-10-6.04458E-02 6.97249E-14 4.70841E-13
 -1     17772-1.11463E-01 2.44791E-01-7.93399E-10-5.78768E-02-6.72780E-16-2.08171E-15
 -1     17773-1.16074E-01 2.49401E-01-7.92771E-10-2.89428E-02 8.03371E-14 9.54688E-13
 -1     17774-1.19369E-01 2.52697E-01 4.35162E-10-6.04458E-02-8.00647E-14-4.71681E-13
 -1     17779-1.11463E-01 2.44791E-01-7.92032E-10-5.78768E-02-1.34405E-14-1.08400E-15
 -1     17780-1.16074E-01 2.49401E-01-7.92967E-10-2.89428E-02-7.14500E-14-9.43957E-13
 -1     17781-1.19369E-01 2.52697E-01 4.35398E-10-6.04458E-02 9.53757E-14 6.52851E-13
 -1     17786-1.11463E-01 2.44791E-01-7.93527E-10-5.78768E-02-6.96118E-14-3.80058E-13
 -1     17787-1.16074E-01 2.49401E-01-7.92439E-10-2.89428E-02 1.06531E-14 7.48338E-14
 -1     17788-1.19369E-01 2.52697E-01 4.34999E-10-6.04458E-02 1.77552E-15 5.66681E-14
 -1     17793-1.11463E-01 2.44791E-01-7.92857E-10-5.78768E-02 3.75236E-13 2.41536E-12
 -1     17794-1.16074E-01 2.49401E-01-7.92127E-10-2.89428E-02 3.54647E-13 4.47670E-12
 -1     17795-1.19369E-01 2.52697E-01 4.34656E-10-6.04458E-02-3.16804E-13-1.96573E-12
 -1     17800-1.11463E-01 2.44791E-01-7.88434E-10-5.78768E-02-1.41777E-12-8.94114E-12
 -1     17801-1.16074E-01 2.49401E-01-7.96331E-10-2.89428E-02-1.80370E-12-2.28834E-11
 -1     17802-1.19369E-01 2.52697E-01 4.37888E-10-6.04458E-02 2.02048E-12 1.27524E-11
 -1     17807-1.11463E-01 2.44791E-01-8.08870E-10-5.78768E-02 4.86887E-12 3.07452E-11
 -1     17811-8.48595E-02 2.18187E-01-8.08854E-10-1.10088E-01-9.63135E-12-2.95901E-11
 -1     17812-9.81859E-02 2.31514E-01-7.96347E-10-8.39952E-02 5.35179E-12 2.23106E-11
 -1     17813-9.15853E-02 2.24913E-01 4.37899E-10-1.14975E-01-4.00175E-12-1.22917E-11
 -1     17818-8.48595E-02 2.18187E-01-7.88420E-10-1.10088E-01 2.78154E-12 8.58606E-12
 -1     17819-9.81859E-02 2.31514E-01-7.92149E-10-8.39952E-02-1.05712E-12-4.35966E-12
 -1     17820-9.15853E-02 2.24913E-01 4.34654E-10-1.14975E-01 6.03490E-13 1.87309E-12
 -1     17825-8.48595E-02 2.18187E-01-7.92824E-10-1.10088E-01-7.58246E-13-2.33813E-12
 -1     17826-9.81859E-02 2.31514E-01-7.92450E-10-8.39952E-02-3.75556E-14-9.61252E-14
 -1     17827-9.15853E-02 2.24913E-01 4.35015E-10-1.14975E-01-2.93171E-14-6.57637E-14
 -1     17832-8.48595E-02 2.18187E-01-7.93499E-10-1.10088E-01 1.09850E-13 3.39639E-13
 -1     17833-9.81859E-02 2.31514E-01-7.92978E-10-8.39952E-02 2.06702E-13 9.18426E-13
 -1     17834-9.15853E-02 2.24913E-01 4.35404E-10-1.14975E-01-2.08360E-13-6.37359E-13
 -1     17839-8.48595E-02 2.18187E-01-7.92018E-10-1.10088E-01 4.59726E-15 1.59498E-14
 -1     17840-9.81859E-02 2.31514E-01-7.92796E-10-8.39952E-02-2.36809E-13-9.30895E-13
 -1     17841-9.15853E-02 2.24913E-01 4.35173E-10-1.14975E-01 1.41305E-13 4.47617E-13
 -1     17846-8.48595E-02 2.18187E-01-7.93388E-10-1.10088E-01 3.27083E-16 9.74210E-15
 -1     17847-9.81859E-02 2.31514E-01-7.92788E-10-8.39952E-02 2.23422E-13 9.33888E-13
 -1     17848-9.15853E-02 2.24913E-01 4.35184E-10-1.14975E-01-1.40822E-13-4.41642E-13
 -1     17853-8.48595E-02 2.18187E-01-7.92024E-10-1.10088E-01-1.05211E-14-1.42748E-14
 -1     17854-9.81859E-02 2.31514E-01-7.92979E-10-8.39952E-02-2.30298E-13-9.13262E-13
 -1     17855-9.15853E-02 2.24913E-01 4.35400E-10-1.14975E-01 1.97931E-13 6.22464E-13
 -1     17860-8.48595E-02 2.18187E-01-7.93518E-10-1.10088E-01-1.13262E-13-3.30642E-13
 -1     17861-9.81859E-02 2.31514E-01-7.92457E-10-8.39952E-02 2.06419E-14 8.91194E-14
 -1     17862-9.15853E-02 2.24913E-01 4.35007E-10-1.14975E-01 2.46758E-14 8.98138E-14
 -1     17867-8.48595E-02 2.18187E-01-7.92861E-10-1.10088E-01 7.59336E-13 2.35141E-12
 -1     17868-9.81859E-02 2.31514E-01-7.92149E-10-8.39952E-02 1.04171E-12 4.37183E-12
 -1     17869-9.15853E-02 2.24913E-01 4.34646E-10-1.14975E-01-6.13697E-13-1.88331E-12
 -1     17874-8.48595E-02 2.18187E-01-7.88418E-10-1.10088E-01-2.78754E-12-8.60551E-12
 -1     17875-9.81859E-02 2.31514E-01-7.96351E-10-8.39952E-02-5.36675E-12-2.23324E-11
 -1     17876-9.15853E-02 2.24913E-01 4.37894E-10-1.14975E-01 3.99594E-12 1.22902E-11
 -1     17881-8.48595E-02 2.18187E-01-8.08842E-10-1.10088E-01 9.61520E-12 2.95961E-11
 -1     17885-4.34243E-02 1.76752E-01-8.08941E-10-1.51524E-01-1.41455E-11-2.77101E-11
 -1     17886-6.41616E-02 1.97490E-01-7.96346E-10-1.30826E-01 8.78969E-12 2.12019E-11
 -1     17887-4.83108E-02 1.81639E-01 4.37943E-10-1.58249E-01-5.88670E-12-1.15096E-11
 -1     17892-4.34243E-02 1.76752E-01-7.88501E-10-1.51524E-01 4.08974E-12 8.05529E-12
 -1     17893-6.41616E-02 1.97490E-01-7.92149E-10-1.30826E-01-1.70219E-12-4.15688E-12
 -1     17894-4.83108E-02 1.81639E-01 4.34710E-10-1.58249E-01 8.92853E-13 1.77557E-12
 -1     17899-4.34243E-02 1.76752E-01-7.92912E-10-1.51524E-01-1.13106E-12-2.19495E-12
 -1     17900-6.41616E-02 1.97490E-01-7.92441E-10-1.30826E-01-3.08954E-14-8.85583E-14
 -1     17901-4.83108E-02 1.81639E-01 4.35065E-10-1.58249E-01-4.26517E-14-6.65636E-14
 -1     17906-4.34243E-02 1.76752E-01-7.93559E-10-1.51524E-01 1.51962E-13 3.35763E-13
 -1     17907-6.41616E-02 1.97490E-01-7.92980E-10-1.30826E-01 3.67062E-13 8.72408E-13
 -1     17908-4.83108E-02 1.81639E-01 4.35468E-10-1.58249E-01-3.07852E-13-5.95559E-13
 -1     17913-4.34243E-02 1.76752E-01-7.92065E-10-1.51524E-01-2.09441E-15 1.39844E-14
 -1     17914-6.41616E-02 1.97490E-01-7.92791E-10-1.30826E-01-3.65299E-13-8.90629E-13
 -1     17915-4.83108E-02 1.81639E-01 4.35252E-10-1.58249E-01 2.11937E-13 4.29608E-13
 -1     17920-4.34243E-02 1.76752E-01-7.93425E-10-1.51524E-01 7.60328E-15-3.93401E-15
 -1     17921-6.41616E-02 1.97490E-01-7.92789E-10-1.30826E-01 3.78525E-13 8.99464E-13
 -1     17922-4.83108E-02 1.81639E-01 4.35243E-10-1.58249E-01-2.11231E-13-4.08758E-13
 -1     17927-4.34243E-02 1.76752E-01-7.92079E-10-1.51524E-01 1.07455E-14 9.54229E-15
 -1     17928-6.41616E-02 1.97490E-01-7.92987E-10-1.30826E-01-3.61170E-13-8.68239E-13
 -1     17929-4.83108E-02 1.81639E-01 4.35458E-10-1.58249E-01 3.12984E-13 6.01981E-13
 -1     17934-4.34243E-02 1.76752E-01-7.93572E-10-1.51524E-01-1.46470E-13-3.29039E-13
 -1     17935-6.41616E-02 1.97490E-01-7.92451E-10-1.30826E-01 3.83635E-14 1.05580E-13
 -1     17936-4.83108E-02 1.81639E-01 4.35066E-10-1.58249E-01 4.11430E-14 7.36023E-14
 -1     17941-4.34243E-02 1.76752E-01-7.92902E-10-1.51524E-01 1.12874E-12 2.18447E-12
 -1     17942-6.41616E-02 1.97490E-01-7.92157E-10-1.30826E-01 1.71784E-12 4.15071E-12
 -1     17943-4.83108E-02 1.81639E-01 4.34708E-10-1.58249E-01-8.87320E-13-1.77159E-12
 -1     17948-4.34243E-02 1.76752E-01-7.88497E-10-1.51524E-01-4.09310E-12-8.05957E-12
 -1     17949-6.41616E-02 1.97490E-01-7.96344E-10-1.30826E-01-8.78852E-12-2.12101E-11
 -1     17950-4.83108E-02 1.81639E-01 4.37943E-10-1.58249E-01 5.87618E-12 1.15113E-11
 -1     17955-4.34243E-02 1.76752E-01-8.08922E-10-1.51524E-01 1.41494E-11 2.77227E-11
 -1     17959 8.78716E-03 1.24541E-01-8.08824E-10-1.78127E-01-1.82844E-11-2.51528E-11
 -1     17960-1.73312E-02 1.50659E-01-7.96278E-10-1.64850E-01 1.19997E-11 1.95656E-11
 -1     17961 6.21814E-03 1.27110E-01 4.37908E-10-1.86033E-01-7.57696E-12-1.04390E-11
 -1     17966 8.78716E-03 1.24541E-01-7.88369E-10-1.78127E-01 5.34349E-12 7.33721E-12
 -1     17967-1.73312E-02 1.50659E-01-7.92089E-10-1.64850E-01-2.33541E-12-3.84167E-12
 -1     17968 6.21814E-03 1.27110E-01 4.34673E-10-1.86033E-01 1.19916E-12 1.61191E-12
 -1     17973 8.78716E-03 1.24541E-01-7.92785E-10-1.78127E-01-1.40288E-12-1.97401E-12
 -1     17974-1.73312E-02 1.50659E-01-7.92397E-10-1.64850E-01-3.98630E-14-9.77420E-14
 -1     17975 6.21814E-03 1.27110E-01 4.35056E-10-1.86033E-01-2.06040E-14-6.21603E-14
 -1     17980 8.78716E-03 1.24541E-01-7.93451E-10-1.78127E-01 2.23864E-13 3.00459E-13
 -1     17981-1.73312E-02 1.50659E-01-7.92930E-10-1.64850E-01 5.00238E-13 8.05300E-13
 -1     17982 6.21814E-03 1.27110E-01 4.35445E-10-1.86033E-01-3.65816E-13-5.24308E-13
 -1     17987 8.78716E-03 1.24541E-01-7.91957E-10-1.78127E-01 1.95605E-14 8.44805E-15
 -1     17988-1.73312E-02 1.50659E-01-7.92740E-10-1.64850E-01-5.02872E-13-8.29818E-13
 -1     17989 6.21814E-03 1.27110E-01 4.35225E-10-1.86033E-01 2.81016E-13 3.69336E-13
 -1     17994 8.78716E-03 1.24541E-01-7.93315E-10-1.78127E-01 4.35241E-15-9.49163E-15
 -1     17995-1.73312E-02 1.50659E-01-7.92739E-10-1.64850E-01 5.17874E-13 8.40065E-13
 -1     17996 6.21814E-03 1.27110E-01 4.35228E-10-1.86033E-01-2.65803E-13-3.71571E-13
 -1     18001 8.78716E-03 1.24541E-01-7.91945E-10-1.78127E-01-1.52431E-15-1.80795E-14
 -1     18002-1.73312E-02 1.50659E-01-7.92930E-10-1.64850E-01-5.00955E-13-8.02685E-13
 -1     18003 6.21814E-03 1.27110E-01 4.35448E-10-1.86033E-01 3.79072E-13 5.11191E-13
 -1     18008 8.78716E-03 1.24541E-01-7.93437E-10-1.78127E-01-2.27262E-13-2.82922E-13
 -1     18009-1.73312E-02 1.50659E-01-7.92398E-10-1.64850E-01 4.73826E-14 9.48040E-14
 -1     18010 6.21814E-03 1.27110E-01 4.35048E-10-1.86033E-01 4.36682E-14 6.19053E-14
 -1     18015 8.78716E-03 1.24541E-01-7.92779E-10-1.78127E-01 1.43294E-12 1.96002E-12
 -1     18016-1.73312E-02 1.50659E-01-7.92088E-10-1.64850E-01 2.34321E-12 3.83289E-12
 -1     18017 6.21814E-03 1.27110E-01 4.34677E-10-1.86033E-01-1.18701E-12-1.61750E-12
 -1     18022 8.78716E-03 1.24541E-01-7.88372E-10-1.78127E-01-5.34253E-12-7.33690E-12
 -1     18023-1.73312E-02 1.50659E-01-7.96273E-10-1.64850E-01-1.20002E-11-1.95655E-11
 -1     18024 6.21814E-03 1.27110E-01 4.37905E-10-1.86033E-01 7.57201E-12 1.04436E-11
 -1     18029 8.78716E-03 1.24541E-01-8.08820E-10-1.78127E-01 1.82771E-11 2.51645E-11
 -1     18033 6.66640E-02 6.66640E-02-8.08729E-10-1.87293E-01-2.19745E-11-2.20131E-11
 -1     18034 3.77212E-02 9.56068E-02-7.96456E-10-1.82737E-01 1.48987E-11 1.74550E-11
 -1     18035 6.66640E-02 6.66640E-02 4.37834E-10-1.95607E-01-9.11735E-12-9.13577E-12
 -1     18040 6.66640E-02 6.66640E-02-7.88302E-10-1.87293E-01 6.44250E-12 6.40708E-12
 -1     18041 3.77212E-02 9.56068E-02-7.92258E-10-1.82737E-01-2.93302E-12-3.40869E-12
 -1     18042 6.66640E-02 6.66640E-02 4.34597E-10-1.95607E-01 1.42596E-12 1.41404E-12
 -1     18047 6.66640E-02 6.66640E-02-7.92727E-10-1.87293E-01-1.72131E-12-1.69035E-12
 -1     18048 3.77212E-02 9.56068E-02-7.92561E-10-1.82737E-01-7.80352E-14-6.18419E-14
 -1     18049 6.66640E-02 6.66640E-02 4.34954E-10-1.95607E-01-3.76816E-14-2.74812E-14
 -1     18054 6.66640E-02 6.66640E-02-7.93388E-10-1.87293E-01 2.64887E-13 2.53365E-13
 -1     18055 3.77212E-02 9.56068E-02-7.93101E-10-1.82737E-01 6.07341E-13 7.13859E-13
 -1     18056 6.66640E-02 6.66640E-02 4.35345E-10-1.95607E-01-4.88505E-13-4.91787E-13
 -1     18061 6.66640E-02 6.66640E-02-7.91911E-10-1.87293E-01 1.30910E-14-8.20255E-15
 -1     18062 3.77212E-02 9.56068E-02-7.92904E-10-1.82737E-01-6.37069E-13-7.38799E-13
 -1     18063 6.66640E-02 6.66640E-02 4.35124E-10-1.95607E-01 3.35823E-13 3.14771E-13
 -1     18068 6.66640E-02 6.66640E-02-7.93269E-10-1.87293E-01-3.71992E-15 1.77564E-14
 -1     18069 3.77212E-02 9.56068E-02-7.92911E-10-1.82737E-01 6.53526E-13 7.40085E-13
 -1     18070 6.66640E-02 6.66640E-02 4.35132E-10-1.95607E-01-3.43066E-13-3.22540E-13
 -1     18075 6.66640E-02 6.66640E-02-7.91911E-10-1.87293E-01-8.11428E-15-9.92153E-15
 -1     18076 3.77212E-02 9.56068E-02-7.93098E-10-1.82737E-01-6.01415E-13-7.19636E-13
 -1     18077 6.66640E-02 6.66640E-02 4.35337E-10-1.95607E-01 4.65451E-13 4.82726E-13
 -1     18082 6.66640E-02 6.66640E-02-7.93400E-10-1.87293E-01-2.67281E-13-2.60650E-13
 -1     18083 3.77212E-02 9.56068E-02-7.92564E-10-1.82737E-01 8.02452E-14 5.97165E-14
 -1     18084 6.66640E-02 6.66640E-02 4.34949E-10-1.95607E-01 3.53621E-14 5.17979E-14
 -1     18089 6.66640E-02 6.66640E-02-7.92720E-10-1.87293E-01 1.71139E-12 1.74355E-12
 -1     18090 3.77212E-02 9.56068E-02-7.92265E-10-1.82737E-01 2.94098E-12 3.40972E-12
 -1     18091 6.66640E-02 6.66640E-02 4.34590E-10-1.95607E-01-1.40580E-12-1.39654E-12
 -1     18096 6.66640E-02 6.66640E-02-7.88303E-10-1.87293E-01-6.41602E-12-6.39814E-12
 -1     18097 3.77212E-02 9.56068E-02-7.96466E-10-1.82737E-01-1.48995E-11-1.74659E-11
 -1     18098 6.66640E-02 6.66640E-02 4.37835E-10-1.95607E-01 9.12489E-12 9.14626E-12
 -1     18103 6.66640E-02 6.66640E-02-8.08727E-10-1.87293E-01 2.19851E-11 2.19883E-11
 -1     18107 1.24541E-01 8.78716E-03-8.09016E-10-1.78127E-01-2.52202E-11-1.82994E-11
 -1     18108 9.56068E-02 3.77212E-02-7.96350E-10-1.82737E-01 1.74481E-11 1.49146E-11
 -1     18109 1.27110E-01 6.21814E-03 4.37974E-10-1.86033E-01-1.04889E-11-7.59338E-12
 -1     18114 1.24541E-01 8.78716E-03-7.88580E-10-1.78127E-01 7.27119E-12 5.29182E-12
 -1     18115 9.56068E-02 3.77212E-02-7.92157E-10-1.82737E-01-3.42725E-12-2.88953E-12
 -1     18116 1.27110E-01 6.21814E-03 4.34722E-10-1.86033E-01 1.56296E-12 1.15891E-12
 -1     18121 1.24541E-01 8.78716E-03-7.93028E-10-1.78127E-01-2.03477E-12-1.45822E-12
 -1     18122 9.56068E-02 3.77212E-02-7.92445E-10-1.82737E-01-8.60647E-14-3.67724E-14
 -1     18123 1.27110E-01 6.21814E-03 4.35075E-10-1.86033E-01-8.43093E-14-5.41906E-14
 -1     18128 1.24541E-01 8.78716E-03-7.93719E-10-1.78127E-01 2.49783E-13 2.06159E-13
 -1     18129 9.56068E-02 3.77212E-02-7.92978E-10-1.82737E-01 7.04350E-13 6.24383E-13
 -1     18130 1.27110E-01 6.21814E-03 4.35445E-10-1.86033E-01-5.45238E-13-3.85196E-13
 -1     18135 1.24541E-01 8.78716E-03-7.92242E-10-1.78127E-01-1.38106E-14 8.07253E-15
 -1     18136 9.56068E-02 3.77212E-02-7.92773E-10-1.82737E-01-7.45550E-13-6.26823E-13
 -1     18137 1.27110E-01 6.21814E-03 4.35220E-10-1.86033E-01 3.58841E-13 2.76952E-13
 -1     18142 1.24541E-01 8.78716E-03-7.93612E-10-1.78127E-01 8.64417E-15-2.20746E-16
 -1     18143 9.56068E-02 3.77212E-02-7.92777E-10-1.82737E-01 7.41497E-13 6.29728E-13
 -1     18144 1.27110E-01 6.21814E-03 4.35220E-10-1.86033E-01-3.61523E-13-2.68218E-13
 -1     18149 1.24541E-01 8.78716E-03-7.92246E-10-1.78127E-01 3.78105E-15 5.13961E-15
 -1     18150 9.56068E-02 3.77212E-02-7.92970E-10-1.82737E-01-7.03731E-13-6.17678E-13
 -1     18151 1.27110E-01 6.21814E-03 4.35441E-10-1.86033E-01 5.56939E-13 3.89652E-13
 -1     18156 1.24541E-01 8.78716E-03-7.93727E-10-1.78127E-01-2.42753E-13-2.19621E-13
 -1     18157 9.56068E-02 3.77212E-02-7.92446E-10-1.82737E-01 8.03108E-14 4.45323E-14
 -1     18158 1.27110E-01 6.21814E-03 4.35063E-10-1.86033E-01 7.41702E-14 4.53622E-14
 -1     18163 1.24541E-01 8.78716E-03-7.93042E-10-1.78127E-01 2.01299E-12 1.45049E-12
 -1     18164 9.56068E-02 3.77212E-02-7.92155E-10-1.82737E-01 3.43504E-12 2.90736E-12
 -1     18165 1.27110E-01 6.21814E-03 4.34724E-10-1.86033E-01-1.57657E-12-1.16390E-12
 -1     18170 1.24541E-01 8.78716E-03-7.88611E-10-1.78127E-01-7.26843E-12-5.31264E-12
 -1     18171 9.56068E-02 3.77212E-02-7.96359E-10-1.82737E-01-1.74465E-11-1.49248E-11
 -1     18172 1.27110E-01 6.21814E-03 4.37970E-10-1.86033E-01 1.04902E-11 7.59259E-12
 -1     18177 1.24541E-01 8.78716E-03-8.09029E-10-1.78127E-01 2.52157E-11 1.82976E-11
 -1     18181 1.76752E-01-4.34243E-02-8.08968E-10-1.51524E-01-2.77396E-11-1.41081E-11
 -1     18182 1.50659E-01-1.73312E-02-7.96168E-10-1.64850E-01 1.95951E-11 1.19869E-11
 -1     18183 1.81639E-01-4.83108E-02 4.37973E-10-1.58249E-01-1.15059E-11-5.83774E-12
 -1     18188 1.76752E-01-4.34243E-02-7.88510E-10-1.51524E-01 8.05406E-12 4.15052E-12
 -1     18189 1.50659E-01-1.73312E-02-7.91976E-10-1.64850E-01-3.82000E-12-2.36675E-12
 -1     18190 1.81639E-01-4.83108E-02 4.34755E-10-1.58249E-01 1.77286E-12 9.32344E-13
 -1     18195 1.76752E-01-4.34243E-02-7.92919E-10-1.51524E-01-2.20476E-12-1.08562E-12
 -1     18196 1.50659E-01-1.73312E-02-7.92275E-10-1.64850E-01-6.66181E-14-6.08991E-14
 -1     18197 1.81639E-01-4.83108E-02 4.35111E-10-1.58249E-01-7.19662E-14-2.01889E-14
 -1     18202 1.76752E-01-4.34243E-02-7.93571E-10-1.51524E-01 3.11473E-13 1.74222E-13
 -1     18203 1.50659E-01-1.73312E-02-7.92809E-10-1.64850E-01 8.05548E-13 4.95572E-13
 -1     18204 1.81639E-01-4.83108E-02 4.35515E-10-1.58249E-01-6.06309E-13-2.98626E-13
 -1     18209 1.76752E-01-4.34243E-02-7.92059E-10-1.51524E-01-9.68342E-15-3.05464E-16
 -1     18210 1.50659E-01-1.73312E-02-7.92601E-10-1.64850E-01-8.24940E-13-5.13589E-13
 -1     18211 1.81639E-01-4.83108E-02 4.35306E-10-1.58249E-01 4.27703E-13 2.08105E-13
 -1     18216 1.76752E-01-4.34243E-02-7.93416E-10-1.51524E-01 1.95133E-15-1.00350E-15
 -1     18217 1.50659E-01-1.73312E-02-7.92611E-10-1.64850E-01 8.22003E-13 5.15119E-13
 -1     18218 1.81639E-01-4.83108E-02 4.35296E-10-1.58249E-01-3.97358E-13-2.17090E-13
 -1     18223 1.76752E-01-4.34243E-02-7.92070E-10-1.51524E-01 2.05817E-14-5.06814E-15
 -1     18224 1.50659E-01-1.73312E-02-7.92802E-10-1.64850E-01-7.91679E-13-4.82947E-13
 -1     18225 1.81639E-01-4.83108E-02 4.35511E-10-1.58249E-01 5.99894E-13 3.03789E-13
 -1     18230 1.76752E-01-4.34243E-02-7.93562E-10-1.51524E-01-2.81284E-13-1.64428E-13
 -1     18231 1.50659E-01-1.73312E-02-7.92276E-10-1.64850E-01 6.81813E-14 6.67803E-14
 -1     18232 1.81639E-01-4.83108E-02 4.35112E-10-1.58249E-01 8.37634E-14 2.86435E-14
 -1     18237 1.76752E-01-4.34243E-02-7.92914E-10-1.51524E-01 2.21658E-12 1.10348E-12
 -1     18238 1.50659E-01-1.73312E-02-7.91973E-10-1.64850E-01 3.82048E-12 2.37212E-12
 -1     18239 1.81639E-01-4.83108E-02 4.34733E-10-1.58249E-01-1.76360E-12-9.23935E-13
 -1     18244 1.76752E-01-4.34243E-02-7.88521E-10-1.51524E-01-8.04280E-12-4.13994E-12
 -1     18245 1.50659E-01-1.73312E-02-7.96172E-10-1.64850E-01-1.95866E-11-1.19815E-11
 -1     18246 1.81639E-01-4.83108E-02 4.37964E-10-1.58249E-01 1.15129E-11 5.84393E-12
 -1     18251 1.76752E-01-4.34243E-02-8.08980E-10-1.51524E-01 2.77421E-11 1.41167E-11
 -1     18255 2.18187E-01-8.48595E-02-8.08600E-10-1.10088E-01-2.95322E-11-9.62445E-12
 -1     18256 1.97490E-01-6.41616E-02-7.96439E-10-1.30826E-01 2.12225E-11 8.76122E-12
 -1     18257 2.24913E-01-9.15853E-02 4.37823E-10-1.14975E-01-1.22432E-11-3.99788E-12
 -1     18262 2.18187E-01-8.48595E-02-7.88129E-10-1.10088E-01 8.68419E-12 2.81708E-12
 -1     18263 1.97490E-01-6.41616E-02-7.92252E-10-1.30826E-01-4.14756E-12-1.74802E-12
 -1     18264 2.24913E-01-9.15853E-02 4.34610E-10-1.14975E-01 1.93045E-12 6.21897E-13
 -1     18269 2.18187E-01-8.48595E-02-7.92505E-10-1.10088E-01-2.25689E-12-7.29265E-13
 -1     18270 1.97490E-01-6.41616E-02-7.92569E-10-1.30826E-01-7.95505E-14-6.34561E-14
 -1     18271 2.24913E-01-9.15853E-02 4.35001E-10-1.14975E-01-1.65482E-14-9.60637E-15
 -1     18276 2.18187E-01-8.48595E-02-7.93157E-10-1.10088E-01 4.12898E-13 1.30455E-13
 -1     18277 1.97490E-01-6.41616E-02-7.93110E-10-1.30826E-01 8.86657E-13 3.35124E-13
 -1     18278 2.24913E-01-9.15853E-02 4.35396E-10-1.14975E-01-5.80722E-13-1.89617E-13
 -1     18283 2.18187E-01-8.48595E-02-7.91651E-10-1.10088E-01 7.71599E-14 1.70175E-14
 -1     18284 1.97490E-01-6.41616E-02-7.92913E-10-1.30826E-01-8.85139E-13-3.81749E-13
 -1     18285 2.24913E-01-9.15853E-02 4.35201E-10-1.14975E-01 4.59686E-13 1.52673E-13
 -1     18290 2.18187E-01-8.48595E-02-7.92998E-10-1.10088E-01-5.04208E-15 7.15508E-16
 -1     18291 1.97490E-01-6.41616E-02-7.92910E-10-1.30826E-01 8.89887E-13 3.73421E-13
 -1     18292 2.24913E-01-9.15853E-02 4.35203E-10-1.14975E-01-4.56023E-13-1.41474E-13
 -1     18297 2.18187E-01-8.48595E-02-7.91625E-10-1.10088E-01-4.63229E-14-1.75112E-14
 -1     18298 1.97490E-01-6.41616E-02-7.93109E-10-1.30826E-01-8.59845E-13-3.49614E-13
 -1     18299 2.24913E-01-9.15853E-02 4.35415E-10-1.14975E-01 6.12523E-13 1.95644E-13
 -1     18304 2.18187E-01-8.48595E-02-7.93129E-10-1.10088E-01-4.03460E-13-1.21693E-13
 -1     18305 1.97490E-01-6.41616E-02-7.92557E-10-1.30826E-01 8.87880E-14 7.12770E-14
 -1     18306 2.24913E-01-9.15853E-02 4.35013E-10-1.14975E-01 1.63369E-14 2.32024E-14
 -1     18311 2.18187E-01-8.48595E-02-7.92495E-10-1.10088E-01 2.26042E-12 7.55191E-13
 -1     18312 1.97490E-01-6.41616E-02-7.92250E-10-1.30826E-01 4.17268E-12 1.75548E-12
 -1     18313 2.24913E-01-9.15853E-02 4.34616E-10-1.14975E-01-1.92461E-12-6.17249E-13
 -1     18318 2.18187E-01-8.48595E-02-7.88123E-10-1.10088E-01-8.67280E-12-2.80416E-12
 -1     18319 1.97490E-01-6.41616E-02-7.96446E-10-1.30826E-01-2.11973E-11-8.76494E-12
 -1     18320 2.24913E-01-9.15853E-02 4.37812E-10-1.14975E-01 1.22496E-11 4.00219E-12
 -1     18325 2.18187E-01-8.48595E-02-8.08600E-10-1.10088E-01 2.95592E-11 9.61777E-12
 -1     18329 2.44791E-01-1.11463E-01-8.08839E-10-5.78768E-02-3.07243E-11-4.92179E-12
 -1     18330 2.31514E-01-9.81859E-02-7.96536E-10-8.39952E-02 2.23028E-11 5.39835E-12
 -1     18331 2.52697E-01-1.19369E-01 4.37847E-10-6.04458E-02-1.27524E-11-2.06494E-12
 -1     18336 2.44791E-01-1.11463E-01-7.88438E-10-5.78768E-02 8.94853E-12 1.34358E-12
 -1     18337 2.31514E-01-9.81859E-02-7.92346E-10-8.39952E-02-4.38272E-12-1.00425E-12
 -1     18338 2.52697E-01-1.19369E-01 4.34595E-10-6.04458E-02 1.96111E-12 2.75488E-13
 -1     18343 2.44791E-01-1.11463E-01-7.92856E-10-5.78768E-02-2.39566E-12-4.30146E-13
 -1     18344 2.31514E-01-9.81859E-02-7.92653E-10-8.39952E-02-1.08212E-13 1.52915E-14
 -1     18345 2.52697E-01-1.19369E-01 4.34945E-10-6.04458E-02-5.90099E-14-2.66567E-14
 -1     18350 2.44791E-01-1.11463E-01-7.93535E-10-5.78768E-02 3.51729E-13 4.26747E-14
 -1     18351 2.31514E-01-9.81859E-02-7.93189E-10-8.39952E-02 9.20451E-13 2.37173E-13
 -1     18352 2.52697E-01-1.19369E-01 4.35318E-10-6.04458E-02-6.63182E-13-1.07137E-13
 -1     18357 2.44791E-01-1.11463E-01-7.92060E-10-5.78768E-02 9.20060E-15 8.62079E-16
 -1     18358 2.31514E-01-9.81859E-02-7.93009E-10-8.39952E-02-9.56873E-13-2.18099E-13
 -1     18359 2.52697E-01-1.19369E-01 4.35102E-10-6.04458E-02 4.51477E-13 7.63653E-14
 -1     18364 2.44791E-01-1.11463E-01-7.93428E-10-5.78768E-02-2.87386E-15 8.09778E-15
 -1     18365 2.31514E-01-9.81859E-02-7.93003E-10-8.39952E-02 9.50521E-13 2.23781E-13
 -1     18366 2.52697E-01-1.19369E-01 4.35118E-10-6.04458E-02-4.59534E-13-6.63366E-14
 -1     18371 2.44791E-01-1.11463E-01-7.92056E-10-5.78768E-02-1.93311E-14 1.25149E-14
 -1     18372 2.31514E-01-9.81859E-02-7.93188E-10-8.39952E-02-9.07383E-13-2.37417E-13
 -1     18373 2.52697E-01-1.19369E-01 4.35346E-10-6.04458E-02 6.57700E-13 1.17414E-13
 -1     18378 2.44791E-01-1.11463E-01-7.93528E-10-5.78768E-02-3.65417E-13-3.35952E-14
 -1     18379 2.31514E-01-9.81859E-02-7.92645E-10-8.39952E-02 1.10971E-13 2.62297E-15
 -1     18380 2.52697E-01-1.19369E-01 4.34959E-10-6.04458E-02 7.92654E-14 2.92206E-14
 -1     18385 2.44791E-01-1.11463E-01-7.92851E-10-5.78768E-02 2.42082E-12 4.17415E-13
 -1     18386 2.31514E-01-9.81859E-02-7.92347E-10-8.39952E-02 4.37992E-12 1.01421E-12
 -1     18387 2.52697E-01-1.19369E-01 4.34603E-10-6.04458E-02-1.97450E-12-2.73690E-13
 -1     18392 2.44791E-01-1.11463E-01-7.88416E-10-5.78768E-02-8.96474E-12-1.34673E-12
 -1     18393 2.31514E-01-9.81859E-02-7.96537E-10-8.39952E-02-2.22905E-11-5.38883E-12
 -1     18394 2.52697E-01-1.19369E-01 4.37856E-10-6.04458E-02 1.27616E-11 2.06726E-12
 -1     18399 2.44791E-01-1.11463E-01-8.08828E-10-5.78768E-02 3.07279E-11 4.92498E-12
 -1     18403 2.49401E-01-1.16074E-01-7.96161E-10-2.89428E-02 2.28887E-11 1.84220E-12
 -1     18407 2.49401E-01-1.16074E-01-7.91941E-10-2.89428E-02-4.46123E-12-3.07541E-13
 -1     18411 2.49401E-01-1.16074E-01-7.92223E-10-2.89428E-02-8.81400E-14 2.77217E-14
 -1     18415 2.49401E-01-1.16074E-01-7.92754E-10-2.89428E-02 9.40533E-13 9.75689E-14
 -1     18419 2.49401E-01-1.16074E-01-7.92563E-10-2.89428E-02-9.67221E-13-6.84978E-14
 -1     18423 2.49401E-01-1.16074E-01-7.92561E-10-2.89428E-02 9.78539E-13 6.96756E-14
 -1     18427 2.49401E-01-1.16074E-01-7.92749E-10-2.89428E-02-9.42561E-13-9.26607E-14
 -1     18431 2.49401E-01-1.16074E-01-7.92229E-10-2.89428E-02 8.78056E-14-2.66935E-14
 -1     18435 2.49401E-01-1.16074E-01-7.91948E-10-2.89428E-02 4.46579E-12 3.13180E-13
 -1     18439 2.49401E-01-1.16074E-01-7.96156E-10-2.89428E-02-2.28979E-11-1.83522E-12
 -1     18445-9.75087E-02 2.30837E-01-6.73782E-10-5.33429E-02-3.88087E-12-2.44927E-11
 -1     18446-1.01758E-01 2.35086E-01-6.63209E-10-2.66755E-02 1.40438E-12 1.78593E-11
 -1     18447-1.04487E-01 2.37815E-01 3.63275E-10-5.56102E-02-1.57089E-12-9.93153E-12
 -1     18452-9.75087E-02 2.30837E-01-6.55017E-10-5.33429E-02 1.10488E-12 6.96962E-12
 -1     18453-1.01758E-01 2.35086E-01-6.59708E-10-2.66755E-02-3.25636E-13-4.13320E-12
 -1     18454-1.04487E-01 2.37815E-01 3.60923E-10-5.56102E-02 3.57751E-13 2.27735E-12
 -1     18459-9.75087E-02 2.30837E-01-6.61204E-10-5.33429E-02-3.05590E-13-1.96853E-12
 -1     18460-1.01758E-01 2.35086E-01-6.59627E-10-2.66755E-02 6.82111E-15 1.19911E-13
 -1     18461-1.04487E-01 2.37815E-01 3.60853E-10-5.56102E-02-3.07675E-14-2.24916E-13
 -1     18466-9.75087E-02 2.30837E-01-6.59558E-10-5.33429E-02 5.98202E-14 3.62263E-13
 -1     18467-1.01758E-01 2.35086E-01-6.59916E-10-2.66755E-02 4.19191E-14 6.15806E-13
 -1     18468-1.04487E-01 2.37815E-01 3.60991E-10-5.56102E-02-5.08126E-14-3.05041E-13
 -1     18473-9.75087E-02 2.30837E-01-6.59773E-10-5.33429E-02-1.08882E-14-1.73600E-14
 -1     18474-1.01758E-01 2.35086E-01-6.59771E-10-2.66755E-02-6.18837E-14-7.40980E-13
 -1     18475-1.04487E-01 2.37815E-01 3.60879E-10-5.56102E-02 4.82934E-14 3.31609E-13
 -1     18480-9.75087E-02 2.30837E-01-6.59958E-10-5.33429E-02-5.93237E-15 1.72304E-14
 -1     18481-1.01758E-01 2.35086E-01-6.59776E-10-2.66755E-02 5.70280E-14 7.38534E-13
 -1     18482-1.04487E-01 2.37815E-01 3.60878E-10-5.56102E-02-5.54019E-14-3.04754E-13
 -1     18487-9.75087E-02 2.30837E-01-6.59778E-10-5.33429E-02 1.29109E-14 3.76895E-14
 -1     18488-1.01758E-01 2.35086E-01-6.59915E-10-2.66755E-02-4.15736E-14-6.17468E-13
 -1     18489-1.04487E-01 2.37815E-01 3.60985E-10-5.56102E-02 4.73355E-14 3.01622E-13
 -1     18494-9.75087E-02 2.30837E-01-6.59594E-10-5.33429E-02-6.08142E-14-3.81035E-13
 -1     18495-1.01758E-01 2.35086E-01-6.59641E-10-2.66755E-02-5.66911E-15-1.22682E-13
 -1     18496-1.04487E-01 2.37815E-01 3.60857E-10-5.56102E-02 2.15463E-14 1.85977E-13
 -1     18501-9.75087E-02 2.30837E-01-6.61216E-10-5.33429E-02 3.01838E-13 1.95597E-12
 -1     18502-1.01758E-01 2.35086E-01-6.59698E-10-2.66755E-02 3.28424E-13 4.12807E-12
 -1     18503-1.04487E-01 2.37815E-01 3.60914E-10-5.56102E-02-3.67919E-13-2.25578E-12
 -1     18508-9.75087E-02 2.30837E-01-6.55019E-10-5.33429E-02-1.12476E-12-6.94739E-12
 -1     18509-1.01758E-01 2.35086E-01-6.63206E-10-2.66755E-02-1.40640E-12-1.78675E-11
 -1     18510-1.04487E-01 2.37815E-01 3.63258E-10-5.56102E-02 1.56383E-12 9.93059E-12
 -1     18515-9.75087E-02 2.30837E-01-6.73784E-10-5.33429E-02 3.87848E-12 2.45185E-11
 -1     18519-7.29896E-02 2.06318E-01-6.73743E-10-1.01464E-01-7.66718E-12-2.35761E-11
 -1     18520-8.52721E-02 2.18600E-01-6.63226E-10-7.74153E-02 4.19029E-12 1.74379E-11
 -1     18521-7.89253E-02 2.12253E-01 3.63247E-10-1.05777E-01-3.10668E-12-9.53247E-12
 -1     18526-7.29896E-02 2.06318E-01-6.55004E-10-1.01464E-01 2.17125E-12 6.71461E-12
 -1     18527-8.52721E-02 2.18600E-01-6.59724E-10-7.74153E-02-9.79782E-13-4.03755E-12
 -1     18528-7.89253E-02 2.12253E-01 3.60904E-10-1.05777E-01 6.91253E-13 2.15006E-12
 -1     18533-7.29896E-02 2.06318E-01-6.61218E-10-1.01464E-01-6.35733E-13-1.90277E-12
 -1     18534-8.52721E-02 2.18600E-01-6.59650E-10-7.74153E-02 2.23316E-14 1.21799E-13
 -1     18535-7.89253E-02 2.12253E-01 3.60842E-10-1.05777E-01-6.93548E-14-1.69538E-13
 -1     18540-7.29896E-02 2.06318E-01-6.59571E-10-1.01464E-01 9.38994E-14 3.74949E-13
 -1     18541-8.52721E-02 2.18600E-01-6.59922E-10-7.74153E-02 1.27020E-13 6.10248E-13
 -1     18542-7.89253E-02 2.12253E-01 3.60987E-10-1.05777E-01-1.10878E-13-3.17018E-13
 -1     18547-7.29896E-02 2.06318E-01-6.59751E-10-1.01464E-01-2.75805E-14-6.34893E-14
 -1     18548-8.52721E-02 2.18600E-01-6.59776E-10-7.74153E-02-1.77039E-13-7.24789E-13
 -1     18549-7.89253E-02 2.12253E-01 3.60860E-10-1.05777E-01 1.01899E-13 2.99238E-13
 -1     18554-7.29896E-02 2.06318E-01-6.59928E-10-1.01464E-01 1.39112E-14-2.69236E-14
 -1     18555-8.52721E-02 2.18600E-01-6.59780E-10-7.74153E-02 1.72198E-13 7.42107E-13
 -1     18556-7.89253E-02 2.12253E-01 3.60866E-10-1.05777E-01-9.50525E-14-3.20394E-13
 -1     18561-7.29896E-02 2.06318E-01-6.59753E-10-1.01464E-01 2.96153E-14 7.26372E-14
 -1     18562-8.52721E-02 2.18600E-01-6.59935E-10-7.74153E-02-1.36374E-13-6.02680E-13
 -1     18563-7.89253E-02 2.12253E-01 3.60971E-10-1.05777E-01 1.04931E-13 3.44293E-13
 -1     18568-7.29896E-02 2.06318E-01-6.59574E-10-1.01464E-01-9.57814E-14-3.11221E-13
 -1     18569-8.52721E-02 2.18600E-01-6.59659E-10-7.74153E-02-2.16985E-14-1.04128E-13
 -1     18570-7.89253E-02 2.12253E-01 3.60848E-10-1.05777E-01 7.36517E-14 2.26672E-13
 -1     18575-7.29896E-02 2.06318E-01-6.61171E-10-1.01464E-01 6.42113E-13 1.92093E-12
 -1     18576-8.52721E-02 2.18600E-01-6.59718E-10-7.74153E-02 9.81089E-13 4.02031E-12
 -1     18577-7.89253E-02 2.12253E-01 3.60911E-10-1.05777E-01-6.85526E-13-2.17604E-12
 -1     18582-7.29896E-02 2.06318E-01-6.54988E-10-1.01464E-01-2.15282E-12-6.72968E-12
 -1     18583-8.52721E-02 2.18600E-01-6.63223E-10-7.74153E-02-4.18557E-12-1.74196E-11
 -1     18584-7.89253E-02 2.12253E-01 3.63248E-10-1.05777E-01 3.10992E-12 9.53740E-12
 -1     18589-7.29896E-02 2.06318E-01-6.73756E-10-1.01464E-01 7.67600E-12 2.35539E-11
 -1     18593-3.48003E-02 1.68128E-01-6.73861E-10-1.39654E-01-1.12808E-11-2.20901E-11
 -1     18594-5.39132E-02 1.87241E-01-6.63230E-10-1.20577E-01 6.86778E-12 1.65727E-11
 -1     18595-3.91129E-02 1.72441E-01 3.63328E-10-1.45589E-01-4.58306E-12-8.92999E-12
 -1     18600-3.48003E-02 1.68128E-01-6.55072E-10-1.39654E-01 3.16753E-12 6.30005E-12
 -1     18601-5.39132E-02 1.87241E-01-6.59725E-10-1.20577E-01-1.58048E-12-3.85488E-12
 -1     18602-3.91129E-02 1.72441E-01 3.61002E-10-1.45589E-01 1.02364E-12 2.02810E-12
 -1     18607-3.48003E-02 1.68128E-01-6.61264E-10-1.39654E-01-9.26616E-13-1.80566E-12
 -1     18608-5.39132E-02 1.87241E-01-6.59664E-10-1.20577E-01 5.97783E-14 1.17262E-13
 -1     18609-3.91129E-02 1.72441E-01 3.60942E-10-1.45589E-01-1.09281E-13-2.01477E-13
 -1     18614-3.48003E-02 1.68128E-01-6.59633E-10-1.39654E-01 1.58383E-13 3.10046E-13
 -1     18615-5.39132E-02 1.87241E-01-6.59936E-10-1.20577E-01 2.42837E-13 5.74494E-13
 -1     18616-3.91129E-02 1.72441E-01 3.61081E-10-1.45589E-01-1.57147E-13-2.87722E-13
 -1     18621-3.48003E-02 1.68128E-01-6.59814E-10-1.39654E-01-2.56360E-14-6.23021E-14
 -1     18622-5.39132E-02 1.87241E-01-6.59786E-10-1.20577E-01-2.65418E-13-6.91207E-13
 -1     18623-3.91129E-02 1.72441E-01 3.60972E-10-1.45589E-01 1.54821E-13 2.85201E-13
 -1     18628-3.48003E-02 1.68128E-01-6.60000E-10-1.39654E-01 1.26102E-14 1.92504E-14
 -1     18629-5.39132E-02 1.87241E-01-6.59797E-10-1.20577E-01 2.91423E-13 6.92429E-13
 -1     18630-3.91129E-02 1.72441E-01 3.60953E-10-1.45589E-01-1.35171E-13-2.65747E-13
 -1     18635-3.48003E-02 1.68128E-01-6.59851E-10-1.39654E-01 2.98234E-14 5.93633E-14
 -1     18636-5.39132E-02 1.87241E-01-6.59944E-10-1.20577E-01-2.24754E-13-5.48773E-13
 -1     18637-3.91129E-02 1.72441E-01 3.61058E-10-1.45589E-01 1.67014E-13 2.88675E-13
 -1     18642-3.48003E-02 1.68128E-01-6.59652E-10-1.39654E-01-1.49944E-13-3.49269E-13
 -1     18643-5.39132E-02 1.87241E-01-6.59660E-10-1.20577E-01-3.50127E-14-1.20218E-13
 -1     18644-3.91129E-02 1.72441E-01 3.60921E-10-1.45589E-01 1.12571E-13 1.67077E-13
 -1     18649-3.48003E-02 1.68128E-01-6.61302E-10-1.39654E-01 9.42752E-13 1.76988E-12
 -1     18650-5.39132E-02 1.87241E-01-6.59711E-10-1.20577E-01 1.59367E-12 3.82445E-12
 -1     18651-3.91129E-02 1.72441E-01 3.60995E-10-1.45589E-01-1.02521E-12-2.05346E-12
 -1     18656-3.48003E-02 1.68128E-01-6.55073E-10-1.39654E-01-3.18554E-12-6.32091E-12
 -1     18657-5.39132E-02 1.87241E-01-6.63233E-10-1.20577E-01-6.85816E-12-1.65446E-11
 -1     18658-3.91129E-02 1.72441E-01 3.63323E-10-1.45589E-01 4.57420E-12 8.92687E-12
 -1     18663-3.48003E-02 1.68128E-01-6.73867E-10-1.39654E-01 1.12700E-11 2.20822E-11
 -1     18667 1.33211E-02 1.20007E-01-6.73750E-10-1.64173E-01-1.45230E-11-2.00765E-11
 -1     18668-1.07513E-02 1.44079E-01-6.63118E-10-1.51936E-01 9.37702E-12 1.52827E-11
 -1     18669 1.10538E-02 1.22274E-01 3.63279E-10-1.71151E-01-5.85720E-12-8.11224E-12
 -1     18674 1.33211E-02 1.20007E-01-6.54969E-10-1.64173E-01 4.20093E-12 5.71046E-12
 -1     18675-1.07513E-02 1.44079E-01-6.59620E-10-1.51936E-01-2.14957E-12-3.55106E-12
 -1     18676 1.10538E-02 1.22274E-01 3.60950E-10-1.71151E-01 1.36815E-12 1.85163E-12
 -1     18681 1.33211E-02 1.20007E-01-6.61150E-10-1.64173E-01-1.15692E-12-1.59776E-12
 -1     18682-1.07513E-02 1.44079E-01-6.59577E-10-1.51936E-01 9.96547E-14 8.44541E-14
 -1     18683 1.10538E-02 1.22274E-01 3.60893E-10-1.71151E-01-8.50455E-14-1.56817E-13
 -1     18688 1.33211E-02 1.20007E-01-6.59502E-10-1.64173E-01 2.71313E-13 3.16154E-13
 -1     18689-1.07513E-02 1.44079E-01-6.59854E-10-1.51936E-01 3.42935E-13 5.08139E-13
 -1     18690 1.10538E-02 1.22274E-01 3.61033E-10-1.71151E-01-1.69355E-13-2.57779E-13
 -1     18695 1.33211E-02 1.20007E-01-6.59699E-10-1.64173E-01 1.52553E-14-5.02813E-14
 -1     18696-1.07513E-02 1.44079E-01-6.59712E-10-1.51936E-01-3.82038E-13-6.38997E-13
 -1     18697 1.10538E-02 1.22274E-01 3.60925E-10-1.71151E-01 1.90438E-13 2.64742E-13
 -1     18702 1.33211E-02 1.20007E-01-6.59865E-10-1.64173E-01-3.65836E-15 1.59407E-14
 -1     18703-1.07513E-02 1.44079E-01-6.59713E-10-1.51936E-01 3.84515E-13 6.30069E-13
 -1     18704 1.10538E-02 1.22274E-01 3.60960E-10-1.71151E-01-1.92048E-13-2.84763E-13
 -1     18709 1.33211E-02 1.20007E-01-6.59650E-10-1.64173E-01-1.49158E-14 2.34228E-14
 -1     18710-1.07513E-02 1.44079E-01-6.59853E-10-1.51936E-01-3.21634E-13-5.08841E-13
 -1     18711 1.10538E-02 1.22274E-01 3.61063E-10-1.71151E-01 1.73280E-13 2.51454E-13
 -1     18716 1.33211E-02 1.20007E-01-6.59442E-10-1.64173E-01-2.19545E-13-3.37481E-13
 -1     18717-1.07513E-02 1.44079E-01-6.59563E-10-1.51936E-01-6.05102E-14-1.04885E-13
 -1     18718 1.10538E-02 1.22274E-01 3.60927E-10-1.71151E-01 1.15765E-13 1.59839E-13
 -1     18723 1.33211E-02 1.20007E-01-6.61107E-10-1.64173E-01 1.14504E-12 1.58792E-12
 -1     18724-1.07513E-02 1.44079E-01-6.59616E-10-1.51936E-01 2.16139E-12 3.53996E-12
 -1     18725 1.10538E-02 1.22274E-01 3.60955E-10-1.71151E-01-1.35894E-12-1.85773E-12
 -1     18730 1.33211E-02 1.20007E-01-6.54933E-10-1.64173E-01-4.17021E-12-5.71764E-12
 -1     18731-1.07513E-02 1.44079E-01-6.63111E-10-1.51936E-01-9.37657E-12-1.52857E-11
 -1     18732 1.10538E-02 1.22274E-01 3.63299E-10-1.71151E-01 5.88136E-12 8.11413E-12
 -1     18737 1.33211E-02 1.20007E-01-6.73731E-10-1.64173E-01 1.45669E-11 2.00407E-11
 -1     18741 6.66640E-02 6.66640E-02-6.73603E-10-1.72621E-01-1.75210E-11-1.75078E-11
 -1     18742 3.99885E-02 9.33395E-02-6.63359E-10-1.68422E-01 1.16292E-11 1.36422E-11
 -1     18743 6.66640E-02 6.66640E-02 3.63187E-10-1.79958E-01-7.07496E-12-7.09590E-12
 -1     18748 6.66640E-02 6.66640E-02-6.54839E-10-1.72621E-01 5.02552E-12 4.99729E-12
 -1     18749 3.99885E-02 9.33395E-02-6.59858E-10-1.68422E-01-2.70203E-12-3.15437E-12
 -1     18750 6.66640E-02 6.66640E-02 3.60834E-10-1.79958E-01 1.65743E-12 1.62805E-12
 -1     18755 6.66640E-02 6.66640E-02-6.61050E-10-1.72621E-01-1.34119E-12-1.42791E-12
 -1     18756 3.99885E-02 9.33395E-02-6.59796E-10-1.68422E-01 8.21606E-14 1.02710E-13
 -1     18757 6.66640E-02 6.66640E-02 3.60768E-10-1.79958E-01-1.27188E-13-1.27345E-13
 -1     18762 6.66640E-02 6.66640E-02-6.59431E-10-1.72621E-01 2.94131E-13 2.55250E-13
 -1     18763 3.99885E-02 9.33395E-02-6.60073E-10-1.68422E-01 4.05222E-13 4.51564E-13
 -1     18764 6.66640E-02 6.66640E-02 3.60901E-10-1.79958E-01-2.21662E-13-2.50404E-13
 -1     18769 6.66640E-02 6.66640E-02-6.59623E-10-1.72621E-01-4.38517E-14-2.72438E-14
 -1     18770 3.99885E-02 9.33395E-02-6.59953E-10-1.68422E-01-4.77382E-13-5.57886E-13
 -1     18771 6.66640E-02 6.66640E-02 3.60793E-10-1.79958E-01 2.32787E-13 2.30391E-13
 -1     18776 6.66640E-02 6.66640E-02-6.59808E-10-1.72621E-01 1.61727E-14-1.66922E-14
 -1     18777 3.99885E-02 9.33395E-02-6.59927E-10-1.68422E-01 4.88854E-13 5.35324E-13
 -1     18778 6.66640E-02 6.66640E-02 3.60785E-10-1.79958E-01-2.16839E-13-2.37816E-13
 -1     18783 6.66640E-02 6.66640E-02-6.59637E-10-1.72621E-01 7.09860E-14 1.16310E-14
 -1     18784 3.99885E-02 9.33395E-02-6.60075E-10-1.68422E-01-3.82885E-13-4.61193E-13
 -1     18785 6.66640E-02 6.66640E-02 3.60893E-10-1.79958E-01 2.34623E-13 2.47532E-13
 -1     18790 6.66640E-02 6.66640E-02-6.59431E-10-1.72621E-01-2.93283E-13-2.15289E-13
 -1     18791 3.99885E-02 9.33395E-02-6.59785E-10-1.68422E-01-5.71466E-14-9.11465E-14
 -1     18792 6.66640E-02 6.66640E-02 3.60787E-10-1.79958E-01 1.23103E-13 1.53152E-13
 -1     18797 6.66640E-02 6.66640E-02-6.61036E-10-1.72621E-01 1.37944E-12 1.43875E-12
 -1     18798 3.99885E-02 9.33395E-02-6.59863E-10-1.68422E-01 2.70232E-12 3.14373E-12
 -1     18799 6.66640E-02 6.66640E-02 3.60860E-10-1.79958E-01-1.65302E-12-1.60656E-12
 -1     18804 6.66640E-02 6.66640E-02-6.54833E-10-1.72621E-01-5.06097E-12-5.00443E-12
 -1     18805 3.99885E-02 9.33395E-02-6.63349E-10-1.68422E-01-1.16255E-11-1.36294E-11
 -1     18806 6.66640E-02 6.66640E-02 3.63188E-10-1.79958E-01 7.06154E-12 7.08574E-12
 -1     18811 6.66640E-02 6.66640E-02-6.73585E-10-1.72621E-01 1.74831E-11 1.75365E-11
 -1     18815 1.20007E-01 1.33211E-02-6.73959E-10-1.64173E-01-2.01081E-11-1.45938E-11
 -1     18816 9.33395E-02 3.99885E-02-6.63237E-10-1.68422E-01 1.36077E-11 1.16867E-11
 -1     18817 1.22274E-01 1.10538E-02 3.63356E-10-1.71151E-01-8.17164E-12-5.90288E-12
 -1     18822 1.20007E-01 1.33211E-02-6.55200E-10-1.64173E-01 5.61478E-12 4.13479E-12
 -1     18823 9.33395E-02 3.99885E-02-6.59708E-10-1.68422E-01-3.15710E-12-2.66707E-12
 -1     18824 1.22274E-01 1.10538E-02 3.61004E-10-1.71151E-01 1.79107E-12 1.32246E-12
 -1     18829 1.20007E-01 1.33211E-02-6.61430E-10-1.64173E-01-1.69290E-12-1.19204E-12
 -1     18830 9.33395E-02 3.99885E-02-6.59655E-10-1.68422E-01 6.34114E-14 1.11433E-13
 -1     18831 1.22274E-01 1.10538E-02 3.60901E-10-1.71151E-01-2.10403E-13-1.30608E-13
 -1     18836 1.20007E-01 1.33211E-02-6.59843E-10-1.64173E-01 2.74751E-13 1.92202E-13
 -1     18837 9.33395E-02 3.99885E-02-6.59921E-10-1.68422E-01 4.49421E-13 4.02081E-13
 -1     18838 1.22274E-01 1.10538E-02 3.61019E-10-1.71151E-01-3.00406E-13-1.92036E-13
 -1     18843 1.20007E-01 1.33211E-02-6.60042E-10-1.64173E-01-6.68612E-14-1.87852E-14
 -1     18844 9.33395E-02 3.99885E-02-6.59780E-10-1.68422E-01-5.67861E-13-4.63043E-13
 -1     18845 1.22274E-01 1.10538E-02 3.60913E-10-1.71151E-01 2.54800E-13 2.00845E-13
 -1     18850 1.20007E-01 1.33211E-02-6.60222E-10-1.64173E-01-6.78628E-15 6.05167E-15
 -1     18851 9.33395E-02 3.99885E-02-6.59767E-10-1.68422E-01 5.63051E-13 4.63234E-13
 -1     18852 1.22274E-01 1.10538E-02 3.60909E-10-1.71151E-01-2.60077E-13-1.93592E-13
 -1     18857 1.20007E-01 1.33211E-02-6.60024E-10-1.64173E-01 6.08616E-14 2.01053E-14
 -1     18858 9.33395E-02 3.99885E-02-6.59931E-10-1.68422E-01-4.41391E-13-4.03918E-13
 -1     18859 1.22274E-01 1.10538E-02 3.61032E-10-1.71151E-01 3.15738E-13 1.91529E-13
 -1     18864 1.20007E-01 1.33211E-02-6.59822E-10-1.64173E-01-2.43821E-13-2.05004E-13
 -1     18865 9.33395E-02 3.99885E-02-6.59662E-10-1.68422E-01-8.74772E-14-9.60535E-14
 -1     18866 1.22274E-01 1.10538E-02 3.60905E-10-1.71151E-01 1.97310E-13 1.34256E-13
 -1     18871 1.20007E-01 1.33211E-02-6.61452E-10-1.64173E-01 1.66570E-12 1.21320E-12
 -1     18872 9.33395E-02 3.99885E-02-6.59733E-10-1.68422E-01 3.17107E-12 2.66891E-12
 -1     18873 1.22274E-01 1.10538E-02 3.60984E-10-1.71151E-01-1.80072E-12-1.33775E-12
 -1     18878 1.20007E-01 1.33211E-02-6.55242E-10-1.64173E-01-5.64967E-12-4.12371E-12
 -1     18879 9.33395E-02 3.99885E-02-6.63239E-10-1.68422E-01-1.36264E-11-1.16603E-11
 -1     18880 1.22274E-01 1.10538E-02 3.63348E-10-1.71151E-01 8.15031E-12 5.89898E-12
 -1     18885 1.20007E-01 1.33211E-02-6.73969E-10-1.64173E-01 2.01003E-11 1.45844E-11
 -1     18889 1.68128E-01-3.48003E-02-6.73898E-10-1.39654E-01-2.20968E-11-1.12373E-11
 -1     18890 1.44079E-01-1.07513E-02-6.62990E-10-1.51936E-01 1.53305E-11 9.34133E-12
 -1     18891 1.72441E-01-3.91129E-02 3.63381E-10-1.45589E-01-8.93955E-12-4.53101E-12
 -1     18896 1.68128E-01-3.48003E-02-6.55088E-10-1.39654E-01 6.25204E-12 3.24749E-12
 -1     18897 1.44079E-01-1.07513E-02-6.59481E-10-1.51936E-01-3.49667E-12-2.19333E-12
 -1     18898 1.72441E-01-3.91129E-02 3.61047E-10-1.45589E-01 2.00688E-12 1.07579E-12
 -1     18903 1.68128E-01-3.48003E-02-6.61249E-10-1.39654E-01-1.81577E-12-8.70712E-13
 -1     18904 1.44079E-01-1.07513E-02-6.59419E-10-1.51936E-01 1.25086E-13 4.10365E-14
 -1     18905 1.72441E-01-3.91129E-02 3.61008E-10-1.45589E-01-1.93649E-13-7.73900E-14
 -1     18910 1.68128E-01-3.48003E-02-6.59604E-10-1.39654E-01 3.13612E-13 1.70911E-13
 -1     18911 1.44079E-01-1.07513E-02-6.59701E-10-1.51936E-01 5.28018E-13 3.00748E-13
 -1     18912 1.72441E-01-3.91129E-02 3.61144E-10-1.45589E-01-3.02381E-13-1.41128E-13
 -1     18917 1.68128E-01-3.48003E-02-6.59834E-10-1.39654E-01-8.89950E-14-7.65437E-15
 -1     18918 1.44079E-01-1.07513E-02-6.59566E-10-1.51936E-01-6.44293E-13-3.83675E-13
 -1     18919 1.72441E-01-3.91129E-02 3.61013E-10-1.45589E-01 2.76914E-13 1.42767E-13
 -1     18924 1.68128E-01-3.48003E-02-6.60038E-10-1.39654E-01 1.11456E-14-3.69383E-15
 -1     18925 1.44079E-01-1.07513E-02-6.59564E-10-1.51936E-01 6.39507E-13 3.88327E-13
 -1     18926 1.72441E-01-3.91129E-02 3.61001E-10-1.45589E-01-2.61812E-13-1.42556E-13
 -1     18931 1.68128E-01-3.48003E-02-6.59865E-10-1.39654E-01 7.24515E-14 4.06159E-14
 -1     18932 1.44079E-01-1.07513E-02-6.59693E-10-1.51936E-01-5.26364E-13-2.95154E-13
 -1     18933 1.72441E-01-3.91129E-02 3.61135E-10-1.45589E-01 3.04497E-13 1.54187E-13
 -1     18938 1.68128E-01-3.48003E-02-6.59655E-10-1.39654E-01-3.18515E-13-1.70849E-13
 -1     18939 1.44079E-01-1.07513E-02-6.59426E-10-1.51936E-01-1.13935E-13-3.75978E-14
 -1     18940 1.72441E-01-3.91129E-02 3.60984E-10-1.45589E-01 2.22715E-13 7.89706E-14
 -1     18945 1.68128E-01-3.48003E-02-6.61278E-10-1.39654E-01 1.85467E-12 8.64133E-13
 -1     18946 1.44079E-01-1.07513E-02-6.59492E-10-1.51936E-01 3.51212E-12 2.18922E-12
 -1     18947 1.72441E-01-3.91129E-02 3.61042E-10-1.45589E-01-1.99934E-12-1.05820E-12
 -1     18952 1.68128E-01-3.48003E-02-6.55087E-10-1.39654E-01-6.21498E-12-3.24132E-12
 -1     18953 1.44079E-01-1.07513E-02-6.62993E-10-1.51936E-01-1.53123E-11-9.35058E-12
 -1     18954 1.72441E-01-3.91129E-02 3.63374E-10-1.45589E-01 8.97960E-12 4.53013E-12
 -1     18959 1.68128E-01-3.48003E-02-6.73892E-10-1.39654E-01 2.21342E-11 1.12310E-11
 -1     18963 2.06318E-01-7.29896E-02-6.73459E-10-1.01464E-01-2.35149E-11-7.66501E-12
 -1     18964 1.87241E-01-5.39132E-02-6.63326E-10-1.20577E-01 1.65712E-11 6.80337E-12
 -1     18965 2.12253E-01-7.89253E-02 3.63158E-10-1.05777E-01-9.47205E-12-3.10434E-12
 -1     18970 2.06318E-01-7.29896E-02-6.54654E-10-1.01464E-01 6.89189E-12 2.18807E-12
 -1     18971 1.87241E-01-5.39132E-02-6.59839E-10-1.20577E-01-3.82240E-12-1.64854E-12
 -1     18972 2.12253E-01-7.89253E-02 3.60883E-10-1.05777E-01 2.27654E-12 7.13491E-13
 -1     18977 2.06318E-01-7.29896E-02-6.60779E-10-1.01464E-01-1.76921E-12-6.27863E-13
 -1     18978 1.87241E-01-5.39132E-02-6.59793E-10-1.20577E-01 1.41743E-13-9.81581E-15
 -1     18979 2.12253E-01-7.89253E-02 3.60850E-10-1.05777E-01-1.11811E-13-5.16154E-14
 -1     18984 2.06318E-01-7.29896E-02-6.59120E-10-1.01464E-01 4.15807E-13 1.28201E-13
 -1     18985 1.87241E-01-5.39132E-02-6.60090E-10-1.20577E-01 5.62869E-13 1.99684E-13
 -1     18986 2.12253E-01-7.89253E-02 3.61011E-10-1.05777E-01-2.60506E-13-9.71435E-14
 -1     18991 2.06318E-01-7.29896E-02-6.59278E-10-1.01464E-01 2.35871E-14-1.75988E-14
 -1     18992 1.87241E-01-5.39132E-02-6.59960E-10-1.20577E-01-6.86180E-13-2.97754E-13
 -1     18993 2.12253E-01-7.89253E-02 3.60918E-10-1.05777E-01 3.30588E-13 1.05669E-13
 -1     18998 2.06318E-01-7.29896E-02-6.59453E-10-1.01464E-01-3.68644E-14 3.21462E-15
 -1     18999 1.87241E-01-5.39132E-02-6.59971E-10-1.20577E-01 7.01640E-13 2.97736E-13
 -1     19000 2.12253E-01-7.89253E-02 3.60917E-10-1.05777E-01-3.38543E-13-1.04102E-13
 -1     19005 2.06318E-01-7.29896E-02-6.59268E-10-1.01464E-01-1.62230E-14 3.59380E-15
 -1     19006 1.87241E-01-5.39132E-02-6.60085E-10-1.20577E-01-5.98030E-13-2.03575E-13
 -1     19007 2.12253E-01-7.89253E-02 3.61019E-10-1.05777E-01 2.57380E-13 8.63082E-14
 -1     19012 2.06318E-01-7.29896E-02-6.59116E-10-1.01464E-01-4.39593E-13-1.40591E-13
 -1     19013 1.87241E-01-5.39132E-02-6.59799E-10-1.20577E-01-7.92342E-14-1.52227E-14
 -1     19014 2.12253E-01-7.89253E-02 3.60836E-10-1.05777E-01 1.59705E-13 5.74340E-14
 -1     19019 2.06318E-01-7.29896E-02-6.60783E-10-1.01464E-01 1.85143E-12 5.96209E-13
 -1     19020 1.87241E-01-5.39132E-02-6.59844E-10-1.20577E-01 3.82058E-12 1.62774E-12
 -1     19021 2.12253E-01-7.89253E-02 3.60890E-10-1.05777E-01-2.22723E-12-7.10290E-13
 -1     19026 2.06318E-01-7.29896E-02-6.54643E-10-1.01464E-01-6.82348E-12-2.18207E-12
 -1     19027 1.87241E-01-5.39132E-02-6.63327E-10-1.20577E-01-1.65525E-11-6.82437E-12
 -1     19028 2.12253E-01-7.89253E-02 3.63181E-10-1.05777E-01 9.49347E-12 3.11249E-12
 -1     19033 2.06318E-01-7.29896E-02-6.73461E-10-1.01464E-01 2.34902E-11 7.68203E-12
 -1     19037 2.30837E-01-9.75087E-02-6.73736E-10-5.33429E-02-2.44750E-11-3.95710E-12
 -1     19038 2.18600E-01-8.52721E-02-6.63453E-10-7.74153E-02 1.74015E-11 4.23749E-12
 -1     19039 2.37815E-01-1.04487E-01 3.63208E-10-5.56102E-02-9.89650E-12-1.63676E-12
 -1     19044 2.30837E-01-9.75087E-02-6.54997E-10-5.33429E-02 6.98933E-12 1.01015E-12
 -1     19045 2.18600E-01-8.52721E-02-6.59961E-10-7.74153E-02-4.06263E-12-9.06230E-13
 -1     19046 2.37815E-01-1.04487E-01 3.60860E-10-5.56102E-02 2.25695E-12 3.02174E-13
 -1     19051 2.30837E-01-9.75087E-02-6.61226E-10-5.33429E-02-1.99582E-12-3.65595E-13
 -1     19052 2.18600E-01-8.52721E-02-6.59918E-10-7.74153E-02 1.02068E-13 7.62389E-14
 -1     19053 2.37815E-01-1.04487E-01 3.60780E-10-5.56102E-02-2.03715E-13-6.58694E-14
 -1     19058 2.30837E-01-9.75087E-02-6.59588E-10-5.33429E-02 4.24101E-13 1.36353E-14
 -1     19059 2.18600E-01-8.52721E-02-6.60207E-10-7.74153E-02 5.77625E-13 1.72725E-13
 -1     19060 2.37815E-01-1.04487E-01 3.60926E-10-5.56102E-02-3.20209E-13-6.84759E-14
 -1     19065 2.30837E-01-9.75087E-02-6.59787E-10-5.33429E-02-4.18987E-14-3.15209E-14
 -1     19066 2.18600E-01-8.52721E-02-6.60070E-10-7.74153E-02-7.21755E-13-1.56335E-13
 -1     19067 2.37815E-01-1.04487E-01 3.60802E-10-5.56102E-02 3.03547E-13 4.51955E-14
 -1     19072 2.30837E-01-9.75087E-02-6.59942E-10-5.33429E-02 6.94707E-15-3.54748E-15
 -1     19073 2.18600E-01-8.52721E-02-6.60059E-10-7.74153E-02 7.25984E-13 1.75698E-13
 -1     19074 2.37815E-01-1.04487E-01 3.60812E-10-5.56102E-02-3.19530E-13-4.32064E-14
 -1     19079 2.30837E-01-9.75087E-02-6.59760E-10-5.33429E-02 2.08300E-14 2.61435E-14
 -1     19080 2.18600E-01-8.52721E-02-6.60201E-10-7.74153E-02-6.04713E-13-1.60062E-13
 -1     19081 2.37815E-01-1.04487E-01 3.60917E-10-5.56102E-02 3.04150E-13 6.91283E-14
 -1     19086 2.30837E-01-9.75087E-02-6.59578E-10-5.33429E-02-4.01217E-13-2.05155E-14
 -1     19087 2.18600E-01-8.52721E-02-6.59905E-10-7.74153E-02-9.56125E-14-6.94060E-14
 -1     19088 2.37815E-01-1.04487E-01 3.60785E-10-5.56102E-02 1.94793E-13 6.65664E-14
 -1     19093 2.30837E-01-9.75087E-02-6.61218E-10-5.33429E-02 1.96955E-12 3.87957E-13
 -1     19094 2.18600E-01-8.52721E-02-6.59960E-10-7.74153E-02 4.07405E-12 9.13760E-13
 -1     19095 2.37815E-01-1.04487E-01 3.60852E-10-5.56102E-02-2.27036E-12-3.00647E-13
 -1     19100 2.30837E-01-9.75087E-02-6.55005E-10-5.33429E-02-6.98369E-12-1.01312E-12
 -1     19101 2.18600E-01-8.52721E-02-6.63452E-10-7.74153E-02-1.74020E-11-4.22838E-12
 -1     19102 2.37815E-01-1.04487E-01 3.63211E-10-5.56102E-02 9.89518E-12 1.63498E-12
 -1     19107 2.30837E-01-9.75087E-02-6.73746E-10-5.33429E-02 2.44815E-11 3.95014E-12
 -1     19111 2.35086E-01-1.01758E-01-6.62972E-10-2.66755E-02 1.78848E-11 1.45941E-12
 -1     19115 2.35086E-01-1.01758E-01-6.59463E-10-2.66755E-02-4.12130E-12-2.58430E-13
 -1     19119 2.35086E-01-1.01758E-01-6.59381E-10-2.66755E-02 1.35654E-13 6.28519E-14
 -1     19123 2.35086E-01-1.01758E-01-6.59652E-10-2.66755E-02 6.19253E-13 7.77820E-14
 -1     19127 2.35086E-01-1.01758E-01-6.59501E-10-2.66755E-02-7.27962E-13-4.73598E-14
 -1     19131 2.35086E-01-1.01758E-01-6.59498E-10-2.66755E-02 7.26319E-13 5.06829E-14
 -1     19135 2.35086E-01-1.01758E-01-6.59643E-10-2.66755E-02-6.14378E-13-7.85299E-14
 -1     19139 2.35086E-01-1.01758E-01-6.59377E-10-2.66755E-02-1.12528E-13-5.89315E-14
 -1     19143 2.35086E-01-1.01758E-01-6.59457E-10-2.66755E-02 4.12412E-12 2.61513E-13
 -1     19147 2.35086E-01-1.01758E-01-6.62978E-10-2.66755E-02-1.78833E-11-1.46201E-12
 -1     19153-8.51321E-02 2.18460E-01-5.66081E-10-4.93215E-02-3.06935E-12-1.94073E-11
 -1     19154-8.90615E-02 2.22389E-01-5.56373E-10-2.46645E-02 1.08512E-12 1.38246E-11
 -1     19155-9.13211E-02 2.24649E-01 3.03272E-10-5.13325E-02-1.24490E-12-7.87411E-12
 -1     19160-8.51321E-02 2.18460E-01-5.48375E-10-4.93215E-02 8.90043E-13 5.56529E-12
 -1     19161-8.90615E-02 2.22389E-01-5.53670E-10-2.46645E-02-2.00028E-13-2.48131E-12
 -1     19162-9.13211E-02 2.24649E-01 3.01220E-10-5.13325E-02 2.83346E-13 1.74726E-12
 -1     19167-8.51321E-02 2.18460E-01-5.56097E-10-4.93215E-02-2.13195E-13-1.39463E-12
 -1     19168-8.90615E-02 2.22389E-01-5.53631E-10-2.46645E-02-2.06096E-14-2.07799E-13
 -1     19169-9.13211E-02 2.24649E-01 3.01435E-10-5.13325E-02-9.71041E-15-1.09439E-13
 -1     19174-8.51321E-02 2.18460E-01-5.52715E-10-4.93215E-02 4.78619E-14 2.70137E-13
 -1     19175-8.90615E-02 2.22389E-01-5.53818E-10-2.46645E-02 6.11945E-14 8.16393E-13
 -1     19176-9.13211E-02 2.24649E-01 3.01479E-10-5.13325E-02-3.99730E-14-2.45068E-13
 -1     19181-8.51321E-02 2.18460E-01-5.54301E-10-4.93215E-02 1.24081E-14 5.45361E-14
 -1     19182-8.90615E-02 2.22389E-01-5.53735E-10-2.46645E-02-5.89489E-14-7.31703E-13
 -1     19183-9.13211E-02 2.24649E-01 3.01427E-10-5.13325E-02 4.61484E-14 3.17664E-13
 -1     19188-8.51321E-02 2.18460E-01-5.53491E-10-4.93215E-02 1.26688E-15 2.27826E-14
 -1     19189-8.90615E-02 2.22389E-01-5.53734E-10-2.46645E-02 5.55152E-14 7.41466E-13
 -1     19190-9.13211E-02 2.24649E-01 3.01427E-10-5.13325E-02-4.95070E-14-2.76716E-13
 -1     19195-8.51321E-02 2.18460E-01-5.54278E-10-4.93215E-02-1.30981E-14-6.11067E-14
 -1     19196-8.90615E-02 2.22389E-01-5.53811E-10-2.46645E-02-6.42116E-14-8.18128E-13
 -1     19197-9.13211E-02 2.24649E-01 3.01474E-10-5.13325E-02 3.96533E-14 2.24563E-13
 -1     19202-8.51321E-02 2.18460E-01-5.52692E-10-4.93215E-02-4.96766E-14-2.57888E-13
 -1     19203-8.90615E-02 2.22389E-01-5.53624E-10-2.46645E-02 1.70817E-14 2.15443E-13
 -1     19204-9.13211E-02 2.24649E-01 3.01427E-10-5.13325E-02 7.79244E-15 1.14018E-13
 -1     19209-8.51321E-02 2.18460E-01-5.56108E-10-4.93215E-02 2.11113E-13 1.41078E-12
 -1     19210-8.90615E-02 2.22389E-01-5.53678E-10-2.46645E-02 1.96002E-13 2.48535E-12
 -1     19211-9.13211E-02 2.24649E-01 3.01207E-10-5.13325E-02-2.86364E-13-1.72234E-12
 -1     19216-8.51321E-02 2.18460E-01-5.48368E-10-4.93215E-02-8.85378E-13-5.53829E-12
 -1     19217-8.90615E-02 2.22389E-01-5.56383E-10-2.46645E-02-1.08484E-12-1.38252E-11
 -1     19218-9.13211E-02 2.24649E-01 3.03280E-10-5.13325E-02 1.23855E-12 7.87777E-12
 -1     19223-8.51321E-02 2.18460E-01-5.66080E-10-4.93215E-02 3.06997E-12 1.93789E-11
 -1     19227-6.24615E-02 1.95789E-01-5.66027E-10-9.38151E-02-6.08209E-12-1.86644E-11
 -1     19228-7.38180E-02 2.07146E-01-5.56396E-10-7.15791E-02 3.23243E-12 1.34891E-11
 -1     19229-6.77262E-02 2.01054E-01 3.03272E-10-9.76402E-02-2.46705E-12-7.57167E-12
 -1     19234-6.24615E-02 1.95789E-01-5.48301E-10-9.38151E-02 1.73062E-12 5.35812E-12
 -1     19235-7.38180E-02 2.07146E-01-5.53690E-10-7.15791E-02-5.88135E-13-2.41244E-12
 -1     19236-6.77262E-02 2.01054E-01 3.01203E-10-9.76402E-02 5.25193E-13 1.65074E-12
 -1     19241-6.24615E-02 1.95789E-01-5.56040E-10-9.38151E-02-4.44851E-13-1.35504E-12
 -1     19242-7.38180E-02 2.07146E-01-5.53646E-10-7.15791E-02-6.01431E-14-1.96384E-13
 -1     19243-6.77262E-02 2.01054E-01 3.01423E-10-9.76402E-02-3.96115E-14-8.79550E-14
 -1     19248-6.24615E-02 1.95789E-01-5.52635E-10-9.38151E-02 8.27623E-14 2.38527E-13
 -1     19249-7.38180E-02 2.07146E-01-5.53824E-10-7.15791E-02 1.86779E-13 7.91772E-13
 -1     19250-6.77262E-02 2.01054E-01 3.01470E-10-9.76402E-02-8.65650E-14-2.46814E-13
 -1     19255-6.24615E-02 1.95789E-01-5.54245E-10-9.38151E-02 2.25778E-14 3.67575E-14
 -1     19256-7.38180E-02 2.07146E-01-5.53741E-10-7.15791E-02-1.72180E-13-6.94102E-13
 -1     19257-6.77262E-02 2.01054E-01 3.01416E-10-9.76402E-02 9.66984E-14 2.67022E-13
 -1     19262-6.24615E-02 1.95789E-01-5.53450E-10-9.38151E-02 5.91044E-15-2.06922E-14
 -1     19263-7.38180E-02 2.07146E-01-5.53748E-10-7.15791E-02 1.75875E-13 7.08677E-13
 -1     19264-6.77262E-02 2.01054E-01 3.01414E-10-9.76402E-02-7.84526E-14-2.84056E-13
 -1     19269-6.24615E-02 1.95789E-01-5.54250E-10-9.38151E-02-9.09908E-15-1.34569E-14
 -1     19270-7.38180E-02 2.07146E-01-5.53817E-10-7.15791E-02-1.85534E-13-7.83308E-13
 -1     19271-6.77262E-02 2.01054E-01 3.01463E-10-9.76402E-02 9.53201E-14 2.95216E-13
 -1     19276-6.24615E-02 1.95789E-01-5.52646E-10-9.38151E-02-5.94090E-14-2.22333E-13
 -1     19277-7.38180E-02 2.07146E-01-5.53635E-10-7.15791E-02 5.62061E-14 2.01814E-13
 -1     19278-6.77262E-02 2.01054E-01 3.01422E-10-9.76402E-02 5.33713E-14 1.30908E-13
 -1     19283-6.24615E-02 1.95789E-01-5.56044E-10-9.38151E-02 4.57982E-13 1.36835E-12
 -1     19284-7.38180E-02 2.07146E-01-5.53687E-10-7.15791E-02 5.84921E-13 2.42355E-12
 -1     19285-6.77262E-02 2.01054E-01 3.01202E-10-9.76402E-02-5.16373E-13-1.66284E-12
 -1     19290-6.24615E-02 1.95789E-01-5.48308E-10-9.38151E-02-1.72915E-12-5.32441E-12
 -1     19291-7.38180E-02 2.07146E-01-5.56402E-10-7.15791E-02-3.23209E-12-1.34928E-11
 -1     19292-6.77262E-02 2.01054E-01 3.03272E-10-9.76402E-02 2.47667E-12 7.59064E-12
 -1     19297-6.24615E-02 1.95789E-01-5.66023E-10-9.38151E-02 6.07649E-12 1.86756E-11
 -1     19301-2.71512E-02 1.60479E-01-5.66190E-10-1.29125E-01-8.94138E-12-1.75038E-11
 -1     19302-4.48231E-02 1.78151E-01-5.56427E-10-1.11487E-01 5.31636E-12 1.28086E-11
 -1     19303-3.09762E-02 1.64304E-01 3.03370E-10-1.34390E-01-3.64613E-12-7.08319E-12
 -1     19308-2.71512E-02 1.60479E-01-5.48454E-10-1.29125E-01 2.52014E-12 4.99555E-12
 -1     19309-4.48231E-02 1.78151E-01-5.53715E-10-1.11487E-01-9.45706E-13-2.30192E-12
 -1     19310-3.09762E-02 1.64304E-01 3.01312E-10-1.34390E-01 7.67530E-13 1.55452E-12
 -1     19315-2.71512E-02 1.60479E-01-5.56167E-10-1.29125E-01-6.86296E-13-1.28137E-12
 -1     19316-4.48231E-02 1.78151E-01-5.53679E-10-1.11487E-01-7.92905E-14-2.04635E-13
 -1     19317-3.09762E-02 1.64304E-01 3.01540E-10-1.34390E-01-7.59463E-14-1.20494E-13
 -1     19322-2.71512E-02 1.60479E-01-5.52762E-10-1.29125E-01 8.99961E-14 2.03410E-13
 -1     19323-4.48231E-02 1.78151E-01-5.53859E-10-1.11487E-01 3.20093E-13 7.33801E-13
 -1     19324-3.09762E-02 1.64304E-01 3.01594E-10-1.34390E-01-1.26163E-13-2.40137E-13
 -1     19329-2.71512E-02 1.60479E-01-5.54348E-10-1.29125E-01 2.10956E-14 4.14669E-14
 -1     19330-4.48231E-02 1.78151E-01-5.53782E-10-1.11487E-01-2.76151E-13-6.82494E-13
 -1     19331-3.09762E-02 1.64304E-01 3.01559E-10-1.34390E-01 1.34259E-13 2.51417E-13
 -1     19336-2.71512E-02 1.60479E-01-5.53540E-10-1.29125E-01 4.97498E-15 2.84810E-15
 -1     19337-4.48231E-02 1.78151E-01-5.53781E-10-1.11487E-01 2.93321E-13 6.89336E-13
 -1     19338-3.09762E-02 1.64304E-01 3.01553E-10-1.34390E-01-1.25747E-13-2.44460E-13
 -1     19343-2.71512E-02 1.60479E-01-5.54338E-10-1.29125E-01-6.35398E-16-4.93893E-14
 -1     19344-4.48231E-02 1.78151E-01-5.53848E-10-1.11487E-01-3.00458E-13-7.52762E-13
 -1     19345-3.09762E-02 1.64304E-01 3.01600E-10-1.34390E-01 1.40293E-13 2.12830E-13
 -1     19350-2.71512E-02 1.60479E-01-5.52738E-10-1.29125E-01-8.83708E-14-2.36581E-13
 -1     19351-4.48231E-02 1.78151E-01-5.53665E-10-1.11487E-01 8.61963E-14 2.06096E-13
 -1     19352-3.09762E-02 1.64304E-01 3.01562E-10-1.34390E-01 7.09785E-14 7.10114E-14
 -1     19357-2.71512E-02 1.60479E-01-5.56140E-10-1.29125E-01 6.77342E-13 1.25612E-12
 -1     19358-4.48231E-02 1.78151E-01-5.53711E-10-1.11487E-01 9.55240E-13 2.30374E-12
 -1     19359-3.09762E-02 1.64304E-01 3.01321E-10-1.34390E-01-7.65647E-13-1.57586E-12
 -1     19364-2.71512E-02 1.60479E-01-5.48438E-10-1.29125E-01-2.50527E-12-5.02224E-12
 -1     19365-4.48231E-02 1.78151E-01-5.56420E-10-1.11487E-01-5.31272E-12-1.28092E-11
 -1     19366-3.09762E-02 1.64304E-01 3.03382E-10-1.34390E-01 3.64022E-12 7.07564E-12
 -1     19371-2.71512E-02 1.60479E-01-5.66190E-10-1.29125E-01 8.93599E-12 1.74877E-11
 -1     19375 1.73425E-02 1.15986E-01-5.66064E-10-1.51796E-01-1.15294E-11-1.58677E-11
 -1     19376-4.91515E-03 1.38243E-01-5.56253E-10-1.40482E-01 7.26895E-12 1.18129E-11
 -1     19377 1.53315E-02 1.17996E-01 3.03318E-10-1.57985E-01-4.64422E-12-6.45116E-12
 -1     19382 1.73425E-02 1.15986E-01-5.48305E-10-1.51796E-01 3.34575E-12 4.57507E-12
 -1     19383-4.91515E-03 1.38243E-01-5.53559E-10-1.40482E-01-1.27489E-12-2.14583E-12
 -1     19384 1.53315E-02 1.17996E-01 3.01271E-10-1.57985E-01 1.06575E-12 1.41838E-12
 -1     19389 1.73425E-02 1.15986E-01-5.56002E-10-1.51796E-01-7.93959E-13-1.12932E-12
 -1     19390-4.91515E-03 1.38243E-01-5.53526E-10-1.40482E-01-9.76508E-14-1.97290E-13
 -1     19391 1.53315E-02 1.17996E-01 3.01516E-10-1.57985E-01-2.21722E-14-6.47694E-14
 -1     19396 1.73425E-02 1.15986E-01-5.52569E-10-1.51796E-01 1.90382E-13 2.38309E-13
 -1     19397-4.91515E-03 1.38243E-01-5.53719E-10-1.40482E-01 4.37952E-13 6.78296E-13
 -1     19398 1.53315E-02 1.17996E-01 3.01578E-10-1.57985E-01-1.19386E-13-2.07697E-13
 -1     19403 1.73425E-02 1.15986E-01-5.54137E-10-1.51796E-01 4.59633E-14 4.89594E-14
 -1     19404-4.91515E-03 1.38243E-01-5.53644E-10-1.40482E-01-3.73984E-13-6.35468E-13
 -1     19405 1.53315E-02 1.17996E-01 3.01537E-10-1.57985E-01 1.91359E-13 2.51887E-13
 -1     19410 1.73425E-02 1.15986E-01-5.53338E-10-1.51796E-01 1.02848E-14-5.29025E-16
 -1     19411-4.91515E-03 1.38243E-01-5.53641E-10-1.40482E-01 3.86736E-13 6.34201E-13
 -1     19412 1.53315E-02 1.17996E-01 3.01545E-10-1.57985E-01-1.83549E-13-2.55186E-13
 -1     19417 1.73425E-02 1.15986E-01-5.54148E-10-1.51796E-01-4.72634E-14-5.51091E-14
 -1     19418-4.91515E-03 1.38243E-01-5.53712E-10-1.40482E-01-4.33935E-13-6.94539E-13
 -1     19419 1.53315E-02 1.17996E-01 3.01599E-10-1.57985E-01 1.21306E-13 1.97838E-13
 -1     19424 1.73425E-02 1.15986E-01-5.52562E-10-1.51796E-01-1.90182E-13-2.33989E-13
 -1     19425-4.91515E-03 1.38243E-01-5.53513E-10-1.40482E-01 9.65488E-14 2.00263E-13
 -1     19426 1.53315E-02 1.17996E-01 3.01542E-10-1.57985E-01 4.61730E-14 7.25285E-14
 -1     19431 1.73425E-02 1.15986E-01-5.55995E-10-1.51796E-01 8.10184E-13 1.13168E-12
 -1     19432-4.91515E-03 1.38243E-01-5.53553E-10-1.40482E-01 1.28306E-12 2.13582E-12
 -1     19433 1.53315E-02 1.17996E-01 3.01291E-10-1.57985E-01-1.05587E-12-1.44247E-12
 -1     19438 1.73425E-02 1.15986E-01-5.48323E-10-1.51796E-01-3.32453E-12-4.57966E-12
 -1     19439-4.91515E-03 1.38243E-01-5.56256E-10-1.40482E-01-7.26082E-12-1.18187E-11
 -1     19440 1.53315E-02 1.17996E-01 3.03332E-10-1.57985E-01 4.65626E-12 6.43270E-12
 -1     19445 1.73425E-02 1.15986E-01-5.66062E-10-1.51796E-01 1.15232E-11 1.58807E-11
 -1     19449 6.66640E-02 6.66640E-02-5.65847E-10-1.59608E-01-1.38487E-11-1.38721E-11
 -1     19450 4.19995E-02 9.13285E-02-5.56575E-10-1.55725E-01 8.98624E-12 1.05494E-11
 -1     19451 6.66640E-02 6.66640E-02 3.03190E-10-1.66115E-01-5.61200E-12-5.63070E-12
 -1     19456 6.66640E-02 6.66640E-02-5.48135E-10-1.59608E-01 4.04083E-12 3.96088E-12
 -1     19457 4.19995E-02 9.13285E-02-5.53883E-10-1.55725E-01-1.63578E-12-1.90351E-12
 -1     19458 6.66640E-02 6.66640E-02 3.01120E-10-1.66115E-01 1.28397E-12 1.21275E-12
 -1     19463 6.66640E-02 6.66640E-02-5.55881E-10-1.59608E-01-9.40197E-13-1.02546E-12
 -1     19464 4.19995E-02 9.13285E-02-5.53836E-10-1.55725E-01-1.51481E-13-1.63185E-13
 -1     19465 6.66640E-02 6.66640E-02 3.01332E-10-1.66115E-01-3.86650E-14-8.64383E-14
 -1     19470 6.66640E-02 6.66640E-02-5.52486E-10-1.59608E-01 2.28586E-13 1.84204E-13
 -1     19471 4.19995E-02 9.13285E-02-5.54031E-10-1.55725E-01 5.26952E-13 6.18712E-13
 -1     19472 6.66640E-02 6.66640E-02 3.01377E-10-1.66115E-01-1.62825E-13-1.95096E-13
 -1     19477 6.66640E-02 6.66640E-02-5.54090E-10-1.59608E-01 5.80250E-14 3.05500E-14
 -1     19478 4.19995E-02 9.13285E-02-5.53941E-10-1.55725E-01-4.89558E-13-5.62110E-13
 -1     19479 6.66640E-02 6.66640E-02 3.01328E-10-1.66115E-01 1.95421E-13 1.97600E-13
 -1     19484 6.66640E-02 6.66640E-02-5.53278E-10-1.59608E-01-1.92732E-15 3.13234E-16
 -1     19485 4.19995E-02 9.13285E-02-5.53951E-10-1.55725E-01 5.02498E-13 5.73473E-13
 -1     19486 6.66640E-02 6.66640E-02 3.01320E-10-1.66115E-01-1.86103E-13-2.00099E-13
 -1     19491 6.66640E-02 6.66640E-02-5.54103E-10-1.59608E-01-3.04146E-14-1.86296E-14
 -1     19492 4.19995E-02 9.13285E-02-5.54034E-10-1.55725E-01-5.19407E-13-6.23917E-13
 -1     19493 6.66640E-02 6.66640E-02 3.01367E-10-1.66115E-01 1.93460E-13 1.95928E-13
 -1     19498 6.66640E-02 6.66640E-02-5.52492E-10-1.59608E-01-2.05673E-13-1.76803E-13
 -1     19499 4.19995E-02 9.13285E-02-5.53829E-10-1.55725E-01 1.59153E-13 1.66218E-13
 -1     19500 6.66640E-02 6.66640E-02 3.01330E-10-1.66115E-01 5.28627E-14 1.06087E-13
 -1     19505 6.66640E-02 6.66640E-02-5.55863E-10-1.59608E-01 9.50005E-13 1.03482E-12
 -1     19506 4.19995E-02 9.13285E-02-5.53872E-10-1.55725E-01 1.64116E-12 1.90144E-12
 -1     19507 6.66640E-02 6.66640E-02 3.01123E-10-1.66115E-01-1.28856E-12-1.21189E-12
 -1     19512 6.66640E-02 6.66640E-02-5.48129E-10-1.59608E-01-4.06787E-12-3.95008E-12
 -1     19513 4.19995E-02 9.13285E-02-5.56583E-10-1.55725E-01-8.98653E-12-1.05476E-11
 -1     19514 6.66640E-02 6.66640E-02 3.03187E-10-1.66115E-01 5.58577E-12 5.63877E-12
 -1     19519 6.66640E-02 6.66640E-02-5.65850E-10-1.59608E-01 1.38322E-11 1.38765E-11
 -1     19523 1.15986E-01 1.73424E-02-5.66313E-10-1.51796E-01-1.59297E-11-1.15642E-11
 -1     19524 9.13285E-02 4.19995E-02-5.56418E-10-1.55725E-01 1.05252E-11 9.03602E-12
 -1     19525 1.17996E-01 1.53315E-02 3.03389E-10-1.57985E-01-6.49779E-12-4.67963E-12
 -1     19530 1.15986E-01 1.73424E-02-5.48619E-10-1.51796E-01 4.44368E-12 3.27035E-12
 -1     19531 9.13285E-02 4.19995E-02-5.53703E-10-1.55725E-01-1.92312E-12-1.57698E-12
 -1     19532 1.17996E-01 1.53315E-02 3.01298E-10-1.57985E-01 1.35392E-12 1.02016E-12
 -1     19537 1.15986E-01 1.73424E-02-5.56387E-10-1.51796E-01-1.24269E-12-8.56399E-13
 -1     19538 9.13285E-02 4.19995E-02-5.53641E-10-1.55725E-01-1.77420E-13-1.00601E-13
 -1     19539 1.17996E-01 1.53315E-02 3.01495E-10-1.57985E-01-1.51187E-13-7.33163E-14
 -1     19544 1.15986E-01 1.73424E-02-5.53022E-10-1.51796E-01 1.42176E-13 1.29335E-13
 -1     19545 9.13285E-02 4.19995E-02-5.53811E-10-1.55725E-01 6.03872E-13 5.57413E-13
 -1     19546 1.17996E-01 1.53315E-02 3.01506E-10-1.57985E-01-2.49461E-13-1.67423E-13
 -1     19551 1.15986E-01 1.73424E-02-5.54628E-10-1.51796E-01 2.55060E-17 6.05158E-15
 -1     19552 9.13285E-02 4.19995E-02-5.53731E-10-1.55725E-01-5.69582E-13-4.73469E-13
 -1     19553 1.17996E-01 1.53315E-02 3.01445E-10-1.57985E-01 2.38541E-13 1.82257E-13
 -1     19558 1.15986E-01 1.73424E-02-5.53825E-10-1.51796E-01-9.68126E-15-1.30416E-15
 -1     19559 9.13285E-02 4.19995E-02-5.53724E-10-1.55725E-01 5.75426E-13 4.89334E-13
 -1     19560 1.17996E-01 1.53315E-02 3.01446E-10-1.57985E-01-2.42413E-13-1.76156E-13
 -1     19565 1.15986E-01 1.73424E-02-5.54629E-10-1.51796E-01 6.22703E-15-7.53792E-15
 -1     19566 9.13285E-02 4.19995E-02-5.53818E-10-1.55725E-01-5.85513E-13-5.56053E-13
 -1     19567 1.17996E-01 1.53315E-02 3.01517E-10-1.57985E-01 2.58654E-13 1.67073E-13
 -1     19572 1.15986E-01 1.73424E-02-5.53002E-10-1.51796E-01-1.40787E-13-1.09424E-13
 -1     19573 9.13285E-02 4.19995E-02-5.53631E-10-1.55725E-01 1.83260E-13 1.16490E-13
 -1     19574 1.17996E-01 1.53315E-02 3.01482E-10-1.57985E-01 1.24742E-13 9.49799E-14
 -1     19579 1.15986E-01 1.73424E-02-5.56377E-10-1.51796E-01 1.22597E-12 8.85061E-13
 -1     19580 9.13285E-02 4.19995E-02-5.53692E-10-1.55725E-01 1.92175E-12 1.59533E-12
 -1     19581 1.17996E-01 1.53315E-02 3.01274E-10-1.57985E-01-1.35244E-12-1.00995E-12
 -1     19586 1.15986E-01 1.73424E-02-5.48614E-10-1.51796E-01-4.46229E-12-3.27758E-12
 -1     19587 9.13285E-02 4.19995E-02-5.56410E-10-1.55725E-01-1.05318E-11-9.03905E-12
 -1     19588 1.17996E-01 1.53315E-02 3.03369E-10-1.57985E-01 6.48790E-12 4.68597E-12
 -1     19593 1.15986E-01 1.73424E-02-5.66311E-10-1.51796E-01 1.59500E-11 1.15694E-11
 -1     19597 1.60479E-01-2.71512E-02-5.66228E-10-1.29125E-01-1.75413E-11-8.87292E-12
 -1     19598 1.38243E-01-4.91515E-03-5.56127E-10-1.40482E-01 1.18607E-11 7.21201E-12
 -1     19599 1.64304E-01-3.09762E-02 3.03423E-10-1.34390E-01-7.09915E-12-3.57493E-12
 -1     19604 1.60479E-01-2.71512E-02-5.48464E-10-1.29125E-01 4.96660E-12 2.61906E-12
 -1     19605 1.38243E-01-4.91515E-03-5.53416E-10-1.40482E-01-2.08423E-12-1.33976E-12
 -1     19606 1.64304E-01-3.09762E-02 3.01387E-10-1.34390E-01 1.53269E-12 8.44323E-13
 -1     19611 1.60479E-01-2.71512E-02-5.56157E-10-1.29125E-01-1.30723E-12-6.20030E-13
 -1     19612 1.38243E-01-4.91515E-03-5.53373E-10-1.40482E-01-1.52340E-13-1.52890E-13
 -1     19613 1.64304E-01-3.09762E-02 3.01628E-10-1.34390E-01-1.18096E-13-2.83506E-14
 -1     19618 1.60479E-01-2.71512E-02-5.52753E-10-1.29125E-01 1.90859E-13 1.42142E-13
 -1     19619 1.38243E-01-4.91515E-03-5.53548E-10-1.40482E-01 7.10350E-13 3.99883E-13
 -1     19620 1.64304E-01-3.09762E-02 3.01678E-10-1.34390E-01-2.57030E-13-1.08572E-13
 -1     19625 1.60479E-01-2.71512E-02-5.54341E-10-1.29125E-01 2.41181E-14 3.04333E-14
 -1     19626 1.38243E-01-4.91515E-03-5.53471E-10-1.40482E-01-6.16866E-13-3.99209E-13
 -1     19627 1.64304E-01-3.09762E-02 3.01616E-10-1.34390E-01 2.22792E-13 1.29749E-13
 -1     19632 1.60479E-01-2.71512E-02-5.53538E-10-1.29125E-01-1.11177E-14-1.40326E-15
 -1     19633 1.38243E-01-4.91515E-03-5.53457E-10-1.40482E-01 6.16573E-13 3.90101E-13
 -1     19634 1.64304E-01-3.09762E-02 3.01601E-10-1.34390E-01-2.30584E-13-1.28955E-13
 -1     19639 1.60479E-01-2.71512E-02-5.54337E-10-1.29125E-01-2.05768E-14-2.94886E-14
 -1     19640 1.38243E-01-4.91515E-03-5.53543E-10-1.40482E-01-6.98612E-13-4.06766E-13
 -1     19641 1.64304E-01-3.09762E-02 3.01660E-10-1.34390E-01 2.48798E-13 1.20527E-13
 -1     19646 1.60479E-01-2.71512E-02-5.52751E-10-1.29125E-01-1.72463E-13-1.44257E-13
 -1     19647 1.38243E-01-4.91515E-03-5.53362E-10-1.40482E-01 1.56863E-13 1.51797E-13
 -1     19648 1.64304E-01-3.09762E-02 3.01616E-10-1.34390E-01 1.65356E-13 2.30534E-14
 -1     19653 1.60479E-01-2.71512E-02-5.56173E-10-1.29125E-01 1.34065E-12 5.90579E-13
 -1     19654 1.38243E-01-4.91515E-03-5.53409E-10-1.40482E-01 2.08208E-12 1.34548E-12
 -1     19655 1.64304E-01-3.09762E-02 3.01381E-10-1.34390E-01-1.52092E-12-8.43571E-13
 -1     19660 1.60479E-01-2.71512E-02-5.48475E-10-1.29125E-01-4.93747E-12-2.62214E-12
 -1     19661 1.38243E-01-4.91515E-03-5.56122E-10-1.40482E-01-1.18569E-11-7.21432E-12
 -1     19662 1.64304E-01-3.09762E-02 3.03415E-10-1.34390E-01 7.15888E-12 3.57075E-12
 -1     19667 1.60479E-01-2.71512E-02-5.66221E-10-1.29125E-01 1.75467E-11 8.87175E-12
 -1     19671 1.95789E-01-6.24615E-02-5.65719E-10-9.38151E-02-1.85505E-11-6.06935E-12
 -1     19672 1.78151E-01-4.48231E-02-5.56525E-10-1.11487E-01 1.28117E-11 5.25127E-12
 -1     19673 2.01054E-01-6.77262E-02 3.03215E-10-9.76402E-02-7.49809E-12-2.47081E-12
 -1     19678 1.95789E-01-6.24615E-02-5.47918E-10-9.38151E-02 5.48789E-12 1.74689E-12
 -1     19679 1.78151E-01-4.48231E-02-5.53831E-10-1.11487E-01-2.28515E-12-1.03179E-12
 -1     19680 2.01054E-01-6.77262E-02 3.01194E-10-9.76402E-02 1.79138E-12 5.40617E-13
 -1     19685 1.95789E-01-6.24615E-02-5.55533E-10-9.38151E-02-1.19793E-12-4.07516E-13
 -1     19686 1.78151E-01-4.48231E-02-5.53819E-10-1.11487E-01-1.94613E-13-1.54594E-13
 -1     19687 2.01054E-01-6.77262E-02 3.01490E-10-9.76402E-02-5.36993E-15-2.86986E-14
 -1     19692 1.95789E-01-6.24615E-02-5.52050E-10-9.38151E-02 3.63208E-13 1.01473E-13
 -1     19693 1.78151E-01-4.48231E-02-5.54025E-10-1.11487E-01 7.57109E-13 2.63001E-13
 -1     19694 2.01054E-01-6.77262E-02 3.01585E-10-9.76402E-02-1.98562E-13-7.26219E-14
 -1     19699 1.95789E-01-6.24615E-02-5.53624E-10-9.38151E-02 1.09955E-13 2.93474E-14
 -1     19700 1.78151E-01-4.48231E-02-5.53954E-10-1.11487E-01-6.64626E-13-3.04404E-13
 -1     19701 2.01054E-01-6.77262E-02 3.01558E-10-9.76402E-02 3.16247E-13 8.90950E-14
 -1     19706 1.95789E-01-6.24615E-02-5.52798E-10-9.38151E-02-6.75441E-16-1.01402E-14
 -1     19707 1.78151E-01-4.48231E-02-5.53959E-10-1.11487E-01 6.78413E-13 2.91853E-13
 -1     19708 2.01054E-01-6.77262E-02 3.01570E-10-9.76402E-02-3.24428E-13-1.01064E-13
 -1     19713 1.95789E-01-6.24615E-02-5.53628E-10-9.38151E-02-1.21709E-13-3.76869E-14
 -1     19714 1.78151E-01-4.48231E-02-5.54026E-10-1.11487E-01-7.53645E-13-2.69484E-13
 -1     19715 2.01054E-01-6.77262E-02 3.01595E-10-9.76402E-02 1.62075E-13 6.00468E-14
 -1     19720 1.95789E-01-6.24615E-02-5.52080E-10-9.38151E-02-3.41978E-13-1.06236E-13
 -1     19721 1.78151E-01-4.48231E-02-5.53837E-10-1.11487E-01 2.06212E-13 1.52409E-13
 -1     19722 2.01054E-01-6.77262E-02 3.01498E-10-9.76402E-02 4.62548E-14 1.81601E-14
 -1     19727 1.95789E-01-6.24615E-02-5.55555E-10-9.38151E-02 1.20742E-12 4.16375E-13
 -1     19728 1.78151E-01-4.48231E-02-5.53841E-10-1.11487E-01 2.29927E-12 1.02933E-12
 -1     19729 2.01054E-01-6.77262E-02 3.01197E-10-9.76402E-02-1.75115E-12-5.44017E-13
 -1     19734 1.95789E-01-6.24615E-02-5.47905E-10-9.38151E-02-5.48997E-12-1.75226E-12
 -1     19735 1.78151E-01-4.48231E-02-5.56522E-10-1.11487E-01-1.28083E-11-5.24876E-12
 -1     19736 2.01054E-01-6.77262E-02 3.03203E-10-9.76402E-02 7.49042E-12 2.47435E-12
 -1     19741 1.95789E-01-6.24615E-02-5.65712E-10-9.38151E-02 1.85609E-11 6.06872E-12
 -1     19745 2.18460E-01-8.51321E-02-5.66025E-10-4.93215E-02-1.93641E-11-3.17817E-12
 -1     19746 2.07146E-01-7.38180E-02-5.56693E-10-7.15791E-02 1.34422E-11 3.30254E-12
 -1     19747 2.24649E-01-9.13211E-02 3.03227E-10-5.13325E-02-7.83890E-12-1.34155E-12
 -1     19752 2.18460E-01-8.51321E-02-5.48328E-10-4.93215E-02 5.59351E-12 7.42049E-13
 -1     19753 2.07146E-01-7.38180E-02-5.53992E-10-7.15791E-02-2.46468E-12-5.05592E-13
 -1     19754 2.24649E-01-9.13211E-02 3.01135E-10-5.13325E-02 1.73716E-12 1.94209E-13
 -1     19759 2.18460E-01-8.51321E-02-5.56076E-10-4.93215E-02-1.37291E-12-3.21441E-13
 -1     19760 2.07146E-01-7.38180E-02-5.53963E-10-7.15791E-02-2.41353E-13 1.33383E-14
 -1     19761 2.24649E-01-9.13211E-02 3.01363E-10-5.13325E-02-9.90729E-14-6.91868E-14
 -1     19766 2.18460E-01-8.51321E-02-5.52692E-10-4.93215E-02 2.61178E-13-1.22798E-14
 -1     19767 2.07146E-01-7.38180E-02-5.54161E-10-7.15791E-02 7.72001E-13 2.32499E-13
 -1     19768 2.24649E-01-9.13211E-02 3.01384E-10-5.13325E-02-2.26709E-13-6.97876E-14
 -1     19773 2.18460E-01-8.51321E-02-5.54278E-10-4.93215E-02 6.33676E-14-1.41686E-14
 -1     19774 2.07146E-01-7.38180E-02-5.54086E-10-7.15791E-02-7.14353E-13-1.58451E-13
 -1     19775 2.24649E-01-9.13211E-02 3.01349E-10-5.13325E-02 3.04689E-13 3.66373E-14
 -1     19780 2.18460E-01-8.51321E-02-5.53477E-10-4.93215E-02 2.01525E-14-1.38231E-15
 -1     19781 2.07146E-01-7.38180E-02-5.54097E-10-7.15791E-02 7.14706E-13 1.60792E-13
 -1     19782 2.24649E-01-9.13211E-02 3.01351E-10-5.13325E-02-2.82341E-13-3.83421E-14
 -1     19787 2.18460E-01-8.51321E-02-5.54282E-10-4.93215E-02-5.51351E-14 1.76360E-14
 -1     19788 2.07146E-01-7.38180E-02-5.54173E-10-7.15791E-02-7.77548E-13-2.25873E-13
 -1     19789 2.24649E-01-9.13211E-02 3.01400E-10-5.13325E-02 2.38120E-13 6.99049E-14
 -1     19794 2.18460E-01-8.51321E-02-5.52695E-10-4.93215E-02-2.82644E-13 2.08960E-14
 -1     19795 2.07146E-01-7.38180E-02-5.53985E-10-7.15791E-02 2.43750E-13-7.06290E-15
 -1     19796 2.24649E-01-9.13211E-02 3.01363E-10-5.13325E-02 8.03362E-14 7.53295E-14
 -1     19801 2.18460E-01-8.51321E-02-5.56076E-10-4.93215E-02 1.37757E-12 3.24198E-13
 -1     19802 2.07146E-01-7.38180E-02-5.53994E-10-7.15791E-02 2.47805E-12 5.08186E-13
 -1     19803 2.24649E-01-9.13211E-02 3.01146E-10-5.13325E-02-1.72595E-12-1.84639E-13
 -1     19808 2.18460E-01-8.51321E-02-5.48336E-10-4.93215E-02-5.58102E-12-7.34066E-13
 -1     19809 2.07146E-01-7.38180E-02-5.56694E-10-7.15791E-02-1.34402E-11-3.30339E-12
 -1     19810 2.24649E-01-9.13211E-02 3.03221E-10-5.13325E-02 7.85734E-12 1.34244E-12
 -1     19815 2.18460E-01-8.51321E-02-5.66022E-10-4.93215E-02 1.93821E-11 3.18308E-12
 -1     19819 2.22389E-01-8.90615E-02-5.56116E-10-2.46645E-02 1.38534E-11 1.16353E-12
 -1     19823 2.22389E-01-8.90615E-02-5.53380E-10-2.46645E-02-2.45883E-12-1.03332E-13
 -1     19827 2.22389E-01-8.90615E-02-5.53314E-10-2.46645E-02-2.00411E-13 5.97292E-14
 -1     19831 2.22389E-01-8.90615E-02-5.53470E-10-2.46645E-02 8.21929E-13 1.14366E-13
 -1     19835 2.22389E-01-8.90615E-02-5.53387E-10-2.46645E-02-7.34709E-13-4.16507E-14
 -1     19839 2.22389E-01-8.90615E-02-5.53385E-10-2.46645E-02 7.41690E-13 4.18124E-14
 -1     19843 2.22389E-01-8.90615E-02-5.53484E-10-2.46645E-02-8.16585E-13-1.07973E-13
 -1     19847 2.22389E-01-8.90615E-02-5.53314E-10-2.46645E-02 2.02952E-13-5.83605E-14
 -1     19851 2.22389E-01-8.90615E-02-5.53379E-10-2.46645E-02 2.47542E-12 1.04254E-13
 -1     19855 2.22389E-01-8.90615E-02-5.56118E-10-2.46645E-02-1.38440E-11-1.16375E-12
 -1     19861-7.41038E-02 2.07432E-01-4.80201E-10-4.57382E-02-2.48619E-12-1.57308E-11
 -1     19862-7.77477E-02 2.11076E-01-4.69868E-10-2.28726E-02 6.36435E-13 8.09173E-12
 -1     19863-7.96185E-02 2.12947E-01 2.55558E-10-4.75301E-02-9.02357E-13-5.75233E-12
 -1     19868-7.41038E-02 2.07432E-01-4.61018E-10-4.57382E-02 6.80120E-13 4.21804E-12
 -1     19869-7.77477E-02 2.11076E-01-4.66881E-10-2.28726E-02-2.53847E-14-2.97858E-13
 -1     19870-7.96185E-02 2.12947E-01 2.54044E-10-4.75301E-02 1.57266E-13 9.32563E-13
 -1     19875-7.41038E-02 2.07432E-01-4.71658E-10-4.57382E-02-8.85362E-14-6.14752E-13
 -1     19876-7.77477E-02 2.11076E-01-4.67740E-10-2.28726E-02-1.07877E-13-1.35295E-12
 -1     19877-7.96185E-02 2.12947E-01 2.53997E-10-4.75301E-02 6.75869E-14 3.59156E-13
 -1     19882-7.41038E-02 2.07432E-01-4.65917E-10-4.57382E-02 1.97230E-14 6.01687E-14
 -1     19883-7.77477E-02 2.11076E-01-4.68111E-10-2.28726E-02 1.13557E-13 1.47643E-12
 -1     19884-7.96185E-02 2.12947E-01 2.53834E-10-4.75301E-02-4.18214E-14-2.94341E-13
 -1     19889-7.41038E-02 2.07432E-01-4.69161E-10-4.57382E-02 5.93299E-14 3.25789E-13
 -1     19890-7.77477E-02 2.11076E-01-4.68151E-10-2.28726E-02-7.37835E-14-9.47411E-13
 -1     19891-7.96185E-02 2.12947E-01 2.53807E-10-4.75301E-02 6.74020E-14 4.02631E-13
 -1     19896-7.41038E-02 2.07432E-01-4.67385E-10-4.57382E-02 4.68753E-16 1.56522E-14
 -1     19897-7.77477E-02 2.11076E-01-4.68148E-10-2.28726E-02 7.61692E-14 9.48712E-13
 -1     19898-7.96185E-02 2.12947E-01 2.53809E-10-4.75301E-02-6.30952E-14-3.76608E-13
 -1     19903-7.41038E-02 2.07432E-01-4.69163E-10-4.57382E-02-5.47493E-14-3.06069E-13
 -1     19904-7.77477E-02 2.11076E-01-4.68108E-10-2.28726E-02-1.11845E-13-1.46265E-12
 -1     19905-7.96185E-02 2.12947E-01 2.53839E-10-4.75301E-02 4.41000E-14 3.14847E-13
 -1     19910-7.41038E-02 2.07432E-01-4.65926E-10-4.57382E-02-1.60837E-14-5.04468E-14
 -1     19911-7.77477E-02 2.11076E-01-4.67746E-10-2.28726E-02 1.11038E-13 1.35853E-12
 -1     19912-7.96185E-02 2.12947E-01 2.53995E-10-4.75301E-02-6.56726E-14-3.53601E-13
 -1     19917-7.41038E-02 2.07432E-01-4.71666E-10-4.57382E-02 8.27429E-14 6.19612E-13
 -1     19918-7.77477E-02 2.11076E-01-4.66885E-10-2.28726E-02 2.70809E-14 3.02946E-13
 -1     19919-7.96185E-02 2.12947E-01 2.54049E-10-4.75301E-02-1.59634E-13-9.14259E-13
 -1     19924-7.41038E-02 2.07432E-01-4.60999E-10-4.57382E-02-6.76705E-13-4.21284E-12
 -1     19925-7.77477E-02 2.11076E-01-4.69858E-10-2.28726E-02-6.34222E-13-8.08459E-12
 -1     19926-7.96185E-02 2.12947E-01 2.55566E-10-4.75301E-02 9.05731E-13 5.75245E-12
 -1     19931-7.41038E-02 2.07432E-01-4.80192E-10-4.57382E-02 2.49037E-12 1.57289E-11
 -1     19935-5.30802E-02 1.86408E-01-4.80132E-10-8.69993E-02-4.93323E-12-1.51530E-11
 -1     19936-6.36116E-02 1.96940E-01-4.69905E-10-6.63788E-02 1.89309E-12 7.89279E-12
 -1     19937-5.77713E-02 1.91099E-01 2.55539E-10-9.04076E-02-1.81173E-12-5.53608E-12
 -1     19942-5.30802E-02 1.86408E-01-4.60954E-10-8.69993E-02 1.30314E-12 4.06898E-12
 -1     19943-6.36116E-02 1.96940E-01-4.66910E-10-6.63788E-02-7.48185E-14-2.74171E-13
 -1     19944-5.77713E-02 1.91099E-01 2.54048E-10-9.04076E-02 2.79827E-13 8.93734E-13
 -1     19949-5.30802E-02 1.86408E-01-4.71576E-10-8.69993E-02-2.04116E-13-6.02307E-13
 -1     19950-6.36116E-02 1.96940E-01-4.67763E-10-6.63788E-02-3.23833E-13-1.30881E-12
 -1     19951-5.77713E-02 1.91099E-01 2.53981E-10-9.04076E-02 1.00368E-13 3.34889E-13
 -1     19956-5.30802E-02 1.86408E-01-4.65860E-10-8.69993E-02 1.34548E-14 4.12616E-14
 -1     19957-6.36116E-02 1.96940E-01-4.68129E-10-6.63788E-02 3.40003E-13 1.43629E-12
 -1     19958-5.77713E-02 1.91099E-01 2.53808E-10-9.04076E-02-9.51133E-14-3.21728E-13
 -1     19963-5.30802E-02 1.86408E-01-4.69117E-10-8.69993E-02 1.02717E-13 2.78796E-13
 -1     19964-6.36116E-02 1.96940E-01-4.68171E-10-6.63788E-02-2.20896E-13-9.34859E-13
 -1     19965-5.77713E-02 1.91099E-01 2.53769E-10-9.04076E-02 1.27696E-13 3.65825E-13
 -1     19970-5.30802E-02 1.86408E-01-4.67336E-10-8.69993E-02 1.38827E-14-4.34434E-15
 -1     19971-6.36116E-02 1.96940E-01-4.68157E-10-6.63788E-02 2.26358E-13 9.32337E-13
 -1     19972-5.77713E-02 1.91099E-01 2.53768E-10-9.04076E-02-1.09986E-13-3.74111E-13
 -1     19977-5.30802E-02 1.86408E-01-4.69117E-10-8.69993E-02-8.21227E-14-3.07460E-13
 -1     19978-6.36116E-02 1.96940E-01-4.68125E-10-6.63788E-02-3.34253E-13-1.42879E-12
 -1     19979-5.77713E-02 1.91099E-01 2.53806E-10-9.04076E-02 1.08426E-13 3.13764E-13
 -1     19984-5.30802E-02 1.86408E-01-4.65866E-10-8.69993E-02-6.23363E-15-1.86405E-14
 -1     19985-6.36116E-02 1.96940E-01-4.67766E-10-6.63788E-02 3.27966E-13 1.32677E-12
 -1     19986-5.77713E-02 1.91099E-01 2.53968E-10-9.04076E-02-9.06348E-14-3.03263E-13
 -1     19991-5.30802E-02 1.86408E-01-4.71590E-10-8.69993E-02 2.14248E-13 6.46257E-13
 -1     19992-6.36116E-02 1.96940E-01-4.66917E-10-6.63788E-02 7.99044E-14 2.90750E-13
 -1     19993-5.77713E-02 1.91099E-01 2.54042E-10-9.04076E-02-2.71111E-13-8.60096E-13
 -1     19998-5.30802E-02 1.86408E-01-4.60949E-10-8.69993E-02-1.29046E-12-4.03999E-12
 -1     19999-6.36116E-02 1.96940E-01-4.69897E-10-6.63788E-02-1.88899E-12-7.88219E-12
 -1     20000-5.77713E-02 1.91099E-01 2.55537E-10-9.04076E-02 1.81852E-12 5.56059E-12
 -1     20005-5.30802E-02 1.86408E-01-4.80148E-10-8.69993E-02 4.93800E-12 1.51546E-11
 -1     20009-2.03353E-02 1.53663E-01-4.80332E-10-1.19744E-01-7.27178E-12-1.42054E-11
 -1     20010-3.67233E-02 1.70051E-01-4.69938E-10-1.03387E-01 3.11299E-12 7.48493E-12
 -1     20011-2.37436E-02 1.57072E-01 2.55670E-10-1.24435E-01-2.67815E-12-5.18866E-12
 -1     20016-2.03353E-02 1.53663E-01-4.61109E-10-1.19744E-01 1.87129E-12 3.77986E-12
 -1     20017-3.67233E-02 1.70051E-01-4.66952E-10-1.03387E-01-1.03682E-13-2.77466E-13
 -1     20018-2.37436E-02 1.57072E-01 2.54164E-10-1.24435E-01 3.82481E-13 8.19517E-13
 -1     20023-2.03353E-02 1.53663E-01-4.71754E-10-1.19744E-01-3.22762E-13-5.90879E-13
 -1     20024-3.67233E-02 1.70051E-01-4.67806E-10-1.03387E-01-5.08470E-13-1.25944E-12
 -1     20025-2.37436E-02 1.57072E-01 2.54122E-10-1.24435E-01 1.37641E-13 3.01568E-13
 -1     20030-2.03353E-02 1.53663E-01-4.66004E-10-1.19744E-01-7.62577E-15 2.14207E-14
 -1     20031-3.67233E-02 1.70051E-01-4.68170E-10-1.03387E-01 5.60779E-13 1.35413E-12
 -1     20032-2.37436E-02 1.57072E-01 2.53971E-10-1.24435E-01-1.68084E-13-2.90546E-13
 -1     20037-2.03353E-02 1.53663E-01-4.69229E-10-1.19744E-01 1.10668E-13 2.72226E-13
 -1     20038-3.67233E-02 1.70051E-01-4.68207E-10-1.03387E-01-3.57247E-13-8.81305E-13
 -1     20039-2.37436E-02 1.57072E-01 2.53930E-10-1.24435E-01 1.73071E-13 3.40500E-13
 -1     20044-2.03353E-02 1.53663E-01-4.67457E-10-1.19744E-01 4.82208E-15-4.78066E-16
 -1     20045-3.67233E-02 1.70051E-01-4.68202E-10-1.03387E-01 3.71301E-13 8.74350E-13
 -1     20046-2.37436E-02 1.57072E-01 2.53948E-10-1.24435E-01-1.68806E-13-3.45754E-13
 -1     20051-2.03353E-02 1.53663E-01-4.69223E-10-1.19744E-01-1.30860E-13-2.81779E-13
 -1     20052-3.67233E-02 1.70051E-01-4.68163E-10-1.03387E-01-5.56661E-13-1.34990E-12
 -1     20053-2.37436E-02 1.57072E-01 2.53968E-10-1.24435E-01 1.64902E-13 2.71811E-13
 -1     20058-2.03353E-02 1.53663E-01-4.65986E-10-1.19744E-01 8.67144E-15-4.68327E-14
 -1     20059-3.67233E-02 1.70051E-01-4.67805E-10-1.03387E-01 5.24590E-13 1.26380E-12
 -1     20060-2.37436E-02 1.57072E-01 2.54133E-10-1.24435E-01-1.31347E-13-3.23234E-13
 -1     20065-2.03353E-02 1.53663E-01-4.71748E-10-1.19744E-01 3.25497E-13 5.62872E-13
 -1     20066-3.67233E-02 1.70051E-01-4.66953E-10-1.03387E-01 1.11603E-13 2.75996E-13
 -1     20067-2.37436E-02 1.57072E-01 2.54170E-10-1.24435E-01-3.87998E-13-8.54910E-13
 -1     20072-2.03353E-02 1.53663E-01-4.61115E-10-1.19744E-01-1.88802E-12-3.80730E-12
 -1     20073-3.67233E-02 1.70051E-01-4.69939E-10-1.03387E-01-3.10424E-12-7.48858E-12
 -1     20074-2.37436E-02 1.57072E-01 2.55669E-10-1.24435E-01 2.67817E-12 5.15932E-12
 -1     20079-2.03353E-02 1.53663E-01-4.80320E-10-1.19744E-01 7.27455E-12 1.41881E-11
 -1     20083 2.09258E-02 1.12402E-01-4.80189E-10-1.40768E-01-9.32976E-12-1.28776E-11
 -1     20084 2.85235E-04 1.33043E-01-4.69720E-10-1.30276E-01 4.26347E-12 6.90163E-12
 -1     20085 1.91339E-02 1.14194E-01 2.55618E-10-1.46283E-01-3.38626E-12-4.70893E-12
 -1     20090 2.09258E-02 1.12402E-01-4.60946E-10-1.40768E-01 2.54795E-12 3.46858E-12
 -1     20091 2.85235E-04 1.33043E-01-4.66745E-10-1.30276E-01-1.20136E-13-2.63582E-13
 -1     20092 1.91339E-02 1.14194E-01 2.54131E-10-1.46283E-01 5.98279E-13 7.83545E-13
 -1     20097 2.09258E-02 1.12402E-01-4.71549E-10-1.40768E-01-3.28647E-13-4.74085E-13
 -1     20098 2.85235E-04 1.33043E-01-4.67629E-10-1.30276E-01-6.73843E-13-1.17709E-12
 -1     20099 1.91339E-02 1.14194E-01 2.54116E-10-1.46283E-01 2.43062E-13 3.10118E-13
 -1     20104 2.09258E-02 1.12402E-01-4.65773E-10-1.40768E-01 6.99341E-14 4.49108E-14
 -1     20105 2.85235E-04 1.33043E-01-4.67994E-10-1.30276E-01 7.82387E-13 1.23641E-12
 -1     20106 1.91339E-02 1.14194E-01 2.53978E-10-1.46283E-01-1.53993E-13-2.50518E-13
 -1     20111 2.09258E-02 1.12402E-01-4.68987E-10-1.40768E-01 2.07086E-13 2.78037E-13
 -1     20112 2.85235E-04 1.33043E-01-4.68034E-10-1.30276E-01-4.86573E-13-8.21346E-13
 -1     20113 1.91339E-02 1.14194E-01 2.53963E-10-1.46283E-01 2.54273E-13 3.32551E-13
 -1     20118 2.09258E-02 1.12402E-01-4.67192E-10-1.40768E-01 9.21430E-15 1.46623E-15
 -1     20119 2.85235E-04 1.33043E-01-4.68030E-10-1.30276E-01 4.85052E-13 8.13798E-13
 -1     20120 1.91339E-02 1.14194E-01 2.53966E-10-1.46283E-01-2.42595E-13-3.20348E-13
 -1     20125 2.09258E-02 1.12402E-01-4.68980E-10-1.40768E-01-2.07917E-13-2.76775E-13
 -1     20126 2.85235E-04 1.33043E-01-4.67990E-10-1.30276E-01-7.80853E-13-1.24439E-12
 -1     20127 1.91339E-02 1.14194E-01 2.53977E-10-1.46283E-01 1.59836E-13 2.41667E-13
 -1     20132 2.09258E-02 1.12402E-01-4.65777E-10-1.40768E-01-5.28413E-14-4.82506E-14
 -1     20133 2.85235E-04 1.33043E-01-4.67623E-10-1.30276E-01 6.85767E-13 1.18073E-12
 -1     20134 1.91339E-02 1.14194E-01 2.54125E-10-1.46283E-01-2.36666E-13-3.03660E-13
 -1     20139 2.09258E-02 1.12402E-01-4.71542E-10-1.40768E-01 3.44724E-13 4.80546E-13
 -1     20140 2.85235E-04 1.33043E-01-4.66749E-10-1.30276E-01 1.22953E-13 2.60609E-13
 -1     20141 1.91339E-02 1.14194E-01 2.54138E-10-1.46283E-01-5.78665E-13-7.73568E-13
 -1     20146 2.09258E-02 1.12402E-01-4.60947E-10-1.40768E-01-2.54160E-12-3.45211E-12
 -1     20147 2.85235E-04 1.33043E-01-4.69716E-10-1.30276E-01-4.25901E-12-6.90929E-12
 -1     20148 1.91339E-02 1.14194E-01 2.55606E-10-1.46283E-01 3.40223E-12 4.72259E-12
 -1     20153 2.09258E-02 1.12402E-01-4.80194E-10-1.40768E-01 9.33953E-12 1.28812E-11
 -1     20157 6.66640E-02 6.66640E-02-4.79913E-10-1.48012E-01-1.11947E-11-1.12881E-11
 -1     20158 4.37914E-02 8.95365E-02-4.70116E-10-1.44412E-01 5.23937E-12 6.14646E-12
 -1     20159 6.66640E-02 6.66640E-02 2.55435E-10-1.53811E-01-4.07118E-12-4.15785E-12
 -1     20164 6.66640E-02 6.66640E-02-4.60730E-10-1.48012E-01 3.14956E-12 2.97688E-12
 -1     20165 4.37914E-02 8.95365E-02-4.67126E-10-1.44412E-01-2.13579E-13-2.15413E-13
 -1     20166 6.66640E-02 6.66640E-02 2.53929E-10-1.53811E-01 7.29391E-13 6.30496E-13
 -1     20171 6.66640E-02 6.66640E-02-4.71381E-10-1.48012E-01-3.37968E-13-4.56287E-13
 -1     20172 4.37914E-02 8.95365E-02-4.68000E-10-1.44412E-01-8.99929E-13-1.03896E-12
 -1     20173 6.66640E-02 6.66640E-02 2.53874E-10-1.53811E-01 3.11884E-13 2.34182E-13
 -1     20178 6.66640E-02 6.66640E-02-4.65652E-10-1.48012E-01 8.79930E-14 3.64882E-14
 -1     20179 4.37914E-02 8.95365E-02-4.68358E-10-1.44412E-01 9.41925E-13 1.11407E-12
 -1     20180 6.66640E-02 6.66640E-02 2.53697E-10-1.53811E-01-1.91900E-13-2.23425E-13
 -1     20185 6.66640E-02 6.66640E-02-4.68909E-10-1.48012E-01 2.54134E-13 2.16978E-13
 -1     20186 4.37914E-02 8.95365E-02-4.68409E-10-1.44412E-01-6.10591E-13-7.23139E-13
 -1     20187 6.66640E-02 6.66640E-02 2.53653E-10-1.53811E-01 2.69214E-13 2.62562E-13
 -1     20192 6.66640E-02 6.66640E-02-4.67149E-10-1.48012E-01 2.76455E-15 1.42225E-14
 -1     20193 4.37914E-02 8.95365E-02-4.68403E-10-1.44412E-01 6.14337E-13 7.22849E-13
 -1     20194 6.66640E-02 6.66640E-02 2.53668E-10-1.53811E-01-2.62955E-13-2.57314E-13
 -1     20199 6.66640E-02 6.66640E-02-4.68883E-10-1.48012E-01-2.33165E-13-1.90414E-13
 -1     20200 4.37914E-02 8.95365E-02-4.68366E-10-1.44412E-01-9.35649E-13-1.10970E-12
 -1     20201 6.66640E-02 6.66640E-02 2.53699E-10-1.53811E-01 2.09859E-13 2.40975E-13
 -1     20206 6.66640E-02 6.66640E-02-4.65650E-10-1.48012E-01-9.36281E-14-3.00840E-14
 -1     20207 4.37914E-02 8.95365E-02-4.67999E-10-1.44412E-01 9.08523E-13 1.03866E-12
 -1     20208 6.66640E-02 6.66640E-02 2.53877E-10-1.53811E-01-2.89510E-13-2.23560E-13
 -1     20213 6.66640E-02 6.66640E-02-4.71381E-10-1.48012E-01 3.54219E-13 4.62449E-13
 -1     20214 4.37914E-02 8.95365E-02-4.67137E-10-1.44412E-01 2.22788E-13 2.24736E-13
 -1     20215 6.66640E-02 6.66640E-02 2.53938E-10-1.53811E-01-7.20724E-13-6.12252E-13
 -1     20220 6.66640E-02 6.66640E-02-4.60735E-10-1.48012E-01-3.12367E-12-2.97957E-12
 -1     20221 4.37914E-02 8.95365E-02-4.70115E-10-1.44412E-01-5.24263E-12-6.15204E-12
 -1     20222 6.66640E-02 6.66640E-02 2.55442E-10-1.53811E-01 4.05428E-12 4.15154E-12
 -1     20227 6.66640E-02 6.66640E-02-4.79931E-10-1.48012E-01 1.11912E-11 1.12896E-11
 -1     20231 1.12402E-01 2.09258E-02-4.80463E-10-1.40768E-01-1.29772E-11-9.38885E-12
 -1     20232 8.95365E-02 4.37914E-02-4.69914E-10-1.44412E-01 6.13475E-12 5.30410E-12
 -1     20233 1.14194E-01 1.91339E-02 2.55666E-10-1.46283E-01-4.79559E-12-3.43231E-12
 -1     20238 1.12402E-01 2.09258E-02-4.61301E-10-1.40768E-01 3.30307E-12 2.46580E-12
 -1     20239 8.95365E-02 4.37914E-02-4.66915E-10-1.44412E-01-2.57045E-13-1.31259E-13
 -1     20240 1.14194E-01 1.91339E-02 2.54118E-10-1.46283E-01 6.53406E-13 5.26597E-13
 -1     20245 1.12402E-01 2.09258E-02-4.72007E-10-1.40768E-01-6.27661E-13-4.31721E-13
 -1     20246 8.95365E-02 4.37914E-02-4.67758E-10-1.44412E-01-1.06216E-12-8.23490E-13
 -1     20247 1.14194E-01 1.91339E-02 2.54024E-10-1.46283E-01 2.09485E-13 1.81652E-13
 -1     20252 1.12402E-01 2.09258E-02-4.66312E-10-1.40768E-01-5.51057E-14-2.59504E-14
 -1     20253 8.95365E-02 4.37914E-02-4.68100E-10-1.44412E-01 1.09787E-12 9.92242E-13
 -1     20254 1.14194E-01 1.91339E-02 2.53826E-10-1.46283E-01-3.09095E-13-2.13114E-13
 -1     20259 1.12402E-01 2.09258E-02-4.69579E-10-1.40768E-01 2.21397E-13 1.50399E-13
 -1     20260 8.95365E-02 4.37914E-02-4.68135E-10-1.44412E-01-7.24774E-13-6.03312E-13
 -1     20261 1.14194E-01 1.91339E-02 2.53779E-10-1.46283E-01 3.06989E-13 2.22228E-13
 -1     20266 1.12402E-01 2.09258E-02-4.67831E-10-1.40768E-01-3.15679E-15-7.57602E-15
 -1     20267 8.95365E-02 4.37914E-02-4.68138E-10-1.44412E-01 7.40267E-13 6.05873E-13
 -1     20268 1.14194E-01 1.91339E-02 2.53768E-10-1.46283E-01-3.06448E-13-2.21504E-13
 -1     20273 1.12402E-01 2.09258E-02-4.69603E-10-1.40768E-01-1.98082E-13-1.59380E-13
 -1     20274 8.95365E-02 4.37914E-02-4.68102E-10-1.44412E-01-1.08969E-12-9.81042E-13
 -1     20275 1.14194E-01 1.91339E-02 2.53830E-10-1.46283E-01 3.20366E-13 2.05690E-13
 -1     20280 1.12402E-01 2.09258E-02-4.66332E-10-1.40768E-01 5.04215E-14 2.22448E-14
 -1     20281 8.95365E-02 4.37914E-02-4.67753E-10-1.44412E-01 1.07469E-12 8.34154E-13
 -1     20282 1.14194E-01 1.91339E-02 2.54023E-10-1.46283E-01-2.16792E-13-1.64615E-13
 -1     20287 1.12402E-01 2.09258E-02-4.72016E-10-1.40768E-01 6.30633E-13 4.38153E-13
 -1     20288 8.95365E-02 4.37914E-02-4.66921E-10-1.44412E-01 2.54225E-13 1.25951E-13
 -1     20289 1.14194E-01 1.91339E-02 2.54119E-10-1.46283E-01-6.68622E-13-5.26163E-13
 -1     20294 1.12402E-01 2.09258E-02-4.61300E-10-1.40768E-01-3.31325E-12-2.45123E-12
 -1     20295 8.95365E-02 4.37914E-02-4.69918E-10-1.44412E-01-6.14228E-12-5.30891E-12
 -1     20296 1.14194E-01 1.91339E-02 2.55673E-10-1.46283E-01 4.79160E-12 3.43712E-12
 -1     20301 1.12402E-01 2.09258E-02-4.80464E-10-1.40768E-01 1.29657E-11 9.39655E-12
 -1     20305 1.53663E-01-2.03353E-02-4.80374E-10-1.19744E-01-1.42604E-11-7.16931E-12
 -1     20306 1.33043E-01 2.85234E-04-4.69562E-10-1.30276E-01 6.96018E-12 4.19965E-12
 -1     20307 1.57072E-01-2.37436E-02 2.55733E-10-1.24435E-01-5.24256E-12-2.57355E-12
 -1     20312 1.53663E-01-2.03353E-02-4.61131E-10-1.19744E-01 3.70342E-12 2.04424E-12
 -1     20313 1.33043E-01 2.85234E-04-4.66578E-10-1.30276E-01-1.86121E-13-2.01174E-13
 -1     20314 1.57072E-01-2.37436E-02 2.54242E-10-1.24435E-01 7.86236E-13 4.94910E-13
 -1     20319 1.53663E-01-2.03353E-02-4.71727E-10-1.19744E-01-6.48349E-13-1.93750E-13
 -1     20320 1.33043E-01 2.85234E-04-4.67427E-10-1.30276E-01-1.11800E-12-7.45332E-13
 -1     20321 1.57072E-01-2.37436E-02 2.54213E-10-1.24435E-01 2.64755E-13 2.02730E-13
 -1     20326 1.53663E-01-2.03353E-02-4.65970E-10-1.19744E-01-1.05234E-14 8.26698E-14
 -1     20327 1.33043E-01 2.85234E-04-4.67776E-10-1.30276E-01 1.28817E-12 7.40330E-13
 -1     20328 1.57072E-01-2.37436E-02 2.54058E-10-1.24435E-01-3.03199E-13-1.15823E-13
 -1     20333 1.53663E-01-2.03353E-02-4.69210E-10-1.19744E-01 2.44197E-13 1.62103E-13
 -1     20334 1.33043E-01 2.85234E-04-4.67814E-10-1.30276E-01-8.04834E-13-5.03676E-13
 -1     20335 1.57072E-01-2.37436E-02 2.54027E-10-1.24435E-01 3.22462E-13 1.80585E-13
 -1     20340 1.53663E-01-2.03353E-02-4.67442E-10-1.19744E-01 4.75938E-15-1.31785E-14
 -1     20341 1.33043E-01 2.85234E-04-4.67822E-10-1.30276E-01 8.10893E-13 5.02752E-13
 -1     20342 1.57072E-01-2.37436E-02 2.54029E-10-1.24435E-01-3.33669E-13-1.90838E-13
 -1     20347 1.53663E-01-2.03353E-02-4.69197E-10-1.19744E-01-2.58503E-13-1.63624E-13
 -1     20348 1.33043E-01 2.85234E-04-4.67781E-10-1.30276E-01-1.28169E-12-7.41481E-13
 -1     20349 1.57072E-01-2.37436E-02 2.54055E-10-1.24435E-01 3.10624E-13 1.23349E-13
 -1     20354 1.53663E-01-2.03353E-02-4.65977E-10-1.19744E-01 2.22363E-14-8.12134E-14
 -1     20355 1.33043E-01 2.85234E-04-4.67429E-10-1.30276E-01 1.11625E-12 7.56481E-13
 -1     20356 1.57072E-01-2.37436E-02 2.54211E-10-1.24435E-01-2.59991E-13-2.15205E-13
 -1     20361 1.53663E-01-2.03353E-02-4.71734E-10-1.19744E-01 6.40071E-13 1.92280E-13
 -1     20362 1.33043E-01 2.85234E-04-4.66577E-10-1.30276E-01 1.86048E-13 2.00433E-13
 -1     20363 1.57072E-01-2.37436E-02 2.54235E-10-1.24435E-01-7.83272E-13-5.02348E-13
 -1     20368 1.53663E-01-2.03353E-02-4.61122E-10-1.19744E-01-3.67700E-12-2.03967E-12
 -1     20369 1.33043E-01 2.85234E-04-4.69566E-10-1.30276E-01-6.96378E-12-4.19974E-12
 -1     20370 1.57072E-01-2.37436E-02 2.55735E-10-1.24435E-01 5.26101E-12 2.57091E-12
 -1     20375 1.53663E-01-2.03353E-02-4.80377E-10-1.19744E-01 1.42538E-11 7.16882E-12
 -1     20379 1.86408E-01-5.30802E-02-4.79789E-10-8.69993E-02-1.50167E-11-4.91675E-12
 -1     20380 1.70051E-01-3.67233E-02-4.70049E-10-1.03387E-01 7.49207E-12 3.01328E-12
 -1     20381 1.91099E-01-5.77713E-02 2.55481E-10-9.04076E-02-5.44037E-12-1.80572E-12
 -1     20386 1.86408E-01-5.30802E-02-4.60482E-10-8.69993E-02 4.23337E-12 1.34862E-12
 -1     20387 1.70051E-01-3.67233E-02-4.67100E-10-1.03387E-01-2.57671E-13-2.16888E-13
 -1     20388 1.91099E-01-5.77713E-02 2.54073E-10-9.04076E-02 1.01324E-12 3.06655E-13
 -1     20393 1.86408E-01-5.30802E-02-4.70991E-10-8.69993E-02-4.32796E-13-1.56717E-13
 -1     20394 1.70051E-01-3.67233E-02-4.67987E-10-1.03387E-01-1.24438E-12-6.18894E-13
 -1     20395 1.91099E-01-5.77713E-02 2.54116E-10-9.04076E-02 4.53807E-13 1.30591E-13
 -1     20400 1.86408E-01-5.30802E-02-4.65150E-10-8.69993E-02 1.93312E-13 4.31279E-14
 -1     20401 1.70051E-01-3.67233E-02-4.68371E-10-1.03387E-01 1.36604E-12 4.94486E-13
 -1     20402 1.91099E-01-5.77713E-02 2.54025E-10-9.04076E-02-2.19957E-13-8.08472E-14
 -1     20407 1.86408E-01-5.30802E-02-4.68332E-10-8.69993E-02 3.95649E-13 1.21610E-13
 -1     20408 1.70051E-01-3.67233E-02-4.68431E-10-1.03387E-01-8.75995E-13-3.89461E-13
 -1     20409 1.91099E-01-5.77713E-02 2.54018E-10-9.04076E-02 4.28538E-13 1.30730E-13
 -1     20414 1.86408E-01-5.30802E-02-4.66538E-10-8.69993E-02 2.35002E-15 6.09593E-16
 -1     20415 1.70051E-01-3.67233E-02-4.68423E-10-1.03387E-01 8.79769E-13 3.76434E-13
 -1     20416 1.91099E-01-5.77713E-02 2.54028E-10-9.04076E-02-4.22453E-13-1.34460E-13
 -1     20421 1.86408E-01-5.30802E-02-4.68306E-10-8.69993E-02-3.82208E-13-1.18525E-13
 -1     20422 1.70051E-01-3.67233E-02-4.68368E-10-1.03387E-01-1.36840E-12-5.04373E-13
 -1     20423 1.91099E-01-5.77713E-02 2.54028E-10-9.04076E-02 2.12873E-13 7.39200E-14
 -1     20428 1.86408E-01-5.30802E-02-4.65132E-10-8.69993E-02-1.99302E-13-5.44479E-14
 -1     20429 1.70051E-01-3.67233E-02-4.67991E-10-1.03387E-01 1.25291E-12 6.07075E-13
 -1     20430 1.91099E-01-5.77713E-02 2.54108E-10-9.04076E-02-4.44800E-13-1.30042E-13
 -1     20435 1.86408E-01-5.30802E-02-4.70981E-10-8.69993E-02 4.20378E-13 1.57385E-13
 -1     20436 1.70051E-01-3.67233E-02-4.67091E-10-1.03387E-01 2.60022E-13 2.18119E-13
 -1     20437 1.91099E-01-5.77713E-02 2.54071E-10-9.04076E-02-1.01516E-12-2.99953E-13
 -1     20442 1.86408E-01-5.30802E-02-4.60469E-10-8.69993E-02-4.27400E-12-1.33694E-12
 -1     20443 1.70051E-01-3.67233E-02-4.70048E-10-1.03387E-01-7.48545E-12-3.02155E-12
 -1     20444 1.91099E-01-5.77713E-02 2.55492E-10-9.04076E-02 5.42325E-12 1.80935E-12
 -1     20449 1.86408E-01-5.30802E-02-4.79774E-10-8.69993E-02 1.50072E-11 4.91473E-12
 -1     20453 2.07432E-01-7.41038E-02-4.80133E-10-4.57382E-02-1.57111E-11-2.64024E-12
 -1     20454 1.96940E-01-6.36116E-02-4.70253E-10-6.63788E-02 7.82039E-12 1.97849E-12
 -1     20455 2.12947E-01-7.96185E-02 2.55486E-10-4.75301E-02-5.72336E-12-1.05016E-12
 -1     20460 2.07432E-01-7.41038E-02-4.60970E-10-4.57382E-02 4.27372E-12 4.58199E-13
 -1     20461 1.96940E-01-6.36116E-02-4.67288E-10-6.63788E-02-3.46919E-13 3.48987E-14
 -1     20462 2.12947E-01-7.96185E-02 2.53969E-10-4.75301E-02 9.67383E-13 1.52622E-14
 -1     20467 2.07432E-01-7.41038E-02-4.71644E-10-4.57382E-02-5.72653E-13-2.52434E-13
 -1     20468 1.96940E-01-6.36116E-02-4.68168E-10-6.63788E-02-1.37798E-12-2.38811E-13
 -1     20469 2.12947E-01-7.96185E-02 2.53894E-10-4.75301E-02 3.68863E-13-2.96564E-14
 -1     20474 2.07432E-01-7.41038E-02-4.65897E-10-4.57382E-02 8.69447E-14-7.99190E-14
 -1     20475 1.96940E-01-6.36116E-02-4.68546E-10-6.63788E-02 1.39313E-12 3.92318E-13
 -1     20476 2.12947E-01-7.96185E-02 2.53736E-10-4.75301E-02-2.92808E-13-9.13285E-14
 -1     20481 2.07432E-01-7.41038E-02-4.69132E-10-4.57382E-02 3.27341E-13 1.09532E-14
 -1     20482 1.96940E-01-6.36116E-02-4.68600E-10-6.63788E-02-9.21622E-13-2.00924E-13
 -1     20483 2.12947E-01-7.96185E-02 2.53709E-10-4.75301E-02 4.01316E-13 4.90226E-14
 -1     20488 2.07432E-01-7.41038E-02-4.67372E-10-4.57382E-02 4.06245E-15 1.88496E-15
 -1     20489 1.96940E-01-6.36116E-02-4.68594E-10-6.63788E-02 9.23731E-13 2.05174E-13
 -1     20490 2.12947E-01-7.96185E-02 2.53699E-10-4.75301E-02-3.90184E-13-4.97291E-14
 -1     20495 2.07432E-01-7.41038E-02-4.69158E-10-4.57382E-02-3.25358E-13-1.54255E-14
 -1     20496 1.96940E-01-6.36116E-02-4.68547E-10-6.63788E-02-1.39659E-12-3.91301E-13
 -1     20497 2.12947E-01-7.96185E-02 2.53726E-10-4.75301E-02 3.01032E-13 9.46260E-14
 -1     20502 2.07432E-01-7.41038E-02-4.65903E-10-4.57382E-02-8.86806E-14 8.25682E-14
 -1     20503 1.96940E-01-6.36116E-02-4.68165E-10-6.63788E-02 1.37340E-12 2.40622E-13
 -1     20504 2.12947E-01-7.96185E-02 2.53904E-10-4.75301E-02-3.82925E-13 3.13300E-14
 -1     20509 2.07432E-01-7.41038E-02-4.71626E-10-4.57382E-02 5.77197E-13 2.53588E-13
 -1     20510 1.96940E-01-6.36116E-02-4.67283E-10-6.63788E-02 3.55555E-13-2.77116E-14
 -1     20511 2.12947E-01-7.96185E-02 2.53961E-10-4.75301E-02-9.46491E-13-1.08595E-14
 -1     20516 2.07432E-01-7.41038E-02-4.60975E-10-4.57382E-02-4.23307E-12-4.63954E-13
 -1     20517 1.96940E-01-6.36116E-02-4.70246E-10-6.63788E-02-7.82366E-12-1.97488E-12
 -1     20518 2.12947E-01-7.96185E-02 2.55485E-10-4.75301E-02 5.73864E-12 1.05059E-12
 -1     20523 2.07432E-01-7.41038E-02-4.80134E-10-4.57382E-02 1.57141E-11 2.63762E-12
 -1     20527 2.11076E-01-7.77477E-02-4.69558E-10-2.28726E-02 8.11612E-12 7.44598E-13
 -1     20531 2.11076E-01-7.77477E-02-4.66552E-10-2.28726E-02-2.57771E-13 1.05910E-13
 -1     20535 2.11076E-01-7.77477E-02-4.67369E-10-2.28726E-02-1.34043E-12 1.93142E-15
 -1     20539 2.11076E-01-7.77477E-02-4.67708E-10-2.28726E-02 1.48041E-12 1.87155E-13
 -1     20543 2.11076E-01-7.77477E-02-4.67724E-10-2.28726E-02-9.34422E-13-4.64995E-14
 -1     20547 2.11076E-01-7.77477E-02-4.67735E-10-2.28726E-02 9.35707E-13 5.32067E-14
 -1     20551 2.11076E-01-7.77477E-02-4.67705E-10-2.28726E-02-1.45889E-12-1.82931E-13
 -1     20555 2.11076E-01-7.77477E-02-4.67360E-10-2.28726E-02 1.33134E-12 1.14346E-15
 -1     20559 2.11076E-01-7.77477E-02-4.66553E-10-2.28726E-02 2.71437E-13-1.01960E-13
 -1     20563 2.11076E-01-7.77477E-02-4.69567E-10-2.28726E-02-8.11762E-12-7.41258E-13
 -1     20569-6.42348E-02 1.97563E-01-4.15141E-10-4.25316E-02-1.83505E-12-1.16198E-11
 -1     20570-6.76233E-02 2.00951E-01-4.03074E-10-2.12690E-02 3.61484E-13 4.60798E-12
 -1     20571-6.91698E-02 2.02498E-01 2.16796E-10-4.41351E-02-3.17962E-13-2.09089E-12
 -1     20576-6.42348E-02 1.97563E-01-3.90098E-10-4.25316E-02 6.53530E-13 4.00037E-12
 -1     20577-6.76233E-02 2.00951E-01-4.02428E-10-2.12690E-02 4.49610E-13 5.75365E-12
 -1     20578-6.91698E-02 2.02498E-01 2.13951E-10-4.41351E-02 7.44994E-14 3.66772E-13
 -1     20583-6.42348E-02 1.97563E-01-4.07401E-10-4.25316E-02 2.26245E-13 1.26813E-12
 -1     20584-6.76233E-02 2.00951E-01-4.01318E-10-2.12690E-02-1.94969E-13-2.44943E-12
 -1     20585-6.91698E-02 2.02498E-01 2.14680E-10-4.41351E-02 2.80235E-13 1.66504E-12
 -1     20590-6.42348E-02 1.97563E-01-3.97553E-10-4.25316E-02 2.96538E-14 9.49073E-14
 -1     20591-6.76233E-02 2.00951E-01-4.01193E-10-2.12690E-02 2.55540E-13 3.24350E-12
 -1     20592-6.91698E-02 2.02498E-01 2.14369E-10-4.41351E-02-3.07587E-14-2.69879E-13
 -1     20597-6.42348E-02 1.97563E-01-4.03285E-10-4.25316E-02 1.90308E-13 1.11461E-12
 -1     20598-6.76233E-02 2.00951E-01-4.01265E-10-2.12690E-02-8.80067E-14-1.11339E-12
 -1     20599-6.91698E-02 2.02498E-01 2.14339E-10-4.41351E-02 1.10913E-13 6.62909E-13
 -1     20604-6.42348E-02 1.97563E-01-4.00561E-10-4.25316E-02 5.01662E-15 2.27537E-15
 -1     20605-6.76233E-02 2.00951E-01-4.01279E-10-2.12690E-02 9.05857E-14 1.11607E-12
 -1     20606-6.91698E-02 2.02498E-01 2.14338E-10-4.41351E-02-1.05849E-13-6.44168E-13
 -1     20611-6.42348E-02 1.97563E-01-4.03303E-10-4.25316E-02-1.87238E-13-1.10623E-12
 -1     20612-6.76233E-02 2.00951E-01-4.01193E-10-2.12690E-02-2.50601E-13-3.23989E-12
 -1     20613-6.91698E-02 2.02498E-01 2.14351E-10-4.41351E-02 3.59983E-14 2.78982E-13
 -1     20618-6.42348E-02 1.97563E-01-3.97564E-10-4.25316E-02-2.75510E-14-8.78536E-14
 -1     20619-6.76233E-02 2.00951E-01-4.01314E-10-2.12690E-02 1.96177E-13 2.45574E-12
 -1     20620-6.91698E-02 2.02498E-01 2.14677E-10-4.41351E-02-2.79504E-13-1.66858E-12
 -1     20625-6.42348E-02 1.97563E-01-4.07398E-10-4.25316E-02-2.20048E-13-1.27554E-12
 -1     20626-6.76233E-02 2.00951E-01-4.02429E-10-2.12690E-02-4.47244E-13-5.75641E-12
 -1     20627-6.91698E-02 2.02498E-01 2.13940E-10-4.41351E-02-7.39979E-14-3.57428E-13
 -1     20632-6.42348E-02 1.97563E-01-3.90101E-10-4.25316E-02-6.50134E-13-3.99757E-12
 -1     20633-6.76233E-02 2.00951E-01-4.03071E-10-2.12690E-02-3.59029E-13-4.59826E-12
 -1     20634-6.91698E-02 2.02498E-01 2.16806E-10-4.41351E-02 3.20280E-13 2.08667E-12
 -1     20639-6.42348E-02 1.97563E-01-4.15142E-10-4.25316E-02 1.83422E-12 1.16118E-11
 -1     20643-4.46852E-02 1.78013E-01-4.15066E-10-8.08999E-02-3.64775E-12-1.11705E-11
 -1     20644-5.44783E-02 1.87806E-01-4.03122E-10-6.17251E-02 1.07741E-12 4.48890E-12
 -1     20645-4.88831E-02 1.82211E-01 2.16755E-10-8.39499E-02-6.69464E-13-2.01091E-12
 -1     20650-4.46852E-02 1.78013E-01-3.90024E-10-8.08999E-02 1.22980E-12 3.84998E-12
 -1     20651-5.44783E-02 1.87806E-01-4.02466E-10-6.17251E-02 1.33871E-12 5.61009E-12
 -1     20652-4.88831E-02 1.82211E-01 2.13899E-10-8.39499E-02 9.98224E-14 3.50708E-13
 -1     20657-4.46852E-02 1.78013E-01-4.07350E-10-8.08999E-02 3.95263E-13 1.22581E-12
 -1     20658-5.44783E-02 1.87806E-01-4.01348E-10-6.17251E-02-5.79023E-13-2.38797E-12
 -1     20659-4.88831E-02 1.82211E-01 2.14641E-10-8.39499E-02 5.16669E-13 1.59895E-12
 -1     20664-4.46852E-02 1.78013E-01-3.97520E-10-8.08999E-02 2.64541E-14 8.40483E-14
 -1     20665-5.44783E-02 1.87806E-01-4.01223E-10-6.17251E-02 7.55130E-13 3.17255E-12
 -1     20666-4.88831E-02 1.82211E-01 2.14302E-10-8.39499E-02-8.48481E-14-2.78700E-13
 -1     20671-4.46852E-02 1.78013E-01-4.03252E-10-8.08999E-02 3.52015E-13 1.07177E-12
 -1     20672-5.44783E-02 1.87806E-01-4.01290E-10-6.17251E-02-2.60567E-13-1.08302E-12
 -1     20673-4.88831E-02 1.82211E-01 2.14277E-10-8.39499E-02 2.16200E-13 6.24945E-13
 -1     20678-4.46852E-02 1.78013E-01-4.00546E-10-8.08999E-02 1.72385E-15-3.55590E-14
 -1     20679-5.44783E-02 1.87806E-01-4.01298E-10-6.17251E-02 2.68667E-13 1.07510E-12
 -1     20680-4.88831E-02 1.82211E-01 2.14272E-10-8.39499E-02-1.93275E-13-6.56212E-13
 -1     20685-4.46852E-02 1.78013E-01-4.03260E-10-8.08999E-02-3.42686E-13-1.06482E-12
 -1     20686-5.44783E-02 1.87806E-01-4.01223E-10-6.17251E-02-7.49648E-13-3.14906E-12
 -1     20687-4.88831E-02 1.82211E-01 2.14302E-10-8.39499E-02 9.74137E-14 3.00858E-13
 -1     20692-4.46852E-02 1.78013E-01-3.97526E-10-8.08999E-02-1.31422E-14-6.12031E-14
 -1     20693-5.44783E-02 1.87806E-01-4.01355E-10-6.17251E-02 5.82737E-13 2.38686E-12
 -1     20694-4.88831E-02 1.82211E-01 2.14632E-10-8.39499E-02-5.03622E-13-1.56998E-12
 -1     20699-4.46852E-02 1.78013E-01-4.07344E-10-8.08999E-02-3.89013E-13-1.22308E-12
 -1     20700-5.44783E-02 1.87806E-01-4.02466E-10-6.17251E-02-1.33714E-12-5.60237E-12
 -1     20701-4.88831E-02 1.82211E-01 2.13902E-10-8.39499E-02-8.94653E-14-3.22822E-13
 -1     20706-4.46852E-02 1.78013E-01-3.90023E-10-8.08999E-02-1.23002E-12-3.83385E-12
 -1     20707-5.44783E-02 1.87806E-01-4.03114E-10-6.17251E-02-1.07429E-12-4.49770E-12
 -1     20708-4.88831E-02 1.82211E-01 2.16760E-10-8.39499E-02 6.75431E-13 2.02505E-12
 -1     20713-4.46852E-02 1.78013E-01-4.15047E-10-8.08999E-02 3.65408E-12 1.11902E-11
 -1     20717-1.42359E-02 1.47564E-01-4.15270E-10-1.11349E-01-5.38931E-12-1.04879E-11
 -1     20718-2.94751E-02 1.62803E-01-4.03144E-10-9.61391E-02 1.77708E-12 4.25586E-12
 -1     20719-1.72859E-02 1.50614E-01 2.16908E-10-1.15547E-01-1.00705E-12-1.87351E-12
 -1     20724-1.42359E-02 1.47564E-01-3.90216E-10-1.11349E-01 1.76666E-12 3.58416E-12
 -1     20725-2.94751E-02 1.62803E-01-4.02494E-10-9.61391E-02 2.21610E-12 5.32038E-12
 -1     20726-1.72859E-02 1.50614E-01 2.14058E-10-1.15547E-01 1.16810E-13 3.16040E-13
 -1     20731-1.42359E-02 1.47564E-01-4.07506E-10-1.11349E-01 5.20871E-13 1.12266E-12
 -1     20732-2.94751E-02 1.62803E-01-4.01385E-10-9.61391E-02-9.41780E-13-2.27786E-12
 -1     20733-1.72859E-02 1.50614E-01 2.14801E-10-1.15547E-01 7.29905E-13 1.48843E-12
 -1     20738-1.42359E-02 1.47564E-01-3.97651E-10-1.11349E-01 6.49110E-15 5.28399E-14
 -1     20739-2.94751E-02 1.62803E-01-4.01252E-10-9.61391E-02 1.24672E-12 3.00252E-12
 -1     20740-1.72859E-02 1.50614E-01 2.14488E-10-1.15547E-01-1.56425E-13-2.50563E-13
 -1     20745-1.42359E-02 1.47564E-01-4.03368E-10-1.11349E-01 4.91835E-13 9.96653E-13
 -1     20746-2.94751E-02 1.62803E-01-4.01326E-10-9.61391E-02-4.27682E-13-1.05054E-12
 -1     20747-1.72859E-02 1.50614E-01 2.14477E-10-1.15547E-01 2.93957E-13 5.79898E-13
 -1     20752-1.42359E-02 1.47564E-01-4.00642E-10-1.11349E-01-5.03108E-16 6.78659E-16
 -1     20753-2.94751E-02 1.62803E-01-4.01329E-10-9.61391E-02 4.29416E-13 1.02102E-12
 -1     20754-1.72859E-02 1.50614E-01 2.14474E-10-1.15547E-01-2.96230E-13-5.90191E-13
 -1     20759-1.42359E-02 1.47564E-01-4.03370E-10-1.11349E-01-4.85394E-13-1.01185E-12
 -1     20760-2.94751E-02 1.62803E-01-4.01251E-10-9.61391E-02-1.23904E-12-2.99693E-12
 -1     20761-1.72859E-02 1.50614E-01 2.14500E-10-1.15547E-01 1.56242E-13 2.44611E-13
 -1     20766-1.42359E-02 1.47564E-01-3.97645E-10-1.11349E-01 8.20948E-15-6.46010E-14
 -1     20767-2.94751E-02 1.62803E-01-4.01384E-10-9.61391E-02 9.40474E-13 2.27282E-12
 -1     20768-1.72859E-02 1.50614E-01 2.14817E-10-1.15547E-01-7.27278E-13-1.50912E-12
 -1     20773-1.42359E-02 1.47564E-01-4.07484E-10-1.11349E-01-5.23521E-13-1.13641E-12
 -1     20774-2.94751E-02 1.62803E-01-4.02488E-10-9.61391E-02-2.20807E-12-5.31872E-12
 -1     20775-1.72859E-02 1.50614E-01 2.14070E-10-1.15547E-01-1.17738E-13-3.41302E-13
 -1     20780-1.42359E-02 1.47564E-01-3.90204E-10-1.11349E-01-1.75975E-12-3.61130E-12
 -1     20781-2.94751E-02 1.62803E-01-4.03143E-10-9.61391E-02-1.77177E-12-4.25645E-12
 -1     20782-1.72859E-02 1.50614E-01 2.16913E-10-1.15547E-01 1.00932E-12 1.85867E-12
 -1     20787-1.42359E-02 1.47564E-01-4.15282E-10-1.11349E-01 5.38503E-12 1.04900E-11
 -1     20791 2.41324E-02 1.09196E-01-4.15124E-10-1.30899E-01-6.88469E-12-9.49049E-12
 -1     20792 4.93892E-03 1.28389E-01-4.02922E-10-1.21142E-01 2.45107E-12 3.92705E-12
 -1     20793 2.25289E-02 1.10799E-01 2.16875E-10-1.35834E-01-1.20144E-12-1.70582E-12
 -1     20798 2.41324E-02 1.09196E-01-3.90037E-10-1.30899E-01 2.42047E-12 3.30978E-12
 -1     20799 4.93892E-03 1.28389E-01-4.02293E-10-1.21142E-01 3.05350E-12 4.90061E-12
 -1     20800 2.25289E-02 1.10799E-01 2.14065E-10-1.35834E-01 2.52840E-13 3.25804E-13
 -1     20805 2.41324E-02 1.09196E-01-4.07253E-10-1.30899E-01 7.93104E-13 1.07507E-12
 -1     20806 4.93892E-03 1.28389E-01-4.01194E-10-1.21142E-01-1.25290E-12-2.11997E-12
 -1     20807 2.25289E-02 1.10799E-01 2.14850E-10-1.35834E-01 1.02596E-12 1.38439E-12
 -1     20812 2.41324E-02 1.09196E-01-3.97369E-10-1.30899E-01 6.98522E-14 9.63399E-14
 -1     20813 4.93892E-03 1.28389E-01-4.01087E-10-1.21142E-01 1.71853E-12 2.75562E-12
 -1     20814 2.25289E-02 1.10799E-01 2.14564E-10-1.35834E-01-1.47608E-13-2.19681E-13
 -1     20819 2.41324E-02 1.09196E-01-4.03073E-10-1.30899E-01 6.75260E-13 9.29359E-13
 -1     20820 4.93892E-03 1.28389E-01-4.01159E-10-1.21142E-01-5.75062E-13-9.65795E-13
 -1     20821 2.25289E-02 1.10799E-01 2.14559E-10-1.35834E-01 4.08338E-13 5.47203E-13
 -1     20826 2.41324E-02 1.09196E-01-4.00319E-10-1.30899E-01-4.32234E-15 5.90945E-15
 -1     20827 4.93892E-03 1.28389E-01-4.01161E-10-1.21142E-01 5.73371E-13 9.71430E-13
 -1     20828 2.25289E-02 1.10799E-01 2.14570E-10-1.35834E-01-4.06363E-13-5.38985E-13
 -1     20833 2.41324E-02 1.09196E-01-4.03064E-10-1.30899E-01-6.82141E-13-9.19785E-13
 -1     20834 4.93892E-03 1.28389E-01-4.01092E-10-1.21142E-01-1.72173E-12-2.75744E-12
 -1     20835 2.25289E-02 1.10799E-01 2.14564E-10-1.35834E-01 1.49478E-13 2.19748E-13
 -1     20840 2.41324E-02 1.09196E-01-3.97372E-10-1.30899E-01-7.01839E-14-8.62345E-14
 -1     20841 4.93892E-03 1.28389E-01-4.01195E-10-1.21142E-01 1.25007E-12 2.11106E-12
 -1     20842 2.25289E-02 1.10799E-01 2.14845E-10-1.35834E-01-1.01800E-12-1.37171E-12
 -1     20847 2.41324E-02 1.09196E-01-4.07261E-10-1.30899E-01-7.87704E-13-1.06467E-12
 -1     20848 4.93892E-03 1.28389E-01-4.02285E-10-1.21142E-01-3.05705E-12-4.90691E-12
 -1     20849 2.25289E-02 1.10799E-01 2.14061E-10-1.35834E-01-2.55400E-13-3.14674E-13
 -1     20854 2.41324E-02 1.09196E-01-3.90018E-10-1.30899E-01-2.41512E-12-3.29787E-12
 -1     20855 4.93892E-03 1.28389E-01-4.02926E-10-1.21142E-01-2.44964E-12-3.92725E-12
 -1     20856 2.25289E-02 1.10799E-01 2.16871E-10-1.35834E-01 1.21038E-12 1.71562E-12
 -1     20861 2.41324E-02 1.09196E-01-4.15121E-10-1.30899E-01 6.89167E-12 9.49158E-12
 -1     20865 6.66640E-02 6.66640E-02-4.14836E-10-1.37635E-01-8.21083E-12-8.31794E-12
 -1     20866 4.53950E-02 8.79330E-02-4.03343E-10-1.34287E-01 2.95934E-12 3.49984E-12
 -1     20867 6.66640E-02 6.66640E-02 2.16651E-10-1.42824E-01-1.41106E-12-1.54224E-12
 -1     20872 6.66640E-02 6.66640E-02-3.89783E-10-1.37635E-01 3.00885E-12 2.83550E-12
 -1     20873 4.53950E-02 8.79330E-02-4.02712E-10-1.34287E-01 3.70074E-12 4.36584E-12
 -1     20874 6.66640E-02 6.66640E-02 2.13781E-10-1.42824E-01 3.66932E-13 2.21583E-13
 -1     20879 6.66640E-02 6.66640E-02-4.07125E-10-1.37635E-01 1.05458E-12 9.13553E-13
 -1     20880 4.53950E-02 8.79330E-02-4.01607E-10-1.34287E-01-1.61999E-12-1.86880E-12
 -1     20881 6.66640E-02 6.66640E-02 2.14516E-10-1.42824E-01 1.27190E-12 1.18172E-12
 -1     20886 6.66640E-02 6.66640E-02-3.97290E-10-1.37635E-01 1.74184E-13 8.39431E-14
 -1     20887 4.53950E-02 8.79330E-02-4.01496E-10-1.34287E-01 2.09923E-12 2.47153E-12
 -1     20888 6.66640E-02 6.66640E-02 2.14206E-10-1.42824E-01-1.47206E-13-1.95129E-13
 -1     20893 6.66640E-02 6.66640E-02-4.03016E-10-1.37635E-01 8.54687E-13 8.11046E-13
 -1     20894 4.53950E-02 8.79330E-02-4.01574E-10-1.34287E-01-7.31543E-13-8.50833E-13
 -1     20895 6.66640E-02 6.66640E-02 2.14171E-10-1.42824E-01 4.88474E-13 4.76620E-13
 -1     20900 6.66640E-02 6.66640E-02-4.00292E-10-1.37635E-01 1.58606E-14 5.89812E-15
 -1     20901 4.53950E-02 8.79330E-02-4.01570E-10-1.34287E-01 7.34809E-13 8.60049E-13
 -1     20902 6.66640E-02 6.66640E-02 2.14186E-10-1.42824E-01-4.69008E-13-4.55400E-13
 -1     20907 6.66640E-02 6.66640E-02-4.03026E-10-1.37635E-01-8.40491E-13-7.91864E-13
 -1     20908 4.53950E-02 8.79330E-02-4.01498E-10-1.34287E-01-2.10022E-12-2.44897E-12
 -1     20909 6.66640E-02 6.66640E-02 2.14204E-10-1.42824E-01 1.57860E-13 2.27846E-13
 -1     20914 6.66640E-02 6.66640E-02-3.97275E-10-1.37635E-01-1.65108E-13-5.55426E-14
 -1     20915 4.53950E-02 8.79330E-02-4.01610E-10-1.34287E-01 1.62261E-12 1.89031E-12
 -1     20916 6.66640E-02 6.66640E-02 2.14528E-10-1.42824E-01-1.26947E-12-1.17427E-12
 -1     20921 6.66640E-02 6.66640E-02-4.07129E-10-1.37635E-01-1.05557E-12-8.97926E-13
 -1     20922 4.53950E-02 8.79330E-02-4.02705E-10-1.34287E-01-3.70109E-12-4.36528E-12
 -1     20923 6.66640E-02 6.66640E-02 2.13778E-10-1.42824E-01-3.55293E-13-2.21715E-13
 -1     20928 6.66640E-02 6.66640E-02-3.89806E-10-1.37635E-01-3.02395E-12-2.85401E-12
 -1     20929 4.53950E-02 8.79330E-02-4.03345E-10-1.34287E-01-2.95460E-12-3.49355E-12
 -1     20930 6.66640E-02 6.66640E-02 2.16634E-10-1.42824E-01 1.40535E-12 1.52682E-12
 -1     20935 6.66640E-02 6.66640E-02-4.14834E-10-1.37635E-01 8.21590E-12 8.30375E-12
 -1     20939 1.09196E-01 2.41324E-02-4.15415E-10-1.30899E-01-9.62558E-12-6.96099E-12
 -1     20940 8.79330E-02 4.53950E-02-4.03135E-10-1.34287E-01 3.47492E-12 3.06982E-12
 -1     20941 1.10799E-01 2.25289E-02 2.16904E-10-1.35834E-01-1.81068E-12-1.26163E-12
 -1     20946 1.09196E-01 2.41324E-02-3.90443E-10-1.30899E-01 3.10606E-12 2.28734E-12
 -1     20947 8.79330E-02 4.53950E-02-4.02465E-10-1.34287E-01 4.32933E-12 3.83542E-12
 -1     20948 1.10799E-01 2.25289E-02 2.13987E-10-1.35834E-01 1.69488E-13 1.69356E-13
 -1     20953 1.09196E-01 2.41324E-02-4.07834E-10-1.30899E-01 8.71894E-13 6.66914E-13
 -1     20954 8.79330E-02 4.53950E-02-4.01329E-10-1.34287E-01-1.92105E-12-1.51326E-12
 -1     20955 1.10799E-01 2.25289E-02 2.14653E-10-1.35834E-01 1.26294E-12 9.34752E-13
 -1     20960 1.09196E-01 2.41324E-02-3.98074E-10-1.30899E-01-2.73235E-14-3.04607E-14
 -1     20961 8.79330E-02 4.53950E-02-4.01179E-10-1.34287E-01 2.44085E-12 2.16279E-12
 -1     20962 1.10799E-01 2.25289E-02 2.14295E-10-1.35834E-01-2.91000E-13-2.13412E-13
 -1     20967 1.09196E-01 2.41324E-02-4.03839E-10-1.30899E-01 8.53642E-13 6.14974E-13
 -1     20968 8.79330E-02 4.53950E-02-4.01249E-10-1.34287E-01-8.58017E-13-7.07048E-13
 -1     20969 1.10799E-01 2.25289E-02 2.14241E-10-1.35834E-01 5.22999E-13 3.79126E-13
 -1     20974 1.09196E-01 2.41324E-02-4.01130E-10-1.30899E-01 7.00299E-15 7.67203E-15
 -1     20975 8.79330E-02 4.53950E-02-4.01248E-10-1.34287E-01 8.75345E-13 7.04460E-13
 -1     20976 1.10799E-01 2.25289E-02 2.14240E-10-1.35834E-01-5.12642E-13-3.80401E-13
 -1     20981 1.09196E-01 2.41324E-02-4.03854E-10-1.30899E-01-8.57053E-13-6.19209E-13
 -1     20982 8.79330E-02 4.53950E-02-4.01187E-10-1.34287E-01-2.42621E-12-2.16062E-12
 -1     20983 1.10799E-01 2.25289E-02 2.14276E-10-1.35834E-01 3.02743E-13 2.05402E-13
 -1     20988 1.09196E-01 2.41324E-02-3.98085E-10-1.30899E-01 5.15252E-14 2.80904E-14
 -1     20989 8.79330E-02 4.53950E-02-4.01333E-10-1.34287E-01 1.92521E-12 1.51587E-12
 -1     20990 1.10799E-01 2.25289E-02 2.14653E-10-1.35834E-01-1.25586E-12-9.28491E-13
 -1     20995 1.09196E-01 2.41324E-02-4.07832E-10-1.30899E-01-8.83718E-13-6.68097E-13
 -1     20996 8.79330E-02 4.53950E-02-4.02462E-10-1.34287E-01-4.31949E-12-3.83114E-12
 -1     20997 1.10799E-01 2.25289E-02 2.13985E-10-1.35834E-01-1.80484E-13-1.63124E-13
 -1     21002 1.09196E-01 2.41324E-02-3.90448E-10-1.30899E-01-3.09662E-12-2.28193E-12
 -1     21003 8.79330E-02 4.53950E-02-4.03141E-10-1.34287E-01-3.45882E-12-3.07066E-12
 -1     21004 1.10799E-01 2.25289E-02 2.16901E-10-1.35834E-01 1.81485E-12 1.26923E-12
 -1     21009 1.09196E-01 2.41324E-02-4.15414E-10-1.30899E-01 9.62126E-12 6.96302E-12
 -1     21013 1.47564E-01-1.42359E-02-4.15332E-10-1.11349E-01-1.05772E-11-5.24657E-12
 -1     21014 1.28389E-01 4.93892E-03-4.02741E-10-1.21142E-01 4.02409E-12 2.37076E-12
 -1     21015 1.50614E-01-1.72859E-02 2.16986E-10-1.15547E-01-1.95521E-12-8.41885E-13
 -1     21020 1.47564E-01-1.42359E-02-3.90215E-10-1.11349E-01 3.47124E-12 2.00123E-12
 -1     21021 1.28389E-01 4.93892E-03-4.02082E-10-1.21142E-01 5.00259E-12 2.95286E-12
 -1     21022 1.50614E-01-1.72859E-02 2.14162E-10-1.15547E-01 2.58949E-13 2.92807E-13
 -1     21027 1.47564E-01-1.42359E-02-4.07486E-10-1.11349E-01 1.04765E-12 7.27784E-13
 -1     21028 1.28389E-01 4.93892E-03-4.00959E-10-1.21142E-01-2.01640E-12-1.33378E-12
 -1     21029 1.50614E-01-1.72859E-02 2.14935E-10-1.15547E-01 1.44540E-12 8.57854E-13
 -1     21034 1.47564E-01-1.42359E-02-3.97628E-10-1.11349E-01-7.61790E-15 1.23156E-13
 -1     21035 1.28389E-01 4.93892E-03-4.00824E-10-1.21142E-01 2.80420E-12 1.66801E-12
 -1     21036 1.50614E-01-1.72859E-02 2.14608E-10-1.15547E-01-2.88796E-13-7.63297E-14
 -1     21041 1.47564E-01-1.42359E-02-4.03360E-10-1.11349E-01 9.79013E-13 5.58680E-13
 -1     21042 1.28389E-01 4.93892E-03-4.00883E-10-1.21142E-01-9.34921E-13-5.93024E-13
 -1     21043 1.50614E-01-1.72859E-02 2.14593E-10-1.15547E-01 5.78610E-13 3.15952E-13
 -1     21048 1.47564E-01-1.42359E-02-4.00636E-10-1.11349E-01 8.46437E-15 1.60699E-14
 -1     21049 1.28389E-01 4.93892E-03-4.00886E-10-1.21142E-01 9.43814E-13 6.10047E-13
 -1     21050 1.50614E-01-1.72859E-02 2.14588E-10-1.15547E-01-5.60188E-13-3.17451E-13
 -1     21055 1.47564E-01-1.42359E-02-4.03358E-10-1.11349E-01-9.60706E-13-5.67461E-13
 -1     21056 1.28389E-01 4.93892E-03-4.00817E-10-1.21142E-01-2.81684E-12-1.65914E-12
 -1     21057 1.50614E-01-1.72859E-02 2.14614E-10-1.15547E-01 2.90199E-13 7.64593E-14
 -1     21062 1.47564E-01-1.42359E-02-3.97640E-10-1.11349E-01 1.44669E-14-1.39758E-13
 -1     21063 1.28389E-01 4.93892E-03-4.00961E-10-1.21142E-01 2.03051E-12 1.33443E-12
 -1     21064 1.50614E-01-1.72859E-02 2.14916E-10-1.15547E-01-1.43400E-12-8.64818E-13
 -1     21069 1.47564E-01-1.42359E-02-4.07516E-10-1.11349E-01-1.03230E-12-7.27785E-13
 -1     21070 1.28389E-01 4.93892E-03-4.02079E-10-1.21142E-01-5.02042E-12-2.94733E-12
 -1     21071 1.50614E-01-1.72859E-02 2.14152E-10-1.15547E-01-2.53256E-13-2.93619E-13
 -1     21076 1.47564E-01-1.42359E-02-3.90236E-10-1.11349E-01-3.47141E-12-1.99874E-12
 -1     21077 1.28389E-01 4.93892E-03-4.02737E-10-1.21142E-01-4.02324E-12-2.36778E-12
 -1     21078 1.50614E-01-1.72859E-02 2.16978E-10-1.15547E-01 1.96377E-12 8.46896E-13
 -1     21083 1.47564E-01-1.42359E-02-4.15329E-10-1.11349E-01 1.05973E-11 5.24398E-12
 -1     21087 1.78013E-01-4.46852E-02-4.14671E-10-8.08999E-02-1.09976E-11-3.61618E-12
 -1     21088 1.62803E-01-2.94751E-02-4.03282E-10-9.61391E-02 4.26809E-12 1.65369E-12
 -1     21089 1.82211E-01-4.88831E-02 2.16731E-10-8.39499E-02-1.88972E-12-6.62685E-13
 -1     21094 1.78013E-01-4.46852E-02-3.89499E-10-8.08999E-02 4.10943E-12 1.28082E-12
 -1     21095 1.62803E-01-2.94751E-02-4.02674E-10-9.61391E-02 5.33718E-12 2.05694E-12
 -1     21096 1.82211E-01-4.88831E-02 2.14005E-10-8.39499E-02 5.06057E-13 1.36712E-13
 -1     21101 1.78013E-01-4.46852E-02-4.06608E-10-8.08999E-02 1.45771E-12 4.56033E-13
 -1     21102 1.62803E-01-2.94751E-02-4.01617E-10-9.61391E-02-2.24932E-12-1.06571E-12
 -1     21103 1.82211E-01-4.88831E-02 2.14874E-10-8.39499E-02 1.73672E-12 5.45136E-13
 -1     21108 1.78013E-01-4.46852E-02-3.96649E-10-8.08999E-02 2.53381E-13 7.47012E-14
 -1     21109 1.62803E-01-2.94751E-02-4.01529E-10-9.61391E-02 3.01018E-12 1.15838E-12
 -1     21110 1.82211E-01-4.88831E-02 2.14650E-10-8.39499E-02-1.73446E-13-7.06752E-14
 -1     21115 1.78013E-01-4.46852E-02-4.02277E-10-8.08999E-02 1.17268E-12 3.66064E-13
 -1     21116 1.62803E-01-2.94751E-02-4.01612E-10-9.61391E-02-1.02925E-12-4.60015E-13
 -1     21117 1.82211E-01-4.88831E-02 2.14673E-10-8.39499E-02 6.74196E-13 2.12509E-13
 -1     21122 1.78013E-01-4.46852E-02-3.99530E-10-8.08999E-02-2.97309E-15-1.03170E-14
 -1     21123 1.62803E-01-2.94751E-02-4.01617E-10-9.61391E-02 1.03339E-12 4.56744E-13
 -1     21124 1.82211E-01-4.88831E-02 2.14686E-10-8.39499E-02-6.80832E-13-2.20355E-13
 -1     21129 1.78013E-01-4.46852E-02-4.02276E-10-8.08999E-02-1.17655E-12-3.83248E-13
 -1     21130 1.62803E-01-2.94751E-02-4.01537E-10-9.61391E-02-3.00874E-12-1.16812E-12
 -1     21131 1.82211E-01-4.88831E-02 2.14661E-10-8.39499E-02 1.60421E-13 5.69542E-14
 -1     21136 1.78013E-01-4.46852E-02-3.96611E-10-8.08999E-02-2.77902E-13-8.31020E-14
 -1     21137 1.62803E-01-2.94751E-02-4.01614E-10-9.61391E-02 2.25517E-12 1.05852E-12
 -1     21138 1.82211E-01-4.88831E-02 2.14904E-10-8.39499E-02-1.76058E-12-5.55920E-13
 -1     21143 1.78013E-01-4.46852E-02-4.06571E-10-8.08999E-02-1.48320E-12-4.54684E-13
 -1     21144 1.62803E-01-2.94751E-02-4.02680E-10-9.61391E-02-5.33507E-12-2.06490E-12
 -1     21145 1.82211E-01-4.88831E-02 2.14019E-10-8.39499E-02-5.20700E-13-1.34536E-13
 -1     21150 1.78013E-01-4.46852E-02-3.89474E-10-8.08999E-02-4.11440E-12-1.29063E-12
 -1     21151 1.62803E-01-2.94751E-02-4.03280E-10-9.61391E-02-4.26732E-12-1.65664E-12
 -1     21152 1.82211E-01-4.88831E-02 2.16752E-10-8.39499E-02 1.86833E-12 6.60386E-13
 -1     21157 1.78013E-01-4.46852E-02-4.14669E-10-8.08999E-02 1.09934E-11 3.62050E-12
 -1     21161 1.97563E-01-6.42348E-02-4.15066E-10-4.25316E-02-1.15582E-11-2.04522E-12
 -1     21162 1.87806E-01-5.44783E-02-4.03510E-10-6.17251E-02 4.39025E-12 1.19091E-12
 -1     21163 2.02498E-01-6.91698E-02 2.16705E-10-4.41351E-02-2.05664E-12-5.32181E-13
 -1     21168 1.97563E-01-6.42348E-02-3.90057E-10-4.25316E-02 4.05923E-12 3.34058E-13
 -1     21169 1.87806E-01-5.44783E-02-4.02892E-10-6.17251E-02 5.51043E-12 1.48150E-12
 -1     21170 2.02498E-01-6.91698E-02 2.13822E-10-4.41351E-02 4.20287E-13-1.46976E-13
 -1     21175 1.97563E-01-6.42348E-02-4.07381E-10-4.25316E-02 1.35166E-12-3.57521E-14
 -1     21176 1.87806E-01-5.44783E-02-4.01824E-10-6.17251E-02-2.46587E-12-4.65854E-13
 -1     21177 2.02498E-01-6.91698E-02 2.14559E-10-4.41351E-02 1.70211E-12 1.24834E-13
 -1     21182 1.97563E-01-6.42348E-02-3.97552E-10-4.25316E-02 1.40266E-13-1.35047E-13
 -1     21183 1.87806E-01-5.44783E-02-4.01721E-10-6.17251E-02 3.11033E-12 8.21298E-13
 -1     21184 2.02498E-01-6.91698E-02 2.14235E-10-4.41351E-02-2.57193E-13-1.16882E-13
 -1     21189 1.97563E-01-6.42348E-02-4.03283E-10-4.25316E-02 1.14949E-12 1.13113E-13
 -1     21190 1.87806E-01-5.44783E-02-4.01806E-10-6.17251E-02-1.09596E-12-2.43106E-13
 -1     21191 2.02498E-01-6.91698E-02 2.14214E-10-4.41351E-02 6.82972E-13 8.38490E-14
 -1     21196 1.97563E-01-6.42348E-02-4.00557E-10-4.25316E-02 1.86974E-14 1.39535E-15
 -1     21197 1.87806E-01-5.44783E-02-4.01805E-10-6.17251E-02 1.10141E-12 2.36467E-13
 -1     21198 2.02498E-01-6.91698E-02 2.14207E-10-4.41351E-02-6.71893E-13-8.02823E-14
 -1     21203 1.97563E-01-6.42348E-02-4.03279E-10-4.25316E-02-1.14633E-12-9.99775E-14
 -1     21204 1.87806E-01-5.44783E-02-4.01725E-10-6.17251E-02-3.11086E-12-8.26675E-13
 -1     21205 2.02498E-01-6.91698E-02 2.14231E-10-4.41351E-02 2.54444E-13 1.22111E-13
 -1     21210 1.97563E-01-6.42348E-02-3.97557E-10-4.25316E-02-1.54855E-13 1.35637E-13
 -1     21211 1.87806E-01-5.44783E-02-4.01813E-10-6.17251E-02 2.45148E-12 4.66805E-13
 -1     21212 2.02498E-01-6.91698E-02 2.14555E-10-4.41351E-02-1.71319E-12-1.23322E-13
 -1     21217 1.97563E-01-6.42348E-02-4.07396E-10-4.25316E-02-1.33366E-12 3.27772E-14
 -1     21218 1.87806E-01-5.44783E-02-4.02889E-10-6.17251E-02-5.50275E-12-1.47628E-12
 -1     21219 2.02498E-01-6.91698E-02 2.13831E-10-4.41351E-02-4.02153E-13 1.45783E-13
 -1     21224 1.97563E-01-6.42348E-02-3.90058E-10-4.25316E-02-4.06764E-12-3.30592E-13
 -1     21225 1.87806E-01-5.44783E-02-4.03505E-10-6.17251E-02-4.39782E-12-1.18688E-12
 -1     21226 2.02498E-01-6.91698E-02 2.16696E-10-4.41351E-02 2.05708E-12 5.30358E-13
 -1     21231 1.97563E-01-6.42348E-02-4.15064E-10-4.25316E-02 1.15609E-11 2.04398E-12
 -1     21235 2.00951E-01-6.76232E-02-4.02732E-10-2.12690E-02 4.65211E-12 5.13921E-13
 -1     21239 2.00951E-01-6.76232E-02-4.02037E-10-2.12690E-02 5.78802E-12 6.35761E-13
 -1     21243 2.00951E-01-6.76232E-02-4.00873E-10-2.12690E-02-2.41405E-12-3.67291E-14
 -1     21247 2.00951E-01-6.76232E-02-4.00706E-10-2.12690E-02 3.25805E-12 3.55032E-13
 -1     21251 2.00951E-01-6.76232E-02-4.00773E-10-2.12690E-02-1.10047E-12-5.36397E-14
 -1     21255 2.00951E-01-6.76232E-02-4.00760E-10-2.12690E-02 1.11847E-12 5.43144E-14
 -1     21259 2.00951E-01-6.76232E-02-4.00716E-10-2.12690E-02-3.26070E-12-3.52082E-13
 -1     21263 2.00951E-01-6.76232E-02-4.00870E-10-2.12690E-02 2.42882E-12 4.03390E-14
 -1     21267 2.00951E-01-6.76232E-02-4.02029E-10-2.12690E-02-5.79005E-12-6.36265E-13
 -1     21271 2.00951E-01-6.76232E-02-4.02728E-10-2.12690E-02-4.65221E-12-5.13057E-13
 -1     21277-5.53683E-02 1.88696E-01-3.61511E-10-3.96507E-02-1.72227E-12-1.09448E-11
 -1     21278-5.85272E-02 1.91855E-01-3.38092E-10-1.98283E-02-1.23809E-12-1.56486E-11
 -1     21279-5.98019E-02 1.93130E-01 1.85721E-10-4.10913E-02-7.94514E-15-1.88679E-13
 -1     21284-5.53683E-02 1.88696E-01-3.18340E-10-3.96507E-02 2.09835E-13 1.09472E-12
 -1     21285-5.85272E-02 1.91855E-01-3.28722E-10-1.98283E-02 7.97245E-13 1.01966E-11
 -1     21286-5.98019E-02 1.93130E-01 1.86354E-10-4.10913E-02-3.06518E-13-2.12948E-12
 -1     21291-5.53683E-02 1.88696E-01-3.48903E-10-3.96507E-02 6.22430E-13 3.73342E-12
 -1     21292-5.85272E-02 1.91855E-01-3.36304E-10-1.98283E-02-5.35297E-13-6.74829E-12
 -1     21293-5.98019E-02 1.93130E-01 1.84626E-10-4.10913E-02 5.97008E-13 3.61053E-12
 -1     21298-5.53683E-02 1.88696E-01-3.31420E-10-3.96507E-02-6.66832E-14-5.69827E-13
 -1     21299-5.85272E-02 1.91855E-01-3.38792E-10-1.98283E-02 4.22776E-13 5.41200E-12
 -1     21300-5.98019E-02 1.93130E-01 1.83171E-10-4.10913E-02-1.84724E-14-2.11680E-13
 -1     21305-5.53683E-02 1.88696E-01-3.40715E-10-3.96507E-02 3.71995E-13 2.31012E-12
 -1     21306-5.85272E-02 1.91855E-01-3.39483E-10-1.98283E-02-9.73744E-14-1.25644E-12
 -1     21307-5.98019E-02 1.93130E-01 1.83095E-10-4.10913E-02 1.80740E-13 1.09626E-12
 -1     21312-5.53683E-02 1.88696E-01-3.37257E-10-3.96507E-02 1.34220E-15-5.04019E-15
 -1     21313-5.85272E-02 1.91855E-01-3.39486E-10-1.98283E-02 1.00723E-13 1.26005E-12
 -1     21314-5.98019E-02 1.93130E-01 1.83090E-10-4.10913E-02-1.78830E-13-1.09468E-12
 -1     21319-5.53683E-02 1.88696E-01-3.40722E-10-3.96507E-02-3.75763E-13-2.31093E-12
 -1     21320-5.85272E-02 1.91855E-01-3.38781E-10-1.98283E-02-4.23649E-13-5.42410E-12
 -1     21321-5.98019E-02 1.93130E-01 1.83162E-10-4.10913E-02 1.74882E-14 1.98630E-13
 -1     21326-5.53683E-02 1.88696E-01-3.31417E-10-3.96507E-02 6.99495E-14 5.80780E-13
 -1     21327-5.85272E-02 1.91855E-01-3.36301E-10-1.98283E-02 5.37930E-13 6.76201E-12
 -1     21328-5.98019E-02 1.93130E-01 1.84626E-10-4.10913E-02-5.93272E-13-3.60845E-12
 -1     21333-5.53683E-02 1.88696E-01-3.48899E-10-3.96507E-02-6.18890E-13-3.71227E-12
 -1     21334-5.85272E-02 1.91855E-01-3.28714E-10-1.98283E-02-7.96239E-13-1.01980E-11
 -1     21335-5.98019E-02 1.93130E-01 1.86355E-10-4.10913E-02 3.12702E-13 2.13462E-12
 -1     21340-5.53683E-02 1.88696E-01-3.18324E-10-3.96507E-02-2.00908E-13-1.09319E-12
 -1     21341-5.85272E-02 1.91855E-01-3.38092E-10-1.98283E-02 1.23662E-12 1.56470E-11
 -1     21342-5.98019E-02 1.93130E-01 1.85724E-10-4.10913E-02 1.38299E-14 1.85513E-13
 -1     21347-5.53683E-02 1.88696E-01-3.61507E-10-3.96507E-02 1.72737E-12 1.09508E-11
 -1     21351-3.71429E-02 1.70471E-01-3.61484E-10-7.54201E-02-3.44345E-12-1.05203E-11
 -1     21352-4.62726E-02 1.79601E-01-3.38165E-10-5.75441E-02-3.67629E-12-1.52651E-11
 -1     21353-4.09143E-02 1.74242E-01 1.85682E-10-7.81602E-02-7.84204E-14-1.85297E-13
 -1     21358-3.71429E-02 1.70471E-01-3.18313E-10-7.54201E-02 3.22857E-13 1.03794E-12
 -1     21359-4.62726E-02 1.79601E-01-3.28776E-10-5.75441E-02 2.37833E-12 9.95644E-12
 -1     21360-4.09143E-02 1.74242E-01 1.86315E-10-7.81602E-02-6.83085E-13-2.06972E-12
 -1     21365-3.71429E-02 1.70471E-01-3.48868E-10-7.54201E-02 1.15381E-12 3.57672E-12
 -1     21366-4.62726E-02 1.79601E-01-3.36354E-10-5.75441E-02-1.59314E-12-6.59011E-12
 -1     21367-4.09143E-02 1.74242E-01 1.84580E-10-7.81602E-02 1.12014E-12 3.46121E-12
 -1     21372-3.71429E-02 1.70471E-01-3.31406E-10-7.54201E-02-1.79510E-13-5.50166E-13
 -1     21373-4.62726E-02 1.79601E-01-3.38827E-10-5.75441E-02 1.27137E-12 5.28124E-12
 -1     21374-4.09143E-02 1.74242E-01 1.83104E-10-7.81602E-02-6.13667E-14-1.99014E-13
 -1     21379-3.71429E-02 1.70471E-01-3.40754E-10-7.54201E-02 7.32577E-13 2.19883E-12
 -1     21380-4.62726E-02 1.79601E-01-3.39514E-10-5.75441E-02-2.88291E-13-1.23737E-12
 -1     21381-4.09143E-02 1.74242E-01 1.83001E-10-7.81602E-02 3.45461E-13 1.03907E-12
 -1     21386-3.71429E-02 1.70471E-01-3.37293E-10-7.54201E-02 4.64348E-15 1.88415E-14
 -1     21387-4.62726E-02 1.79601E-01-3.39527E-10-5.75441E-02 3.01542E-13 1.24068E-12
 -1     21388-4.09143E-02 1.74242E-01 1.83018E-10-7.81602E-02-3.38643E-13-1.06677E-12
 -1     21393-3.71429E-02 1.70471E-01-3.40766E-10-7.54201E-02-7.22780E-13-2.22392E-12
 -1     21394-4.62726E-02 1.79601E-01-3.38829E-10-5.75441E-02-1.25885E-12-5.29704E-12
 -1     21395-4.09143E-02 1.74242E-01 1.83093E-10-7.81602E-02 7.06098E-14 2.05873E-13
 -1     21400-3.71429E-02 1.70471E-01-3.31412E-10-7.54201E-02 1.81237E-13 5.44491E-13
 -1     21401-4.62726E-02 1.79601E-01-3.36349E-10-5.75441E-02 1.59846E-12 6.59466E-12
 -1     21402-4.09143E-02 1.74242E-01 1.84568E-10-7.81602E-02-1.11446E-12-3.46278E-12
 -1     21407-3.71429E-02 1.70471E-01-3.48895E-10-7.54201E-02-1.15487E-12-3.59727E-12
 -1     21408-4.62726E-02 1.79601E-01-3.28779E-10-5.75441E-02-2.37585E-12-9.95445E-12
 -1     21409-4.09143E-02 1.74242E-01 1.86303E-10-7.81602E-02 6.85530E-13 2.05853E-12
 -1     21414-3.71429E-02 1.70471E-01-3.18316E-10-7.54201E-02-3.22970E-13-1.06618E-12
 -1     21415-4.62726E-02 1.79601E-01-3.38156E-10-5.75441E-02 3.66980E-12 1.52672E-11
 -1     21416-4.09143E-02 1.74242E-01 1.85685E-10-7.81602E-02 8.00423E-14 1.92476E-13
 -1     21421-3.71429E-02 1.70471E-01-3.61491E-10-7.54201E-02 3.43405E-12 1.05499E-11
 -1     21425-8.75610E-03 1.42084E-01-3.61647E-10-1.03807E-01-5.10160E-12-9.90146E-12
 -1     21426-2.29630E-02 1.56291E-01-3.38112E-10-8.96270E-02-6.00733E-12-1.45159E-11
 -1     21427-1.14962E-02 1.44824E-01 1.85857E-10-1.07578E-01-1.44981E-13-1.55721E-13
 -1     21432-8.75610E-03 1.42084E-01-3.18429E-10-1.03807E-01 4.19213E-13 9.71879E-13
 -1     21433-2.29630E-02 1.56291E-01-3.28735E-10-8.96270E-02 3.92054E-12 9.44632E-12
 -1     21434-1.14962E-02 1.44824E-01 1.86503E-10-1.07578E-01-1.04046E-12-1.91823E-12
 -1     21439-8.75610E-03 1.42084E-01-3.48975E-10-1.03807E-01 1.62784E-12 3.32831E-12
 -1     21440-2.29630E-02 1.56291E-01-3.36313E-10-8.96270E-02-2.59129E-12-6.26217E-12
 -1     21441-1.14962E-02 1.44824E-01 1.84778E-10-1.07578E-01 1.60590E-12 3.24692E-12
 -1     21446-8.75610E-03 1.42084E-01-3.31492E-10-1.03807E-01-3.26125E-13-5.42646E-13
 -1     21447-2.29630E-02 1.56291E-01-3.38793E-10-8.96270E-02 2.08448E-12 5.02318E-12
 -1     21448-1.14962E-02 1.44824E-01 1.83320E-10-1.07578E-01-1.21208E-13-1.90564E-13
 -1     21453-8.75610E-03 1.42084E-01-3.40822E-10-1.03807E-01 1.03951E-12 2.05541E-12
 -1     21454-2.29630E-02 1.56291E-01-3.39489E-10-8.96270E-02-4.75970E-13-1.17540E-12
 -1     21455-1.14962E-02 1.44824E-01 1.83246E-10-1.07578E-01 4.98843E-13 9.77018E-13
 -1     21460-8.75610E-03 1.42084E-01-3.37346E-10-1.03807E-01 7.00614E-15 1.27531E-15
 -1     21461-2.29630E-02 1.56291E-01-3.39488E-10-8.96270E-02 4.89758E-13 1.16758E-12
 -1     21462-1.14962E-02 1.44824E-01 1.83245E-10-1.07578E-01-4.92755E-13-9.87722E-13
 -1     21467-8.75610E-03 1.42084E-01-3.40799E-10-1.03807E-01-1.03018E-12-2.05749E-12
 -1     21468-2.29630E-02 1.56291E-01-3.38801E-10-8.96270E-02-2.07925E-12-5.02796E-12
 -1     21469-1.14962E-02 1.44824E-01 1.83327E-10-1.07578E-01 1.22205E-13 1.84793E-13
 -1     21474-8.75610E-03 1.42084E-01-3.31480E-10-1.03807E-01 3.19608E-13 5.35011E-13
 -1     21475-2.29630E-02 1.56291E-01-3.36301E-10-8.96270E-02 2.60333E-12 6.27170E-12
 -1     21476-1.14962E-02 1.44824E-01 1.84785E-10-1.07578E-01-1.60272E-12-3.24707E-12
 -1     21481-8.75610E-03 1.42084E-01-3.48975E-10-1.03807E-01-1.61916E-12-3.34723E-12
 -1     21482-2.29630E-02 1.56291E-01-3.28740E-10-8.96270E-02-3.91353E-12-9.45463E-12
 -1     21483-1.14962E-02 1.44824E-01 1.86495E-10-1.07578E-01 1.04999E-12 1.90444E-12
 -1     21488-8.75610E-03 1.42084E-01-3.18454E-10-1.03807E-01-4.04594E-13-9.60019E-13
 -1     21489-2.29630E-02 1.56291E-01-3.38110E-10-8.96270E-02 6.00171E-12 1.45208E-11
 -1     21490-1.14962E-02 1.44824E-01 1.85852E-10-1.07578E-01 1.42969E-13 1.44809E-13
 -1     21495-8.75610E-03 1.42084E-01-3.61657E-10-1.03807E-01 5.09780E-12 9.88655E-12
 -1     21499 2.70133E-02 1.06315E-01-3.61488E-10-1.22032E-01-6.49861E-12-8.94002E-12
 -1     21500 9.11993E-03 1.24208E-01-3.38000E-10-1.12937E-01-8.15931E-12-1.33913E-11
 -1     21501 2.55727E-02 1.07755E-01 1.85823E-10-1.26466E-01-8.00219E-14-1.37999E-13
 -1     21506 2.70133E-02 1.06315E-01-3.18223E-10-1.22032E-01 6.61967E-13 9.21753E-13
 -1     21507 9.11993E-03 1.24208E-01-3.28646E-10-1.12937E-01 5.40170E-12 8.69042E-12
 -1     21508 2.55727E-02 1.07755E-01 1.86511E-10-1.26466E-01-1.23749E-12-1.72096E-12
 -1     21513 2.70133E-02 1.06315E-01-3.48700E-10-1.22032E-01 2.21878E-12 3.08599E-12
 -1     21514 9.11993E-03 1.24208E-01-3.36248E-10-1.12937E-01-3.50038E-12-5.79797E-12
 -1     21515 2.55727E-02 1.07755E-01 1.84854E-10-1.26466E-01 2.15832E-12 2.99138E-12
 -1     21520 2.70133E-02 1.06315E-01-3.31149E-10-1.22032E-01-3.51467E-13-4.26774E-13
 -1     21521 9.11993E-03 1.24208E-01-3.38732E-10-1.12937E-01 2.87191E-12 4.61107E-12
 -1     21522 2.55727E-02 1.07755E-01 1.83438E-10-1.26466E-01-1.15928E-13-1.52287E-13
 -1     21527 2.70133E-02 1.06315E-01-3.40417E-10-1.22032E-01 1.36417E-12 1.91319E-12
 -1     21528 9.11993E-03 1.24208E-01-3.39443E-10-1.12937E-01-6.40038E-13-1.08913E-12
 -1     21529 2.55727E-02 1.07755E-01 1.83390E-10-1.26466E-01 6.60979E-13 9.09477E-13
 -1     21534 2.70133E-02 1.06315E-01-3.36963E-10-1.22032E-01-6.78573E-15-5.49316E-15
 -1     21535 9.11993E-03 1.24208E-01-3.39445E-10-1.12937E-01 6.46252E-13 1.08289E-12
 -1     21536 2.55727E-02 1.07755E-01 1.83377E-10-1.26466E-01-6.67716E-13-9.02587E-13
 -1     21541 2.70133E-02 1.06315E-01-3.40440E-10-1.22032E-01-1.37257E-12-1.90804E-12
 -1     21542 9.11993E-03 1.24208E-01-3.38739E-10-1.12937E-01-2.87367E-12-4.61631E-12
 -1     21543 2.55727E-02 1.07755E-01 1.83439E-10-1.26466E-01 1.10231E-13 1.50497E-13
 -1     21548 2.70133E-02 1.06315E-01-3.31146E-10-1.22032E-01 3.30383E-13 4.43553E-13
 -1     21549 9.11993E-03 1.24208E-01-3.36236E-10-1.12937E-01 3.48867E-12 5.81120E-12
 -1     21550 2.55727E-02 1.07755E-01 1.84861E-10-1.26466E-01-2.16809E-12-2.96896E-12
 -1     21555 2.70133E-02 1.06315E-01-3.48675E-10-1.22032E-01-2.24718E-12-3.07442E-12
 -1     21556 9.11993E-03 1.24208E-01-3.28649E-10-1.12937E-01-5.40489E-12-8.69163E-12
 -1     21557 2.55727E-02 1.07755E-01 1.86521E-10-1.26466E-01 1.23030E-12 1.73423E-12
 -1     21562 2.70133E-02 1.06315E-01-3.18234E-10-1.22032E-01-6.84129E-13-9.26779E-13
 -1     21563 9.11993E-03 1.24208E-01-3.38006E-10-1.12937E-01 8.15520E-12 1.33896E-11
 -1     21564 2.55727E-02 1.07755E-01 1.85828E-10-1.26466E-01 8.35423E-14 1.37702E-13
 -1     21569 2.70133E-02 1.06315E-01-3.61486E-10-1.22032E-01 6.50542E-12 8.93539E-12
 -1     21573 6.66640E-02 6.66640E-02-3.61276E-10-1.28312E-01-7.68479E-12-7.84774E-12
 -1     21574 4.68357E-02 8.64923E-02-3.38351E-10-1.25191E-01-1.02578E-11-1.19655E-11
 -1     21575 6.66640E-02 6.66640E-02 1.85551E-10-1.32974E-01-2.00747E-14-1.74727E-13
 -1     21580 6.66640E-02 6.66640E-02-3.18088E-10-1.28312E-01 1.01685E-12 7.90655E-13
 -1     21581 4.68357E-02 8.64923E-02-3.28985E-10-1.25191E-01 6.60415E-12 7.75161E-12
 -1     21582 6.66640E-02 6.66640E-02 1.86197E-10-1.32974E-01-1.37028E-12-1.56346E-12
 -1     21587 6.66640E-02 6.66640E-02-3.48656E-10-1.28312E-01 2.91863E-12 2.65842E-12
 -1     21588 4.68357E-02 8.64923E-02-3.36600E-10-1.25191E-01-4.43097E-12-5.18069E-12
 -1     21589 6.66640E-02 6.66640E-02 1.84467E-10-1.32974E-01 2.73771E-12 2.56584E-12
 -1     21594 6.66640E-02 6.66640E-02-3.31174E-10-1.28312E-01-2.18486E-13-4.01122E-13
 -1     21595 4.68357E-02 8.64923E-02-3.39085E-10-1.25191E-01 3.50731E-12 4.12127E-12
 -1     21596 6.66640E-02 6.66640E-02 1.83003E-10-1.32974E-01-5.57386E-14-1.29442E-13
 -1     21601 6.66640E-02 6.66640E-02-3.40495E-10-1.28312E-01 1.73966E-12 1.69274E-12
 -1     21602 4.68357E-02 8.64923E-02-3.39804E-10-1.25191E-01-8.18905E-13-9.63283E-13
 -1     21603 6.66640E-02 6.66640E-02 1.82920E-10-1.32974E-01 8.26804E-13 7.99897E-13
 -1     21608 6.66640E-02 6.66640E-02-3.37049E-10-1.28312E-01 4.71059E-16 5.90090E-15
 -1     21609 4.68357E-02 8.64923E-02-3.39800E-10-1.25191E-01 8.15782E-13 9.74277E-13
 -1     21610 6.66640E-02 6.66640E-02 1.82925E-10-1.32974E-01-8.02941E-13-7.83556E-13
 -1     21615 6.66640E-02 6.66640E-02-3.40516E-10-1.28312E-01-1.73126E-12-1.65079E-12
 -1     21616 4.68357E-02 8.64923E-02-3.39094E-10-1.25191E-01-3.51111E-12-4.10880E-12
 -1     21617 6.66640E-02 6.66640E-02 1.82996E-10-1.32974E-01 6.23176E-14 1.56205E-13
 -1     21622 6.66640E-02 6.66640E-02-3.31187E-10-1.28312E-01 2.44509E-13 3.95238E-13
 -1     21623 4.68357E-02 8.64923E-02-3.36594E-10-1.25191E-01 4.41926E-12 5.18910E-12
 -1     21624 6.66640E-02 6.66640E-02 1.84454E-10-1.32974E-01-2.72262E-12-2.56228E-12
 -1     21629 6.66640E-02 6.66640E-02-3.48676E-10-1.28312E-01-2.89377E-12-2.64957E-12
 -1     21630 4.68357E-02 8.64923E-02-3.28991E-10-1.25191E-01-6.60713E-12-7.73940E-12
 -1     21631 6.66640E-02 6.66640E-02 1.86186E-10-1.32974E-01 1.36551E-12 1.55480E-12
 -1     21636 6.66640E-02 6.66640E-02-3.18086E-10-1.28312E-01-1.03936E-12-7.67920E-13
 -1     21637 4.68357E-02 8.64923E-02-3.38350E-10-1.25191E-01 1.02460E-11 1.19736E-11
 -1     21638 6.66640E-02 6.66640E-02 1.85550E-10-1.32974E-01-2.23174E-15 1.75783E-13
 -1     21643 6.66640E-02 6.66640E-02-3.61266E-10-1.28312E-01 7.68305E-12 7.86645E-12
 -1     21647 1.06315E-01 2.70133E-02-3.61803E-10-1.22032E-01-9.11160E-12-6.60083E-12
 -1     21648 8.64923E-02 4.68357E-02-3.38127E-10-1.25191E-01-1.20180E-11-1.01070E-11
 -1     21649 1.07755E-01 2.55727E-02 1.85816E-10-1.26466E-01-2.75872E-13-1.62265E-13
 -1     21654 1.06315E-01 2.70133E-02-3.18748E-10-1.22032E-01 6.69994E-13 5.10194E-13
 -1     21655 8.64923E-02 4.68357E-02-3.28725E-10-1.25191E-01 7.68933E-12 6.77654E-12
 -1     21656 1.07755E-01 2.55727E-02 1.86346E-10-1.26466E-01-1.90703E-12-1.34896E-12
 -1     21661 1.06315E-01 2.70133E-02-3.49396E-10-1.22032E-01 2.83152E-12 2.06823E-12
 -1     21662 8.64923E-02 4.68357E-02-3.36272E-10-1.25191E-01-5.22070E-12-4.29015E-12
 -1     21663 1.07755E-01 2.55727E-02 1.84550E-10-1.26466E-01 2.81072E-12 2.05845E-12
 -1     21668 1.06315E-01 2.70133E-02-3.32017E-10-1.22032E-01-6.45301E-13-4.73842E-13
 -1     21669 8.64923E-02 4.68357E-02-3.38723E-10-1.25191E-01 4.07333E-12 3.61495E-12
 -1     21670 1.07755E-01 2.55727E-02 1.83007E-10-1.26466E-01-2.53439E-13-1.92948E-13
 -1     21675 1.06315E-01 2.70133E-02-3.41412E-10-1.22032E-01 1.81690E-12 1.30003E-12
 -1     21676 8.64923E-02 4.68357E-02-3.39410E-10-1.25191E-01-9.63216E-13-7.89247E-13
 -1     21677 1.07755E-01 2.55727E-02 1.82895E-10-1.26466E-01 8.83919E-13 6.33550E-13
 -1     21682 1.06315E-01 2.70133E-02-3.37974E-10-1.22032E-01 2.02574E-14-1.63550E-14
 -1     21683 8.64923E-02 4.68357E-02-3.39408E-10-1.25191E-01 9.94495E-13 7.85554E-13
 -1     21684 1.07755E-01 2.55727E-02 1.82892E-10-1.26466E-01-8.64794E-13-6.37525E-13
 -1     21689 1.06315E-01 2.70133E-02-3.41398E-10-1.22032E-01-1.79532E-12-1.30476E-12
 -1     21690 8.64923E-02 4.68357E-02-3.38723E-10-1.25191E-01-4.06811E-12-3.62223E-12
 -1     21691 1.07755E-01 2.55727E-02 1.83013E-10-1.26466E-01 2.64748E-13 1.85432E-13
 -1     21696 1.06315E-01 2.70133E-02-3.31998E-10-1.22032E-01 6.35834E-13 4.76422E-13
 -1     21697 8.64923E-02 4.68357E-02-3.36267E-10-1.25191E-01 5.24764E-12 4.28958E-12
 -1     21698 1.07755E-01 2.55727E-02 1.84548E-10-1.26466E-01-2.79772E-12-2.05227E-12
 -1     21703 1.06315E-01 2.70133E-02-3.49383E-10-1.22032E-01-2.83335E-12-2.06509E-12
 -1     21704 8.64923E-02 4.68357E-02-3.28722E-10-1.25191E-01-7.68789E-12-6.78414E-12
 -1     21705 1.07755E-01 2.55727E-02 1.86362E-10-1.26466E-01 1.90346E-12 1.35102E-12
 -1     21710 1.06315E-01 2.70133E-02-3.18721E-10-1.22032E-01-6.62154E-13-5.26485E-13
 -1     21711 8.64923E-02 4.68357E-02-3.38114E-10-1.25191E-01 1.20082E-11 1.01045E-11
 -1     21712 1.07755E-01 2.55727E-02 1.85817E-10-1.26466E-01 2.90259E-13 1.58397E-13
 -1     21717 1.06315E-01 2.70133E-02-3.61805E-10-1.22032E-01 9.13127E-12 6.60112E-12
 -1     21721 1.42084E-01-8.75610E-03-3.61690E-10-1.03807E-01-1.00283E-11-4.88890E-12
 -1     21722 1.24208E-01 9.11993E-03-3.37761E-10-1.12937E-01-1.32658E-11-8.26053E-12
 -1     21723 1.44824E-01-1.14962E-02 1.85931E-10-1.07578E-01-2.64058E-13 9.17034E-14
 -1     21728 1.42084E-01-8.75610E-03-3.18440E-10-1.03807E-01 7.89115E-13 7.55748E-13
 -1     21729 1.24208E-01 9.11993E-03-3.28376E-10-1.12937E-01 8.85845E-12 5.26890E-12
 -1     21730 1.44824E-01-1.14962E-02 1.86587E-10-1.07578E-01-2.03340E-12-7.86706E-13
 -1     21735 1.42084E-01-8.75610E-03-3.48943E-10-1.03807E-01 3.18799E-12 1.92432E-12
 -1     21736 1.24208E-01 9.11993E-03-3.35922E-10-1.12937E-01-5.67874E-12-3.60328E-12
 -1     21737 1.44824E-01-1.14962E-02 1.84888E-10-1.07578E-01 3.17647E-12 1.80365E-12
 -1     21742 1.42084E-01-8.75610E-03-3.31440E-10-1.03807E-01-6.11479E-13-1.12035E-13
 -1     21743 1.24208E-01 9.11993E-03-3.38376E-10-1.12937E-01 4.70934E-12 2.79083E-12
 -1     21744 1.44824E-01-1.14962E-02 1.83438E-10-1.07578E-01-2.32622E-13-9.94089E-15
 -1     21749 1.42084E-01-8.75610E-03-3.40757E-10-1.03807E-01 2.02198E-12 1.13175E-12
 -1     21750 1.24208E-01 9.11993E-03-3.39064E-10-1.12937E-01-1.05611E-12-6.65042E-13
 -1     21751 1.44824E-01-1.14962E-02 1.83352E-10-1.07578E-01 9.75344E-13 5.39708E-13
 -1     21756 1.42084E-01-8.75610E-03-3.37312E-10-1.03807E-01 1.47053E-14 5.63371E-15
 -1     21757 1.24208E-01 9.11993E-03-3.39067E-10-1.12937E-01 1.05544E-12 6.72807E-13
 -1     21758 1.44824E-01-1.14962E-02 1.83350E-10-1.07578E-01-9.68276E-13-5.27168E-13
 -1     21763 1.42084E-01-8.75610E-03-3.40768E-10-1.03807E-01-2.03499E-12-1.12093E-12
 -1     21764 1.24208E-01 9.11993E-03-3.38378E-10-1.12937E-01-4.68961E-12-2.79733E-12
 -1     21765 1.44824E-01-1.14962E-02 1.83426E-10-1.07578E-01 2.39722E-13 1.04412E-15
 -1     21770 1.42084E-01-8.75610E-03-3.31452E-10-1.03807E-01 6.48937E-13 1.13796E-13
 -1     21771 1.24208E-01 9.11993E-03-3.35925E-10-1.12937E-01 5.67214E-12 3.61812E-12
 -1     21772 1.44824E-01-1.14962E-02 1.84878E-10-1.07578E-01-3.16253E-12-1.81307E-12
 -1     21777 1.42084E-01-8.75610E-03-3.48941E-10-1.03807E-01-3.20647E-12-1.92400E-12
 -1     21778 1.24208E-01 9.11993E-03-3.28379E-10-1.12937E-01-8.86723E-12-5.26140E-12
 -1     21779 1.44824E-01-1.14962E-02 1.86573E-10-1.07578E-01 2.02347E-12 7.90029E-13
 -1     21784 1.42084E-01-8.75610E-03-3.18440E-10-1.03807E-01-7.84240E-13-7.47243E-13
 -1     21785 1.24208E-01 9.11993E-03-3.37760E-10-1.12937E-01 1.32688E-11 8.25817E-12
 -1     21786 1.44824E-01-1.14962E-02 1.85931E-10-1.07578E-01 2.62519E-13-8.95968E-14
 -1     21791 1.42084E-01-8.75610E-03-3.61677E-10-1.03807E-01 9.99353E-12 4.89472E-12
 -1     21795 1.70471E-01-3.71429E-02-3.61085E-10-7.54201E-02-1.03146E-11-3.39862E-12
 -1     21796 1.56291E-01-2.29630E-02-3.38335E-10-8.96270E-02-1.44975E-11-6.16137E-12
 -1     21797 1.74242E-01-4.09143E-02 1.85698E-10-7.81602E-02-6.67726E-15-5.85781E-14
 -1     21802 1.70471E-01-3.71429E-02-3.17731E-10-7.54201E-02 1.39753E-12 4.00057E-13
 -1     21803 1.56291E-01-2.29630E-02-3.29014E-10-8.96270E-02 9.46717E-12 3.70863E-12
 -1     21804 1.74242E-01-4.09143E-02 1.86513E-10-7.81602E-02-1.83107E-12-6.29934E-13
 -1     21809 1.70471E-01-3.71429E-02-3.48017E-10-7.54201E-02 3.89698E-12 1.24544E-12
 -1     21810 1.56291E-01-2.29630E-02-3.36665E-10-8.96270E-02-6.23091E-12-2.78084E-12
 -1     21811 1.74242E-01-4.09143E-02 1.84967E-10-7.81602E-02 3.66337E-12 1.17368E-12
 -1     21816 1.70471E-01-3.71429E-02-3.30339E-10-7.54201E-02-3.08032E-13-1.12351E-13
 -1     21817 1.56291E-01-2.29630E-02-3.39194E-10-8.96270E-02 5.04648E-12 1.96069E-12
 -1     21818 1.74242E-01-4.09143E-02 1.83651E-10-7.81602E-02-7.38090E-14-3.22514E-14
 -1     21823 1.70471E-01-3.71429E-02-3.39544E-10-7.54201E-02 2.31567E-12 7.58074E-13
 -1     21824 1.56291E-01-2.29630E-02-3.39915E-10-8.96270E-02-1.15765E-12-5.19818E-13
 -1     21825 1.74242E-01-4.09143E-02 1.83628E-10-7.81602E-02 1.10749E-12 3.51251E-13
 -1     21830 1.70471E-01-3.71429E-02-3.36052E-10-7.54201E-02-1.07116E-14-8.67481E-15
 -1     21831 1.56291E-01-2.29630E-02-3.39921E-10-8.96270E-02 1.14987E-12 5.17190E-13
 -1     21832 1.74242E-01-4.09143E-02 1.83629E-10-7.81602E-02-1.11568E-12-3.65450E-13
 -1     21837 1.70471E-01-3.71429E-02-3.39535E-10-7.54201E-02-2.34499E-12-7.66839E-13
 -1     21838 1.56291E-01-2.29630E-02-3.39183E-10-8.96270E-02-5.03550E-12-1.96318E-12
 -1     21839 1.74242E-01-4.09143E-02 1.83656E-10-7.81602E-02 6.33898E-14 2.54792E-14
 -1     21844 1.70471E-01-3.71429E-02-3.30344E-10-7.54201E-02 2.86581E-13 9.99861E-14
 -1     21845 1.56291E-01-2.29630E-02-3.36667E-10-8.96270E-02 6.23196E-12 2.76716E-12
 -1     21846 1.74242E-01-4.09143E-02 1.84982E-10-7.81602E-02-3.68015E-12-1.18358E-12
 -1     21851 1.70471E-01-3.71429E-02-3.48005E-10-7.54201E-02-3.88099E-12-1.26250E-12
 -1     21852 1.56291E-01-2.29630E-02-3.29010E-10-8.96270E-02-9.46894E-12-3.71295E-12
 -1     21853 1.74242E-01-4.09143E-02 1.86536E-10-7.81602E-02 1.83884E-12 6.23194E-13
 -1     21858 1.70471E-01-3.71429E-02-3.17711E-10-7.54201E-02-1.39722E-12-4.10775E-13
 -1     21859 1.56291E-01-2.29630E-02-3.38328E-10-8.96270E-02 1.44975E-11 6.16006E-12
 -1     21860 1.74242E-01-4.09143E-02 1.85715E-10-7.81602E-02 1.88733E-15 5.44266E-14
 -1     21865 1.70471E-01-3.71429E-02-3.61083E-10-7.54201E-02 1.03149E-11 3.39956E-12
 -1     21869 1.88696E-01-5.53683E-02-3.61447E-10-3.96507E-02-1.08750E-11-2.01885E-12
 -1     21870 1.79601E-01-4.62726E-02-3.38525E-10-5.75441E-02-1.53955E-11-3.51748E-12
 -1     21871 1.93130E-01-5.98019E-02 1.85614E-10-4.10913E-02-1.23728E-13-3.23004E-13
 -1     21876 1.88696E-01-5.53683E-02-3.18304E-10-3.96507E-02 1.23349E-12-2.62725E-13
 -1     21877 1.79601E-01-4.62726E-02-3.29200E-10-5.75441E-02 9.80669E-12 2.55766E-12
 -1     21878 1.93130E-01-5.98019E-02 1.86231E-10-4.10913E-02-2.03412E-12-6.42565E-13
 -1     21883 1.88696E-01-5.53683E-02-3.48893E-10-3.96507E-02 3.86399E-12 2.35916E-13
 -1     21884 1.79601E-01-4.62726E-02-3.36837E-10-5.75441E-02-6.70320E-12-1.44740E-12
 -1     21885 1.93130E-01-5.98019E-02 1.84488E-10-4.10913E-02 3.69047E-12 3.51578E-13
 -1     21890 1.88696E-01-5.53683E-02-3.31430E-10-3.96507E-02-4.58740E-13-3.17606E-13
 -1     21891 1.79601E-01-4.62726E-02-3.39368E-10-5.75441E-02 5.22821E-12 1.35514E-12
 -1     21892 1.93130E-01-5.98019E-02 1.83010E-10-4.10913E-02-1.31783E-13-1.52797E-13
 -1     21897 1.88696E-01-5.53683E-02-3.40767E-10-3.96507E-02 2.38483E-12 2.61614E-13
 -1     21898 1.79601E-01-4.62726E-02-3.40090E-10-5.75441E-02-1.24717E-12-2.62558E-13
 -1     21899 1.93130E-01-5.98019E-02 1.82937E-10-4.10913E-02 1.12234E-12 1.39638E-13
 -1     21904 1.88696E-01-5.53683E-02-3.37305E-10-3.96507E-02-4.35819E-16 4.86772E-15
 -1     21905 1.79601E-01-4.62726E-02-3.40089E-10-5.75441E-02 1.25645E-12 2.61018E-13
 -1     21906 1.93130E-01-5.98019E-02 1.82935E-10-4.10913E-02-1.09155E-12-1.31668E-13
 -1     21911 1.88696E-01-5.53683E-02-3.40758E-10-3.96507E-02-2.34056E-12-2.54692E-13
 -1     21912 1.79601E-01-4.62726E-02-3.39360E-10-5.75441E-02-5.23517E-12-1.35222E-12
 -1     21913 1.93130E-01-5.98019E-02 1.83022E-10-4.10913E-02 1.43922E-13 1.58607E-13
 -1     21918 1.88696E-01-5.53683E-02-3.31428E-10-3.96507E-02 4.81987E-13 3.20966E-13
 -1     21919 1.79601E-01-4.62726E-02-3.36839E-10-5.75441E-02 6.70356E-12 1.44805E-12
 -1     21920 1.93130E-01-5.98019E-02 1.84488E-10-4.10913E-02-3.68211E-12-3.48721E-13
 -1     21925 1.88696E-01-5.53683E-02-3.48903E-10-3.96507E-02-3.87352E-12-2.28906E-13
 -1     21926 1.79601E-01-4.62726E-02-3.29200E-10-5.75441E-02-9.81333E-12-2.55836E-12
 -1     21927 1.93130E-01-5.98019E-02 1.86222E-10-4.10913E-02 2.03043E-12 6.40663E-13
 -1     21932 1.88696E-01-5.53683E-02-3.18319E-10-3.96507E-02-1.23546E-12 2.58699E-13
 -1     21933 1.79601E-01-4.62726E-02-3.38531E-10-5.75441E-02 1.53908E-11 3.52423E-12
 -1     21934 1.93130E-01-5.98019E-02 1.85611E-10-4.10913E-02 1.18295E-13 3.22027E-13
 -1     21939 1.88696E-01-5.53683E-02-3.61456E-10-3.96507E-02 1.08835E-11 2.01768E-12
 -1     21943 1.91855E-01-5.85272E-02-3.37714E-10-1.98283E-02-1.55763E-11-1.01819E-12
 -1     21947 1.91855E-01-5.85272E-02-3.28298E-10-1.98283E-02 1.02742E-11 1.06837E-12
 -1     21951 1.91855E-01-5.85272E-02-3.35792E-10-1.98283E-02-6.70935E-12-3.07356E-13
 -1     21955 1.91855E-01-5.85272E-02-3.38232E-10-1.98283E-02 5.45602E-12 5.73426E-13
 -1     21959 1.91855E-01-5.85272E-02-3.38895E-10-1.98283E-02-1.25159E-12-4.68053E-14
 -1     21963 1.91855E-01-5.85272E-02-3.38902E-10-1.98283E-02 1.27166E-12 4.98245E-14
 -1     21967 1.91855E-01-5.85272E-02-3.38229E-10-1.98283E-02-5.45648E-12-5.73036E-13
 -1     21971 1.91855E-01-5.85272E-02-3.35800E-10-1.98283E-02 6.71472E-12 3.09047E-13
 -1     21975 1.91855E-01-5.85272E-02-3.28295E-10-1.98283E-02-1.02727E-11-1.06720E-12
 -1     21979 1.91855E-01-5.85272E-02-3.37719E-10-1.98283E-02 1.55866E-11 1.02108E-12
 -1     21985-4.73728E-02 1.80701E-01-3.53810E-10-3.70528E-02 4.10946E-13 2.53786E-12
 -1     21986-5.03248E-02 1.83653E-01-3.23887E-10-1.85292E-02 1.08665E-13 1.46294E-12
 -1     21987-5.13709E-02 1.84699E-01 1.60109E-10-3.83518E-02 2.80352E-12 1.75511E-11
 -1     21992-4.73728E-02 1.80701E-01-2.80805E-10-3.70528E-02 1.44917E-12 9.01347E-12
 -1     21993-5.03248E-02 1.83653E-01-3.41061E-10-1.85292E-02 3.50353E-12 4.45842E-11
 -1     21994-5.13709E-02 1.84699E-01 1.44207E-10-3.83518E-02 9.60984E-15-1.56074E-13
 -1     21999-4.73728E-02 1.80701E-01-3.42532E-10-3.70528E-02 2.42833E-12 1.51097E-11
 -1     22000-5.03248E-02 1.83653E-01-3.24696E-10-1.85292E-02-4.28966E-13-5.39690E-12
 -1     22001-5.13709E-02 1.84699E-01 1.51116E-10-3.83518E-02 1.54792E-12 9.56774E-12
 -1     22006-4.73728E-02 1.80701E-01-3.10423E-10-3.70528E-02 2.00402E-13 1.08892E-12
 -1     22007-5.03248E-02 1.83653E-01-3.18650E-10-1.85292E-02 8.98609E-13 1.14469E-11
 -1     22008-5.13709E-02 1.84699E-01 1.50929E-10-3.83518E-02 1.28846E-13 7.12185E-13
 -1     22013-4.73728E-02 1.80701E-01-3.24086E-10-3.70528E-02 9.76201E-13 6.07901E-12
 -1     22014-5.03248E-02 1.83653E-01-3.17339E-10-1.85292E-02-3.58809E-15-4.31862E-14
 -1     22015-5.13709E-02 1.84699E-01 1.51187E-10-3.83518E-02 2.78824E-13 1.71947E-12
 -1     22020-4.73728E-02 1.80701E-01-3.21076E-10-3.70528E-02-6.67136E-16 9.23210E-15
 -1     22021-5.03248E-02 1.83653E-01-3.17335E-10-1.85292E-02 7.53625E-15 4.00649E-14
 -1     22022-5.13709E-02 1.84699E-01 1.51178E-10-3.83518E-02-2.77142E-13-1.70045E-12
 -1     22027-4.73728E-02 1.80701E-01-3.24102E-10-3.70528E-02-9.70554E-13-6.06228E-12
 -1     22028-5.03248E-02 1.83653E-01-3.18669E-10-1.85292E-02-8.94470E-13-1.14418E-11
 -1     22029-5.13709E-02 1.84699E-01 1.50926E-10-3.83518E-02-1.25894E-13-6.99168E-13
 -1     22034-4.73728E-02 1.80701E-01-3.10437E-10-3.70528E-02-1.94060E-13-1.11052E-12
 -1     22035-5.03248E-02 1.83653E-01-3.24699E-10-1.85292E-02 4.32117E-13 5.39432E-12
 -1     22036-5.13709E-02 1.84699E-01 1.51113E-10-3.83518E-02-1.54325E-12-9.56901E-12
 -1     22041-4.73728E-02 1.80701E-01-3.42542E-10-3.70528E-02-2.42617E-12-1.51112E-11
 -1     22042-5.03248E-02 1.83653E-01-3.41060E-10-1.85292E-02-3.50014E-12-4.45852E-11
 -1     22043-5.13709E-02 1.84699E-01 1.44202E-10-3.83518E-02-4.55553E-15 1.78808E-13
 -1     22048-4.73728E-02 1.80701E-01-2.80820E-10-3.70528E-02-1.45124E-12-8.97411E-12
 -1     22049-5.03248E-02 1.83653E-01-3.23887E-10-1.85292E-02-1.09858E-13-1.45394E-12
 -1     22050-5.13709E-02 1.84699E-01 1.60107E-10-3.83518E-02-2.80205E-12-1.75432E-11
 -1     22055-4.73728E-02 1.80701E-01-3.53811E-10-3.70528E-02-4.12398E-13-2.52501E-12
 -1     22059-3.03415E-02 1.63670E-01-3.53939E-10-7.04786E-02 7.81266E-13 2.42762E-12
 -1     22060-3.88731E-02 1.72201E-01-3.23950E-10-5.37738E-02 3.33119E-13 1.41731E-12
 -1     22061-3.37425E-02 1.67070E-01 1.60102E-10-7.29496E-02 5.47119E-12 1.68975E-11
 -1     22066-3.03415E-02 1.63670E-01-2.80964E-10-7.04786E-02 2.80853E-12 8.64636E-12
 -1     22067-3.88731E-02 1.72201E-01-3.41110E-10-5.37738E-02 1.04274E-11 4.34866E-11
 -1     22068-3.37425E-02 1.67070E-01 1.44181E-10-7.29496E-02-6.59634E-14-1.80393E-13
 -1     22073-3.03415E-02 1.63670E-01-3.42710E-10-7.04786E-02 4.73875E-12 1.45651E-11
 -1     22074-3.88731E-02 1.72201E-01-3.24733E-10-5.37738E-02-1.27683E-12-5.26831E-12
 -1     22075-3.37425E-02 1.67070E-01 1.51088E-10-7.29496E-02 2.98989E-12 9.21972E-12
 -1     22080-3.03415E-02 1.63670E-01-3.10608E-10-7.04786E-02 3.43772E-13 1.06545E-12
 -1     22081-3.88731E-02 1.72201E-01-3.18679E-10-5.37738E-02 2.66891E-12 1.11646E-11
 -1     22082-3.37425E-02 1.67070E-01 1.50876E-10-7.29496E-02 2.23227E-13 6.56808E-13
 -1     22087-3.03415E-02 1.63670E-01-3.24262E-10-7.04786E-02 1.90565E-12 5.85048E-12
 -1     22088-3.88731E-02 1.72201E-01-3.17364E-10-5.37738E-02-1.20127E-14-3.62347E-14
 -1     22089-3.37425E-02 1.67070E-01 1.51137E-10-7.29496E-02 5.45187E-13 1.65321E-12
 -1     22094-3.03415E-02 1.63670E-01-3.21251E-10-7.04786E-02 7.14971E-15-2.31369E-16
 -1     22095-3.88731E-02 1.72201E-01-3.17354E-10-5.37738E-02 1.66509E-14 3.72051E-14
 -1     22096-3.37425E-02 1.67070E-01 1.51123E-10-7.29496E-02-5.39200E-13-1.65607E-12
 -1     22101-3.03415E-02 1.63670E-01-3.24261E-10-7.04786E-02-1.90453E-12-5.84868E-12
 -1     22102-3.88731E-02 1.72201E-01-3.18695E-10-5.37738E-02-2.66556E-12-1.11621E-11
 -1     22103-3.37425E-02 1.67070E-01 1.50878E-10-7.29496E-02-2.19552E-13-6.70219E-13
 -1     22108-3.03415E-02 1.63670E-01-3.10615E-10-7.04786E-02-3.45251E-13-1.05697E-12
 -1     22109-3.88731E-02 1.72201E-01-3.24740E-10-5.37738E-02 1.28386E-12 5.25976E-12
 -1     22110-3.37425E-02 1.67070E-01 1.51080E-10-7.29496E-02-2.99082E-12-9.22509E-12
 -1     22115-3.03415E-02 1.63670E-01-3.42710E-10-7.04786E-02-4.72636E-12-1.45724E-11
 -1     22116-3.88731E-02 1.72201E-01-3.41108E-10-5.37738E-02-1.04214E-11-4.34797E-11
 -1     22117-3.37425E-02 1.67070E-01 1.44178E-10-7.29496E-02 6.71362E-14 1.56606E-13
 -1     22122-3.03415E-02 1.63670E-01-2.80953E-10-7.04786E-02-2.80016E-12-8.66986E-12
 -1     22123-3.88731E-02 1.72201E-01-3.23947E-10-5.37738E-02-3.29921E-13-1.40849E-12
 -1     22124-3.37425E-02 1.67070E-01 1.60110E-10-7.29496E-02-5.46961E-12-1.68945E-11
 -1     22129-3.03415E-02 1.63670E-01-3.53936E-10-7.04786E-02-7.72975E-13-2.43538E-12
 -1     22133-3.81465E-03 1.37143E-01-3.53867E-10-9.70055E-02 1.08131E-12 2.25435E-12
 -1     22134-1.70907E-02 1.50419E-01-3.23742E-10-8.37547E-02 5.69058E-13 1.35958E-12
 -1     22135-6.28556E-03 1.39614E-01 1.60251E-10-1.00406E-01 7.99958E-12 1.58503E-11
 -1     22140-3.81465E-03 1.37143E-01-2.80818E-10-9.70055E-02 4.01882E-12 8.06258E-12
 -1     22141-1.70907E-02 1.50419E-01-3.40913E-10-8.37547E-02 1.71282E-11 4.13225E-11
 -1     22142-6.28556E-03 1.39614E-01 1.44336E-10-1.00406E-01-1.51825E-13-1.57935E-13
 -1     22147-3.81465E-03 1.37143E-01-3.42536E-10-9.70055E-02 6.85744E-12 1.36086E-11
 -1     22148-1.70907E-02 1.50419E-01-3.24553E-10-8.37547E-02-2.06969E-12-4.98241E-12
 -1     22149-6.28556E-03 1.39614E-01 1.51263E-10-1.00406E-01 4.33960E-12 8.62923E-12
 -1     22154-3.81465E-03 1.37143E-01-3.10430E-10-9.70055E-02 4.33643E-13 9.53776E-13
 -1     22155-1.70907E-02 1.50419E-01-3.18507E-10-8.37547E-02 4.39103E-12 1.06168E-11
 -1     22156-6.28556E-03 1.39614E-01 1.51059E-10-1.00406E-01 2.79854E-13 6.23103E-13
 -1     22161-3.81465E-03 1.37143E-01-3.24093E-10-9.70055E-02 2.76148E-12 5.48076E-12
 -1     22162-1.70907E-02 1.50419E-01-3.17182E-10-8.37547E-02-1.79840E-14-3.25050E-14
 -1     22163-6.28556E-03 1.39614E-01 1.51317E-10-1.00406E-01 7.82219E-13 1.54508E-12
 -1     22168-3.81465E-03 1.37143E-01-3.21073E-10-9.70055E-02-8.78652E-15-4.10128E-16
 -1     22169-1.70907E-02 1.50419E-01-3.17180E-10-8.37547E-02 1.15937E-14 2.92439E-14
 -1     22170-6.28556E-03 1.39614E-01 1.51323E-10-1.00406E-01-7.73534E-13-1.54499E-12
 -1     22175-3.81465E-03 1.37143E-01-3.24095E-10-9.70055E-02-2.76148E-12-5.46779E-12
 -1     22176-1.70907E-02 1.50419E-01-3.18510E-10-8.37547E-02-4.39019E-12-1.06110E-11
 -1     22177-6.28556E-03 1.39614E-01 1.51067E-10-1.00406E-01-2.83500E-13-6.12541E-13
 -1     22182-3.81465E-03 1.37143E-01-3.10433E-10-9.70055E-02-4.41990E-13-9.58330E-13
 -1     22183-1.70907E-02 1.50419E-01-3.24561E-10-8.37547E-02 2.07143E-12 4.97931E-12
 -1     22184-6.28556E-03 1.39614E-01 1.51262E-10-1.00406E-01-4.33619E-12-8.62637E-12
 -1     22189-3.81465E-03 1.37143E-01-3.42550E-10-9.70055E-02-6.86451E-12-1.35956E-11
 -1     22190-1.70907E-02 1.50419E-01-3.40917E-10-8.37547E-02-1.71205E-11-4.13326E-11
 -1     22191-6.28556E-03 1.39614E-01 1.44338E-10-1.00406E-01 1.59840E-13 1.57412E-13
 -1     22196-3.81465E-03 1.37143E-01-2.80811E-10-9.70055E-02-4.01298E-12-8.05884E-12
 -1     22197-1.70907E-02 1.50419E-01-3.23735E-10-8.37547E-02-5.63866E-13-1.35274E-12
 -1     22198-6.28556E-03 1.39614E-01 1.60252E-10-1.00406E-01-7.99588E-12-1.58478E-11
 -1     22203-3.81465E-03 1.37143E-01-3.53867E-10-9.70055E-02-1.08955E-12-2.24363E-12
 -1     22207 2.96112E-02 1.03717E-01-3.53699E-10-1.14037E-01 1.50377E-12 2.10018E-12
 -1     22208 1.28902E-02 1.20438E-01-3.24041E-10-1.05537E-01 8.23396E-13 1.23350E-12
 -1     22209 2.83121E-02 1.05016E-01 1.60226E-10-1.18035E-01 1.04405E-11 1.43904E-11
 -1     22214 2.96112E-02 1.03717E-01-2.80632E-10-1.14037E-01 5.31672E-12 7.40969E-12
 -1     22215 1.28902E-02 1.20438E-01-3.41214E-10-1.05537E-01 2.34357E-11 3.80999E-11
 -1     22216 2.83121E-02 1.05016E-01 1.44401E-10-1.18035E-01-1.11146E-13-1.12517E-13
 -1     22221 2.96112E-02 1.03717E-01-3.42236E-10-1.14037E-01 8.96170E-12 1.24349E-11
 -1     22222 1.28902E-02 1.20438E-01-3.24863E-10-1.05537E-01-2.77319E-12-4.64909E-12
 -1     22223 2.83121E-02 1.05016E-01 1.51392E-10-1.18035E-01 5.66847E-12 7.87569E-12
 -1     22228 2.96112E-02 1.03717E-01-3.10042E-10-1.14037E-01 6.05528E-13 9.29348E-13
 -1     22229 1.28902E-02 1.20438E-01-3.18830E-10-1.05537E-01 6.02730E-12 9.76765E-12
 -1     22230 2.83121E-02 1.05016E-01 1.51258E-10-1.18035E-01 3.98242E-13 5.86989E-13
 -1     22235 2.96112E-02 1.03717E-01-3.23642E-10-1.14037E-01 3.58771E-12 4.98407E-12
 -1     22236 1.28902E-02 1.20438E-01-3.17505E-10-1.05537E-01-1.37785E-14-4.48346E-14
 -1     22237 2.83121E-02 1.05016E-01 1.51549E-10-1.18035E-01 1.01302E-12 1.40958E-12
 -1     22242 2.96112E-02 1.03717E-01-3.20591E-10-1.14037E-01-2.69624E-16-8.26433E-15
 -1     22243 1.28902E-02 1.20438E-01-3.17500E-10-1.05537E-01 7.59378E-15 4.10233E-14
 -1     22244 2.83121E-02 1.05016E-01 1.51544E-10-1.18035E-01-1.02461E-12-1.42452E-12
 -1     22249 2.96112E-02 1.03717E-01-3.23631E-10-1.14037E-01-3.59529E-12-4.99776E-12
 -1     22250 1.28902E-02 1.20438E-01-3.18822E-10-1.05537E-01-6.03568E-12-9.75946E-12
 -1     22251 2.83121E-02 1.05016E-01 1.51257E-10-1.18035E-01-4.03983E-13-5.92470E-13
 -1     22256 2.96112E-02 1.03717E-01-3.10041E-10-1.14037E-01-6.18751E-13-9.36786E-13
 -1     22257 1.28902E-02 1.20438E-01-3.24866E-10-1.05537E-01 2.76847E-12 4.64346E-12
 -1     22258 2.83121E-02 1.05016E-01 1.51399E-10-1.18035E-01-5.69108E-12-7.87102E-12
 -1     22263 2.96112E-02 1.03717E-01-3.42235E-10-1.14037E-01-8.96350E-12-1.24328E-11
 -1     22264 1.28902E-02 1.20438E-01-3.41217E-10-1.05537E-01-2.34349E-11-3.80938E-11
 -1     22265 2.83121E-02 1.05016E-01 1.44397E-10-1.18035E-01 9.33939E-14 1.16381E-13
 -1     22270 2.96112E-02 1.03717E-01-2.80630E-10-1.14037E-01-5.33074E-12-7.40698E-12
 -1     22271 1.28902E-02 1.20438E-01-3.24040E-10-1.05537E-01-8.32438E-13-1.23955E-12
 -1     22272 2.83121E-02 1.05016E-01 1.60223E-10-1.18035E-01-1.04523E-11-1.43991E-11
 -1     22277 2.96112E-02 1.03717E-01-3.53707E-10-1.14037E-01-1.51082E-12-2.09833E-12
 -1     22281 6.66640E-02 6.66640E-02-3.53854E-10-1.19905E-01 2.01902E-12 1.80160E-12
 -1     22282 4.81348E-02 8.51932E-02-3.23977E-10-1.16989E-01 8.98459E-13 1.06304E-12
 -1     22283 6.66640E-02 6.66640E-02 1.59992E-10-1.24109E-01 1.27582E-11 1.25224E-11
 -1     22288 6.66640E-02 6.66640E-02-2.80825E-10-1.19905E-01 6.81984E-12 6.44019E-12
 -1     22289 4.81348E-02 8.51932E-02-3.41202E-10-1.16989E-01 2.90064E-11 3.39624E-11
 -1     22290 6.66640E-02 6.66640E-02 1.44079E-10-1.24109E-01 1.56939E-13-1.26529E-13
 -1     22295 6.66640E-02 6.66640E-02-3.42574E-10-1.19905E-01 1.12018E-11 1.08988E-11
 -1     22296 4.81348E-02 8.51932E-02-3.24885E-10-1.16989E-01-3.53559E-12-4.15837E-12
 -1     22297 6.66640E-02 6.66640E-02 1.50994E-10-1.24109E-01 7.11456E-12 6.87132E-12
 -1     22302 6.66640E-02 6.66640E-02-3.10476E-10-1.19905E-01 1.08637E-12 8.32560E-13
 -1     22303 4.81348E-02 8.51932E-02-3.18875E-10-1.16989E-01 7.46339E-12 8.70261E-12
 -1     22304 6.66640E-02 6.66640E-02 1.50803E-10-1.24109E-01 6.68146E-13 5.27511E-13
 -1     22309 6.66640E-02 6.66640E-02-3.24137E-10-1.19905E-01 4.52314E-12 4.38069E-12
 -1     22310 4.81348E-02 8.51932E-02-3.17566E-10-1.16989E-01-3.19167E-14-3.39073E-14
 -1     22311 6.66640E-02 6.66640E-02 1.51049E-10-1.24109E-01 1.29256E-12 1.24604E-12
 -1     22316 6.66640E-02 6.66640E-02-3.21108E-10-1.19905E-01 1.11433E-14 4.54212E-15
 -1     22317 4.81348E-02 8.51932E-02-3.17574E-10-1.16989E-01 2.67908E-14 4.19378E-14
 -1     22318 6.66640E-02 6.66640E-02 1.51047E-10-1.24109E-01-1.28068E-12-1.23183E-12
 -1     22323 6.66640E-02 6.66640E-02-3.24138E-10-1.19905E-01-4.50378E-12-4.37204E-12
 -1     22324 4.81348E-02 8.51932E-02-3.18870E-10-1.16989E-01-7.45327E-12-8.69272E-12
 -1     22325 6.66640E-02 6.66640E-02 1.50792E-10-1.24109E-01-6.44000E-13-5.11508E-13
 -1     22330 6.66640E-02 6.66640E-02-3.10476E-10-1.19905E-01-1.07295E-12-8.32676E-13
 -1     22331 4.81348E-02 8.51932E-02-3.24888E-10-1.16989E-01 3.53211E-12 4.15953E-12
 -1     22332 6.66640E-02 6.66640E-02 1.50981E-10-1.24109E-01-7.09439E-12-6.85701E-12
 -1     22337 6.66640E-02 6.66640E-02-3.42580E-10-1.19905E-01-1.11819E-11-1.08797E-11
 -1     22338 4.81348E-02 8.51932E-02-3.41198E-10-1.16989E-01-2.90064E-11-3.39552E-11
 -1     22339 6.66640E-02 6.66640E-02 1.44081E-10-1.24109E-01-1.37494E-13 1.44498E-13
 -1     22344 6.66640E-02 6.66640E-02-2.80822E-10-1.19905E-01-6.82221E-12-6.42755E-12
 -1     22345 4.81348E-02 8.51932E-02-3.23980E-10-1.16989E-01-9.05659E-13-1.05597E-12
 -1     22346 6.66640E-02 6.66640E-02 1.60002E-10-1.24109E-01-1.27667E-11-1.25034E-11
 -1     22351 6.66640E-02 6.66640E-02-3.53842E-10-1.19905E-01-2.01408E-12-1.81859E-12
 -1     22355 1.03717E-01 2.96112E-02-3.54031E-10-1.14037E-01 1.87930E-12 1.37486E-12
 -1     22356 8.51932E-02 4.81348E-02-3.23805E-10-1.16989E-01 1.00319E-12 1.09889E-12
 -1     22357 1.05016E-01 2.83121E-02 1.60154E-10-1.18035E-01 1.42003E-11 1.03362E-11
 -1     22362 1.03717E-01 2.96112E-02-2.81161E-10-1.14037E-01 7.04433E-12 5.08418E-12
 -1     22363 8.51932E-02 4.81348E-02-3.40934E-10-1.16989E-01 3.38520E-11 2.92479E-11
 -1     22364 1.05016E-01 2.83121E-02 1.44150E-10-1.18035E-01-3.80908E-13-2.74362E-13
 -1     22369 1.03717E-01 2.96112E-02-3.43035E-10-1.14037E-01 1.20508E-11 8.71233E-12
 -1     22370 8.51932E-02 4.81348E-02-3.24521E-10-1.16989E-01-4.25912E-12-3.32367E-12
 -1     22371 1.05016E-01 2.83121E-02 1.50932E-10-1.18035E-01 7.62381E-12 5.52774E-12
 -1     22376 1.03717E-01 2.96112E-02-3.11062E-10-1.14037E-01 6.52475E-13 4.23848E-13
 -1     22377 8.51932E-02 4.81348E-02-3.18447E-10-1.16989E-01 8.64905E-12 7.57874E-12
 -1     22378 1.05016E-01 2.83121E-02 1.50657E-10-1.18035E-01 4.21343E-13 2.85620E-13
 -1     22383 1.03717E-01 2.96112E-02-3.24790E-10-1.14037E-01 4.83653E-12 3.49244E-12
 -1     22384 8.51932E-02 4.81348E-02-3.17097E-10-1.16989E-01-5.95803E-14 1.62584E-14
 -1     22385 1.05016E-01 2.83121E-02 1.50860E-10-1.18035E-01 1.36547E-12 9.74953E-13
 -1     22390 1.03717E-01 2.96112E-02-3.21794E-10-1.14037E-01 1.20464E-15 3.86706E-15
 -1     22391 8.51932E-02 4.81348E-02-3.17105E-10-1.16989E-01 7.33548E-14-2.03781E-14
 -1     22392 1.05016E-01 2.83121E-02 1.50866E-10-1.18035E-01-1.34666E-12-9.87018E-13
 -1     22397 1.03717E-01 2.96112E-02-3.24782E-10-1.14037E-01-4.83015E-12-3.49369E-12
 -1     22398 8.51932E-02 4.81348E-02-3.18440E-10-1.16989E-01-8.63446E-12-7.58159E-12
 -1     22399 1.05016E-01 2.83121E-02 1.50669E-10-1.18035E-01-4.30924E-13-2.86506E-13
 -1     22404 1.03717E-01 2.96112E-02-3.11049E-10-1.14037E-01-6.43649E-13-4.15006E-13
 -1     22405 8.51932E-02 4.81348E-02-3.24528E-10-1.16989E-01 4.25825E-12 3.31583E-12
 -1     22406 1.05016E-01 2.83121E-02 1.50956E-10-1.18035E-01-7.61536E-12-5.51996E-12
 -1     22411 1.03717E-01 2.96112E-02-3.43036E-10-1.14037E-01-1.20385E-11-8.72114E-12
 -1     22412 8.51932E-02 4.81348E-02-3.40932E-10-1.16989E-01-3.38489E-11-2.92493E-11
 -1     22413 1.05016E-01 2.83121E-02 1.44162E-10-1.18035E-01 3.71421E-13 2.66036E-13
 -1     22418 1.03717E-01 2.96112E-02-2.81164E-10-1.14037E-01-7.04564E-12-5.09246E-12
 -1     22419 8.51932E-02 4.81348E-02-3.23805E-10-1.16989E-01-9.97517E-13-1.09086E-12
 -1     22420 1.05016E-01 2.83121E-02 1.60163E-10-1.18035E-01-1.42001E-11-1.03426E-11
 -1     22425 1.03717E-01 2.96112E-02-3.54025E-10-1.14037E-01-1.89445E-12-1.37025E-12
 -1     22429 1.37143E-01-3.81465E-03-3.53835E-10-9.70055E-02 2.10135E-12 1.36730E-12
 -1     22430 1.20438E-01 1.28902E-02-3.23743E-10-1.05537E-01 1.41744E-12 6.82171E-13
 -1     22431 1.39614E-01-6.28556E-03 1.60304E-10-1.00406E-01 1.56871E-11 8.33681E-12
 -1     22436 1.37143E-01-3.81465E-03-2.80740E-10-9.70055E-02 7.80807E-12 4.51650E-12
 -1     22437 1.20438E-01 1.28902E-02-3.40834E-10-1.05537E-01 3.83117E-11 2.32465E-11
 -1     22438 1.39614E-01-6.28556E-03 1.44421E-10-1.00406E-01-3.20222E-13 2.29969E-13
 -1     22443 1.37143E-01-3.81465E-03-3.42431E-10-9.70055E-02 1.33885E-11 7.29630E-12
 -1     22444 1.20438E-01 1.28902E-02-3.24404E-10-1.05537E-01-4.47108E-12-2.92931E-12
 -1     22445 1.39614E-01-6.28556E-03 1.51362E-10-1.00406E-01 8.49747E-12 4.63662E-12
 -1     22450 1.37143E-01-3.81465E-03-3.10315E-10-9.70055E-02 8.11534E-13 7.48361E-13
 -1     22451 1.20438E-01 1.28902E-02-3.18313E-10-1.05537E-01 9.87009E-12 5.93878E-12
 -1     22452 1.39614E-01-6.28556E-03 1.51167E-10-1.00406E-01 5.60466E-13 4.68599E-13
 -1     22457 1.37143E-01-3.81465E-03-3.23970E-10-9.70055E-02 5.40484E-12 2.91565E-12
 -1     22458 1.20438E-01 1.28902E-02-3.16950E-10-1.05537E-01-8.44932E-15-4.58154E-14
 -1     22459 1.39614E-01-6.28556E-03 1.51431E-10-1.00406E-01 1.52045E-12 8.40601E-13
 -1     22464 1.37143E-01-3.81465E-03-3.20933E-10-9.70055E-02-6.49828E-15 4.49109E-15
 -1     22465 1.20438E-01 1.28902E-02-3.16944E-10-1.05537E-01 2.07376E-14 4.75956E-14
 -1     22466 1.39614E-01-6.28556E-03 1.51427E-10-1.00406E-01-1.51181E-12-8.29233E-13
 -1     22471 1.37143E-01-3.81465E-03-3.23955E-10-9.70055E-02-5.37832E-12-2.91232E-12
 -1     22472 1.20438E-01 1.28902E-02-3.18304E-10-1.05537E-01-9.87878E-12-5.91945E-12
 -1     22473 1.39614E-01-6.28556E-03 1.51182E-10-1.00406E-01-5.29428E-13-4.59019E-13
 -1     22478 1.37143E-01-3.81465E-03-3.10306E-10-9.70055E-02-8.15806E-13-7.31502E-13
 -1     22479 1.20438E-01 1.28902E-02-3.24402E-10-1.05537E-01 4.47294E-12 2.93124E-12
 -1     22480 1.39614E-01-6.28556E-03 1.51356E-10-1.00406E-01-8.50151E-12-4.63453E-12
 -1     22485 1.37143E-01-3.81465E-03-3.42432E-10-9.70055E-02-1.33921E-11-7.30067E-12
 -1     22486 1.20438E-01 1.28902E-02-3.40847E-10-1.05537E-01-3.83014E-11-2.32396E-11
 -1     22487 1.39614E-01-6.28556E-03 1.44423E-10-1.00406E-01 3.25221E-13-2.22057E-13
 -1     22492 1.37143E-01-3.81465E-03-2.80759E-10-9.70055E-02-7.80919E-12-4.51899E-12
 -1     22493 1.20438E-01 1.28902E-02-3.23746E-10-1.05537E-01-1.41569E-12-6.71329E-13
 -1     22494 1.39614E-01-6.28556E-03 1.60297E-10-1.00406E-01-1.56937E-11-8.33640E-12
 -1     22499 1.37143E-01-3.81465E-03-3.53839E-10-9.70055E-02-2.10588E-12-1.36921E-12
 -1     22503 1.63670E-01-3.03415E-02-3.53590E-10-7.04786E-02 2.70967E-12 8.25947E-13
 -1     22504 1.50419E-01-1.70907E-02-3.24132E-10-8.37547E-02 1.37098E-12 3.53140E-13
 -1     22505 1.67070E-01-3.37425E-02 1.60225E-10-7.29496E-02 1.71033E-11 5.50637E-12
 -1     22510 1.63670E-01-3.03415E-02-2.80357E-10-7.04786E-02 9.08630E-12 2.92439E-12
 -1     22511 1.50419E-01-1.70907E-02-3.41382E-10-8.37547E-02 4.13450E-11 1.68399E-11
 -1     22512 1.67070E-01-3.37425E-02 1.44537E-10-7.29496E-02 1.12049E-13 1.17480E-14
 -1     22517 1.63670E-01-3.03415E-02-3.41721E-10-7.04786E-02 1.49749E-11 4.86688E-12
 -1     22518 1.50419E-01-1.70907E-02-3.25111E-10-8.37547E-02-4.95987E-12-2.30487E-12
 -1     22519 1.67070E-01-3.37425E-02 1.51700E-10-7.29496E-02 9.48682E-12 3.07306E-12
 -1     22524 1.63670E-01-3.03415E-02-3.09360E-10-7.04786E-02 1.35542E-12 4.53262E-13
 -1     22525 1.50419E-01-1.70907E-02-3.19136E-10-8.37547E-02 1.06279E-11 4.24071E-12
 -1     22526 1.67070E-01-3.37425E-02 1.51674E-10-7.29496E-02 8.21423E-13 2.72100E-13
 -1     22531 1.63670E-01-3.03415E-02-3.22880E-10-7.04786E-02 6.01366E-12 1.96262E-12
 -1     22532 1.50419E-01-1.70907E-02-3.17853E-10-8.37547E-02-1.91274E-14-7.05513E-14
 -1     22533 1.67070E-01-3.37425E-02 1.52014E-10-7.29496E-02 1.72105E-12 5.58379E-13
 -1     22538 1.63670E-01-3.03415E-02-3.19828E-10-7.04786E-02 2.96984E-15 9.67074E-16
 -1     22539 1.50419E-01-1.70907E-02-3.17849E-10-8.37547E-02 1.71603E-14 6.93125E-14
 -1     22540 1.67070E-01-3.37425E-02 1.52010E-10-7.29496E-02-1.74288E-12-5.71552E-13
 -1     22545 1.63670E-01-3.03415E-02-3.22898E-10-7.04786E-02-6.03745E-12-1.96967E-12
 -1     22546 1.50419E-01-1.70907E-02-3.19144E-10-8.37547E-02-1.06320E-11-4.23632E-12
 -1     22547 1.67070E-01-3.37425E-02 1.51667E-10-7.29496E-02-8.66613E-13-2.81527E-13
 -1     22552 1.63670E-01-3.03415E-02-3.09388E-10-7.04786E-02-1.37577E-12-4.63918E-13
 -1     22553 1.50419E-01-1.70907E-02-3.25113E-10-8.37547E-02 4.96946E-12 2.30634E-12
 -1     22554 1.67070E-01-3.37425E-02 1.51687E-10-7.29496E-02-9.48399E-12-3.08430E-12
 -1     22559 1.63670E-01-3.03415E-02-3.41749E-10-7.04786E-02-1.49766E-11-4.86796E-12
 -1     22560 1.50419E-01-1.70907E-02-3.41393E-10-8.37547E-02-4.13499E-11-1.68407E-11
 -1     22561 1.67070E-01-3.37425E-02 1.44528E-10-7.29496E-02-1.25660E-13-2.28377E-14
 -1     22566 1.63670E-01-3.03415E-02-2.80369E-10-7.04786E-02-9.07788E-12-2.92597E-12
 -1     22567 1.50419E-01-1.70907E-02-3.24136E-10-8.37547E-02-1.36443E-12-3.52439E-13
 -1     22568 1.67070E-01-3.37425E-02 1.60221E-10-7.29496E-02-1.71010E-11-5.51522E-12
 -1     22573 1.63670E-01-3.03415E-02-3.53595E-10-7.04786E-02-2.69473E-12-8.38224E-13
 -1     22577 1.80701E-01-4.73728E-02-3.53869E-10-3.70528E-02 2.65304E-12 1.66548E-14
 -1     22578 1.72201E-01-3.88731E-02-3.24136E-10-5.37738E-02 1.26915E-12 5.17121E-13
 -1     22579 1.84699E-01-5.13709E-02 1.60020E-10-3.83518E-02 1.76851E-11 2.35685E-12
 -1     22584 1.80701E-01-4.73728E-02-2.80902E-10-3.70528E-02 9.22894E-12 7.85926E-13
 -1     22585 1.72201E-01-3.88731E-02-3.41393E-10-5.37738E-02 4.33043E-11 1.06477E-11
 -1     22586 1.84699E-01-5.13709E-02 1.44082E-10-3.83518E-02 1.55583E-14-4.83901E-13
 -1     22591 1.80701E-01-4.73728E-02-3.42680E-10-3.70528E-02 1.53703E-11 1.86456E-12
 -1     22592 1.72201E-01-3.88731E-02-3.25130E-10-5.37738E-02-5.37681E-12-1.09271E-12
 -1     22593 1.84699E-01-5.13709E-02 1.50975E-10-3.83518E-02 9.73411E-12 1.17589E-12
 -1     22598 1.80701E-01-4.73728E-02-3.10579E-10-3.70528E-02 1.29709E-12-1.81183E-13
 -1     22599 1.72201E-01-3.88731E-02-3.19162E-10-5.37738E-02 1.10873E-11 2.78681E-12
 -1     22600 1.84699E-01-5.13709E-02 1.50770E-10-3.83518E-02 8.22448E-13-8.52741E-14
 -1     22605 1.80701E-01-4.73728E-02-3.24234E-10-3.70528E-02 6.17607E-12 7.90394E-13
 -1     22606 1.72201E-01-3.88731E-02-3.17883E-10-5.37738E-02-5.52044E-14 3.09427E-14
 -1     22607 1.84699E-01-5.13709E-02 1.51020E-10-3.83518E-02 1.75876E-12 2.09955E-13
 -1     22612 1.80701E-01-4.73728E-02-3.21215E-10-3.70528E-02 2.02374E-14 1.15251E-15
 -1     22613 1.72201E-01-3.88731E-02-3.17885E-10-5.37738E-02 6.27907E-14-2.54544E-14
 -1     22614 1.84699E-01-5.13709E-02 1.51032E-10-3.83518E-02-1.72299E-12-2.04901E-13
 -1     22619 1.80701E-01-4.73728E-02-3.24232E-10-3.70528E-02-6.16288E-12-7.87364E-13
 -1     22620 1.72201E-01-3.88731E-02-3.19171E-10-5.37738E-02-1.10814E-11-2.78135E-12
 -1     22621 1.84699E-01-5.13709E-02 1.50766E-10-3.83518E-02-7.91712E-13 9.09972E-14
 -1     22626 1.80701E-01-4.73728E-02-3.10586E-10-3.70528E-02-1.26561E-12 1.86675E-13
 -1     22627 1.72201E-01-3.88731E-02-3.25134E-10-5.37738E-02 5.39417E-12 1.09299E-12
 -1     22628 1.84699E-01-5.13709E-02 1.50971E-10-3.83518E-02-9.71408E-12-1.16991E-12
 -1     22633 1.80701E-01-4.73728E-02-3.42659E-10-3.70528E-02-1.53747E-11-1.85819E-12
 -1     22634 1.72201E-01-3.88731E-02-3.41399E-10-5.37738E-02-4.33159E-11-1.06501E-11
 -1     22635 1.84699E-01-5.13709E-02 1.44078E-10-3.83518E-02-1.72148E-14 4.86233E-13
 -1     22640 1.80701E-01-4.73728E-02-2.80894E-10-3.70528E-02-9.20814E-12-7.80229E-13
 -1     22641 1.72201E-01-3.88731E-02-3.24137E-10-5.37738E-02-1.25528E-12-5.22437E-13
 -1     22642 1.84699E-01-5.13709E-02 1.60019E-10-3.83518E-02-1.76741E-11-2.35247E-12
 -1     22647 1.80701E-01-4.73728E-02-3.53869E-10-3.70528E-02-2.66169E-12-1.20226E-14
 -1     22651 1.83653E-01-5.03248E-02-3.23627E-10-1.85292E-02 1.55032E-12 4.20572E-13
 -1     22655 1.83653E-01-5.03248E-02-3.40661E-10-1.85292E-02 4.46612E-11 3.89340E-12
 -1     22659 1.83653E-01-5.03248E-02-3.24180E-10-1.85292E-02-5.33293E-12-9.25342E-14
 -1     22663 1.83653E-01-5.03248E-02-3.18045E-10-1.85292E-02 1.14689E-11 1.11914E-12
 -1     22667 1.83653E-01-5.03248E-02-3.16667E-10-1.85292E-02-2.60316E-14 7.21640E-14
 -1     22671 1.83653E-01-5.03248E-02-3.16670E-10-1.85292E-02 3.93173E-14-6.98689E-14
 -1     22675 1.83653E-01-5.03248E-02-3.18035E-10-1.85292E-02-1.14670E-11-1.11458E-12
 -1     22679 1.83653E-01-5.03248E-02-3.24180E-10-1.85292E-02 5.34171E-12 9.46833E-14
 -1     22683 1.83653E-01-5.03248E-02-3.40657E-10-1.85292E-02-4.46553E-11-3.89310E-12
 -1     22687 1.83653E-01-5.03248E-02-3.23628E-10-1.85292E-02-1.54695E-12-4.18720E-13
 -1     22693-4.01381E-02 1.73466E-01-2.95182E-10-3.47021E-02-3.79164E-12-2.39880E-11
 -1     22694-4.29027E-02 1.76231E-01-1.82524E-10-1.73537E-02-1.33285E-11-1.69291E-10
 -1     22695-4.37557E-02 1.77084E-01 1.40889E-10-3.58775E-02 1.81572E-13 1.00436E-12
 -1     22700-4.01381E-02 1.73466E-01-1.05064E-10-3.47021E-02-5.38350E-12-3.41892E-11
 -1     22701-4.29027E-02 1.76231E-01-8.89298E-11-1.73537E-02 7.97684E-13 1.02670E-11
 -1     22702-4.37557E-02 1.77084E-01 1.73986E-10-3.58775E-02-3.49588E-12-2.22669E-11
 -1     22707-4.01381E-02 1.73466E-01-2.03819E-10-3.47021E-02 4.61264E-13 2.73391E-12
 -1     22708-4.29027E-02 1.76231E-01-1.47641E-10-1.73537E-02-3.31855E-12-4.20567E-11
 -1     22709-4.37557E-02 1.77084E-01 1.61253E-10-3.58775E-02 1.26302E-12 7.80088E-12
 -1     22714-4.01381E-02 1.73466E-01-1.42266E-10-3.47021E-02-2.72838E-12-1.73521E-11
 -1     22715-4.29027E-02 1.76231E-01-1.67123E-10-1.73537E-02 3.56524E-13 4.60907E-12
 -1     22716-4.37557E-02 1.77084E-01 1.55725E-10-3.58775E-02-3.84549E-13-2.52190E-12
 -1     22721-4.01381E-02 1.73466E-01-1.58275E-10-3.47021E-02 3.69429E-13 2.29525E-12
 -1     22722-4.29027E-02 1.76231E-01-1.69085E-10-1.73537E-02-2.77549E-14-3.42196E-13
 -1     22723-4.37557E-02 1.77084E-01 1.57292E-10-3.58775E-02 1.21667E-13 7.40381E-13
 -1     22728-4.01381E-02 1.73466E-01-1.59374E-10-3.47021E-02 1.37247E-15 3.90922E-16
 -1     22729-4.29027E-02 1.76231E-01-1.69092E-10-1.73537E-02 2.87060E-14 3.49914E-13
 -1     22730-4.37557E-02 1.77084E-01 1.57279E-10-3.58775E-02-1.19192E-13-7.28223E-13
 -1     22735-4.01381E-02 1.73466E-01-1.58286E-10-3.47021E-02-3.67031E-13-2.28192E-12
 -1     22736-4.29027E-02 1.76231E-01-1.67117E-10-1.73537E-02-3.57422E-13-4.60790E-12
 -1     22737-4.37557E-02 1.77084E-01 1.55717E-10-3.58775E-02 3.88587E-13 2.53033E-12
 -1     22742-4.01381E-02 1.73466E-01-1.42283E-10-3.47021E-02 2.73254E-12 1.73504E-11
 -1     22743-4.29027E-02 1.76231E-01-1.47642E-10-1.73537E-02 3.32016E-12 4.20558E-11
 -1     22744-4.37557E-02 1.77084E-01 1.61249E-10-3.58775E-02-1.26021E-12-7.81524E-12
 -1     22749-4.01381E-02 1.73466E-01-2.03835E-10-3.47021E-02-4.57891E-13-2.73869E-12
 -1     22750-4.29027E-02 1.76231E-01-8.89360E-11-1.73537E-02-7.98008E-13-1.02669E-11
 -1     22751-4.37557E-02 1.77084E-01 1.73980E-10-3.58775E-02 3.49911E-12 2.22719E-11
 -1     22756-4.01381E-02 1.73466E-01-1.05059E-10-3.47021E-02 5.39024E-12 3.41771E-11
 -1     22757-4.29027E-02 1.76231E-01-1.82526E-10-1.73537E-02 1.33318E-11 1.69287E-10
 -1     22758-4.37557E-02 1.77084E-01 1.40889E-10-3.58775E-02-1.78238E-13-9.95675E-13
 -1     22763-4.01381E-02 1.73466E-01-2.95162E-10-3.47021E-02 3.79328E-12 2.40028E-11
 -1     22767-2.41873E-02 1.57515E-01-2.95636E-10-6.60073E-02-7.51882E-12-2.31301E-11
 -1     22768-3.21776E-02 1.65506E-01-1.82456E-10-5.03623E-02-3.96493E-11-1.65138E-10
 -1     22769-2.72646E-02 1.60593E-01 1.40987E-10-6.82431E-02 3.08606E-13 9.78449E-13
 -1     22774-2.41873E-02 1.57515E-01-1.05530E-10-6.60073E-02-1.06876E-11-3.28974E-11
 -1     22775-3.21776E-02 1.65506E-01-8.88627E-11-5.03623E-02 2.39480E-12 1.00043E-11
 -1     22776-2.72646E-02 1.60593E-01 1.74047E-10-6.82431E-02-6.95730E-12-2.14296E-11
 -1     22781-2.41873E-02 1.57515E-01-2.04314E-10-6.60073E-02 8.83841E-13 2.65647E-12
 -1     22782-3.21776E-02 1.65506E-01-1.47568E-10-5.03623E-02-9.85780E-12-4.10298E-11
 -1     22783-2.72646E-02 1.60593E-01 1.61291E-10-6.82431E-02 2.45926E-12 7.53910E-12
 -1     22788-2.41873E-02 1.57515E-01-1.42808E-10-6.60073E-02-5.39663E-12-1.67133E-11
 -1     22789-3.21776E-02 1.65506E-01-1.67047E-10-5.03623E-02 1.07532E-12 4.48767E-12
 -1     22790-2.72646E-02 1.60593E-01 1.55734E-10-6.82431E-02-7.75489E-13-2.42928E-12
 -1     22795-2.41873E-02 1.57515E-01-1.58839E-10-6.60073E-02 7.35031E-13 2.20357E-12
 -1     22796-3.21776E-02 1.65506E-01-1.69013E-10-5.03623E-02-8.08245E-14-3.38041E-13
 -1     22797-2.72646E-02 1.60593E-01 1.57287E-10-6.82431E-02 2.41319E-13 7.28494E-13
 -1     22802-2.41873E-02 1.57515E-01-1.59936E-10-6.60073E-02 5.09721E-16 5.16286E-15
 -1     22803-3.21776E-02 1.65506E-01-1.69026E-10-5.03623E-02 8.34436E-14 3.37817E-13
 -1     22804-2.72646E-02 1.60593E-01 1.57294E-10-6.82431E-02-2.35032E-13-7.19424E-13
 -1     22809-2.41873E-02 1.57515E-01-1.58831E-10-6.60073E-02-7.32828E-13-2.19765E-12
 -1     22810-3.21776E-02 1.65506E-01-1.67046E-10-5.03623E-02-1.07138E-12-4.49491E-12
 -1     22811-2.72646E-02 1.60593E-01 1.55732E-10-6.82431E-02 7.80750E-13 2.43451E-12
 -1     22816-2.41873E-02 1.57515E-01-1.42813E-10-6.60073E-02 5.40354E-12 1.67047E-11
 -1     22817-3.21776E-02 1.65506E-01-1.47577E-10-5.03623E-02 9.86119E-12 4.10228E-11
 -1     22818-2.72646E-02 1.60593E-01 1.61286E-10-6.82431E-02-2.45839E-12-7.54448E-12
 -1     22823-2.41873E-02 1.57515E-01-2.04315E-10-6.60073E-02-8.76602E-13-2.67014E-12
 -1     22824-3.21776E-02 1.65506E-01-8.88664E-11-5.03623E-02-2.38734E-12-1.00083E-11
 -1     22825-2.72646E-02 1.60593E-01 1.74054E-10-6.82431E-02 6.96640E-12 2.14124E-11
 -1     22830-2.41873E-02 1.57515E-01-1.05516E-10-6.60073E-02 1.06956E-11 3.28823E-11
 -1     22831-3.21776E-02 1.65506E-01-1.82454E-10-5.03623E-02 3.96548E-11 1.65142E-10
 -1     22832-2.72646E-02 1.60593E-01 1.40989E-10-6.82431E-02-3.02938E-13-9.81361E-13
 -1     22837-2.41873E-02 1.57515E-01-2.95639E-10-6.60073E-02 7.52180E-12 2.31179E-11
 -1     22841 6.56683E-04 1.32671E-01-2.94866E-10-9.08513E-02-1.11311E-11-2.16724E-11
 -1     22842-1.17771E-02 1.45105E-01-1.82009E-10-7.84411E-02-6.49782E-11-1.56864E-10
 -1     22843-1.57914E-03 1.34907E-01 1.40968E-10-9.39286E-02 3.91012E-13 9.14508E-13
 -1     22848 6.56683E-04 1.32671E-01-1.04707E-10-9.08513E-02-1.58419E-11-3.08715E-11
 -1     22849-1.17771E-02 1.45105E-01-8.84372E-11-7.84411E-02 3.94412E-12 9.56117E-12
 -1     22850-1.57914E-03 1.34907E-01 1.74066E-10-9.39286E-02-1.03164E-11-2.00802E-11
 -1     22855 6.56683E-04 1.32671E-01-2.03488E-10-9.08513E-02 1.15085E-12 2.40716E-12
 -1     22856-1.17771E-02 1.45105E-01-1.47143E-10-7.84411E-02-1.61480E-11-3.89460E-11
 -1     22857-1.57914E-03 1.34907E-01 1.61331E-10-9.39286E-02 3.52331E-12 7.03187E-12
 -1     22862 6.56683E-04 1.32671E-01-1.41971E-10-9.08513E-02-8.05675E-12-1.56810E-11
 -1     22863-1.17771E-02 1.45105E-01-1.66627E-10-7.84411E-02 1.76064E-12 4.29783E-12
 -1     22864-1.57914E-03 1.34907E-01 1.55804E-10-9.39286E-02-1.20944E-12-2.28703E-12
 -1     22869 6.56683E-04 1.32671E-01-1.57985E-10-9.08513E-02 9.99219E-13 2.03598E-12
 -1     22870-1.17771E-02 1.45105E-01-1.68592E-10-7.84411E-02-1.38866E-13-3.10382E-13
 -1     22871-1.57914E-03 1.34907E-01 1.57365E-10-9.39286E-02 3.19090E-13 6.60090E-13
 -1     22876 6.56683E-04 1.32671E-01-1.59076E-10-9.08513E-02-9.45796E-15-3.79282E-15
 -1     22877-1.17771E-02 1.45105E-01-1.68591E-10-7.84411E-02 1.27386E-13 3.11730E-13
 -1     22878-1.57914E-03 1.34907E-01 1.57368E-10-9.39286E-02-3.36693E-13-6.65707E-13
 -1     22883 6.56683E-04 1.32671E-01-1.57985E-10-9.08513E-02-1.00823E-12-2.04234E-12
 -1     22884-1.17771E-02 1.45105E-01-1.66627E-10-7.84411E-02-1.76891E-12-4.29579E-12
 -1     22885-1.57914E-03 1.34907E-01 1.55799E-10-9.39286E-02 1.20512E-12 2.29511E-12
 -1     22890 6.56683E-04 1.32671E-01-1.41973E-10-9.08513E-02 8.05729E-12 1.57072E-11
 -1     22891-1.17771E-02 1.45105E-01-1.47147E-10-7.84411E-02 1.61435E-11 3.89327E-11
 -1     22892-1.57914E-03 1.34907E-01 1.61326E-10-9.39286E-02-3.53126E-12-7.03966E-12
 -1     22897 6.56683E-04 1.32671E-01-2.03509E-10-9.08513E-02-1.16053E-12-2.41205E-12
 -1     22898-1.17771E-02 1.45105E-01-8.84392E-11-7.84411E-02-3.95343E-12-9.55264E-12
 -1     22899-1.57914E-03 1.34907E-01 1.74052E-10-9.39286E-02 1.03084E-11 2.01065E-11
 -1     22904 6.56683E-04 1.32671E-01-1.04733E-10-9.08513E-02 1.58337E-11 3.08967E-11
 -1     22905-1.17771E-02 1.45105E-01-1.82013E-10-7.84411E-02 6.49754E-11 1.56859E-10
 -1     22906-1.57914E-03 1.34907E-01 1.40968E-10-9.39286E-02-3.96166E-13-9.25804E-13
 -1     22911 6.56683E-04 1.32671E-01-2.94874E-10-9.08513E-02 1.11321E-11 2.16787E-11
 -1     22915 3.19619E-02 1.01366E-01-2.94853E-10-1.06802E-01-1.43319E-11-1.96208E-11
 -1     22916 1.63017E-02 1.17026E-01-1.83262E-10-9.88416E-02-8.86827E-11-1.44843E-10
 -1     22917 3.07865E-02 1.02542E-01 1.40993E-10-1.10420E-01 5.25558E-13 8.44640E-13
 -1     22922 3.19619E-02 1.01366E-01-1.04669E-10-1.06802E-01-2.04448E-11-2.78990E-11
 -1     22923 1.63017E-02 1.17026E-01-8.96676E-11-9.88416E-02 5.43385E-12 8.70924E-12
 -1     22924 3.07865E-02 1.02542E-01 1.74184E-10-1.10420E-01-1.33347E-11-1.81896E-11
 -1     22929 3.19619E-02 1.01366E-01-2.03299E-10-1.06802E-01 1.49538E-12 2.31292E-12
 -1     22930 1.63017E-02 1.17026E-01-1.48361E-10-9.88416E-02-2.19961E-11-3.60467E-11
 -1     22931 3.07865E-02 1.02542E-01 1.61548E-10-1.10420E-01 4.56433E-12 6.43736E-12
 -1     22936 3.19619E-02 1.01366E-01-1.41656E-10-1.06802E-01-1.04301E-11-1.41634E-11
 -1     22937 1.63017E-02 1.17026E-01-1.67825E-10-9.88416E-02 2.43927E-12 3.88271E-12
 -1     22938 3.07865E-02 1.02542E-01 1.56101E-10-1.10420E-01-1.57265E-12-2.05101E-12
 -1     22943 3.19619E-02 1.01366E-01-1.57587E-10-1.06802E-01 1.29579E-12 1.88394E-12
 -1     22944 1.63017E-02 1.17026E-01-1.69782E-10-9.88416E-02-1.68673E-13-3.14488E-13
 -1     22945 3.07865E-02 1.02542E-01 1.57710E-10-1.10420E-01 4.16386E-13 6.12007E-13
 -1     22950 3.19619E-02 1.01366E-01-1.58663E-10-1.06802E-01 3.83611E-15-5.20323E-15
 -1     22951 1.63017E-02 1.17026E-01-1.69786E-10-9.88416E-02 1.69368E-13 3.09007E-13
 -1     22952 3.07865E-02 1.02542E-01 1.57712E-10-1.10420E-01-4.17556E-13-6.33062E-13
 -1     22957 3.19619E-02 1.01366E-01-1.57589E-10-1.06802E-01-1.30691E-12-1.91499E-12
 -1     22958 1.63017E-02 1.17026E-01-1.67821E-10-9.88416E-02-2.44279E-12-3.89271E-12
 -1     22959 3.07865E-02 1.02542E-01 1.56105E-10-1.10420E-01 1.56080E-12 2.03998E-12
 -1     22964 3.19619E-02 1.01366E-01-1.41640E-10-1.06802E-01 1.04299E-11 1.41554E-11
 -1     22965 1.63017E-02 1.17026E-01-1.48361E-10-9.88416E-02 2.19936E-11 3.60357E-11
 -1     22966 3.07865E-02 1.02542E-01 1.61563E-10-1.10420E-01-4.56903E-12-6.43635E-12
 -1     22971 3.19619E-02 1.01366E-01-2.03265E-10-1.06802E-01-1.50116E-12-2.30991E-12
 -1     22972 1.63017E-02 1.17026E-01-8.96697E-11-9.88416E-02-5.43663E-12-8.70141E-12
 -1     22973 3.07865E-02 1.02542E-01 1.74198E-10-1.10420E-01 1.33318E-11 1.81822E-11
 -1     22978 3.19619E-02 1.01366E-01-1.04655E-10-1.06802E-01 2.04459E-11 2.78903E-11
 -1     22979 1.63017E-02 1.17026E-01-1.83255E-10-9.88416E-02 8.86810E-11 1.44841E-10
 -1     22980 3.07865E-02 1.02542E-01 1.40997E-10-1.10420E-01-5.31566E-13-8.44780E-13
 -1     22985 3.19619E-02 1.01366E-01-2.94848E-10-1.06802E-01 1.43304E-11 1.96262E-11
 -1     22989 6.66640E-02 6.66640E-02-2.96016E-10-1.12298E-01-1.68620E-11-1.71719E-11
 -1     22990 4.93103E-02 8.40177E-02-1.82107E-10-1.09567E-01-1.10289E-10-1.29193E-10
 -1     22991 6.66640E-02 6.66640E-02 1.40938E-10-1.16102E-01 1.09277E-12 7.28923E-13
 -1     22996 6.66640E-02 6.66640E-02-1.05860E-10-1.12298E-01-2.38399E-11-2.43569E-11
 -1     22997 4.93103E-02 8.40177E-02-8.85909E-11-1.09567E-01 6.73174E-12 7.78095E-12
 -1     22998 6.66640E-02 6.66640E-02 1.74043E-10-1.16102E-01-1.54420E-11-1.58479E-11
 -1     23003 6.66640E-02 6.66640E-02-2.04665E-10-1.12298E-01 2.62137E-12 2.12929E-12
 -1     23004 4.93103E-02 8.40177E-02-1.47414E-10-1.09567E-01-2.73301E-11-3.21178E-11
 -1     23005 6.66640E-02 6.66640E-02 1.61269E-10-1.16102E-01 6.03795E-12 5.71279E-12
 -1     23010 6.66640E-02 6.66640E-02-1.43129E-10-1.12298E-01-1.18986E-11-1.22559E-11
 -1     23011 4.93103E-02 8.40177E-02-1.66995E-10-1.09567E-01 3.06267E-12 3.48112E-12
 -1     23012 6.66640E-02 6.66640E-02 1.55730E-10-1.16102E-01-1.49615E-12-1.72785E-12
 -1     23017 6.66640E-02 6.66640E-02-1.59141E-10-1.12298E-01 1.92825E-12 1.73726E-12
 -1     23018 4.93103E-02 8.40177E-02-1.69011E-10-1.09567E-01-1.87595E-13-2.74998E-13
 -1     23019 6.66640E-02 6.66640E-02 1.57282E-10-1.16102E-01 6.51175E-13 5.68190E-13
 -1     23024 6.66640E-02 6.66640E-02-1.60247E-10-1.12298E-01 1.71630E-14-3.92914E-15
 -1     23025 4.93103E-02 8.40177E-02-1.69010E-10-1.09567E-01 2.03393E-13 2.69044E-13
 -1     23026 6.66640E-02 6.66640E-02 1.57277E-10-1.16102E-01-6.26753E-13-5.53939E-13
 -1     23031 6.66640E-02 6.66640E-02-1.59149E-10-1.12298E-01-1.88921E-12-1.73584E-12
 -1     23032 4.93103E-02 8.40177E-02-1.66987E-10-1.09567E-01-3.05957E-12-3.48950E-12
 -1     23033 6.66640E-02 6.66640E-02 1.55729E-10-1.16102E-01 1.52170E-12 1.72555E-12
 -1     23038 6.66640E-02 6.66640E-02-1.43141E-10-1.12298E-01 1.19070E-11 1.22665E-11
 -1     23039 4.93103E-02 8.40177E-02-1.47414E-10-1.09567E-01 2.73315E-11 3.21387E-11
 -1     23040 6.66640E-02 6.66640E-02 1.61263E-10-1.16102E-01-6.03542E-12-5.69389E-12
 -1     23045 6.66640E-02 6.66640E-02-2.04684E-10-1.12298E-01-2.62604E-12-2.12135E-12
 -1     23046 4.93103E-02 8.40177E-02-8.85897E-11-1.09567E-01-6.73014E-12-7.77236E-12
 -1     23047 6.66640E-02 6.66640E-02 1.74027E-10-1.16102E-01 1.54548E-11 1.58730E-11
 -1     23052 6.66640E-02 6.66640E-02-1.05863E-10-1.12298E-01 2.38406E-11 2.43683E-11
 -1     23053 4.93103E-02 8.40177E-02-1.82105E-10-1.09567E-01 1.10284E-10 1.29187E-10
 -1     23054 6.66640E-02 6.66640E-02 1.40931E-10-1.16102E-01-1.09327E-12-7.28365E-13
 -1     23059 6.66640E-02 6.66640E-02-2.96006E-10-1.12298E-01 1.68685E-11 1.71738E-11
 -1     23063 1.01366E-01 3.19619E-02-2.94942E-10-1.06802E-01-1.99485E-11-1.45362E-11
 -1     23064 8.40177E-02 4.93103E-02-1.82031E-10-1.09567E-01-1.29327E-10-1.10037E-10
 -1     23065 1.02542E-01 3.07865E-02 1.40908E-10-1.10420E-01 5.47504E-13 3.47636E-13
 -1     23070 1.01366E-01 3.19619E-02-1.05019E-10-1.06802E-01-2.84916E-11-2.08200E-11
 -1     23071 8.40177E-02 4.93103E-02-8.84287E-11-1.09567E-01 7.57225E-12 7.03931E-12
 -1     23072 1.02542E-01 3.07865E-02 1.73820E-10-1.10420E-01-1.86258E-11-1.36161E-11
 -1     23077 1.01366E-01 3.19619E-02-2.03931E-10-1.06802E-01 1.69411E-12 1.07349E-12
 -1     23078 8.40177E-02 4.93103E-02-1.47081E-10-1.09567E-01-3.23229E-11-2.70736E-11
 -1     23079 1.02542E-01 3.07865E-02 1.60960E-10-1.10420E-01 6.04415E-12 4.28627E-12
 -1     23084 1.01366E-01 3.19619E-02-1.42557E-10-1.06802E-01-1.46316E-11-1.07681E-11
 -1     23085 8.40177E-02 4.93103E-02-1.66521E-10-1.09567E-01 3.34227E-12 3.21483E-12
 -1     23086 1.02542E-01 3.07865E-02 1.55328E-10-1.10420E-01-2.31512E-12-1.75223E-12
 -1     23091 1.01366E-01 3.19619E-02-1.58653E-10-1.06802E-01 1.61382E-12 1.09827E-12
 -1     23092 8.40177E-02 4.93103E-02-1.68464E-10-1.09567E-01-3.21014E-13-1.49893E-13
 -1     23093 1.02542E-01 3.07865E-02 1.56837E-10-1.10420E-01 5.09889E-13 3.52024E-13
 -1     23098 1.01366E-01 3.19619E-02-1.59785E-10-1.06802E-01-1.13863E-14 1.03178E-14
 -1     23099 8.40177E-02 4.93103E-02-1.68467E-10-1.09567E-01 3.22268E-13 1.51921E-13
 -1     23100 1.02542E-01 3.07865E-02 1.56843E-10-1.10420E-01-5.22618E-13-3.52424E-13
 -1     23105 1.01366E-01 3.19619E-02-1.58647E-10-1.06802E-01-1.64450E-12-1.10301E-12
 -1     23106 8.40177E-02 4.93103E-02-1.66522E-10-1.09567E-01-3.33285E-12-3.21748E-12
 -1     23107 1.02542E-01 3.07865E-02 1.55320E-10-1.10420E-01 2.32626E-12 1.76440E-12
 -1     23112 1.01366E-01 3.19619E-02-1.42565E-10-1.06802E-01 1.46558E-11 1.07757E-11
 -1     23113 8.40177E-02 4.93103E-02-1.47086E-10-1.09567E-01 3.23265E-11 2.70892E-11
 -1     23114 1.02542E-01 3.07865E-02 1.60948E-10-1.10420E-01-6.03774E-12-4.29412E-12
 -1     23119 1.01366E-01 3.19619E-02-2.03948E-10-1.06802E-01-1.69738E-12-1.06399E-12
 -1     23120 8.40177E-02 4.93103E-02-8.84328E-11-1.09567E-01-7.56584E-12-7.02804E-12
 -1     23121 1.02542E-01 3.07865E-02 1.73810E-10-1.10420E-01 1.86175E-11 1.36126E-11
 -1     23126 1.01366E-01 3.19619E-02-1.05041E-10-1.06802E-01 2.84818E-11 2.08261E-11
 -1     23127 8.40177E-02 4.93103E-02-1.82033E-10-1.09567E-01 1.29322E-10 1.10035E-10
 -1     23128 1.02542E-01 3.07865E-02 1.40895E-10-1.10420E-01-5.61131E-13-3.56014E-13
 -1     23133 1.01366E-01 3.19619E-02-2.94942E-10-1.06802E-01 1.99401E-11 1.45356E-11
 -1     23137 1.32671E-01 6.56681E-04-2.94613E-10-9.08513E-02-2.18797E-11-1.07024E-11
 -1     23138 1.17026E-01 1.63017E-02-1.82859E-10-9.88416E-02-1.44614E-10-8.88975E-11
 -1     23139 1.34907E-01-1.57914E-03 1.40990E-10-9.39286E-02 6.95264E-13 8.75673E-13
 -1     23144 1.32671E-01 6.56681E-04-1.04450E-10-9.08513E-02-3.12345E-11-1.51223E-11
 -1     23145 1.17026E-01 1.63017E-02-8.92104E-11-9.88416E-02 8.94691E-12 5.14749E-12
 -1     23146 1.34907E-01-1.57914E-03 1.74097E-10-9.39286E-02-2.03524E-11-9.75713E-12
 -1     23151 1.32671E-01 6.56681E-04-2.03181E-10-9.08513E-02 2.10557E-12 1.79155E-12
 -1     23152 1.17026E-01 1.63017E-02-1.47746E-10-9.88416E-02-3.58331E-11-2.22633E-11
 -1     23153 1.34907E-01-1.57914E-03 1.61387E-10-9.39286E-02 6.83092E-12 3.96217E-12
 -1     23158 1.32671E-01 6.56681E-04-1.41642E-10-9.08513E-02-1.59177E-11-7.60988E-12
 -1     23159 1.17026E-01 1.63017E-02-1.67077E-10-9.88416E-02 4.00356E-12 2.26160E-12
 -1     23160 1.34907E-01-1.57914E-03 1.55876E-10-9.39286E-02-2.42301E-12-9.34552E-13
 -1     23165 1.32671E-01 6.56681E-04-1.57648E-10-9.08513E-02 1.91302E-12 1.23576E-12
 -1     23166 1.17026E-01 1.63017E-02-1.68972E-10-9.88416E-02-2.73040E-13-2.28431E-13
 -1     23167 1.34907E-01-1.57914E-03 1.57440E-10-9.39286E-02 6.20554E-13 4.20046E-13
 -1     23172 1.32671E-01 6.56681E-04-1.58755E-10-9.08513E-02 1.18747E-14 2.87292E-15
 -1     23173 1.17026E-01 1.63017E-02-1.68977E-10-9.88416E-02 2.74281E-13 2.39945E-13
 -1     23174 1.34907E-01-1.57914E-03 1.57445E-10-9.39286E-02-6.16133E-13-4.08347E-13
 -1     23179 1.32671E-01 6.56681E-04-1.57644E-10-9.08513E-02-1.91707E-12-1.21613E-12
 -1     23180 1.17026E-01 1.63017E-02-1.67080E-10-9.88416E-02-3.98763E-12-2.26027E-12
 -1     23181 1.34907E-01-1.57914E-03 1.55880E-10-9.39286E-02 2.42410E-12 9.42240E-13
 -1     23186 1.32671E-01 6.56681E-04-1.41627E-10-9.08513E-02 1.59246E-11 7.60279E-12
 -1     23187 1.17026E-01 1.63017E-02-1.47747E-10-9.88416E-02 3.58417E-11 2.22606E-11
 -1     23188 1.34907E-01-1.57914E-03 1.61398E-10-9.39286E-02-6.83036E-12-3.96312E-12
 -1     23193 1.32671E-01 6.56681E-04-2.03156E-10-9.08513E-02-2.09451E-12-1.78721E-12
 -1     23194 1.17026E-01 1.63017E-02-8.92082E-11-9.88416E-02-8.94438E-12-5.14060E-12
 -1     23195 1.34907E-01-1.57914E-03 1.74097E-10-9.39286E-02 2.03542E-11 9.75502E-12
 -1     23200 1.32671E-01 6.56681E-04-1.04427E-10-9.08513E-02 3.12428E-11 1.51170E-11
 -1     23201 1.17026E-01 1.63017E-02-1.82860E-10-9.88416E-02 1.44608E-10 8.88946E-11
 -1     23202 1.34907E-01-1.57914E-03 1.40989E-10-9.39286E-02-6.91970E-13-8.72860E-13
 -1     23207 1.32671E-01 6.56681E-04-2.94614E-10-9.08513E-02 2.18717E-11 1.07000E-11
 -1     23211 1.57515E-01-2.41873E-02-2.95676E-10-6.60073E-02-2.27831E-11-7.41831E-12
 -1     23212 1.45105E-01-1.17771E-02-1.82640E-10-7.84411E-02-1.56830E-10-6.52672E-11
 -1     23213 1.60593E-01-2.72646E-02 1.41251E-10-6.82431E-02 1.26510E-12 3.95408E-13
 -1     23218 1.57515E-01-2.41873E-02-1.05294E-10-6.60073E-02-3.22935E-11-1.04641E-11
 -1     23219 1.45105E-01-1.17771E-02-8.91777E-11-7.84411E-02 9.60070E-12 3.57989E-12
 -1     23220 1.60593E-01-2.72646E-02 1.74633E-10-6.82431E-02-2.09906E-11-6.80226E-12
 -1     23225 1.57515E-01-2.41873E-02-2.03645E-10-6.60073E-02 3.27120E-12 1.11952E-12
 -1     23226 1.45105E-01-1.17771E-02-1.48049E-10-7.84411E-02-3.88701E-11-1.64618E-11
 -1     23227 1.60593E-01-2.72646E-02 1.62189E-10-6.82431E-02 7.91990E-12 2.61339E-12
 -1     23232 1.57515E-01-2.41873E-02-1.41773E-10-6.60073E-02-1.62394E-11-5.19625E-12
 -1     23233 1.45105E-01-1.17771E-02-1.67642E-10-7.84411E-02 4.33973E-12 1.56087E-12
 -1     23234 1.60593E-01-2.72646E-02 1.56862E-10-6.82431E-02-2.17141E-12-6.71964E-13
 -1     23239 1.57515E-01-2.41873E-02-1.57597E-10-6.60073E-02 2.45244E-12 8.38791E-13
 -1     23240 1.45105E-01-1.17771E-02-1.69675E-10-7.84411E-02-2.78744E-13-1.98203E-13
 -1     23241 1.60593E-01-2.72646E-02 1.58504E-10-6.82431E-02 8.21706E-13 2.78381E-13
 -1     23246 1.57515E-01-2.41873E-02-1.58644E-10-6.60073E-02 4.18556E-16-2.23466E-15
 -1     23247 1.45105E-01-1.17771E-02-1.69671E-10-7.84411E-02 2.90638E-13 1.96644E-13
 -1     23248 1.60593E-01-2.72646E-02 1.58506E-10-6.82431E-02-8.19087E-13-2.82563E-13
 -1     23253 1.57515E-01-2.41873E-02-1.57607E-10-6.60073E-02-2.45334E-12-8.42736E-13
 -1     23254 1.45105E-01-1.17771E-02-1.67641E-10-7.84411E-02-4.34472E-12-1.56394E-12
 -1     23255 1.60593E-01-2.72646E-02 1.56843E-10-6.82431E-02 2.15691E-12 6.69649E-13
 -1     23260 1.57515E-01-2.41873E-02-1.41798E-10-6.60073E-02 1.62308E-11 5.20111E-12
 -1     23261 1.45105E-01-1.17771E-02-1.48053E-10-7.84411E-02 3.88736E-11 1.64559E-11
 -1     23262 1.60593E-01-2.72646E-02 1.62168E-10-6.82431E-02-7.91304E-12-2.61297E-12
 -1     23267 1.57515E-01-2.41873E-02-2.03653E-10-6.60073E-02-3.26340E-12-1.11731E-12
 -1     23268 1.45105E-01-1.17771E-02-8.91744E-11-7.84411E-02-9.58670E-12-3.57860E-12
 -1     23269 1.60593E-01-2.72646E-02 1.74637E-10-6.82431E-02 2.09963E-11 6.80774E-12
 -1     23274 1.57515E-01-2.41873E-02-1.05300E-10-6.60073E-02 3.22798E-11 1.04715E-11
 -1     23275 1.45105E-01-1.17771E-02-1.82640E-10-7.84411E-02 1.56827E-10 6.52703E-11
 -1     23276 1.60593E-01-2.72646E-02 1.41250E-10-6.82431E-02-1.24992E-12-3.92149E-13
 -1     23281 1.57515E-01-2.41873E-02-2.95681E-10-6.60073E-02 2.27811E-11 7.42798E-12
 -1     23285 1.73466E-01-4.01381E-02-2.95485E-10-3.47021E-02-2.37827E-11-4.35590E-12
 -1     23286 1.65506E-01-3.21776E-02-1.82053E-10-5.03623E-02-1.65264E-10-3.93985E-11
 -1     23287 1.77084E-01-4.37557E-02 1.40852E-10-3.58775E-02 1.25954E-12-4.71166E-13
 -1     23292 1.73466E-01-4.01381E-02-1.05411E-10-3.47021E-02-3.37602E-11-6.33727E-12
 -1     23293 1.65506E-01-3.21776E-02-8.86215E-11-5.03623E-02 9.87814E-12 2.69664E-12
 -1     23294 1.77084E-01-4.37557E-02 1.73911E-10-3.58775E-02-2.19254E-11-4.21786E-12
 -1     23299 1.73466E-01-4.01381E-02-2.04225E-10-3.47021E-02 3.17425E-12-3.73589E-13
 -1     23300 1.65506E-01-3.21776E-02-1.47551E-10-5.03623E-02-4.11009E-11-9.60258E-12
 -1     23301 1.77084E-01-4.37557E-02 1.61148E-10-3.58775E-02 8.11968E-12 7.04938E-13
 -1     23306 1.73466E-01-4.01381E-02-1.42698E-10-3.47021E-02-1.70218E-11-3.30275E-12
 -1     23307 1.65506E-01-3.21776E-02-1.67194E-10-5.03623E-02 4.45834E-12 1.23503E-12
 -1     23308 1.77084E-01-4.37557E-02 1.55607E-10-3.58775E-02-2.33004E-12-7.14817E-13
 -1     23313 1.73466E-01-4.01381E-02-1.58707E-10-3.47021E-02 2.47490E-12 9.14293E-14
 -1     23314 1.65506E-01-3.21776E-02-1.69254E-10-5.03623E-02-3.36633E-13-2.60250E-14
 -1     23315 1.77084E-01-4.37557E-02 1.57181E-10-3.58775E-02 8.16035E-13 1.25839E-14
 -1     23320 1.73466E-01-4.01381E-02-1.59804E-10-3.47021E-02 5.62701E-15-1.53054E-15
 -1     23321 1.65506E-01-3.21776E-02-1.69253E-10-5.03623E-02 3.36511E-13 2.66035E-14
 -1     23322 1.77084E-01-4.37557E-02 1.57176E-10-3.58775E-02-7.99221E-13-1.16362E-14
 -1     23327 1.73466E-01-4.01381E-02-1.58703E-10-3.47021E-02-2.44319E-12-8.95176E-14
 -1     23328 1.65506E-01-3.21776E-02-1.67195E-10-5.03623E-02-4.45719E-12-1.23081E-12
 -1     23329 1.77084E-01-4.37557E-02 1.55618E-10-3.58775E-02 2.35047E-12 7.17743E-13
 -1     23334 1.73466E-01-4.01381E-02-1.42690E-10-3.47021E-02 1.70162E-11 3.29935E-12
 -1     23335 1.65506E-01-3.21776E-02-1.47562E-10-5.03623E-02 4.10979E-11 9.60675E-12
 -1     23336 1.77084E-01-4.37557E-02 1.61142E-10-3.58775E-02-8.10449E-12-7.02081E-13
 -1     23341 1.73466E-01-4.01381E-02-2.04228E-10-3.47021E-02-3.15749E-12 3.75469E-13
 -1     23342 1.65506E-01-3.21776E-02-8.86172E-11-5.03623E-02-9.86868E-12-2.69129E-12
 -1     23343 1.77084E-01-4.37557E-02 1.73920E-10-3.58775E-02 2.19283E-11 4.22196E-12
 -1     23348 1.73466E-01-4.01381E-02-1.05421E-10-3.47021E-02 3.37576E-11 6.33518E-12
 -1     23349 1.65506E-01-3.21776E-02-1.82056E-10-5.03623E-02 1.65255E-10 3.94036E-11
 -1     23350 1.77084E-01-4.37557E-02 1.40850E-10-3.58775E-02-1.25939E-12 4.71791E-13
 -1     23355 1.73466E-01-4.01381E-02-2.95489E-10-3.47021E-02 2.37953E-11 4.35404E-12
 -1     23359 1.76231E-01-4.29027E-02-1.82464E-10-1.73537E-02-1.69249E-10-1.28624E-11
 -1     23363 1.76231E-01-4.29027E-02-8.87740E-11-1.73537E-02 1.02438E-11 1.39505E-12
 -1     23367 1.76231E-01-4.29027E-02-1.47231E-10-1.73537E-02-4.21039E-11-2.78878E-12
 -1     23371 1.76231E-01-4.29027E-02-1.66506E-10-1.73537E-02 4.54593E-12 7.07628E-13
 -1     23375 1.76231E-01-4.29027E-02-1.68369E-10-1.73537E-02-3.72913E-13 9.45225E-14
 -1     23379 1.76231E-01-4.29027E-02-1.68368E-10-1.73537E-02 3.74135E-13-8.99726E-14
 -1     23383 1.76231E-01-4.29027E-02-1.66503E-10-1.73537E-02-4.53445E-12-7.02312E-13
 -1     23387 1.76231E-01-4.29027E-02-1.47235E-10-1.73537E-02 4.21104E-11 2.79142E-12
 -1     23391 1.76231E-01-4.29027E-02-8.87812E-11-1.73537E-02-1.02380E-11-1.39129E-12
 -1     23395 1.76231E-01-4.29027E-02-1.82462E-10-1.73537E-02 1.69249E-10 1.28621E-11
 -1     23401-3.35705E-02 1.66898E-01-5.99868E-10-3.25681E-02 1.45511E-11 9.18425E-11
 -1     23402-3.61651E-02 1.69493E-01-5.30825E-10-1.62865E-02 1.36429E-11 1.73422E-10
 -1     23403-3.68545E-02 1.70182E-01 1.34523E-10-3.36352E-02 2.00756E-11 1.26724E-10
 -1     23408-3.35705E-02 1.66898E-01-3.51062E-10-3.25681E-02 9.71033E-12 6.12208E-11
 -1     23409-3.61651E-02 1.69493E-01-7.59408E-10-1.62865E-02 2.09094E-11 2.65751E-10
 -1     23410-3.68545E-02 1.70182E-01-7.18313E-12-3.36352E-02-6.27895E-13-4.04558E-12
 -1     23415-3.35705E-02 1.66898E-01-6.14433E-10-3.25681E-02 1.33475E-11 8.42703E-11
 -1     23416-3.61651E-02 1.69493E-01-5.75035E-10-1.62865E-02-4.21910E-13-5.28630E-12
 -1     23417-3.68545E-02 1.70182E-01 6.53374E-11-3.36352E-02 3.04584E-12 1.91802E-11
 -1     23422-3.35705E-02 1.66898E-01-5.05280E-10-3.25681E-02-1.44318E-12-9.06508E-12
 -1     23423-3.61651E-02 1.69493E-01-4.83787E-10-1.62865E-02 4.11642E-13 5.27205E-12
 -1     23424-3.68545E-02 1.70182E-01 8.64104E-11-3.36352E-02-1.28598E-12-8.12589E-12
 -1     23429-3.35705E-02 1.66898E-01-4.97619E-10-3.25681E-02 1.21569E-12 7.67627E-12
 -1     23430-3.61651E-02 1.69493E-01-4.49757E-10-1.62865E-02 1.29757E-13 1.65688E-12
 -1     23431-3.68545E-02 1.70182E-01 9.26979E-11-3.36352E-02-5.82889E-13-3.68414E-12
 -1     23436-3.35705E-02 1.66898E-01-5.03070E-10-3.25681E-02-3.39093E-15 1.98126E-14
 -1     23437-3.61651E-02 1.69493E-01-4.49762E-10-1.62865E-02-1.28507E-13-1.64374E-12
 -1     23438-3.68545E-02 1.70182E-01 9.27083E-11-3.36352E-02 5.83533E-13 3.70001E-12
 -1     23443-3.35705E-02 1.66898E-01-4.97616E-10-3.25681E-02-1.21629E-12-7.68516E-12
 -1     23444-3.61651E-02 1.69493E-01-4.83786E-10-1.62865E-02-4.10492E-13-5.27795E-12
 -1     23445-3.68545E-02 1.70182E-01 8.63987E-11-3.36352E-02 1.28316E-12 8.11925E-12
 -1     23450-3.35705E-02 1.66898E-01-5.05285E-10-3.25681E-02 1.43552E-12 9.06162E-12
 -1     23451-3.61651E-02 1.69493E-01-5.75039E-10-1.62865E-02 4.21876E-13 5.28948E-12
 -1     23452-3.68545E-02 1.70182E-01 6.53213E-11-3.36352E-02-3.04719E-12-1.92004E-11
 -1     23457-3.35705E-02 1.66898E-01-6.14440E-10-3.25681E-02-1.33508E-11-8.42814E-11
 -1     23458-3.61651E-02 1.69493E-01-7.59405E-10-1.62865E-02-2.09076E-11-2.65747E-10
 -1     23459-3.68545E-02 1.70182E-01-7.19946E-12-3.36352E-02 6.27538E-13 4.04551E-12
 -1     23464-3.35705E-02 1.66898E-01-3.51075E-10-3.25681E-02-9.71162E-12-6.12163E-11
 -1     23465-3.61651E-02 1.69493E-01-5.30830E-10-1.62865E-02-1.36420E-11-1.73413E-10
 -1     23466-3.68545E-02 1.70182E-01 1.34524E-10-3.36352E-02-2.00740E-11-1.26718E-10
 -1     23471-3.35705E-02 1.66898E-01-5.99877E-10-3.25681E-02-1.45527E-11-9.18192E-11
 -1     23475-1.86005E-02 1.51929E-01-6.00893E-10-6.19483E-02 2.87252E-11 8.83709E-11
 -1     23476-2.60995E-02 1.59427E-01-5.30292E-10-4.72654E-02 4.06146E-11 1.69157E-10
 -1     23477-2.13941E-02 1.54722E-01 1.34825E-10-6.39779E-02 3.96779E-11 1.22069E-10
 -1     23482-1.86005E-02 1.51929E-01-3.52035E-10-6.19483E-02 1.92345E-11 5.89274E-11
 -1     23483-2.60995E-02 1.59427E-01-7.58897E-10-4.72654E-02 6.22437E-11 2.59228E-10
 -1     23484-2.13941E-02 1.54722E-01-6.94833E-12-6.39779E-02-1.19738E-12-3.83377E-12
 -1     23489-1.86005E-02 1.51929E-01-6.15444E-10-6.19483E-02 2.64508E-11 8.11694E-11
 -1     23490-2.60995E-02 1.59427E-01-5.74553E-10-4.72654E-02-1.22735E-12-5.14810E-12
 -1     23491-2.13941E-02 1.54722E-01 6.55169E-11-6.39779E-02 6.06529E-12 1.85251E-11
 -1     23496-1.86005E-02 1.51929E-01-5.06293E-10-6.19483E-02-2.76497E-12-8.68847E-12
 -1     23497-2.60995E-02 1.59427E-01-4.83327E-10-4.72654E-02 1.24720E-12 5.16397E-12
 -1     23498-2.13941E-02 1.54722E-01 8.65442E-11-6.39779E-02-2.49115E-12-7.76586E-12
 -1     23503-1.86005E-02 1.51929E-01-4.98667E-10-6.19483E-02 2.44626E-12 7.43993E-12
 -1     23504-2.60995E-02 1.59427E-01-4.49310E-10-4.72654E-02 3.90951E-13 1.61150E-12
 -1     23505-2.13941E-02 1.54722E-01 9.28238E-11-6.39779E-02-1.14016E-12-3.54384E-12
 -1     23510-1.86005E-02 1.51929E-01-5.04130E-10-6.19483E-02 6.40607E-15-1.21706E-14
 -1     23511-2.60995E-02 1.59427E-01-4.49308E-10-4.72654E-02-3.81600E-13-1.61260E-12
 -1     23512-2.13941E-02 1.54722E-01 9.28108E-11-6.39779E-02 1.14387E-12 3.54311E-12
 -1     23517-1.86005E-02 1.51929E-01-4.98669E-10-6.19483E-02-2.44640E-12-7.41248E-12
 -1     23518-2.60995E-02 1.59427E-01-4.83325E-10-4.72654E-02-1.24318E-12-5.15803E-12
 -1     23519-2.13941E-02 1.54722E-01 8.65451E-11-6.39779E-02 2.49374E-12 7.78477E-12
 -1     23524-1.86005E-02 1.51929E-01-5.06287E-10-6.19483E-02 2.76916E-12 8.67841E-12
 -1     23525-2.60995E-02 1.59427E-01-5.74555E-10-4.72654E-02 1.23377E-12 5.13198E-12
 -1     23526-2.13941E-02 1.54722E-01 6.55187E-11-6.39779E-02-6.06275E-12-1.85397E-11
 -1     23531-1.86005E-02 1.51929E-01-6.15450E-10-6.19483E-02-2.64589E-11-8.11969E-11
 -1     23532-2.60995E-02 1.59427E-01-7.58899E-10-4.72654E-02-6.22444E-11-2.59243E-10
 -1     23533-2.13941E-02 1.54722E-01-6.95521E-12-6.39779E-02 1.20092E-12 3.81014E-12
 -1     23538-1.86005E-02 1.51929E-01-3.52056E-10-6.19483E-02-1.92448E-11-5.89410E-11
 -1     23539-2.60995E-02 1.59427E-01-5.30295E-10-4.72654E-02-4.06134E-11-1.69142E-10
 -1     23540-2.13941E-02 1.54722E-01 1.34823E-10-6.39779E-02-3.96768E-11-1.22064E-10
 -1     23545-1.86005E-02 1.51929E-01-6.00885E-10-6.19483E-02-2.87289E-11-8.83840E-11
 -1     23549 4.71569E-03 1.28612E-01-5.98444E-10-8.52645E-02 4.21417E-11 8.28831E-11
 -1     23550-6.95352E-03 1.40281E-01-5.29828E-10-7.36175E-02 6.65805E-11 1.60802E-10
 -1     23551 2.68606E-03 1.30642E-01 1.34293E-10-8.80581E-02 5.81646E-11 1.14283E-10
 -1     23556 4.71569E-03 1.28612E-01-3.49632E-10-8.52645E-02 2.79971E-11 5.51175E-11
 -1     23557-6.95352E-03 1.40281E-01-7.58395E-10-7.36175E-02 1.01998E-10 2.46376E-10
 -1     23558 2.68606E-03 1.30642E-01-7.38783E-12-8.80581E-02-1.96183E-12-3.72432E-12
 -1     23563 4.71569E-03 1.28612E-01-6.13019E-10-8.52645E-02 3.85949E-11 7.59251E-11
 -1     23564-6.95352E-03 1.40281E-01-5.74028E-10-7.36175E-02-2.06556E-12-4.81604E-12
 -1     23565 2.68606E-03 1.30642E-01 6.51408E-11-8.80581E-02 8.73425E-12 1.72402E-11
 -1     23570 4.71569E-03 1.28612E-01-5.03912E-10-8.52645E-02-4.26813E-12-8.26374E-12
 -1     23571-6.95352E-03 1.40281E-01-4.82771E-10-7.36175E-02 1.99128E-12 4.94346E-12
 -1     23572 2.68606E-03 1.30642E-01 8.62140E-11-8.80581E-02-3.79306E-12-7.38942E-12
 -1     23577 4.71569E-03 1.28612E-01-4.96280E-10-8.52645E-02 3.48786E-12 6.86825E-12
 -1     23578-6.95352E-03 1.40281E-01-4.48739E-10-7.36175E-02 6.14110E-13 1.54112E-12
 -1     23579 2.68606E-03 1.30642E-01 9.25227E-11-8.80581E-02-1.71553E-12-3.35222E-12
 -1     23584 4.71569E-03 1.28612E-01-5.01751E-10-8.52645E-02-9.24253E-15-1.51729E-14
 -1     23585-6.95352E-03 1.40281E-01-4.48741E-10-7.36175E-02-6.23453E-13-1.54506E-12
 -1     23586 2.68606E-03 1.30642E-01 9.25107E-11-8.80581E-02 1.71021E-12 3.35117E-12
 -1     23591 4.71569E-03 1.28612E-01-4.96299E-10-8.52645E-02-3.47983E-12-6.87468E-12
 -1     23592-6.95352E-03 1.40281E-01-4.82774E-10-7.36175E-02-2.00636E-12-4.93930E-12
 -1     23593 2.68606E-03 1.30642E-01 8.62068E-11-8.80581E-02 3.78605E-12 7.38452E-12
 -1     23598 4.71569E-03 1.28612E-01-5.03922E-10-8.52645E-02 4.26327E-12 8.28127E-12
 -1     23599-6.95352E-03 1.40281E-01-5.74032E-10-7.36175E-02 2.05599E-12 4.81866E-12
 -1     23600 2.68606E-03 1.30642E-01 6.51273E-11-8.80581E-02-8.73234E-12-1.72293E-11
 -1     23605 4.71569E-03 1.28612E-01-6.13025E-10-8.52645E-02-3.85953E-11-7.59149E-11
 -1     23606-6.95352E-03 1.40281E-01-7.58406E-10-7.36175E-02-1.02009E-10-2.46413E-10
 -1     23607 2.68606E-03 1.30642E-01-7.39570E-12-8.80581E-02 1.95571E-12 3.73030E-12
 -1     23612 4.71569E-03 1.28612E-01-3.49635E-10-8.52645E-02-2.80056E-11-5.51196E-11
 -1     23613-6.95352E-03 1.40281E-01-5.29829E-10-7.36175E-02-6.65821E-11-1.60793E-10
 -1     23614 2.68606E-03 1.30642E-01 1.34278E-10-8.80581E-02-5.81643E-11-1.14279E-10
 -1     23619 4.71569E-03 1.28612E-01-5.98443E-10-8.52645E-02-4.21376E-11-8.28812E-11
 -1     23623 3.40958E-02 9.92321E-02-5.99280E-10-1.00234E-01 5.45921E-11 7.52587E-11
 -1     23624 1.93986E-02 1.13929E-01-5.32932E-10-9.27635E-02 9.08975E-11 1.48158E-10
 -1     23625 3.30288E-02 1.00299E-01 1.34517E-10-1.03518E-01 7.51932E-11 1.03853E-10
 -1     23630 3.40958E-02 9.92321E-02-3.50420E-10-1.00234E-01 3.61679E-11 5.02926E-11
 -1     23631 1.93986E-02 1.13929E-01-7.61385E-10-9.27635E-02 1.39310E-10 2.27091E-10
 -1     23632 3.30288E-02 1.00299E-01-7.04397E-12-1.03518E-01-2.64811E-12-3.21845E-12
 -1     23637 3.40958E-02 9.92321E-02-6.13557E-10-1.00234E-01 4.98524E-11 6.91664E-11
 -1     23638 1.93986E-02 1.13929E-01-5.76953E-10-9.27635E-02-2.75036E-12-4.67849E-12
 -1     23639 3.30288E-02 1.00299E-01 6.55918E-11-1.03518E-01 1.11981E-11 1.57946E-11
 -1     23644 3.40958E-02 9.92321E-02-5.04317E-10-1.00234E-01-5.62394E-12-7.31506E-12
 -1     23645 1.93986E-02 1.13929E-01-4.85645E-10-9.27635E-02 2.77365E-12 4.39569E-12
 -1     23646 3.30288E-02 1.00299E-01 8.67398E-11-1.03518E-01-4.97755E-12-6.60476E-12
 -1     23651 3.40958E-02 9.92321E-02-4.96603E-10-1.00234E-01 4.45938E-12 6.34465E-12
 -1     23652 1.93986E-02 1.13929E-01-4.51586E-10-9.27635E-02 8.69684E-13 1.36830E-12
 -1     23653 3.30288E-02 1.00299E-01 9.30857E-11-1.03518E-01-2.24955E-12-3.01382E-12
 -1     23658 3.40958E-02 9.92321E-02-5.02051E-10-1.00234E-01-1.15555E-14-4.46834E-16
 -1     23659 1.93986E-02 1.13929E-01-4.51593E-10-9.27635E-02-8.75278E-13-1.37334E-12
 -1     23660 3.30288E-02 1.00299E-01 9.30791E-11-1.03518E-01 2.23658E-12 2.99546E-12
 -1     23665 3.40958E-02 9.92321E-02-4.96596E-10-1.00234E-01-4.47401E-12-6.36383E-12
 -1     23666 1.93986E-02 1.13929E-01-4.85649E-10-9.27635E-02-2.77915E-12-4.41487E-12
 -1     23667 3.30288E-02 1.00299E-01 8.67514E-11-1.03518E-01 4.97226E-12 6.58867E-12
 -1     23672 3.40958E-02 9.92321E-02-5.04307E-10-1.00234E-01 5.62233E-12 7.29346E-12
 -1     23673 1.93986E-02 1.13929E-01-5.76947E-10-9.27635E-02 2.74790E-12 4.67687E-12
 -1     23674 3.30288E-02 1.00299E-01 6.56125E-11-1.03518E-01-1.11920E-11-1.57987E-11
 -1     23679 3.40958E-02 9.92321E-02-6.13559E-10-1.00234E-01-4.98520E-11-6.91717E-11
 -1     23680 1.93986E-02 1.13929E-01-7.61393E-10-9.27635E-02-1.39312E-10-2.27098E-10
 -1     23681 3.30288E-02 1.00299E-01-7.02294E-12-1.03518E-01 2.64380E-12 3.21840E-12
 -1     23686 3.40958E-02 9.92321E-02-3.50412E-10-1.00234E-01-3.61684E-11-5.02998E-11
 -1     23687 1.93986E-02 1.13929E-01-5.32935E-10-9.27635E-02-9.09046E-11-1.48159E-10
 -1     23688 3.30288E-02 1.00299E-01 1.34526E-10-1.03518E-01-7.52020E-11-1.03855E-10
 -1     23693 3.40958E-02 9.92321E-02-5.99277E-10-1.00234E-01-5.46017E-11-7.52561E-11
 -1     23697 6.66640E-02 6.66640E-02-6.02687E-10-1.05393E-01 6.61816E-11 6.58174E-11
 -1     23698 5.03775E-02 8.29505E-02-5.28861E-10-1.02829E-01 1.13183E-10 1.32295E-10
 -1     23699 6.66640E-02 6.66640E-02 1.35187E-10-1.08846E-01 9.14383E-11 9.09077E-11
 -1     23704 6.66640E-02 6.66640E-02-3.53692E-10-1.05393E-01 4.49370E-11 4.40667E-11
 -1     23705 5.03775E-02 8.29505E-02-7.57813E-10-1.02829E-01 1.73478E-10 2.02721E-10
 -1     23706 6.66640E-02 6.66640E-02-6.73369E-12-1.08846E-01-1.94692E-12-2.59500E-12
 -1     23711 6.66640E-02 6.66640E-02-6.17086E-10-1.05393E-01 6.15121E-11 6.08022E-11
 -1     23712 5.03775E-02 8.29505E-02-5.73714E-10-1.02829E-01-3.09349E-12-3.99244E-12
 -1     23713 6.66640E-02 6.66640E-02 6.57415E-11-1.08846E-01 1.45989E-11 1.41095E-11
 -1     23718 6.66640E-02 6.66640E-02-5.07946E-10-1.05393E-01-5.54018E-12-6.02486E-12
 -1     23719 5.03775E-02 8.29505E-02-4.82683E-10-1.02829E-01 3.69730E-12 4.04559E-12
 -1     23720 6.66640E-02 6.66640E-02 8.67469E-11-1.08846E-01-5.23361E-12-5.54030E-12
 -1     23725 6.66640E-02 6.66640E-02-5.00294E-10-1.05393E-01 6.01533E-12 5.78396E-12
 -1     23726 5.03775E-02 8.29505E-02-4.48780E-10-1.02829E-01 1.16552E-12 1.26456E-12
 -1     23727 6.66640E-02 6.66640E-02 9.30229E-11-1.08846E-01-2.42430E-12-2.53778E-12
 -1     23732 6.66640E-02 6.66640E-02-5.05752E-10-1.05393E-01 6.86629E-15 9.11660E-15
 -1     23733 5.03775E-02 8.29505E-02-4.48781E-10-1.02829E-01-1.17177E-12-1.27126E-12
 -1     23734 6.66640E-02 6.66640E-02 9.30324E-11-1.08846E-01 2.44729E-12 2.53609E-12
 -1     23739 6.66640E-02 6.66640E-02-5.00281E-10-1.05393E-01-6.00670E-12-5.79412E-12
 -1     23740 5.03775E-02 8.29505E-02-4.82681E-10-1.02829E-01-3.68868E-12-4.04347E-12
 -1     23741 6.66640E-02 6.66640E-02 8.67447E-11-1.08846E-01 5.23859E-12 5.53872E-12
 -1     23746 6.66640E-02 6.66640E-02-5.07925E-10-1.05393E-01 5.54517E-12 6.04993E-12
 -1     23747 5.03775E-02 8.29505E-02-5.73706E-10-1.02829E-01 3.09765E-12 3.99533E-12
 -1     23748 6.66640E-02 6.66640E-02 6.57447E-11-1.08846E-01-1.45946E-11-1.40897E-11
 -1     23753 6.66640E-02 6.66640E-02-6.17059E-10-1.05393E-01-6.15073E-11-6.08089E-11
 -1     23754 5.03775E-02 8.29505E-02-7.57807E-10-1.02829E-01-1.73472E-10-2.02725E-10
 -1     23755 6.66640E-02 6.66640E-02-6.73492E-12-1.08846E-01 1.96110E-12 2.59085E-12
 -1     23760 6.66640E-02 6.66640E-02-3.53687E-10-1.05393E-01-4.49386E-11-4.40709E-11
 -1     23761 5.03775E-02 8.29505E-02-5.28861E-10-1.02829E-01-1.13186E-10-1.32298E-10
 -1     23762 6.66640E-02 6.66640E-02 1.35178E-10-1.08846E-01-9.14429E-11-9.09102E-11
 -1     23767 6.66640E-02 6.66640E-02-6.02713E-10-1.05393E-01-6.61778E-11-6.58107E-11
 -1     23771 9.92321E-02 3.40958E-02-5.98100E-10-1.00234E-01 7.48230E-11 5.42833E-11
 -1     23772 8.29505E-02 5.03775E-02-5.29676E-10-1.02829E-01 1.31937E-10 1.13441E-10
 -1     23773 1.00299E-01 3.30288E-02 1.33981E-10-1.03518E-01 1.03274E-10 7.48266E-11
 -1     23778 9.92321E-02 3.40958E-02-3.49466E-10-1.00234E-01 4.92230E-11 3.53655E-11
 -1     23779 8.29505E-02 5.03775E-02-7.58136E-10-1.02829E-01 2.02206E-10 1.73753E-10
 -1     23780 1.00299E-01 3.30288E-02-7.63514E-12-1.03518E-01-4.03878E-12-3.21153E-12
 -1     23785 9.92321E-02 3.40958E-02-6.13004E-10-1.00234E-01 6.79973E-11 4.90594E-11
 -1     23786 8.29505E-02 5.03775E-02-5.73704E-10-1.02829E-01-4.51500E-12-2.85722E-12
 -1     23787 1.00299E-01 3.30288E-02 6.47390E-11-1.03518E-01 1.50123E-11 1.06535E-11
 -1     23792 9.92321E-02 3.40958E-02-5.04008E-10-1.00234E-01-8.26162E-12-6.30044E-12
 -1     23793 8.29505E-02 5.03775E-02-4.82408E-10-1.02829E-01 3.68466E-12 3.83337E-12
 -1     23794 1.00299E-01 3.30288E-02 8.57133E-11-1.03518E-01-7.14632E-12-5.36860E-12
 -1     23799 9.92321E-02 3.40958E-02-4.96444E-10-1.00234E-01 5.83153E-12 4.07626E-12
 -1     23800 8.29505E-02 5.03775E-02-4.48355E-10-1.02829E-01 1.13087E-12 1.22309E-12
 -1     23801 1.00299E-01 3.30288E-02 9.19672E-11-1.03518E-01-3.21369E-12-2.38202E-12
 -1     23806 9.92321E-02 3.40958E-02-5.01947E-10-1.00234E-01-1.08942E-14 4.79398E-15
 -1     23807 8.29505E-02 5.03775E-02-4.48353E-10-1.02829E-01-1.13412E-12-1.21509E-12
 -1     23808 1.00299E-01 3.30288E-02 9.19644E-11-1.03518E-01 3.18539E-12 2.39296E-12
 -1     23813 9.92321E-02 3.40958E-02-4.96469E-10-1.00234E-01-5.84836E-12-4.06769E-12
 -1     23814 8.29505E-02 5.03775E-02-4.82412E-10-1.02829E-01-3.67707E-12-3.82310E-12
 -1     23815 1.00299E-01 3.30288E-02 8.57093E-11-1.03518E-01 7.15337E-12 5.37882E-12
 -1     23820 9.92321E-02 3.40958E-02-5.04018E-10-1.00234E-01 8.26044E-12 6.30647E-12
 -1     23821 8.29505E-02 5.03775E-02-5.73694E-10-1.02829E-01 4.51389E-12 2.86865E-12
 -1     23822 1.00299E-01 3.30288E-02 6.47264E-11-1.03518E-01-1.50075E-11-1.06460E-11
 -1     23827 9.92321E-02 3.40958E-02-6.13016E-10-1.00234E-01-6.79937E-11-4.90428E-11
 -1     23828 8.29505E-02 5.03775E-02-7.58141E-10-1.02829E-01-2.02203E-10-1.73756E-10
 -1     23829 1.00299E-01 3.30288E-02-7.63977E-12-1.03518E-01 4.03747E-12 3.22735E-12
 -1     23834 9.92321E-02 3.40958E-02-3.49472E-10-1.00234E-01-4.92227E-11-3.53588E-11
 -1     23835 8.29505E-02 5.03775E-02-5.29676E-10-1.02829E-01-1.31937E-10-1.13448E-10
 -1     23836 1.00299E-01 3.30288E-02 1.33980E-10-1.03518E-01-1.03276E-10-7.48265E-11
 -1     23841 9.92321E-02 3.40958E-02-5.98088E-10-1.00234E-01-7.48102E-11-5.42940E-11
 -1     23845 1.28612E-01 4.71568E-03-5.97677E-10-8.52645E-02 8.27145E-11 4.26400E-11
 -1     23846 1.13929E-01 1.93986E-02-5.33315E-10-9.27635E-02 1.48367E-10 9.04823E-11
 -1     23847 1.30642E-01 2.68606E-03 1.34145E-10-8.80581E-02 1.13929E-10 5.88761E-11
 -1     23852 1.28612E-01 4.71568E-03-3.48790E-10-8.52645E-02 5.45792E-11 2.90590E-11
 -1     23853 1.13929E-01 1.93986E-02-7.61285E-10-9.27635E-02 2.27272E-10 1.38691E-10
 -1     23854 1.30642E-01 2.68606E-03-7.44824E-12-8.80581E-02-4.12390E-12-1.14597E-12
 -1     23859 1.28612E-01 4.71568E-03-6.12109E-10-8.52645E-02 7.54426E-11 3.95475E-11
 -1     23860 1.13929E-01 1.93986E-02-5.76502E-10-9.27635E-02-4.58492E-12-3.29186E-12
 -1     23861 1.30642E-01 2.68606E-03 6.51174E-11-8.80581E-02 1.69123E-11 9.38951E-12
 -1     23866 1.28612E-01 4.71568E-03-5.03043E-10-8.52645E-02-8.58428E-12-3.58764E-12
 -1     23867 1.13929E-01 1.93986E-02-4.84944E-10-9.27635E-02 4.43890E-12 2.40558E-12
 -1     23868 1.30642E-01 2.68606E-03 8.62019E-11-8.80581E-02-7.58873E-12-3.39661E-12
 -1     23873 1.28612E-01 4.71568E-03-4.95425E-10-8.52645E-02 6.72282E-12 3.81087E-12
 -1     23874 1.13929E-01 1.93986E-02-4.50743E-10-9.27635E-02 1.38046E-12 7.36419E-13
 -1     23875 1.30642E-01 2.68606E-03 9.25128E-11-8.80581E-02-3.40478E-12-1.57722E-12
 -1     23880 1.28612E-01 4.71568E-03-5.00912E-10-8.52645E-02-8.10268E-15 4.20953E-15
 -1     23881 1.13929E-01 1.93986E-02-4.50745E-10-9.27635E-02-1.37660E-12-7.41137E-13
 -1     23882 1.30642E-01 2.68606E-03 9.25041E-11-8.80581E-02 3.42509E-12 1.59020E-12
 -1     23887 1.28612E-01 4.71568E-03-4.95427E-10-8.52645E-02-6.71177E-12-3.81571E-12
 -1     23888 1.13929E-01 1.93986E-02-4.84947E-10-9.27635E-02-4.45097E-12-2.40442E-12
 -1     23889 1.30642E-01 2.68606E-03 8.62131E-11-8.80581E-02 7.57957E-12 3.39759E-12
 -1     23894 1.28612E-01 4.71568E-03-5.03039E-10-8.52645E-02 8.58503E-12 3.59345E-12
 -1     23895 1.13929E-01 1.93986E-02-5.76498E-10-9.27635E-02 4.57940E-12 3.29541E-12
 -1     23896 1.30642E-01 2.68606E-03 6.51236E-11-8.80581E-02-1.69084E-11-9.38546E-12
 -1     23901 1.28612E-01 4.71568E-03-6.12112E-10-8.52645E-02-7.54529E-11-3.95530E-11
 -1     23902 1.13929E-01 1.93986E-02-7.61283E-10-9.27635E-02-2.27271E-10-1.38698E-10
 -1     23903 1.30642E-01 2.68606E-03-7.43887E-12-8.80581E-02 4.13363E-12 1.14210E-12
 -1     23908 1.28612E-01 4.71568E-03-3.48792E-10-8.52645E-02-5.45599E-11-2.90539E-11
 -1     23909 1.13929E-01 1.93986E-02-5.33315E-10-9.27635E-02-1.48353E-10-9.04910E-11
 -1     23910 1.30642E-01 2.68606E-03 1.34153E-10-8.80581E-02-1.13915E-10-5.88712E-11
 -1     23915 1.28612E-01 4.71568E-03-5.97690E-10-8.52645E-02-8.26888E-11-4.26490E-11
 -1     23919 1.51929E-01-1.86005E-02-6.02553E-10-6.19483E-02 8.87548E-11 2.88087E-11
 -1     23920 1.40281E-01-6.95352E-03-5.30487E-10-7.36175E-02 1.60956E-10 6.61835E-11
 -1     23921 1.54722E-01-2.13941E-02 1.35589E-10-6.39779E-02 1.22564E-10 3.98979E-11
 -1     23926 1.51929E-01-1.86005E-02-3.53352E-10-6.19483E-02 5.99548E-11 1.96101E-11
 -1     23927 1.40281E-01-6.95352E-03-7.59392E-10-7.36175E-02 2.46619E-10 1.01473E-10
 -1     23928 1.54722E-01-2.13941E-02-5.93494E-12-6.39779E-02-3.05971E-12-8.75607E-13
 -1     23933 1.51929E-01-1.86005E-02-6.16064E-10-6.19483E-02 8.22607E-11 2.69234E-11
 -1     23934 1.40281E-01-6.95352E-03-5.75281E-10-7.36175E-02-4.54249E-12-2.46034E-12
 -1     23935 1.54722E-01-2.13941E-02 6.68743E-11-6.39779E-02 1.92519E-11 6.39344E-12
 -1     23940 1.51929E-01-1.86005E-02-5.06661E-10-6.19483E-02-7.78883E-12-2.37854E-12
 -1     23941 1.40281E-01-6.95352E-03-4.84276E-10-7.36175E-02 5.13877E-12 1.74193E-12
 -1     23942 1.54722E-01-2.13941E-02 8.81230E-11-6.39779E-02-7.27344E-12-2.26989E-12
 -1     23947 1.51929E-01-1.86005E-02-4.98788E-10-6.19483E-02 7.91154E-12 2.65768E-12
 -1     23948 1.40281E-01-6.95352E-03-4.50387E-10-7.36175E-02 1.61863E-12 5.41233E-13
 -1     23949 1.54722E-01-2.13941E-02 9.45039E-11-6.39779E-02-3.36240E-12-1.05934E-12
 -1     23954 1.51929E-01-1.86005E-02-5.04184E-10-6.19483E-02 1.83320E-14-1.83118E-15
 -1     23955 1.40281E-01-6.95352E-03-4.50388E-10-7.36175E-02-1.61426E-12-5.37781E-13
 -1     23956 1.54722E-01-2.13941E-02 9.45004E-11-6.39779E-02 3.36327E-12 1.05565E-12
 -1     23961 1.51929E-01-1.86005E-02-4.98803E-10-6.19483E-02-7.91698E-12-2.65232E-12
 -1     23962 1.40281E-01-6.95352E-03-4.84278E-10-7.36175E-02-5.13615E-12-1.73954E-12
 -1     23963 1.54722E-01-2.13941E-02 8.81073E-11-6.39779E-02 7.27893E-12 2.26828E-12
 -1     23968 1.51929E-01-1.86005E-02-5.06671E-10-6.19483E-02 7.78809E-12 2.36445E-12
 -1     23969 1.40281E-01-6.95352E-03-5.75277E-10-7.36175E-02 4.53338E-12 2.47166E-12
 -1     23970 1.54722E-01-2.13941E-02 6.68685E-11-6.39779E-02-1.92688E-11-6.39729E-12
 -1     23975 1.51929E-01-1.86005E-02-6.16078E-10-6.19483E-02-8.22788E-11-2.69222E-11
 -1     23976 1.40281E-01-6.95352E-03-7.59389E-10-7.36175E-02-2.46626E-10-1.01475E-10
 -1     23977 1.54722E-01-2.13941E-02-5.94824E-12-6.39779E-02 3.04912E-12 8.77764E-13
 -1     23982 1.51929E-01-1.86005E-02-3.53348E-10-6.19483E-02-5.99557E-11-1.96117E-11
 -1     23983 1.40281E-01-6.95352E-03-5.30489E-10-7.36175E-02-1.60945E-10-6.61806E-11
 -1     23984 1.54722E-01-2.13941E-02 1.35593E-10-6.39779E-02-1.22567E-10-3.98920E-11
 -1     23989 1.51929E-01-1.86005E-02-6.02547E-10-6.19483E-02-8.87551E-11-2.88050E-11
 -1     23993 1.66898E-01-3.35705E-02-6.00759E-10-3.25682E-02 9.21508E-11 1.39105E-11
 -1     23994 1.59427E-01-2.60995E-02-5.28198E-10-4.72654E-02 1.69252E-10 4.10176E-11
 -1     23995 1.70182E-01-3.68545E-02 1.34652E-10-3.36352E-02 1.27198E-10 1.91109E-11
 -1     24000 1.66898E-01-3.35705E-02-3.51870E-10-3.25682E-02 6.18812E-11 8.21537E-12
 -1     24001 1.59427E-01-2.60995E-02-7.57340E-10-4.72654E-02 2.59359E-10 6.27214E-11
 -1     24002 1.70182E-01-3.68545E-02-7.10726E-12-3.36352E-02-3.43400E-12-1.71923E-12
 -1     24007 1.66898E-01-3.35705E-02-6.15191E-10-3.25682E-02 8.50213E-11 1.21586E-11
 -1     24008 1.59427E-01-2.60995E-02-5.73383E-10-4.72654E-02-4.93667E-12-8.05299E-13
 -1     24009 1.70182E-01-3.68545E-02 6.53899E-11-3.36352E-02 1.97514E-11 2.20457E-12
 -1     24014 1.66898E-01-3.35705E-02-5.06076E-10-3.25682E-02-8.43915E-12-2.27579E-12
 -1     24015 1.59427E-01-2.60995E-02-4.82521E-10-4.72654E-02 5.32690E-12 1.51769E-12
 -1     24016 1.70182E-01-3.68545E-02 8.64599E-11-3.36352E-02-7.74954E-12-1.78875E-12
 -1     24021 1.66898E-01-3.35705E-02-4.98390E-10-3.25682E-02 8.00774E-12 8.03577E-13
 -1     24022 1.59427E-01-2.60995E-02-4.48705E-10-4.72654E-02 1.68230E-12 4.88530E-13
 -1     24023 1.70182E-01-3.68545E-02 9.27569E-11-3.36352E-02-3.55161E-12-7.51863E-13
 -1     24028 1.66898E-01-3.35705E-02-5.03817E-10-3.25682E-02 3.19215E-15-2.94296E-15
 -1     24029 1.59427E-01-2.60995E-02-4.48711E-10-4.72654E-02-1.67969E-12-4.83926E-13
 -1     24030 1.70182E-01-3.68545E-02 9.27614E-11-3.36352E-02 3.56985E-12 7.49092E-13
 -1     24035 1.66898E-01-3.35705E-02-4.98371E-10-3.25682E-02-7.98895E-12-8.02533E-13
 -1     24036 1.59427E-01-2.60995E-02-4.82523E-10-4.72654E-02-5.30563E-12-1.51859E-12
 -1     24037 1.70182E-01-3.68545E-02 8.64626E-11-3.36352E-02 7.76157E-12 1.79092E-12
 -1     24042 1.66898E-01-3.35705E-02-5.06060E-10-3.25682E-02 8.46821E-12 2.27590E-12
 -1     24043 1.59427E-01-2.60995E-02-5.73379E-10-4.72654E-02 4.93181E-12 8.03790E-13
 -1     24044 1.70182E-01-3.68545E-02 6.54008E-11-3.36352E-02-1.97391E-11-2.20554E-12
 -1     24049 1.66898E-01-3.35705E-02-6.15166E-10-3.25682E-02-8.50124E-11-1.21633E-11
 -1     24050 1.59427E-01-2.60995E-02-7.57332E-10-4.72654E-02-2.59371E-10-6.27216E-11
 -1     24051 1.70182E-01-3.68545E-02-7.10705E-12-3.36352E-02 3.44486E-12 1.71967E-12
 -1     24056 1.66898E-01-3.35705E-02-3.51841E-10-3.25682E-02-6.18579E-11-8.21123E-12
 -1     24057 1.59427E-01-2.60995E-02-5.28198E-10-4.72654E-02-1.69251E-10-4.10199E-11
 -1     24058 1.70182E-01-3.68545E-02 1.34657E-10-3.36352E-02-1.27190E-10-1.91092E-11
 -1     24063 1.66898E-01-3.35705E-02-6.00754E-10-3.25682E-02-9.21734E-11-1.39099E-11
 -1     24067 1.69493E-01-3.61651E-02-5.32422E-10-1.62865E-02 1.73173E-10 1.44066E-11
 -1     24071 1.69493E-01-3.61651E-02-7.60214E-10-1.62865E-02 2.65244E-10 2.19229E-11
 -1     24075 1.69493E-01-3.61651E-02-5.75288E-10-1.62865E-02-5.79802E-12 4.82342E-13
 -1     24079 1.69493E-01-3.61651E-02-4.83657E-10-1.62865E-02 4.89584E-12 1.02321E-12
 -1     24083 1.69493E-01-3.61651E-02-4.49410E-10-1.62865E-02 1.51060E-12 3.43578E-13
 -1     24087 1.69493E-01-3.61651E-02-4.49409E-10-1.62865E-02-1.49338E-12-3.41932E-13
 -1     24091 1.69493E-01-3.61651E-02-4.83652E-10-1.62865E-02-4.88552E-12-1.02097E-12
 -1     24095 1.69493E-01-3.61651E-02-5.75284E-10-1.62865E-02 5.80689E-12-4.79466E-13
 -1     24099 1.69493E-01-3.61651E-02-7.60203E-10-1.62865E-02-2.65234E-10-2.19217E-11
 -1     24103 1.69493E-01-3.61651E-02-5.32422E-10-1.62865E-02-1.73165E-10-1.44032E-11
 -1     24109-2.75904E-02 1.60918E-01-2.91142E-13-3.06251E-02-4.79658E-11-3.02885E-10
 -1     24110-3.00303E-02 1.63358E-01 8.11366E-10-1.53149E-02-1.30671E-10-1.66037E-09
 -1     24111-3.05806E-02 1.63909E-01 1.24295E-10-3.15967E-02-2.90668E-11-1.83369E-10
 -1     24116-2.75904E-02 1.60918E-01 1.24181E-09-3.06251E-02-9.69772E-11-6.11712E-10
 -1     24117-3.00303E-02 1.63358E-01 1.86830E-09-1.53149E-02-4.37053E-11-5.55360E-10
 -1     24118-3.05806E-02 1.63909E-01 5.69216E-10-3.15967E-02-4.03929E-11-2.54663E-10
 -1     24123-2.75904E-02 1.60918E-01 1.13862E-09-3.06251E-02-5.26320E-11-3.31765E-10
 -1     24124-3.00303E-02 1.63358E-01 1.43993E-09-1.53149E-02-3.39550E-11-4.31599E-10
 -1     24125-3.05806E-02 1.63909E-01 5.00752E-10-3.15967E-02-1.80782E-11-1.13835E-10
 -1     24130-2.75904E-02 1.60918E-01 1.35807E-09-3.06251E-02-4.72929E-11-2.98273E-10
 -1     24131-3.00303E-02 1.63358E-01 1.25716E-09-1.53149E-02-1.37381E-11-1.74659E-10
 -1     24132-3.05806E-02 1.63909E-01 5.02950E-10-3.15967E-02-1.35731E-11-8.55053E-11
 -1     24137-2.75904E-02 1.60918E-01 1.39084E-09-3.06251E-02-1.84303E-11-1.16205E-10
 -1     24138-3.00303E-02 1.63358E-01 1.24512E-09-1.53149E-02-2.43586E-12-3.09977E-11
 -1     24139-3.05806E-02 1.63909E-01 5.31127E-10-3.15967E-02-5.36118E-12-3.37694E-11
 -1     24144-2.75904E-02 1.60918E-01 1.34935E-09-3.06251E-02 5.13676E-15 9.58324E-15
 -1     24145-3.00303E-02 1.63358E-01 1.24512E-09-1.53149E-02 2.44055E-12 3.09828E-11
 -1     24146-3.05806E-02 1.63909E-01 5.31119E-10-3.15967E-02 5.36552E-12 3.37968E-11
 -1     24151-2.75904E-02 1.60918E-01 1.39085E-09-3.06251E-02 1.84360E-11 1.16199E-10
 -1     24152-3.00303E-02 1.63358E-01 1.25715E-09-1.53149E-02 1.37422E-11 1.74679E-10
 -1     24153-3.05806E-02 1.63909E-01 5.02946E-10-3.15967E-02 1.35725E-11 8.54985E-11
 -1     24158-2.75904E-02 1.60918E-01 1.35806E-09-3.06251E-02 4.72966E-11 2.98270E-10
 -1     24159-3.00303E-02 1.63358E-01 1.43993E-09-1.53149E-02 3.39639E-11 4.31586E-10
 -1     24160-3.05806E-02 1.63909E-01 5.00734E-10-3.15967E-02 1.80757E-11 1.13813E-10
 -1     24165-2.75904E-02 1.60918E-01 1.13861E-09-3.06251E-02 5.26279E-11 3.31763E-10
 -1     24166-3.00303E-02 1.63358E-01 1.86827E-09-1.53149E-02 4.37110E-11 5.55370E-10
 -1     24167-3.05806E-02 1.63909E-01 5.69200E-10-3.15967E-02 4.03894E-11 2.54670E-10
 -1     24172-2.75904E-02 1.60918E-01 1.24181E-09-3.06251E-02 9.69718E-11 6.11730E-10
 -1     24173-3.00303E-02 1.63358E-01 8.11364E-10-1.53149E-02 1.30675E-10 1.66037E-09
 -1     24174-3.05806E-02 1.63909E-01 1.24296E-10-3.15967E-02 2.90663E-11 1.83382E-10
 -1     24179-2.75904E-02 1.60918E-01-2.92048E-13-3.06251E-02 4.79690E-11 3.02860E-10
 -1     24183-1.35136E-02 1.46842E-01-1.60737E-12-5.82524E-02-9.47361E-11-2.91776E-10
 -1     24184-2.05652E-02 1.53893E-01 8.12947E-10-4.44455E-02-3.88768E-10-1.61939E-09
 -1     24185-1.60572E-02 1.49385E-01 1.24824E-10-6.01005E-02-5.72122E-11-1.76463E-10
 -1     24190-1.35136E-02 1.46842E-01 1.24048E-09-5.82524E-02-1.91299E-10-5.89044E-10
 -1     24191-2.05652E-02 1.53893E-01 1.86979E-09-4.44455E-02-1.30010E-10-5.41589E-10
 -1     24192-1.60572E-02 1.49385E-01 5.69615E-10-6.01005E-02-7.95075E-11-2.45063E-10
 -1     24197-1.35136E-02 1.46842E-01 1.13721E-09-5.82524E-02-1.03603E-10-3.19369E-10
 -1     24198-2.05652E-02 1.53893E-01 1.44135E-09-4.44455E-02-1.01010E-10-4.20881E-10
 -1     24199-1.60572E-02 1.49385E-01 5.01064E-10-6.01005E-02-3.54328E-11-1.09451E-10
 -1     24204-1.35136E-02 1.46842E-01 1.35658E-09-5.82524E-02-9.31223E-11-2.87115E-10
 -1     24205-2.05652E-02 1.53893E-01 1.25852E-09-4.44455E-02-4.08718E-11-1.70330E-10
 -1     24206-1.60572E-02 1.49385E-01 5.03209E-10-6.01005E-02-2.66239E-11-8.21946E-11
 -1     24211-1.35136E-02 1.46842E-01 1.38934E-09-5.82524E-02-3.62473E-11-1.11838E-10
 -1     24212-2.05652E-02 1.53893E-01 1.24645E-09-4.44455E-02-7.24374E-12-3.02188E-11
 -1     24213-1.60572E-02 1.49385E-01 5.31329E-10-6.01005E-02-1.05264E-11-3.25191E-11
 -1     24218-1.35136E-02 1.46842E-01 1.34785E-09-5.82524E-02-2.75884E-15-3.96687E-16
 -1     24219-2.05652E-02 1.53893E-01 1.24645E-09-4.44455E-02 7.24108E-12 3.02176E-11
 -1     24220-1.60572E-02 1.49385E-01 5.31343E-10-6.01005E-02 1.05274E-11 3.25013E-11
 -1     24225-1.35136E-02 1.46842E-01 1.38935E-09-5.82524E-02 3.62401E-11 1.11837E-10
 -1     24226-2.05652E-02 1.53893E-01 1.25852E-09-4.44455E-02 4.08630E-11 1.70325E-10
 -1     24227-1.60572E-02 1.49385E-01 5.03213E-10-6.01005E-02 2.66199E-11 8.22019E-11
 -1     24232-1.35136E-02 1.46842E-01 1.35659E-09-5.82524E-02 9.31205E-11 2.87125E-10
 -1     24233-2.05652E-02 1.53893E-01 1.44135E-09-4.44455E-02 1.01006E-10 4.20885E-10
 -1     24234-1.60572E-02 1.49385E-01 5.01065E-10-6.01005E-02 3.54331E-11 1.09447E-10
 -1     24239-1.35136E-02 1.46842E-01 1.13721E-09-5.82524E-02 1.03597E-10 3.19359E-10
 -1     24240-2.05652E-02 1.53893E-01 1.86978E-09-4.44455E-02 1.30009E-10 5.41598E-10
 -1     24241-1.60572E-02 1.49385E-01 5.69625E-10-6.01005E-02 7.94983E-11 2.45027E-10
 -1     24246-1.35136E-02 1.46842E-01 1.24049E-09-5.82524E-02 1.91307E-10 5.88994E-10
 -1     24247-2.05652E-02 1.53893E-01 8.12945E-10-4.44455E-02 3.88773E-10 1.61937E-09
 -1     24248-1.60572E-02 1.49385E-01 1.24820E-10-6.01005E-02 5.72109E-11 1.76432E-10
 -1     24253-1.35136E-02 1.46842E-01-1.61670E-12-5.82524E-02 9.47365E-11 2.91754E-10
 -1     24257 8.41155E-03 1.24916E-01 4.11238E-12-8.01776E-02-1.39261E-10-2.73002E-10
 -1     24258-2.56148E-03 1.35889E-01 8.12723E-10-6.92255E-02-6.37433E-10-1.53852E-09
 -1     24259 6.56351E-03 1.26764E-01 1.23281E-10-8.27212E-02-8.44058E-11-1.65657E-10
 -1     24264 8.41155E-03 1.24916E-01 1.24586E-09-8.01776E-02-2.81385E-10-5.51853E-10
 -1     24265-2.56148E-03 1.35889E-01 1.86963E-09-6.92255E-02-2.13337E-10-5.14504E-10
 -1     24266 6.56351E-03 1.26764E-01 5.68178E-10-8.27212E-02-1.17227E-10-2.30032E-10
 -1     24271 8.41155E-03 1.24916E-01 1.14242E-09-8.01776E-02-1.52610E-10-2.99499E-10
 -1     24272-2.56148E-03 1.35889E-01 1.44132E-09-6.92255E-02-1.65821E-10-3.99825E-10
 -1     24273 6.56351E-03 1.26764E-01 4.99742E-10-8.27212E-02-5.24236E-11-1.02952E-10
 -1     24278 8.41155E-03 1.24916E-01 1.36161E-09-8.01776E-02-1.37115E-10-2.69303E-10
 -1     24279-2.56148E-03 1.35889E-01 1.25861E-09-6.92255E-02-6.71778E-11-1.61797E-10
 -1     24280 6.56351E-03 1.26764E-01 5.01985E-10-8.27212E-02-3.93501E-11-7.73385E-11
 -1     24285 8.41155E-03 1.24916E-01 1.39426E-09-8.01776E-02-5.34217E-11-1.04992E-10
 -1     24286-2.56148E-03 1.35889E-01 1.24661E-09-6.92255E-02-1.19437E-11-2.87134E-11
 -1     24287 6.56351E-03 1.26764E-01 5.30155E-10-8.27212E-02-1.55496E-11-3.05682E-11
 -1     24292 8.41155E-03 1.24916E-01 1.35274E-09-8.01776E-02-4.20852E-15 3.58623E-15
 -1     24293-2.56148E-03 1.35889E-01 1.24660E-09-6.92255E-02 1.19345E-11 2.87021E-11
 -1     24294 6.56351E-03 1.26764E-01 5.30155E-10-8.27212E-02 1.55498E-11 3.05653E-11
 -1     24299 8.41155E-03 1.24916E-01 1.39426E-09-8.01776E-02 5.34278E-11 1.04985E-10
 -1     24300-2.56148E-03 1.35889E-01 1.25862E-09-6.92255E-02 6.71651E-11 1.61789E-10
 -1     24301 6.56351E-03 1.26764E-01 5.01977E-10-8.27212E-02 3.93552E-11 7.73350E-11
 -1     24306 8.41155E-03 1.24916E-01 1.36161E-09-8.01776E-02 1.37123E-10 2.69313E-10
 -1     24307-2.56148E-03 1.35889E-01 1.44131E-09-6.92255E-02 1.65817E-10 3.99830E-10
 -1     24308 6.56351E-03 1.26764E-01 4.99741E-10-8.27212E-02 5.24274E-11 1.02976E-10
 -1     24313 8.41155E-03 1.24916E-01 1.14242E-09-8.01776E-02 1.52613E-10 2.99492E-10
 -1     24314-2.56148E-03 1.35889E-01 1.86964E-09-6.92255E-02 2.13336E-10 5.14510E-10
 -1     24315 6.56351E-03 1.26764E-01 5.68173E-10-8.27212E-02 1.17223E-10 2.30022E-10
 -1     24320 8.41155E-03 1.24916E-01 1.24585E-09-8.01776E-02 2.81378E-10 5.51857E-10
 -1     24321-2.56148E-03 1.35889E-01 8.12718E-10-6.92255E-02 6.37434E-10 1.53850E-09
 -1     24322 6.56351E-03 1.26764E-01 1.23268E-10-8.27212E-02 8.43999E-11 1.65675E-10
 -1     24327 8.41155E-03 1.24916E-01 4.10787E-12-8.01776E-02 1.39256E-10 2.73014E-10
 -1     24331 3.60389E-02 9.72891E-02-8.18722E-14-9.42544E-02-1.80504E-10-2.48003E-10
 -1     24332 2.22185E-02 1.11109E-01 8.07303E-10-8.72292E-02-8.70302E-10-1.42055E-09
 -1     24333 3.50673E-02 9.82607E-02 1.24326E-10-9.72446E-02-1.09629E-10-1.50067E-10
 -1     24338 3.60389E-02 9.72891E-02 1.24205E-09-9.42544E-02-3.64656E-10-5.00628E-10
 -1     24339 2.22185E-02 1.11109E-01 1.86429E-09-8.72292E-02-2.91131E-10-4.75407E-10
 -1     24340 3.50673E-02 9.82607E-02 5.69242E-10-9.72446E-02-1.52132E-10-2.08305E-10
 -1     24345 3.60389E-02 9.72891E-02 1.13882E-09-9.42544E-02-1.98031E-10-2.71321E-10
 -1     24346 2.22185E-02 1.11109E-01 1.43607E-09-8.72292E-02-2.26172E-10-3.69435E-10
 -1     24347 3.50673E-02 9.82607E-02 5.00877E-10-9.72446E-02-6.82351E-11-9.30125E-11
 -1     24352 3.60389E-02 9.72891E-02 1.35833E-09-9.42544E-02-1.77989E-10-2.44065E-10
 -1     24353 2.22185E-02 1.11109E-01 1.25344E-09-8.72292E-02-9.15357E-11-1.49580E-10
 -1     24354 3.50673E-02 9.82607E-02 5.03167E-10-9.72446E-02-5.12076E-11-6.98893E-11
 -1     24359 3.60389E-02 9.72891E-02 1.39120E-09-9.42544E-02-6.94264E-11-9.50604E-11
 -1     24360 2.22185E-02 1.11109E-01 1.24145E-09-8.72292E-02-1.62414E-11-2.65712E-11
 -1     24361 3.50673E-02 9.82607E-02 5.31380E-10-9.72446E-02-2.02253E-11-2.76496E-11
 -1     24366 3.60389E-02 9.72891E-02 1.34976E-09-9.42544E-02-7.48152E-15-1.31794E-14
 -1     24367 2.22185E-02 1.11109E-01 1.24145E-09-8.72292E-02 1.62241E-11 2.65623E-11
 -1     24368 3.50673E-02 9.82607E-02 5.31380E-10-9.72446E-02 2.02144E-11 2.76190E-11
 -1     24373 3.60389E-02 9.72891E-02 1.39122E-09-9.42544E-02 6.94202E-11 9.50393E-11
 -1     24374 2.22185E-02 1.11109E-01 1.25345E-09-8.72292E-02 9.15249E-11 1.49580E-10
 -1     24375 3.50673E-02 9.82607E-02 5.03187E-10-9.72446E-02 5.11958E-11 6.98683E-11
 -1     24380 3.60389E-02 9.72891E-02 1.35836E-09-9.42544E-02 1.77974E-10 2.44037E-10
 -1     24381 2.22185E-02 1.11109E-01 1.43608E-09-8.72292E-02 2.26170E-10 3.69433E-10
 -1     24382 3.50673E-02 9.82607E-02 5.00887E-10-9.72446E-02 6.82248E-11 9.29960E-11
 -1     24387 3.60389E-02 9.72891E-02 1.13884E-09-9.42544E-02 1.98023E-10 2.71343E-10
 -1     24388 2.22185E-02 1.11109E-01 1.86430E-09-8.72292E-02 2.91137E-10 4.75408E-10
 -1     24389 3.50673E-02 9.82607E-02 5.69251E-10-9.72446E-02 1.52128E-10 2.08320E-10
 -1     24394 3.60389E-02 9.72891E-02 1.24206E-09-9.42544E-02 3.64644E-10 5.00619E-10
 -1     24395 2.22185E-02 1.11109E-01 8.07302E-10-8.72292E-02 8.70310E-10 1.42053E-09
 -1     24396 3.50673E-02 9.82607E-02 1.24327E-10-9.72446E-02 1.09622E-10 1.50047E-10
 -1     24401 3.60389E-02 9.72891E-02-7.61190E-14-9.42544E-02 1.80514E-10 2.47993E-10
 -1     24405 6.66640E-02 6.66640E-02-7.64325E-12-9.91050E-02-2.16118E-10-2.16806E-10
 -1     24406 5.13491E-02 8.19789E-02 8.16938E-10-9.66943E-02-1.08078E-09-1.26612E-09
 -1     24407 6.66640E-02 6.66640E-02 1.25866E-10-1.02249E-01-1.29732E-10-1.30667E-10
 -1     24412 6.66640E-02 6.66640E-02 1.23487E-09-9.91050E-02-4.36209E-10-4.37140E-10
 -1     24413 5.13491E-02 8.19789E-02 1.87353E-09-9.66943E-02-3.60758E-10-4.23244E-10
 -1     24414 6.66640E-02 6.66640E-02 5.70797E-10-1.02249E-01-1.80447E-10-1.81385E-10
 -1     24419 6.66640E-02 6.66640E-02 1.13165E-09-9.91050E-02-2.35330E-10-2.36447E-10
 -1     24420 5.13491E-02 8.19789E-02 1.44451E-09-9.66943E-02-2.80108E-10-3.28929E-10
 -1     24421 6.66640E-02 6.66640E-02 5.02115E-10-1.02249E-01-7.97694E-11-8.05642E-11
 -1     24426 6.66640E-02 6.66640E-02 1.35123E-09-9.91050E-02-2.11828E-10-2.12599E-10
 -1     24427 5.13491E-02 8.19789E-02 1.26125E-09-9.66943E-02-1.13069E-10-1.33049E-10
 -1     24428 6.66640E-02 6.66640E-02 5.04278E-10-1.02249E-01-6.00768E-11-6.05319E-11
 -1     24433 6.66640E-02 6.66640E-02 1.38422E-09-9.91050E-02-8.23204E-11-8.26585E-11
 -1     24434 5.13491E-02 8.19789E-02 1.24895E-09-9.66943E-02-1.99304E-11-2.35734E-11
 -1     24435 6.66640E-02 6.66640E-02 5.32417E-10-1.02249E-01-2.38139E-11-2.39364E-11
 -1     24440 6.66640E-02 6.66640E-02 1.34282E-09-9.91050E-02-1.89794E-14 1.41483E-14
 -1     24441 5.13491E-02 8.19789E-02 1.24895E-09-9.66943E-02 1.99196E-11 2.35724E-11
 -1     24442 6.66640E-02 6.66640E-02 5.32398E-10-1.02249E-01 2.38004E-11 2.39605E-11
 -1     24447 6.66640E-02 6.66640E-02 1.38420E-09-9.91050E-02 8.23083E-11 8.27167E-11
 -1     24448 5.13491E-02 8.19789E-02 1.26125E-09-9.66943E-02 1.13067E-10 1.33047E-10
 -1     24449 6.66640E-02 6.66640E-02 5.04286E-10-1.02249E-01 6.00939E-11 6.05501E-11
 -1     24454 6.66640E-02 6.66640E-02 1.35121E-09-9.91050E-02 2.11848E-10 2.12618E-10
 -1     24455 5.13491E-02 8.19789E-02 1.44450E-09-9.66943E-02 2.80119E-10 3.28927E-10
 -1     24456 6.66640E-02 6.66640E-02 5.02116E-10-1.02249E-01 7.97852E-11 8.05798E-11
 -1     24461 6.66640E-02 6.66640E-02 1.13163E-09-9.91050E-02 2.35370E-10 2.36436E-10
 -1     24462 5.13491E-02 8.19789E-02 1.87352E-09-9.66943E-02 3.60766E-10 4.23238E-10
 -1     24463 6.66640E-02 6.66640E-02 5.70808E-10-1.02249E-01 1.80451E-10 1.81359E-10
 -1     24468 6.66640E-02 6.66640E-02 1.23487E-09-9.91050E-02 4.36240E-10 4.37115E-10
 -1     24469 5.13491E-02 8.19789E-02 8.16937E-10-9.66943E-02 1.08079E-09 1.26610E-09
 -1     24470 6.66640E-02 6.66640E-02 1.25869E-10-1.02249E-01 1.29738E-10 1.30660E-10
 -1     24475 6.66640E-02 6.66640E-02-7.63080E-12-9.91050E-02 2.16100E-10 2.16807E-10
 -1     24479 9.72891E-02 3.60389E-02 6.28473E-12-9.42544E-02-2.48891E-10-1.81071E-10
 -1     24480 8.19789E-02 5.13491E-02 8.14377E-10-9.66943E-02-1.26721E-09-1.08061E-09
 -1     24481 9.82607E-02 3.50673E-02 1.23121E-10-9.72446E-02-1.51313E-10-1.10567E-10
 -1     24486 9.72891E-02 3.60389E-02 1.24729E-09-9.42544E-02-5.02539E-10-3.65715E-10
 -1     24487 8.19789E-02 5.13491E-02 1.87115E-09-9.66943E-02-4.24714E-10-3.60559E-10
 -1     24488 9.82607E-02 3.50673E-02 5.67396E-10-9.72446E-02-2.10086E-10-1.53333E-10
 -1     24493 9.72891E-02 3.60389E-02 1.14365E-09-9.42544E-02-2.73575E-10-1.99713E-10
 -1     24494 8.19789E-02 5.13491E-02 1.44284E-09-9.66943E-02-3.30265E-10-2.80005E-10
 -1     24495 9.82607E-02 3.50673E-02 4.98947E-10-9.72446E-02-9.46378E-11-6.94457E-11
 -1     24500 9.72891E-02 3.60389E-02 1.36269E-09-9.42544E-02-2.45869E-10-1.79377E-10
 -1     24501 8.19789E-02 5.13491E-02 1.26020E-09-9.66943E-02-1.33995E-10-1.13028E-10
 -1     24502 9.82607E-02 3.50673E-02 5.01100E-10-9.72446E-02-7.10265E-11-5.20407E-11
 -1     24507 9.72891E-02 3.60389E-02 1.39523E-09-9.42544E-02-9.60726E-11-7.01774E-11
 -1     24508 8.19789E-02 5.13491E-02 1.24823E-09-9.66943E-02-2.39132E-11-1.99114E-11
 -1     24509 9.82607E-02 3.50673E-02 5.29241E-10-9.72446E-02-2.80420E-11-2.05136E-11
 -1     24514 9.72891E-02 3.60389E-02 1.35369E-09-9.42544E-02-4.07841E-15 3.81182E-15
 -1     24515 8.19789E-02 5.13491E-02 1.24823E-09-9.66943E-02 2.38980E-11 1.99327E-11
 -1     24516 9.82607E-02 3.50673E-02 5.29242E-10-9.72446E-02 2.80235E-11 2.05188E-11
 -1     24521 9.72891E-02 3.60389E-02 1.39524E-09-9.42544E-02 9.60495E-11 7.01716E-11
 -1     24522 8.19789E-02 5.13491E-02 1.26021E-09-9.66943E-02 1.33985E-10 1.13041E-10
 -1     24523 9.82607E-02 3.50673E-02 5.01088E-10-9.72446E-02 7.10083E-11 5.20449E-11
 -1     24528 9.72891E-02 3.60389E-02 1.36269E-09-9.42544E-02 2.45866E-10 1.79368E-10
 -1     24529 8.19789E-02 5.13491E-02 1.44283E-09-9.66943E-02 3.30282E-10 2.80005E-10
 -1     24530 9.82607E-02 3.50673E-02 4.98939E-10-9.72446E-02 9.46448E-11 6.94381E-11
 -1     24535 9.72891E-02 3.60389E-02 1.14366E-09-9.42544E-02 2.73587E-10 1.99697E-10
 -1     24536 8.19789E-02 5.13491E-02 1.87116E-09-9.66943E-02 4.24718E-10 3.60550E-10
 -1     24537 9.82607E-02 3.50673E-02 5.67391E-10-9.72446E-02 2.10093E-10 1.53343E-10
 -1     24542 9.72891E-02 3.60389E-02 1.24729E-09-9.42544E-02 5.02533E-10 3.65722E-10
 -1     24543 8.19789E-02 5.13491E-02 8.14374E-10-9.66943E-02 1.26722E-09 1.08060E-09
 -1     24544 9.82607E-02 3.50673E-02 1.23119E-10-9.72446E-02 1.51314E-10 1.10568E-10
 -1     24549 9.72891E-02 3.60389E-02 6.26427E-12-9.42544E-02 2.48885E-10 1.81064E-10
 -1     24553 1.24916E-01 8.41155E-03 5.56073E-12-8.01776E-02-2.73452E-10-1.38197E-10
 -1     24554 1.11109E-01 2.22185E-02 8.05397E-10-8.72292E-02-1.42063E-09-8.71339E-10
 -1     24555 1.26764E-01 6.56351E-03 1.22887E-10-8.27212E-02-1.66282E-10-8.33092E-11
 -1     24560 1.24916E-01 8.41155E-03 1.24700E-09-8.01776E-02-5.52497E-10-2.79628E-10
 -1     24561 1.11109E-01 2.22185E-02 1.86253E-09-8.72292E-02-4.75727E-10-2.92411E-10
 -1     24562 1.26764E-01 6.56351E-03 5.67744E-10-8.27212E-02-2.30681E-10-1.15940E-10
 -1     24567 1.24916E-01 8.41155E-03 1.14347E-09-8.01776E-02-3.00191E-10-1.51174E-10
 -1     24568 1.11109E-01 2.22185E-02 1.43499E-09-8.72292E-02-3.69724E-10-2.27462E-10
 -1     24569 1.26764E-01 6.56351E-03 4.99397E-10-8.27212E-02-1.03522E-10-5.14694E-11
 -1     24574 1.24916E-01 8.41155E-03 1.36274E-09-8.01776E-02-2.69809E-10-1.36217E-10
 -1     24575 1.11109E-01 2.22185E-02 1.25303E-09-8.72292E-02-1.49845E-10-9.24164E-11
 -1     24576 1.26764E-01 6.56351E-03 5.01706E-10-8.27212E-02-7.76640E-11-3.87789E-11
 -1     24581 1.24916E-01 8.41155E-03 1.39542E-09-8.01776E-02-1.05222E-10-5.29745E-11
 -1     24582 1.11109E-01 2.22185E-02 1.24137E-09-8.72292E-02-2.66629E-11-1.65497E-11
 -1     24583 1.26764E-01 6.56351E-03 5.29908E-10-8.27212E-02-3.06685E-11-1.53688E-11
 -1     24588 1.24916E-01 8.41155E-03 1.35392E-09-8.01776E-02-8.97135E-16-6.83623E-15
 -1     24589 1.11109E-01 2.22185E-02 1.24138E-09-8.72292E-02 2.66487E-11 1.65548E-11
 -1     24590 1.26764E-01 6.56351E-03 5.29915E-10-8.27212E-02 3.06625E-11 1.53602E-11
 -1     24595 1.24916E-01 8.41155E-03 1.39541E-09-8.01776E-02 1.05215E-10 5.29675E-11
 -1     24596 1.11109E-01 2.22185E-02 1.25302E-09-8.72292E-02 1.49843E-10 9.24048E-11
 -1     24597 1.26764E-01 6.56351E-03 5.01704E-10-8.27212E-02 7.76641E-11 3.87695E-11
 -1     24602 1.24916E-01 8.41155E-03 1.36273E-09-8.01776E-02 2.69804E-10 1.36204E-10
 -1     24603 1.11109E-01 2.22185E-02 1.43499E-09-8.72292E-02 3.69735E-10 2.27445E-10
 -1     24604 1.26764E-01 6.56351E-03 4.99392E-10-8.27212E-02 1.03524E-10 5.14705E-11
 -1     24609 1.24916E-01 8.41155E-03 1.14349E-09-8.01776E-02 3.00203E-10 1.51188E-10
 -1     24610 1.11109E-01 2.22185E-02 1.86254E-09-8.72292E-02 4.75736E-10 2.92413E-10
 -1     24611 1.26764E-01 6.56351E-03 5.67754E-10-8.27212E-02 2.30707E-10 1.15948E-10
 -1     24616 1.24916E-01 8.41155E-03 1.24702E-09-8.01776E-02 5.52517E-10 2.79651E-10
 -1     24617 1.11109E-01 2.22185E-02 8.05391E-10-8.72292E-02 1.42062E-09 8.71336E-10
 -1     24618 1.26764E-01 6.56351E-03 1.22895E-10-8.27212E-02 1.66293E-10 8.33215E-11
 -1     24623 1.24916E-01 8.41155E-03 5.57428E-12-8.01776E-02 2.73438E-10 1.38221E-10
 -1     24627 1.46842E-01-1.35136E-02-9.81761E-12-5.82524E-02-2.91330E-10-9.45461E-11
 -1     24628 1.35889E-01-2.56148E-03 8.13819E-10-6.92255E-02-1.53785E-09-6.38029E-10
 -1     24629 1.49385E-01-1.60572E-02 1.26807E-10-6.01005E-02-1.75244E-10-5.66846E-11
 -1     24634 1.46842E-01-1.35136E-02 1.23307E-09-5.82524E-02-5.87294E-10-1.90364E-10
 -1     24635 1.35889E-01-2.56148E-03 1.87038E-09-6.92255E-02-5.13657E-10-2.13946E-10
 -1     24636 1.49385E-01-1.60572E-02 5.71977E-10-6.01005E-02-2.43312E-10-7.86676E-11
 -1     24641 1.46842E-01-1.35136E-02 1.13022E-09-5.82524E-02-3.17260E-10-1.02660E-10
 -1     24642 1.35889E-01-2.56148E-03 1.44134E-09-6.92255E-02-3.98889E-10-1.66421E-10
 -1     24643 1.49385E-01-1.60572E-02 5.03612E-10-6.01005E-02-1.07871E-10-3.47087E-11
 -1     24648 1.46842E-01-1.35136E-02 1.35045E-09-5.82524E-02-2.85490E-10-9.23689E-11
 -1     24649 1.35889E-01-2.56149E-03 1.25815E-09-6.92255E-02-1.61152E-10-6.75447E-11
 -1     24650 1.49385E-01-1.60572E-02 5.05984E-10-6.01005E-02-8.11360E-11-2.61113E-11
 -1     24655 1.46842E-01-1.35136E-02 1.38366E-09-5.82524E-02-1.10953E-10-3.58006E-11
 -1     24656 1.35889E-01-2.56149E-03 1.24590E-09-6.92255E-02-2.84584E-11-1.20773E-11
 -1     24657 1.49385E-01-1.60572E-02 5.34218E-10-6.01005E-02-3.21150E-11-1.03424E-11
 -1     24662 1.46842E-01-1.35136E-02 1.34231E-09-5.82524E-02 1.33053E-14 3.55105E-15
 -1     24663 1.35889E-01-2.56149E-03 1.24591E-09-6.92255E-02 2.84454E-11 1.20755E-11
 -1     24664 1.49385E-01-1.60572E-02 5.34210E-10-6.01005E-02 3.21324E-11 1.03449E-11
 -1     24669 1.46842E-01-1.35136E-02 1.38369E-09-5.82524E-02 1.10964E-10 3.58080E-11
 -1     24670 1.35889E-01-2.56149E-03 1.25816E-09-6.92255E-02 1.61151E-10 6.75425E-11
 -1     24671 1.49385E-01-1.60572E-02 5.05993E-10-6.01005E-02 8.11441E-11 2.61129E-11
 -1     24676 1.46842E-01-1.35136E-02 1.35045E-09-5.82524E-02 2.85474E-10 9.23717E-11
 -1     24677 1.35889E-01-2.56148E-03 1.44134E-09-6.92255E-02 3.98897E-10 1.66418E-10
 -1     24678 1.49385E-01-1.60572E-02 5.03601E-10-6.01005E-02 1.07868E-10 3.47067E-11
 -1     24683 1.46842E-01-1.35136E-02 1.13022E-09-5.82524E-02 3.17256E-10 1.02653E-10
 -1     24684 1.35889E-01-2.56148E-03 1.87039E-09-6.92255E-02 5.13671E-10 2.13955E-10
 -1     24685 1.49385E-01-1.60572E-02 5.71972E-10-6.01005E-02 2.43301E-10 7.86673E-11
 -1     24690 1.46842E-01-1.35136E-02 1.23306E-09-5.82524E-02 5.87279E-10 1.90368E-10
 -1     24691 1.35889E-01-2.56148E-03 8.13818E-10-6.92255E-02 1.53783E-09 6.38033E-10
 -1     24692 1.49385E-01-1.60572E-02 1.26794E-10-6.01005E-02 1.75248E-10 5.66845E-11
 -1     24697 1.46842E-01-1.35136E-02-9.83350E-12-5.82524E-02 2.91354E-10 9.45462E-11
 -1     24701 1.60918E-01-2.75904E-02-2.79576E-12-3.06251E-02-3.02436E-10-4.92524E-11
 -1     24702 1.53893E-01-2.05652E-02 8.19719E-10-4.44455E-02-1.61847E-09-3.87919E-10
 -1     24703 1.63909E-01-3.05806E-02 1.24681E-10-3.15967E-02-1.82455E-10-3.06889E-11
 -1     24708 1.60918E-01-2.75904E-02 1.23909E-09-3.06251E-02-6.10469E-10-9.87898E-11
 -1     24709 1.53893E-01-2.05652E-02 1.87606E-09-4.44455E-02-5.40660E-10-1.28982E-10
 -1     24710 1.63909E-01-3.05806E-02 5.69534E-10-3.15967E-02-2.53529E-10-4.20561E-11
 -1     24715 1.60918E-01-2.75904E-02 1.13588E-09-3.06251E-02-3.30582E-10-5.45541E-11
 -1     24716 1.53893E-01-2.05652E-02 1.44657E-09-4.44455E-02-4.19965E-10-1.00110E-10
 -1     24717 1.63909E-01-3.05806E-02 5.01087E-10-3.15967E-02-1.12878E-10-1.94306E-11
 -1     24722 1.60918E-01-2.75904E-02 1.35562E-09-3.06251E-02-2.97411E-10-4.85956E-11
 -1     24723 1.53893E-01-2.05652E-02 1.26308E-09-4.44455E-02-1.69702E-10-4.02934E-11
 -1     24724 1.63909E-01-3.05806E-02 5.03368E-10-3.15967E-02-8.48564E-11-1.43663E-11
 -1     24729 1.60918E-01-2.75904E-02 1.38853E-09-3.06251E-02-1.15727E-10-1.90718E-11
 -1     24730 1.53893E-01-2.05652E-02 1.25069E-09-4.44455E-02-3.00081E-11-7.04904E-12
 -1     24731 1.63909E-01-3.05806E-02 5.31578E-10-3.15967E-02-3.35739E-11-5.62440E-12
 -1     24736 1.60918E-01-2.75904E-02 1.34709E-09-3.06251E-02 1.06023E-14-5.70022E-16
 -1     24737 1.53893E-01-2.05652E-02 1.25070E-09-4.44455E-02 3.00038E-11 7.04911E-12
 -1     24738 1.63909E-01-3.05806E-02 5.31587E-10-3.15967E-02 3.35832E-11 5.62255E-12
 -1     24743 1.60918E-01-2.75904E-02 1.38851E-09-3.06251E-02 1.15723E-10 1.90678E-11
 -1     24744 1.53893E-01-2.05652E-02 1.26308E-09-4.44455E-02 1.69697E-10 4.02971E-11
 -1     24745 1.63909E-01-3.05806E-02 5.03371E-10-3.15967E-02 8.48678E-11 1.43648E-11
 -1     24750 1.60918E-01-2.75904E-02 1.35561E-09-3.06251E-02 2.97396E-10 4.85907E-11
 -1     24751 1.53893E-01-2.05652E-02 1.44657E-09-4.44455E-02 4.19975E-10 1.00115E-10
 -1     24752 1.63909E-01-3.05806E-02 5.01097E-10-3.15967E-02 1.12880E-10 1.94258E-11
 -1     24757 1.60918E-01-2.75904E-02 1.13588E-09-3.06251E-02 3.30562E-10 5.45506E-11
 -1     24758 1.53893E-01-2.05652E-02 1.87606E-09-4.44455E-02 5.40663E-10 1.28985E-10
 -1     24759 1.63909E-01-3.05806E-02 5.69543E-10-3.15967E-02 2.53526E-10 4.20539E-11
 -1     24764 1.60918E-01-2.75904E-02 1.23910E-09-3.06251E-02 6.10475E-10 9.87858E-11
 -1     24765 1.53893E-01-2.05652E-02 8.19719E-10-4.44455E-02 1.61846E-09 3.87918E-10
 -1     24766 1.63909E-01-3.05806E-02 1.24694E-10-3.15967E-02 1.82456E-10 3.06912E-11
 -1     24771 1.60918E-01-2.75904E-02-2.76118E-12-3.06251E-02 3.02446E-10 4.92550E-11
 -1     24775 1.63358E-01-3.00303E-02 8.07991E-10-1.53149E-02-1.66166E-09-1.29189E-10
 -1     24779 1.63358E-01-3.00303E-02 1.86510E-09-1.53149E-02-5.57227E-10-4.18629E-11
 -1     24783 1.63358E-01-3.00303E-02 1.43769E-09-1.53149E-02-4.33345E-10-3.21936E-11
 -1     24787 1.63358E-01-3.00303E-02 1.25595E-09-1.53149E-02-1.75962E-10-1.25677E-11
 -1     24791 1.63358E-01-3.00303E-02 1.24446E-09-1.53149E-02-3.14625E-11-2.02604E-12
 -1     24795 1.63358E-01-3.00303E-02 1.24447E-09-1.53149E-02 3.14661E-11 2.02871E-12
 -1     24799 1.63358E-01-3.00303E-02 1.25596E-09-1.53149E-02 1.75967E-10 1.25704E-11
 -1     24803 1.63358E-01-3.00303E-02 1.43770E-09-1.53149E-02 4.33348E-10 3.21933E-11
 -1     24807 1.63358E-01-3.00303E-02 1.86510E-09-1.53149E-02 5.57234E-10 4.18654E-11
 -1     24811 1.63358E-01-3.00303E-02 8.08008E-10-1.53149E-02 1.66165E-09 1.29190E-10
 -1     24817-2.21300E-02 1.55458E-01-3.40858E-09-2.88509E-02 1.64681E-10 1.04064E-09
 -1     24818-2.44285E-02 1.57756E-01-3.94587E-09-1.44276E-02 2.36960E-10 3.01021E-09
 -1     24819-2.48604E-02 1.58188E-01 2.36031E-10-2.97381E-02 1.30252E-10 8.23511E-10
 -1     24824-2.21300E-02 1.55458E-01-3.45144E-09-2.88509E-02 1.52987E-10 9.65955E-10
 -1     24825-2.44285E-02 1.57756E-01-6.72051E-09-1.44276E-02 1.71107E-10 2.17309E-09
 -1     24826-2.48604E-02 1.58188E-01-1.19537E-09-2.97381E-02-8.53967E-12-5.30965E-11
 -1     24831-2.21300E-02 1.55458E-01-5.11395E-09-2.88509E-02 1.38115E-10 8.72674E-10
 -1     24832-2.44285E-02 1.57756E-01-5.30176E-09-1.44276E-02 2.74041E-11 3.47427E-10
 -1     24833-2.48604E-02 1.58188E-01-6.85721E-10-2.97381E-02-1.57775E-11-9.87317E-11
 -1     24838-2.21300E-02 1.55458E-01-4.98171E-09-2.88509E-02 1.00005E-11 6.42575E-11
 -1     24839-2.44285E-02 1.57756E-01-4.44863E-09-1.44276E-02-1.67408E-11-2.13353E-10
 -1     24840-2.48604E-02 1.58188E-01-5.06664E-10-2.97381E-02-2.06332E-11-1.29584E-10
 -1     24845-2.21300E-02 1.55458E-01-4.53594E-09-2.88509E-02-1.61473E-11-1.01167E-10
 -1     24846-2.44285E-02 1.57756E-01-4.06055E-09-1.44276E-02-6.92374E-12-8.82319E-11
 -1     24847-2.48604E-02 1.58188E-01-4.99543E-10-2.97381E-02-1.06460E-11-6.69484E-11
 -1     24852-2.21300E-02 1.55458E-01-4.45096E-09-2.88509E-02 2.41240E-15-4.41495E-15
 -1     24853-2.44285E-02 1.57756E-01-4.06055E-09-1.44276E-02 6.92628E-12 8.82406E-11
 -1     24854-2.48604E-02 1.58188E-01-4.99547E-10-2.97381E-02 1.06504E-11 6.69464E-11
 -1     24859-2.21300E-02 1.55458E-01-4.53593E-09-2.88509E-02 1.61436E-11 1.01167E-10
 -1     24860-2.44285E-02 1.57756E-01-4.44863E-09-1.44276E-02 1.67437E-11 2.13362E-10
 -1     24861-2.48604E-02 1.58188E-01-5.06652E-10-2.97381E-02 2.06323E-11 1.29564E-10
 -1     24866-2.21300E-02 1.55458E-01-4.98169E-09-2.88509E-02-1.00046E-11-6.42799E-11
 -1     24867-2.44285E-02 1.57756E-01-5.30176E-09-1.44276E-02-2.74029E-11-3.47433E-10
 -1     24868-2.48604E-02 1.58188E-01-6.85717E-10-2.97381E-02 1.57744E-11 9.87118E-11
 -1     24873-2.21300E-02 1.55458E-01-5.11396E-09-2.88509E-02-1.38117E-10-8.72679E-10
 -1     24874-2.44285E-02 1.57756E-01-6.72050E-09-1.44276E-02-1.71103E-10-2.17308E-09
 -1     24875-2.48604E-02 1.58188E-01-1.19537E-09-2.97381E-02 8.53681E-12 5.31076E-11
 -1     24880-2.21300E-02 1.55458E-01-3.45143E-09-2.88509E-02-1.52989E-10-9.65963E-10
 -1     24881-2.44285E-02 1.57756E-01-3.94586E-09-1.44276E-02-2.36960E-10-3.01021E-09
 -1     24882-2.48604E-02 1.58188E-01 2.36034E-10-2.97381E-02-1.30255E-10-8.23508E-10
 -1     24887-2.21300E-02 1.55458E-01-3.40856E-09-2.88509E-02-1.64683E-10-1.04063E-09
 -1     24891-8.86871E-03 1.42197E-01-3.40791E-09-5.48777E-02 3.25477E-10 1.00214E-09
 -1     24892-1.55117E-02 1.48840E-01-3.94326E-09-4.18706E-02 7.05035E-10 2.93643E-09
 -1     24893-1.11913E-02 1.44519E-01 2.36491E-10-5.65652E-02 2.57953E-10 7.93297E-10
 -1     24898-8.86871E-03 1.42197E-01-3.45092E-09-5.48777E-02 3.02997E-10 9.30092E-10
 -1     24899-1.55117E-02 1.48840E-01-6.71806E-09-4.18706E-02 5.09055E-10 2.11984E-09
 -1     24900-1.11913E-02 1.44519E-01-1.19508E-09-5.65652E-02-1.60177E-11-5.08321E-11
 -1     24905-8.86871E-03 1.42197E-01-5.11369E-09-5.48777E-02 2.73771E-10 8.40373E-10
 -1     24906-1.55117E-02 1.48840E-01-5.29942E-09-4.18706E-02 8.14599E-11 3.39044E-10
 -1     24907-1.11913E-02 1.44519E-01-6.85527E-10-5.65652E-02-3.03763E-11-9.47900E-11
 -1     24912-8.86871E-03 1.42197E-01-4.98155E-09-5.48777E-02 2.05960E-11 6.19708E-11
 -1     24913-1.55117E-02 1.48840E-01-4.44639E-09-4.18706E-02-4.98750E-11-2.08009E-10
 -1     24914-1.11913E-02 1.44519E-01-5.06565E-10-5.65652E-02-4.02089E-11-1.24571E-10
 -1     24919-8.86871E-03 1.42197E-01-4.53590E-09-5.48777E-02-3.14049E-11-9.73347E-11
 -1     24920-1.55117E-02 1.48840E-01-4.05834E-09-4.18706E-02-2.06346E-11-8.60378E-11
 -1     24921-1.11913E-02 1.44519E-01-4.99504E-10-5.65652E-02-2.08376E-11-6.44068E-11
 -1     24926-8.86871E-03 1.42197E-01-4.45097E-09-5.48777E-02-5.86459E-15 4.09998E-15
 -1     24927-1.55117E-02 1.48840E-01-4.05834E-09-4.18706E-02 2.06289E-11 8.60314E-11
 -1     24928-1.11913E-02 1.44519E-01-4.99487E-10-5.65652E-02 2.08303E-11 6.43900E-11
 -1     24933-8.86871E-03 1.42197E-01-4.53589E-09-5.48777E-02 3.14035E-11 9.73291E-11
 -1     24934-1.55117E-02 1.48840E-01-4.44639E-09-4.18706E-02 4.98728E-11 2.08021E-10
 -1     24935-1.11913E-02 1.44519E-01-5.06562E-10-5.65652E-02 4.02055E-11 1.24576E-10
 -1     24940-8.86871E-03 1.42197E-01-4.98155E-09-5.48777E-02-2.05936E-11-6.19762E-11
 -1     24941-1.55117E-02 1.48840E-01-5.29942E-09-4.18706E-02-8.14623E-11-3.39059E-10
 -1     24942-1.11913E-02 1.44519E-01-6.85533E-10-5.65652E-02 3.03744E-11 9.47845E-11
 -1     24947-8.86871E-03 1.42197E-01-5.11368E-09-5.48777E-02-2.73765E-10-8.40403E-10
 -1     24948-1.55117E-02 1.48840E-01-6.71805E-09-4.18706E-02-5.09056E-10-2.11984E-09
 -1     24949-1.11913E-02 1.44519E-01-1.19508E-09-5.65652E-02 1.60130E-11 5.08076E-11
 -1     24954-8.86871E-03 1.42197E-01-3.45091E-09-5.48777E-02-3.02999E-10-9.30107E-10
 -1     24955-1.55117E-02 1.48840E-01-3.94326E-09-4.18706E-02-7.05040E-10-2.93644E-09
 -1     24956-1.11913E-02 1.44519E-01 2.36490E-10-5.65652E-02-2.57950E-10-7.93333E-10
 -1     24961-8.86871E-03 1.42197E-01-3.40791E-09-5.48777E-02-3.25474E-10-1.00215E-09
 -1     24965 1.17863E-02 1.21542E-01-3.39697E-09-7.55327E-02 4.78815E-10 9.40087E-10
 -1     24966 1.44898E-03 1.31879E-01-3.94700E-09-6.52150E-02 1.15533E-09 2.78995E-09
 -1     24967 1.00988E-02 1.23229E-01 2.32812E-10-7.78553E-02 3.78106E-10 7.42250E-10
 -1     24972 1.17863E-02 1.21542E-01-3.44095E-09-7.55327E-02 4.44461E-10 8.71480E-10
 -1     24973 1.44898E-03 1.31879E-01-6.72126E-09-6.52150E-02 8.33796E-10 2.01412E-09
 -1     24974 1.00988E-02 1.23229E-01-1.19810E-09-7.78553E-02-2.46026E-11-4.88531E-11
 -1     24979 1.17863E-02 1.21542E-01-5.10433E-09-7.55327E-02 4.01455E-10 7.86898E-10
 -1     24980 1.44898E-03 1.31879E-01-5.30227E-09-6.52150E-02 1.32912E-10 3.22193E-10
 -1     24981 1.00988E-02 1.23229E-01-6.88352E-10-7.78553E-02-4.55249E-11-8.99280E-11
 -1     24986 1.17863E-02 1.21542E-01-4.97263E-09-7.55327E-02 2.96697E-11 5.76552E-11
 -1     24987 1.44898E-03 1.31879E-01-4.44907E-09-6.52150E-02-8.22092E-11-1.97568E-10
 -1     24988 1.00988E-02 1.23229E-01-5.09352E-10-7.78553E-02-5.96336E-11-1.17461E-10
 -1     24993 1.17863E-02 1.21542E-01-4.52740E-09-7.55327E-02-4.64214E-11-9.14265E-11
 -1     24994 1.44898E-03 1.31879E-01-4.06091E-09-6.52150E-02-3.39852E-11-8.17223E-11
 -1     24995 1.00988E-02 1.23229E-01-5.02288E-10-7.78553E-02-3.08005E-11-6.06026E-11
 -1     25000 1.17863E-02 1.21542E-01-4.44267E-09-7.55327E-02 2.86456E-15-9.48045E-15
 -1     25001 1.44898E-03 1.31879E-01-4.06092E-09-6.52150E-02 3.39903E-11 8.17156E-11
 -1     25002 1.00988E-02 1.23229E-01-5.02299E-10-7.78553E-02 3.07963E-11 6.05984E-11
 -1     25007 1.17863E-02 1.21542E-01-4.52740E-09-7.55327E-02 4.64153E-11 9.14280E-11
 -1     25008 1.44898E-03 1.31879E-01-4.44907E-09-6.52150E-02 8.22145E-11 1.97578E-10
 -1     25009 1.00988E-02 1.23229E-01-5.09346E-10-7.78553E-02 5.96372E-11 1.17463E-10
 -1     25014 1.17863E-02 1.21542E-01-4.97264E-09-7.55327E-02-2.96715E-11-5.76536E-11
 -1     25015 1.44898E-03 1.31879E-01-5.30227E-09-6.52150E-02-1.32906E-10-3.22212E-10
 -1     25016 1.00988E-02 1.23229E-01-6.88365E-10-7.78553E-02 4.55321E-11 8.99224E-11
 -1     25021 1.17863E-02 1.21542E-01-5.10434E-09-7.55327E-02-4.01459E-10-7.86898E-10
 -1     25022 1.44898E-03 1.31879E-01-6.72126E-09-6.52150E-02-8.33802E-10-2.01414E-09
 -1     25023 1.00988E-02 1.23229E-01-1.19810E-09-7.78553E-02 2.45964E-11 4.88644E-11
 -1     25028 1.17863E-02 1.21542E-01-3.44095E-09-7.55327E-02-4.44470E-10-8.71453E-10
 -1     25029 1.44898E-03 1.31879E-01-3.94700E-09-6.52150E-02-1.15534E-09-2.78995E-09
 -1     25030 1.00988E-02 1.23229E-01 2.32802E-10-7.78553E-02-3.78113E-10-7.42239E-10
 -1     25035 1.17863E-02 1.21542E-01-3.39697E-09-7.55327E-02-4.78823E-10-9.40080E-10
 -1     25039 3.78131E-02 9.55149E-02-3.40951E-09-8.87940E-02 6.19229E-10 8.52310E-10
 -1     25040 2.47934E-02 1.08535E-01-3.95459E-09-8.21757E-02 1.57756E-09 2.57343E-09
 -1     25041 3.69259E-02 9.64021E-02 2.36377E-10-9.15244E-02 4.88937E-10 6.75346E-10
 -1     25046 3.78131E-02 9.55149E-02-3.45247E-09-8.87940E-02 5.73762E-10 7.91993E-10
 -1     25047 2.47934E-02 1.08535E-01-6.72842E-09-8.21757E-02 1.13923E-09 1.85764E-09
 -1     25048 3.69259E-02 9.64021E-02-1.19463E-09-9.15244E-02-3.28413E-11-4.27635E-11
 -1     25053 3.78131E-02 9.55149E-02-5.11415E-09-8.87940E-02 5.17910E-10 7.15469E-10
 -1     25054 2.47934E-02 1.08535E-01-5.30947E-09-8.21757E-02 1.82332E-10 2.96619E-10
 -1     25055 3.69259E-02 9.64021E-02-6.84835E-10-9.15244E-02-5.99538E-11-8.02426E-11
 -1     25060 3.78131E-02 9.55149E-02-4.98149E-09-8.87940E-02 3.69760E-11 5.33795E-11
 -1     25061 2.47934E-02 1.08535E-01-4.45641E-09-8.21757E-02-1.11592E-10-1.82765E-10
 -1     25062 3.69259E-02 9.64021E-02-5.05863E-10-9.15244E-02-7.78820E-11-1.05674E-10
 -1     25067 3.78131E-02 9.55149E-02-4.53569E-09-8.87940E-02-6.08683E-11-8.24078E-11
 -1     25068 2.47934E-02 1.08535E-01-4.06831E-09-8.21757E-02-4.61695E-11-7.55581E-11
 -1     25069 3.69259E-02 9.64021E-02-4.98812E-10-9.15244E-02-4.01200E-11-5.46711E-11
 -1     25074 3.78131E-02 9.55149E-02-4.45078E-09-8.87940E-02-1.52328E-14-1.40524E-14
 -1     25075 2.47934E-02 1.08535E-01-4.06831E-09-8.21757E-02 4.61642E-11 7.55580E-11
 -1     25076 3.69259E-02 9.64021E-02-4.98814E-10-9.15244E-02 4.01041E-11 5.46588E-11
 -1     25081 3.78131E-02 9.55149E-02-4.53571E-09-8.87940E-02 6.08466E-11 8.23962E-11
 -1     25082 2.47934E-02 1.08535E-01-4.45641E-09-8.21757E-02 1.11592E-10 1.82761E-10
 -1     25083 3.69259E-02 9.64021E-02-5.05857E-10-9.15244E-02 7.78732E-11 1.05661E-10
 -1     25088 3.78131E-02 9.55149E-02-4.98149E-09-8.87940E-02-3.70007E-11-5.33878E-11
 -1     25089 2.47934E-02 1.08535E-01-5.30947E-09-8.21757E-02-1.82339E-10-2.96626E-10
 -1     25090 3.69259E-02 9.64021E-02-6.84811E-10-9.15244E-02 5.99283E-11 8.02336E-11
 -1     25095 3.78131E-02 9.55149E-02-5.11414E-09-8.87940E-02-5.17919E-10-7.15483E-10
 -1     25096 2.47934E-02 1.08535E-01-6.72842E-09-8.21757E-02-1.13924E-09-1.85764E-09
 -1     25097 3.69259E-02 9.64021E-02-1.19462E-09-9.15244E-02 3.28386E-11 4.27695E-11
 -1     25102 3.78131E-02 9.55149E-02-3.45247E-09-8.87940E-02-5.73756E-10-7.91996E-10
 -1     25103 2.47934E-02 1.08535E-01-3.95459E-09-8.21757E-02-1.57758E-09-2.57343E-09
 -1     25104 3.69259E-02 9.64021E-02 2.36382E-10-9.15244E-02-4.88934E-10-6.75358E-10
 -1     25109 3.78131E-02 9.55149E-02-3.40952E-09-8.87940E-02-6.19233E-10-8.52305E-10
 -1     25113 6.66640E-02 6.66640E-02-3.42082E-09-9.33635E-02 7.44922E-10 7.45526E-10
 -1     25114 5.22364E-02 8.10916E-02-3.93329E-09-9.10925E-02 1.96328E-09 2.29743E-09
 -1     25115 6.66640E-02 6.66640E-02 2.41461E-10-9.62344E-02 5.92542E-10 5.91249E-10
 -1     25120 6.66640E-02 6.66640E-02-3.46255E-09-9.33635E-02 6.94945E-10 6.91650E-10
 -1     25121 5.22364E-02 8.10916E-02-6.71005E-09-9.10925E-02 1.41856E-09 1.65840E-09
 -1     25122 6.66640E-02 6.66640E-02-1.19099E-09-9.62344E-02-3.43276E-11-3.63252E-11
 -1     25127 6.66640E-02 6.66640E-02-5.12314E-09-9.33635E-02 6.27700E-10 6.25974E-10
 -1     25128 5.22364E-02 8.10916E-02-5.29252E-09-9.10925E-02 2.28699E-10 2.65761E-10
 -1     25129 6.66640E-02 6.66640E-02-6.81005E-10-9.62344E-02-6.76510E-11-6.89823E-11
 -1     25134 6.66640E-02 6.66640E-02-4.98963E-09-9.33635E-02 4.83353E-11 4.72590E-11
 -1     25135 5.22364E-02 8.10916E-02-4.44027E-09-9.10925E-02-1.37423E-10-1.62369E-10
 -1     25136 6.66640E-02 6.66640E-02-5.01836E-10-9.62344E-02-9.07595E-11-9.15653E-11
 -1     25141 6.66640E-02 6.66640E-02-4.54311E-09-9.33635E-02-7.10975E-11-7.16961E-11
 -1     25142 5.22364E-02 8.10916E-02-4.05251E-09-9.10925E-02-5.69551E-11-6.72041E-11
 -1     25143 6.66640E-02 6.66640E-02-4.94627E-10-9.62344E-02-4.72247E-11-4.74948E-11
 -1     25148 6.66640E-02 6.66640E-02-4.45788E-09-9.33635E-02 7.52063E-15 1.11278E-14
 -1     25149 5.22364E-02 8.10916E-02-4.05252E-09-9.10925E-02 5.69498E-11 6.71956E-11
 -1     25150 6.66640E-02 6.66640E-02-4.94639E-10-9.62344E-02 4.72272E-11 4.75210E-11
 -1     25155 6.66640E-02 6.66640E-02-4.54312E-09-9.33635E-02 7.11319E-11 7.16973E-11
 -1     25156 5.22364E-02 8.10916E-02-4.44026E-09-9.10925E-02 1.37422E-10 1.62359E-10
 -1     25157 6.66640E-02 6.66640E-02-5.01844E-10-9.62344E-02 9.07826E-11 9.15944E-11
 -1     25162 6.66640E-02 6.66640E-02-4.98963E-09-9.33635E-02-4.83190E-11-4.72489E-11
 -1     25163 5.22364E-02 8.10916E-02-5.29251E-09-9.10925E-02-2.28705E-10-2.65762E-10
 -1     25164 6.66640E-02 6.66640E-02-6.81019E-10-9.62344E-02 6.76873E-11 6.90029E-11
 -1     25169 6.66640E-02 6.66640E-02-5.12314E-09-9.33635E-02-6.27688E-10-6.25945E-10
 -1     25170 5.22364E-02 8.10916E-02-6.71004E-09-9.10925E-02-1.41855E-09-1.65840E-09
 -1     25171 6.66640E-02 6.66640E-02-1.19099E-09-9.62344E-02 3.43542E-11 3.63198E-11
 -1     25176 6.66640E-02 6.66640E-02-3.46257E-09-9.33635E-02-6.94934E-10-6.91658E-10
 -1     25177 5.22364E-02 8.10916E-02-3.93329E-09-9.10925E-02-1.96329E-09-2.29743E-09
 -1     25178 6.66640E-02 6.66640E-02 2.41462E-10-9.62344E-02-5.92533E-10-5.91264E-10
 -1     25183 6.66640E-02 6.66640E-02-3.42081E-09-9.33635E-02-7.44917E-10-7.45523E-10
 -1     25187 9.55149E-02 3.78131E-02-3.38636E-09-8.87940E-02 8.53245E-10 6.20135E-10
 -1     25188 8.10916E-02 5.22364E-02-3.94555E-09-9.10925E-02 2.29453E-09 1.96299E-09
 -1     25189 9.64021E-02 3.69259E-02 2.29562E-10-9.15244E-02 6.72346E-10 4.87166E-10
 -1     25194 9.55149E-02 3.78131E-02-3.43113E-09-8.87940E-02 7.89673E-10 5.70827E-10
 -1     25195 8.10916E-02 5.22364E-02-6.71948E-09-9.10925E-02 1.65509E-09 1.41822E-09
 -1     25196 9.64021E-02 3.69259E-02-1.19976E-09-9.15244E-02-4.61605E-11-3.56424E-11
 -1     25201 9.55149E-02 3.78131E-02-5.09579E-09-8.87940E-02 7.12543E-10 5.15572E-10
 -1     25202 8.10916E-02 5.22364E-02-5.30042E-09-9.10925E-02 2.62743E-10 2.28536E-10
 -1     25203 9.64021E-02 3.69259E-02-6.90730E-10-9.15244E-02-8.33338E-11-6.21828E-11
 -1     25208 9.55149E-02 3.78131E-02-4.96522E-09-8.87940E-02 5.08628E-11 3.53335E-11
 -1     25209 8.10916E-02 5.22364E-02-4.44744E-09-9.10925E-02-1.64309E-10-1.37453E-10
 -1     25210 9.64021E-02 3.69259E-02-5.12229E-10-9.15244E-02-1.07760E-10-7.94153E-11
 -1     25215 9.55149E-02 3.78131E-02-4.52078E-09-8.87940E-02-8.37287E-11-6.18046E-11
 -1     25216 8.10916E-02 5.22364E-02-4.05941E-09-9.10925E-02-6.78631E-11-5.69324E-11
 -1     25217 9.64021E-02 3.69259E-02-5.05465E-10-9.15244E-02-5.53957E-11-4.06406E-11
 -1     25222 9.55149E-02 3.78131E-02-4.43639E-09-8.87940E-02-3.20506E-15-2.72245E-15
 -1     25223 8.10916E-02 5.22364E-02-4.05941E-09-9.10925E-02 6.78555E-11 5.69427E-11
 -1     25224 9.64021E-02 3.69259E-02-5.05469E-10-9.15244E-02 5.53893E-11 4.06421E-11
 -1     25229 9.55149E-02 3.78131E-02-4.52078E-09-8.87940E-02 8.37145E-11 6.17976E-11
 -1     25230 8.10916E-02 5.22364E-02-4.44744E-09-9.10925E-02 1.64299E-10 1.37460E-10
 -1     25231 9.64021E-02 3.69259E-02-5.12230E-10-9.15244E-02 1.07736E-10 7.93999E-11
 -1     25236 9.55149E-02 3.78131E-02-4.96523E-09-8.87940E-02-5.08699E-11-3.53403E-11
 -1     25237 8.10916E-02 5.22364E-02-5.30042E-09-9.10925E-02-2.62745E-10-2.28522E-10
 -1     25238 9.64021E-02 3.69259E-02-6.90735E-10-9.15244E-02 8.33365E-11 6.21665E-11
 -1     25243 9.55149E-02 3.78131E-02-5.09579E-09-8.87940E-02-7.12542E-10-5.15575E-10
 -1     25244 8.10916E-02 5.22364E-02-6.71948E-09-9.10925E-02-1.65509E-09-1.41821E-09
 -1     25245 9.64021E-02 3.69259E-02-1.19975E-09-9.15244E-02 4.61611E-11 3.56333E-11
 -1     25250 9.55149E-02 3.78131E-02-3.43112E-09-8.87940E-02-7.89675E-10-5.70834E-10
 -1     25251 8.10916E-02 5.22364E-02-3.94555E-09-9.10925E-02-2.29453E-09-1.96299E-09
 -1     25252 9.64021E-02 3.69259E-02 2.29555E-10-9.15244E-02-6.72359E-10-4.87175E-10
 -1     25257 9.55149E-02 3.78131E-02-3.38636E-09-8.87940E-02-8.53248E-10-6.20134E-10
 -1     25261 1.21542E-01 1.17863E-02-3.39230E-09-7.55327E-02 9.41167E-10 4.78899E-10
 -1     25262 1.08535E-01 2.47934E-02-3.96787E-09-8.21757E-02 2.57230E-09 1.57506E-09
 -1     25263 1.23229E-01 1.00988E-02 2.31927E-10-7.78553E-02 7.40937E-10 3.80253E-10
 -1     25268 1.21542E-01 1.17863E-02-3.43635E-09-7.55327E-02 8.69972E-10 4.46992E-10
 -1     25269 1.08535E-01 2.47934E-02-6.73878E-09-8.21757E-02 1.85663E-09 1.13563E-09
 -1     25270 1.23229E-01 1.00988E-02-1.19832E-09-7.78553E-02-5.02811E-11-2.26081E-11
 -1     25275 1.21542E-01 1.17863E-02-5.09893E-09-7.55327E-02 7.85717E-10 4.03401E-10
 -1     25276 1.08535E-01 2.47934E-02-5.31809E-09-8.21757E-02 2.95503E-10 1.79512E-10
 -1     25277 1.23229E-01 1.00988E-02-6.88454E-10-7.78553E-02-9.10602E-11-4.38900E-11
 -1     25282 1.21542E-01 1.17863E-02-4.96765E-09-7.55327E-02 5.69145E-11 3.14393E-11
 -1     25283 1.08535E-01 2.47934E-02-4.46430E-09-8.21757E-02-1.83384E-10-1.13444E-10
 -1     25284 1.23229E-01 1.00988E-02-5.09427E-10-7.78553E-02-1.18110E-10-5.86375E-11
 -1     25289 1.21542E-01 1.17863E-02-4.52259E-09-7.55327E-02-9.17735E-11-4.55867E-11
 -1     25290 1.08535E-01 2.47934E-02-4.07594E-09-8.21757E-02-7.57570E-11-4.67918E-11
 -1     25291 1.23229E-01 1.00988E-02-5.02356E-10-7.78553E-02-6.07950E-11-3.04832E-11
 -1     25296 1.21542E-01 1.17863E-02-4.43792E-09-7.55327E-02-8.12641E-15-7.51021E-15
 -1     25297 1.08535E-01 2.47934E-02-4.07594E-09-8.21757E-02 7.57524E-11 4.67847E-11
 -1     25298 1.23229E-01 1.00988E-02-5.02358E-10-7.78553E-02 6.07780E-11 3.04750E-11
 -1     25303 1.21542E-01 1.17863E-02-4.52259E-09-7.55327E-02 9.17645E-11 4.55780E-11
 -1     25304 1.08535E-01 2.47934E-02-4.46431E-09-8.21757E-02 1.83379E-10 1.13442E-10
 -1     25305 1.23229E-01 1.00988E-02-5.09423E-10-7.78553E-02 1.18108E-10 5.86267E-11
 -1     25310 1.21542E-01 1.17863E-02-4.96765E-09-7.55327E-02-5.69237E-11-3.14539E-11
 -1     25311 1.08535E-01 2.47934E-02-5.31810E-09-8.21757E-02-2.95509E-10-1.79516E-10
 -1     25312 1.23229E-01 1.00988E-02-6.88446E-10-7.78553E-02 9.10519E-11 4.38798E-11
 -1     25317 1.21542E-01 1.17863E-02-5.09894E-09-7.55327E-02-7.85722E-10-4.03404E-10
 -1     25318 1.08535E-01 2.47934E-02-6.73878E-09-8.21757E-02-1.85662E-09-1.13563E-09
 -1     25319 1.23229E-01 1.00988E-02-1.19832E-09-7.78553E-02 5.02875E-11 2.26244E-11
 -1     25324 1.21542E-01 1.17863E-02-3.43636E-09-7.55327E-02-8.69974E-10-4.46994E-10
 -1     25325 1.08535E-01 2.47934E-02-3.96787E-09-8.21757E-02-2.57230E-09-1.57506E-09
 -1     25326 1.23229E-01 1.00988E-02 2.31926E-10-7.78553E-02-7.40953E-10-3.80246E-10
 -1     25331 1.21542E-01 1.17863E-02-3.39230E-09-7.55327E-02-9.41156E-10-4.78902E-10
 -1     25335 1.42197E-01-8.86871E-03-3.43115E-09-5.48777E-02 1.00092E-09 3.25115E-10
 -1     25336 1.31879E-01 1.44898E-03-3.94032E-09-6.52150E-02 2.79209E-09 1.15451E-09
 -1     25337 1.44519E-01-1.11913E-02 2.44377E-10-5.65652E-02 7.96219E-10 2.59603E-10
 -1     25342 1.42197E-01-8.86871E-03-3.47182E-09-5.48777E-02 9.31858E-10 3.03571E-10
 -1     25343 1.31879E-01 1.44898E-03-6.71674E-09-6.52150E-02 2.01679E-09 8.32173E-10
 -1     25344 1.44519E-01-1.11913E-02-1.18761E-09-5.65652E-02-4.73880E-11-1.44311E-11
 -1     25349 1.42197E-01-8.86871E-03-5.12951E-09-5.48777E-02 8.42485E-10 2.75084E-10
 -1     25350 1.31879E-01 1.44898E-03-5.29878E-09-6.52150E-02 3.24546E-10 1.31860E-10
 -1     25351 1.44519E-01-1.11913E-02-6.77299E-10-5.65652E-02-9.17523E-11-2.87917E-11
 -1     25356 1.42197E-01-8.86871E-03-4.99576E-09-5.48777E-02 6.42584E-11 2.19984E-11
 -1     25357 1.31879E-01 1.44898E-03-4.44647E-09-6.52150E-02-1.95985E-10-8.29403E-11
 -1     25358 1.44519E-01-1.11913E-02-4.98055E-10-5.65652E-02-1.22424E-10-3.91212E-11
 -1     25363 1.42197E-01-8.86871E-03-4.54891E-09-5.48777E-02-9.60500E-11-3.06822E-11
 -1     25364 1.31879E-01 1.44898E-03-4.05878E-09-6.52150E-02-8.11741E-11-3.42258E-11
 -1     25365 1.44519E-01-1.11913E-02-4.90804E-10-5.65652E-02-6.36384E-11-2.04539E-11
 -1     25370 1.42197E-01-8.86871E-03-4.46351E-09-5.48777E-02-8.78954E-15 4.22294E-15
 -1     25371 1.31879E-01 1.44898E-03-4.05880E-09-6.52150E-02 8.11742E-11 3.42341E-11
 -1     25372 1.44519E-01-1.11913E-02-4.90813E-10-5.65652E-02 6.36454E-11 2.04610E-11
 -1     25377 1.42197E-01-8.86871E-03-4.54891E-09-5.48777E-02 9.60661E-11 3.06922E-11
 -1     25378 1.31879E-01 1.44898E-03-4.44647E-09-6.52150E-02 1.95987E-10 8.29421E-11
 -1     25379 1.44519E-01-1.11913E-02-4.98064E-10-5.65652E-02 1.22416E-10 3.91320E-11
 -1     25384 1.42197E-01-8.86871E-03-4.99576E-09-5.48777E-02-6.42574E-11-2.19857E-11
 -1     25385 1.31879E-01 1.44898E-03-5.29877E-09-6.52150E-02-3.24548E-10-1.31859E-10
 -1     25386 1.44519E-01-1.11913E-02-6.77300E-10-5.65652E-02 9.17575E-11 2.87993E-11
 -1     25391 1.42197E-01-8.86871E-03-5.12949E-09-5.48777E-02-8.42465E-10-2.75071E-10
 -1     25392 1.31879E-01 1.44898E-03-6.71674E-09-6.52150E-02-2.01679E-09-8.32172E-10
 -1     25393 1.44519E-01-1.11913E-02-1.18760E-09-5.65652E-02 4.73932E-11 1.44297E-11
 -1     25398 1.42197E-01-8.86871E-03-3.47180E-09-5.48777E-02-9.31840E-10-3.03572E-10
 -1     25399 1.31879E-01 1.44898E-03-3.94032E-09-6.52150E-02-2.79208E-09-1.15451E-09
 -1     25400 1.44519E-01-1.11913E-02 2.44383E-10-5.65652E-02-7.96222E-10-2.59604E-10
 -1     25405 1.42197E-01-8.86871E-03-3.43114E-09-5.48777E-02-1.00093E-09-3.25113E-10
 -1     25409 1.55458E-01-2.21300E-02-3.40967E-09-2.88509E-02 1.04154E-09 1.65700E-10
 -1     25410 1.48840E-01-1.55117E-02-3.92673E-09-4.18706E-02 2.93932E-09 7.07149E-10
 -1     25411 1.58188E-01-2.48604E-02 2.37752E-10-2.97381E-02 8.25094E-10 1.27620E-10
 -1     25416 1.55458E-01-2.21300E-02-3.45183E-09-2.88509E-02 9.66921E-10 1.47851E-10
 -1     25417 1.48840E-01-1.55117E-02-6.70475E-09-4.18706E-02 2.12246E-09 5.11205E-10
 -1     25418 1.58188E-01-2.48604E-02-1.19322E-09-2.97381E-02-5.15108E-11-1.19323E-11
 -1     25423 1.55458E-01-2.21300E-02-5.11234E-09-2.88509E-02 8.73759E-10 1.34990E-10
 -1     25424 1.48840E-01-1.55117E-02-5.28745E-09-4.18706E-02 3.41244E-10 8.33556E-11
 -1     25425 1.58188E-01-2.48604E-02-6.83229E-10-2.97381E-02-9.73383E-11-1.82464E-11
 -1     25430 1.55458E-01-2.21300E-02-4.98009E-09-2.88509E-02 6.54958E-11 7.71910E-12
 -1     25431 1.48840E-01-1.55117E-02-4.43552E-09-4.18706E-02-2.06622E-10-4.86062E-11
 -1     25432 1.58188E-01-2.48604E-02-5.03943E-10-2.97381E-02-1.28633E-10-2.21724E-11
 -1     25437 1.55458E-01-2.21300E-02-4.53394E-09-2.88509E-02-1.00554E-10-1.73503E-11
 -1     25438 1.48840E-01-1.55117E-02-4.04810E-09-4.18706E-02-8.55703E-11-2.01851E-11
 -1     25439 1.58188E-01-2.48604E-02-4.96684E-10-2.97381E-02-6.66444E-11-1.11653E-11
 -1     25444 1.55458E-01-2.21300E-02-4.44875E-09-2.88509E-02 7.74567E-15 2.89630E-15
 -1     25445 1.48840E-01-1.55117E-02-4.04809E-09-4.18706E-02 8.55781E-11 2.01866E-11
 -1     25446 1.58188E-01-2.48604E-02-4.96676E-10-2.97381E-02 6.66419E-11 1.11662E-11
 -1     25451 1.55458E-01-2.21300E-02-4.53392E-09-2.88509E-02 1.00550E-10 1.73552E-11
 -1     25452 1.48840E-01-1.55117E-02-4.43552E-09-4.18706E-02 2.06621E-10 4.86068E-11
 -1     25453 1.58188E-01-2.48604E-02-5.03949E-10-2.97381E-02 1.28628E-10 2.21710E-11
 -1     25458 1.55458E-01-2.21300E-02-4.98009E-09-2.88509E-02-6.55091E-11-7.72053E-12
 -1     25459 1.48840E-01-1.55117E-02-5.28744E-09-4.18706E-02-3.41251E-10-8.33571E-11
 -1     25460 1.58188E-01-2.48604E-02-6.83219E-10-2.97381E-02 9.73247E-11 1.82428E-11
 -1     25465 1.55458E-01-2.21300E-02-5.11234E-09-2.88509E-02-8.73770E-10-1.34992E-10
 -1     25466 1.48840E-01-1.55117E-02-6.70474E-09-4.18706E-02-2.12246E-09-5.11210E-10
 -1     25467 1.58188E-01-2.48604E-02-1.19321E-09-2.97381E-02 5.15004E-11 1.19324E-11
 -1     25472 1.55458E-01-2.21300E-02-3.45183E-09-2.88509E-02-9.66939E-10-1.47844E-10
 -1     25473 1.48840E-01-1.55117E-02-3.92673E-09-4.18706E-02-2.93932E-09-7.07150E-10
 -1     25474 1.58188E-01-2.48604E-02 2.37754E-10-2.97381E-02-8.25091E-10-1.27616E-10
 -1     25479 1.55458E-01-2.21300E-02-3.40967E-09-2.88509E-02-1.04154E-09-1.65693E-10
 -1     25483 1.57756E-01-2.44285E-02-3.96477E-09-1.44276E-02 3.00620E-09 2.39655E-10
 -1     25487 1.57756E-01-2.44285E-02-6.73504E-09-1.44276E-02 2.16814E-09 1.75032E-10
 -1     25491 1.57756E-01-2.44285E-02-5.31366E-09-1.44276E-02 3.43089E-10 3.07363E-11
 -1     25495 1.57756E-01-2.44285E-02-4.45962E-09-1.44276E-02-2.16023E-10-1.43952E-11
 -1     25499 1.57756E-01-2.44285E-02-4.07136E-09-1.44276E-02-8.91216E-11-6.09107E-12
 -1     25503 1.57756E-01-2.44285E-02-4.07137E-09-1.44276E-02 8.91299E-11 6.08734E-12
 -1     25507 1.57756E-01-2.44285E-02-4.45961E-09-1.44276E-02 2.16014E-10 1.43931E-11
 -1     25511 1.57756E-01-2.44285E-02-5.31367E-09-1.44276E-02-3.43083E-10-3.07386E-11
 -1     25515 1.57756E-01-2.44285E-02-6.73503E-09-1.44276E-02-2.16813E-09-1.75037E-10
 -1     25519 1.57756E-01-2.44285E-02-3.96477E-09-1.44276E-02-3.00620E-09-2.39658E-10
 -1     25525-1.71304E-02 1.50458E-01 4.98793E-09-2.72265E-02-6.05170E-10-3.82505E-09
 -1     25526-1.92997E-02 1.52628E-01 1.32442E-08-1.36153E-02-1.32473E-09-1.68319E-08
 -1     25527-1.96303E-02 1.52958E-01 2.88160E-10-2.80387E-02-3.40652E-10-2.15268E-09
 -1     25532-1.71304E-02 1.50458E-01 1.66360E-08-2.72265E-02-1.30212E-09-8.22023E-09
 -1     25533-1.92997E-02 1.52628E-01 2.42807E-08-1.36153E-02-7.01244E-10-8.91077E-09
 -1     25534-1.96303E-02 1.52958E-01 4.80132E-09-2.80387E-02-3.28529E-10-2.07274E-09
 -1     25539-1.71304E-02 1.50458E-01 2.04935E-08-2.72265E-02-8.51056E-10-5.36988E-09
 -1     25540-1.92997E-02 1.52628E-01 2.18644E-08-1.36153E-02-3.22505E-10-4.09969E-09
 -1     25541-1.96303E-02 1.52958E-01 4.63587E-09-2.80387E-02-2.40542E-10-1.51676E-09
 -1     25546-1.71304E-02 1.50458E-01 2.07882E-08-2.72265E-02-4.77392E-10-3.01178E-09
 -1     25547-1.92997E-02 1.52628E-01 1.98808E-08-1.36153E-02-1.40153E-10-1.78218E-09
 -1     25548-1.96303E-02 1.52958E-01 4.93674E-09-2.80387E-02-1.39668E-10-8.80356E-10
 -1     25553-1.71304E-02 1.50458E-01 2.06374E-08-2.72265E-02-2.03259E-10-1.28225E-09
 -1     25554-1.92997E-02 1.52628E-01 1.93248E-08-1.36153E-02-3.17145E-11-4.03458E-10
 -1     25555-1.96303E-02 1.52958E-01 5.18349E-09-2.80387E-02-4.98539E-11-3.14272E-10
 -1     25560-1.71304E-02 1.50458E-01 2.03390E-08-2.72265E-02 2.17507E-15 1.13054E-14
 -1     25561-1.92997E-02 1.52628E-01 1.93248E-08-1.36153E-02 3.17118E-11 4.03468E-10
 -1     25562-1.96303E-02 1.52958E-01 5.18350E-09-2.80387E-02 4.98552E-11 3.14279E-10
 -1     25567-1.71304E-02 1.50458E-01 2.06373E-08-2.72265E-02 2.03259E-10 1.28224E-09
 -1     25568-1.92997E-02 1.52628E-01 1.98808E-08-1.36153E-02 1.40151E-10 1.78219E-09
 -1     25569-1.96303E-02 1.52958E-01 4.93672E-09-2.80387E-02 1.39667E-10 8.80362E-10
 -1     25574-1.71304E-02 1.50458E-01 2.07881E-08-2.72265E-02 4.77393E-10 3.01180E-09
 -1     25575-1.92997E-02 1.52628E-01 2.18644E-08-1.36153E-02 3.22504E-10 4.09969E-09
 -1     25576-1.96303E-02 1.52958E-01 4.63588E-09-2.80387E-02 2.40542E-10 1.51675E-09
 -1     25581-1.71304E-02 1.50458E-01 2.04934E-08-2.72265E-02 8.51056E-10 5.36988E-09
 -1     25582-1.92997E-02 1.52628E-01 2.42807E-08-1.36153E-02 7.01243E-10 8.91077E-09
 -1     25583-1.96303E-02 1.52958E-01 4.80133E-09-2.80387E-02 3.28528E-10 2.07275E-09
 -1     25588-1.71304E-02 1.50458E-01 1.66360E-08-2.72265E-02 1.30212E-09 8.22023E-09
 -1     25589-1.92997E-02 1.52628E-01 1.32442E-08-1.36153E-02 1.32473E-09 1.68319E-08
 -1     25590-1.96303E-02 1.52958E-01 2.88173E-10-2.80387E-02 3.40649E-10 2.15267E-09
 -1     25595-1.71304E-02 1.50458E-01 4.98794E-09-2.72265E-02 6.05173E-10 3.82505E-09
 -1     25599-4.61579E-03 1.37944E-01 4.99382E-09-5.17878E-02-1.19480E-09-3.68331E-09
 -1     25600-1.08850E-02 1.44213E-01 1.32465E-08-3.95132E-02-3.94156E-09-1.64164E-08
 -1     25601-6.74233E-03 1.40070E-01 2.86524E-10-5.33328E-02-6.71731E-10-2.07293E-09
 -1     25606-4.61579E-03 1.37944E-01 1.66412E-08-5.17878E-02-2.57079E-09-7.91496E-09
 -1     25607-1.08850E-02 1.44213E-01 2.42828E-08-3.95132E-02-2.08675E-09-8.69058E-09
 -1     25608-6.74233E-03 1.40070E-01 4.79977E-09-5.33328E-02-6.47351E-10-1.99567E-09
 -1     25613-4.61579E-03 1.37944E-01 2.04982E-08-5.17878E-02-1.67916E-09-5.17027E-09
 -1     25614-1.08850E-02 1.44213E-01 2.18664E-08-3.95132E-02-9.59879E-10-3.99823E-09
 -1     25615-6.74233E-03 1.40070E-01 4.63424E-09-5.33328E-02-4.73570E-10-1.46026E-09
 -1     25620-4.61579E-03 1.37944E-01 2.07921E-08-5.17878E-02-9.41372E-10-2.89974E-09
 -1     25621-1.08850E-02 1.44213E-01 1.98830E-08-3.95132E-02-4.17232E-10-1.73799E-09
 -1     25622-6.74233E-03 1.40070E-01 4.93513E-09-5.33328E-02-2.74795E-10-8.47534E-10
 -1     25627-4.61579E-03 1.37944E-01 2.06409E-08-5.17878E-02-4.00650E-10-1.23454E-09
 -1     25628-1.08850E-02 1.44213E-01 1.93270E-08-3.95132E-02-9.44403E-11-3.93414E-10
 -1     25629-6.74233E-03 1.40070E-01 5.18194E-09-5.33328E-02-9.81043E-11-3.02552E-10
 -1     25634-4.61579E-03 1.37944E-01 2.03425E-08-5.17878E-02-7.53463E-15 1.22002E-14
 -1     25635-1.08850E-02 1.44213E-01 1.93270E-08-3.95132E-02 9.44381E-11 3.93428E-10
 -1     25636-6.74233E-03 1.40070E-01 5.18194E-09-5.33328E-02 9.80968E-11 3.02558E-10
 -1     25641-4.61579E-03 1.37944E-01 2.06409E-08-5.17878E-02 4.00642E-10 1.23453E-09
 -1     25642-1.08850E-02 1.44213E-01 1.98830E-08-3.95132E-02 4.17235E-10 1.73798E-09
 -1     25643-6.74233E-03 1.40070E-01 4.93513E-09-5.33328E-02 2.74797E-10 8.47534E-10
 -1     25648-4.61579E-03 1.37944E-01 2.07921E-08-5.17878E-02 9.41378E-10 2.89971E-09
 -1     25649-1.08850E-02 1.44213E-01 2.18664E-08-3.95132E-02 9.59880E-10 3.99823E-09
 -1     25650-6.74233E-03 1.40070E-01 4.63424E-09-5.33328E-02 4.73571E-10 1.46025E-09
 -1     25655-4.61579E-03 1.37944E-01 2.04982E-08-5.17878E-02 1.67915E-09 5.17026E-09
 -1     25656-1.08850E-02 1.44213E-01 2.42828E-08-3.95132E-02 2.08675E-09 8.69058E-09
 -1     25657-6.74233E-03 1.40070E-01 4.79979E-09-5.33328E-02 6.47351E-10 1.99565E-09
 -1     25662-4.61579E-03 1.37944E-01 1.66412E-08-5.17878E-02 2.57080E-09 7.91494E-09
 -1     25663-1.08850E-02 1.44213E-01 1.32465E-08-3.95132E-02 3.94156E-09 1.64164E-08
 -1     25664-6.74233E-03 1.40070E-01 2.86522E-10-5.33328E-02 6.71736E-10 2.07292E-09
 -1     25669-4.61579E-03 1.37944E-01 4.99381E-09-5.17878E-02 1.19480E-09 3.68330E-09
 -1     25673 1.48762E-02 1.18452E-01 5.00480E-09-7.12798E-02-1.75556E-09-3.44842E-09
 -1     25674 5.12081E-03 1.28207E-01 1.32384E-08-6.15432E-02-6.46232E-09-1.55984E-08
 -1     25675 1.33312E-02 1.19997E-01 2.80855E-10-7.34063E-02-9.89792E-10-1.94473E-09
 -1     25680 1.48762E-02 1.18452E-01 1.66507E-08-7.12798E-02-3.77727E-09-7.41307E-09
 -1     25681 5.12080E-03 1.28207E-01 2.42749E-08-6.15432E-02-3.42177E-09-8.25736E-09
 -1     25682 1.33312E-02 1.19997E-01 4.79363E-09-7.34063E-02-9.53708E-10-1.87188E-09
 -1     25687 1.48762E-02 1.18452E-01 2.05059E-08-7.12798E-02-2.46767E-09-4.84183E-09
 -1     25688 5.12080E-03 1.28207E-01 2.18587E-08-6.15432E-02-1.57452E-09-3.79872E-09
 -1     25689 1.33312E-02 1.19997E-01 4.62776E-09-7.34063E-02-6.97760E-10-1.36965E-09
 -1     25694 1.48762E-02 1.18452E-01 2.07975E-08-7.12798E-02-1.38346E-09-2.71522E-09
 -1     25695 5.12080E-03 1.28207E-01 1.98757E-08-6.15432E-02-6.84631E-10-1.65116E-09
 -1     25696 1.33312E-02 1.19997E-01 4.92818E-09-7.34063E-02-4.04922E-10-7.94962E-10
 -1     25701 1.48762E-02 1.18452E-01 2.06448E-08-7.12798E-02-5.88839E-10-1.15583E-09
 -1     25702 5.12080E-03 1.28207E-01 1.93199E-08-6.15432E-02-1.55043E-10-3.73729E-10
 -1     25703 1.33312E-02 1.19997E-01 5.17469E-09-7.34063E-02-1.44533E-10-2.83779E-10
 -1     25708 1.48762E-02 1.18452E-01 2.03459E-08-7.12798E-02-9.45473E-15 1.63405E-14
 -1     25709 5.12080E-03 1.28207E-01 1.93199E-08-6.15432E-02 1.55035E-10 3.73737E-10
 -1     25710 1.33312E-02 1.19997E-01 5.17469E-09-7.34063E-02 1.44525E-10 2.83782E-10
 -1     25715 1.48762E-02 1.18452E-01 2.06448E-08-7.12798E-02 5.88838E-10 1.15581E-09
 -1     25716 5.12080E-03 1.28207E-01 1.98757E-08-6.15432E-02 6.84635E-10 1.65115E-09
 -1     25717 1.33312E-02 1.19997E-01 4.92817E-09-7.34063E-02 4.04920E-10 7.94961E-10
 -1     25722 1.48762E-02 1.18452E-01 2.07975E-08-7.12798E-02 1.38346E-09 2.71523E-09
 -1     25723 5.12080E-03 1.28207E-01 2.18587E-08-6.15432E-02 1.57451E-09 3.79872E-09
 -1     25724 1.33312E-02 1.19997E-01 4.62775E-09-7.34063E-02 6.97748E-10 1.36964E-09
 -1     25729 1.48762E-02 1.18452E-01 2.05059E-08-7.12798E-02 2.46767E-09 4.84183E-09
 -1     25730 5.12080E-03 1.28207E-01 2.42749E-08-6.15432E-02 3.42176E-09 8.25735E-09
 -1     25731 1.33312E-02 1.19997E-01 4.79362E-09-7.34063E-02 9.53696E-10 1.87189E-09
 -1     25736 1.48762E-02 1.18452E-01 1.66507E-08-7.12798E-02 3.77727E-09 7.41308E-09
 -1     25737 5.12081E-03 1.28207E-01 1.32384E-08-6.15432E-02 6.46233E-09 1.55984E-08
 -1     25738 1.33312E-02 1.19997E-01 2.80858E-10-7.34063E-02 9.89786E-10 1.94474E-09
 -1     25743 1.48762E-02 1.18452E-01 5.00479E-09-7.12798E-02 1.75556E-09 3.44842E-09
 -1     25747 3.94376E-02 9.38905E-02 4.97152E-09-8.37944E-02-2.27869E-09-3.13462E-09
 -1     25748 2.71508E-02 1.06177E-01 1.32385E-08-7.75490E-02-8.82205E-09-1.43987E-08
 -1     25749 3.86253E-02 9.47027E-02 2.90344E-10-8.62943E-02-1.28311E-09-1.76234E-09
 -1     25754 3.94376E-02 9.38905E-02 1.66248E-08-8.37944E-02-4.89579E-09-6.73269E-09
 -1     25755 2.71508E-02 1.06177E-01 2.42734E-08-7.75490E-02-4.66998E-09-7.62266E-09
 -1     25756 3.86253E-02 9.47027E-02 4.80209E-09-8.62943E-02-1.23650E-09-1.69536E-09
 -1     25761 3.94376E-02 9.38905E-02 2.04826E-08-8.37944E-02-3.19950E-09-4.39532E-09
 -1     25762 2.71508E-02 1.06177E-01 2.18567E-08-7.75490E-02-2.14759E-09-3.50749E-09
 -1     25763 3.86253E-02 9.47027E-02 4.63565E-09-8.62943E-02-9.05010E-10-1.23986E-09
 -1     25768 3.94376E-02 9.38905E-02 2.07765E-08-8.37944E-02-1.79474E-09-2.46457E-09
 -1     25769 2.71508E-02 1.06177E-01 1.98736E-08-7.75490E-02-9.33320E-10-1.52493E-09
 -1     25770 3.86253E-02 9.47027E-02 4.93628E-09-8.62943E-02-5.25402E-10-7.19387E-10
 -1     25775 3.94376E-02 9.38905E-02 2.06259E-08-8.37944E-02-7.64413E-10-1.04913E-09
 -1     25776 2.71508E-02 1.06177E-01 1.93177E-08-7.75490E-02-2.11182E-10-3.45288E-10
 -1     25777 3.86253E-02 9.47027E-02 5.18301E-09-8.62943E-02-1.87566E-10-2.56836E-10
 -1     25782 3.94376E-02 9.38905E-02 2.03278E-08-8.37944E-02-9.60390E-15-1.38310E-14
 -1     25783 2.71508E-02 1.06177E-01 1.93177E-08-7.75490E-02 2.11177E-10 3.45290E-10
 -1     25784 3.86253E-02 9.47027E-02 5.18300E-09-8.62943E-02 1.87550E-10 2.56820E-10
 -1     25789 3.94376E-02 9.38905E-02 2.06259E-08-8.37944E-02 7.64411E-10 1.04911E-09
 -1     25790 2.71508E-02 1.06177E-01 1.98736E-08-7.75490E-02 9.33319E-10 1.52493E-09
 -1     25791 3.86253E-02 9.47027E-02 4.93627E-09-8.62943E-02 5.25392E-10 7.19368E-10
 -1     25796 3.94376E-02 9.38905E-02 2.07765E-08-8.37944E-02 1.79474E-09 2.46456E-09
 -1     25797 2.71508E-02 1.06177E-01 2.18567E-08-7.75490E-02 2.14759E-09 3.50748E-09
 -1     25798 3.86253E-02 9.47027E-02 4.63565E-09-8.62943E-02 9.04996E-10 1.23984E-09
 -1     25803 3.94376E-02 9.38905E-02 2.04826E-08-8.37944E-02 3.19950E-09 4.39531E-09
 -1     25804 2.71508E-02 1.06177E-01 2.42734E-08-7.75490E-02 4.66997E-09 7.62266E-09
 -1     25805 3.86253E-02 9.47027E-02 4.80210E-09-8.62943E-02 1.23649E-09 1.69536E-09
 -1     25810 3.94376E-02 9.38905E-02 1.66248E-08-8.37944E-02 4.89578E-09 6.73271E-09
 -1     25811 2.71508E-02 1.06177E-01 1.32385E-08-7.75490E-02 8.82205E-09 1.43987E-08
 -1     25812 3.86253E-02 9.47027E-02 2.90347E-10-8.62943E-02 1.28310E-09 1.76235E-09
 -1     25817 3.94376E-02 9.38905E-02 4.97153E-09-8.37944E-02 2.27868E-09 3.13463E-09
 -1     25821 6.66640E-02 6.66640E-02 4.95942E-09-8.81067E-02-2.73778E-09-2.74398E-09
 -1     25822 5.30487E-02 8.02793E-02 1.32679E-08-8.59637E-02-1.09588E-08-1.28344E-08
 -1     25823 6.66640E-02 6.66640E-02 2.92791E-10-9.07352E-02-1.53497E-09-1.54046E-09
 -1     25828 6.66640E-02 6.66640E-02 1.66151E-08-8.81067E-02-5.88638E-09-5.88541E-09
 -1     25829 5.30487E-02 8.02793E-02 2.43032E-08-8.59637E-02-5.80022E-09-6.79342E-09
 -1     25830 6.66640E-02 6.66640E-02 4.80900E-09-9.07352E-02-1.47871E-09-1.48135E-09
 -1     25835 6.66640E-02 6.66640E-02 2.04774E-08-8.81067E-02-3.84256E-09-3.84545E-09
 -1     25836 5.30487E-02 8.02793E-02 2.18859E-08-8.59637E-02-2.66656E-09-3.12551E-09
 -1     25837 6.66640E-02 6.66640E-02 4.64411E-09-9.07352E-02-1.08126E-09-1.08416E-09
 -1     25842 6.66640E-02 6.66640E-02 2.07757E-08-8.81067E-02-2.15462E-09-2.15731E-09
 -1     25843 5.30487E-02 8.02793E-02 1.99023E-08-8.59637E-02-1.15852E-09-1.35868E-09
 -1     25844 6.66640E-02 6.66640E-02 4.94679E-09-9.07352E-02-6.27453E-10-6.29233E-10
 -1     25849 6.66640E-02 6.66640E-02 2.06280E-08-8.81067E-02-9.17452E-10-9.18774E-10
 -1     25850 5.30487E-02 8.02793E-02 1.93462E-08-8.59637E-02-2.62005E-10-3.07559E-10
 -1     25851 6.66640E-02 6.66640E-02 5.19480E-09-9.07352E-02-2.24064E-10-2.24641E-10
 -1     25856 6.66640E-02 6.66640E-02 2.03311E-08-8.81067E-02 2.95385E-14 5.43391E-15
 -1     25857 5.30487E-02 8.02793E-02 1.93462E-08-8.59637E-02 2.62012E-10 3.07564E-10
 -1     25858 6.66640E-02 6.66640E-02 5.19480E-09-9.07352E-02 2.24084E-10 2.24648E-10
 -1     25863 6.66640E-02 6.66640E-02 2.06280E-08-8.81067E-02 9.17456E-10 9.18786E-10
 -1     25864 5.30487E-02 8.02793E-02 1.99023E-08-8.59637E-02 1.15852E-09 1.35868E-09
 -1     25865 6.66640E-02 6.66640E-02 4.94680E-09-9.07352E-02 6.27463E-10 6.29254E-10
 -1     25870 6.66640E-02 6.66640E-02 2.07757E-08-8.81067E-02 2.15461E-09 2.15733E-09
 -1     25871 5.30487E-02 8.02793E-02 2.18858E-08-8.59637E-02 2.66656E-09 3.12551E-09
 -1     25872 6.66640E-02 6.66640E-02 4.64411E-09-9.07352E-02 1.08127E-09 1.08418E-09
 -1     25877 6.66640E-02 6.66640E-02 2.04774E-08-8.81067E-02 3.84256E-09 3.84546E-09
 -1     25878 5.30487E-02 8.02793E-02 2.43032E-08-8.59637E-02 5.80022E-09 6.79342E-09
 -1     25879 6.66640E-02 6.66640E-02 4.80899E-09-9.07352E-02 1.47871E-09 1.48135E-09
 -1     25884 6.66640E-02 6.66640E-02 1.66151E-08-8.81067E-02 5.88637E-09 5.88540E-09
 -1     25885 5.30487E-02 8.02793E-02 1.32679E-08-8.59637E-02 1.09588E-08 1.28344E-08
 -1     25886 6.66640E-02 6.66640E-02 2.92788E-10-9.07352E-02 1.53497E-09 1.54045E-09
 -1     25891 6.66640E-02 6.66640E-02 4.95941E-09-8.81067E-02 2.73778E-09 2.74398E-09
 -1     25895 9.38905E-02 3.94376E-02 5.03057E-09-8.37944E-02-3.13108E-09-2.27911E-09
 -1     25896 8.02793E-02 5.30487E-02 1.32461E-08-8.59637E-02-1.28423E-08-1.09600E-08
 -1     25897 9.47027E-02 3.86253E-02 2.75354E-10-8.62943E-02-1.76707E-09-1.28890E-09
 -1     25902 9.38905E-02 3.94376E-02 1.66700E-08-8.37944E-02-6.72881E-09-4.88963E-09
 -1     25903 8.02793E-02 5.30487E-02 2.42803E-08-8.59637E-02-6.80067E-09-5.79989E-09
 -1     25904 9.47027E-02 3.86253E-02 4.78103E-09-8.62943E-02-1.70078E-09-1.23939E-09
 -1     25909 9.38905E-02 3.94376E-02 2.05168E-08-8.37944E-02-4.39261E-09-3.19618E-09
 -1     25910 8.02793E-02 5.30487E-02 2.18632E-08-8.59637E-02-3.13091E-09-2.66557E-09
 -1     25911 9.47027E-02 3.86253E-02 4.61317E-09-8.62943E-02-1.24340E-09-9.07565E-10
 -1     25916 9.38905E-02 3.94376E-02 2.08022E-08-8.37944E-02-2.46178E-09-1.79331E-09
 -1     25917 8.02793E-02 5.30487E-02 1.98804E-08-8.59637E-02-1.36196E-09-1.15762E-09
 -1     25918 9.47027E-02 3.86253E-02 4.91123E-09-8.62943E-02-7.21247E-10-5.26896E-10
 -1     25923 9.38905E-02 3.94376E-02 2.06444E-08-8.37944E-02-1.04725E-09-7.63336E-10
 -1     25924 8.02793E-02 5.30487E-02 1.93248E-08-8.59637E-02-3.08631E-10-2.61687E-10
 -1     25925 9.47027E-02 3.86253E-02 5.15638E-09-8.62943E-02-2.57420E-10-1.87994E-10
 -1     25930 9.38905E-02 3.94376E-02 2.03435E-08-8.37944E-02-9.23789E-15 7.26494E-15
 -1     25931 8.02793E-02 5.30487E-02 1.93248E-08-8.59637E-02 3.08627E-10 2.61697E-10
 -1     25932 9.47027E-02 3.86253E-02 5.15638E-09-8.62943E-02 2.57405E-10 1.87997E-10
 -1     25937 9.38905E-02 3.94376E-02 2.06444E-08-8.37944E-02 1.04724E-09 7.63339E-10
 -1     25938 8.02793E-02 5.30487E-02 1.98804E-08-8.59637E-02 1.36197E-09 1.15763E-09
 -1     25939 9.47027E-02 3.86253E-02 4.91122E-09-8.62943E-02 7.21251E-10 5.26892E-10
 -1     25944 9.38905E-02 3.94376E-02 2.08022E-08-8.37944E-02 2.46179E-09 1.79330E-09
 -1     25945 8.02793E-02 5.30487E-02 2.18632E-08-8.59637E-02 3.13090E-09 2.66557E-09
 -1     25946 9.47027E-02 3.86253E-02 4.61317E-09-8.62943E-02 1.24340E-09 9.07565E-10
 -1     25951 9.38905E-02 3.94376E-02 2.05168E-08-8.37944E-02 4.39262E-09 3.19617E-09
 -1     25952 8.02793E-02 5.30487E-02 2.42803E-08-8.59637E-02 6.80067E-09 5.79988E-09
 -1     25953 9.47027E-02 3.86253E-02 4.78103E-09-8.62943E-02 1.70079E-09 1.23939E-09
 -1     25958 9.38905E-02 3.94376E-02 1.66699E-08-8.37944E-02 6.72883E-09 4.88962E-09
 -1     25959 8.02793E-02 5.30487E-02 1.32461E-08-8.59637E-02 1.28424E-08 1.09600E-08
 -1     25960 9.47027E-02 3.86253E-02 2.75354E-10-8.62943E-02 1.76708E-09 1.28890E-09
 -1     25965 9.38905E-02 3.94376E-02 5.03056E-09-8.37944E-02 3.13109E-09 2.27912E-09
 -1     25969 1.18452E-01 1.48762E-02 5.00276E-09-7.12798E-02-3.45189E-09-1.75263E-09
 -1     25970 1.06177E-01 2.71508E-02 1.32172E-08-7.75490E-02-1.44019E-08-8.82908E-09
 -1     25971 1.19997E-01 1.33312E-02 2.78287E-10-7.34063E-02-1.94796E-09-9.86518E-10
 -1     25976 1.18452E-01 1.48762E-02 1.66487E-08-7.12798E-02-7.41325E-09-3.77261E-09
 -1     25977 1.06177E-01 2.71508E-02 2.42510E-08-7.75490E-02-7.62570E-09-4.67478E-09
 -1     25978 1.19997E-01 1.33312E-02 4.78955E-09-7.34063E-02-1.87457E-09-9.48639E-10
 -1     25983 1.18452E-01 1.48762E-02 2.05000E-08-7.12798E-02-4.84313E-09-2.46088E-09
 -1     25984 1.06177E-01 2.71508E-02 2.18342E-08-7.75490E-02-3.50832E-09-2.15229E-09
 -1     25985 1.19997E-01 1.33312E-02 4.62341E-09-7.34063E-02-1.37180E-09-6.93856E-10
 -1     25990 1.18452E-01 1.48762E-02 2.07914E-08-7.12798E-02-2.71629E-09-1.38032E-09
 -1     25991 1.06177E-01 2.71508E-02 1.98520E-08-7.75490E-02-1.52531E-09-9.36052E-10
 -1     25992 1.19997E-01 1.33312E-02 4.92405E-09-7.34063E-02-7.96317E-10-4.02773E-10
 -1     25997 1.18452E-01 1.48762E-02 2.06386E-08-7.12798E-02-1.15645E-09-5.87327E-10
 -1     25998 1.06177E-01 2.71508E-02 1.92968E-08-7.75490E-02-3.45398E-10-2.12098E-10
 -1     25999 1.19997E-01 1.33312E-02 5.17074E-09-7.34063E-02-2.84229E-10-1.43826E-10
 -1     26004 1.18452E-01 1.48762E-02 2.03397E-08-7.12798E-02-6.77372E-15 5.51343E-15
 -1     26005 1.06177E-01 2.71508E-02 1.92968E-08-7.75490E-02 3.45388E-10 2.12101E-10
 -1     26006 1.19997E-01 1.33312E-02 5.17074E-09-7.34063E-02 2.84227E-10 1.43819E-10
 -1     26011 1.18452E-01 1.48762E-02 2.06386E-08-7.12798E-02 1.15646E-09 5.87321E-10
 -1     26012 1.06177E-01 2.71508E-02 1.98520E-08-7.75490E-02 1.52532E-09 9.36048E-10
 -1     26013 1.19997E-01 1.33312E-02 4.92406E-09-7.34063E-02 7.96309E-10 4.02768E-10
 -1     26018 1.18452E-01 1.48762E-02 2.07914E-08-7.12798E-02 2.71627E-09 1.38033E-09
 -1     26019 1.06177E-01 2.71508E-02 2.18342E-08-7.75490E-02 3.50831E-09 2.15229E-09
 -1     26020 1.19997E-01 1.33312E-02 4.62341E-09-7.34063E-02 1.37178E-09 6.93848E-10
 -1     26025 1.18452E-01 1.48762E-02 2.05000E-08-7.12798E-02 4.84312E-09 2.46089E-09
 -1     26026 1.06177E-01 2.71508E-02 2.42510E-08-7.75490E-02 7.62571E-09 4.67478E-09
 -1     26027 1.19997E-01 1.33312E-02 4.78954E-09-7.34063E-02 1.87457E-09 9.48644E-10
 -1     26032 1.18452E-01 1.48762E-02 1.66487E-08-7.12798E-02 7.41324E-09 3.77262E-09
 -1     26033 1.06177E-01 2.71508E-02 1.32172E-08-7.75490E-02 1.44019E-08 8.82908E-09
 -1     26034 1.19997E-01 1.33312E-02 2.78276E-10-7.34063E-02 1.94796E-09 9.86519E-10
 -1     26039 1.18452E-01 1.48762E-02 5.00276E-09-7.12798E-02 3.45190E-09 1.75262E-09
 -1     26043 1.37944E-01-4.61580E-03 4.91778E-09-5.17878E-02-3.69315E-09-1.19891E-09
 -1     26044 1.28207E-01 5.12080E-03 1.32663E-08-6.15432E-02-1.55909E-08-6.46428E-09
 -1     26045 1.40070E-01-6.74233E-03 3.02929E-10-5.33328E-02-2.06740E-09-6.69976E-10
 -1     26050 1.37944E-01-4.61579E-03 1.65817E-08-5.17878E-02-7.92194E-09-2.57020E-09
 -1     26051 1.28207E-01 5.12080E-03 2.43019E-08-6.15432E-02-8.25181E-09-3.42282E-09
 -1     26052 1.40070E-01-6.74233E-03 4.81729E-09-5.33328E-02-1.98941E-09-6.43296E-10
 -1     26057 1.37944E-01-4.61580E-03 2.04425E-08-5.17878E-02-5.17332E-09-1.67792E-09
 -1     26058 1.28207E-01 5.12079E-03 2.18842E-08-6.15432E-02-3.79394E-09-1.57682E-09
 -1     26059 1.40070E-01-6.74234E-03 4.65202E-09-5.33328E-02-1.45564E-09-4.70725E-10
 -1     26064 1.37944E-01-4.61580E-03 2.07453E-08-5.17878E-02-2.90343E-09-9.41439E-10
 -1     26065 1.28207E-01 5.12079E-03 1.99007E-08-6.15432E-02-1.64851E-09-6.86179E-10
 -1     26066 1.40070E-01-6.74234E-03 4.95546E-09-5.33328E-02-8.45192E-10-2.73150E-10
 -1     26071 1.37944E-01-4.61580E-03 2.06015E-08-5.17878E-02-1.23722E-09-4.00785E-10
 -1     26072 1.28207E-01 5.12079E-03 1.93448E-08-6.15432E-02-3.72919E-10-1.55635E-10
 -1     26073 1.40070E-01-6.74234E-03 5.20390E-09-5.33328E-02-3.01875E-10-9.75421E-11
 -1     26078 1.37944E-01-4.61580E-03 2.03059E-08-5.17878E-02 1.69052E-14-5.10929E-15
 -1     26079 1.28207E-01 5.12079E-03 1.93448E-08-6.15432E-02 3.72929E-10 1.55632E-10
 -1     26080 1.40070E-01-6.74234E-03 5.20390E-09-5.33328E-02 3.01886E-10 9.75456E-11
 -1     26085 1.37944E-01-4.61580E-03 2.06015E-08-5.17878E-02 1.23724E-09 4.00791E-10
 -1     26086 1.28207E-01 5.12079E-03 1.99007E-08-6.15432E-02 1.64851E-09 6.86187E-10
 -1     26087 1.40070E-01-6.74234E-03 4.95547E-09-5.33328E-02 8.45198E-10 2.73161E-10
 -1     26092 1.37944E-01-4.61580E-03 2.07453E-08-5.17878E-02 2.90342E-09 9.41458E-10
 -1     26093 1.28207E-01 5.12079E-03 2.18842E-08-6.15432E-02 3.79395E-09 1.57682E-09
 -1     26094 1.40070E-01-6.74234E-03 4.65202E-09-5.33328E-02 1.45566E-09 4.70735E-10
 -1     26099 1.37944E-01-4.61580E-03 2.04425E-08-5.17878E-02 5.17334E-09 1.67792E-09
 -1     26100 1.28207E-01 5.12080E-03 2.43019E-08-6.15432E-02 8.25182E-09 3.42282E-09
 -1     26101 1.40070E-01-6.74233E-03 4.81728E-09-5.33328E-02 1.98942E-09 6.43304E-10
 -1     26106 1.37944E-01-4.61579E-03 1.65817E-08-5.17878E-02 7.92195E-09 2.57022E-09
 -1     26107 1.28207E-01 5.12080E-03 1.32663E-08-6.15432E-02 1.55909E-08 6.46428E-09
 -1     26108 1.40070E-01-6.74233E-03 3.02931E-10-5.33328E-02 2.06741E-09 6.69978E-10
 -1     26113 1.37944E-01-4.61580E-03 4.91780E-09-5.17878E-02 3.69316E-09 1.19890E-09
 -1     26117 1.50458E-01-1.71304E-02 4.97305E-09-2.72265E-02-3.82869E-09-6.15002E-10
 -1     26118 1.44213E-01-1.08850E-02 1.32863E-08-3.95132E-02-1.64068E-08-3.93580E-09
 -1     26119 1.52958E-01-1.96303E-02 2.87662E-10-2.80387E-02-2.15113E-09-3.48851E-10
 -1     26124 1.50458E-01-1.71304E-02 1.66235E-08-2.72265E-02-8.21869E-09-1.30321E-09
 -1     26125 1.44213E-01-1.08850E-02 2.43223E-08-3.95132E-02-8.68430E-09-2.08123E-09
 -1     26126 1.52958E-01-1.96303E-02 4.80028E-09-2.80387E-02-2.06993E-09-3.34244E-10
 -1     26131 1.50458E-01-1.71304E-02 2.04779E-08-2.72265E-02-5.36774E-09-8.57877E-10
 -1     26132 1.44213E-01-1.08850E-02 2.19039E-08-3.95132E-02-3.99409E-09-9.55270E-10
 -1     26133 1.52958E-01-1.96303E-02 4.63536E-09-2.80387E-02-1.51494E-09-2.46076E-10
 -1     26138 1.50458E-01-1.71304E-02 2.07763E-08-2.72265E-02-3.01204E-09-4.82221E-10
 -1     26139 1.44213E-01-1.08850E-02 1.99197E-08-3.95132E-02-1.73592E-09-4.14483E-10
 -1     26140 1.52958E-01-1.96303E-02 4.93748E-09-2.80387E-02-8.79613E-10-1.42973E-10
 -1     26145 1.50458E-01-1.71304E-02 2.06273E-08-2.72265E-02-1.28263E-09-2.05566E-10
 -1     26146 1.44213E-01-1.08850E-02 1.93638E-08-3.95132E-02-3.92871E-10-9.35881E-11
 -1     26147 1.52958E-01-1.96303E-02 5.18501E-09-2.80387E-02-3.14050E-10-5.09085E-11
 -1     26152 1.50458E-01-1.71304E-02 2.03295E-08-2.72265E-02-4.25104E-15-2.51407E-15
 -1     26153 1.44213E-01-1.08850E-02 1.93638E-08-3.95132E-02 3.92877E-10 9.35874E-11
 -1     26154 1.52958E-01-1.96303E-02 5.18501E-09-2.80387E-02 3.14046E-10 5.09082E-11
 -1     26159 1.50458E-01-1.71304E-02 2.06273E-08-2.72265E-02 1.28263E-09 2.05563E-10
 -1     26160 1.44213E-01-1.08850E-02 1.99197E-08-3.95132E-02 1.73592E-09 4.14484E-10
 -1     26161 1.52958E-01-1.96303E-02 4.93749E-09-2.80387E-02 8.79614E-10 1.42973E-10
 -1     26166 1.50458E-01-1.71304E-02 2.07763E-08-2.72265E-02 3.01204E-09 4.82222E-10
 -1     26167 1.44213E-01-1.08850E-02 2.19039E-08-3.95132E-02 3.99408E-09 9.55269E-10
 -1     26168 1.52958E-01-1.96303E-02 4.63537E-09-2.80387E-02 1.51491E-09 2.46075E-10
 -1     26173 1.50458E-01-1.71304E-02 2.04779E-08-2.72265E-02 5.36773E-09 8.57878E-10
 -1     26174 1.44213E-01-1.08850E-02 2.43223E-08-3.95132E-02 8.68431E-09 2.08123E-09
 -1     26175 1.52958E-01-1.96303E-02 4.80029E-09-2.80387E-02 2.06993E-09 3.34243E-10
 -1     26180 1.50458E-01-1.71304E-02 1.66235E-08-2.72265E-02 8.21870E-09 1.30321E-09
 -1     26181 1.44213E-01-1.08850E-02 1.32863E-08-3.95132E-02 1.64069E-08 3.93580E-09
 -1     26182 1.52958E-01-1.96303E-02 2.87666E-10-2.80387E-02 2.15112E-09 3.48853E-10
 -1     26187 1.50458E-01-1.71304E-02 4.97305E-09-2.72265E-02 3.82869E-09 6.15002E-10
 -1     26191 1.52628E-01-1.92997E-02 1.32240E-08-1.36153E-02-1.68415E-08-1.31780E-09
 -1     26195 1.52628E-01-1.92997E-02 2.42575E-08-1.36153E-02-8.91908E-09-6.94971E-10
 -1     26199 1.52628E-01-1.92997E-02 2.18396E-08-1.36153E-02-4.10544E-09-3.15658E-10
 -1     26203 1.52628E-01-1.92997E-02 1.98567E-08-1.36153E-02-1.78567E-09-1.35775E-10
 -1     26207 1.52628E-01-1.92997E-02 1.93018E-08-1.36153E-02-4.04659E-10-3.02506E-11
 -1     26211 1.52628E-01-1.92997E-02 1.93019E-08-1.36153E-02 4.04654E-10 3.02433E-11
 -1     26215 1.52628E-01-1.92997E-02 1.98567E-08-1.36153E-02 1.78568E-09 1.35768E-10
 -1     26219 1.52628E-01-1.92997E-02 2.18396E-08-1.36153E-02 4.10543E-09 3.15653E-10
 -1     26223 1.52628E-01-1.92997E-02 2.42575E-08-1.36153E-02 8.91907E-09 6.94969E-10
 -1     26227 1.52628E-01-1.92997E-02 1.32240E-08-1.36153E-02 1.68415E-08 1.31780E-09
 -1     26233-1.25423E-02 1.45870E-01-3.38986E-08-2.57357E-02 2.35660E-09 1.49098E-08
 -1     26234-1.45920E-02 1.47920E-01-5.08493E-08-1.28697E-02 3.21112E-09 4.07960E-08
 -1     26235-1.48366E-02 1.48165E-01 2.67618E-10-2.64811E-02 8.36206E-10 5.29211E-09
 -1     26240-1.25423E-02 1.45870E-01-5.60798E-08-2.57357E-02 3.20248E-09 2.02342E-08
 -1     26241-1.45920E-02 1.47920E-01-8.29982E-08-1.28697E-02 2.10572E-09 2.67506E-08
 -1     26242-1.48366E-02 1.48164E-01-1.40897E-08-2.64811E-02 1.97632E-10 1.25056E-09
 -1     26247-1.25423E-02 1.45870E-01-7.49699E-08-2.57357E-02 2.67423E-09 1.68833E-08
 -1     26248-1.45919E-02 1.47920E-01-7.92315E-08-1.28697E-02 8.88216E-10 1.12857E-08
 -1     26249-1.48366E-02 1.48164E-01-1.40718E-08-2.64811E-02 1.14348E-10 7.21321E-10
 -1     26254-1.25423E-02 1.45870E-01-7.96454E-08-2.57357E-02 1.06633E-09 6.72877E-09
 -1     26255-1.45919E-02 1.47920E-01-7.47028E-08-1.28697E-02 9.18674E-11 1.16825E-09
 -1     26256-1.48366E-02 1.48164E-01-1.48908E-08-2.64811E-02 9.52998E-11 6.00127E-10
 -1     26261-1.25423E-02 1.45870E-01-7.53114E-08-2.57357E-02 9.61299E-11 6.03984E-10
 -1     26262-1.45919E-02 1.47920E-01-7.15622E-08-1.28697E-02-4.91665E-11-6.24206E-10
 -1     26263-1.48366E-02 1.48164E-01-1.60052E-08-2.64811E-02 3.02627E-11 1.90333E-10
 -1     26268-1.25423E-02 1.45870E-01-7.27773E-08-2.57357E-02-3.14056E-15 1.15024E-14
 -1     26269-1.45919E-02 1.47920E-01-7.15622E-08-1.28697E-02 4.91685E-11 6.24208E-10
 -1     26270-1.48366E-02 1.48164E-01-1.60052E-08-2.64811E-02-3.02642E-11-1.90328E-10
 -1     26275-1.25423E-02 1.45870E-01-7.53113E-08-2.57357E-02-9.61290E-11-6.03976E-10
 -1     26276-1.45919E-02 1.47920E-01-7.47028E-08-1.28697E-02-9.18667E-11-1.16825E-09
 -1     26277-1.48366E-02 1.48164E-01-1.48908E-08-2.64811E-02-9.52997E-11-6.00110E-10
 -1     26282-1.25423E-02 1.45870E-01-7.96454E-08-2.57357E-02-1.06633E-09-6.72875E-09
 -1     26283-1.45919E-02 1.47920E-01-7.92315E-08-1.28697E-02-8.88217E-10-1.12857E-08
 -1     26284-1.48366E-02 1.48164E-01-1.40718E-08-2.64811E-02-1.14344E-10-7.21310E-10
 -1     26289-1.25423E-02 1.45870E-01-7.49699E-08-2.57357E-02-2.67423E-09-1.68833E-08
 -1     26290-1.45920E-02 1.47920E-01-8.29982E-08-1.28697E-02-2.10572E-09-2.67507E-08
 -1     26291-1.48366E-02 1.48164E-01-1.40897E-08-2.64811E-02-1.97631E-10-1.25056E-09
 -1     26296-1.25423E-02 1.45870E-01-5.60799E-08-2.57357E-02-3.20248E-09-2.02342E-08
 -1     26297-1.45920E-02 1.47920E-01-5.08493E-08-1.28697E-02-3.21112E-09-4.07960E-08
 -1     26298-1.48366E-02 1.48165E-01 2.67619E-10-2.64811E-02-8.36206E-10-5.29211E-09
 -1     26303-1.25423E-02 1.45870E-01-3.38986E-08-2.57357E-02-2.35660E-09-1.49098E-08
 -1     26307-7.12927E-04 1.34041E-01-3.38876E-08-4.89521E-02 4.65768E-09 1.43645E-08
 -1     26308-6.63808E-03 1.39966E-01-5.08510E-08-3.73492E-02 9.55393E-09 3.97928E-08
 -1     26309-2.66454E-03 1.35992E-01 2.63554E-10-5.03701E-02 1.65347E-09 5.09657E-09
 -1     26314-7.12956E-04 1.34041E-01-5.60723E-08-4.89521E-02 6.33005E-09 1.94880E-08
 -1     26315-6.63807E-03 1.39966E-01-8.29985E-08-3.73492E-02 6.26507E-09 2.60930E-08
 -1     26316-2.66454E-03 1.35992E-01-1.40930E-08-5.03701E-02 3.92303E-10 1.20376E-09
 -1     26321-7.12946E-04 1.34041E-01-7.49650E-08-4.89521E-02 5.28434E-09 1.62591E-08
 -1     26322-6.63805E-03 1.39966E-01-7.92311E-08-3.73492E-02 2.64262E-09 1.10089E-08
 -1     26323-2.66454E-03 1.35992E-01-1.40738E-08-5.03701E-02 2.26886E-10 6.93593E-10
 -1     26328-7.12941E-04 1.34041E-01-7.96401E-08-4.89521E-02 2.10677E-09 6.47969E-09
 -1     26329-6.63805E-03 1.39966E-01-7.47026E-08-3.73492E-02 2.73356E-10 1.14044E-09
 -1     26330-2.66454E-03 1.35992E-01-1.48916E-08-5.03701E-02 1.88604E-10 5.76818E-10
 -1     26335-7.12942E-04 1.34041E-01-7.53049E-08-4.89521E-02 1.89840E-10 5.81515E-10
 -1     26336-6.63806E-03 1.39966E-01-7.15622E-08-3.73492E-02-1.46270E-10-6.08476E-10
 -1     26337-2.66454E-03 1.35992E-01-1.60055E-08-5.03701E-02 5.98451E-11 1.82855E-10
 -1     26342-7.12943E-04 1.34041E-01-7.27705E-08-4.89521E-02-3.74007E-15 1.02804E-14
 -1     26343-6.63806E-03 1.39966E-01-7.15622E-08-3.73492E-02 1.46267E-10 6.08482E-10
 -1     26344-2.66454E-03 1.35992E-01-1.60055E-08-5.03701E-02-5.98542E-11-1.82850E-10
 -1     26349-7.12942E-04 1.34041E-01-7.53049E-08-4.89521E-02-1.89842E-10-5.81546E-10
 -1     26350-6.63805E-03 1.39966E-01-7.47026E-08-3.73492E-02-2.73358E-10-1.14044E-09
 -1     26351-2.66454E-03 1.35992E-01-1.48917E-08-5.03701E-02-1.88608E-10-5.76849E-10
 -1     26356-7.12941E-04 1.34041E-01-7.96401E-08-4.89521E-02-2.10677E-09-6.47970E-09
 -1     26357-6.63805E-03 1.39966E-01-7.92311E-08-3.73492E-02-2.64262E-09-1.10089E-08
 -1     26358-2.66454E-03 1.35992E-01-1.40738E-08-5.03701E-02-2.26888E-10-6.93608E-10
 -1     26363-7.12946E-04 1.34041E-01-7.49650E-08-4.89521E-02-5.28434E-09-1.62591E-08
 -1     26364-6.63807E-03 1.39966E-01-8.29985E-08-3.73492E-02-6.26507E-09-2.60930E-08
 -1     26365-2.66454E-03 1.35992E-01-1.40930E-08-5.03701E-02-3.92303E-10-1.20377E-09
 -1     26370-7.12956E-04 1.34041E-01-5.60722E-08-4.89521E-02-6.33006E-09-1.94880E-08
 -1     26371-6.63808E-03 1.39966E-01-5.08510E-08-3.73492E-02-9.55393E-09-3.97928E-08
 -1     26372-2.66454E-03 1.35992E-01 2.63567E-10-5.03701E-02-1.65347E-09-5.09658E-09
 -1     26377-7.12927E-04 1.34041E-01-3.38875E-08-4.89521E-02-4.65769E-09-1.43645E-08
 -1     26381 1.77118E-02 1.15616E-01-3.38962E-08-6.73768E-02 6.85409E-09 1.34688E-08
 -1     26382 8.49112E-03 1.24837E-01-5.08608E-08-5.81727E-02 1.56602E-08 3.78036E-08
 -1     26383 1.62939E-02 1.17034E-01 2.57575E-10-6.93285E-02 2.42655E-09 4.77540E-09
 -1     26388 1.77117E-02 1.15616E-01-5.60858E-08-6.73768E-02 9.30337E-09 1.82704E-08
 -1     26389 8.49112E-03 1.24837E-01-8.30049E-08-5.81727E-02 1.02682E-08 2.47886E-08
 -1     26390 1.62939E-02 1.17034E-01-1.40987E-08-6.93285E-02 5.73215E-10 1.12886E-09
 -1     26395 1.77117E-02 1.15616E-01-7.49856E-08-6.73768E-02 7.76751E-09 1.52439E-08
 -1     26396 8.49113E-03 1.24837E-01-7.92356E-08-5.81727E-02 4.33113E-09 1.04577E-08
 -1     26397 1.62939E-02 1.17034E-01-1.40822E-08-6.93285E-02 3.31332E-10 6.51303E-10
 -1     26402 1.77118E-02 1.15616E-01-7.96650E-08-6.73768E-02 3.09832E-09 6.07975E-09
 -1     26403 8.49114E-03 1.24837E-01-7.47072E-08-5.81727E-02 4.47810E-10 1.08230E-09
 -1     26404 1.62939E-02 1.17034E-01-1.49029E-08-6.93285E-02 2.76018E-10 5.41706E-10
 -1     26409 1.77118E-02 1.15616E-01-7.53327E-08-6.73768E-02 2.80811E-10 5.49924E-10
 -1     26410 8.49113E-03 1.24837E-01-7.15671E-08-5.81727E-02-2.39840E-10-5.78536E-10
 -1     26411 1.62939E-02 1.17034E-01-1.60185E-08-6.93285E-02 8.76271E-11 1.71814E-10
 -1     26416 1.77118E-02 1.15616E-01-7.27997E-08-6.73768E-02 2.73911E-15 8.26985E-16
 -1     26417 8.49113E-03 1.24837E-01-7.15671E-08-5.81727E-02 2.39839E-10 5.78544E-10
 -1     26418 1.62939E-02 1.17034E-01-1.60186E-08-6.93285E-02-8.76351E-11-1.71799E-10
 -1     26423 1.77118E-02 1.15616E-01-7.53327E-08-6.73768E-02-2.80818E-10-5.49865E-10
 -1     26424 8.49114E-03 1.24837E-01-7.47072E-08-5.81727E-02-4.47817E-10-1.08229E-09
 -1     26425 1.62939E-02 1.17034E-01-1.49028E-08-6.93285E-02-2.76023E-10-5.41693E-10
 -1     26430 1.77118E-02 1.15616E-01-7.96650E-08-6.73768E-02-3.09832E-09-6.07973E-09
 -1     26431 8.49113E-03 1.24837E-01-7.92356E-08-5.81727E-02-4.33113E-09-1.04577E-08
 -1     26432 1.62939E-02 1.17034E-01-1.40822E-08-6.93285E-02-3.31338E-10-6.51287E-10
 -1     26437 1.77117E-02 1.15616E-01-7.49856E-08-6.73768E-02-7.76751E-09-1.52438E-08
 -1     26438 8.49112E-03 1.24837E-01-8.30049E-08-5.81727E-02-1.02682E-08-2.47885E-08
 -1     26439 1.62939E-02 1.17034E-01-1.40987E-08-6.93285E-02-5.73216E-10-1.12885E-09
 -1     26444 1.77117E-02 1.15616E-01-5.60858E-08-6.73768E-02-9.30336E-09-1.82704E-08
 -1     26445 8.49112E-03 1.24837E-01-5.08608E-08-5.81727E-02-1.56602E-08-3.78036E-08
 -1     26446 1.62939E-02 1.17034E-01 2.57563E-10-6.93285E-02-2.42654E-09-4.77539E-09
 -1     26451 1.77118E-02 1.15616E-01-3.38962E-08-6.73768E-02-6.85408E-09-1.34688E-08
 -1     26455 4.09282E-02 9.23995E-02-3.39450E-08-7.92062E-02 8.86426E-09 1.22069E-08
 -1     26456 2.93147E-02 1.04013E-01-5.08423E-08-7.33019E-02 2.13818E-08 3.48855E-08
 -1     26457 4.01828E-02 9.31451E-02 2.79529E-10-8.15005E-02 3.14519E-09 4.34629E-09
 -1     26462 4.09282E-02 9.23995E-02-5.61288E-08-7.92062E-02 1.20308E-08 1.65768E-08
 -1     26463 2.93147E-02 1.04013E-01-8.29832E-08-7.33019E-02 1.40222E-08 2.28714E-08
 -1     26464 4.01828E-02 9.31451E-02-1.40784E-08-8.15005E-02 7.42116E-10 1.03259E-09
 -1     26469 4.09282E-02 9.23995E-02-7.50135E-08-7.92062E-02 1.00423E-08 1.38243E-08
 -1     26470 2.93147E-02 1.04013E-01-7.92127E-08-7.33019E-02 5.91434E-09 9.64689E-09
 -1     26471 4.01828E-02 9.31451E-02-1.40586E-08-8.15005E-02 4.27359E-10 5.94969E-10
 -1     26476 4.09282E-02 9.23995E-02-7.96814E-08-7.92062E-02 3.99988E-09 5.50668E-09
 -1     26477 2.93147E-02 1.04013E-01-7.46843E-08-7.33019E-02 6.11651E-10 9.95762E-10
 -1     26478 4.01828E-02 9.31451E-02-1.48767E-08-8.15005E-02 3.55768E-10 4.93329E-10
 -1     26483 4.09282E-02 9.23995E-02-7.53426E-08-7.92062E-02 3.57256E-10 4.91590E-10
 -1     26484 2.93147E-02 1.04013E-01-7.15441E-08-7.33019E-02-3.27456E-10-5.35038E-10
 -1     26485 4.01828E-02 9.31451E-02-1.59910E-08-8.15005E-02 1.12846E-10 1.56360E-10
 -1     26490 4.09282E-02 9.23995E-02-7.28075E-08-7.92062E-02-3.19275E-15-3.88406E-15
 -1     26491 2.93147E-02 1.04013E-01-7.15441E-08-7.33019E-02 3.27447E-10 5.35038E-10
 -1     26492 4.01828E-02 9.31451E-02-1.59910E-08-8.15005E-02-1.12853E-10-1.56381E-10
 -1     26497 4.09282E-02 9.23995E-02-7.53426E-08-7.92062E-02-3.57271E-10-4.91605E-10
 -1     26498 2.93147E-02 1.04013E-01-7.46843E-08-7.33019E-02-6.11660E-10-9.95757E-10
 -1     26499 4.01828E-02 9.31451E-02-1.48767E-08-8.15005E-02-3.55776E-10-4.93337E-10
 -1     26504 4.09282E-02 9.23995E-02-7.96814E-08-7.92062E-02-3.99990E-09-5.50669E-09
 -1     26505 2.93147E-02 1.04013E-01-7.92127E-08-7.33019E-02-5.91435E-09-9.64688E-09
 -1     26506 4.01828E-02 9.31451E-02-1.40586E-08-8.15005E-02-4.27365E-10-5.94984E-10
 -1     26511 4.09282E-02 9.23995E-02-7.50135E-08-7.92062E-02-1.00423E-08-1.38243E-08
 -1     26512 2.93147E-02 1.04013E-01-8.29832E-08-7.33019E-02-1.40222E-08-2.28714E-08
 -1     26513 4.01828E-02 9.31451E-02-1.40784E-08-8.15005E-02-7.42132E-10-1.03260E-09
 -1     26518 4.09282E-02 9.23995E-02-5.61288E-08-7.92062E-02-1.20309E-08-1.65769E-08
 -1     26519 2.93147E-02 1.04013E-01-5.08423E-08-7.33019E-02-2.13818E-08-3.48855E-08
 -1     26520 4.01828E-02 9.31451E-02 2.79538E-10-8.15005E-02-3.14519E-09-4.34629E-09
 -1     26525 4.09282E-02 9.23995E-02-3.39450E-08-7.92062E-02-8.86426E-09-1.22069E-08
 -1     26529 6.66639E-02 6.66639E-02-3.39289E-08-8.32823E-02 1.06438E-08 1.06815E-08
 -1     26530 5.37942E-02 7.95335E-02-5.08119E-08-8.12558E-02 2.65875E-08 3.11315E-08
 -1     26531 6.66640E-02 6.66640E-02 2.94607E-10-8.56947E-02 3.79312E-09 3.79487E-09
 -1     26536 6.66639E-02 6.66639E-02-5.61119E-08-8.32823E-02 1.44780E-08 1.44643E-08
 -1     26537 5.37942E-02 7.95335E-02-8.29599E-08-8.12558E-02 1.74368E-08 2.04092E-08
 -1     26538 6.66640E-02 6.66640E-02-1.40640E-08-8.56947E-02 9.01071E-10 8.89981E-10
 -1     26543 6.66639E-02 6.66639E-02-7.49810E-08-8.32823E-02 1.20675E-08 1.20615E-08
 -1     26544 5.37942E-02 7.95335E-02-7.91902E-08-8.12558E-02 7.35675E-09 8.61283E-09
 -1     26545 6.66640E-02 6.66640E-02-1.40317E-08-8.56947E-02 5.14856E-10 5.09297E-10
 -1     26550 6.66639E-02 6.66639E-02-7.96339E-08-8.32823E-02 4.79631E-09 4.79618E-09
 -1     26551 5.37942E-02 7.95335E-02-7.46608E-08-8.12558E-02 7.63612E-10 8.93920E-10
 -1     26552 6.66640E-02 6.66640E-02-1.48390E-08-8.56947E-02 4.25876E-10 4.23388E-10
 -1     26557 6.66639E-02 6.66639E-02-7.52839E-08-8.32823E-02 4.19746E-10 4.20154E-10
 -1     26558 5.37942E-02 7.95335E-02-7.15195E-08-8.12558E-02-4.05914E-10-4.75256E-10
 -1     26559 6.66640E-02 6.66640E-02-1.59468E-08-8.56947E-02 1.34544E-10 1.33810E-10
 -1     26564 6.66639E-02 6.66639E-02-7.27444E-08-8.32823E-02-2.43433E-15 3.73203E-15
 -1     26565 5.37942E-02 7.95335E-02-7.15195E-08-8.12558E-02 4.05903E-10 4.75259E-10
 -1     26566 6.66640E-02 6.66640E-02-1.59468E-08-8.56947E-02-1.34530E-10-1.33797E-10
 -1     26571 6.66639E-02 6.66639E-02-7.52839E-08-8.32823E-02-4.19758E-10-4.20136E-10
 -1     26572 5.37942E-02 7.95335E-02-7.46608E-08-8.12558E-02-7.63629E-10-8.93906E-10
 -1     26573 6.66640E-02 6.66640E-02-1.48389E-08-8.56947E-02-4.25888E-10-4.23365E-10
 -1     26578 6.66639E-02 6.66639E-02-7.96339E-08-8.32823E-02-4.79632E-09-4.79616E-09
 -1     26579 5.37942E-02 7.95335E-02-7.91902E-08-8.12558E-02-7.35675E-09-8.61283E-09
 -1     26580 6.66640E-02 6.66640E-02-1.40317E-08-8.56947E-02-5.14870E-10-5.09288E-10
 -1     26585 6.66639E-02 6.66639E-02-7.49810E-08-8.32823E-02-1.20675E-08-1.20616E-08
 -1     26586 5.37942E-02 7.95335E-02-8.29599E-08-8.12558E-02-1.74368E-08-2.04092E-08
 -1     26587 6.66640E-02 6.66640E-02-1.40641E-08-8.56947E-02-9.01082E-10-8.89980E-10
 -1     26592 6.66639E-02 6.66639E-02-5.61120E-08-8.32823E-02-1.44780E-08-1.44643E-08
 -1     26593 5.37942E-02 7.95335E-02-5.08119E-08-8.12558E-02-2.65875E-08-3.11315E-08
 -1     26594 6.66640E-02 6.66640E-02 2.94607E-10-8.56947E-02-3.79312E-09-3.79487E-09
 -1     26599 6.66639E-02 6.66639E-02-3.39289E-08-8.32823E-02-1.06438E-08-1.06815E-08
 -1     26603 9.23995E-02 4.09282E-02-3.38375E-08-7.92062E-02 1.22553E-08 8.92279E-09
 -1     26604 7.95335E-02 5.37942E-02-5.08637E-08-8.12558E-02 3.11136E-08 2.65776E-08
 -1     26605 9.31451E-02 4.01828E-02 2.26545E-10-8.15005E-02 4.33829E-09 3.15080E-09
 -1     26610 9.23995E-02 4.09282E-02-5.60560E-08-7.92062E-02 1.66216E-08 1.20604E-08
 -1     26611 7.95335E-02 5.37942E-02-8.30010E-08-8.12558E-02 2.03956E-08 1.74354E-08
 -1     26612 9.31451E-02 4.01828E-02-1.41190E-08-8.15005E-02 1.03516E-09 7.40100E-10
 -1     26617 9.23995E-02 4.09282E-02-7.49784E-08-7.92062E-02 1.38733E-08 1.00700E-08
 -1     26618 7.95335E-02 5.37942E-02-7.92290E-08-8.12558E-02 8.60425E-09 7.35654E-09
 -1     26619 9.31451E-02 4.01828E-02-1.41129E-08-8.15005E-02 6.02027E-10 4.30542E-10
 -1     26624 9.23995E-02 4.09282E-02-7.96807E-08-7.92062E-02 5.54522E-09 4.02727E-09
 -1     26625 7.95335E-02 5.37942E-02-7.47015E-08-8.12558E-02 8.90126E-10 7.63968E-10
 -1     26626 9.31451E-02 4.01828E-02-1.49429E-08-8.15005E-02 4.99888E-10 3.60068E-10
 -1     26631 9.23995E-02 4.09282E-02-7.53609E-08-7.92062E-02 5.13150E-10 3.72865E-10
 -1     26632 7.95335E-02 5.37942E-02-7.15630E-08-8.12558E-02-4.76117E-10-4.05573E-10
 -1     26633 9.31451E-02 4.01828E-02-1.60640E-08-8.15005E-02 1.58916E-10 1.14555E-10
 -1     26638 9.23995E-02 4.09282E-02-7.28323E-08-7.92062E-02-2.19196E-15 3.01976E-15
 -1     26639 7.95335E-02 5.37942E-02-7.15630E-08-8.12558E-02 4.76124E-10 4.05574E-10
 -1     26640 9.31451E-02 4.01828E-02-1.60640E-08-8.15005E-02-1.58931E-10-1.14552E-10
 -1     26645 9.23995E-02 4.09282E-02-7.53609E-08-7.92062E-02-5.13142E-10-3.72867E-10
 -1     26646 7.95335E-02 5.37942E-02-7.47015E-08-8.12558E-02-8.90132E-10-7.63957E-10
 -1     26647 9.31451E-02 4.01828E-02-1.49429E-08-8.15005E-02-4.99873E-10-3.60072E-10
 -1     26652 9.23995E-02 4.09282E-02-7.96807E-08-7.92062E-02-5.54522E-09-4.02727E-09
 -1     26653 7.95335E-02 5.37942E-02-7.92290E-08-8.12558E-02-8.60425E-09-7.35654E-09
 -1     26654 9.31451E-02 4.01828E-02-1.41129E-08-8.15005E-02-6.02021E-10-4.30550E-10
 -1     26659 9.23995E-02 4.09282E-02-7.49784E-08-7.92062E-02-1.38733E-08-1.00700E-08
 -1     26660 7.95335E-02 5.37942E-02-8.30010E-08-8.12558E-02-2.03956E-08-1.74354E-08
 -1     26661 9.31451E-02 4.01828E-02-1.41190E-08-8.15005E-02-1.03515E-09-7.40105E-10
 -1     26666 9.23995E-02 4.09282E-02-5.60560E-08-7.92062E-02-1.66216E-08-1.20604E-08
 -1     26667 7.95335E-02 5.37942E-02-5.08637E-08-8.12558E-02-3.11136E-08-2.65776E-08
 -1     26668 9.31451E-02 4.01828E-02 2.26536E-10-8.15005E-02-4.33828E-09-3.15079E-09
 -1     26673 9.23995E-02 4.09282E-02-3.38375E-08-7.92062E-02-1.22553E-08-8.92280E-09
 -1     26677 1.15616E-01 1.77118E-02-3.38814E-08-6.73768E-02 1.34925E-08 6.84730E-09
 -1     26678 1.04013E-01 2.93147E-02-5.09011E-08-7.33019E-02 3.48690E-08 2.13682E-08
 -1     26679 1.17034E-01 1.62939E-02 2.59554E-10-6.93285E-02 4.77127E-09 2.44248E-09
 -1     26684 1.15616E-01 1.77117E-02-5.60904E-08-6.73768E-02 1.82669E-08 9.31903E-09
 -1     26685 1.04013E-01 2.93147E-02-8.30288E-08-7.33019E-02 2.28667E-08 1.40066E-08
 -1     26686 1.17034E-01 1.62939E-02-1.40908E-08-6.93285E-02 1.12245E-09 5.82117E-10
 -1     26691 1.15616E-01 1.77117E-02-7.49789E-08-6.73768E-02 1.52418E-08 7.76401E-09
 -1     26692 1.04013E-01 2.93147E-02-7.92547E-08-7.33019E-02 9.64226E-09 5.90738E-09
 -1     26693 1.17034E-01 1.62939E-02-1.40721E-08-6.93285E-02 6.46551E-10 3.35758E-10
 -1     26698 1.15616E-01 1.77118E-02-7.96573E-08-6.73768E-02 6.07924E-09 3.09870E-09
 -1     26699 1.04013E-01 2.93147E-02-7.47283E-08-7.33019E-02 9.94403E-10 6.07989E-10
 -1     26700 1.17034E-01 1.62939E-02-1.48932E-08-6.93285E-02 5.38966E-10 2.78738E-10
 -1     26705 1.15616E-01 1.77118E-02-7.53250E-08-6.73768E-02 5.50359E-10 2.81089E-10
 -1     26706 1.04013E-01 2.93147E-02-7.15914E-08-7.33019E-02-5.35033E-10-3.28389E-10
 -1     26707 1.17034E-01 1.62939E-02-1.60094E-08-6.93285E-02 1.70977E-10 8.84247E-11
 -1     26712 1.15616E-01 1.77118E-02-7.27922E-08-6.73768E-02 5.23829E-15-7.11700E-15
 -1     26713 1.04013E-01 2.93147E-02-7.15914E-08-7.33019E-02 5.35047E-10 3.28391E-10
 -1     26714 1.17034E-01 1.62939E-02-1.60094E-08-6.93285E-02-1.70981E-10-8.84331E-11
 -1     26719 1.15616E-01 1.77118E-02-7.53250E-08-6.73768E-02-5.50358E-10-2.81093E-10
 -1     26720 1.04013E-01 2.93147E-02-7.47282E-08-7.33019E-02-9.94399E-10-6.07984E-10
 -1     26721 1.17034E-01 1.62939E-02-1.48932E-08-6.93285E-02-5.38965E-10-2.78744E-10
 -1     26726 1.15616E-01 1.77118E-02-7.96573E-08-6.73768E-02-6.07921E-09-3.09870E-09
 -1     26727 1.04013E-01 2.93147E-02-7.92546E-08-7.33019E-02-9.64226E-09-5.90738E-09
 -1     26728 1.17034E-01 1.62939E-02-1.40720E-08-6.93285E-02-6.46548E-10-3.35759E-10
 -1     26733 1.15616E-01 1.77117E-02-7.49789E-08-6.73768E-02-1.52418E-08-7.76401E-09
 -1     26734 1.04013E-01 2.93147E-02-8.30288E-08-7.33019E-02-2.28667E-08-1.40066E-08
 -1     26735 1.17034E-01 1.62939E-02-1.40908E-08-6.93285E-02-1.12244E-09-5.82114E-10
 -1     26740 1.15616E-01 1.77117E-02-5.60904E-08-6.73768E-02-1.82669E-08-9.31902E-09
 -1     26741 1.04013E-01 2.93147E-02-5.09011E-08-7.33019E-02-3.48690E-08-2.13682E-08
 -1     26742 1.17034E-01 1.62939E-02 2.59558E-10-6.93285E-02-4.77127E-09-2.44247E-09
 -1     26747 1.15616E-01 1.77118E-02-3.38814E-08-6.73768E-02-1.34925E-08-6.84729E-09
 -1     26751 1.34041E-01-7.12933E-04-3.39766E-08-4.89521E-02 1.43132E-08 4.65212E-09
 -1     26752 1.24837E-01 8.49111E-03-5.08182E-08-5.81727E-02 3.78199E-08 1.56628E-08
 -1     26753 1.35992E-01-2.66454E-03 3.24247E-10-5.03701E-02 5.10838E-09 1.66571E-09
 -1     26758 1.34041E-01-7.12962E-04-5.61602E-08-4.89521E-02 1.94359E-08 6.31492E-09
 -1     26759 1.24837E-01 8.49112E-03-8.29643E-08-5.81727E-02 2.48001E-08 1.02602E-08
 -1     26760 1.35992E-01-2.66455E-03-1.40325E-08-5.03701E-02 1.20392E-09 3.93616E-10
 -1     26765 1.34041E-01-7.12952E-04-7.49893E-08-4.89521E-02 1.61936E-08 5.26287E-09
 -1     26766 1.24837E-01 8.49113E-03-7.91939E-08-5.81727E-02 1.04623E-08 4.32753E-09
 -1     26767 1.35992E-01-2.66455E-03-1.39967E-08-5.03701E-02 6.85360E-10 2.26391E-10
 -1     26772 1.34041E-01-7.12947E-04-7.96275E-08-4.89521E-02 6.42935E-09 2.09332E-09
 -1     26773 1.24837E-01 8.49113E-03-7.46642E-08-5.81727E-02 1.08417E-09 4.44906E-10
 -1     26774 1.35992E-01-2.66454E-03-1.48044E-08-5.03701E-02 5.69214E-10 1.88091E-10
 -1     26779 1.34041E-01-7.12948E-04-7.52733E-08-4.89521E-02 5.54718E-10 1.82716E-10
 -1     26780 1.24837E-01 8.49113E-03-7.15235E-08-5.81727E-02-5.78116E-10-2.40887E-10
 -1     26781 1.35992E-01-2.66454E-03-1.59128E-08-5.03701E-02 1.79953E-10 5.95783E-11
 -1     26786 1.34041E-01-7.12949E-04-7.27328E-08-4.89521E-02-1.79368E-15 3.80254E-15
 -1     26787 1.24837E-01 8.49113E-03-7.15235E-08-5.81727E-02 5.78127E-10 2.40887E-10
 -1     26788 1.35992E-01-2.66454E-03-1.59128E-08-5.03701E-02-1.79933E-10-5.95772E-11
 -1     26793 1.34041E-01-7.12948E-04-7.52733E-08-4.89521E-02-5.54702E-10-1.82720E-10
 -1     26794 1.24837E-01 8.49113E-03-7.46642E-08-5.81727E-02-1.08416E-09-4.44908E-10
 -1     26795 1.35992E-01-2.66454E-03-1.48044E-08-5.03701E-02-5.69208E-10-1.88086E-10
 -1     26800 1.34041E-01-7.12947E-04-7.96275E-08-4.89521E-02-6.42935E-09-2.09332E-09
 -1     26801 1.24837E-01 8.49113E-03-7.91939E-08-5.81727E-02-1.04623E-08-4.32753E-09
 -1     26802 1.35992E-01-2.66455E-03-1.39967E-08-5.03701E-02-6.85360E-10-2.26388E-10
 -1     26807 1.34041E-01-7.12952E-04-7.49893E-08-4.89521E-02-1.61936E-08-5.26288E-09
 -1     26808 1.24837E-01 8.49112E-03-8.29643E-08-5.81727E-02-2.48001E-08-1.02602E-08
 -1     26809 1.35992E-01-2.66455E-03-1.40325E-08-5.03701E-02-1.20391E-09-3.93615E-10
 -1     26814 1.34041E-01-7.12962E-04-5.61602E-08-4.89521E-02-1.94359E-08-6.31492E-09
 -1     26815 1.24837E-01 8.49111E-03-5.08182E-08-5.81727E-02-3.78198E-08-1.56628E-08
 -1     26816 1.35992E-01-2.66454E-03 3.24250E-10-5.03701E-02-5.10837E-09-1.66570E-09
 -1     26821 1.34041E-01-7.12933E-04-3.39766E-08-4.89521E-02-1.43132E-08-4.65212E-09
 -1     26825 1.45870E-01-1.25423E-02-3.38805E-08-2.57357E-02 1.49202E-08 2.40786E-09
 -1     26826 1.39966E-01-6.63808E-03-5.08037E-08-3.73492E-02 3.98156E-08 9.56510E-09
 -1     26827 1.48165E-01-1.48366E-02 2.80822E-10-2.64811E-02 5.29895E-09 8.31670E-10
 -1     26832 1.45870E-01-1.25423E-02-5.60843E-08-2.57357E-02 2.02294E-08 3.17926E-09
 -1     26833 1.39966E-01-6.63807E-03-8.29574E-08-3.73492E-02 2.61052E-08 6.27509E-09
 -1     26834 1.48164E-01-1.48366E-02-1.40677E-08-2.64811E-02 1.24853E-09 1.81065E-10
 -1     26839 1.45870E-01-1.25423E-02-7.49434E-08-2.57357E-02 1.68630E-08 2.66947E-09
 -1     26840 1.39966E-01-6.63806E-03-7.91896E-08-3.73492E-02 1.10156E-08 2.64808E-09
 -1     26841 1.48164E-01-1.48366E-02-1.40421E-08-2.64811E-02 7.16805E-10 1.06576E-10
 -1     26846 1.45870E-01-1.25423E-02-7.96125E-08-2.57357E-02 6.71589E-09 1.06733E-09
 -1     26847 1.39966E-01-6.63806E-03-7.46592E-08-3.73492E-02 1.14373E-09 2.76087E-10
 -1     26848 1.48164E-01-1.48366E-02-1.48577E-08-2.64811E-02 5.96984E-10 9.18780E-11
 -1     26853 1.45870E-01-1.25423E-02-7.52756E-08-2.57357E-02 5.97772E-10 9.74155E-11
 -1     26854 1.39966E-01-6.63806E-03-7.15182E-08-3.73492E-02-6.07486E-10-1.45470E-10
 -1     26855 1.48164E-01-1.48366E-02-1.59704E-08-2.64811E-02 1.89167E-10 2.93209E-11
 -1     26860 1.45870E-01-1.25423E-02-7.27403E-08-2.57357E-02-1.21681E-15-3.27964E-16
 -1     26861 1.39966E-01-6.63806E-03-7.15182E-08-3.73492E-02 6.07491E-10 1.45473E-10
 -1     26862 1.48164E-01-1.48366E-02-1.59704E-08-2.64811E-02-1.89167E-10-2.93212E-11
 -1     26867 1.45870E-01-1.25423E-02-7.52756E-08-2.57357E-02-5.97763E-10-9.74157E-11
 -1     26868 1.39966E-01-6.63806E-03-7.46592E-08-3.73492E-02-1.14373E-09-2.76086E-10
 -1     26869 1.48164E-01-1.48366E-02-1.48577E-08-2.64811E-02-5.96984E-10-9.18788E-11
 -1     26874 1.45870E-01-1.25423E-02-7.96125E-08-2.57357E-02-6.71590E-09-1.06733E-09
 -1     26875 1.39966E-01-6.63806E-03-7.91896E-08-3.73492E-02-1.10156E-08-2.64808E-09
 -1     26876 1.48164E-01-1.48366E-02-1.40421E-08-2.64811E-02-7.16808E-10-1.06578E-10
 -1     26881 1.45870E-01-1.25423E-02-7.49434E-08-2.57357E-02-1.68630E-08-2.66947E-09
 -1     26882 1.39966E-01-6.63807E-03-8.29574E-08-3.73492E-02-2.61052E-08-6.27509E-09
 -1     26883 1.48164E-01-1.48366E-02-1.40676E-08-2.64811E-02-1.24853E-09-1.81066E-10
 -1     26888 1.45870E-01-1.25423E-02-5.60843E-08-2.57357E-02-2.02294E-08-3.17926E-09
 -1     26889 1.39966E-01-6.63808E-03-5.08037E-08-3.73492E-02-3.98155E-08-9.56510E-09
 -1     26890 1.48165E-01-1.48366E-02 2.80816E-10-2.64811E-02-5.29896E-09-8.31672E-10
 -1     26895 1.45870E-01-1.25423E-02-3.38805E-08-2.57357E-02-1.49202E-08-2.40786E-09
 -1     26899 1.47920E-01-1.45920E-02-5.09210E-08-1.28697E-02 4.07675E-08 3.21271E-09
 -1     26903 1.47920E-01-1.45920E-02-8.30531E-08-1.28697E-02 2.67334E-08 2.11880E-09
 -1     26907 1.47920E-01-1.45919E-02-7.92828E-08-1.28697E-02 1.12746E-08 8.93175E-10
 -1     26911 1.47920E-01-1.45919E-02-7.47565E-08-1.28697E-02 1.16391E-09 9.44738E-11
 -1     26915 1.47920E-01-1.45919E-02-7.16213E-08-1.28697E-02-6.24713E-10-4.83472E-11
 -1     26919 1.47920E-01-1.45919E-02-7.16213E-08-1.28697E-02 6.24721E-10 4.83385E-11
 -1     26923 1.47920E-01-1.45919E-02-7.47565E-08-1.28697E-02-1.16391E-09-9.44821E-11
 -1     26927 1.47920E-01-1.45919E-02-7.92828E-08-1.28697E-02-1.12746E-08-8.93182E-10
 -1     26931 1.47920E-01-1.45920E-02-8.30531E-08-1.28697E-02-2.67334E-08-2.11881E-09
 -1     26935 1.47920E-01-1.45920E-02-5.09210E-08-1.28697E-02-4.07675E-08-3.21272E-09
 -1     26941-8.31759E-03 1.41646E-01 6.65200E-08-2.43631E-02-6.34661E-09-4.01781E-08
 -1     26942-1.02611E-02 1.43590E-01 1.80309E-07-1.21838E-02-1.27331E-08-1.61766E-07
 -1     26943-1.04296E-02 1.43758E-01 7.62217E-09-2.50493E-02-1.09197E-09-6.95242E-09
 -1     26948-8.31747E-03 1.41646E-01 2.13145E-07-2.43631E-02-1.73565E-08-1.09671E-07
 -1     26949-1.02612E-02 1.43590E-01 2.89851E-07-1.21838E-02-8.99533E-09-1.14275E-07
 -1     26950-1.04296E-02 1.43758E-01 4.34636E-08-2.50493E-02-1.03935E-09-6.58802E-09
 -1     26955-8.31754E-03 1.41646E-01 3.05383E-07-2.43631E-02-1.21602E-08-7.67950E-08
 -1     26956-1.02612E-02 1.43590E-01 3.04467E-07-1.21838E-02-3.39232E-09-4.30937E-08
 -1     26957-1.04296E-02 1.43758E-01 5.08638E-08-2.50493E-02-1.67740E-09-1.06003E-08
 -1     26962-8.31757E-03 1.41646E-01 3.04344E-07-2.43631E-02-4.13256E-09-2.60833E-08
 -1     26963-1.02612E-02 1.43590E-01 2.90351E-07-1.21838E-02-6.56106E-10-8.33430E-09
 -1     26964-1.04296E-02 1.43758E-01 5.95194E-08-2.50493E-02-1.02837E-09-6.49242E-09
 -1     26969-8.31757E-03 1.41646E-01 2.84639E-07-2.43631E-02-7.05858E-10-4.44316E-09
 -1     26970-1.02612E-02 1.43590E-01 2.76629E-07-1.21838E-02-1.95229E-11-2.48421E-10
 -1     26971-1.04296E-02 1.43758E-01 6.31613E-08-2.50493E-02-2.91058E-10-1.83586E-09
 -1     26976-8.31756E-03 1.41646E-01 2.76833E-07-2.43631E-02-1.20126E-15 1.81521E-14
 -1     26977-1.02612E-02 1.43590E-01 2.76629E-07-1.21838E-02 1.95227E-11 2.48429E-10
 -1     26978-1.04296E-02 1.43758E-01 6.31613E-08-2.50493E-02 2.91056E-10 1.83588E-09
 -1     26983-8.31757E-03 1.41646E-01 2.84639E-07-2.43631E-02 7.05858E-10 4.44319E-09
 -1     26984-1.02612E-02 1.43590E-01 2.90351E-07-1.21838E-02 6.56107E-10 8.33431E-09
 -1     26985-1.04296E-02 1.43758E-01 5.95194E-08-2.50493E-02 1.02837E-09 6.49242E-09
 -1     26990-8.31757E-03 1.41646E-01 3.04344E-07-2.43631E-02 4.13256E-09 2.60833E-08
 -1     26991-1.02612E-02 1.43590E-01 3.04467E-07-1.21838E-02 3.39232E-09 4.30937E-08
 -1     26992-1.04296E-02 1.43758E-01 5.08638E-08-2.50493E-02 1.67740E-09 1.06003E-08
 -1     26997-8.31754E-03 1.41646E-01 3.05383E-07-2.43631E-02 1.21602E-08 7.67950E-08
 -1     26998-1.02612E-02 1.43590E-01 2.89851E-07-1.21838E-02 8.99533E-09 1.14275E-07
 -1     26999-1.04296E-02 1.43758E-01 4.34636E-08-2.50493E-02 1.03935E-09 6.58802E-09
 -1     27004-8.31747E-03 1.41646E-01 2.13145E-07-2.43631E-02 1.73565E-08 1.09671E-07
 -1     27005-1.02611E-02 1.43590E-01 1.80309E-07-1.21838E-02 1.27331E-08 1.61766E-07
 -1     27006-1.04296E-02 1.43758E-01 7.62217E-09-2.50493E-02 1.09197E-09 6.95241E-09
 -1     27011-8.31759E-03 1.41646E-01 6.65200E-08-2.43631E-02 6.34661E-09 4.01781E-08
 -1     27015 2.88091E-03 1.30448E-01 6.65617E-08-4.63414E-02-1.25279E-08-3.86801E-08
 -1     27016-2.73107E-03 1.36060E-01 1.80286E-07-3.53588E-02-3.78842E-08-1.57784E-07
 -1     27017 1.08428E-03 1.32244E-01 7.61777E-09-4.76465E-02-2.16099E-09-6.70438E-09
 -1     27022 2.88103E-03 1.30448E-01 2.13174E-07-4.63414E-02-3.42879E-08-1.05592E-07
 -1     27023-2.73117E-03 1.36060E-01 2.89828E-07-3.53588E-02-2.67635E-08-1.11462E-07
 -1     27024 1.08429E-03 1.32244E-01 4.34649E-08-4.76465E-02-2.05865E-09-6.35020E-09
 -1     27029 2.88096E-03 1.30448E-01 3.05414E-07-4.63414E-02-2.40210E-08-7.39345E-08
 -1     27030-2.73122E-03 1.36060E-01 3.04442E-07-3.53589E-02-1.00919E-08-4.20329E-08
 -1     27031 1.08427E-03 1.32244E-01 5.08669E-08-4.76465E-02-3.31741E-09-1.02113E-08
 -1     27036 2.88093E-03 1.30448E-01 3.04376E-07-4.63414E-02-8.16163E-09-2.51043E-08
 -1     27037-2.73122E-03 1.36060E-01 2.90326E-07-3.53588E-02-1.95121E-09-8.12970E-09
 -1     27038 1.08426E-03 1.32244E-01 5.95225E-08-4.76465E-02-2.03339E-09-6.25310E-09
 -1     27043 2.88093E-03 1.30448E-01 2.84669E-07-4.63414E-02-1.39267E-09-4.27068E-09
 -1     27044-2.73122E-03 1.36060E-01 2.76604E-07-3.53588E-02-5.77784E-11-2.42643E-10
 -1     27045 1.08426E-03 1.32244E-01 6.31640E-08-4.76465E-02-5.75512E-10-1.76799E-09
 -1     27050 2.88094E-03 1.30448E-01 2.76862E-07-4.63414E-02-5.17101E-16-1.88240E-14
 -1     27051-2.73122E-03 1.36060E-01 2.76604E-07-3.53588E-02 5.77808E-11 2.42652E-10
 -1     27052 1.08426E-03 1.32244E-01 6.31640E-08-4.76465E-02 5.75509E-10 1.76798E-09
 -1     27057 2.88093E-03 1.30448E-01 2.84669E-07-4.63414E-02 1.39266E-09 4.27067E-09
 -1     27058-2.73122E-03 1.36060E-01 2.90326E-07-3.53588E-02 1.95121E-09 8.12971E-09
 -1     27059 1.08426E-03 1.32244E-01 5.95225E-08-4.76465E-02 2.03339E-09 6.25309E-09
 -1     27064 2.88093E-03 1.30448E-01 3.04376E-07-4.63414E-02 8.16162E-09 2.51043E-08
 -1     27065-2.73122E-03 1.36060E-01 3.04442E-07-3.53589E-02 1.00919E-08 4.20329E-08
 -1     27066 1.08427E-03 1.32244E-01 5.08669E-08-4.76465E-02 3.31741E-09 1.02113E-08
 -1     27071 2.88096E-03 1.30448E-01 3.05414E-07-4.63414E-02 2.40210E-08 7.39345E-08
 -1     27072-2.73117E-03 1.36060E-01 2.89828E-07-3.53588E-02 2.67635E-08 1.11462E-07
 -1     27073 1.08429E-03 1.32244E-01 4.34649E-08-4.76465E-02 2.05865E-09 6.35020E-09
 -1     27078 2.88103E-03 1.30448E-01 2.13174E-07-4.63414E-02 3.42879E-08 1.05592E-07
 -1     27079-2.73107E-03 1.36060E-01 1.80286E-07-3.53588E-02 3.78842E-08 1.57784E-07
 -1     27080 1.08428E-03 1.32244E-01 7.61778E-09-4.76465E-02 2.16099E-09 6.70437E-09
 -1     27085 2.88091E-03 1.30448E-01 6.65617E-08-4.63414E-02 1.25279E-08 3.86801E-08
 -1     27089 2.03230E-02 1.13006E-01 6.65689E-08-6.37835E-02-1.84166E-08-3.62338E-08
 -1     27090 1.15919E-02 1.21737E-01 1.80280E-07-5.50727E-02-6.21106E-08-1.49932E-07
 -1     27091 1.90176E-02 1.14311E-01 7.62887E-09-6.55798E-02-3.18064E-09-6.28111E-09
 -1     27096 2.03231E-02 1.13006E-01 2.13174E-07-6.37835E-02-5.03487E-08-9.89092E-08
 -1     27097 1.15918E-02 1.21737E-01 2.89820E-07-5.50727E-02-4.38750E-08-1.05919E-07
 -1     27098 1.90176E-02 1.14311E-01 4.34608E-08-6.55798E-02-3.01727E-09-5.93842E-09
 -1     27103 2.03230E-02 1.13006E-01 3.05402E-07-6.37835E-02-3.52564E-08-6.92343E-08
 -1     27104 1.15917E-02 1.21737E-01 3.04431E-07-5.50727E-02-1.65473E-08-3.99499E-08
 -1     27105 1.90176E-02 1.14311E-01 5.08486E-08-6.55798E-02-4.86074E-09-9.55128E-09
 -1     27110 2.03230E-02 1.13006E-01 3.04342E-07-6.37835E-02-1.19548E-08-2.34891E-08
 -1     27111 1.15917E-02 1.21737E-01 2.90315E-07-5.50727E-02-3.20227E-09-7.73356E-09
 -1     27112 1.90176E-02 1.14311E-01 5.94907E-08-6.55798E-02-2.97454E-09-5.84519E-09
 -1     27117 2.03230E-02 1.13006E-01 2.84615E-07-6.37835E-02-2.02314E-09-3.98264E-09
 -1     27118 1.15917E-02 1.21737E-01 2.76595E-07-5.50727E-02-9.62483E-11-2.34039E-10
 -1     27119 1.90176E-02 1.14311E-01 6.31242E-08-6.55798E-02-8.40240E-10-1.65117E-09
 -1     27124 2.03230E-02 1.13006E-01 2.76801E-07-6.37835E-02 2.31864E-15 3.09784E-14
 -1     27125 1.15917E-02 1.21737E-01 2.76595E-07-5.50727E-02 9.62462E-11 2.34052E-10
 -1     27126 1.90176E-02 1.14311E-01 6.31242E-08-6.55798E-02 8.40241E-10 1.65122E-09
 -1     27131 2.03230E-02 1.13006E-01 2.84615E-07-6.37835E-02 2.02314E-09 3.98268E-09
 -1     27132 1.15917E-02 1.21737E-01 2.90315E-07-5.50727E-02 3.20226E-09 7.73358E-09
 -1     27133 1.90176E-02 1.14311E-01 5.94907E-08-6.55798E-02 2.97453E-09 5.84523E-09
 -1     27138 2.03230E-02 1.13006E-01 3.04342E-07-6.37835E-02 1.19548E-08 2.34891E-08
 -1     27139 1.15917E-02 1.21737E-01 3.04431E-07-5.50727E-02 1.65473E-08 3.99499E-08
 -1     27140 1.90176E-02 1.14311E-01 5.08486E-08-6.55798E-02 4.86075E-09 9.55130E-09
 -1     27145 2.03230E-02 1.13006E-01 3.05402E-07-6.37835E-02 3.52564E-08 6.92343E-08
 -1     27146 1.15918E-02 1.21737E-01 2.89820E-07-5.50727E-02 4.38750E-08 1.05919E-07
 -1     27147 1.90176E-02 1.14311E-01 4.34608E-08-6.55798E-02 3.01727E-09 5.93843E-09
 -1     27152 2.03231E-02 1.13006E-01 2.13174E-07-6.37835E-02 5.03487E-08 9.89092E-08
 -1     27153 1.15919E-02 1.21737E-01 1.80280E-07-5.50727E-02 6.21106E-08 1.49932E-07
 -1     27154 1.90176E-02 1.14311E-01 7.62886E-09-6.55798E-02 3.18065E-09 6.28112E-09
 -1     27159 2.03230E-02 1.13006E-01 6.65689E-08-6.37835E-02 1.84166E-08 3.62338E-08
 -1     27163 4.23013E-02 9.10275E-02 6.66338E-08-7.49820E-02-2.39172E-08-3.29542E-08
 -1     27164 3.13057E-02 1.02023E-01 1.80299E-07-6.93956E-02-8.47953E-08-1.38371E-07
 -1     27165 4.16148E-02 9.17134E-02 7.65916E-09-7.70937E-02-4.12453E-09-5.71035E-09
 -1     27170 4.23014E-02 9.10276E-02 2.13280E-07-7.49820E-02-6.52581E-08-8.99303E-08
 -1     27171 3.13056E-02 1.02023E-01 2.89826E-07-6.93956E-02-5.99128E-08-9.77471E-08
 -1     27172 4.16148E-02 9.17134E-02 4.35006E-08-7.70937E-02-3.91673E-09-5.41444E-09
 -1     27177 4.23013E-02 9.10276E-02 3.05546E-07-7.49820E-02-4.57163E-08-6.29739E-08
 -1     27178 3.13056E-02 1.02023E-01 3.04434E-07-6.93957E-02-2.26005E-08-3.68658E-08
 -1     27179 4.16148E-02 9.17134E-02 5.08962E-08-7.70937E-02-6.30452E-09-8.69781E-09
 -1     27184 4.23013E-02 9.10276E-02 3.04510E-07-7.49820E-02-1.55291E-08-2.14173E-08
 -1     27185 3.13056E-02 1.02023E-01 2.90322E-07-6.93957E-02-4.37963E-09-7.13464E-09
 -1     27186 4.16148E-02 9.17134E-02 5.95489E-08-7.70937E-02-3.85854E-09-5.32773E-09
 -1     27191 4.23013E-02 9.10276E-02 2.84798E-07-7.49820E-02-2.64594E-09-3.66692E-09
 -1     27192 3.13056E-02 1.02023E-01 2.76606E-07-6.93956E-02-1.34563E-10-2.15151E-10
 -1     27193 4.16148E-02 9.17134E-02 6.31893E-08-7.70937E-02-1.09035E-09-1.50698E-09
 -1     27198 4.23013E-02 9.10276E-02 2.76991E-07-7.49820E-02 2.16528E-15-1.95048E-15
 -1     27199 3.13056E-02 1.02023E-01 2.76606E-07-6.93956E-02 1.34553E-10 2.15148E-10
 -1     27200 4.16148E-02 9.17134E-02 6.31893E-08-7.70937E-02 1.09034E-09 1.50697E-09
 -1     27205 4.23013E-02 9.10276E-02 2.84798E-07-7.49820E-02 2.64594E-09 3.66689E-09
 -1     27206 3.13056E-02 1.02023E-01 2.90322E-07-6.93957E-02 4.37961E-09 7.13464E-09
 -1     27207 4.16148E-02 9.17134E-02 5.95489E-08-7.70937E-02 3.85853E-09 5.32772E-09
 -1     27212 4.23013E-02 9.10276E-02 3.04510E-07-7.49820E-02 1.55291E-08 2.14173E-08
 -1     27213 3.13056E-02 1.02023E-01 3.04434E-07-6.93957E-02 2.26005E-08 3.68657E-08
 -1     27214 4.16148E-02 9.17134E-02 5.08961E-08-7.70937E-02 6.30450E-09 8.69779E-09
 -1     27219 4.23013E-02 9.10276E-02 3.05546E-07-7.49820E-02 4.57162E-08 6.29739E-08
 -1     27220 3.13056E-02 1.02023E-01 2.89826E-07-6.93956E-02 5.99128E-08 9.77471E-08
 -1     27221 4.16148E-02 9.17134E-02 4.35006E-08-7.70937E-02 3.91671E-09 5.41444E-09
 -1     27226 4.23014E-02 9.10276E-02 2.13280E-07-7.49820E-02 6.52580E-08 8.99303E-08
 -1     27227 3.13057E-02 1.02023E-01 1.80299E-07-6.93956E-02 8.47953E-08 1.38371E-07
 -1     27228 4.16148E-02 9.17134E-02 7.65917E-09-7.70937E-02 4.12453E-09 5.71035E-09
 -1     27233 4.23013E-02 9.10275E-02 6.66338E-08-7.49820E-02 2.39172E-08 3.29542E-08
 -1     27237 6.66644E-02 6.66644E-02 6.66926E-08-7.88407E-02-2.87284E-08-2.88825E-08
 -1     27238 5.44807E-02 7.88483E-02 1.80161E-07-7.69256E-02-1.05348E-07-1.23349E-07
 -1     27239 6.66641E-02 6.66641E-02 7.63622E-09-8.10611E-02-4.98106E-09-5.03748E-09
 -1     27244 6.66645E-02 6.66645E-02 2.13352E-07-7.88407E-02-7.86341E-08-7.85916E-08
 -1     27245 5.44806E-02 7.88483E-02 2.89697E-07-7.69257E-02-7.44290E-08-8.71206E-08
 -1     27246 6.66641E-02 6.66641E-02 4.35393E-08-8.10611E-02-4.77800E-09-4.76120E-09
 -1     27251 6.66644E-02 6.66644E-02 3.05650E-07-7.88407E-02-5.51236E-08-5.50643E-08
 -1     27252 5.44806E-02 7.88483E-02 3.04304E-07-7.69257E-02-2.80570E-08-3.28406E-08
 -1     27253 6.66641E-02 6.66641E-02 5.09694E-08-8.10611E-02-7.65444E-09-7.63367E-09
 -1     27258 6.66644E-02 6.66644E-02 3.04672E-07-7.88407E-02-1.87972E-08-1.87446E-08
 -1     27259 5.44806E-02 7.88483E-02 2.90194E-07-7.69257E-02-5.42041E-09-6.33761E-09
 -1     27260 6.66641E-02 6.66641E-02 5.96526E-08-8.10611E-02-4.69616E-09-4.68042E-09
 -1     27265 6.66644E-02 6.66644E-02 2.85002E-07-7.88407E-02-3.25045E-09-3.21954E-09
 -1     27266 5.44806E-02 7.88483E-02 2.76478E-07-7.69257E-02-1.59125E-10-1.82717E-10
 -1     27267 6.66641E-02 6.66641E-02 6.33109E-08-8.10611E-02-1.33198E-09-1.32580E-09
 -1     27272 6.66644E-02 6.66644E-02 2.77208E-07-7.88407E-02-1.76039E-14-7.86801E-15
 -1     27273 5.44806E-02 7.88483E-02 2.76478E-07-7.69257E-02 1.59115E-10 1.82728E-10
 -1     27274 6.66641E-02 6.66641E-02 6.33109E-08-8.10611E-02 1.33197E-09 1.32580E-09
 -1     27279 6.66644E-02 6.66644E-02 2.85002E-07-7.88407E-02 3.25044E-09 3.21954E-09
 -1     27280 5.44806E-02 7.88483E-02 2.90194E-07-7.69257E-02 5.42040E-09 6.33763E-09
 -1     27281 6.66641E-02 6.66641E-02 5.96526E-08-8.10611E-02 4.69615E-09 4.68043E-09
 -1     27286 6.66644E-02 6.66644E-02 3.04672E-07-7.88407E-02 1.87972E-08 1.87446E-08
 -1     27287 5.44806E-02 7.88483E-02 3.04304E-07-7.69257E-02 2.80570E-08 3.28406E-08
 -1     27288 6.66641E-02 6.66641E-02 5.09694E-08-8.10611E-02 7.65444E-09 7.63368E-09
 -1     27293 6.66644E-02 6.66644E-02 3.05650E-07-7.88407E-02 5.51236E-08 5.50643E-08
 -1     27294 5.44806E-02 7.88483E-02 2.89697E-07-7.69257E-02 7.44290E-08 8.71206E-08
 -1     27295 6.66641E-02 6.66641E-02 4.35393E-08-8.10611E-02 4.77799E-09 4.76120E-09
 -1     27300 6.66645E-02 6.66645E-02 2.13352E-07-7.88407E-02 7.86341E-08 7.85916E-08
 -1     27301 5.44807E-02 7.88483E-02 1.80161E-07-7.69256E-02 1.05348E-07 1.23349E-07
 -1     27302 6.66641E-02 6.66641E-02 7.63622E-09-8.10611E-02 4.98105E-09 5.03747E-09
 -1     27307 6.66644E-02 6.66644E-02 6.66926E-08-7.88407E-02 2.87283E-08 2.88825E-08
 -1     27311 9.10275E-02 4.23013E-02 6.66616E-08-7.49820E-02-3.27945E-08-2.39389E-08
 -1     27312 7.88483E-02 5.44807E-02 1.80230E-07-7.69256E-02-1.23426E-07-1.05373E-07
 -1     27313 9.17134E-02 4.16148E-02 7.61690E-09-7.70937E-02-5.67640E-09-4.16121E-09
 -1     27318 9.10276E-02 4.23014E-02 2.13257E-07-7.49820E-02-8.96640E-08-6.51216E-08
 -1     27319 7.88483E-02 5.44806E-02 2.89752E-07-7.69257E-02-8.71523E-08-7.44739E-08
 -1     27320 9.17134E-02 4.16149E-02 4.33803E-08-7.70937E-02-5.35241E-09-3.87071E-09
 -1     27325 9.10276E-02 4.23013E-02 3.05370E-07-7.49820E-02-6.26938E-08-4.55022E-08
 -1     27326 7.88483E-02 5.44806E-02 3.04346E-07-7.69257E-02-3.28541E-08-2.80911E-08
 -1     27327 9.17134E-02 4.16148E-02 5.07354E-08-7.70937E-02-8.62464E-09-6.24601E-09
 -1     27332 9.10276E-02 4.23013E-02 3.04231E-07-7.49820E-02-2.11840E-08-1.53544E-08
 -1     27333 7.88483E-02 5.44806E-02 2.90216E-07-7.69257E-02-6.34611E-09-5.43993E-09
 -1     27334 9.17134E-02 4.16148E-02 5.93467E-08-7.70937E-02-5.26946E-09-3.81488E-09
 -1     27339 9.10276E-02 4.23013E-02 2.84455E-07-7.49820E-02-3.53533E-09-2.54843E-09
 -1     27340 7.88483E-02 5.44806E-02 2.76491E-07-7.69257E-02-1.85974E-10-1.65648E-10
 -1     27341 9.17134E-02 4.16148E-02 6.29612E-08-7.70937E-02-1.48509E-09-1.07389E-09
 -1     27346 9.10276E-02 4.23013E-02 2.76624E-07-7.49820E-02 4.36156E-15-4.75239E-15
 -1     27347 7.88483E-02 5.44806E-02 2.76491E-07-7.69257E-02 1.85971E-10 1.65648E-10
 -1     27348 9.17134E-02 4.16148E-02 6.29612E-08-7.70937E-02 1.48509E-09 1.07389E-09
 -1     27353 9.10276E-02 4.23013E-02 2.84455E-07-7.49820E-02 3.53533E-09 2.54843E-09
 -1     27354 7.88483E-02 5.44806E-02 2.90216E-07-7.69257E-02 6.34611E-09 5.43993E-09
 -1     27355 9.17134E-02 4.16148E-02 5.93467E-08-7.70937E-02 5.26947E-09 3.81488E-09
 -1     27360 9.10276E-02 4.23013E-02 3.04231E-07-7.49820E-02 2.11840E-08 1.53544E-08
 -1     27361 7.88483E-02 5.44806E-02 3.04346E-07-7.69257E-02 3.28541E-08 2.80911E-08
 -1     27362 9.17134E-02 4.16148E-02 5.07354E-08-7.70937E-02 8.62465E-09 6.24601E-09
 -1     27367 9.10276E-02 4.23013E-02 3.05370E-07-7.49820E-02 6.26938E-08 4.55022E-08
 -1     27368 7.88483E-02 5.44806E-02 2.89752E-07-7.69257E-02 8.71523E-08 7.44739E-08
 -1     27369 9.17134E-02 4.16149E-02 4.33803E-08-7.70937E-02 5.35242E-09 3.87072E-09
 -1     27374 9.10276E-02 4.23014E-02 2.13257E-07-7.49820E-02 8.96640E-08 6.51216E-08
 -1     27375 7.88483E-02 5.44807E-02 1.80230E-07-7.69256E-02 1.23426E-07 1.05373E-07
 -1     27376 9.17134E-02 4.16148E-02 7.61690E-09-7.70937E-02 5.67639E-09 4.16122E-09
 -1     27381 9.10275E-02 4.23013E-02 6.66616E-08-7.49820E-02 3.27945E-08 2.39389E-08
 -1     27385 1.13006E-01 2.03230E-02 6.66510E-08-6.37835E-02-3.62815E-08-1.84342E-08
 -1     27386 1.02023E-01 3.13057E-02 1.80334E-07-6.93956E-02-1.38426E-07-8.48470E-08
 -1     27387 1.14311E-01 1.90176E-02 7.62572E-09-6.55798E-02-6.30498E-09-3.20638E-09
 -1     27392 1.13006E-01 2.03231E-02 2.13349E-07-6.37835E-02-9.88533E-08-5.04816E-08
 -1     27393 1.02023E-01 3.13056E-02 2.89830E-07-6.93956E-02-9.78007E-08-5.99221E-08
 -1     27394 1.14311E-01 1.90176E-02 4.34429E-08-6.55798E-02-5.93478E-09-3.03717E-09
 -1     27399 1.13006E-01 2.03230E-02 3.05530E-07-6.37835E-02-6.91732E-08-3.53020E-08
 -1     27400 1.02023E-01 3.13056E-02 3.04416E-07-6.93957E-02-3.68939E-08-2.26072E-08
 -1     27401 1.14311E-01 1.90176E-02 5.08140E-08-6.55798E-02-9.53619E-09-4.87605E-09
 -1     27406 1.13006E-01 2.03230E-02 3.04447E-07-6.37835E-02-2.34320E-08-1.20038E-08
 -1     27407 1.02023E-01 3.13056E-02 2.90281E-07-6.93957E-02-7.15266E-09-4.37853E-09
 -1     27408 1.14311E-01 1.90176E-02 5.94471E-08-6.55798E-02-5.82951E-09-2.98991E-09
 -1     27413 1.13006E-01 2.03230E-02 2.84705E-07-6.37835E-02-3.94891E-09-2.05460E-09
 -1     27414 1.02023E-01 3.13056E-02 2.76554E-07-6.93956E-02-2.21793E-10-1.33688E-10
 -1     27415 1.14311E-01 1.90176E-02 6.30762E-08-6.55798E-02-1.64479E-09-8.46256E-10
 -1     27420 1.13006E-01 2.03230E-02 2.76885E-07-6.37835E-02 1.81693E-14 3.72139E-16
 -1     27421 1.02023E-01 3.13056E-02 2.76554E-07-6.93956E-02 2.21810E-10 1.33675E-10
 -1     27422 1.14311E-01 1.90176E-02 6.30762E-08-6.55798E-02 1.64481E-09 8.46254E-10
 -1     27427 1.13006E-01 2.03230E-02 2.84705E-07-6.37835E-02 3.94891E-09 2.05459E-09
 -1     27428 1.02023E-01 3.13056E-02 2.90281E-07-6.93957E-02 7.15266E-09 4.37852E-09
 -1     27429 1.14311E-01 1.90176E-02 5.94471E-08-6.55798E-02 5.82952E-09 2.98991E-09
 -1     27434 1.13006E-01 2.03230E-02 3.04447E-07-6.37835E-02 2.34320E-08 1.20038E-08
 -1     27435 1.02023E-01 3.13056E-02 3.04416E-07-6.93957E-02 3.68939E-08 2.26072E-08
 -1     27436 1.14311E-01 1.90176E-02 5.08140E-08-6.55798E-02 9.53621E-09 4.87606E-09
 -1     27441 1.13006E-01 2.03230E-02 3.05530E-07-6.37835E-02 6.91733E-08 3.53020E-08
 -1     27442 1.02023E-01 3.13056E-02 2.89830E-07-6.93956E-02 9.78007E-08 5.99221E-08
 -1     27443 1.14311E-01 1.90176E-02 4.34429E-08-6.55798E-02 5.93478E-09 3.03717E-09
 -1     27448 1.13006E-01 2.03231E-02 2.13349E-07-6.37835E-02 9.88533E-08 5.04816E-08
 -1     27449 1.02023E-01 3.13057E-02 1.80334E-07-6.93956E-02 1.38426E-07 8.48470E-08
 -1     27450 1.14311E-01 1.90176E-02 7.62573E-09-6.55798E-02 6.30498E-09 3.20639E-09
 -1     27455 1.13006E-01 2.03230E-02 6.66510E-08-6.37835E-02 3.62815E-08 1.84342E-08
 -1     27459 1.30448E-01 2.88090E-03 6.66952E-08-4.63414E-02-3.88961E-08-1.26550E-08
 -1     27460 1.21737E-01 1.15919E-02 1.80151E-07-5.50727E-02-1.49851E-07-6.20970E-08
 -1     27461 1.32244E-01 1.08427E-03 7.66356E-09-4.76465E-02-6.75362E-09-2.20178E-09
 -1     27466 1.30448E-01 2.88102E-03 2.13550E-07-4.63414E-02-1.05921E-07-3.44181E-08
 -1     27467 1.21737E-01 1.15918E-02 2.89645E-07-5.50727E-02-1.05866E-07-4.38342E-08
 -1     27468 1.32244E-01 1.08428E-03 4.35510E-08-4.76465E-02-6.43012E-09-2.07862E-09
 -1     27473 1.30448E-01 2.88096E-03 3.05853E-07-4.63414E-02-7.42373E-08-2.41153E-08
 -1     27474 1.21737E-01 1.15917E-02 3.04246E-07-5.50727E-02-3.99067E-08-1.65183E-08
 -1     27475 1.32244E-01 1.08427E-03 5.09640E-08-4.76465E-02-1.02874E-08-3.33925E-09
 -1     27480 1.30448E-01 2.88093E-03 3.04877E-07-4.63414E-02-2.53500E-08-8.24713E-09
 -1     27481 1.21737E-01 1.15917E-02 2.90134E-07-5.50727E-02-7.70589E-09-3.17765E-09
 -1     27482 1.32244E-01 1.08425E-03 5.96481E-08-4.76465E-02-6.30953E-09-2.05403E-09
 -1     27487 1.30448E-01 2.88093E-03 2.85211E-07-4.63414E-02-4.40906E-09-1.44402E-09
 -1     27488 1.21737E-01 1.15917E-02 2.76420E-07-5.50727E-02-2.24686E-10-8.68749E-11
 -1     27489 1.32244E-01 1.08425E-03 6.33099E-08-4.76465E-02-1.78882E-09-5.83620E-10
 -1     27494 1.30448E-01 2.88093E-03 2.77420E-07-4.63414E-02 9.78273E-15 5.30392E-16
 -1     27495 1.21737E-01 1.15917E-02 2.76420E-07-5.50727E-02 2.24691E-10 8.68717E-11
 -1     27496 1.32244E-01 1.08425E-03 6.33099E-08-4.76465E-02 1.78883E-09 5.83623E-10
 -1     27501 1.30448E-01 2.88093E-03 2.85211E-07-4.63414E-02 4.40906E-09 1.44403E-09
 -1     27502 1.21737E-01 1.15917E-02 2.90134E-07-5.50727E-02 7.70589E-09 3.17765E-09
 -1     27503 1.32244E-01 1.08425E-03 5.96481E-08-4.76465E-02 6.30953E-09 2.05403E-09
 -1     27508 1.30448E-01 2.88093E-03 3.04877E-07-4.63414E-02 2.53500E-08 8.24713E-09
 -1     27509 1.21737E-01 1.15917E-02 3.04246E-07-5.50727E-02 3.99067E-08 1.65183E-08
 -1     27510 1.32244E-01 1.08427E-03 5.09640E-08-4.76465E-02 1.02874E-08 3.33924E-09
 -1     27515 1.30448E-01 2.88096E-03 3.05853E-07-4.63414E-02 7.42373E-08 2.41153E-08
 -1     27516 1.21737E-01 1.15918E-02 2.89645E-07-5.50727E-02 1.05866E-07 4.38342E-08
 -1     27517 1.32244E-01 1.08428E-03 4.35510E-08-4.76465E-02 6.43014E-09 2.07862E-09
 -1     27522 1.30448E-01 2.88102E-03 2.13550E-07-4.63414E-02 1.05921E-07 3.44181E-08
 -1     27523 1.21737E-01 1.15919E-02 1.80151E-07-5.50727E-02 1.49851E-07 6.20970E-08
 -1     27524 1.32244E-01 1.08427E-03 7.66356E-09-4.76465E-02 6.75365E-09 2.20178E-09
 -1     27529 1.30448E-01 2.88090E-03 6.66952E-08-4.63414E-02 3.88961E-08 1.26550E-08
 -1     27533 1.41646E-01-8.31759E-03 6.65861E-08-2.43631E-02-4.02812E-08-6.52703E-09
 -1     27534 1.36060E-01-2.73107E-03 1.80104E-07-3.53588E-02-1.57675E-07-3.78402E-08
 -1     27535 1.43758E-01-1.04296E-02 7.61402E-09-2.50493E-02-7.00175E-09-1.14397E-09
 -1     27540 1.41646E-01-8.31747E-03 2.13379E-07-2.43631E-02-1.09764E-07-1.72304E-08
 -1     27541 1.36060E-01-2.73117E-03 2.89597E-07-3.53588E-02-1.11361E-07-2.67544E-08
 -1     27542 1.43758E-01-1.04296E-02 4.34528E-08-2.50493E-02-6.61914E-09-1.00480E-09
 -1     27547 1.41646E-01-8.31754E-03 3.05545E-07-2.43631E-02-7.68223E-08-1.20612E-08
 -1     27548 1.36060E-01-2.73123E-03 3.04198E-07-3.53588E-02-4.19508E-08-1.00863E-08
 -1     27549 1.43758E-01-1.04296E-02 5.08471E-08-2.50493E-02-1.06217E-08-1.64378E-09
 -1     27554 1.41646E-01-8.31757E-03 3.04504E-07-2.43631E-02-2.61145E-08-4.05001E-09
 -1     27555 1.36060E-01-2.73123E-03 2.90078E-07-3.53588E-02-8.07296E-09-1.94415E-09
 -1     27556 1.43758E-01-1.04296E-02 5.95100E-08-2.50493E-02-6.51009E-09-1.00397E-09
 -1     27561 1.41646E-01-8.31757E-03 2.84808E-07-2.43631E-02-4.46460E-09-6.59316E-10
 -1     27562 1.36060E-01-2.73122E-03 2.76357E-07-3.53588E-02-2.22662E-10-5.45263E-11
 -1     27563 1.43758E-01-1.04296E-02 6.31581E-08-2.50493E-02-1.84269E-09-2.81995E-10
 -1     27568 1.41646E-01-8.31757E-03 2.77005E-07-2.43631E-02 5.59604E-16-2.23051E-15
 -1     27569 1.36060E-01-2.73122E-03 2.76357E-07-3.53588E-02 2.22666E-10 5.45279E-11
 -1     27570 1.43758E-01-1.04296E-02 6.31581E-08-2.50493E-02 1.84269E-09 2.81991E-10
 -1     27575 1.41646E-01-8.31757E-03 2.84808E-07-2.43631E-02 4.46461E-09 6.59313E-10
 -1     27576 1.36060E-01-2.73123E-03 2.90078E-07-3.53588E-02 8.07297E-09 1.94415E-09
 -1     27577 1.43758E-01-1.04296E-02 5.95100E-08-2.50493E-02 6.51009E-09 1.00397E-09
 -1     27582 1.41646E-01-8.31757E-03 3.04504E-07-2.43631E-02 2.61146E-08 4.05001E-09
 -1     27583 1.36060E-01-2.73123E-03 3.04198E-07-3.53588E-02 4.19508E-08 1.00863E-08
 -1     27584 1.43758E-01-1.04296E-02 5.08471E-08-2.50493E-02 1.06217E-08 1.64378E-09
 -1     27589 1.41646E-01-8.31754E-03 3.05545E-07-2.43631E-02 7.68223E-08 1.20612E-08
 -1     27590 1.36060E-01-2.73117E-03 2.89597E-07-3.53588E-02 1.11361E-07 2.67544E-08
 -1     27591 1.43758E-01-1.04296E-02 4.34527E-08-2.50493E-02 6.61915E-09 1.00480E-09
 -1     27596 1.41646E-01-8.31747E-03 2.13379E-07-2.43631E-02 1.09764E-07 1.72304E-08
 -1     27597 1.36060E-01-2.73107E-03 1.80104E-07-3.53588E-02 1.57675E-07 3.78402E-08
 -1     27598 1.43758E-01-1.04296E-02 7.61402E-09-2.50493E-02 7.00176E-09 1.14397E-09
 -1     27603 1.41646E-01-8.31759E-03 6.65861E-08-2.43631E-02 4.02812E-08 6.52703E-09
 -1     27607 1.43590E-01-1.02611E-02 1.80384E-07-1.21838E-02-1.61837E-07-1.27013E-08
 -1     27611 1.43590E-01-1.02612E-02 2.89856E-07-1.21838E-02-1.14305E-07-9.03317E-09
 -1     27615 1.43590E-01-1.02612E-02 3.04433E-07-1.21838E-02-4.30921E-08-3.41583E-09
 -1     27619 1.43590E-01-1.02612E-02 2.90266E-07-1.21838E-02-8.32452E-09-6.70660E-10
 -1     27623 1.43590E-01-1.02612E-02 2.76520E-07-1.21838E-02-2.44567E-10-2.43790E-11
 -1     27627 1.43590E-01-1.02612E-02 2.76520E-07-1.21838E-02 2.44571E-10 2.43744E-11
 -1     27631 1.43590E-01-1.02612E-02 2.90266E-07-1.21838E-02 8.32452E-09 6.70657E-10
 -1     27635 1.43590E-01-1.02612E-02 3.04433E-07-1.21838E-02 4.30921E-08 3.41583E-09
 -1     27639 1.43590E-01-1.02612E-02 2.89856E-07-1.21838E-02 1.14305E-07 9.03317E-09
 -1     27643 1.43590E-01-1.02611E-02 1.80384E-07-1.21838E-02 1.61837E-07 1.27013E-08
 -1     27649-4.43503E-03 1.37760E-01-4.33361E-07-2.31010E-02 4.38188E-08 2.77031E-07
 -1     27650-6.26535E-03 1.39589E-01-7.59048E-07-1.15506E-02 3.88019E-08 4.92998E-07
 -1     27651-6.37810E-03 1.39705E-01-1.76722E-08-2.37327E-02-1.76475E-09-1.10242E-08
 -1     27656-4.43538E-03 1.37760E-01-9.38105E-07-2.31010E-02 5.73485E-08 3.62490E-07
 -1     27657-6.26511E-03 1.39589E-01-1.05648E-06-1.15505E-02 2.37365E-08 3.01541E-07
 -1     27658-6.37814E-03 1.39705E-01-1.31861E-07-2.37327E-02 4.59307E-09 2.91145E-08
 -1     27663-4.43522E-03 1.37760E-01-1.13639E-06-2.31009E-02 3.61271E-08 2.28419E-07
 -1     27664-6.26503E-03 1.39589E-01-1.15950E-06-1.15505E-02 1.26783E-08 1.60997E-07
 -1     27665-6.37808E-03 1.39705E-01-2.16621E-07-2.37327E-02 7.78653E-09 4.93031E-08
 -1     27670-4.43515E-03 1.37760E-01-1.17075E-06-2.31009E-02 1.90131E-08 1.20313E-07
 -1     27671-6.26500E-03 1.39589E-01-1.17856E-06-1.15505E-02 6.41764E-09 8.14664E-08
 -1     27672-6.37805E-03 1.39705E-01-2.73193E-07-2.37327E-02 5.64597E-09 3.57551E-08
 -1     27677-4.43513E-03 1.37760E-01-1.17776E-06-2.31009E-02 8.36029E-09 5.29269E-08
 -1     27678-6.26498E-03 1.39589E-01-1.18119E-06-1.15505E-02 1.97820E-09 2.51080E-08
 -1     27679-6.37804E-03 1.39705E-01-2.95422E-07-2.37327E-02 1.97111E-09 1.24829E-08
 -1     27684-4.43512E-03 1.37760E-01-1.17932E-06-2.31009E-02-2.14958E-15 8.20298E-15
 -1     27685-6.26498E-03 1.39589E-01-1.18119E-06-1.15505E-02-1.97820E-09-2.51080E-08
 -1     27686-6.37804E-03 1.39705E-01-2.95422E-07-2.37327E-02-1.97111E-09-1.24829E-08
 -1     27691-4.43513E-03 1.37760E-01-1.17776E-06-2.31009E-02-8.36030E-09-5.29268E-08
 -1     27692-6.26500E-03 1.39589E-01-1.17856E-06-1.15505E-02-6.41764E-09-8.14664E-08
 -1     27693-6.37805E-03 1.39705E-01-2.73193E-07-2.37327E-02-5.64598E-09-3.57551E-08
 -1     27698-4.43515E-03 1.37760E-01-1.17075E-06-2.31009E-02-1.90131E-08-1.20313E-07
 -1     27699-6.26503E-03 1.39589E-01-1.15950E-06-1.15505E-02-1.26783E-08-1.60997E-07
 -1     27700-6.37808E-03 1.39705E-01-2.16621E-07-2.37327E-02-7.78653E-09-4.93030E-08
 -1     27705-4.43522E-03 1.37760E-01-1.13639E-06-2.31009E-02-3.61271E-08-2.28419E-07
 -1     27706-6.26511E-03 1.39589E-01-1.05648E-06-1.15505E-02-2.37365E-08-3.01541E-07
 -1     27707-6.37814E-03 1.39705E-01-1.31861E-07-2.37327E-02-4.59307E-09-2.91145E-08
 -1     27712-4.43538E-03 1.37760E-01-9.38105E-07-2.31010E-02-5.73485E-08-3.62490E-07
 -1     27713-6.26535E-03 1.39589E-01-7.59048E-07-1.15506E-02-3.88019E-08-4.92998E-07
 -1     27714-6.37810E-03 1.39705E-01-1.76722E-08-2.37327E-02 1.76475E-09 1.10242E-08
 -1     27719-4.43503E-03 1.37760E-01-4.33361E-07-2.31010E-02-4.38188E-08-2.77031E-07
 -1     27723 6.18331E-03 1.27142E-01-4.33373E-07-4.39406E-02 8.65679E-08 2.66854E-07
 -1     27724 8.73293E-04 1.32451E-01-7.59075E-07-3.35210E-02 1.15441E-07 4.80833E-07
 -1     27725 4.53061E-03 1.28797E-01-1.77065E-08-4.51422E-02-3.49342E-09-1.06098E-08
 -1     27730 6.18297E-03 1.27141E-01-9.38065E-07-4.39407E-02 1.13344E-07 3.49147E-07
 -1     27731 8.73522E-04 1.32451E-01-1.05652E-06-3.35210E-02 7.06212E-08 2.94089E-07
 -1     27732 4.53058E-03 1.28796E-01-1.31900E-07-4.51422E-02 9.08545E-09 2.80542E-08
 -1     27737 6.18312E-03 1.27141E-01-1.13636E-06-4.39406E-02 7.14315E-08 2.20053E-07
 -1     27738 8.73599E-04 1.32451E-01-1.15954E-06-3.35210E-02 3.77168E-08 1.57007E-07
 -1     27739 4.53062E-03 1.28796E-01-2.16669E-07-4.51422E-02 1.54005E-08 4.75067E-08
 -1     27744 6.18318E-03 1.27141E-01-1.17075E-06-4.39406E-02 3.76127E-08 1.15938E-07
 -1     27745 8.73628E-04 1.32451E-01-1.17860E-06-3.35210E-02 1.90905E-08 7.94430E-08
 -1     27746 4.53065E-03 1.28796E-01-2.73248E-07-4.51422E-02 1.11679E-08 3.44552E-08
 -1     27751 6.18321E-03 1.27141E-01-1.17776E-06-4.39406E-02 1.65440E-08 5.10108E-08
 -1     27752 8.73641E-04 1.32451E-01-1.18122E-06-3.35210E-02 5.88439E-09 2.44839E-08
 -1     27753 4.53067E-03 1.28796E-01-2.95478E-07-4.51422E-02 3.89913E-09 1.20294E-08
 -1     27758 6.18321E-03 1.27141E-01-1.17933E-06-4.39406E-02-2.46279E-15-1.71291E-14
 -1     27759 8.73641E-04 1.32451E-01-1.18122E-06-3.35210E-02-5.88439E-09-2.44839E-08
 -1     27760 4.53067E-03 1.28796E-01-2.95478E-07-4.51422E-02-3.89913E-09-1.20294E-08
 -1     27765 6.18321E-03 1.27141E-01-1.17776E-06-4.39406E-02-1.65440E-08-5.10108E-08
 -1     27766 8.73628E-04 1.32451E-01-1.17860E-06-3.35210E-02-1.90905E-08-7.94430E-08
 -1     27767 4.53065E-03 1.28796E-01-2.73248E-07-4.51422E-02-1.11679E-08-3.44552E-08
 -1     27772 6.18318E-03 1.27141E-01-1.17075E-06-4.39406E-02-3.76127E-08-1.15938E-07
 -1     27773 8.73599E-04 1.32451E-01-1.15954E-06-3.35210E-02-3.77168E-08-1.57007E-07
 -1     27774 4.53062E-03 1.28796E-01-2.16669E-07-4.51422E-02-1.54005E-08-4.75067E-08
 -1     27779 6.18312E-03 1.27141E-01-1.13636E-06-4.39406E-02-7.14315E-08-2.20053E-07
 -1     27780 8.73522E-04 1.32451E-01-1.05652E-06-3.35210E-02-7.06212E-08-2.94089E-07
 -1     27781 4.53058E-03 1.28796E-01-1.31900E-07-4.51422E-02-9.08545E-09-2.80542E-08
 -1     27786 6.18297E-03 1.27141E-01-9.38065E-07-4.39407E-02-1.13344E-07-3.49147E-07
 -1     27787 8.73293E-04 1.32451E-01-7.59075E-07-3.35210E-02-1.15441E-07-4.80833E-07
 -1     27788 4.53061E-03 1.28797E-01-1.77065E-08-4.51422E-02 3.49341E-09 1.06098E-08
 -1     27793 6.18331E-03 1.27142E-01-4.33373E-07-4.39406E-02-8.65679E-08-2.66854E-07
 -1     27797 2.27218E-02 1.10603E-01-4.33313E-07-6.04791E-02 1.27317E-07 2.50031E-07
 -1     27798 1.44518E-02 1.18872E-01-7.59047E-07-5.22103E-02 1.89229E-07 4.56809E-07
 -1     27799 2.15213E-02 1.11806E-01-1.77696E-08-6.21330E-02-5.06545E-09-9.89651E-09
 -1     27804 2.27214E-02 1.10603E-01-9.37957E-07-6.04791E-02 1.66649E-07 3.27166E-07
 -1     27805 1.44520E-02 1.18872E-01-1.05651E-06-5.22102E-02 1.15719E-07 2.79379E-07
 -1     27806 2.15213E-02 1.11806E-01-1.31993E-07-6.21329E-02 1.34467E-08 2.63435E-08
 -1     27811 2.27216E-02 1.10603E-01-1.13627E-06-6.04791E-02 1.05126E-07 2.06207E-07
 -1     27812 1.44521E-02 1.18872E-01-1.15951E-06-5.22101E-02 6.17794E-08 1.49130E-07
 -1     27813 2.15213E-02 1.11806E-01-2.16808E-07-6.21329E-02 2.27383E-08 4.45670E-08
 -1     27818 2.27216E-02 1.10603E-01-1.17070E-06-6.04790E-02 5.54200E-08 1.08662E-07
 -1     27819 1.44521E-02 1.18872E-01-1.17856E-06-5.22101E-02 3.12605E-08 7.54478E-08
 -1     27820 2.15214E-02 1.11806E-01-2.73416E-07-6.21329E-02 1.64904E-08 3.23217E-08
 -1     27825 2.27217E-02 1.10603E-01-1.17773E-06-6.04790E-02 2.43963E-08 4.78137E-08
 -1     27826 1.44521E-02 1.18872E-01-1.18117E-06-5.22101E-02 9.63416E-09 2.32514E-08
 -1     27827 2.15214E-02 1.11806E-01-2.95658E-07-6.21329E-02 5.75837E-09 1.12843E-08
 -1     27832 2.27217E-02 1.10603E-01-1.17930E-06-6.04790E-02 1.77862E-15 2.58849E-14
 -1     27833 1.44521E-02 1.18872E-01-1.18117E-06-5.22101E-02-9.63416E-09-2.32513E-08
 -1     27834 2.15214E-02 1.11806E-01-2.95658E-07-6.21329E-02-5.75837E-09-1.12843E-08
 -1     27839 2.27217E-02 1.10603E-01-1.17773E-06-6.04790E-02-2.43962E-08-4.78137E-08
 -1     27840 1.44521E-02 1.18872E-01-1.17856E-06-5.22101E-02-3.12605E-08-7.54478E-08
 -1     27841 2.15214E-02 1.11806E-01-2.73416E-07-6.21329E-02-1.64904E-08-3.23216E-08
 -1     27846 2.27216E-02 1.10603E-01-1.17070E-06-6.04790E-02-5.54200E-08-1.08662E-07
 -1     27847 1.44521E-02 1.18872E-01-1.15951E-06-5.22101E-02-6.17794E-08-1.49130E-07
 -1     27848 2.15213E-02 1.11806E-01-2.16808E-07-6.21329E-02-2.27383E-08-4.45670E-08
 -1     27853 2.27216E-02 1.10603E-01-1.13627E-06-6.04791E-02-1.05126E-07-2.06207E-07
 -1     27854 1.44520E-02 1.18872E-01-1.05651E-06-5.22102E-02-1.15719E-07-2.79379E-07
 -1     27855 2.15213E-02 1.11806E-01-1.31993E-07-6.21329E-02-1.34467E-08-2.63435E-08
 -1     27860 2.27214E-02 1.10603E-01-9.37957E-07-6.04791E-02-1.66649E-07-3.27166E-07
 -1     27861 1.44518E-02 1.18872E-01-7.59047E-07-5.22103E-02-1.89229E-07-4.56809E-07
 -1     27862 2.15213E-02 1.11806E-01-1.77696E-08-6.21330E-02 5.06546E-09 9.89652E-09
 -1     27867 2.27218E-02 1.10603E-01-4.33313E-07-6.04791E-02-1.27317E-07-2.50031E-07
 -1     27871 4.35614E-02 8.97634E-02-4.32879E-07-7.10974E-02 1.64714E-07 2.26720E-07
 -1     27872 3.31410E-02 1.00183E-01-7.59211E-07-6.57888E-02 2.58350E-07 4.21699E-07
 -1     27873 4.29309E-02 9.03962E-02-1.78228E-08-7.30417E-02-6.59235E-09-9.06068E-09
 -1     27878 4.35611E-02 8.97631E-02-9.37421E-07-7.10975E-02 2.15475E-07 2.96786E-07
 -1     27879 3.31412E-02 1.00183E-01-1.05669E-06-6.57886E-02 1.58007E-07 2.57923E-07
 -1     27880 4.29308E-02 9.03962E-02-1.32033E-07-7.30417E-02 1.73299E-08 2.37852E-08
 -1     27885 4.35612E-02 8.97631E-02-1.13564E-06-7.10974E-02 1.35839E-07 1.86855E-07
 -1     27886 3.31412E-02 1.00183E-01-1.15969E-06-6.57886E-02 8.43388E-08 1.37706E-07
 -1     27887 4.29309E-02 9.03962E-02-2.16797E-07-7.30416E-02 2.93601E-08 4.03102E-08
 -1     27892 4.35613E-02 8.97632E-02-1.16996E-06-7.10974E-02 7.15418E-08 9.83435E-08
 -1     27893 3.31413E-02 1.00183E-01-1.17874E-06-6.57886E-02 4.26717E-08 6.96806E-08
 -1     27894 4.29309E-02 9.03962E-02-2.73357E-07-7.30416E-02 2.12886E-08 2.92292E-08
 -1     27899 4.35613E-02 8.97632E-02-1.17690E-06-7.10974E-02 3.14667E-08 4.32366E-08
 -1     27900 3.31413E-02 1.00183E-01-1.18137E-06-6.57886E-02 1.31510E-08 2.14767E-08
 -1     27901 4.29309E-02 9.03962E-02-2.95570E-07-7.30416E-02 7.43171E-09 1.02021E-08
 -1     27906 4.35613E-02 8.97632E-02-1.17844E-06-7.10974E-02-9.48014E-15 8.55393E-16
 -1     27907 3.31413E-02 1.00183E-01-1.18137E-06-6.57886E-02-1.31510E-08-2.14767E-08
 -1     27908 4.29309E-02 9.03962E-02-2.95570E-07-7.30416E-02-7.43172E-09-1.02021E-08
 -1     27913 4.35613E-02 8.97632E-02-1.17690E-06-7.10974E-02-3.14667E-08-4.32366E-08
 -1     27914 3.31413E-02 1.00183E-01-1.17874E-06-6.57886E-02-4.26717E-08-6.96806E-08
 -1     27915 4.29309E-02 9.03962E-02-2.73357E-07-7.30416E-02-2.12886E-08-2.92292E-08
 -1     27920 4.35613E-02 8.97632E-02-1.16996E-06-7.10974E-02-7.15418E-08-9.83435E-08
 -1     27921 3.31412E-02 1.00183E-01-1.15969E-06-6.57886E-02-8.43388E-08-1.37706E-07
 -1     27922 4.29309E-02 9.03962E-02-2.16797E-07-7.30416E-02-2.93601E-08-4.03102E-08
 -1     27927 4.35612E-02 8.97631E-02-1.13564E-06-7.10974E-02-1.35839E-07-1.86855E-07
 -1     27928 3.31412E-02 1.00183E-01-1.05669E-06-6.57886E-02-1.58007E-07-2.57923E-07
 -1     27929 4.29308E-02 9.03962E-02-1.32033E-07-7.30417E-02-1.73300E-08-2.37852E-08
 -1     27934 4.35611E-02 8.97631E-02-9.37421E-07-7.10975E-02-2.15475E-07-2.96786E-07
 -1     27935 3.31410E-02 1.00183E-01-7.59211E-07-6.57888E-02-2.58350E-07-4.21699E-07
 -1     27936 4.29309E-02 9.03962E-02-1.78228E-08-7.30417E-02 6.59235E-09 9.06067E-09
 -1     27941 4.35614E-02 8.97634E-02-4.32879E-07-7.10974E-02-1.64714E-07-2.26720E-07
 -1     27945 6.66624E-02 6.66624E-02-4.33132E-07-7.47563E-02 1.97665E-07 1.98684E-07
 -1     27946 5.51115E-02 7.82126E-02-7.59588E-07-7.29274E-02 3.21228E-07 3.76180E-07
 -1     27947 6.66636E-02 6.66636E-02-1.77706E-08-7.68006E-02-8.18957E-09-7.85093E-09
 -1     27952 6.66621E-02 6.66621E-02-9.37740E-07-7.47563E-02 2.58998E-07 2.59563E-07
 -1     27953 5.51116E-02 7.82127E-02-1.05710E-06-7.29273E-02 1.96569E-07 2.30134E-07
 -1     27954 6.66635E-02 6.66635E-02-1.31951E-07-7.68005E-02 2.05661E-08 2.07493E-08
 -1     27959 6.66622E-02 6.66622E-02-1.13593E-06-7.47562E-02 1.63056E-07 1.63491E-07
 -1     27960 5.51117E-02 7.82127E-02-1.16015E-06-7.29272E-02 1.04983E-07 1.22926E-07
 -1     27961 6.66635E-02 6.66635E-02-2.16612E-07-7.68005E-02 3.50295E-08 3.52226E-08
 -1     27966 6.66622E-02 6.66622E-02-1.17021E-06-7.47562E-02 8.57419E-08 8.60952E-08
 -1     27967 5.51117E-02 7.82128E-02-1.17925E-06-7.29272E-02 5.31465E-08 6.22237E-08
 -1     27968 6.66636E-02 6.66635E-02-2.73115E-07-7.68005E-02 2.54004E-08 2.55544E-08
 -1     27973 6.66622E-02 6.66622E-02-1.17713E-06-7.47562E-02 3.76618E-08 3.78726E-08
 -1     27974 5.51117E-02 7.82128E-02-1.18191E-06-7.29272E-02 1.63853E-08 1.91817E-08
 -1     27975 6.66636E-02 6.66636E-02-2.95302E-07-7.68005E-02 8.86385E-09 8.92204E-09
 -1     27980 6.66622E-02 6.66622E-02-1.17866E-06-7.47562E-02 5.96221E-16 5.79669E-15
 -1     27981 5.51117E-02 7.82128E-02-1.18191E-06-7.29272E-02-1.63853E-08-1.91817E-08
 -1     27982 6.66636E-02 6.66636E-02-2.95302E-07-7.68005E-02-8.86386E-09-8.92203E-09
 -1     27987 6.66622E-02 6.66622E-02-1.17713E-06-7.47562E-02-3.76618E-08-3.78725E-08
 -1     27988 5.51117E-02 7.82128E-02-1.17925E-06-7.29272E-02-5.31465E-08-6.22237E-08
 -1     27989 6.66636E-02 6.66635E-02-2.73115E-07-7.68005E-02-2.54004E-08-2.55544E-08
 -1     27994 6.66622E-02 6.66622E-02-1.17021E-06-7.47562E-02-8.57419E-08-8.60952E-08
 -1     27995 5.51117E-02 7.82127E-02-1.16015E-06-7.29272E-02-1.04983E-07-1.22926E-07
 -1     27996 6.66635E-02 6.66635E-02-2.16612E-07-7.68005E-02-3.50295E-08-3.52226E-08
 -1     28001 6.66622E-02 6.66622E-02-1.13593E-06-7.47562E-02-1.63056E-07-1.63491E-07
 -1     28002 5.51116E-02 7.82127E-02-1.05710E-06-7.29273E-02-1.96569E-07-2.30134E-07
 -1     28003 6.66635E-02 6.66635E-02-1.31951E-07-7.68005E-02-2.05661E-08-2.07493E-08
 -1     28008 6.66621E-02 6.66621E-02-9.37740E-07-7.47563E-02-2.58998E-07-2.59563E-07
 -1     28009 5.51115E-02 7.82126E-02-7.59588E-07-7.29274E-02-3.21228E-07-3.76180E-07
 -1     28010 6.66636E-02 6.66636E-02-1.77706E-08-7.68006E-02 8.18956E-09 7.85092E-09
 -1     28015 6.66624E-02 6.66624E-02-4.33132E-07-7.47563E-02-1.97665E-07-1.98684E-07
 -1     28019 8.97634E-02 4.35615E-02-4.34401E-07-7.10974E-02 2.27503E-07 1.65948E-07
 -1     28020 7.82126E-02 5.51115E-02-7.58748E-07-7.29274E-02 3.76088E-07 3.20836E-07
 -1     28021 9.03962E-02 4.29309E-02-1.79504E-08-7.30417E-02-8.89083E-09-6.19285E-09
 -1     28026 8.97631E-02 4.35611E-02-9.39512E-07-7.10975E-02 2.97724E-07 2.16654E-07
 -1     28027 7.82127E-02 5.51116E-02-1.05615E-06-7.29273E-02 2.29899E-07 1.96310E-07
 -1     28028 9.03962E-02 4.29309E-02-1.32133E-07-7.30417E-02 2.41667E-08 1.76727E-08
 -1     28033 8.97631E-02 4.35612E-02-1.13787E-06-7.10974E-02 1.87909E-07 1.36683E-07
 -1     28034 7.82128E-02 5.51117E-02-1.15913E-06-7.29272E-02 1.22721E-07 1.04750E-07
 -1     28035 9.03962E-02 4.29309E-02-2.17058E-07-7.30416E-02 4.07185E-08 2.96750E-08
 -1     28040 8.97632E-02 4.35613E-02-1.17246E-06-7.10974E-02 9.91984E-08 7.21903E-08
 -1     28041 7.82128E-02 5.51117E-02-1.17813E-06-7.29272E-02 6.20890E-08 5.29713E-08
 -1     28042 9.03962E-02 4.29309E-02-2.73762E-07-7.30416E-02 2.95313E-08 2.15261E-08
 -1     28047 8.97632E-02 4.35613E-02-1.17962E-06-7.10974E-02 4.37035E-08 3.18259E-08
 -1     28048 7.82128E-02 5.51117E-02-1.18073E-06-7.29272E-02 1.91356E-08 1.63196E-08
 -1     28049 9.03962E-02 4.29309E-02-2.96060E-07-7.30416E-02 1.03132E-08 7.51910E-09
 -1     28054 8.97632E-02 4.35613E-02-1.18123E-06-7.10974E-02 6.88690E-15-1.25129E-14
 -1     28055 7.82128E-02 5.51117E-02-1.18073E-06-7.29272E-02-1.91356E-08-1.63196E-08
 -1     28056 9.03962E-02 4.29309E-02-2.96060E-07-7.30416E-02-1.03132E-08-7.51911E-09
 -1     28061 8.97632E-02 4.35613E-02-1.17962E-06-7.10974E-02-4.37035E-08-3.18259E-08
 -1     28062 7.82128E-02 5.51117E-02-1.17813E-06-7.29272E-02-6.20890E-08-5.29713E-08
 -1     28063 9.03962E-02 4.29309E-02-2.73762E-07-7.30416E-02-2.95314E-08-2.15261E-08
 -1     28068 8.97632E-02 4.35613E-02-1.17246E-06-7.10974E-02-9.91984E-08-7.21903E-08
 -1     28069 7.82128E-02 5.51117E-02-1.15913E-06-7.29272E-02-1.22721E-07-1.04750E-07
 -1     28070 9.03962E-02 4.29309E-02-2.17058E-07-7.30416E-02-4.07185E-08-2.96750E-08
 -1     28075 8.97631E-02 4.35612E-02-1.13787E-06-7.10974E-02-1.87909E-07-1.36683E-07
 -1     28076 7.82127E-02 5.51116E-02-1.05615E-06-7.29273E-02-2.29899E-07-1.96310E-07
 -1     28077 9.03962E-02 4.29309E-02-1.32133E-07-7.30417E-02-2.41667E-08-1.76727E-08
 -1     28082 8.97631E-02 4.35611E-02-9.39512E-07-7.10975E-02-2.97724E-07-2.16654E-07
 -1     28083 7.82126E-02 5.51115E-02-7.58748E-07-7.29274E-02-3.76088E-07-3.20836E-07
 -1     28084 9.03962E-02 4.29309E-02-1.79504E-08-7.30417E-02 8.89083E-09 6.19286E-09
 -1     28089 8.97634E-02 4.35615E-02-4.34401E-07-7.10974E-02-2.27503E-07-1.65948E-07
 -1     28093 1.10603E-01 2.27218E-02-4.33856E-07-6.04791E-02 2.50350E-07 1.27026E-07
 -1     28094 1.00183E-01 3.31410E-02-7.58204E-07-6.57888E-02 4.21344E-07 2.58319E-07
 -1     28095 1.11806E-01 2.15213E-02-1.79143E-08-6.21330E-02-9.73072E-09-5.04877E-09
 -1     28100 1.10603E-01 2.27214E-02-9.38863E-07-6.04791E-02 3.27340E-07 1.66673E-07
 -1     28101 1.00183E-01 3.31412E-02-1.05553E-06-6.57887E-02 2.57597E-07 1.57889E-07
 -1     28102 1.11806E-01 2.15213E-02-1.32149E-07-6.21329E-02 2.65105E-08 1.33321E-08
 -1     28107 1.10603E-01 2.27216E-02-1.13708E-06-6.04791E-02 2.06469E-07 1.04668E-07
 -1     28108 1.00183E-01 3.31412E-02-1.15844E-06-6.57886E-02 1.37393E-07 8.42696E-08
 -1     28109 1.11806E-01 2.15213E-02-2.16946E-07-6.21329E-02 4.47362E-08 2.25275E-08
 -1     28114 1.10603E-01 2.27216E-02-1.17145E-06-6.04790E-02 1.08888E-07 5.49901E-08
 -1     28115 1.00183E-01 3.31413E-02-1.17739E-06-6.57886E-02 6.94584E-08 4.26151E-08
 -1     28116 1.11806E-01 2.15214E-02-2.73551E-07-6.21329E-02 3.24430E-08 1.63238E-08
 -1     28121 1.10603E-01 2.27217E-02-1.17846E-06-6.04790E-02 4.79442E-08 2.41465E-08
 -1     28122 1.00183E-01 3.31413E-02-1.17995E-06-6.57886E-02 2.13968E-08 1.31296E-08
 -1     28123 1.11806E-01 2.15214E-02-2.95792E-07-6.21329E-02 1.13285E-08 5.69497E-09
 -1     28128 1.10603E-01 2.27217E-02-1.18001E-06-6.04790E-02 5.10278E-15 2.30660E-16
 -1     28129 1.00183E-01 3.31413E-02-1.17995E-06-6.57886E-02-2.13968E-08-1.31296E-08
 -1     28130 1.11806E-01 2.15214E-02-2.95792E-07-6.21329E-02-1.13284E-08-5.69497E-09
 -1     28135 1.10603E-01 2.27217E-02-1.17846E-06-6.04790E-02-4.79442E-08-2.41465E-08
 -1     28136 1.00183E-01 3.31413E-02-1.17739E-06-6.57886E-02-6.94584E-08-4.26151E-08
 -1     28137 1.11806E-01 2.15214E-02-2.73551E-07-6.21329E-02-3.24430E-08-1.63238E-08
 -1     28142 1.10603E-01 2.27216E-02-1.17145E-06-6.04790E-02-1.08888E-07-5.49901E-08
 -1     28143 1.00183E-01 3.31412E-02-1.15844E-06-6.57886E-02-1.37393E-07-8.42696E-08
 -1     28144 1.11806E-01 2.15213E-02-2.16946E-07-6.21329E-02-4.47362E-08-2.25275E-08
 -1     28149 1.10603E-01 2.27216E-02-1.13708E-06-6.04791E-02-2.06469E-07-1.04668E-07
 -1     28150 1.00183E-01 3.31412E-02-1.05553E-06-6.57887E-02-2.57597E-07-1.57889E-07
 -1     28151 1.11806E-01 2.15213E-02-1.32149E-07-6.21329E-02-2.65104E-08-1.33321E-08
 -1     28156 1.10603E-01 2.27214E-02-9.38863E-07-6.04791E-02-3.27340E-07-1.66673E-07
 -1     28157 1.00183E-01 3.31410E-02-7.58204E-07-6.57888E-02-4.21344E-07-2.58319E-07
 -1     28158 1.11806E-01 2.15213E-02-1.79143E-08-6.21330E-02 9.73071E-09 5.04877E-09
 -1     28163 1.10603E-01 2.27218E-02-4.33856E-07-6.04791E-02-2.50350E-07-1.27026E-07
 -1     28167 1.27141E-01 6.18330E-03-4.32890E-07-4.39406E-02 2.65740E-07 8.65417E-08
 -1     28168 1.18872E-01 1.44518E-02-7.59380E-07-5.22103E-02 4.57088E-07 1.89536E-07
 -1     28169 1.28797E-01 4.53060E-03-1.78504E-08-4.51422E-02-1.07258E-08-3.41212E-09
 -1     28174 1.27141E-01 6.18296E-03-9.37777E-07-4.39407E-02 3.47944E-07 1.13194E-07
 -1     28175 1.18872E-01 1.44520E-02-1.05679E-06-5.22102E-02 2.79699E-07 1.15959E-07
 -1     28176 1.28796E-01 4.53057E-03-1.32060E-07-4.51422E-02 2.77146E-08 8.96068E-09
 -1     28181 1.27141E-01 6.18312E-03-1.13570E-06-4.39406E-02 2.18726E-07 7.09732E-08
 -1     28182 1.18872E-01 1.44521E-02-1.15985E-06-5.22101E-02 1.49389E-07 6.20286E-08
 -1     28183 1.28796E-01 4.53062E-03-2.16615E-07-4.51422E-02 4.70807E-08 1.52203E-08
 -1     28188 1.27141E-01 6.18318E-03-1.16969E-06-4.39406E-02 1.14853E-07 3.72129E-08
 -1     28189 1.18872E-01 1.44521E-02-1.17895E-06-5.22101E-02 7.56178E-08 3.14249E-08
 -1     28190 1.28796E-01 4.53065E-03-2.73031E-07-4.51422E-02 3.41190E-08 1.10339E-08
 -1     28195 1.27141E-01 6.18320E-03-1.17641E-06-4.39406E-02 5.04117E-08 1.63299E-08
 -1     28196 1.18872E-01 1.44521E-02-1.18161E-06-5.22101E-02 2.33111E-08 9.69155E-09
 -1     28197 1.28796E-01 4.53066E-03-2.95168E-07-4.51422E-02 1.19029E-08 3.85014E-09
 -1     28202 1.27141E-01 6.18321E-03-1.17787E-06-4.39406E-02 7.41206E-15-1.25647E-14
 -1     28203 1.18872E-01 1.44521E-02-1.18161E-06-5.22101E-02-2.33111E-08-9.69156E-09
 -1     28204 1.28796E-01 4.53066E-03-2.95168E-07-4.51422E-02-1.19029E-08-3.85015E-09
 -1     28209 1.27141E-01 6.18320E-03-1.17641E-06-4.39406E-02-5.04117E-08-1.63299E-08
 -1     28210 1.18872E-01 1.44521E-02-1.17895E-06-5.22101E-02-7.56178E-08-3.14249E-08
 -1     28211 1.28796E-01 4.53065E-03-2.73031E-07-4.51422E-02-3.41190E-08-1.10339E-08
 -1     28216 1.27141E-01 6.18318E-03-1.16969E-06-4.39406E-02-1.14853E-07-3.72129E-08
 -1     28217 1.18872E-01 1.44521E-02-1.15985E-06-5.22101E-02-1.49389E-07-6.20286E-08
 -1     28218 1.28796E-01 4.53062E-03-2.16615E-07-4.51422E-02-4.70807E-08-1.52203E-08
 -1     28223 1.27141E-01 6.18312E-03-1.13570E-06-4.39406E-02-2.18726E-07-7.09733E-08
 -1     28224 1.18872E-01 1.44520E-02-1.05679E-06-5.22102E-02-2.79699E-07-1.15959E-07
 -1     28225 1.28796E-01 4.53057E-03-1.32060E-07-4.51422E-02-2.77146E-08-8.96068E-09
 -1     28230 1.27141E-01 6.18296E-03-9.37777E-07-4.39407E-02-3.47944E-07-1.13194E-07
 -1     28231 1.18872E-01 1.44518E-02-7.59380E-07-5.22103E-02-4.57088E-07-1.89536E-07
 -1     28232 1.28797E-01 4.53060E-03-1.78504E-08-4.51422E-02 1.07258E-08 3.41212E-09
 -1     28237 1.27141E-01 6.18330E-03-4.32890E-07-4.39406E-02-2.65740E-07-8.65417E-08
 -1     28241 1.37760E-01-4.43504E-03-4.34602E-07-2.31010E-02 2.77141E-07 4.51710E-08
 -1     28242 1.32451E-01 8.73290E-04-7.59275E-07-3.35210E-02 4.81257E-07 1.15372E-07
 -1     28243 1.39705E-01-6.37811E-03-1.77814E-08-2.37327E-02-1.09075E-08-1.37088E-09
 -1     28248 1.37760E-01-4.43539E-03-9.40177E-07-2.31010E-02 3.62583E-07 5.79191E-08
 -1     28249 1.32451E-01 8.73517E-04-1.05661E-06-3.35210E-02 2.94530E-07 7.07059E-08
 -1     28250 1.39705E-01-6.37814E-03-1.31935E-07-2.37327E-02 2.90708E-08 4.81626E-09
 -1     28255 1.37760E-01-4.43522E-03-1.13827E-06-2.31009E-02 2.28203E-07 3.67276E-08
 -1     28256 1.32451E-01 8.73594E-04-1.15970E-06-3.35210E-02 1.57401E-07 3.77906E-08
 -1     28257 1.39705E-01-6.37809E-03-2.16585E-07-2.37327E-02 4.91786E-08 8.05293E-09
 -1     28262 1.37760E-01-4.43516E-03-1.17253E-06-2.31009E-02 1.20090E-07 1.95219E-08
 -1     28263 1.32451E-01 8.73623E-04-1.17881E-06-3.35210E-02 7.97039E-08 1.91270E-08
 -1     28264 1.39705E-01-6.37805E-03-2.73114E-07-2.37327E-02 3.56549E-08 5.86198E-09
 -1     28269 1.37760E-01-4.43513E-03-1.17950E-06-2.31009E-02 5.27975E-08 8.66868E-09
 -1     28270 1.32451E-01 8.73636E-04-1.18148E-06-3.35210E-02 2.45755E-08 5.89331E-09
 -1     28271 1.39705E-01-6.37804E-03-2.95330E-07-2.37326E-02 1.24454E-08 2.05414E-09
 -1     28276 1.37760E-01-4.43513E-03-1.18104E-06-2.31009E-02-5.99796E-16-3.48612E-15
 -1     28277 1.32451E-01 8.73636E-04-1.18148E-06-3.35210E-02-2.45755E-08-5.89333E-09
 -1     28278 1.39705E-01-6.37804E-03-2.95330E-07-2.37326E-02-1.24454E-08-2.05414E-09
 -1     28283 1.37760E-01-4.43513E-03-1.17950E-06-2.31009E-02-5.27975E-08-8.66869E-09
 -1     28284 1.32451E-01 8.73623E-04-1.17881E-06-3.35210E-02-7.97039E-08-1.91270E-08
 -1     28285 1.39705E-01-6.37805E-03-2.73114E-07-2.37327E-02-3.56549E-08-5.86198E-09
 -1     28290 1.37760E-01-4.43516E-03-1.17253E-06-2.31009E-02-1.20090E-07-1.95219E-08
 -1     28291 1.32451E-01 8.73594E-04-1.15970E-06-3.35210E-02-1.57401E-07-3.77906E-08
 -1     28292 1.39705E-01-6.37809E-03-2.16585E-07-2.37327E-02-4.91785E-08-8.05293E-09
 -1     28297 1.37760E-01-4.43522E-03-1.13827E-06-2.31009E-02-2.28203E-07-3.67276E-08
 -1     28298 1.32451E-01 8.73517E-04-1.05661E-06-3.35210E-02-2.94530E-07-7.07059E-08
 -1     28299 1.39705E-01-6.37814E-03-1.31935E-07-2.37327E-02-2.90708E-08-4.81627E-09
 -1     28304 1.37760E-01-4.43539E-03-9.40177E-07-2.31010E-02-3.62583E-07-5.79191E-08
 -1     28305 1.32451E-01 8.73290E-04-7.59275E-07-3.35210E-02-4.81257E-07-1.15372E-07
 -1     28306 1.39705E-01-6.37811E-03-1.77814E-08-2.37327E-02 1.09075E-08 1.37088E-09
 -1     28311 1.37760E-01-4.43504E-03-4.34602E-07-2.31010E-02-2.77141E-07-4.51710E-08
 -1     28315 1.39589E-01-6.26535E-03-7.57139E-07-1.15506E-02 4.92611E-07 3.84496E-08
 -1     28319 1.39589E-01-6.26510E-03-1.05420E-06-1.15505E-02 3.01137E-07 2.36777E-08
 -1     28323 1.39589E-01-6.26502E-03-1.15709E-06-1.15505E-02 1.60652E-07 1.25922E-08
 -1     28327 1.39589E-01-6.26499E-03-1.17598E-06-1.15505E-02 8.12067E-08 6.34585E-09
 -1     28331 1.39589E-01-6.26498E-03-1.17849E-06-1.15505E-02 2.50115E-08 1.94945E-09
 -1     28335 1.39589E-01-6.26498E-03-1.17849E-06-1.15505E-02-2.50115E-08-1.94946E-09
 -1     28339 1.39589E-01-6.26499E-03-1.17598E-06-1.15505E-02-8.12067E-08-6.34585E-09
 -1     28343 1.39589E-01-6.26502E-03-1.15709E-06-1.15505E-02-1.60652E-07-1.25922E-08
 -1     28347 1.39589E-01-6.26510E-03-1.05420E-06-1.15505E-02-3.01137E-07-2.36777E-08
 -1     28351 1.39589E-01-6.26535E-03-7.57139E-07-1.15506E-02-4.92611E-07-3.84496E-08
 -1     28357-7.61724E-04 1.34092E-01 2.95398E-07-2.19084E-02-6.78422E-08-4.28783E-07
 -1     28358-2.58775E-03 1.35919E-01 4.15315E-07-1.09687E-02-3.86817E-08-4.92080E-07
 -1     28359-2.60860E-03 1.35940E-01 3.84836E-07-2.25085E-02 1.79819E-08 1.14238E-07
 -1     28364-7.61205E-04 1.34093E-01 5.40845E-07-2.19083E-02-4.94710E-08-3.11330E-07
 -1     28365-2.58774E-03 1.35919E-01 6.38894E-07-1.09687E-02-1.42699E-08-1.82178E-07
 -1     28366-2.60857E-03 1.35940E-01 6.06626E-07-2.25086E-02 1.77351E-08 1.13008E-07
 -1     28371-7.61189E-04 1.34093E-01 7.00624E-07-2.19083E-02-2.08126E-08-1.30083E-07
 -1     28372-2.58769E-03 1.35919E-01 7.71791E-07-1.09687E-02-6.62019E-09-8.46907E-08
 -1     28373-2.60856E-03 1.35940E-01 7.54399E-07-2.25086E-02 1.01621E-08 6.48852E-08
 -1     28378-7.61160E-04 1.34093E-01 8.07430E-07-2.19083E-02-1.05579E-08-6.59085E-08
 -1     28379-2.58768E-03 1.35919E-01 8.56258E-07-1.09687E-02-3.62645E-09-4.63673E-08
 -1     28380-2.60855E-03 1.35940E-01 8.26687E-07-2.25086E-02 5.06598E-09 3.23555E-08
 -1     28385-7.61158E-04 1.34093E-01 8.74751E-07-2.19083E-02-4.96490E-09-3.10274E-08
 -1     28386-2.58769E-03 1.35919E-01 8.99073E-07-1.09687E-02-1.19832E-09-1.53144E-08
 -1     28387-2.60855E-03 1.35940E-01 8.54953E-07-2.25086E-02 1.52080E-09 9.71709E-09
 -1     28392-7.61160E-04 1.34093E-01 8.96982E-07-2.19083E-02-5.93805E-15 1.58784E-14
 -1     28393-2.58769E-03 1.35919E-01 8.99073E-07-1.09687E-02 1.19831E-09 1.53144E-08
 -1     28394-2.60855E-03 1.35940E-01 8.54953E-07-2.25086E-02-1.52081E-09-9.71707E-09
 -1     28399-7.61158E-04 1.34093E-01 8.74751E-07-2.19083E-02 4.96489E-09 3.10274E-08
 -1     28400-2.58768E-03 1.35919E-01 8.56258E-07-1.09687E-02 3.62645E-09 4.63673E-08
 -1     28401-2.60855E-03 1.35940E-01 8.26687E-07-2.25086E-02-5.06598E-09-3.23555E-08
 -1     28406-7.61160E-04 1.34093E-01 8.07430E-07-2.19083E-02 1.05579E-08 6.59085E-08
 -1     28407-2.58769E-03 1.35919E-01 7.71791E-07-1.09687E-02 6.62019E-09 8.46907E-08
 -1     28408-2.60856E-03 1.35940E-01 7.54399E-07-2.25086E-02-1.01621E-08-6.48852E-08
 -1     28413-7.61189E-04 1.34093E-01 7.00624E-07-2.19083E-02 2.08125E-08 1.30083E-07
 -1     28414-2.58774E-03 1.35919E-01 6.38894E-07-1.09687E-02 1.42699E-08 1.82178E-07
 -1     28415-2.60857E-03 1.35940E-01 6.06626E-07-2.25086E-02-1.77351E-08-1.13008E-07
 -1     28420-7.61205E-04 1.34093E-01 5.40845E-07-2.19083E-02 4.94710E-08 3.11330E-07
 -1     28421-2.58775E-03 1.35919E-01 4.15315E-07-1.09687E-02 3.86817E-08 4.92080E-07
 -1     28422-2.60860E-03 1.35940E-01 3.84836E-07-2.25085E-02-1.79819E-08-1.14238E-07
 -1     28427-7.61724E-04 1.34092E-01 2.95398E-07-2.19084E-02 6.78422E-08 4.28783E-07
 -1     28431 9.30845E-03 1.24022E-01 2.95240E-07-4.16722E-02-1.33927E-07-4.12982E-07
 -1     28432 4.19125E-03 1.29140E-01 4.15366E-07-3.18323E-02-1.15144E-07-4.80020E-07
 -1     28433 7.73744E-03 1.25594E-01 3.84828E-07-4.28138E-02 3.57093E-08 1.10178E-07
 -1     28438 9.30894E-03 1.24022E-01 5.40594E-07-4.16721E-02-9.74264E-08-2.99556E-07
 -1     28439 4.19126E-03 1.29140E-01 6.38967E-07-3.18323E-02-4.25298E-08-1.77808E-07
 -1     28440 7.73748E-03 1.25594E-01 6.06570E-07-4.28138E-02 3.52343E-08 1.09058E-07
 -1     28445 9.30896E-03 1.24022E-01 7.00421E-07-4.16721E-02-4.08179E-08-1.25002E-07
 -1     28446 4.19132E-03 1.29140E-01 7.71858E-07-3.18323E-02-1.97539E-08-8.26896E-08
 -1     28447 7.73749E-03 1.25594E-01 7.54358E-07-4.28138E-02 2.02353E-08 6.26504E-08
 -1     28452 9.30899E-03 1.24022E-01 8.07310E-07-4.16721E-02-2.06430E-08-6.33164E-08
 -1     28453 4.19132E-03 1.29140E-01 8.56307E-07-3.18323E-02-1.08250E-08-4.52706E-08
 -1     28454 7.73750E-03 1.25594E-01 8.26672E-07-4.28138E-02 1.01099E-08 3.12491E-08
 -1     28459 9.30900E-03 1.24022E-01 8.74667E-07-4.16721E-02-9.69536E-09-2.98122E-08
 -1     28460 4.19132E-03 1.29140E-01 8.99115E-07-3.18323E-02-3.57737E-09-1.49516E-08
 -1     28461 7.73751E-03 1.25594E-01 8.54951E-07-4.28138E-02 3.03962E-09 9.38657E-09
 -1     28466 9.30899E-03 1.24022E-01 8.96905E-07-4.16721E-02-1.27898E-15-8.37418E-15
 -1     28467 4.19132E-03 1.29140E-01 8.99115E-07-3.18323E-02 3.57736E-09 1.49516E-08
 -1     28468 7.73751E-03 1.25594E-01 8.54951E-07-4.28138E-02-3.03963E-09-9.38659E-09
 -1     28473 9.30900E-03 1.24022E-01 8.74667E-07-4.16721E-02 9.69534E-09 2.98122E-08
 -1     28474 4.19132E-03 1.29140E-01 8.56307E-07-3.18323E-02 1.08250E-08 4.52706E-08
 -1     28475 7.73750E-03 1.25594E-01 8.26672E-07-4.28138E-02-1.01099E-08-3.12491E-08
 -1     28480 9.30899E-03 1.24022E-01 8.07310E-07-4.16721E-02 2.06429E-08 6.33164E-08
 -1     28481 4.19132E-03 1.29140E-01 7.71858E-07-3.18323E-02 1.97539E-08 8.26896E-08
 -1     28482 7.73749E-03 1.25594E-01 7.54358E-07-4.28138E-02-2.02353E-08-6.26504E-08
 -1     28487 9.30896E-03 1.24022E-01 7.00421E-07-4.16721E-02 4.08178E-08 1.25002E-07
 -1     28488 4.19126E-03 1.29140E-01 6.38967E-07-3.18323E-02 4.25298E-08 1.77808E-07
 -1     28489 7.73748E-03 1.25594E-01 6.06570E-07-4.28138E-02-3.52343E-08-1.09058E-07
 -1     28494 9.30894E-03 1.24022E-01 5.40594E-07-4.16721E-02 9.74264E-08 2.99556E-07
 -1     28495 4.19125E-03 1.29140E-01 4.15366E-07-3.18323E-02 1.15144E-07 4.80020E-07
 -1     28496 7.73744E-03 1.25594E-01 3.84828E-07-4.28138E-02-3.57093E-08-1.10178E-07
 -1     28501 9.30845E-03 1.24022E-01 2.95240E-07-4.16722E-02 1.33927E-07 4.12982E-07
 -1     28505 2.49931E-02 1.08337E-01 2.95180E-07-5.73568E-02-1.96743E-07-3.87428E-07
 -1     28506 1.70857E-02 1.16246E-01 4.15464E-07-4.95799E-02-1.88906E-07-4.56066E-07
 -1     28507 2.38518E-02 1.09479E-01 3.84730E-07-5.89281E-02 5.27328E-08 1.03360E-07
 -1     28512 2.49936E-02 1.08338E-01 5.40528E-07-5.73567E-02-1.42739E-07-2.80855E-07
 -1     28513 1.70857E-02 1.16246E-01 6.39106E-07-4.95800E-02-6.99307E-08-1.69038E-07
 -1     28514 2.38518E-02 1.09479E-01 6.06370E-07-5.89282E-02 5.21776E-08 1.02289E-07
 -1     28519 2.49936E-02 1.08338E-01 7.00458E-07-5.73567E-02-5.94996E-08-1.17188E-07
 -1     28520 1.70858E-02 1.16246E-01 7.72000E-07-4.95800E-02-3.25650E-08-7.86359E-08
 -1     28521 2.38518E-02 1.09480E-01 7.54161E-07-5.89282E-02 3.00731E-08 5.87335E-08
 -1     28526 2.49936E-02 1.08338E-01 8.07441E-07-5.73567E-02-2.99520E-08-5.94300E-08
 -1     28527 1.70858E-02 1.16246E-01 8.56441E-07-4.95800E-02-1.78676E-08-4.30428E-08
 -1     28528 2.38519E-02 1.09480E-01 8.26481E-07-5.89282E-02 1.50828E-08 2.92670E-08
 -1     28533 2.49936E-02 1.08338E-01 8.74798E-07-5.73567E-02-1.40306E-08-2.80099E-08
 -1     28534 1.70858E-02 1.16246E-01 8.99252E-07-4.95800E-02-5.90785E-09-1.42141E-08
 -1     28535 2.38519E-02 1.09480E-01 8.54753E-07-5.89282E-02 4.54754E-09 8.78570E-09
 -1     28540 2.49936E-02 1.08338E-01 8.97024E-07-5.73567E-02-1.00144E-15 1.16371E-14
 -1     28541 1.70858E-02 1.16246E-01 8.99252E-07-4.95800E-02 5.90783E-09 1.42141E-08
 -1     28542 2.38519E-02 1.09480E-01 8.54753E-07-5.89282E-02-4.54753E-09-8.78567E-09
 -1     28547 2.49936E-02 1.08338E-01 8.74798E-07-5.73567E-02 1.40306E-08 2.80099E-08
 -1     28548 1.70858E-02 1.16246E-01 8.56441E-07-4.95800E-02 1.78675E-08 4.30428E-08
 -1     28549 2.38519E-02 1.09480E-01 8.26481E-07-5.89282E-02-1.50828E-08-2.92670E-08
 -1     28554 2.49936E-02 1.08338E-01 8.07441E-07-5.73567E-02 2.99520E-08 5.94300E-08
 -1     28555 1.70858E-02 1.16246E-01 7.72000E-07-4.95800E-02 3.25650E-08 7.86359E-08
 -1     28556 2.38518E-02 1.09480E-01 7.54161E-07-5.89282E-02-3.00731E-08-5.87335E-08
 -1     28561 2.49936E-02 1.08338E-01 7.00458E-07-5.73567E-02 5.94996E-08 1.17188E-07
 -1     28562 1.70857E-02 1.16246E-01 6.39106E-07-4.95800E-02 6.99307E-08 1.69038E-07
 -1     28563 2.38518E-02 1.09479E-01 6.06370E-07-5.89282E-02-5.21777E-08-1.02289E-07
 -1     28568 2.49936E-02 1.08338E-01 5.40528E-07-5.73567E-02 1.42739E-07 2.80855E-07
 -1     28569 1.70857E-02 1.16246E-01 4.15464E-07-4.95799E-02 1.88906E-07 4.56066E-07
 -1     28570 2.38518E-02 1.09479E-01 3.84730E-07-5.89281E-02-5.27328E-08-1.03360E-07
 -1     28575 2.49931E-02 1.08337E-01 2.95180E-07-5.73568E-02 1.96743E-07 3.87428E-07
 -1     28579 4.47569E-02 8.85736E-02 2.95394E-07-6.74270E-02-2.55069E-07-3.52607E-07
 -1     28580 3.48333E-02 9.84979E-02 4.15259E-07-6.24744E-02-2.57867E-07-4.20558E-07
 -1     28581 4.41570E-02 8.91741E-02 3.84422E-07-6.92742E-02 6.81439E-08 9.35735E-08
 -1     28586 4.47573E-02 8.85740E-02 5.41193E-07-6.74269E-02-1.85308E-07-2.56107E-07
 -1     28587 3.48334E-02 9.84980E-02 6.38796E-07-6.24744E-02-9.54093E-08-1.55771E-07
 -1     28588 4.41571E-02 8.91742E-02 6.06218E-07-6.92742E-02 6.72536E-08 9.23571E-08
 -1     28593 4.47574E-02 8.85740E-02 7.01576E-07-6.74269E-02-7.77396E-08-1.07213E-07
 -1     28594 3.48334E-02 9.84980E-02 7.71556E-07-6.24744E-02-4.43788E-08-7.23741E-08
 -1     28595 4.41571E-02 8.91742E-02 7.54168E-07-6.92742E-02 3.85068E-08 5.28375E-08
 -1     28600 4.47574E-02 8.85741E-02 8.08848E-07-6.74269E-02-3.94671E-08-5.45264E-08
 -1     28601 3.48334E-02 9.84981E-02 8.55910E-07-6.24744E-02-2.43396E-08-3.95738E-08
 -1     28602 4.41571E-02 8.91742E-02 8.26587E-07-6.92742E-02 1.91795E-08 2.62261E-08
 -1     28607 4.47574E-02 8.85741E-02 8.76281E-07-6.74269E-02-1.85667E-08-2.57317E-08
 -1     28608 3.48334E-02 9.84981E-02 8.98699E-07-6.24744E-02-8.04897E-09-1.30625E-08
 -1     28609 4.41571E-02 8.91743E-02 8.54891E-07-6.92742E-02 5.75810E-09 7.85293E-09
 -1     28614 4.47574E-02 8.85741E-02 8.98510E-07-6.74269E-02-2.96365E-15-5.21150E-15
 -1     28615 3.48334E-02 9.84981E-02 8.98699E-07-6.24744E-02 8.04896E-09 1.30625E-08
 -1     28616 4.41571E-02 8.91743E-02 8.54891E-07-6.92742E-02-5.75811E-09-7.85294E-09
 -1     28621 4.47574E-02 8.85741E-02 8.76281E-07-6.74269E-02 1.85667E-08 2.57317E-08
 -1     28622 3.48334E-02 9.84981E-02 8.55910E-07-6.24744E-02 2.43396E-08 3.95738E-08
 -1     28623 4.41571E-02 8.91742E-02 8.26587E-07-6.92742E-02-1.91795E-08-2.62261E-08
 -1     28628 4.47574E-02 8.85741E-02 8.08848E-07-6.74269E-02 3.94671E-08 5.45264E-08
 -1     28629 3.48334E-02 9.84980E-02 7.71556E-07-6.24744E-02 4.43788E-08 7.23741E-08
 -1     28630 4.41571E-02 8.91742E-02 7.54168E-07-6.92742E-02-3.85068E-08-5.28375E-08
 -1     28635 4.47574E-02 8.85740E-02 7.01576E-07-6.74269E-02 7.77396E-08 1.07213E-07
 -1     28636 3.48334E-02 9.84980E-02 6.38796E-07-6.24744E-02 9.54093E-08 1.55771E-07
 -1     28637 4.41571E-02 8.91742E-02 6.06218E-07-6.92742E-02-6.72536E-08-9.23571E-08
 -1     28642 4.47573E-02 8.85740E-02 5.41193E-07-6.74269E-02 1.85308E-07 2.56107E-07
 -1     28643 3.48333E-02 9.84979E-02 4.15259E-07-6.24744E-02 2.57867E-07 4.20558E-07
 -1     28644 4.41570E-02 8.91741E-02 3.84422E-07-6.92742E-02-6.81439E-08-9.35735E-08
 -1     28649 4.47569E-02 8.85736E-02 2.95394E-07-6.74270E-02 2.55069E-07 3.52607E-07
 -1     28653 6.66653E-02 6.66653E-02 2.95414E-07-7.08969E-02-3.06816E-07-3.08137E-07
 -1     28654 5.56970E-02 7.76343E-02 4.14941E-07-6.92534E-02-3.20234E-07-3.74808E-07
 -1     28655 6.66656E-02 6.66656E-02 3.84746E-07-7.28392E-02 8.20617E-08 8.13343E-08
 -1     28660 6.66656E-02 6.66657E-02 5.41168E-07-7.08968E-02-2.23057E-07-2.23737E-07
 -1     28661 5.56970E-02 7.76343E-02 6.38333E-07-6.92534E-02-1.18337E-07-1.38726E-07
 -1     28662 6.66656E-02 6.66656E-02 6.06725E-07-7.28392E-02 8.04158E-08 8.09845E-08
 -1     28667 6.66657E-02 6.66657E-02 7.01497E-07-7.08968E-02-9.41239E-08-9.29943E-08
 -1     28668 5.56971E-02 7.76344E-02 7.70978E-07-6.92534E-02-5.47868E-08-6.44818E-08
 -1     28669 6.66657E-02 6.66657E-02 7.54690E-07-7.28392E-02 4.57019E-08 4.66322E-08
 -1     28674 6.66657E-02 6.66657E-02 8.08864E-07-7.08968E-02-4.82931E-08-4.68320E-08
 -1     28675 5.56971E-02 7.76344E-02 8.55221E-07-6.92534E-02-2.99208E-08-3.52912E-08
 -1     28676 6.66657E-02 6.66657E-02 8.27179E-07-7.28392E-02 2.25509E-08 2.33059E-08
 -1     28681 6.66657E-02 6.66657E-02 8.76421E-07-7.08968E-02-2.28794E-08-2.19830E-08
 -1     28682 5.56971E-02 7.76344E-02 8.97956E-07-6.92534E-02-9.87543E-09-1.16544E-08
 -1     28683 6.66657E-02 6.66657E-02 8.55538E-07-7.28392E-02 6.72669E-09 7.01033E-09
 -1     28688 6.66657E-02 6.66657E-02 8.98700E-07-7.08968E-02 2.10562E-15 1.31006E-14
 -1     28689 5.56971E-02 7.76344E-02 8.97956E-07-6.92534E-02 9.87543E-09 1.16544E-08
 -1     28690 6.66657E-02 6.66657E-02 8.55538E-07-7.28392E-02-6.72669E-09-7.01033E-09
 -1     28695 6.66657E-02 6.66657E-02 8.76421E-07-7.08968E-02 2.28794E-08 2.19830E-08
 -1     28696 5.56971E-02 7.76344E-02 8.55221E-07-6.92534E-02 2.99208E-08 3.52912E-08
 -1     28697 6.66657E-02 6.66657E-02 8.27179E-07-7.28392E-02-2.25509E-08-2.33059E-08
 -1     28702 6.66657E-02 6.66657E-02 8.08864E-07-7.08968E-02 4.82931E-08 4.68319E-08
 -1     28703 5.56971E-02 7.76344E-02 7.70978E-07-6.92534E-02 5.47868E-08 6.44818E-08
 -1     28704 6.66657E-02 6.66657E-02 7.54690E-07-7.28392E-02-4.57019E-08-4.66322E-08
 -1     28709 6.66657E-02 6.66657E-02 7.01497E-07-7.08968E-02 9.41239E-08 9.29943E-08
 -1     28710 5.56970E-02 7.76343E-02 6.38333E-07-6.92534E-02 1.18337E-07 1.38726E-07
 -1     28711 6.66656E-02 6.66656E-02 6.06725E-07-7.28392E-02-8.04158E-08-8.09845E-08
 -1     28716 6.66656E-02 6.66657E-02 5.41168E-07-7.08968E-02 2.23057E-07 2.23737E-07
 -1     28717 5.56970E-02 7.76343E-02 4.14941E-07-6.92534E-02 3.20234E-07 3.74808E-07
 -1     28718 6.66656E-02 6.66656E-02 3.84746E-07-7.28392E-02-8.20618E-08-8.13343E-08
 -1     28723 6.66653E-02 6.66653E-02 2.95414E-07-7.08969E-02 3.06816E-07 3.08137E-07
 -1     28727 8.85737E-02 4.47569E-02 2.95229E-07-6.74270E-02-3.50522E-07-2.56341E-07
 -1     28728 7.76343E-02 5.56970E-02 4.15609E-07-6.92534E-02-3.75719E-07-3.20477E-07
 -1     28729 8.91742E-02 4.41571E-02 3.85953E-07-6.92742E-02 9.45574E-08 6.77670E-08
 -1     28734 8.85740E-02 4.47574E-02 5.39632E-07-6.74269E-02-2.52859E-07-1.85305E-07
 -1     28735 7.76343E-02 5.56970E-02 6.39233E-07-6.92534E-02-1.39518E-07-1.18822E-07
 -1     28736 8.91742E-02 4.41571E-02 6.07229E-07-6.92742E-02 9.38900E-08 6.80176E-08
 -1     28741 8.85740E-02 4.47574E-02 6.98288E-07-6.74269E-02-1.04518E-07-7.62291E-08
 -1     28742 7.76344E-02 5.56971E-02 7.72212E-07-6.92534E-02-6.49076E-08-5.55201E-08
 -1     28743 8.91742E-02 4.41571E-02 7.54759E-07-6.92742E-02 5.43072E-08 3.95469E-08
 -1     28748 8.85741E-02 4.47574E-02 8.04885E-07-6.74269E-02-5.25893E-08-3.81172E-08
 -1     28749 7.76344E-02 5.56971E-02 8.56639E-07-6.92534E-02-3.54617E-08-3.05116E-08
 -1     28750 8.91743E-02 4.41571E-02 8.26992E-07-6.92742E-02 2.72597E-08 1.99176E-08
 -1     28755 8.85741E-02 4.47574E-02 8.72235E-07-6.74269E-02-2.47099E-08-1.78685E-08
 -1     28756 7.76344E-02 5.56971E-02 8.99418E-07-6.92534E-02-1.16973E-08-1.00942E-08
 -1     28757 8.91743E-02 4.41571E-02 8.55263E-07-6.92743E-02 8.22061E-09 6.01758E-09
 -1     28762 8.85741E-02 4.47574E-02 8.94487E-07-6.74269E-02 8.71435E-15-6.90436E-15
 -1     28763 7.76344E-02 5.56971E-02 8.99418E-07-6.92534E-02 1.16973E-08 1.00942E-08
 -1     28764 8.91743E-02 4.41571E-02 8.55263E-07-6.92743E-02-8.22060E-09-6.01759E-09
 -1     28769 8.85741E-02 4.47574E-02 8.72235E-07-6.74269E-02 2.47099E-08 1.78685E-08
 -1     28770 7.76344E-02 5.56971E-02 8.56639E-07-6.92534E-02 3.54617E-08 3.05116E-08
 -1     28771 8.91743E-02 4.41571E-02 8.26992E-07-6.92742E-02-2.72597E-08-1.99176E-08
 -1     28776 8.85741E-02 4.47574E-02 8.04885E-07-6.74269E-02 5.25893E-08 3.81172E-08
 -1     28777 7.76344E-02 5.56971E-02 7.72212E-07-6.92534E-02 6.49076E-08 5.55201E-08
 -1     28778 8.91742E-02 4.41571E-02 7.54759E-07-6.92742E-02-5.43072E-08-3.95469E-08
 -1     28783 8.85740E-02 4.47574E-02 6.98288E-07-6.74269E-02 1.04518E-07 7.62291E-08
 -1     28784 7.76343E-02 5.56970E-02 6.39233E-07-6.92534E-02 1.39518E-07 1.18822E-07
 -1     28785 8.91742E-02 4.41571E-02 6.07229E-07-6.92742E-02-9.38900E-08-6.80176E-08
 -1     28790 8.85740E-02 4.47574E-02 5.39632E-07-6.74269E-02 2.52859E-07 1.85305E-07
 -1     28791 7.76343E-02 5.56970E-02 4.15609E-07-6.92534E-02 3.75719E-07 3.20477E-07
 -1     28792 8.91742E-02 4.41571E-02 3.85953E-07-6.92742E-02-9.45574E-08-6.77670E-08
 -1     28797 8.85737E-02 4.47569E-02 2.95229E-07-6.74270E-02 3.50522E-07 2.56341E-07
 -1     28801 1.08337E-01 2.49931E-02 2.95980E-07-5.73568E-02-3.87307E-07-1.99461E-07
 -1     28802 9.84979E-02 3.48333E-02 4.15807E-07-6.24744E-02-4.21518E-07-2.57536E-07
 -1     28803 1.09479E-01 2.38518E-02 3.85459E-07-5.89281E-02 1.03349E-07 5.18837E-08
 -1     28808 1.08338E-01 2.49936E-02 5.41529E-07-5.73567E-02-2.80620E-07-1.45740E-07
 -1     28809 9.84980E-02 3.48334E-02 6.39458E-07-6.24744E-02-1.56641E-07-9.55382E-08
 -1     28810 1.09479E-01 2.38518E-02 6.07126E-07-5.89282E-02 1.02780E-07 5.08455E-08
 -1     28815 1.08338E-01 2.49936E-02 7.01035E-07-5.73567E-02-1.16469E-07-6.17530E-08
 -1     28816 9.84980E-02 3.48334E-02 7.72573E-07-6.24744E-02-7.32190E-08-4.44919E-08
 -1     28817 1.09480E-01 2.38518E-02 7.54820E-07-5.89282E-02 5.93219E-08 2.88109E-08
 -1     28822 1.08338E-01 2.49936E-02 8.08001E-07-5.73567E-02-5.85783E-08-3.19404E-08
 -1     28823 9.84980E-02 3.48334E-02 8.57098E-07-6.24744E-02-4.01892E-08-2.43019E-08
 -1     28824 1.09480E-01 2.38519E-02 8.27140E-07-5.89282E-02 2.97416E-08 1.40897E-08
 -1     28829 1.08338E-01 2.49936E-02 8.75392E-07-5.73568E-02-2.74635E-08-1.52468E-08
 -1     28830 9.84981E-02 3.48334E-02 8.99915E-07-6.24744E-02-1.32874E-08-8.01071E-09
 -1     28831 1.09480E-01 2.38519E-02 8.55427E-07-5.89282E-02 8.96536E-09 4.17201E-09
 -1     28836 1.08338E-01 2.49936E-02 8.97617E-07-5.73568E-02 2.23323E-14-1.58806E-14
 -1     28837 9.84981E-02 3.48334E-02 8.99915E-07-6.24744E-02 1.32874E-08 8.01070E-09
 -1     28838 1.09480E-01 2.38519E-02 8.55427E-07-5.89282E-02-8.96534E-09-4.17202E-09
 -1     28843 1.08338E-01 2.49936E-02 8.75392E-07-5.73568E-02 2.74636E-08 1.52468E-08
 -1     28844 9.84980E-02 3.48334E-02 8.57098E-07-6.24744E-02 4.01892E-08 2.43019E-08
 -1     28845 1.09480E-01 2.38519E-02 8.27140E-07-5.89282E-02-2.97416E-08-1.40897E-08
 -1     28850 1.08338E-01 2.49936E-02 8.08001E-07-5.73567E-02 5.85783E-08 3.19404E-08
 -1     28851 9.84980E-02 3.48334E-02 7.72573E-07-6.24744E-02 7.32190E-08 4.44919E-08
 -1     28852 1.09480E-01 2.38518E-02 7.54820E-07-5.89282E-02-5.93219E-08-2.88109E-08
 -1     28857 1.08338E-01 2.49936E-02 7.01035E-07-5.73567E-02 1.16469E-07 6.17530E-08
 -1     28858 9.84980E-02 3.48334E-02 6.39458E-07-6.24744E-02 1.56641E-07 9.55382E-08
 -1     28859 1.09479E-01 2.38518E-02 6.07126E-07-5.89282E-02-1.02780E-07-5.08455E-08
 -1     28864 1.08338E-01 2.49936E-02 5.41529E-07-5.73567E-02 2.80620E-07 1.45740E-07
 -1     28865 9.84979E-02 3.48333E-02 4.15807E-07-6.24744E-02 4.21518E-07 2.57536E-07
 -1     28866 1.09479E-01 2.38518E-02 3.85459E-07-5.89281E-02-1.03349E-07-5.18837E-08
 -1     28871 1.08337E-01 2.49931E-02 2.95980E-07-5.73568E-02 3.87307E-07 1.99461E-07
 -1     28875 1.24022E-01 9.30844E-03 2.97056E-07-4.16722E-02-4.15337E-07-1.36341E-07
 -1     28876 1.16246E-01 1.70857E-02 4.14381E-07-4.95799E-02-4.55032E-07-1.87673E-07
 -1     28877 1.25594E-01 7.73744E-03 3.84778E-07-4.28138E-02 1.08939E-07 3.45073E-08
 -1     28882 1.24022E-01 9.30895E-03 5.44196E-07-4.16721E-02-3.03782E-07-1.00360E-07
 -1     28883 1.16246E-01 1.70857E-02 6.37402E-07-4.95800E-02-1.68003E-07-6.90927E-08
 -1     28884 1.25594E-01 7.73747E-03 6.07144E-07-4.28138E-02 1.07029E-07 3.42327E-08
 -1     28889 1.24022E-01 9.30897E-03 7.04815E-07-4.16721E-02-1.28648E-07-4.22627E-08
 -1     28890 1.16246E-01 1.70857E-02 7.69995E-07-4.95800E-02-7.79398E-08-3.18843E-08
 -1     28891 1.25594E-01 7.73749E-03 7.55175E-07-4.28138E-02 6.07028E-08 1.95615E-08
 -1     28896 1.24022E-01 9.30900E-03 8.12274E-07-4.16721E-02-6.59275E-08-2.13859E-08
 -1     28897 1.16246E-01 1.70858E-02 8.54203E-07-4.95800E-02-4.26521E-08-1.73282E-08
 -1     28898 1.25594E-01 7.73750E-03 8.27671E-07-4.28138E-02 2.98919E-08 9.68896E-09
 -1     28903 1.24022E-01 9.30900E-03 8.79765E-07-4.16721E-02-3.11689E-08-1.00548E-08
 -1     28904 1.16246E-01 1.70858E-02 8.96917E-07-4.95800E-02-1.40908E-08-5.69935E-09
 -1     28905 1.25594E-01 7.73750E-03 8.56013E-07-4.28138E-02 8.90582E-09 2.89481E-09
 -1     28910 1.24022E-01 9.30900E-03 9.01980E-07-4.16721E-02-4.65141E-15-1.38089E-14
 -1     28911 1.16246E-01 1.70858E-02 8.96917E-07-4.95800E-02 1.40908E-08 5.69935E-09
 -1     28912 1.25594E-01 7.73750E-03 8.56013E-07-4.28138E-02-8.90583E-09-2.89483E-09
 -1     28917 1.24022E-01 9.30900E-03 8.79765E-07-4.16721E-02 3.11689E-08 1.00548E-08
 -1     28918 1.16246E-01 1.70858E-02 8.54203E-07-4.95800E-02 4.26521E-08 1.73282E-08
 -1     28919 1.25594E-01 7.73750E-03 8.27671E-07-4.28138E-02-2.98919E-08-9.68897E-09
 -1     28924 1.24022E-01 9.30900E-03 8.12274E-07-4.16721E-02 6.59275E-08 2.13859E-08
 -1     28925 1.16246E-01 1.70857E-02 7.69995E-07-4.95800E-02 7.79398E-08 3.18843E-08
 -1     28926 1.25594E-01 7.73749E-03 7.55175E-07-4.28138E-02-6.07028E-08-1.95615E-08
 -1     28931 1.24022E-01 9.30897E-03 7.04815E-07-4.16721E-02 1.28648E-07 4.22627E-08
 -1     28932 1.16246E-01 1.70857E-02 6.37402E-07-4.95800E-02 1.68003E-07 6.90927E-08
 -1     28933 1.25594E-01 7.73747E-03 6.07144E-07-4.28138E-02-1.07029E-07-3.42327E-08
 -1     28938 1.24022E-01 9.30895E-03 5.44196E-07-4.16721E-02 3.03782E-07 1.00360E-07
 -1     28939 1.16246E-01 1.70857E-02 4.14381E-07-4.95799E-02 4.55032E-07 1.87673E-07
 -1     28940 1.25594E-01 7.73744E-03 3.84778E-07-4.28138E-02-1.08939E-07-3.45073E-08
 -1     28945 1.24022E-01 9.30844E-03 2.97056E-07-4.16722E-02 4.15337E-07 1.36341E-07
 -1     28949 1.34092E-01-7.61735E-04 2.96946E-07-2.19084E-02-4.29778E-07-6.83218E-08
 -1     28950 1.29140E-01 4.19125E-03 4.14168E-07-3.18323E-02-4.78644E-07-1.14668E-07
 -1     28951 1.35940E-01-2.60861E-03 3.86492E-07-2.25086E-02 1.13187E-07 1.70763E-08
 -1     28956 1.34093E-01-7.61218E-04 5.42592E-07-2.19083E-02-3.12966E-07-4.94526E-08
 -1     28957 1.29140E-01 4.19126E-03 6.37056E-07-3.18323E-02-1.76518E-07-4.21089E-08
 -1     28958 1.35940E-01-2.60858E-03 6.08507E-07-2.25086E-02 1.12174E-07 1.86906E-08
 -1     28963 1.34093E-01-7.61203E-04 7.01253E-07-2.19083E-02-1.30944E-07-1.87355E-08
 -1     28964 1.29140E-01 4.19131E-03 7.69718E-07-3.18323E-02-8.16965E-08-1.98678E-08
 -1     28965 1.35940E-01-2.60856E-03 7.56050E-07-2.25086E-02 6.43346E-08 1.16692E-08
 -1     28970 1.34093E-01-7.61174E-04 8.07784E-07-2.19083E-02-6.64793E-08-7.99039E-09
 -1     28971 1.29140E-01 4.19132E-03 8.53958E-07-3.18323E-02-4.45984E-08-1.11079E-08
 -1     28972 1.35940E-01-2.60855E-03 8.28298E-07-2.25086E-02 3.19957E-08 6.34615E-09
 -1     28977 1.34093E-01-7.61171E-04 8.75139E-07-2.19083E-02-3.13552E-08-3.35256E-09
 -1     28978 1.29140E-01 4.19131E-03 8.96655E-07-3.18323E-02-1.47135E-08-3.70654E-09
 -1     28979 1.35940E-01-2.60855E-03 8.56595E-07-2.25086E-02 9.58903E-09 2.01084E-09
 -1     28984 1.34093E-01-7.61173E-04 8.97383E-07-2.19084E-02-5.21436E-15-1.19311E-14
 -1     28985 1.29140E-01 4.19131E-03 8.96655E-07-3.18323E-02 1.47135E-08 3.70652E-09
 -1     28986 1.35940E-01-2.60855E-03 8.56595E-07-2.25086E-02-9.58902E-09-2.01086E-09
 -1     28991 1.34093E-01-7.61171E-04 8.75139E-07-2.19083E-02 3.13552E-08 3.35255E-09
 -1     28992 1.29140E-01 4.19132E-03 8.53958E-07-3.18323E-02 4.45984E-08 1.11079E-08
 -1     28993 1.35940E-01-2.60855E-03 8.28298E-07-2.25086E-02-3.19956E-08-6.34615E-09
 -1     28998 1.34093E-01-7.61174E-04 8.07784E-07-2.19083E-02 6.64793E-08 7.99038E-09
 -1     28999 1.29140E-01 4.19131E-03 7.69718E-07-3.18323E-02 8.16965E-08 1.98678E-08
 -1     29000 1.35940E-01-2.60856E-03 7.56050E-07-2.25086E-02-6.43346E-08-1.16692E-08
 -1     29005 1.34093E-01-7.61203E-04 7.01253E-07-2.19083E-02 1.30944E-07 1.87355E-08
 -1     29006 1.29140E-01 4.19126E-03 6.37056E-07-3.18323E-02 1.76518E-07 4.21089E-08
 -1     29007 1.35940E-01-2.60858E-03 6.08507E-07-2.25086E-02-1.12174E-07-1.86906E-08
 -1     29012 1.34093E-01-7.61218E-04 5.42592E-07-2.19083E-02 3.12966E-07 4.94526E-08
 -1     29013 1.29140E-01 4.19125E-03 4.14168E-07-3.18323E-02 4.78644E-07 1.14668E-07
 -1     29014 1.35940E-01-2.60861E-03 3.86492E-07-2.25086E-02-1.13187E-07-1.70763E-08
 -1     29019 1.34092E-01-7.61735E-04 2.96946E-07-2.19084E-02 4.29778E-07 6.83218E-08
 -1     29023 1.35919E-01-2.58774E-03 4.15899E-07-1.09687E-02-4.93035E-07-3.87912E-08
 -1     29027 1.35919E-01-2.58773E-03 6.39453E-07-1.09687E-02-1.83209E-07-1.42457E-08
 -1     29031 1.35919E-01-2.58768E-03 7.73001E-07-1.09687E-02-8.57293E-08-6.98020E-09
 -1     29035 1.35919E-01-2.58767E-03 8.57785E-07-1.09687E-02-4.70307E-08-4.07541E-09
 -1     29039 1.35919E-01-2.58768E-03 9.00632E-07-1.09687E-02-1.55361E-08-1.38913E-09
 -1     29043 1.35919E-01-2.58768E-03 9.00632E-07-1.09687E-02 1.55361E-08 1.38912E-09
 -1     29047 1.35919E-01-2.58767E-03 8.57785E-07-1.09687E-02 4.70307E-08 4.07540E-09
 -1     29051 1.35919E-01-2.58768E-03 7.73001E-07-1.09687E-02 8.57293E-08 6.98019E-09
 -1     29055 1.35919E-01-2.58773E-03 6.39453E-07-1.09687E-02 1.83209E-07 1.42456E-08
 -1     29059 1.35919E-01-2.58774E-03 4.15899E-07-1.09687E-02 4.93035E-07 3.87912E-08
 -1     29065 1.04903E-03 1.32277E-01-3.46011E-07-2.13192E-02-1.37901E-08-8.98230E-08
 -1     29069 1.04933E-03 1.32277E-01-4.68232E-07-2.13192E-02-1.90719E-08-1.21468E-07
 -1     29073 1.04940E-03 1.32277E-01-5.33426E-07-2.13191E-02-1.47098E-08-9.27424E-08
 -1     29077 1.04941E-03 1.32277E-01-5.55422E-07-2.13191E-02-8.78061E-09-5.50981E-08
 -1     29081 1.04941E-03 1.32277E-01-5.63565E-07-2.13191E-02-2.89975E-09-1.81431E-08
 -1     29085 1.04941E-03 1.32277E-01-5.63565E-07-2.13191E-02 2.89974E-09 1.81431E-08
 -1     29089 1.04941E-03 1.32277E-01-5.55422E-07-2.13191E-02 8.78060E-09 5.50981E-08
 -1     29093 1.04940E-03 1.32277E-01-5.33426E-07-2.13191E-02 1.47098E-08 9.27424E-08
 -1     29097 1.04933E-03 1.32277E-01-4.68232E-07-2.13192E-02 1.90719E-08 1.21468E-07
 -1     29101 1.04903E-03 1.32277E-01-3.46011E-07-2.13192E-02 1.37901E-08 8.98230E-08
 -1     29107 1.08484E-02 1.22477E-01-3.46316E-07-4.05515E-02-2.71408E-08-8.64908E-08
 -1     29111 1.08487E-02 1.22477E-01-4.68243E-07-4.05515E-02-3.73187E-08-1.16911E-07
 -1     29115 1.08487E-02 1.22477E-01-5.33511E-07-4.05514E-02-2.86824E-08-8.92676E-08
 -1     29119 1.08487E-02 1.22477E-01-5.55528E-07-4.05514E-02-1.70817E-08-5.30280E-08
 -1     29123 1.08487E-02 1.22477E-01-5.63655E-07-4.05514E-02-5.63454E-09-1.74580E-08
 -1     29127 1.08487E-02 1.22477E-01-5.63655E-07-4.05514E-02 5.63451E-09 1.74580E-08
 -1     29131 1.08487E-02 1.22477E-01-5.55528E-07-4.05514E-02 1.70817E-08 5.30280E-08
 -1     29135 1.08487E-02 1.22477E-01-5.33511E-07-4.05514E-02 2.86824E-08 8.92676E-08
 -1     29139 1.08487E-02 1.22477E-01-4.68243E-07-4.05515E-02 3.73187E-08 1.16911E-07
 -1     29143 1.08484E-02 1.22477E-01-3.46316E-07-4.05515E-02 2.71408E-08 8.64908E-08
 -1     29149 2.61112E-02 1.07214E-01-3.46865E-07-5.58144E-02-4.00590E-08-8.13539E-08
 -1     29153 2.61115E-02 1.07214E-01-4.68543E-07-5.58143E-02-5.45222E-08-1.09977E-07
 -1     29157 2.61116E-02 1.07214E-01-5.34264E-07-5.58143E-02-4.16055E-08-8.41324E-08
 -1     29161 2.61116E-02 1.07214E-01-5.56662E-07-5.58142E-02-2.46448E-08-5.00377E-08
 -1     29165 2.61116E-02 1.07214E-01-5.64969E-07-5.58142E-02-8.10462E-09-1.64799E-08
 -1     29169 2.61116E-02 1.07214E-01-5.64969E-07-5.58142E-02 8.10461E-09 1.64799E-08
 -1     29173 2.61116E-02 1.07214E-01-5.56662E-07-5.58142E-02 2.46448E-08 5.00377E-08
 -1     29177 2.61116E-02 1.07214E-01-5.34264E-07-5.58143E-02 4.16055E-08 8.41324E-08
 -1     29181 2.61115E-02 1.07214E-01-4.68543E-07-5.58143E-02 5.45222E-08 1.09977E-07
 -1     29185 2.61112E-02 1.07214E-01-3.46865E-07-5.58144E-02 4.00590E-08 8.13539E-08
 -1     29191 4.53436E-02 8.79820E-02-3.46722E-07-6.56137E-02-5.31101E-08-7.47353E-08
 -1     29195 4.53438E-02 8.79821E-02-4.68428E-07-6.56136E-02-7.23109E-08-1.00515E-07
 -1     29199 4.53438E-02 8.79821E-02-5.34854E-07-6.56136E-02-5.54042E-08-7.68834E-08
 -1     29203 4.53438E-02 8.79821E-02-5.57976E-07-6.56136E-02-3.28782E-08-4.57772E-08
 -1     29207 4.53438E-02 8.79821E-02-5.66676E-07-6.56136E-02-1.08156E-08-1.50847E-08
 -1     29211 4.53438E-02 8.79821E-02-5.66676E-07-6.56136E-02 1.08156E-08 1.50847E-08
 -1     29215 4.53438E-02 8.79821E-02-5.57976E-07-6.56136E-02 3.28782E-08 4.57771E-08
 -1     29219 4.53438E-02 8.79821E-02-5.34854E-07-6.56136E-02 5.54042E-08 7.68834E-08
 -1     29223 4.53438E-02 8.79821E-02-4.68428E-07-6.56136E-02 7.23109E-08 1.00515E-07
 -1     29227 4.53436E-02 8.79820E-02-3.46722E-07-6.56137E-02 5.31101E-08 7.47354E-08
 -1     29233 6.66627E-02 6.66628E-02-3.46307E-07-6.89904E-02-6.48131E-08-6.52704E-08
 -1     29237 6.66629E-02 6.66630E-02-4.67989E-07-6.89902E-02-8.85747E-08-8.62776E-08
 -1     29241 6.66629E-02 6.66630E-02-5.33764E-07-6.89902E-02-6.85830E-08-6.50162E-08
 -1     29245 6.66629E-02 6.66630E-02-5.56314E-07-6.89902E-02-4.10145E-08-3.84391E-08
 -1     29249 6.66629E-02 6.66630E-02-5.64671E-07-6.89902E-02-1.35427E-08-1.26251E-08
 -1     29253 6.66629E-02 6.66630E-02-5.64671E-07-6.89902E-02 1.35427E-08 1.26251E-08
 -1     29257 6.66629E-02 6.66630E-02-5.56314E-07-6.89902E-02 4.10145E-08 3.84391E-08
 -1     29261 6.66629E-02 6.66630E-02-5.33764E-07-6.89902E-02 6.85830E-08 6.50162E-08
 -1     29265 6.66629E-02 6.66630E-02-4.67989E-07-6.89902E-02 8.85747E-08 8.62776E-08
 -1     29269 6.66627E-02 6.66628E-02-3.46307E-07-6.89904E-02 6.48131E-08 6.52704E-08
 -1     29275 8.79820E-02 4.53436E-02-3.47593E-07-6.56138E-02-7.26477E-08-5.39922E-08
 -1     29279 8.79821E-02 4.53438E-02-4.69350E-07-6.56137E-02-9.73931E-08-7.14994E-08
 -1     29283 8.79822E-02 4.53439E-02-5.33759E-07-6.56136E-02-7.43805E-08-5.40609E-08
 -1     29287 8.79822E-02 4.53439E-02-5.54862E-07-6.56136E-02-4.41985E-08-3.20579E-08
 -1     29291 8.79822E-02 4.53439E-02-5.62330E-07-6.56136E-02-1.45523E-08-1.05417E-08
 -1     29295 8.79822E-02 4.53439E-02-5.62330E-07-6.56136E-02 1.45523E-08 1.05417E-08
 -1     29299 8.79822E-02 4.53439E-02-5.54862E-07-6.56136E-02 4.41986E-08 3.20579E-08
 -1     29303 8.79822E-02 4.53439E-02-5.33759E-07-6.56136E-02 7.43805E-08 5.40608E-08
 -1     29307 8.79821E-02 4.53438E-02-4.69350E-07-6.56137E-02 9.73931E-08 7.14994E-08
 -1     29311 8.79820E-02 4.53436E-02-3.47593E-07-6.56138E-02 7.26477E-08 5.39922E-08
 -1     29317 1.07214E-01 2.61113E-02-3.47061E-07-5.58144E-02-8.23382E-08-4.37438E-08
 -1     29321 1.07214E-01 2.61115E-02-4.69536E-07-5.58143E-02-1.08373E-07-5.95524E-08
 -1     29325 1.07214E-01 2.61116E-02-5.35532E-07-5.58143E-02-8.18252E-08-4.66662E-08
 -1     29329 1.07214E-01 2.61116E-02-5.58421E-07-5.58143E-02-4.83439E-08-2.83122E-08
 -1     29333 1.07214E-01 2.61116E-02-5.66919E-07-5.58143E-02-1.58702E-08-9.41158E-09
 -1     29337 1.07214E-01 2.61116E-02-5.66919E-07-5.58143E-02 1.58702E-08 9.41157E-09
 -1     29341 1.07214E-01 2.61116E-02-5.58421E-07-5.58143E-02 4.83439E-08 2.83121E-08
 -1     29345 1.07214E-01 2.61116E-02-5.35532E-07-5.58143E-02 8.18252E-08 4.66661E-08
 -1     29349 1.07214E-01 2.61115E-02-4.69536E-07-5.58143E-02 1.08373E-07 5.95524E-08
 -1     29353 1.07214E-01 2.61113E-02-3.47061E-07-5.58144E-02 8.23382E-08 4.37438E-08
 -1     29359 1.22477E-01 1.08484E-02-3.45470E-07-4.05515E-02-9.22411E-08-2.95678E-08
 -1     29363 1.22477E-01 1.08487E-02-4.69091E-07-4.05515E-02-1.21517E-07-3.83430E-08
 -1     29367 1.22477E-01 1.08487E-02-5.36637E-07-4.05514E-02-9.26285E-08-2.89242E-08
 -1     29371 1.22477E-01 1.08488E-02-5.61384E-07-4.05514E-02-5.51203E-08-1.73025E-08
 -1     29375 1.22477E-01 1.08487E-02-5.70999E-07-4.05514E-02-1.81546E-08-5.72333E-09
 -1     29379 1.22477E-01 1.08487E-02-5.70999E-07-4.05514E-02 1.81546E-08 5.72330E-09
 -1     29383 1.22477E-01 1.08488E-02-5.61384E-07-4.05514E-02 5.51203E-08 1.73025E-08
 -1     29387 1.22477E-01 1.08487E-02-5.36637E-07-4.05514E-02 9.26285E-08 2.89242E-08
 -1     29391 1.22477E-01 1.08487E-02-4.69091E-07-4.05515E-02 1.21517E-07 3.83430E-08
 -1     29395 1.22477E-01 1.08484E-02-3.45470E-07-4.05515E-02 9.22411E-08 2.95677E-08
 -1     29401 1.32277E-01 1.04903E-03-3.45341E-07-2.13192E-02-9.43849E-08-1.28480E-08
 -1     29405 1.32277E-01 1.04933E-03-4.69387E-07-2.13192E-02-1.23497E-07-1.32916E-08
 -1     29409 1.32277E-01 1.04940E-03-5.33804E-07-2.13192E-02-9.38229E-08-7.42985E-09
 -1     29413 1.32277E-01 1.04941E-03-5.55503E-07-2.13192E-02-5.58734E-08-3.66714E-09
 -1     29417 1.32277E-01 1.04941E-03-5.63390E-07-2.13192E-02-1.84181E-08-1.10273E-09
 -1     29421 1.32277E-01 1.04941E-03-5.63390E-07-2.13192E-02 1.84180E-08 1.10271E-09
 -1     29425 1.32277E-01 1.04941E-03-5.55503E-07-2.13192E-02 5.58734E-08 3.66712E-09
 -1     29429 1.32277E-01 1.04940E-03-5.33804E-07-2.13192E-02 9.38229E-08 7.42984E-09
 -1     29433 1.32277E-01 1.04933E-03-4.69387E-07-2.13192E-02 1.23497E-07 1.32916E-08
 -1     29437 1.32277E-01 1.04903E-03-3.45341E-07-2.13192E-02 9.43849E-08 1.28480E-08
 -3
    1PSTEP                         3           1           1          
  100CL  101 1.000000000       15523                     0    1           1
 -4  ERROR       1    1
 -5  STR(%)      1    1    0    0
 -1         1 1.94306E+00
 -1         2 3.20346E-01
 -1         3 3.20375E-01
 -1         4 1.94306E+00
 -1         5 1.94306E+00
 -1         6 3.20346E-01
 -1         7 3.20375E-01
 -1         8 1.94306E+00
 -1         9 1.94306E+00
 -1        10 1.79799E+00
 -1        11 1.63849E+00
 -1        12 1.50033E+00
 -1        13 1.37959E+00
 -1        14 1.27307E+00
 -1        15 1.17837E+00
 -1        16 1.09363E+00
 -1        17 1.01737E+00
 -1        18 9.48385E-01
 -1        19 8.85716E-01
 -1        20 8.28565E-01
 -1        21 7.76270E-01
 -1        22 7.28276E-01
 -1        23 6.84113E-01
 -1        24 6.43378E-01
 -1        25 6.05725E-01
 -1        26 5.70855E-01
 -1        27 5.38507E-01
 -1        28 5.08450E-01
 -1        29 4.80482E-01
 -1        30 4.54424E-01
 -1        31 4.30116E-01
 -1        32 4.07414E-01
 -1        33 3.86188E-01
 -1        34 3.66332E-01
 -1        35 3.47708E-01
 -1        36 3.30356E-01
 -1        37 3.20346E-01
 -1        38 1.94306E+00
 -1        39 1.87053E+00
 -1        40 1.71824E+00
 -1        41 1.56941E+00
 -1        42 1.43996E+00
 -1        43 1.32633E+00
 -1        44 1.22572E+00
 -1        45 1.13600E+00
 -1        46 1.05550E+00
 -1        47 9.82877E-01
 -1        48 9.17050E-01
 -1        49 8.57140E-01
 -1        50 8.02417E-01
 -1        51 7.52273E-01
 -1        52 7.06194E-01
 -1        53 6.63745E-01
 -1        54 6.24551E-01
 -1        55 5.88290E-01
 -1        56 5.54681E-01
 -1        57 5.23478E-01
 -1        58 4.94466E-01
 -1        59 4.67453E-01
 -1        60 4.42270E-01
 -1        61 4.18765E-01
 -1        62 3.96801E-01
 -1        63 3.76260E-01
 -1        64 3.57020E-01
 -1        65 3.39032E-01
 -1        66 3.25351E-01
 -1        67 3.20346E-01
 -1        68 3.20347E-01
 -1        69 3.20347E-01
 -1        70 3.20347E-01
 -1        71 3.20353E-01
 -1        72 3.20367E-01
 -1        73 3.20367E-01
 -1        74 3.20349E-01
 -1        75 3.20371E-01
 -1        76 3.20375E-01
 -1        77 3.20347E-01
 -1        78 3.20347E-01
 -1        79 3.20347E-01
 -1        80 3.20350E-01
 -1        81 3.20360E-01
 -1        82 3.20367E-01
 -1        83 3.20358E-01
 -1        84 3.20360E-01
 -1        85 3.20373E-01
 -1        86 3.20375E-01
 -1        87 3.20375E-01
 -1        88 3.30357E-01
 -1        89 3.47707E-01
 -1        90 3.66332E-01
 -1        91 3.86188E-01
 -1        92 4.07414E-01
 -1        93 4.30116E-01
 -1        94 4.54424E-01
 -1        95 4.80482E-01
 -1        96 5.08450E-01
 -1        97 5.38507E-01
 -1        98 5.70855E-01
 -1        99 6.05725E-01
 -1       100 6.43378E-01
 -1       101 6.84113E-01
 -1       102 7.28276E-01
 -1       103 7.76270E-01
 -1       104 8.28565E-01
 -1       105 8.85716E-01
 -1       106 9.48385E-01
 -1       107 1.01737E+00
 -1       108 1.09363E+00
 -1       109 1.17837E+00
 -1       110 1.27307E+00
 -1       111 1.37959E+00
 -1       112 1.50033E+00
 -1       113 1.63849E+00
 -1       114 1.79799E+00
 -1       115 1.94306E+00
 -1       116 3.20375E-01
 -1       117 3.25366E-01
 -1       118 3.39032E-01
 -1       119 3.57020E-01
 -1       120 3.76260E-01
 -1       121 3.96801E-01
 -1       122 4.18765E-01
 -1       123 4.42270E-01
 -1       124 4.67453E-01
 -1       125 4.94466E-01
 -1       126 5.23478E-01
 -1       127 5.54681E-01
 -1       128 5.88290E-01
 -1       129 6.24551E-01
 -1       130 6.63745E-01
 -1       131 7.06194E-01
 -1       132 7.52273E-01
 -1       133 8.02417E-01
 -1       134 8.57140E-01
 -1       135 9.17050E-01
 -1       136 9.82877E-01
 -1       137 1.05550E+00
 -1       138 1.13600E+00
 -1       139 1.22572E+00
 -1       140 1.32633E+00
 -1       141 1.43996E+00
 -1       142 1.56941E+00
 -1       143 1.71824E+00
 -1       144 1.87053E+00
 -1       145 1.94306E+00
 -1       146 1.94306E+00
 -1       147 1.94306E+00
 -1       148 1.94306E+00
 -1       149 1.94306E+00
 -1       150 1.94306E+00
 -1       151 1.94306E+00
 -1       152 1.94306E+00
 -1       153 1.94306E+00
 -1       154 1.94306E+00
 -1       155 1.94306E+00
 -1       156 1.94306E+00
 -1       157 1.94306E+00
 -1       158 1.94306E+00
 -1       159 1.94306E+00
 -1       160 1.94306E+00
 -1       161 1.94306E+00
 -1       162 1.94306E+00
 -1       163 1.94306E+00
 -1       164 1.94306E+00
 -1       165 1.94306E+00
 -1       166 1.79799E+00
 -1       167 1.63849E+00
 -1       168 1.50033E+00
 -1       169 1.37959E+00
 -1       170 1.27307E+00
 -1       171 1.17837E+00
 -1       172 1.09363E+00
 -1       173 1.01737E+00
 -1       174 9.48385E-01
 -1       175 8.85716E-01
 -1       176 8.28565E-01
 -1       177 7.76270E-01
 -1       178 7.28276E-01
 -1       179 6.84113E-01
 -1       180 6.43378E-01
 -1       181 6.05725E-01
 -1       182 5.70855E-01
 -1       183 5.38507E-01
 -1       184 5.08450E-01
 -1       185 4.80482E-01
 -1       186 4.54424E-01
 -1       187 4.30116E-01
 -1       188 4.07414E-01
 -1       189 3.86188E-01
 -1       190 3.66332E-01
 -1       191 3.47708E-01
 -1       192 3.30356E-01
 -1       193 3.20346E-01
 -1       194 1.94306E+00
 -1       195 1.87053E+00
 -1       196 1.71824E+00
 -1       197 1.56941E+00
 -1       198 1.43996E+00
 -1       199 1.32633E+00
 -1       200 1.22572E+00
 -1       201 1.13600E+00
 -1       202 1.05550E+00
 -1       203 9.82877E-01
 -1       204 9.17050E-01
 -1       205 8.57140E-01
 -1       206 8.02417E-01
 -1       207 7.52273E-01
 -1       208 7.06194E-01
 -1       209 6.63745E-01
 -1       210 6.24551E-01
 -1       211 5.88290E-01
 -1       212 5.54681E-01
 -1       213 5.23478E-01
 -1       214 4.94466E-01
 -1       215 4.67453E-01
 -1       216 4.42270E-01
 -1       217 4.18765E-01
 -1       218 3.96801E-01
 -1       219 3.76260E-01
 -1       220 3.57020E-01
 -1       221 3.39032E-01
 -1       222 3.25351E-01
 -1       223 3.20346E-01
 -1       224 3.20347E-01
 -1       225 3.20347E-01
 -1       226 3.20347E-01
 -1       227 3.20353E-01
 -1       228 3.20367E-01
 -1       229 3.20367E-01
 -1       230 3.20349E-01
 -1       231 3.20371E-01
 -1       232 3.20375E-01
 -1       233 3.20347E-01
 -1       234 3.20347E-01
 -1       235 3.20347E-01
 -1       236 3.20350E-01
 -1       237 3.20360E-01
 -1       238 3.20367E-01
 -1       239 3.20358E-01
 -1       240 3.20360E-01
 -1       241 3.20373E-01
 -1       242 3.20375E-01
 -1       243 3.20375E-01
 -1       244 3.30357E-01
 -1       245 3.47707E-01
 -1       246 3.66332E-01
 -1       247 3.86188E-01
 -1       248 4.07414E-01
 -1       249 4.30116E-01
 -1       250 4.54424E-01
 -1       251 4.80482E-01
 -1       252 5.08450E-01
 -1       253 5.38507E-01
 -1       254 5.70855E-01
 -1       255 6.05725E-01
 -1       256 6.43378E-01
 -1       257 6.84113E-01
 -1       258 7.28276E-01
 -1       259 7.76270E-01
 -1       260 8.28565E-01
 -1       261 8.85716E-01
 -1       262 9.48385E-01
 -1       263 1.01737E+00
 -1       264 1.09363E+00
 -1       265 1.17837E+00
 -1       266 1.27307E+00
 -1       267 1.37959E+00
 -1       268 1.50033E+00
 -1       269 1.63849E+00
 -1       270 1.79799E+00
 -1       271 1.94306E+00
 -1       272 3.20375E-01
 -1       273 3.25366E-01
 -1       274 3.39032E-01
 -1       275 3.57020E-01
 -1       276 3.76260E-01
 -1       277 3.96801E-01
 -1       278 4.18765E-01
 -1       279 4.42270E-01
 -1       280 4.67453E-01
 -1       281 4.94466E-01
 -1       282 5.23478E-01
 -1       283 5.54681E-01
 -1       284 5.88290E-01
 -1       285 6.24551E-01
 -1       286 6.63745E-01
 -1       287 7.06194E-01
 -1       288 7.52273E-01
 -1       289 8.02417E-01
 -1       290 8.57140E-01
 -1       291 9.17050E-01
 -1       292 9.82877E-01
 -1       293 1.05550E+00
 -1       294 1.13600E+00
 -1       295 1.22572E+00
 -1       296 1.32633E+00
 -1       297 1.43996E+00
 -1       298 1.56941E+00
 -1       299 1.71824E+00
 -1       300 1.87053E+00
 -1       301 1.94306E+00
 -1       302 1.94306E+00
 -1       303 1.94306E+00
 -1       304 1.94306E+00
 -1       305 1.94306E+00
 -1       306 1.94306E+00
 -1       307 1.94306E+00
 -1       308 1.94306E+00
 -1       309 1.94306E+00
 -1       310 1.94306E+00
 -1       311 1.94306E+00
 -1       312 1.94306E+00
 -1       313 1.94306E+00
 -1       314 1.94306E+00
 -1       315 1.94306E+00
 -1       316 1.94306E+00
 -1       317 1.94306E+00
 -1       318 1.94306E+00
 -1       319 1.94306E+00
 -1       320 1.94306E+00
 -1       321 1.94306E+00
 -1       322 1.94301E+00
 -1       323 1.94299E+00
 -1       324 1.94299E+00
 -1       325 1.94299E+00
 -1       326 1.94299E+00
 -1       327 1.94299E+00
 -1       328 1.94299E+00
 -1       329 1.94301E+00
 -1       330 1.94306E+00
 -1       331 1.94306E+00
 -1       332 1.94303E+00
 -1       333 1.94300E+00
 -1       334 1.94299E+00
 -1       335 1.94299E+00
 -1       336 1.94299E+00
 -1       337 1.94299E+00
 -1       338 1.94299E+00
 -1       339 1.94300E+00
 -1       340 1.94303E+00
 -1       341 1.94306E+00
 -1       342 3.20346E-01
 -1       343 3.20316E-01
 -1       344 3.20314E-01
 -1       345 3.20316E-01
 -1       346 3.20317E-01
 -1       347 3.20317E-01
 -1       348 3.20316E-01
 -1       349 3.20314E-01
 -1       350 3.20316E-01
 -1       351 3.20346E-01
 -1       352 3.20346E-01
 -1       353 3.20331E-01
 -1       354 3.20315E-01
 -1       355 3.20315E-01
 -1       356 3.20317E-01
 -1       357 3.20317E-01
 -1       358 3.20317E-01
 -1       359 3.20315E-01
 -1       360 3.20315E-01
 -1       361 3.20331E-01
 -1       362 3.20346E-01
 -1       363 3.20375E-01
 -1       364 3.20352E-01
 -1       365 3.20353E-01
 -1       366 3.20357E-01
 -1       367 3.20357E-01
 -1       368 3.20357E-01
 -1       369 3.20357E-01
 -1       370 3.20353E-01
 -1       371 3.20352E-01
 -1       372 3.20375E-01
 -1       373 3.20375E-01
 -1       374 3.20363E-01
 -1       375 3.20352E-01
 -1       376 3.20355E-01
 -1       377 3.20357E-01
 -1       378 3.20357E-01
 -1       379 3.20357E-01
 -1       380 3.20355E-01
 -1       381 3.20352E-01
 -1       382 3.20363E-01
 -1       383 3.20375E-01
 -1       384 1.94306E+00
 -1       385 1.94301E+00
 -1       386 1.94299E+00
 -1       387 1.94299E+00
 -1       388 1.94299E+00
 -1       389 1.94299E+00
 -1       390 1.94299E+00
 -1       391 1.94299E+00
 -1       392 1.94301E+00
 -1       393 1.94306E+00
 -1       394 1.94306E+00
 -1       395 1.94303E+00
 -1       396 1.94300E+00
 -1       397 1.94299E+00
 -1       398 1.94299E+00
 -1       399 1.94299E+00
 -1       400 1.94299E+00
 -1       401 1.94299E+00
 -1       402 1.94300E+00
 -1       403 1.94303E+00
 -1       404 1.94306E+00
 -1       405 1.94306E+00
 -1       406 1.94306E+00
 -1       407 1.94306E+00
 -1       408 1.94306E+00
 -1       409 1.94306E+00
 -1       410 1.94306E+00
 -1       411 1.94306E+00
 -1       412 1.94306E+00
 -1       413 1.94306E+00
 -1       414 1.79799E+00
 -1       415 1.79799E+00
 -1       416 1.79799E+00
 -1       417 1.79799E+00
 -1       418 1.79799E+00
 -1       419 1.79799E+00
 -1       420 1.79799E+00
 -1       421 1.79799E+00
 -1       422 1.79799E+00
 -1       423 1.63849E+00
 -1       424 1.63849E+00
 -1       425 1.63849E+00
 -1       426 1.63849E+00
 -1       427 1.63849E+00
 -1       428 1.63849E+00
 -1       429 1.63849E+00
 -1       430 1.63849E+00
 -1       431 1.63849E+00
 -1       432 1.50033E+00
 -1       433 1.50033E+00
 -1       434 1.50033E+00
 -1       435 1.50033E+00
 -1       436 1.50033E+00
 -1       437 1.50033E+00
 -1       438 1.50033E+00
 -1       439 1.50033E+00
 -1       440 1.50033E+00
 -1       441 1.37959E+00
 -1       442 1.37959E+00
 -1       443 1.37959E+00
 -1       444 1.37959E+00
 -1       445 1.37959E+00
 -1       446 1.37959E+00
 -1       447 1.37959E+00
 -1       448 1.37959E+00
 -1       449 1.37959E+00
 -1       450 1.27307E+00
 -1       451 1.27307E+00
 -1       452 1.27307E+00
 -1       453 1.27307E+00
 -1       454 1.27307E+00
 -1       455 1.27307E+00
 -1       456 1.27307E+00
 -1       457 1.27307E+00
 -1       458 1.27307E+00
 -1       459 1.17837E+00
 -1       460 1.17837E+00
 -1       461 1.17837E+00
 -1       462 1.17837E+00
 -1       463 1.17837E+00
 -1       464 1.17837E+00
 -1       465 1.17837E+00
 -1       466 1.17837E+00
 -1       467 1.17837E+00
 -1       468 1.09363E+00
 -1       469 1.09363E+00
 -1       470 1.09363E+00
 -1       471 1.09363E+00
 -1       472 1.09363E+00
 -1       473 1.09363E+00
 -1       474 1.09363E+00
 -1       475 1.09363E+00
 -1       476 1.09363E+00
 -1       477 1.01737E+00
 -1       478 1.01737E+00
 -1       479 1.01737E+00
 -1       480 1.01737E+00
 -1       481 1.01737E+00
 -1       482 1.01737E+00
 -1       483 1.01737E+00
 -1       484 1.01737E+00
 -1       485 1.01737E+00
 -1       486 9.48385E-01
 -1       487 9.48385E-01
 -1       488 9.48385E-01
 -1       489 9.48385E-01
 -1       490 9.48385E-01
 -1       491 9.48385E-01
 -1       492 9.48385E-01
 -1       493 9.48385E-01
 -1       494 9.48385E-01
 -1       495 8.85716E-01
 -1       496 8.85716E-01
 -1       497 8.85716E-01
 -1       498 8.85716E-01
 -1       499 8.85716E-01
 -1       500 8.85716E-01
 -1       501 8.85716E-01
 -1       502 8.85716E-01
 -1       503 8.85716E-01
 -1       504 8.28565E-01
 -1       505 8.28565E-01
 -1       506 8.28565E-01
 -1       507 8.28565E-01
 -1       508 8.28565E-01
 -1       509 8.28565E-01
 -1       510 8.28565E-01
 -1       511 8.28565E-01
 -1       512 8.28565E-01
 -1       513 7.76270E-01
 -1       514 7.76270E-01
 -1       515 7.76270E-01
 -1       516 7.76270E-01
 -1       517 7.76270E-01
 -1       518 7.76270E-01
 -1       519 7.76270E-01
 -1       520 7.76270E-01
 -1       521 7.76270E-01
 -1       522 7.28276E-01
 -1       523 7.28276E-01
 -1       524 7.28276E-01
 -1       525 7.28276E-01
 -1       526 7.28276E-01
 -1       527 7.28276E-01
 -1       528 7.28276E-01
 -1       529 7.28276E-01
 -1       530 7.28276E-01
 -1       531 6.84113E-01
 -1       532 6.84113E-01
 -1       533 6.84113E-01
 -1       534 6.84113E-01
 -1       535 6.84113E-01
 -1       536 6.84113E-01
 -1       537 6.84113E-01
 -1       538 6.84113E-01
 -1       539 6.84113E-01
 -1       540 6.43378E-01
 -1       541 6.43378E-01
 -1       542 6.43378E-01
 -1       543 6.43378E-01
 -1       544 6.43378E-01
 -1       545 6.43378E-01
 -1       546 6.43378E-01
 -1       547 6.43378E-01
 -1       548 6.43378E-01
 -1       549 6.05725E-01
 -1       550 6.05725E-01
 -1       551 6.05725E-01
 -1       552 6.05725E-01
 -1       553 6.05725E-01
 -1       554 6.05725E-01
 -1       555 6.05725E-01
 -1       556 6.05725E-01
 -1       557 6.05725E-01
 -1       558 5.70855E-01
 -1       559 5.70855E-01
 -1       560 5.70855E-01
 -1       561 5.70855E-01
 -1       562 5.70855E-01
 -1       563 5.70855E-01
 -1       564 5.70855E-01
 -1       565 5.70855E-01
 -1       566 5.70855E-01
 -1       567 5.38507E-01
 -1       568 5.38507E-01
 -1       569 5.38507E-01
 -1       570 5.38507E-01
 -1       571 5.38507E-01
 -1       572 5.38507E-01
 -1       573 5.38507E-01
 -1       574 5.38507E-01
 -1       575 5.38507E-01
 -1       576 5.08450E-01
 -1       577 5.08450E-01
 -1       578 5.08450E-01
 -1       579 5.08450E-01
 -1       580 5.08450E-01
 -1       581 5.08450E-01
 -1       582 5.08450E-01
 -1       583 5.08450E-01
 -1       584 5.08450E-01
 -1       585 4.80482E-01
 -1       586 4.80482E-01
 -1       587 4.80482E-01
 -1       588 4.80482E-01
 -1       589 4.80482E-01
 -1       590 4.80482E-01
 -1       591 4.80482E-01
 -1       592 4.80482E-01
 -1       593 4.80482E-01
 -1       594 4.54424E-01
 -1       595 4.54424E-01
 -1       596 4.54424E-01
 -1       597 4.54424E-01
 -1       598 4.54424E-01
 -1       599 4.54424E-01
 -1       600 4.54424E-01
 -1       601 4.54424E-01
 -1       602 4.54424E-01
 -1       603 4.30116E-01
 -1       604 4.30116E-01
 -1       605 4.30116E-01
 -1       606 4.30116E-01
 -1       607 4.30116E-01
 -1       608 4.30116E-01
 -1       609 4.30116E-01
 -1       610 4.30116E-01
 -1       611 4.30116E-01
 -1       612 4.07414E-01
 -1       613 4.07414E-01
 -1       614 4.07414E-01
 -1       615 4.07414E-01
 -1       616 4.07414E-01
 -1       617 4.07414E-01
 -1       618 4.07414E-01
 -1       619 4.07414E-01
 -1       620 4.07414E-01
 -1       621 3.86188E-01
 -1       622 3.86188E-01
 -1       623 3.86188E-01
 -1       624 3.86189E-01
 -1       625 3.86189E-01
 -1       626 3.86188E-01
 -1       627 3.86188E-01
 -1       628 3.86189E-01
 -1       629 3.86189E-01
 -1       630 3.66332E-01
 -1       631 3.66332E-01
 -1       632 3.66332E-01
 -1       633 3.66332E-01
 -1       634 3.66332E-01
 -1       635 3.66332E-01
 -1       636 3.66332E-01
 -1       637 3.66332E-01
 -1       638 3.66332E-01
 -1       639 3.47708E-01
 -1       640 3.47708E-01
 -1       641 3.47708E-01
 -1       642 3.47708E-01
 -1       643 3.47708E-01
 -1       644 3.47708E-01
 -1       645 3.47708E-01
 -1       646 3.47708E-01
 -1       647 3.47708E-01
 -1       648 3.30356E-01
 -1       649 3.30356E-01
 -1       650 3.30356E-01
 -1       651 3.30356E-01
 -1       652 3.30356E-01
 -1       653 3.30356E-01
 -1       654 3.30356E-01
 -1       655 3.30356E-01
 -1       656 3.30357E-01
 -1       657 3.20347E-01
 -1       658 3.20347E-01
 -1       659 3.20347E-01
 -1       660 3.20353E-01
 -1       661 3.20367E-01
 -1       662 3.20367E-01
 -1       663 3.20349E-01
 -1       664 3.20371E-01
 -1       665 3.20375E-01
 -1       666 1.94306E+00
 -1       667 1.94306E+00
 -1       669 1.94306E+00
 -1       670 1.94306E+00
 -1       672 1.94306E+00
 -1       673 1.94306E+00
 -1       675 1.94306E+00
 -1       676 1.94306E+00
 -1       678 1.94306E+00
 -1       679 1.94306E+00
 -1       681 1.94306E+00
 -1       682 1.94306E+00
 -1       684 1.94306E+00
 -1       685 1.94306E+00
 -1       687 1.94306E+00
 -1       688 1.94306E+00
 -1       690 1.94306E+00
 -1       691 1.94306E+00
 -1       693 1.94306E+00
 -1       695 1.79799E+00
 -1       696 1.87053E+00
 -1       698 1.79799E+00
 -1       699 1.87053E+00
 -1       701 1.79799E+00
 -1       702 1.87053E+00
 -1       704 1.79799E+00
 -1       705 1.87053E+00
 -1       707 1.79799E+00
 -1       708 1.87053E+00
 -1       710 1.79799E+00
 -1       711 1.87053E+00
 -1       713 1.79799E+00
 -1       714 1.87053E+00
 -1       716 1.79799E+00
 -1       717 1.87053E+00
 -1       719 1.79799E+00
 -1       720 1.87053E+00
 -1       722 1.79799E+00
 -1       724 1.63849E+00
 -1       725 1.71824E+00
 -1       727 1.63849E+00
 -1       728 1.71824E+00
 -1       730 1.63849E+00
 -1       731 1.71824E+00
 -1       733 1.63849E+00
 -1       734 1.71824E+00
 -1       736 1.63849E+00
 -1       737 1.71824E+00
 -1       739 1.63849E+00
 -1       740 1.71824E+00
 -1       742 1.63849E+00
 -1       743 1.71824E+00
 -1       745 1.63849E+00
 -1       746 1.71824E+00
 -1       748 1.63849E+00
 -1       749 1.71824E+00
 -1       751 1.63849E+00
 -1       753 1.50033E+00
 -1       754 1.56941E+00
 -1       756 1.50033E+00
 -1       757 1.56941E+00
 -1       759 1.50033E+00
 -1       760 1.56941E+00
 -1       762 1.50033E+00
 -1       763 1.56941E+00
 -1       765 1.50033E+00
 -1       766 1.56941E+00
 -1       768 1.50033E+00
 -1       769 1.56941E+00
 -1       771 1.50033E+00
 -1       772 1.56941E+00
 -1       774 1.50033E+00
 -1       775 1.56941E+00
 -1       777 1.50033E+00
 -1       778 1.56941E+00
 -1       780 1.50033E+00
 -1       782 1.37959E+00
 -1       783 1.43996E+00
 -1       785 1.37959E+00
 -1       786 1.43996E+00
 -1       788 1.37959E+00
 -1       789 1.43996E+00
 -1       791 1.37959E+00
 -1       792 1.43996E+00
 -1       794 1.37959E+00
 -1       795 1.43996E+00
 -1       797 1.37959E+00
 -1       798 1.43996E+00
 -1       800 1.37959E+00
 -1       801 1.43996E+00
 -1       803 1.37959E+00
 -1       804 1.43996E+00
 -1       806 1.37959E+00
 -1       807 1.43996E+00
 -1       809 1.37959E+00
 -1       811 1.27307E+00
 -1       812 1.32633E+00
 -1       814 1.27307E+00
 -1       815 1.32633E+00
 -1       817 1.27307E+00
 -1       818 1.32633E+00
 -1       820 1.27307E+00
 -1       821 1.32633E+00
 -1       823 1.27307E+00
 -1       824 1.32633E+00
 -1       826 1.27307E+00
 -1       827 1.32633E+00
 -1       829 1.27307E+00
 -1       830 1.32633E+00
 -1       832 1.27307E+00
 -1       833 1.32633E+00
 -1       835 1.27307E+00
 -1       836 1.32633E+00
 -1       838 1.27307E+00
 -1       840 1.17837E+00
 -1       841 1.22572E+00
 -1       843 1.17837E+00
 -1       844 1.22572E+00
 -1       846 1.17837E+00
 -1       847 1.22572E+00
 -1       849 1.17837E+00
 -1       850 1.22572E+00
 -1       852 1.17837E+00
 -1       853 1.22572E+00
 -1       855 1.17837E+00
 -1       856 1.22572E+00
 -1       858 1.17837E+00
 -1       859 1.22572E+00
 -1       861 1.17837E+00
 -1       862 1.22572E+00
 -1       864 1.17837E+00
 -1       865 1.22572E+00
 -1       867 1.17837E+00
 -1       869 1.09363E+00
 -1       870 1.13600E+00
 -1       872 1.09363E+00
 -1       873 1.13600E+00
 -1       875 1.09363E+00
 -1       876 1.13600E+00
 -1       878 1.09363E+00
 -1       879 1.13600E+00
 -1       881 1.09363E+00
 -1       882 1.13600E+00
 -1       884 1.09363E+00
 -1       885 1.13600E+00
 -1       887 1.09363E+00
 -1       888 1.13600E+00
 -1       890 1.09363E+00
 -1       891 1.13600E+00
 -1       893 1.09363E+00
 -1       894 1.13600E+00
 -1       896 1.09363E+00
 -1       898 1.01737E+00
 -1       899 1.05550E+00
 -1       901 1.01737E+00
 -1       902 1.05550E+00
 -1       904 1.01737E+00
 -1       905 1.05550E+00
 -1       907 1.01737E+00
 -1       908 1.05550E+00
 -1       910 1.01737E+00
 -1       911 1.05550E+00
 -1       913 1.01737E+00
 -1       914 1.05550E+00
 -1       916 1.01737E+00
 -1       917 1.05550E+00
 -1       919 1.01737E+00
 -1       920 1.05550E+00
 -1       922 1.01737E+00
 -1       923 1.05550E+00
 -1       925 1.01737E+00
 -1       927 9.48385E-01
 -1       928 9.82877E-01
 -1       930 9.48385E-01
 -1       931 9.82877E-01
 -1       933 9.48385E-01
 -1       934 9.82877E-01
 -1       936 9.48385E-01
 -1       937 9.82877E-01
 -1       939 9.48385E-01
 -1       940 9.82877E-01
 -1       942 9.48385E-01
 -1       943 9.82877E-01
 -1       945 9.48385E-01
 -1       946 9.82877E-01
 -1       948 9.48385E-01
 -1       949 9.82877E-01
 -1       951 9.48385E-01
 -1       952 9.82877E-01
 -1       954 9.48385E-01
 -1       956 8.85716E-01
 -1       957 9.17050E-01
 -1       959 8.85716E-01
 -1       960 9.17050E-01
 -1       962 8.85716E-01
 -1       963 9.17050E-01
 -1       965 8.85716E-01
 -1       966 9.17050E-01
 -1       968 8.85716E-01
 -1       969 9.17050E-01
 -1       971 8.85716E-01
 -1       972 9.17050E-01
 -1       974 8.85716E-01
 -1       975 9.17050E-01
 -1       977 8.85716E-01
 -1       978 9.17050E-01
 -1       980 8.85716E-01
 -1       981 9.17050E-01
 -1       983 8.85716E-01
 -1       985 8.28565E-01
 -1       986 8.57140E-01
 -1       988 8.28565E-01
 -1       989 8.57140E-01
 -1       991 8.28565E-01
 -1       992 8.57140E-01
 -1       994 8.28565E-01
 -1       995 8.57140E-01
 -1       997 8.28565E-01
 -1       998 8.57140E-01
 -1      1000 8.28565E-01
 -1      1001 8.57140E-01
 -1      1003 8.28565E-01
 -1      1004 8.57140E-01
 -1      1006 8.28565E-01
 -1      1007 8.57140E-01
 -1      1009 8.28565E-01
 -1      1010 8.57140E-01
 -1      1012 8.28565E-01
 -1      1014 7.76270E-01
 -1      1015 8.02417E-01
 -1      1017 7.76270E-01
 -1      1018 8.02417E-01
 -1      1020 7.76270E-01
 -1      1021 8.02417E-01
 -1      1023 7.76270E-01
 -1      1024 8.02417E-01
 -1      1026 7.76270E-01
 -1      1027 8.02417E-01
 -1      1029 7.76270E-01
 -1      1030 8.02417E-01
 -1      1032 7.76270E-01
 -1      1033 8.02417E-01
 -1      1035 7.76270E-01
 -1      1036 8.02417E-01
 -1      1038 7.76270E-01
 -1      1039 8.02417E-01
 -1      1041 7.76270E-01
 -1      1043 7.28276E-01
 -1      1044 7.52273E-01
 -1      1046 7.28276E-01
 -1      1047 7.52273E-01
 -1      1049 7.28276E-01
 -1      1050 7.52273E-01
 -1      1052 7.28276E-01
 -1      1053 7.52273E-01
 -1      1055 7.28276E-01
 -1      1056 7.52273E-01
 -1      1058 7.28276E-01
 -1      1059 7.52273E-01
 -1      1061 7.28276E-01
 -1      1062 7.52273E-01
 -1      1064 7.28276E-01
 -1      1065 7.52273E-01
 -1      1067 7.28276E-01
 -1      1068 7.52273E-01
 -1      1070 7.28276E-01
 -1      1072 6.84113E-01
 -1      1073 7.06194E-01
 -1      1075 6.84113E-01
 -1      1076 7.06194E-01
 -1      1078 6.84113E-01
 -1      1079 7.06194E-01
 -1      1081 6.84113E-01
 -1      1082 7.06194E-01
 -1      1084 6.84113E-01
 -1      1085 7.06194E-01
 -1      1087 6.84113E-01
 -1      1088 7.06194E-01
 -1      1090 6.84113E-01
 -1      1091 7.06194E-01
 -1      1093 6.84113E-01
 -1      1094 7.06194E-01
 -1      1096 6.84113E-01
 -1      1097 7.06194E-01
 -1      1099 6.84113E-01
 -1      1101 6.43378E-01
 -1      1102 6.63745E-01
 -1      1104 6.43378E-01
 -1      1105 6.63745E-01
 -1      1107 6.43378E-01
 -1      1108 6.63745E-01
 -1      1110 6.43378E-01
 -1      1111 6.63745E-01
 -1      1113 6.43378E-01
 -1      1114 6.63745E-01
 -1      1116 6.43378E-01
 -1      1117 6.63745E-01
 -1      1119 6.43378E-01
 -1      1120 6.63745E-01
 -1      1122 6.43378E-01
 -1      1123 6.63745E-01
 -1      1125 6.43378E-01
 -1      1126 6.63745E-01
 -1      1128 6.43378E-01
 -1      1130 6.05725E-01
 -1      1131 6.24551E-01
 -1      1133 6.05725E-01
 -1      1134 6.24551E-01
 -1      1136 6.05725E-01
 -1      1137 6.24551E-01
 -1      1139 6.05725E-01
 -1      1140 6.24551E-01
 -1      1142 6.05725E-01
 -1      1143 6.24551E-01
 -1      1145 6.05725E-01
 -1      1146 6.24551E-01
 -1      1148 6.05725E-01
 -1      1149 6.24551E-01
 -1      1151 6.05725E-01
 -1      1152 6.24551E-01
 -1      1154 6.05725E-01
 -1      1155 6.24551E-01
 -1      1157 6.05725E-01
 -1      1159 5.70855E-01
 -1      1160 5.88290E-01
 -1      1162 5.70855E-01
 -1      1163 5.88290E-01
 -1      1165 5.70855E-01
 -1      1166 5.88290E-01
 -1      1168 5.70855E-01
 -1      1169 5.88290E-01
 -1      1171 5.70855E-01
 -1      1172 5.88290E-01
 -1      1174 5.70855E-01
 -1      1175 5.88290E-01
 -1      1177 5.70855E-01
 -1      1178 5.88290E-01
 -1      1180 5.70855E-01
 -1      1181 5.88290E-01
 -1      1183 5.70855E-01
 -1      1184 5.88290E-01
 -1      1186 5.70855E-01
 -1      1188 5.38507E-01
 -1      1189 5.54681E-01
 -1      1191 5.38507E-01
 -1      1192 5.54681E-01
 -1      1194 5.38507E-01
 -1      1195 5.54681E-01
 -1      1197 5.38507E-01
 -1      1198 5.54681E-01
 -1      1200 5.38507E-01
 -1      1201 5.54681E-01
 -1      1203 5.38507E-01
 -1      1204 5.54681E-01
 -1      1206 5.38507E-01
 -1      1207 5.54681E-01
 -1      1209 5.38507E-01
 -1      1210 5.54681E-01
 -1      1212 5.38507E-01
 -1      1213 5.54681E-01
 -1      1215 5.38507E-01
 -1      1217 5.08450E-01
 -1      1218 5.23478E-01
 -1      1220 5.08450E-01
 -1      1221 5.23478E-01
 -1      1223 5.08450E-01
 -1      1224 5.23478E-01
 -1      1226 5.08450E-01
 -1      1227 5.23478E-01
 -1      1229 5.08450E-01
 -1      1230 5.23478E-01
 -1      1232 5.08450E-01
 -1      1233 5.23478E-01
 -1      1235 5.08450E-01
 -1      1236 5.23478E-01
 -1      1238 5.08450E-01
 -1      1239 5.23478E-01
 -1      1241 5.08450E-01
 -1      1242 5.23478E-01
 -1      1244 5.08450E-01
 -1      1246 4.80482E-01
 -1      1247 4.94466E-01
 -1      1249 4.80482E-01
 -1      1250 4.94466E-01
 -1      1252 4.80482E-01
 -1      1253 4.94466E-01
 -1      1255 4.80482E-01
 -1      1256 4.94466E-01
 -1      1258 4.80482E-01
 -1      1259 4.94466E-01
 -1      1261 4.80482E-01
 -1      1262 4.94466E-01
 -1      1264 4.80482E-01
 -1      1265 4.94466E-01
 -1      1267 4.80482E-01
 -1      1268 4.94466E-01
 -1      1270 4.80482E-01
 -1      1271 4.94466E-01
 -1      1273 4.80482E-01
 -1      1275 4.54424E-01
 -1      1276 4.67453E-01
 -1      1278 4.54424E-01
 -1      1279 4.67453E-01
 -1      1281 4.54424E-01
 -1      1282 4.67453E-01
 -1      1284 4.54424E-01
 -1      1285 4.67453E-01
 -1      1287 4.54424E-01
 -1      1288 4.67453E-01
 -1      1290 4.54424E-01
 -1      1291 4.67453E-01
 -1      1293 4.54424E-01
 -1      1294 4.67453E-01
 -1      1296 4.54424E-01
 -1      1297 4.67453E-01
 -1      1299 4.54424E-01
 -1      1300 4.67453E-01
 -1      1302 4.54424E-01
 -1      1304 4.30116E-01
 -1      1305 4.42270E-01
 -1      1307 4.30116E-01
 -1      1308 4.42270E-01
 -1      1310 4.30116E-01
 -1      1311 4.42270E-01
 -1      1313 4.30116E-01
 -1      1314 4.42270E-01
 -1      1316 4.30116E-01
 -1      1317 4.42270E-01
 -1      1319 4.30116E-01
 -1      1320 4.42270E-01
 -1      1322 4.30116E-01
 -1      1323 4.42270E-01
 -1      1325 4.30116E-01
 -1      1326 4.42270E-01
 -1      1328 4.30116E-01
 -1      1329 4.42270E-01
 -1      1331 4.30116E-01
 -1      1333 4.07414E-01
 -1      1334 4.18765E-01
 -1      1336 4.07414E-01
 -1      1337 4.18765E-01
 -1      1339 4.07414E-01
 -1      1340 4.18765E-01
 -1      1342 4.07414E-01
 -1      1343 4.18765E-01
 -1      1345 4.07414E-01
 -1      1346 4.18765E-01
 -1      1348 4.07414E-01
 -1      1349 4.18765E-01
 -1      1351 4.07414E-01
 -1      1352 4.18765E-01
 -1      1354 4.07414E-01
 -1      1355 4.18765E-01
 -1      1357 4.07414E-01
 -1      1358 4.18765E-01
 -1      1360 4.07414E-01
 -1      1362 3.86188E-01
 -1      1363 3.96801E-01
 -1      1365 3.86188E-01
 -1      1366 3.96801E-01
 -1      1368 3.86188E-01
 -1      1369 3.96801E-01
 -1      1371 3.86188E-01
 -1      1372 3.96801E-01
 -1      1374 3.86189E-01
 -1      1375 3.96801E-01
 -1      1377 3.86188E-01
 -1      1378 3.96801E-01
 -1      1380 3.86188E-01
 -1      1381 3.96801E-01
 -1      1383 3.86189E-01
 -1      1384 3.96801E-01
 -1      1386 3.86189E-01
 -1      1387 3.96801E-01
 -1      1389 3.86188E-01
 -1      1391 3.66332E-01
 -1      1392 3.76260E-01
 -1      1394 3.66332E-01
 -1      1395 3.76260E-01
 -1      1397 3.66332E-01
 -1      1398 3.76260E-01
 -1      1400 3.66332E-01
 -1      1401 3.76260E-01
 -1      1403 3.66332E-01
 -1      1404 3.76260E-01
 -1      1406 3.66332E-01
 -1      1407 3.76260E-01
 -1      1409 3.66332E-01
 -1      1410 3.76260E-01
 -1      1412 3.66332E-01
 -1      1413 3.76260E-01
 -1      1415 3.66332E-01
 -1      1416 3.76260E-01
 -1      1418 3.66332E-01
 -1      1420 3.47708E-01
 -1      1421 3.57020E-01
 -1      1423 3.47708E-01
 -1      1424 3.57020E-01
 -1      1426 3.47708E-01
 -1      1427 3.57020E-01
 -1      1429 3.47708E-01
 -1      1430 3.57020E-01
 -1      1432 3.47708E-01
 -1      1433 3.57020E-01
 -1      1435 3.47708E-01
 -1      1436 3.57020E-01
 -1      1438 3.47708E-01
 -1      1439 3.57020E-01
 -1      1441 3.47708E-01
 -1      1442 3.57020E-01
 -1      1444 3.47708E-01
 -1      1445 3.57020E-01
 -1      1447 3.47708E-01
 -1      1449 3.30356E-01
 -1      1450 3.39032E-01
 -1      1452 3.30356E-01
 -1      1453 3.39032E-01
 -1      1455 3.30356E-01
 -1      1456 3.39032E-01
 -1      1458 3.30356E-01
 -1      1459 3.39032E-01
 -1      1461 3.30356E-01
 -1      1462 3.39032E-01
 -1      1464 3.30356E-01
 -1      1465 3.39032E-01
 -1      1467 3.30356E-01
 -1      1468 3.39032E-01
 -1      1470 3.30356E-01
 -1      1471 3.39032E-01
 -1      1473 3.30357E-01
 -1      1474 3.39032E-01
 -1      1476 3.30357E-01
 -1      1478 3.20347E-01
 -1      1479 3.25351E-01
 -1      1481 3.20347E-01
 -1      1482 3.25352E-01
 -1      1484 3.20347E-01
 -1      1485 3.25352E-01
 -1      1487 3.20350E-01
 -1      1488 3.25355E-01
 -1      1490 3.20360E-01
 -1      1491 3.25362E-01
 -1      1493 3.20367E-01
 -1      1494 3.25362E-01
 -1      1496 3.20358E-01
 -1      1497 3.25353E-01
 -1      1499 3.20360E-01
 -1      1500 3.25364E-01
 -1      1502 3.20373E-01
 -1      1503 3.25366E-01
 -1      1505 3.20375E-01
 -1      1507 3.20347E-01
 -1      1509 3.20347E-01
 -1      1511 3.20347E-01
 -1      1513 3.20353E-01
 -1      1515 3.20367E-01
 -1      1517 3.20367E-01
 -1      1519 3.20349E-01
 -1      1521 3.20371E-01
 -1      1523 3.20375E-01
 -1      1526 1.94306E+00
 -1      1527 1.94301E+00
 -1      1528 1.94299E+00
 -1      1529 1.94299E+00
 -1      1530 1.94299E+00
 -1      1531 1.94299E+00
 -1      1532 1.94299E+00
 -1      1533 1.94299E+00
 -1      1534 1.94301E+00
 -1      1535 1.94306E+00
 -1      1536 1.79799E+00
 -1      1537 1.79796E+00
 -1      1538 1.79796E+00
 -1      1539 1.79796E+00
 -1      1540 1.79796E+00
 -1      1541 1.79796E+00
 -1      1542 1.79796E+00
 -1      1543 1.79796E+00
 -1      1544 1.79796E+00
 -1      1545 1.79799E+00
 -1      1546 1.63850E+00
 -1      1547 1.63850E+00
 -1      1548 1.63850E+00
 -1      1549 1.63850E+00
 -1      1550 1.63850E+00
 -1      1551 1.63850E+00
 -1      1552 1.63850E+00
 -1      1553 1.63850E+00
 -1      1554 1.63850E+00
 -1      1555 1.63850E+00
 -1      1556 1.50033E+00
 -1      1557 1.50032E+00
 -1      1558 1.50032E+00
 -1      1559 1.50032E+00
 -1      1560 1.50032E+00
 -1      1561 1.50032E+00
 -1      1562 1.50032E+00
 -1      1563 1.50032E+00
 -1      1564 1.50032E+00
 -1      1565 1.50033E+00
 -1      1566 1.37959E+00
 -1      1567 1.37959E+00
 -1      1568 1.37959E+00
 -1      1569 1.37959E+00
 -1      1570 1.37959E+00
 -1      1571 1.37959E+00
 -1      1572 1.37959E+00
 -1      1573 1.37959E+00
 -1      1574 1.37959E+00
 -1      1575 1.37959E+00
 -1      1576 1.27307E+00
 -1      1577 1.27306E+00
 -1      1578 1.27306E+00
 -1      1579 1.27306E+00
 -1      1580 1.27306E+00
 -1      1581 1.27306E+00
 -1      1582 1.27306E+00
 -1      1583 1.27306E+00
 -1      1584 1.27306E+00
 -1      1585 1.27307E+00
 -1      1586 1.17837E+00
 -1      1587 1.17837E+00
 -1      1588 1.17837E+00
 -1      1589 1.17837E+00
 -1      1590 1.17837E+00
 -1      1591 1.17837E+00
 -1      1592 1.17837E+00
 -1      1593 1.17837E+00
 -1      1594 1.17837E+00
 -1      1595 1.17837E+00
 -1      1596 1.09363E+00
 -1      1597 1.09363E+00
 -1      1598 1.09363E+00
 -1      1599 1.09363E+00
 -1      1600 1.09363E+00
 -1      1601 1.09363E+00
 -1      1602 1.09363E+00
 -1      1603 1.09363E+00
 -1      1604 1.09363E+00
 -1      1605 1.09363E+00
 -1      1606 1.01737E+00
 -1      1607 1.01737E+00
 -1      1608 1.01737E+00
 -1      1609 1.01737E+00
 -1      1610 1.01737E+00
 -1      1611 1.01737E+00
 -1      1612 1.01737E+00
 -1      1613 1.01737E+00
 -1      1614 1.01737E+00
 -1      1615 1.01737E+00
 -1      1616 9.48385E-01
 -1      1617 9.48385E-01
 -1      1618 9.48385E-01
 -1      1619 9.48385E-01
 -1      1620 9.48385E-01
 -1      1621 9.48385E-01
 -1      1622 9.48385E-01
 -1      1623 9.48385E-01
 -1      1624 9.48385E-01
 -1      1625 9.48385E-01
 -1      1626 8.85716E-01
 -1      1627 8.85716E-01
 -1      1628 8.85716E-01
 -1      1629 8.85716E-01
 -1      1630 8.85716E-01
 -1      1631 8.85716E-01
 -1      1632 8.85716E-01
 -1      1633 8.85716E-01
 -1      1634 8.85716E-01
 -1      1635 8.85716E-01
 -1      1636 8.28565E-01
 -1      1637 8.28565E-01
 -1      1638 8.28565E-01
 -1      1639 8.28565E-01
 -1      1640 8.28565E-01
 -1      1641 8.28565E-01
 -1      1642 8.28565E-01
 -1      1643 8.28565E-01
 -1      1644 8.28565E-01
 -1      1645 8.28565E-01
 -1      1646 7.76270E-01
 -1      1647 7.76270E-01
 -1      1648 7.76270E-01
 -1      1649 7.76270E-01
 -1      1650 7.76270E-01
 -1      1651 7.76270E-01
 -1      1652 7.76270E-01
 -1      1653 7.76270E-01
 -1      1654 7.76270E-01
 -1      1655 7.76270E-01
 -1      1656 7.28276E-01
 -1      1657 7.28276E-01
 -1      1658 7.28276E-01
 -1      1659 7.28276E-01
 -1      1660 7.28276E-01
 -1      1661 7.28276E-01
 -1      1662 7.28276E-01
 -1      1663 7.28276E-01
 -1      1664 7.28276E-01
 -1      1665 7.28276E-01
 -1      1666 6.84113E-01
 -1      1667 6.84113E-01
 -1      1668 6.84113E-01
 -1      1669 6.84113E-01
 -1      1670 6.84113E-01
 -1      1671 6.84113E-01
 -1      1672 6.84113E-01
 -1      1673 6.84113E-01
 -1      1674 6.84113E-01
 -1      1675 6.84113E-01
 -1      1676 6.43378E-01
 -1      1677 6.43378E-01
 -1      1678 6.43378E-01
 -1      1679 6.43378E-01
 -1      1680 6.43378E-01
 -1      1681 6.43378E-01
 -1      1682 6.43378E-01
 -1      1683 6.43378E-01
 -1      1684 6.43378E-01
 -1      1685 6.43378E-01
 -1      1686 6.05725E-01
 -1      1687 6.05725E-01
 -1      1688 6.05725E-01
 -1      1689 6.05725E-01
 -1      1690 6.05725E-01
 -1      1691 6.05725E-01
 -1      1692 6.05725E-01
 -1      1693 6.05725E-01
 -1      1694 6.05725E-01
 -1      1695 6.05725E-01
 -1      1696 5.70855E-01
 -1      1697 5.70855E-01
 -1      1698 5.70855E-01
 -1      1699 5.70855E-01
 -1      1700 5.70855E-01
 -1      1701 5.70855E-01
 -1      1702 5.70855E-01
 -1      1703 5.70855E-01
 -1      1704 5.70855E-01
 -1      1705 5.70855E-01
 -1      1706 5.38507E-01
 -1      1707 5.38507E-01
 -1      1708 5.38507E-01
 -1      1709 5.38507E-01
 -1      1710 5.38507E-01
 -1      1711 5.38507E-01
 -1      1712 5.38507E-01
 -1      1713 5.38507E-01
 -1      1714 5.38507E-01
 -1      1715 5.38507E-01
 -1      1716 5.08450E-01
 -1      1717 5.08450E-01
 -1      1718 5.08450E-01
 -1      1719 5.08450E-01
 -1      1720 5.08450E-01
 -1      1721 5.08450E-01
 -1      1722 5.08450E-01
 -1      1723 5.08450E-01
 -1      1724 5.08450E-01
 -1      1725 5.08450E-01
 -1      1726 4.80482E-01
 -1      1727 4.80482E-01
 -1      1728 4.80482E-01
 -1      1729 4.80482E-01
 -1      1730 4.80482E-01
 -1      1731 4.80482E-01
 -1      1732 4.80482E-01
 -1      1733 4.80482E-01
 -1      1734 4.80482E-01
 -1      1735 4.80482E-01
 -1      1736 4.54424E-01
 -1      1737 4.54424E-01
 -1      1738 4.54424E-01
 -1      1739 4.54424E-01
 -1      1740 4.54424E-01
 -1      1741 4.54424E-01
 -1      1742 4.54424E-01
 -1      1743 4.54424E-01
 -1      1744 4.54424E-01
 -1      1745 4.54424E-01
 -1      1746 4.30116E-01
 -1      1747 4.30116E-01
 -1      1748 4.30116E-01
 -1      1749 4.30116E-01
 -1      1750 4.30116E-01
 -1      1751 4.30116E-01
 -1      1752 4.30116E-01
 -1      1753 4.30116E-01
 -1      1754 4.30116E-01
 -1      1755 4.30116E-01
 -1      1756 4.07414E-01
 -1      1757 4.07414E-01
 -1      1758 4.07414E-01
 -1      1759 4.07414E-01
 -1      1760 4.07414E-01
 -1      1761 4.07414E-01
 -1      1762 4.07414E-01
 -1      1763 4.07414E-01
 -1      1764 4.07414E-01
 -1      1765 4.07414E-01
 -1      1766 3.86188E-01
 -1      1767 3.86188E-01
 -1      1768 3.86188E-01
 -1      1769 3.86188E-01
 -1      1770 3.86188E-01
 -1      1771 3.86188E-01
 -1      1772 3.86188E-01
 -1      1773 3.86188E-01
 -1      1774 3.86188E-01
 -1      1775 3.86188E-01
 -1      1776 3.66334E-01
 -1      1777 3.66334E-01
 -1      1778 3.66333E-01
 -1      1779 3.66333E-01
 -1      1780 3.66333E-01
 -1      1781 3.66333E-01
 -1      1782 3.66333E-01
 -1      1783 3.66333E-01
 -1      1784 3.66334E-01
 -1      1785 3.66334E-01
 -1      1786 3.47708E-01
 -1      1787 3.47702E-01
 -1      1788 3.47699E-01
 -1      1789 3.47698E-01
 -1      1790 3.47698E-01
 -1      1791 3.47698E-01
 -1      1792 3.47698E-01
 -1      1793 3.47699E-01
 -1      1794 3.47702E-01
 -1      1795 3.47708E-01
 -1      1796 3.30375E-01
 -1      1797 3.30379E-01
 -1      1798 3.30379E-01
 -1      1799 3.30376E-01
 -1      1800 3.30374E-01
 -1      1801 3.30374E-01
 -1      1802 3.30376E-01
 -1      1803 3.30379E-01
 -1      1804 3.30379E-01
 -1      1805 3.30375E-01
 -1      1806 3.20346E-01
 -1      1807 3.20316E-01
 -1      1808 3.20314E-01
 -1      1809 3.20316E-01
 -1      1810 3.20317E-01
 -1      1811 3.20317E-01
 -1      1812 3.20316E-01
 -1      1813 3.20314E-01
 -1      1814 3.20316E-01
 -1      1815 3.20346E-01
 -1      1816 1.94306E+00
 -1      1817 1.94306E+00
 -1      1819 1.94303E+00
 -1      1820 1.94301E+00
 -1      1822 1.94300E+00
 -1      1823 1.94299E+00
 -1      1825 1.94299E+00
 -1      1826 1.94299E+00
 -1      1828 1.94299E+00
 -1      1829 1.94299E+00
 -1      1831 1.94299E+00
 -1      1832 1.94299E+00
 -1      1834 1.94299E+00
 -1      1835 1.94299E+00
 -1      1837 1.94299E+00
 -1      1838 1.94299E+00
 -1      1840 1.94300E+00
 -1      1841 1.94301E+00
 -1      1843 1.94303E+00
 -1      1844 1.94306E+00
 -1      1846 1.94306E+00
 -1      1848 1.79799E+00
 -1      1849 1.87053E+00
 -1      1851 1.79798E+00
 -1      1852 1.87048E+00
 -1      1854 1.79796E+00
 -1      1855 1.87048E+00
 -1      1857 1.79796E+00
 -1      1858 1.87047E+00
 -1      1860 1.79796E+00
 -1      1861 1.87047E+00
 -1      1863 1.79796E+00
 -1      1864 1.87047E+00
 -1      1866 1.79796E+00
 -1      1867 1.87047E+00
 -1      1869 1.79796E+00
 -1      1870 1.87048E+00
 -1      1872 1.79796E+00
 -1      1873 1.87048E+00
 -1      1875 1.79798E+00
 -1      1876 1.87053E+00
 -1      1878 1.79799E+00
 -1      1880 1.63850E+00
 -1      1881 1.71825E+00
 -1      1883 1.63850E+00
 -1      1884 1.71823E+00
 -1      1886 1.63850E+00
 -1      1887 1.71823E+00
 -1      1889 1.63850E+00
 -1      1890 1.71823E+00
 -1      1892 1.63850E+00
 -1      1893 1.71823E+00
 -1      1895 1.63850E+00
 -1      1896 1.71823E+00
 -1      1898 1.63850E+00
 -1      1899 1.71823E+00
 -1      1901 1.63850E+00
 -1      1902 1.71823E+00
 -1      1904 1.63850E+00
 -1      1905 1.71823E+00
 -1      1907 1.63850E+00
 -1      1908 1.71825E+00
 -1      1910 1.63850E+00
 -1      1912 1.50033E+00
 -1      1913 1.56941E+00
 -1      1915 1.50033E+00
 -1      1916 1.56941E+00
 -1      1918 1.50032E+00
 -1      1919 1.56941E+00
 -1      1921 1.50032E+00
 -1      1922 1.56941E+00
 -1      1924 1.50032E+00
 -1      1925 1.56941E+00
 -1      1927 1.50032E+00
 -1      1928 1.56941E+00
 -1      1930 1.50032E+00
 -1      1931 1.56941E+00
 -1      1933 1.50032E+00
 -1      1934 1.56941E+00
 -1      1936 1.50032E+00
 -1      1937 1.56941E+00
 -1      1939 1.50033E+00
 -1      1940 1.56941E+00
 -1      1942 1.50033E+00
 -1      1944 1.37959E+00
 -1      1945 1.43996E+00
 -1      1947 1.37959E+00
 -1      1948 1.43996E+00
 -1      1950 1.37959E+00
 -1      1951 1.43996E+00
 -1      1953 1.37959E+00
 -1      1954 1.43996E+00
 -1      1956 1.37959E+00
 -1      1957 1.43996E+00
 -1      1959 1.37959E+00
 -1      1960 1.43996E+00
 -1      1962 1.37959E+00
 -1      1963 1.43996E+00
 -1      1965 1.37959E+00
 -1      1966 1.43996E+00
 -1      1968 1.37959E+00
 -1      1969 1.43996E+00
 -1      1971 1.37959E+00
 -1      1972 1.43996E+00
 -1      1974 1.37959E+00
 -1      1976 1.27307E+00
 -1      1977 1.32633E+00
 -1      1979 1.27306E+00
 -1      1980 1.32633E+00
 -1      1982 1.27306E+00
 -1      1983 1.32633E+00
 -1      1985 1.27306E+00
 -1      1986 1.32633E+00
 -1      1988 1.27306E+00
 -1      1989 1.32633E+00
 -1      1991 1.27306E+00
 -1      1992 1.32633E+00
 -1      1994 1.27306E+00
 -1      1995 1.32633E+00
 -1      1997 1.27306E+00
 -1      1998 1.32633E+00
 -1      2000 1.27306E+00
 -1      2001 1.32633E+00
 -1      2003 1.27306E+00
 -1      2004 1.32633E+00
 -1      2006 1.27307E+00
 -1      2008 1.17837E+00
 -1      2009 1.22572E+00
 -1      2011 1.17837E+00
 -1      2012 1.22572E+00
 -1      2014 1.17837E+00
 -1      2015 1.22572E+00
 -1      2017 1.17837E+00
 -1      2018 1.22572E+00
 -1      2020 1.17837E+00
 -1      2021 1.22572E+00
 -1      2023 1.17837E+00
 -1      2024 1.22572E+00
 -1      2026 1.17837E+00
 -1      2027 1.22572E+00
 -1      2029 1.17837E+00
 -1      2030 1.22572E+00
 -1      2032 1.17837E+00
 -1      2033 1.22572E+00
 -1      2035 1.17837E+00
 -1      2036 1.22572E+00
 -1      2038 1.17837E+00
 -1      2040 1.09363E+00
 -1      2041 1.13600E+00
 -1      2043 1.09363E+00
 -1      2044 1.13600E+00
 -1      2046 1.09363E+00
 -1      2047 1.13600E+00
 -1      2049 1.09363E+00
 -1      2050 1.13600E+00
 -1      2052 1.09363E+00
 -1      2053 1.13600E+00
 -1      2055 1.09363E+00
 -1      2056 1.13600E+00
 -1      2058 1.09363E+00
 -1      2059 1.13600E+00
 -1      2061 1.09363E+00
 -1      2062 1.13600E+00
 -1      2064 1.09363E+00
 -1      2065 1.13600E+00
 -1      2067 1.09363E+00
 -1      2068 1.13600E+00
 -1      2070 1.09363E+00
 -1      2072 1.01737E+00
 -1      2073 1.05550E+00
 -1      2075 1.01737E+00
 -1      2076 1.05550E+00
 -1      2078 1.01737E+00
 -1      2079 1.05550E+00
 -1      2081 1.01737E+00
 -1      2082 1.05550E+00
 -1      2084 1.01737E+00
 -1      2085 1.05550E+00
 -1      2087 1.01737E+00
 -1      2088 1.05550E+00
 -1      2090 1.01737E+00
 -1      2091 1.05550E+00
 -1      2093 1.01737E+00
 -1      2094 1.05550E+00
 -1      2096 1.01737E+00
 -1      2097 1.05550E+00
 -1      2099 1.01737E+00
 -1      2100 1.05550E+00
 -1      2102 1.01737E+00
 -1      2104 9.48385E-01
 -1      2105 9.82877E-01
 -1      2107 9.48385E-01
 -1      2108 9.82877E-01
 -1      2110 9.48385E-01
 -1      2111 9.82877E-01
 -1      2113 9.48385E-01
 -1      2114 9.82877E-01
 -1      2116 9.48385E-01
 -1      2117 9.82877E-01
 -1      2119 9.48385E-01
 -1      2120 9.82877E-01
 -1      2122 9.48385E-01
 -1      2123 9.82877E-01
 -1      2125 9.48385E-01
 -1      2126 9.82877E-01
 -1      2128 9.48385E-01
 -1      2129 9.82877E-01
 -1      2131 9.48385E-01
 -1      2132 9.82877E-01
 -1      2134 9.48385E-01
 -1      2136 8.85716E-01
 -1      2137 9.17050E-01
 -1      2139 8.85716E-01
 -1      2140 9.17050E-01
 -1      2142 8.85716E-01
 -1      2143 9.17050E-01
 -1      2145 8.85716E-01
 -1      2146 9.17050E-01
 -1      2148 8.85716E-01
 -1      2149 9.17050E-01
 -1      2151 8.85716E-01
 -1      2152 9.17050E-01
 -1      2154 8.85716E-01
 -1      2155 9.17050E-01
 -1      2157 8.85716E-01
 -1      2158 9.17050E-01
 -1      2160 8.85716E-01
 -1      2161 9.17050E-01
 -1      2163 8.85716E-01
 -1      2164 9.17050E-01
 -1      2166 8.85716E-01
 -1      2168 8.28565E-01
 -1      2169 8.57140E-01
 -1      2171 8.28565E-01
 -1      2172 8.57140E-01
 -1      2174 8.28565E-01
 -1      2175 8.57140E-01
 -1      2177 8.28565E-01
 -1      2178 8.57140E-01
 -1      2180 8.28565E-01
 -1      2181 8.57140E-01
 -1      2183 8.28565E-01
 -1      2184 8.57140E-01
 -1      2186 8.28565E-01
 -1      2187 8.57140E-01
 -1      2189 8.28565E-01
 -1      2190 8.57140E-01
 -1      2192 8.28565E-01
 -1      2193 8.57140E-01
 -1      2195 8.28565E-01
 -1      2196 8.57140E-01
 -1      2198 8.28565E-01
 -1      2200 7.76270E-01
 -1      2201 8.02417E-01
 -1      2203 7.76270E-01
 -1      2204 8.02417E-01
 -1      2206 7.76270E-01
 -1      2207 8.02417E-01
 -1      2209 7.76270E-01
 -1      2210 8.02417E-01
 -1      2212 7.76270E-01
 -1      2213 8.02417E-01
 -1      2215 7.76270E-01
 -1      2216 8.02417E-01
 -1      2218 7.76270E-01
 -1      2219 8.02417E-01
 -1      2221 7.76270E-01
 -1      2222 8.02417E-01
 -1      2224 7.76270E-01
 -1      2225 8.02417E-01
 -1      2227 7.76270E-01
 -1      2228 8.02417E-01
 -1      2230 7.76270E-01
 -1      2232 7.28276E-01
 -1      2233 7.52273E-01
 -1      2235 7.28276E-01
 -1      2236 7.52273E-01
 -1      2238 7.28276E-01
 -1      2239 7.52273E-01
 -1      2241 7.28276E-01
 -1      2242 7.52273E-01
 -1      2244 7.28276E-01
 -1      2245 7.52273E-01
 -1      2247 7.28276E-01
 -1      2248 7.52273E-01
 -1      2250 7.28276E-01
 -1      2251 7.52273E-01
 -1      2253 7.28276E-01
 -1      2254 7.52273E-01
 -1      2256 7.28276E-01
 -1      2257 7.52273E-01
 -1      2259 7.28276E-01
 -1      2260 7.52273E-01
 -1      2262 7.28276E-01
 -1      2264 6.84113E-01
 -1      2265 7.06194E-01
 -1      2267 6.84113E-01
 -1      2268 7.06194E-01
 -1      2270 6.84113E-01
 -1      2271 7.06194E-01
 -1      2273 6.84113E-01
 -1      2274 7.06194E-01
 -1      2276 6.84113E-01
 -1      2277 7.06194E-01
 -1      2279 6.84113E-01
 -1      2280 7.06194E-01
 -1      2282 6.84113E-01
 -1      2283 7.06194E-01
 -1      2285 6.84113E-01
 -1      2286 7.06194E-01
 -1      2288 6.84113E-01
 -1      2289 7.06194E-01
 -1      2291 6.84113E-01
 -1      2292 7.06194E-01
 -1      2294 6.84113E-01
 -1      2296 6.43378E-01
 -1      2297 6.63745E-01
 -1      2299 6.43378E-01
 -1      2300 6.63745E-01
 -1      2302 6.43378E-01
 -1      2303 6.63745E-01
 -1      2305 6.43378E-01
 -1      2306 6.63745E-01
 -1      2308 6.43378E-01
 -1      2309 6.63745E-01
 -1      2311 6.43378E-01
 -1      2312 6.63745E-01
 -1      2314 6.43378E-01
 -1      2315 6.63745E-01
 -1      2317 6.43378E-01
 -1      2318 6.63745E-01
 -1      2320 6.43378E-01
 -1      2321 6.63745E-01
 -1      2323 6.43378E-01
 -1      2324 6.63745E-01
 -1      2326 6.43378E-01
 -1      2328 6.05725E-01
 -1      2329 6.24551E-01
 -1      2331 6.05725E-01
 -1      2332 6.24551E-01
 -1      2334 6.05725E-01
 -1      2335 6.24551E-01
 -1      2337 6.05725E-01
 -1      2338 6.24551E-01
 -1      2340 6.05725E-01
 -1      2341 6.24551E-01
 -1      2343 6.05725E-01
 -1      2344 6.24551E-01
 -1      2346 6.05725E-01
 -1      2347 6.24551E-01
 -1      2349 6.05725E-01
 -1      2350 6.24551E-01
 -1      2352 6.05725E-01
 -1      2353 6.24551E-01
 -1      2355 6.05725E-01
 -1      2356 6.24551E-01
 -1      2358 6.05725E-01
 -1      2360 5.70855E-01
 -1      2361 5.88290E-01
 -1      2363 5.70855E-01
 -1      2364 5.88290E-01
 -1      2366 5.70855E-01
 -1      2367 5.88290E-01
 -1      2369 5.70855E-01
 -1      2370 5.88290E-01
 -1      2372 5.70855E-01
 -1      2373 5.88290E-01
 -1      2375 5.70855E-01
 -1      2376 5.88290E-01
 -1      2378 5.70855E-01
 -1      2379 5.88290E-01
 -1      2381 5.70855E-01
 -1      2382 5.88290E-01
 -1      2384 5.70855E-01
 -1      2385 5.88290E-01
 -1      2387 5.70855E-01
 -1      2388 5.88290E-01
 -1      2390 5.70855E-01
 -1      2392 5.38507E-01
 -1      2393 5.54681E-01
 -1      2395 5.38507E-01
 -1      2396 5.54681E-01
 -1      2398 5.38507E-01
 -1      2399 5.54681E-01
 -1      2401 5.38507E-01
 -1      2402 5.54681E-01
 -1      2404 5.38507E-01
 -1      2405 5.54681E-01
 -1      2407 5.38507E-01
 -1      2408 5.54681E-01
 -1      2410 5.38507E-01
 -1      2411 5.54681E-01
 -1      2413 5.38507E-01
 -1      2414 5.54681E-01
 -1      2416 5.38507E-01
 -1      2417 5.54681E-01
 -1      2419 5.38507E-01
 -1      2420 5.54681E-01
 -1      2422 5.38507E-01
 -1      2424 5.08450E-01
 -1      2425 5.23478E-01
 -1      2427 5.08450E-01
 -1      2428 5.23478E-01
 -1      2430 5.08450E-01
 -1      2431 5.23478E-01
 -1      2433 5.08450E-01
 -1      2434 5.23478E-01
 -1      2436 5.08450E-01
 -1      2437 5.23478E-01
 -1      2439 5.08450E-01
 -1      2440 5.23478E-01
 -1      2442 5.08450E-01
 -1      2443 5.23478E-01
 -1      2445 5.08450E-01
 -1      2446 5.23478E-01
 -1      2448 5.08450E-01
 -1      2449 5.23478E-01
 -1      2451 5.08450E-01
 -1      2452 5.23478E-01
 -1      2454 5.08450E-01
 -1      2456 4.80482E-01
 -1      2457 4.94466E-01
 -1      2459 4.80482E-01
 -1      2460 4.94466E-01
 -1      2462 4.80482E-01
 -1      2463 4.94466E-01
 -1      2465 4.80482E-01
 -1      2466 4.94466E-01
 -1      2468 4.80482E-01
 -1      2469 4.94466E-01
 -1      2471 4.80482E-01
 -1      2472 4.94466E-01
 -1      2474 4.80482E-01
 -1      2475 4.94466E-01
 -1      2477 4.80482E-01
 -1      2478 4.94466E-01
 -1      2480 4.80482E-01
 -1      2481 4.94466E-01
 -1      2483 4.80482E-01
 -1      2484 4.94466E-01
 -1      2486 4.80482E-01
 -1      2488 4.54424E-01
 -1      2489 4.67453E-01
 -1      2491 4.54424E-01
 -1      2492 4.67453E-01
 -1      2494 4.54424E-01
 -1      2495 4.67453E-01
 -1      2497 4.54424E-01
 -1      2498 4.67453E-01
 -1      2500 4.54424E-01
 -1      2501 4.67453E-01
 -1      2503 4.54424E-01
 -1      2504 4.67453E-01
 -1      2506 4.54424E-01
 -1      2507 4.67453E-01
 -1      2509 4.54424E-01
 -1      2510 4.67453E-01
 -1      2512 4.54424E-01
 -1      2513 4.67453E-01
 -1      2515 4.54424E-01
 -1      2516 4.67453E-01
 -1      2518 4.54424E-01
 -1      2520 4.30116E-01
 -1      2521 4.42270E-01
 -1      2523 4.30116E-01
 -1      2524 4.42270E-01
 -1      2526 4.30116E-01
 -1      2527 4.42270E-01
 -1      2529 4.30116E-01
 -1      2530 4.42270E-01
 -1      2532 4.30116E-01
 -1      2533 4.42270E-01
 -1      2535 4.30116E-01
 -1      2536 4.42270E-01
 -1      2538 4.30116E-01
 -1      2539 4.42270E-01
 -1      2541 4.30116E-01
 -1      2542 4.42270E-01
 -1      2544 4.30116E-01
 -1      2545 4.42270E-01
 -1      2547 4.30116E-01
 -1      2548 4.42270E-01
 -1      2550 4.30116E-01
 -1      2552 4.07414E-01
 -1      2553 4.18765E-01
 -1      2555 4.07414E-01
 -1      2556 4.18765E-01
 -1      2558 4.07414E-01
 -1      2559 4.18765E-01
 -1      2561 4.07414E-01
 -1      2562 4.18765E-01
 -1      2564 4.07414E-01
 -1      2565 4.18765E-01
 -1      2567 4.07414E-01
 -1      2568 4.18765E-01
 -1      2570 4.07414E-01
 -1      2571 4.18765E-01
 -1      2573 4.07414E-01
 -1      2574 4.18765E-01
 -1      2576 4.07414E-01
 -1      2577 4.18765E-01
 -1      2579 4.07414E-01
 -1      2580 4.18765E-01
 -1      2582 4.07414E-01
 -1      2584 3.86188E-01
 -1      2585 3.96801E-01
 -1      2587 3.86188E-01
 -1      2588 3.96801E-01
 -1      2590 3.86188E-01
 -1      2591 3.96801E-01
 -1      2593 3.86188E-01
 -1      2594 3.96801E-01
 -1      2596 3.86188E-01
 -1      2597 3.96801E-01
 -1      2599 3.86188E-01
 -1      2600 3.96801E-01
 -1      2602 3.86188E-01
 -1      2603 3.96801E-01
 -1      2605 3.86188E-01
 -1      2606 3.96801E-01
 -1      2608 3.86188E-01
 -1      2609 3.96801E-01
 -1      2611 3.86188E-01
 -1      2612 3.96801E-01
 -1      2614 3.86188E-01
 -1      2616 3.66333E-01
 -1      2617 3.76261E-01
 -1      2619 3.66334E-01
 -1      2620 3.76261E-01
 -1      2622 3.66334E-01
 -1      2623 3.76260E-01
 -1      2625 3.66333E-01
 -1      2626 3.76260E-01
 -1      2628 3.66333E-01
 -1      2629 3.76260E-01
 -1      2631 3.66333E-01
 -1      2632 3.76260E-01
 -1      2634 3.66333E-01
 -1      2635 3.76260E-01
 -1      2637 3.66333E-01
 -1      2638 3.76260E-01
 -1      2640 3.66334E-01
 -1      2641 3.76261E-01
 -1      2643 3.66334E-01
 -1      2644 3.76261E-01
 -1      2646 3.66333E-01
 -1      2648 3.47708E-01
 -1      2649 3.57021E-01
 -1      2651 3.47705E-01
 -1      2652 3.57018E-01
 -1      2654 3.47701E-01
 -1      2655 3.57016E-01
 -1      2657 3.47699E-01
 -1      2658 3.57016E-01
 -1      2660 3.47698E-01
 -1      2661 3.57016E-01
 -1      2663 3.47698E-01
 -1      2664 3.57016E-01
 -1      2666 3.47698E-01
 -1      2667 3.57016E-01
 -1      2669 3.47699E-01
 -1      2670 3.57016E-01
 -1      2672 3.47701E-01
 -1      2673 3.57018E-01
 -1      2675 3.47705E-01
 -1      2676 3.57021E-01
 -1      2678 3.47708E-01
 -1      2680 3.30365E-01
 -1      2681 3.39041E-01
 -1      2683 3.30377E-01
 -1      2684 3.39041E-01
 -1      2686 3.30379E-01
 -1      2687 3.39039E-01
 -1      2689 3.30378E-01
 -1      2690 3.39037E-01
 -1      2692 3.30375E-01
 -1      2693 3.39036E-01
 -1      2695 3.30374E-01
 -1      2696 3.39036E-01
 -1      2698 3.30375E-01
 -1      2699 3.39037E-01
 -1      2701 3.30378E-01
 -1      2702 3.39039E-01
 -1      2704 3.30379E-01
 -1      2705 3.39041E-01
 -1      2707 3.30377E-01
 -1      2708 3.39041E-01
 -1      2710 3.30365E-01
 -1      2712 3.20346E-01
 -1      2713 3.25361E-01
 -1      2715 3.20331E-01
 -1      2716 3.25347E-01
 -1      2718 3.20315E-01
 -1      2719 3.25346E-01
 -1      2721 3.20315E-01
 -1      2722 3.25346E-01
 -1      2724 3.20317E-01
 -1      2725 3.25346E-01
 -1      2727 3.20317E-01
 -1      2728 3.25346E-01
 -1      2730 3.20317E-01
 -1      2731 3.25346E-01
 -1      2733 3.20315E-01
 -1      2734 3.25346E-01
 -1      2736 3.20315E-01
 -1      2737 3.25347E-01
 -1      2739 3.20331E-01
 -1      2740 3.25361E-01
 -1      2742 3.20346E-01
 -1      2744 3.20346E-01
 -1      2746 3.20316E-01
 -1      2748 3.20314E-01
 -1      2750 3.20316E-01
 -1      2752 3.20317E-01
 -1      2754 3.20317E-01
 -1      2756 3.20316E-01
 -1      2758 3.20314E-01
 -1      2760 3.20316E-01
 -1      2762 3.20346E-01
 -1      2765 3.20347E-01
 -1      2766 3.20316E-01
 -1      2767 3.20314E-01
 -1      2768 3.20317E-01
 -1      2769 3.20317E-01
 -1      2770 3.20317E-01
 -1      2771 3.20317E-01
 -1      2772 3.20314E-01
 -1      2773 3.20316E-01
 -1      2774 3.20347E-01
 -1      2775 3.20347E-01
 -1      2776 3.20317E-01
 -1      2777 3.20315E-01
 -1      2778 3.20318E-01
 -1      2779 3.20318E-01
 -1      2780 3.20318E-01
 -1      2781 3.20318E-01
 -1      2782 3.20315E-01
 -1      2783 3.20317E-01
 -1      2784 3.20347E-01
 -1      2785 3.20347E-01
 -1      2786 3.20317E-01
 -1      2787 3.20315E-01
 -1      2788 3.20318E-01
 -1      2789 3.20318E-01
 -1      2790 3.20318E-01
 -1      2791 3.20318E-01
 -1      2792 3.20315E-01
 -1      2793 3.20317E-01
 -1      2794 3.20347E-01
 -1      2795 3.20353E-01
 -1      2796 3.20325E-01
 -1      2797 3.20324E-01
 -1      2798 3.20327E-01
 -1      2799 3.20327E-01
 -1      2800 3.20327E-01
 -1      2801 3.20327E-01
 -1      2802 3.20324E-01
 -1      2803 3.20325E-01
 -1      2804 3.20353E-01
 -1      2805 3.20367E-01
 -1      2806 3.20340E-01
 -1      2807 3.20341E-01
 -1      2808 3.20344E-01
 -1      2809 3.20345E-01
 -1      2810 3.20345E-01
 -1      2811 3.20344E-01
 -1      2812 3.20341E-01
 -1      2813 3.20340E-01
 -1      2814 3.20367E-01
 -1      2815 3.20367E-01
 -1      2816 3.20340E-01
 -1      2817 3.20341E-01
 -1      2818 3.20344E-01
 -1      2819 3.20345E-01
 -1      2820 3.20345E-01
 -1      2821 3.20344E-01
 -1      2822 3.20341E-01
 -1      2823 3.20340E-01
 -1      2824 3.20367E-01
 -1      2825 3.20349E-01
 -1      2826 3.20319E-01
 -1      2827 3.20316E-01
 -1      2828 3.20319E-01
 -1      2829 3.20320E-01
 -1      2830 3.20320E-01
 -1      2831 3.20319E-01
 -1      2832 3.20316E-01
 -1      2833 3.20319E-01
 -1      2834 3.20349E-01
 -1      2835 3.20371E-01
 -1      2836 3.20349E-01
 -1      2837 3.20350E-01
 -1      2838 3.20353E-01
 -1      2839 3.20354E-01
 -1      2840 3.20354E-01
 -1      2841 3.20353E-01
 -1      2842 3.20350E-01
 -1      2843 3.20349E-01
 -1      2844 3.20371E-01
 -1      2845 3.20375E-01
 -1      2846 3.20352E-01
 -1      2847 3.20353E-01
 -1      2848 3.20357E-01
 -1      2849 3.20357E-01
 -1      2850 3.20357E-01
 -1      2851 3.20357E-01
 -1      2852 3.20353E-01
 -1      2853 3.20352E-01
 -1      2854 3.20375E-01
 -1      2855 3.20347E-01
 -1      2856 3.20347E-01
 -1      2858 3.20331E-01
 -1      2859 3.20316E-01
 -1      2861 3.20315E-01
 -1      2862 3.20314E-01
 -1      2864 3.20316E-01
 -1      2865 3.20317E-01
 -1      2867 3.20317E-01
 -1      2868 3.20317E-01
 -1      2870 3.20317E-01
 -1      2871 3.20317E-01
 -1      2873 3.20317E-01
 -1      2874 3.20317E-01
 -1      2876 3.20316E-01
 -1      2877 3.20314E-01
 -1      2879 3.20315E-01
 -1      2880 3.20316E-01
 -1      2882 3.20331E-01
 -1      2883 3.20347E-01
 -1      2885 3.20347E-01
 -1      2887 3.20347E-01
 -1      2888 3.20347E-01
 -1      2890 3.20332E-01
 -1      2891 3.20316E-01
 -1      2893 3.20316E-01
 -1      2894 3.20314E-01
 -1      2896 3.20316E-01
 -1      2897 3.20317E-01
 -1      2899 3.20318E-01
 -1      2900 3.20318E-01
 -1      2902 3.20318E-01
 -1      2903 3.20318E-01
 -1      2905 3.20318E-01
 -1      2906 3.20317E-01
 -1      2908 3.20316E-01
 -1      2909 3.20314E-01
 -1      2911 3.20316E-01
 -1      2912 3.20316E-01
 -1      2914 3.20332E-01
 -1      2915 3.20347E-01
 -1      2917 3.20347E-01
 -1      2919 3.20347E-01
 -1      2920 3.20347E-01
 -1      2922 3.20332E-01
 -1      2923 3.20317E-01
 -1      2925 3.20316E-01
 -1      2926 3.20315E-01
 -1      2928 3.20316E-01
 -1      2929 3.20318E-01
 -1      2931 3.20318E-01
 -1      2932 3.20318E-01
 -1      2934 3.20318E-01
 -1      2935 3.20318E-01
 -1      2937 3.20318E-01
 -1      2938 3.20318E-01
 -1      2940 3.20316E-01
 -1      2941 3.20315E-01
 -1      2943 3.20316E-01
 -1      2944 3.20317E-01
 -1      2946 3.20332E-01
 -1      2947 3.20347E-01
 -1      2949 3.20347E-01
 -1      2951 3.20353E-01
 -1      2952 3.20350E-01
 -1      2954 3.20339E-01
 -1      2955 3.20321E-01
 -1      2957 3.20324E-01
 -1      2958 3.20319E-01
 -1      2960 3.20325E-01
 -1      2961 3.20322E-01
 -1      2963 3.20327E-01
 -1      2964 3.20323E-01
 -1      2966 3.20327E-01
 -1      2967 3.20323E-01
 -1      2969 3.20327E-01
 -1      2970 3.20322E-01
 -1      2972 3.20325E-01
 -1      2973 3.20319E-01
 -1      2975 3.20324E-01
 -1      2976 3.20321E-01
 -1      2978 3.20339E-01
 -1      2979 3.20350E-01
 -1      2981 3.20353E-01
 -1      2983 3.20367E-01
 -1      2984 3.20360E-01
 -1      2986 3.20354E-01
 -1      2987 3.20333E-01
 -1      2989 3.20341E-01
 -1      2990 3.20332E-01
 -1      2992 3.20343E-01
 -1      2993 3.20335E-01
 -1      2995 3.20344E-01
 -1      2996 3.20336E-01
 -1      2998 3.20345E-01
 -1      2999 3.20336E-01
 -1      3001 3.20344E-01
 -1      3002 3.20335E-01
 -1      3004 3.20343E-01
 -1      3005 3.20332E-01
 -1      3007 3.20341E-01
 -1      3008 3.20333E-01
 -1      3010 3.20354E-01
 -1      3011 3.20360E-01
 -1      3013 3.20367E-01
 -1      3015 3.20367E-01
 -1      3016 3.20367E-01
 -1      3018 3.20354E-01
 -1      3019 3.20340E-01
 -1      3021 3.20341E-01
 -1      3022 3.20341E-01
 -1      3024 3.20343E-01
 -1      3025 3.20344E-01
 -1      3027 3.20344E-01
 -1      3028 3.20345E-01
 -1      3030 3.20345E-01
 -1      3031 3.20345E-01
 -1      3033 3.20344E-01
 -1      3034 3.20344E-01
 -1      3036 3.20343E-01
 -1      3037 3.20341E-01
 -1      3039 3.20341E-01
 -1      3040 3.20340E-01
 -1      3042 3.20354E-01
 -1      3043 3.20367E-01
 -1      3045 3.20367E-01
 -1      3047 3.20349E-01
 -1      3048 3.20358E-01
 -1      3050 3.20334E-01
 -1      3051 3.20330E-01
 -1      3053 3.20318E-01
 -1      3054 3.20329E-01
 -1      3056 3.20318E-01
 -1      3057 3.20332E-01
 -1      3059 3.20320E-01
 -1      3060 3.20332E-01
 -1      3062 3.20320E-01
 -1      3063 3.20332E-01
 -1      3065 3.20320E-01
 -1      3066 3.20332E-01
 -1      3068 3.20318E-01
 -1      3069 3.20329E-01
 -1      3071 3.20318E-01
 -1      3072 3.20330E-01
 -1      3074 3.20334E-01
 -1      3075 3.20358E-01
 -1      3077 3.20349E-01
 -1      3079 3.20371E-01
 -1      3080 3.20360E-01
 -1      3082 3.20360E-01
 -1      3083 3.20334E-01
 -1      3085 3.20350E-01
 -1      3086 3.20333E-01
 -1      3088 3.20352E-01
 -1      3089 3.20336E-01
 -1      3091 3.20354E-01
 -1      3092 3.20337E-01
 -1      3094 3.20354E-01
 -1      3095 3.20337E-01
 -1      3097 3.20354E-01
 -1      3098 3.20336E-01
 -1      3100 3.20352E-01
 -1      3101 3.20333E-01
 -1      3103 3.20350E-01
 -1      3104 3.20334E-01
 -1      3106 3.20360E-01
 -1      3107 3.20360E-01
 -1      3109 3.20371E-01
 -1      3111 3.20375E-01
 -1      3112 3.20373E-01
 -1      3114 3.20363E-01
 -1      3115 3.20350E-01
 -1      3117 3.20352E-01
 -1      3118 3.20352E-01
 -1      3120 3.20355E-01
 -1      3121 3.20355E-01
 -1      3123 3.20357E-01
 -1      3124 3.20356E-01
 -1      3126 3.20357E-01
 -1      3127 3.20356E-01
 -1      3129 3.20357E-01
 -1      3130 3.20355E-01
 -1      3132 3.20355E-01
 -1      3133 3.20352E-01
 -1      3135 3.20352E-01
 -1      3136 3.20350E-01
 -1      3138 3.20363E-01
 -1      3139 3.20373E-01
 -1      3141 3.20375E-01
 -1      3143 3.20375E-01
 -1      3145 3.20352E-01
 -1      3147 3.20353E-01
 -1      3149 3.20357E-01
 -1      3151 3.20357E-01
 -1      3153 3.20357E-01
 -1      3155 3.20357E-01
 -1      3157 3.20353E-01
 -1      3159 3.20352E-01
 -1      3161 3.20375E-01
 -1      3164 3.20375E-01
 -1      3165 3.20352E-01
 -1      3166 3.20353E-01
 -1      3167 3.20357E-01
 -1      3168 3.20357E-01
 -1      3169 3.20357E-01
 -1      3170 3.20357E-01
 -1      3171 3.20353E-01
 -1      3172 3.20352E-01
 -1      3173 3.20375E-01
 -1      3174 3.30376E-01
 -1      3175 3.30381E-01
 -1      3176 3.30381E-01
 -1      3177 3.30377E-01
 -1      3178 3.30376E-01
 -1      3179 3.30376E-01
 -1      3180 3.30377E-01
 -1      3181 3.30381E-01
 -1      3182 3.30381E-01
 -1      3183 3.30376E-01
 -1      3184 3.47707E-01
 -1      3185 3.47702E-01
 -1      3186 3.47699E-01
 -1      3187 3.47699E-01
 -1      3188 3.47699E-01
 -1      3189 3.47699E-01
 -1      3190 3.47699E-01
 -1      3191 3.47699E-01
 -1      3192 3.47702E-01
 -1      3193 3.47707E-01
 -1      3194 3.66334E-01
 -1      3195 3.66334E-01
 -1      3196 3.66333E-01
 -1      3197 3.66333E-01
 -1      3198 3.66333E-01
 -1      3199 3.66333E-01
 -1      3200 3.66333E-01
 -1      3201 3.66333E-01
 -1      3202 3.66334E-01
 -1      3203 3.66334E-01
 -1      3204 3.86188E-01
 -1      3205 3.86188E-01
 -1      3206 3.86188E-01
 -1      3207 3.86188E-01
 -1      3208 3.86188E-01
 -1      3209 3.86188E-01
 -1      3210 3.86188E-01
 -1      3211 3.86188E-01
 -1      3212 3.86188E-01
 -1      3213 3.86188E-01
 -1      3214 4.07414E-01
 -1      3215 4.07414E-01
 -1      3216 4.07414E-01
 -1      3217 4.07414E-01
 -1      3218 4.07414E-01
 -1      3219 4.07414E-01
 -1      3220 4.07414E-01
 -1      3221 4.07414E-01
 -1      3222 4.07414E-01
 -1      3223 4.07414E-01
 -1      3224 4.30116E-01
 -1      3225 4.30116E-01
 -1      3226 4.30116E-01
 -1      3227 4.30116E-01
 -1      3228 4.30116E-01
 -1      3229 4.30116E-01
 -1      3230 4.30116E-01
 -1      3231 4.30116E-01
 -1      3232 4.30116E-01
 -1      3233 4.30116E-01
 -1      3234 4.54424E-01
 -1      3235 4.54424E-01
 -1      3236 4.54424E-01
 -1      3237 4.54424E-01
 -1      3238 4.54424E-01
 -1      3239 4.54424E-01
 -1      3240 4.54424E-01
 -1      3241 4.54424E-01
 -1      3242 4.54424E-01
 -1      3243 4.54424E-01
 -1      3244 4.80482E-01
 -1      3245 4.80482E-01
 -1      3246 4.80482E-01
 -1      3247 4.80482E-01
 -1      3248 4.80482E-01
 -1      3249 4.80482E-01
 -1      3250 4.80482E-01
 -1      3251 4.80482E-01
 -1      3252 4.80482E-01
 -1      3253 4.80482E-01
 -1      3254 5.08450E-01
 -1      3255 5.08450E-01
 -1      3256 5.08450E-01
 -1      3257 5.08450E-01
 -1      3258 5.08450E-01
 -1      3259 5.08450E-01
 -1      3260 5.08450E-01
 -1      3261 5.08450E-01
 -1      3262 5.08450E-01
 -1      3263 5.08450E-01
 -1      3264 5.38507E-01
 -1      3265 5.38507E-01
 -1      3266 5.38507E-01
 -1      3267 5.38507E-01
 -1      3268 5.38507E-01
 -1      3269 5.38507E-01
 -1      3270 5.38507E-01
 -1      3271 5.38507E-01
 -1      3272 5.38507E-01
 -1      3273 5.38507E-01
 -1      3274 5.70855E-01
 -1      3275 5.70855E-01
 -1      3276 5.70855E-01
 -1      3277 5.70855E-01
 -1      3278 5.70855E-01
 -1      3279 5.70855E-01
 -1      3280 5.70855E-01
 -1      3281 5.70855E-01
 -1      3282 5.70855E-01
 -1      3283 5.70855E-01
 -1      3284 6.05725E-01
 -1      3285 6.05725E-01
 -1      3286 6.05725E-01
 -1      3287 6.05725E-01
 -1      3288 6.05725E-01
 -1      3289 6.05725E-01
 -1      3290 6.05725E-01
 -1      3291 6.05725E-01
 -1      3292 6.05725E-01
 -1      3293 6.05725E-01
 -1      3294 6.43378E-01
 -1      3295 6.43378E-01
 -1      3296 6.43378E-01
 -1      3297 6.43378E-01
 -1      3298 6.43378E-01
 -1      3299 6.43378E-01
 -1      3300 6.43378E-01
 -1      3301 6.43378E-01
 -1      3302 6.43378E-01
 -1      3303 6.43378E-01
 -1      3304 6.84113E-01
 -1      3305 6.84113E-01
 -1      3306 6.84113E-01
 -1      3307 6.84113E-01
 -1      3308 6.84113E-01
 -1      3309 6.84113E-01
 -1      3310 6.84113E-01
 -1      3311 6.84113E-01
 -1      3312 6.84113E-01
 -1      3313 6.84113E-01
 -1      3314 7.28276E-01
 -1      3315 7.28276E-01
 -1      3316 7.28276E-01
 -1      3317 7.28276E-01
 -1      3318 7.28276E-01
 -1      3319 7.28276E-01
 -1      3320 7.28276E-01
 -1      3321 7.28276E-01
 -1      3322 7.28276E-01
 -1      3323 7.28276E-01
 -1      3324 7.76270E-01
 -1      3325 7.76270E-01
 -1      3326 7.76270E-01
 -1      3327 7.76270E-01
 -1      3328 7.76270E-01
 -1      3329 7.76270E-01
 -1      3330 7.76270E-01
 -1      3331 7.76270E-01
 -1      3332 7.76270E-01
 -1      3333 7.76270E-01
 -1      3334 8.28565E-01
 -1      3335 8.28565E-01
 -1      3336 8.28565E-01
 -1      3337 8.28565E-01
 -1      3338 8.28565E-01
 -1      3339 8.28565E-01
 -1      3340 8.28565E-01
 -1      3341 8.28565E-01
 -1      3342 8.28565E-01
 -1      3343 8.28565E-01
 -1      3344 8.85716E-01
 -1      3345 8.85716E-01
 -1      3346 8.85716E-01
 -1      3347 8.85716E-01
 -1      3348 8.85716E-01
 -1      3349 8.85716E-01
 -1      3350 8.85716E-01
 -1      3351 8.85716E-01
 -1      3352 8.85716E-01
 -1      3353 8.85716E-01
 -1      3354 9.48385E-01
 -1      3355 9.48385E-01
 -1      3356 9.48385E-01
 -1      3357 9.48385E-01
 -1      3358 9.48385E-01
 -1      3359 9.48385E-01
 -1      3360 9.48385E-01
 -1      3361 9.48385E-01
 -1      3362 9.48385E-01
 -1      3363 9.48385E-01
 -1      3364 1.01737E+00
 -1      3365 1.01737E+00
 -1      3366 1.01737E+00
 -1      3367 1.01737E+00
 -1      3368 1.01737E+00
 -1      3369 1.01737E+00
 -1      3370 1.01737E+00
 -1      3371 1.01737E+00
 -1      3372 1.01737E+00
 -1      3373 1.01737E+00
 -1      3374 1.09363E+00
 -1      3375 1.09363E+00
 -1      3376 1.09363E+00
 -1      3377 1.09363E+00
 -1      3378 1.09363E+00
 -1      3379 1.09363E+00
 -1      3380 1.09363E+00
 -1      3381 1.09363E+00
 -1      3382 1.09363E+00
 -1      3383 1.09363E+00
 -1      3384 1.17837E+00
 -1      3385 1.17837E+00
 -1      3386 1.17837E+00
 -1      3387 1.17837E+00
 -1      3388 1.17837E+00
 -1      3389 1.17837E+00
 -1      3390 1.17837E+00
 -1      3391 1.17837E+00
 -1      3392 1.17837E+00
 -1      3393 1.17837E+00
 -1      3394 1.27307E+00
 -1      3395 1.27306E+00
 -1      3396 1.27306E+00
 -1      3397 1.27306E+00
 -1      3398 1.27306E+00
 -1      3399 1.27306E+00
 -1      3400 1.27306E+00
 -1      3401 1.27306E+00
 -1      3402 1.27306E+00
 -1      3403 1.27307E+00
 -1      3404 1.37959E+00
 -1      3405 1.37959E+00
 -1      3406 1.37959E+00
 -1      3407 1.37959E+00
 -1      3408 1.37959E+00
 -1      3409 1.37959E+00
 -1      3410 1.37959E+00
 -1      3411 1.37959E+00
 -1      3412 1.37959E+00
 -1      3413 1.37959E+00
 -1      3414 1.50033E+00
 -1      3415 1.50032E+00
 -1      3416 1.50032E+00
 -1      3417 1.50032E+00
 -1      3418 1.50032E+00
 -1      3419 1.50032E+00
 -1      3420 1.50032E+00
 -1      3421 1.50032E+00
 -1      3422 1.50032E+00
 -1      3423 1.50033E+00
 -1      3424 1.63850E+00
 -1      3425 1.63850E+00
 -1      3426 1.63850E+00
 -1      3427 1.63850E+00
 -1      3428 1.63850E+00
 -1      3429 1.63850E+00
 -1      3430 1.63850E+00
 -1      3431 1.63850E+00
 -1      3432 1.63850E+00
 -1      3433 1.63850E+00
 -1      3434 1.79799E+00
 -1      3435 1.79796E+00
 -1      3436 1.79796E+00
 -1      3437 1.79796E+00
 -1      3438 1.79796E+00
 -1      3439 1.79796E+00
 -1      3440 1.79796E+00
 -1      3441 1.79796E+00
 -1      3442 1.79796E+00
 -1      3443 1.79799E+00
 -1      3444 1.94306E+00
 -1      3445 1.94301E+00
 -1      3446 1.94299E+00
 -1      3447 1.94299E+00
 -1      3448 1.94299E+00
 -1      3449 1.94299E+00
 -1      3450 1.94299E+00
 -1      3451 1.94299E+00
 -1      3452 1.94301E+00
 -1      3453 1.94306E+00
 -1      3454 3.20375E-01
 -1      3455 3.20375E-01
 -1      3457 3.20363E-01
 -1      3458 3.20352E-01
 -1      3460 3.20352E-01
 -1      3461 3.20353E-01
 -1      3463 3.20355E-01
 -1      3464 3.20357E-01
 -1      3466 3.20357E-01
 -1      3467 3.20357E-01
 -1      3469 3.20357E-01
 -1      3470 3.20357E-01
 -1      3472 3.20357E-01
 -1      3473 3.20357E-01
 -1      3475 3.20355E-01
 -1      3476 3.20353E-01
 -1      3478 3.20352E-01
 -1      3479 3.20352E-01
 -1      3481 3.20363E-01
 -1      3482 3.20375E-01
 -1      3484 3.20375E-01
 -1      3486 3.30366E-01
 -1      3487 3.25376E-01
 -1      3489 3.30378E-01
 -1      3490 3.25366E-01
 -1      3492 3.30381E-01
 -1      3493 3.25367E-01
 -1      3495 3.30379E-01
 -1      3496 3.25367E-01
 -1      3498 3.30377E-01
 -1      3499 3.25367E-01
 -1      3501 3.30376E-01
 -1      3502 3.25367E-01
 -1      3504 3.30377E-01
 -1      3505 3.25367E-01
 -1      3507 3.30379E-01
 -1      3508 3.25367E-01
 -1      3510 3.30381E-01
 -1      3511 3.25366E-01
 -1      3513 3.30378E-01
 -1      3514 3.25376E-01
 -1      3516 3.30366E-01
 -1      3518 3.47707E-01
 -1      3519 3.39042E-01
 -1      3521 3.47705E-01
 -1      3522 3.39041E-01
 -1      3524 3.47701E-01
 -1      3525 3.39040E-01
 -1      3527 3.47699E-01
 -1      3528 3.39038E-01
 -1      3530 3.47699E-01
 -1      3531 3.39037E-01
 -1      3533 3.47699E-01
 -1      3534 3.39037E-01
 -1      3536 3.47699E-01
 -1      3537 3.39038E-01
 -1      3539 3.47699E-01
 -1      3540 3.39040E-01
 -1      3542 3.47701E-01
 -1      3543 3.39041E-01
 -1      3545 3.47705E-01
 -1      3546 3.39042E-01
 -1      3548 3.47707E-01
 -1      3550 3.66333E-01
 -1      3551 3.57021E-01
 -1      3553 3.66334E-01
 -1      3554 3.57018E-01
 -1      3556 3.66334E-01
 -1      3557 3.57016E-01
 -1      3559 3.66333E-01
 -1      3560 3.57016E-01
 -1      3562 3.66333E-01
 -1      3563 3.57016E-01
 -1      3565 3.66333E-01
 -1      3566 3.57016E-01
 -1      3568 3.66333E-01
 -1      3569 3.57016E-01
 -1      3571 3.66333E-01
 -1      3572 3.57016E-01
 -1      3574 3.66334E-01
 -1      3575 3.57018E-01
 -1      3577 3.66334E-01
 -1      3578 3.57021E-01
 -1      3580 3.66333E-01
 -1      3582 3.86188E-01
 -1      3583 3.76261E-01
 -1      3585 3.86188E-01
 -1      3586 3.76261E-01
 -1      3588 3.86188E-01
 -1      3589 3.76260E-01
 -1      3591 3.86188E-01
 -1      3592 3.76260E-01
 -1      3594 3.86188E-01
 -1      3595 3.76260E-01
 -1      3597 3.86188E-01
 -1      3598 3.76260E-01
 -1      3600 3.86188E-01
 -1      3601 3.76260E-01
 -1      3603 3.86188E-01
 -1      3604 3.76260E-01
 -1      3606 3.86188E-01
 -1      3607 3.76261E-01
 -1      3609 3.86188E-01
 -1      3610 3.76261E-01
 -1      3612 3.86188E-01
 -1      3614 4.07414E-01
 -1      3615 3.96801E-01
 -1      3617 4.07414E-01
 -1      3618 3.96801E-01
 -1      3620 4.07414E-01
 -1      3621 3.96801E-01
 -1      3623 4.07414E-01
 -1      3624 3.96801E-01
 -1      3626 4.07414E-01
 -1      3627 3.96801E-01
 -1      3629 4.07414E-01
 -1      3630 3.96801E-01
 -1      3632 4.07414E-01
 -1      3633 3.96801E-01
 -1      3635 4.07414E-01
 -1      3636 3.96801E-01
 -1      3638 4.07414E-01
 -1      3639 3.96801E-01
 -1      3641 4.07414E-01
 -1      3642 3.96801E-01
 -1      3644 4.07414E-01
 -1      3646 4.30116E-01
 -1      3647 4.18765E-01
 -1      3649 4.30116E-01
 -1      3650 4.18765E-01
 -1      3652 4.30116E-01
 -1      3653 4.18765E-01
 -1      3655 4.30116E-01
 -1      3656 4.18765E-01
 -1      3658 4.30116E-01
 -1      3659 4.18765E-01
 -1      3661 4.30116E-01
 -1      3662 4.18765E-01
 -1      3664 4.30116E-01
 -1      3665 4.18765E-01
 -1      3667 4.30116E-01
 -1      3668 4.18765E-01
 -1      3670 4.30116E-01
 -1      3671 4.18765E-01
 -1      3673 4.30116E-01
 -1      3674 4.18765E-01
 -1      3676 4.30116E-01
 -1      3678 4.54424E-01
 -1      3679 4.42270E-01
 -1      3681 4.54424E-01
 -1      3682 4.42270E-01
 -1      3684 4.54424E-01
 -1      3685 4.42270E-01
 -1      3687 4.54424E-01
 -1      3688 4.42270E-01
 -1      3690 4.54424E-01
 -1      3691 4.42270E-01
 -1      3693 4.54424E-01
 -1      3694 4.42270E-01
 -1      3696 4.54424E-01
 -1      3697 4.42270E-01
 -1      3699 4.54424E-01
 -1      3700 4.42270E-01
 -1      3702 4.54424E-01
 -1      3703 4.42270E-01
 -1      3705 4.54424E-01
 -1      3706 4.42270E-01
 -1      3708 4.54424E-01
 -1      3710 4.80482E-01
 -1      3711 4.67453E-01
 -1      3713 4.80482E-01
 -1      3714 4.67453E-01
 -1      3716 4.80482E-01
 -1      3717 4.67453E-01
 -1      3719 4.80482E-01
 -1      3720 4.67453E-01
 -1      3722 4.80482E-01
 -1      3723 4.67453E-01
 -1      3725 4.80482E-01
 -1      3726 4.67453E-01
 -1      3728 4.80482E-01
 -1      3729 4.67453E-01
 -1      3731 4.80482E-01
 -1      3732 4.67453E-01
 -1      3734 4.80482E-01
 -1      3735 4.67453E-01
 -1      3737 4.80482E-01
 -1      3738 4.67453E-01
 -1      3740 4.80482E-01
 -1      3742 5.08450E-01
 -1      3743 4.94466E-01
 -1      3745 5.08450E-01
 -1      3746 4.94466E-01
 -1      3748 5.08450E-01
 -1      3749 4.94466E-01
 -1      3751 5.08450E-01
 -1      3752 4.94466E-01
 -1      3754 5.08450E-01
 -1      3755 4.94466E-01
 -1      3757 5.08450E-01
 -1      3758 4.94466E-01
 -1      3760 5.08450E-01
 -1      3761 4.94466E-01
 -1      3763 5.08450E-01
 -1      3764 4.94466E-01
 -1      3766 5.08450E-01
 -1      3767 4.94466E-01
 -1      3769 5.08450E-01
 -1      3770 4.94466E-01
 -1      3772 5.08450E-01
 -1      3774 5.38507E-01
 -1      3775 5.23478E-01
 -1      3777 5.38507E-01
 -1      3778 5.23478E-01
 -1      3780 5.38507E-01
 -1      3781 5.23478E-01
 -1      3783 5.38507E-01
 -1      3784 5.23478E-01
 -1      3786 5.38507E-01
 -1      3787 5.23478E-01
 -1      3789 5.38507E-01
 -1      3790 5.23478E-01
 -1      3792 5.38507E-01
 -1      3793 5.23478E-01
 -1      3795 5.38507E-01
 -1      3796 5.23478E-01
 -1      3798 5.38507E-01
 -1      3799 5.23478E-01
 -1      3801 5.38507E-01
 -1      3802 5.23478E-01
 -1      3804 5.38507E-01
 -1      3806 5.70855E-01
 -1      3807 5.54681E-01
 -1      3809 5.70855E-01
 -1      3810 5.54681E-01
 -1      3812 5.70855E-01
 -1      3813 5.54681E-01
 -1      3815 5.70855E-01
 -1      3816 5.54681E-01
 -1      3818 5.70855E-01
 -1      3819 5.54681E-01
 -1      3821 5.70855E-01
 -1      3822 5.54681E-01
 -1      3824 5.70855E-01
 -1      3825 5.54681E-01
 -1      3827 5.70855E-01
 -1      3828 5.54681E-01
 -1      3830 5.70855E-01
 -1      3831 5.54681E-01
 -1      3833 5.70855E-01
 -1      3834 5.54681E-01
 -1      3836 5.70855E-01
 -1      3838 6.05725E-01
 -1      3839 5.88290E-01
 -1      3841 6.05725E-01
 -1      3842 5.88290E-01
 -1      3844 6.05725E-01
 -1      3845 5.88290E-01
 -1      3847 6.05725E-01
 -1      3848 5.88290E-01
 -1      3850 6.05725E-01
 -1      3851 5.88290E-01
 -1      3853 6.05725E-01
 -1      3854 5.88290E-01
 -1      3856 6.05725E-01
 -1      3857 5.88290E-01
 -1      3859 6.05725E-01
 -1      3860 5.88290E-01
 -1      3862 6.05725E-01
 -1      3863 5.88290E-01
 -1      3865 6.05725E-01
 -1      3866 5.88290E-01
 -1      3868 6.05725E-01
 -1      3870 6.43378E-01
 -1      3871 6.24551E-01
 -1      3873 6.43378E-01
 -1      3874 6.24551E-01
 -1      3876 6.43378E-01
 -1      3877 6.24551E-01
 -1      3879 6.43378E-01
 -1      3880 6.24551E-01
 -1      3882 6.43378E-01
 -1      3883 6.24551E-01
 -1      3885 6.43378E-01
 -1      3886 6.24551E-01
 -1      3888 6.43378E-01
 -1      3889 6.24551E-01
 -1      3891 6.43378E-01
 -1      3892 6.24551E-01
 -1      3894 6.43378E-01
 -1      3895 6.24551E-01
 -1      3897 6.43378E-01
 -1      3898 6.24551E-01
 -1      3900 6.43378E-01
 -1      3902 6.84113E-01
 -1      3903 6.63745E-01
 -1      3905 6.84113E-01
 -1      3906 6.63745E-01
 -1      3908 6.84113E-01
 -1      3909 6.63745E-01
 -1      3911 6.84113E-01
 -1      3912 6.63745E-01
 -1      3914 6.84113E-01
 -1      3915 6.63745E-01
 -1      3917 6.84113E-01
 -1      3918 6.63745E-01
 -1      3920 6.84113E-01
 -1      3921 6.63745E-01
 -1      3923 6.84113E-01
 -1      3924 6.63745E-01
 -1      3926 6.84113E-01
 -1      3927 6.63745E-01
 -1      3929 6.84113E-01
 -1      3930 6.63745E-01
 -1      3932 6.84113E-01
 -1      3934 7.28276E-01
 -1      3935 7.06194E-01
 -1      3937 7.28276E-01
 -1      3938 7.06194E-01
 -1      3940 7.28276E-01
 -1      3941 7.06194E-01
 -1      3943 7.28276E-01
 -1      3944 7.06194E-01
 -1      3946 7.28276E-01
 -1      3947 7.06194E-01
 -1      3949 7.28276E-01
 -1      3950 7.06194E-01
 -1      3952 7.28276E-01
 -1      3953 7.06194E-01
 -1      3955 7.28276E-01
 -1      3956 7.06194E-01
 -1      3958 7.28276E-01
 -1      3959 7.06194E-01
 -1      3961 7.28276E-01
 -1      3962 7.06194E-01
 -1      3964 7.28276E-01
 -1      3966 7.76270E-01
 -1      3967 7.52273E-01
 -1      3969 7.76270E-01
 -1      3970 7.52273E-01
 -1      3972 7.76270E-01
 -1      3973 7.52273E-01
 -1      3975 7.76270E-01
 -1      3976 7.52273E-01
 -1      3978 7.76270E-01
 -1      3979 7.52273E-01
 -1      3981 7.76270E-01
 -1      3982 7.52273E-01
 -1      3984 7.76270E-01
 -1      3985 7.52273E-01
 -1      3987 7.76270E-01
 -1      3988 7.52273E-01
 -1      3990 7.76270E-01
 -1      3991 7.52273E-01
 -1      3993 7.76270E-01
 -1      3994 7.52273E-01
 -1      3996 7.76270E-01
 -1      3998 8.28565E-01
 -1      3999 8.02417E-01
 -1      4001 8.28565E-01
 -1      4002 8.02417E-01
 -1      4004 8.28565E-01
 -1      4005 8.02417E-01
 -1      4007 8.28565E-01
 -1      4008 8.02417E-01
 -1      4010 8.28565E-01
 -1      4011 8.02417E-01
 -1      4013 8.28565E-01
 -1      4014 8.02417E-01
 -1      4016 8.28565E-01
 -1      4017 8.02417E-01
 -1      4019 8.28565E-01
 -1      4020 8.02417E-01
 -1      4022 8.28565E-01
 -1      4023 8.02417E-01
 -1      4025 8.28565E-01
 -1      4026 8.02417E-01
 -1      4028 8.28565E-01
 -1      4030 8.85716E-01
 -1      4031 8.57140E-01
 -1      4033 8.85716E-01
 -1      4034 8.57140E-01
 -1      4036 8.85716E-01
 -1      4037 8.57140E-01
 -1      4039 8.85716E-01
 -1      4040 8.57140E-01
 -1      4042 8.85716E-01
 -1      4043 8.57140E-01
 -1      4045 8.85716E-01
 -1      4046 8.57140E-01
 -1      4048 8.85716E-01
 -1      4049 8.57140E-01
 -1      4051 8.85716E-01
 -1      4052 8.57140E-01
 -1      4054 8.85716E-01
 -1      4055 8.57140E-01
 -1      4057 8.85716E-01
 -1      4058 8.57140E-01
 -1      4060 8.85716E-01
 -1      4062 9.48385E-01
 -1      4063 9.17050E-01
 -1      4065 9.48385E-01
 -1      4066 9.17050E-01
 -1      4068 9.48385E-01
 -1      4069 9.17050E-01
 -1      4071 9.48385E-01
 -1      4072 9.17050E-01
 -1      4074 9.48385E-01
 -1      4075 9.17050E-01
 -1      4077 9.48385E-01
 -1      4078 9.17050E-01
 -1      4080 9.48385E-01
 -1      4081 9.17050E-01
 -1      4083 9.48385E-01
 -1      4084 9.17050E-01
 -1      4086 9.48385E-01
 -1      4087 9.17050E-01
 -1      4089 9.48385E-01
 -1      4090 9.17050E-01
 -1      4092 9.48385E-01
 -1      4094 1.01737E+00
 -1      4095 9.82877E-01
 -1      4097 1.01737E+00
 -1      4098 9.82877E-01
 -1      4100 1.01737E+00
 -1      4101 9.82877E-01
 -1      4103 1.01737E+00
 -1      4104 9.82877E-01
 -1      4106 1.01737E+00
 -1      4107 9.82877E-01
 -1      4109 1.01737E+00
 -1      4110 9.82877E-01
 -1      4112 1.01737E+00
 -1      4113 9.82877E-01
 -1      4115 1.01737E+00
 -1      4116 9.82877E-01
 -1      4118 1.01737E+00
 -1      4119 9.82877E-01
 -1      4121 1.01737E+00
 -1      4122 9.82877E-01
 -1      4124 1.01737E+00
 -1      4126 1.09363E+00
 -1      4127 1.05550E+00
 -1      4129 1.09363E+00
 -1      4130 1.05550E+00
 -1      4132 1.09363E+00
 -1      4133 1.05550E+00
 -1      4135 1.09363E+00
 -1      4136 1.05550E+00
 -1      4138 1.09363E+00
 -1      4139 1.05550E+00
 -1      4141 1.09363E+00
 -1      4142 1.05550E+00
 -1      4144 1.09363E+00
 -1      4145 1.05550E+00
 -1      4147 1.09363E+00
 -1      4148 1.05550E+00
 -1      4150 1.09363E+00
 -1      4151 1.05550E+00
 -1      4153 1.09363E+00
 -1      4154 1.05550E+00
 -1      4156 1.09363E+00
 -1      4158 1.17837E+00
 -1      4159 1.13600E+00
 -1      4161 1.17837E+00
 -1      4162 1.13600E+00
 -1      4164 1.17837E+00
 -1      4165 1.13600E+00
 -1      4167 1.17837E+00
 -1      4168 1.13600E+00
 -1      4170 1.17837E+00
 -1      4171 1.13600E+00
 -1      4173 1.17837E+00
 -1      4174 1.13600E+00
 -1      4176 1.17837E+00
 -1      4177 1.13600E+00
 -1      4179 1.17837E+00
 -1      4180 1.13600E+00
 -1      4182 1.17837E+00
 -1      4183 1.13600E+00
 -1      4185 1.17837E+00
 -1      4186 1.13600E+00
 -1      4188 1.17837E+00
 -1      4190 1.27307E+00
 -1      4191 1.22572E+00
 -1      4193 1.27306E+00
 -1      4194 1.22572E+00
 -1      4196 1.27306E+00
 -1      4197 1.22572E+00
 -1      4199 1.27306E+00
 -1      4200 1.22572E+00
 -1      4202 1.27306E+00
 -1      4203 1.22572E+00
 -1      4205 1.27306E+00
 -1      4206 1.22572E+00
 -1      4208 1.27306E+00
 -1      4209 1.22572E+00
 -1      4211 1.27306E+00
 -1      4212 1.22572E+00
 -1      4214 1.27306E+00
 -1      4215 1.22572E+00
 -1      4217 1.27306E+00
 -1      4218 1.22572E+00
 -1      4220 1.27307E+00
 -1      4222 1.37959E+00
 -1      4223 1.32633E+00
 -1      4225 1.37959E+00
 -1      4226 1.32633E+00
 -1      4228 1.37959E+00
 -1      4229 1.32633E+00
 -1      4231 1.37959E+00
 -1      4232 1.32633E+00
 -1      4234 1.37959E+00
 -1      4235 1.32633E+00
 -1      4237 1.37959E+00
 -1      4238 1.32633E+00
 -1      4240 1.37959E+00
 -1      4241 1.32633E+00
 -1      4243 1.37959E+00
 -1      4244 1.32633E+00
 -1      4246 1.37959E+00
 -1      4247 1.32633E+00
 -1      4249 1.37959E+00
 -1      4250 1.32633E+00
 -1      4252 1.37959E+00
 -1      4254 1.50033E+00
 -1      4255 1.43996E+00
 -1      4257 1.50033E+00
 -1      4258 1.43996E+00
 -1      4260 1.50032E+00
 -1      4261 1.43996E+00
 -1      4263 1.50032E+00
 -1      4264 1.43996E+00
 -1      4266 1.50032E+00
 -1      4267 1.43996E+00
 -1      4269 1.50032E+00
 -1      4270 1.43996E+00
 -1      4272 1.50032E+00
 -1      4273 1.43996E+00
 -1      4275 1.50032E+00
 -1      4276 1.43996E+00
 -1      4278 1.50032E+00
 -1      4279 1.43996E+00
 -1      4281 1.50033E+00
 -1      4282 1.43996E+00
 -1      4284 1.50033E+00
 -1      4286 1.63850E+00
 -1      4287 1.56941E+00
 -1      4289 1.63850E+00
 -1      4290 1.56941E+00
 -1      4292 1.63850E+00
 -1      4293 1.56941E+00
 -1      4295 1.63850E+00
 -1      4296 1.56941E+00
 -1      4298 1.63850E+00
 -1      4299 1.56941E+00
 -1      4301 1.63850E+00
 -1      4302 1.56941E+00
 -1      4304 1.63850E+00
 -1      4305 1.56941E+00
 -1      4307 1.63850E+00
 -1      4308 1.56941E+00
 -1      4310 1.63850E+00
 -1      4311 1.56941E+00
 -1      4313 1.63850E+00
 -1      4314 1.56941E+00
 -1      4316 1.63850E+00
 -1      4318 1.79799E+00
 -1      4319 1.71825E+00
 -1      4321 1.79798E+00
 -1      4322 1.71823E+00
 -1      4324 1.79796E+00
 -1      4325 1.71823E+00
 -1      4327 1.79796E+00
 -1      4328 1.71823E+00
 -1      4330 1.79796E+00
 -1      4331 1.71823E+00
 -1      4333 1.79796E+00
 -1      4334 1.71823E+00
 -1      4336 1.79796E+00
 -1      4337 1.71823E+00
 -1      4339 1.79796E+00
 -1      4340 1.71823E+00
 -1      4342 1.79796E+00
 -1      4343 1.71823E+00
 -1      4345 1.79798E+00
 -1      4346 1.71825E+00
 -1      4348 1.79799E+00
 -1      4350 1.94306E+00
 -1      4351 1.87053E+00
 -1      4353 1.94303E+00
 -1      4354 1.87048E+00
 -1      4356 1.94300E+00
 -1      4357 1.87048E+00
 -1      4359 1.94299E+00
 -1      4360 1.87047E+00
 -1      4362 1.94299E+00
 -1      4363 1.87047E+00
 -1      4365 1.94299E+00
 -1      4366 1.87047E+00
 -1      4368 1.94299E+00
 -1      4369 1.87047E+00
 -1      4371 1.94299E+00
 -1      4372 1.87048E+00
 -1      4374 1.94300E+00
 -1      4375 1.87048E+00
 -1      4377 1.94303E+00
 -1      4378 1.87053E+00
 -1      4380 1.94306E+00
 -1      4382 1.94306E+00
 -1      4384 1.94301E+00
 -1      4386 1.94299E+00
 -1      4388 1.94299E+00
 -1      4390 1.94299E+00
 -1      4392 1.94299E+00
 -1      4394 1.94299E+00
 -1      4396 1.94299E+00
 -1      4398 1.94301E+00
 -1      4400 1.94306E+00
 -1      4403 1.94306E+00
 -1      4404 1.94301E+00
 -1      4405 1.94299E+00
 -1      4406 1.94299E+00
 -1      4407 1.94299E+00
 -1      4408 1.94299E+00
 -1      4409 1.94299E+00
 -1      4410 1.94299E+00
 -1      4411 1.94301E+00
 -1      4412 1.94306E+00
 -1      4413 1.94306E+00
 -1      4414 1.94301E+00
 -1      4415 1.94299E+00
 -1      4416 1.94299E+00
 -1      4417 1.94299E+00
 -1      4418 1.94299E+00
 -1      4419 1.94299E+00
 -1      4420 1.94299E+00
 -1      4421 1.94301E+00
 -1      4422 1.94306E+00
 -1      4423 1.94306E+00
 -1      4424 1.94301E+00
 -1      4425 1.94299E+00
 -1      4426 1.94299E+00
 -1      4427 1.94299E+00
 -1      4428 1.94299E+00
 -1      4429 1.94299E+00
 -1      4430 1.94299E+00
 -1      4431 1.94301E+00
 -1      4432 1.94306E+00
 -1      4433 1.94306E+00
 -1      4434 1.94301E+00
 -1      4435 1.94299E+00
 -1      4436 1.94299E+00
 -1      4437 1.94299E+00
 -1      4438 1.94299E+00
 -1      4439 1.94299E+00
 -1      4440 1.94299E+00
 -1      4441 1.94301E+00
 -1      4442 1.94306E+00
 -1      4443 1.94306E+00
 -1      4444 1.94301E+00
 -1      4445 1.94299E+00
 -1      4446 1.94299E+00
 -1      4447 1.94299E+00
 -1      4448 1.94299E+00
 -1      4449 1.94299E+00
 -1      4450 1.94299E+00
 -1      4451 1.94301E+00
 -1      4452 1.94306E+00
 -1      4453 1.94306E+00
 -1      4454 1.94301E+00
 -1      4455 1.94299E+00
 -1      4456 1.94299E+00
 -1      4457 1.94299E+00
 -1      4458 1.94299E+00
 -1      4459 1.94299E+00
 -1      4460 1.94299E+00
 -1      4461 1.94301E+00
 -1      4462 1.94306E+00
 -1      4463 1.94306E+00
 -1      4464 1.94301E+00
 -1      4465 1.94299E+00
 -1      4466 1.94299E+00
 -1      4467 1.94299E+00
 -1      4468 1.94299E+00
 -1      4469 1.94299E+00
 -1      4470 1.94299E+00
 -1      4471 1.94301E+00
 -1      4472 1.94306E+00
 -1      4473 1.94306E+00
 -1      4474 1.94301E+00
 -1      4475 1.94299E+00
 -1      4476 1.94299E+00
 -1      4477 1.94299E+00
 -1      4478 1.94299E+00
 -1      4479 1.94299E+00
 -1      4480 1.94299E+00
 -1      4481 1.94301E+00
 -1      4482 1.94306E+00
 -1      4483 1.94306E+00
 -1      4484 1.94301E+00
 -1      4485 1.94299E+00
 -1      4486 1.94299E+00
 -1      4487 1.94299E+00
 -1      4488 1.94299E+00
 -1      4489 1.94299E+00
 -1      4490 1.94299E+00
 -1      4491 1.94301E+00
 -1      4492 1.94306E+00
 -1      4493 1.94306E+00
 -1      4494 1.94306E+00
 -1      4496 1.94303E+00
 -1      4497 1.94301E+00
 -1      4499 1.94300E+00
 -1      4500 1.94299E+00
 -1      4502 1.94299E+00
 -1      4503 1.94299E+00
 -1      4505 1.94299E+00
 -1      4506 1.94299E+00
 -1      4508 1.94299E+00
 -1      4509 1.94299E+00
 -1      4511 1.94299E+00
 -1      4512 1.94299E+00
 -1      4514 1.94299E+00
 -1      4515 1.94299E+00
 -1      4517 1.94300E+00
 -1      4518 1.94301E+00
 -1      4520 1.94303E+00
 -1      4521 1.94306E+00
 -1      4523 1.94306E+00
 -1      4525 1.94306E+00
 -1      4526 1.94306E+00
 -1      4528 1.94303E+00
 -1      4529 1.94301E+00
 -1      4531 1.94300E+00
 -1      4532 1.94299E+00
 -1      4534 1.94299E+00
 -1      4535 1.94299E+00
 -1      4537 1.94299E+00
 -1      4538 1.94299E+00
 -1      4540 1.94299E+00
 -1      4541 1.94299E+00
 -1      4543 1.94299E+00
 -1      4544 1.94299E+00
 -1      4546 1.94299E+00
 -1      4547 1.94299E+00
 -1      4549 1.94300E+00
 -1      4550 1.94301E+00
 -1      4552 1.94303E+00
 -1      4553 1.94306E+00
 -1      4555 1.94306E+00
 -1      4557 1.94306E+00
 -1      4558 1.94306E+00
 -1      4560 1.94303E+00
 -1      4561 1.94301E+00
 -1      4563 1.94300E+00
 -1      4564 1.94299E+00
 -1      4566 1.94299E+00
 -1      4567 1.94299E+00
 -1      4569 1.94299E+00
 -1      4570 1.94299E+00
 -1      4572 1.94299E+00
 -1      4573 1.94299E+00
 -1      4575 1.94299E+00
 -1      4576 1.94299E+00
 -1      4578 1.94299E+00
 -1      4579 1.94299E+00
 -1      4581 1.94300E+00
 -1      4582 1.94301E+00
 -1      4584 1.94303E+00
 -1      4585 1.94306E+00
 -1      4587 1.94306E+00
 -1      4589 1.94306E+00
 -1      4590 1.94306E+00
 -1      4592 1.94303E+00
 -1      4593 1.94301E+00
 -1      4595 1.94300E+00
 -1      4596 1.94299E+00
 -1      4598 1.94299E+00
 -1      4599 1.94299E+00
 -1      4601 1.94299E+00
 -1      4602 1.94299E+00
 -1      4604 1.94299E+00
 -1      4605 1.94299E+00
 -1      4607 1.94299E+00
 -1      4608 1.94299E+00
 -1      4610 1.94299E+00
 -1      4611 1.94299E+00
 -1      4613 1.94300E+00
 -1      4614 1.94301E+00
 -1      4616 1.94303E+00
 -1      4617 1.94306E+00
 -1      4619 1.94306E+00
 -1      4621 1.94306E+00
 -1      4622 1.94306E+00
 -1      4624 1.94303E+00
 -1      4625 1.94301E+00
 -1      4627 1.94300E+00
 -1      4628 1.94299E+00
 -1      4630 1.94299E+00
 -1      4631 1.94299E+00
 -1      4633 1.94299E+00
 -1      4634 1.94299E+00
 -1      4636 1.94299E+00
 -1      4637 1.94299E+00
 -1      4639 1.94299E+00
 -1      4640 1.94299E+00
 -1      4642 1.94299E+00
 -1      4643 1.94299E+00
 -1      4645 1.94300E+00
 -1      4646 1.94301E+00
 -1      4648 1.94303E+00
 -1      4649 1.94306E+00
 -1      4651 1.94306E+00
 -1      4653 1.94306E+00
 -1      4654 1.94306E+00
 -1      4656 1.94303E+00
 -1      4657 1.94301E+00
 -1      4659 1.94300E+00
 -1      4660 1.94299E+00
 -1      4662 1.94299E+00
 -1      4663 1.94299E+00
 -1      4665 1.94299E+00
 -1      4666 1.94299E+00
 -1      4668 1.94299E+00
 -1      4669 1.94299E+00
 -1      4671 1.94299E+00
 -1      4672 1.94299E+00
 -1      4674 1.94299E+00
 -1      4675 1.94299E+00
 -1      4677 1.94300E+00
 -1      4678 1.94301E+00
 -1      4680 1.94303E+00
 -1      4681 1.94306E+00
 -1      4683 1.94306E+00
 -1      4685 1.94306E+00
 -1      4686 1.94306E+00
 -1      4688 1.94303E+00
 -1      4689 1.94301E+00
 -1      4691 1.94300E+00
 -1      4692 1.94299E+00
 -1      4694 1.94299E+00
 -1      4695 1.94299E+00
 -1      4697 1.94299E+00
 -1      4698 1.94299E+00
 -1      4700 1.94299E+00
 -1      4701 1.94299E+00
 -1      4703 1.94299E+00
 -1      4704 1.94299E+00
 -1      4706 1.94299E+00
 -1      4707 1.94299E+00
 -1      4709 1.94300E+00
 -1      4710 1.94301E+00
 -1      4712 1.94303E+00
 -1      4713 1.94306E+00
 -1      4715 1.94306E+00
 -1      4717 1.94306E+00
 -1      4718 1.94306E+00
 -1      4720 1.94303E+00
 -1      4721 1.94301E+00
 -1      4723 1.94300E+00
 -1      4724 1.94299E+00
 -1      4726 1.94299E+00
 -1      4727 1.94299E+00
 -1      4729 1.94299E+00
 -1      4730 1.94299E+00
 -1      4732 1.94299E+00
 -1      4733 1.94299E+00
 -1      4735 1.94299E+00
 -1      4736 1.94299E+00
 -1      4738 1.94299E+00
 -1      4739 1.94299E+00
 -1      4741 1.94300E+00
 -1      4742 1.94301E+00
 -1      4744 1.94303E+00
 -1      4745 1.94306E+00
 -1      4747 1.94306E+00
 -1      4749 1.94306E+00
 -1      4750 1.94306E+00
 -1      4752 1.94303E+00
 -1      4753 1.94301E+00
 -1      4755 1.94300E+00
 -1      4756 1.94299E+00
 -1      4758 1.94299E+00
 -1      4759 1.94299E+00
 -1      4761 1.94299E+00
 -1      4762 1.94299E+00
 -1      4764 1.94299E+00
 -1      4765 1.94299E+00
 -1      4767 1.94299E+00
 -1      4768 1.94299E+00
 -1      4770 1.94299E+00
 -1      4771 1.94299E+00
 -1      4773 1.94300E+00
 -1      4774 1.94301E+00
 -1      4776 1.94303E+00
 -1      4777 1.94306E+00
 -1      4779 1.94306E+00
 -1      4781 1.94306E+00
 -1      4783 1.94301E+00
 -1      4785 1.94299E+00
 -1      4787 1.94299E+00
 -1      4789 1.94299E+00
 -1      4791 1.94299E+00
 -1      4793 1.94299E+00
 -1      4795 1.94299E+00
 -1      4797 1.94301E+00
 -1      4799 1.94306E+00
 -1      4802 1.94306E+00
 -1      4803 1.94306E+00
 -1      4804 1.94306E+00
 -1      4805 1.94306E+00
 -1      4806 1.94306E+00
 -1      4807 1.94306E+00
 -1      4808 1.94306E+00
 -1      4809 1.94306E+00
 -1      4810 1.94306E+00
 -1      4811 1.79799E+00
 -1      4812 1.79799E+00
 -1      4813 1.79799E+00
 -1      4814 1.79799E+00
 -1      4815 1.79799E+00
 -1      4816 1.79799E+00
 -1      4817 1.79799E+00
 -1      4818 1.79799E+00
 -1      4819 1.79799E+00
 -1      4820 1.63849E+00
 -1      4821 1.63849E+00
 -1      4822 1.63849E+00
 -1      4823 1.63849E+00
 -1      4824 1.63849E+00
 -1      4825 1.63849E+00
 -1      4826 1.63849E+00
 -1      4827 1.63849E+00
 -1      4828 1.63849E+00
 -1      4829 1.50033E+00
 -1      4830 1.50033E+00
 -1      4831 1.50033E+00
 -1      4832 1.50033E+00
 -1      4833 1.50033E+00
 -1      4834 1.50033E+00
 -1      4835 1.50033E+00
 -1      4836 1.50033E+00
 -1      4837 1.50033E+00
 -1      4838 1.37959E+00
 -1      4839 1.37959E+00
 -1      4840 1.37959E+00
 -1      4841 1.37959E+00
 -1      4842 1.37959E+00
 -1      4843 1.37959E+00
 -1      4844 1.37959E+00
 -1      4845 1.37959E+00
 -1      4846 1.37959E+00
 -1      4847 1.27307E+00
 -1      4848 1.27307E+00
 -1      4849 1.27307E+00
 -1      4850 1.27307E+00
 -1      4851 1.27307E+00
 -1      4852 1.27307E+00
 -1      4853 1.27307E+00
 -1      4854 1.27307E+00
 -1      4855 1.27307E+00
 -1      4856 1.17837E+00
 -1      4857 1.17837E+00
 -1      4858 1.17837E+00
 -1      4859 1.17837E+00
 -1      4860 1.17837E+00
 -1      4861 1.17837E+00
 -1      4862 1.17837E+00
 -1      4863 1.17837E+00
 -1      4864 1.17837E+00
 -1      4865 1.09363E+00
 -1      4866 1.09363E+00
 -1      4867 1.09363E+00
 -1      4868 1.09363E+00
 -1      4869 1.09363E+00
 -1      4870 1.09363E+00
 -1      4871 1.09363E+00
 -1      4872 1.09363E+00
 -1      4873 1.09363E+00
 -1      4874 1.01737E+00
 -1      4875 1.01737E+00
 -1      4876 1.01737E+00
 -1      4877 1.01737E+00
 -1      4878 1.01737E+00
 -1      4879 1.01737E+00
 -1      4880 1.01737E+00
 -1      4881 1.01737E+00
 -1      4882 1.01737E+00
 -1      4883 9.48385E-01
 -1      4884 9.48385E-01
 -1      4885 9.48385E-01
 -1      4886 9.48385E-01
 -1      4887 9.48385E-01
 -1      4888 9.48385E-01
 -1      4889 9.48385E-01
 -1      4890 9.48385E-01
 -1      4891 9.48385E-01
 -1      4892 8.85716E-01
 -1      4893 8.85716E-01
 -1      4894 8.85716E-01
 -1      4895 8.85716E-01
 -1      4896 8.85716E-01
 -1      4897 8.85716E-01
 -1      4898 8.85716E-01
 -1      4899 8.85716E-01
 -1      4900 8.85716E-01
 -1      4901 8.28565E-01
 -1      4902 8.28565E-01
 -1      4903 8.28565E-01
 -1      4904 8.28565E-01
 -1      4905 8.28565E-01
 -1      4906 8.28565E-01
 -1      4907 8.28565E-01
 -1      4908 8.28565E-01
 -1      4909 8.28565E-01
 -1      4910 7.76270E-01
 -1      4911 7.76270E-01
 -1      4912 7.76270E-01
 -1      4913 7.76270E-01
 -1      4914 7.76270E-01
 -1      4915 7.76270E-01
 -1      4916 7.76270E-01
 -1      4917 7.76270E-01
 -1      4918 7.76270E-01
 -1      4919 7.28276E-01
 -1      4920 7.28276E-01
 -1      4921 7.28276E-01
 -1      4922 7.28276E-01
 -1      4923 7.28276E-01
 -1      4924 7.28276E-01
 -1      4925 7.28276E-01
 -1      4926 7.28276E-01
 -1      4927 7.28276E-01
 -1      4928 6.84113E-01
 -1      4929 6.84113E-01
 -1      4930 6.84113E-01
 -1      4931 6.84113E-01
 -1      4932 6.84113E-01
 -1      4933 6.84113E-01
 -1      4934 6.84113E-01
 -1      4935 6.84113E-01
 -1      4936 6.84113E-01
 -1      4937 6.43378E-01
 -1      4938 6.43378E-01
 -1      4939 6.43378E-01
 -1      4940 6.43378E-01
 -1      4941 6.43378E-01
 -1      4942 6.43378E-01
 -1      4943 6.43378E-01
 -1      4944 6.43378E-01
 -1      4945 6.43378E-01
 -1      4946 6.05725E-01
 -1      4947 6.05725E-01
 -1      4948 6.05725E-01
 -1      4949 6.05725E-01
 -1      4950 6.05725E-01
 -1      4951 6.05725E-01
 -1      4952 6.05725E-01
 -1      4953 6.05725E-01
 -1      4954 6.05725E-01
 -1      4955 5.70855E-01
 -1      4956 5.70855E-01
 -1      4957 5.70855E-01
 -1      4958 5.70855E-01
 -1      4959 5.70855E-01
 -1      4960 5.70855E-01
 -1      4961 5.70855E-01
 -1      4962 5.70855E-01
 -1      4963 5.70855E-01
 -1      4964 5.38507E-01
 -1      4965 5.38507E-01
 -1      4966 5.38507E-01
 -1      4967 5.38507E-01
 -1      4968 5.38507E-01
 -1      4969 5.38507E-01
 -1      4970 5.38507E-01
 -1      4971 5.38507E-01
 -1      4972 5.38507E-01
 -1      4973 5.08450E-01
 -1      4974 5.08450E-01
 -1      4975 5.08450E-01
 -1      4976 5.08450E-01
 -1      4977 5.08450E-01
 -1      4978 5.08450E-01
 -1      4979 5.08450E-01
 -1      4980 5.08450E-01
 -1      4981 5.08450E-01
 -1      4982 4.80482E-01
 -1      4983 4.80482E-01
 -1      4984 4.80482E-01
 -1      4985 4.80482E-01
 -1      4986 4.80482E-01
 -1      4987 4.80482E-01
 -1      4988 4.80482E-01
 -1      4989 4.80482E-01
 -1      4990 4.80482E-01
 -1      4991 4.54424E-01
 -1      4992 4.54424E-01
 -1      4993 4.54424E-01
 -1      4994 4.54424E-01
 -1      4995 4.54424E-01
 -1      4996 4.54424E-01
 -1      4997 4.54424E-01
 -1      4998 4.54424E-01
 -1      4999 4.54424E-01
 -1      5000 4.30116E-01
 -1      5001 4.30116E-01
 -1      5002 4.30116E-01
 -1      5003 4.30116E-01
 -1      5004 4.30116E-01
 -1      5005 4.30116E-01
 -1      5006 4.30116E-01
 -1      5007 4.30116E-01
 -1      5008 4.30116E-01
 -1      5009 4.07414E-01
 -1      5010 4.07414E-01
 -1      5011 4.07414E-01
 -1      5012 4.07414E-01
 -1      5013 4.07414E-01
 -1      5014 4.07414E-01
 -1      5015 4.07414E-01
 -1      5016 4.07414E-01
 -1      5017 4.07414E-01
 -1      5018 3.86188E-01
 -1      5019 3.86188E-01
 -1      5020 3.86188E-01
 -1      5021 3.86189E-01
 -1      5022 3.86189E-01
 -1      5023 3.86188E-01
 -1      5024 3.86188E-01
 -1      5025 3.86189E-01
 -1      5026 3.86189E-01
 -1      5027 3.66332E-01
 -1      5028 3.66332E-01
 -1      5029 3.66332E-01
 -1      5030 3.66332E-01
 -1      5031 3.66332E-01
 -1      5032 3.66332E-01
 -1      5033 3.66332E-01
 -1      5034 3.66332E-01
 -1      5035 3.66332E-01
 -1      5036 3.47708E-01
 -1      5037 3.47708E-01
 -1      5038 3.47708E-01
 -1      5039 3.47708E-01
 -1      5040 3.47708E-01
 -1      5041 3.47708E-01
 -1      5042 3.47708E-01
 -1      5043 3.47708E-01
 -1      5044 3.47708E-01
 -1      5045 3.30356E-01
 -1      5046 3.30356E-01
 -1      5047 3.30356E-01
 -1      5048 3.30356E-01
 -1      5049 3.30356E-01
 -1      5050 3.30356E-01
 -1      5051 3.30356E-01
 -1      5052 3.30356E-01
 -1      5053 3.30357E-01
 -1      5054 3.20347E-01
 -1      5055 3.20347E-01
 -1      5056 3.20347E-01
 -1      5057 3.20353E-01
 -1      5058 3.20367E-01
 -1      5059 3.20367E-01
 -1      5060 3.20349E-01
 -1      5061 3.20371E-01
 -1      5062 3.20375E-01
 -1      5063 1.94306E+00
 -1      5064 1.94306E+00
 -1      5066 1.94306E+00
 -1      5067 1.94306E+00
 -1      5069 1.94306E+00
 -1      5070 1.94306E+00
 -1      5072 1.94306E+00
 -1      5073 1.94306E+00
 -1      5075 1.94306E+00
 -1      5076 1.94306E+00
 -1      5078 1.94306E+00
 -1      5079 1.94306E+00
 -1      5081 1.94306E+00
 -1      5082 1.94306E+00
 -1      5084 1.94306E+00
 -1      5085 1.94306E+00
 -1      5087 1.94306E+00
 -1      5088 1.94306E+00
 -1      5090 1.94306E+00
 -1      5092 1.79799E+00
 -1      5093 1.87053E+00
 -1      5095 1.79799E+00
 -1      5096 1.87053E+00
 -1      5098 1.79799E+00
 -1      5099 1.87053E+00
 -1      5101 1.79799E+00
 -1      5102 1.87053E+00
 -1      5104 1.79799E+00
 -1      5105 1.87053E+00
 -1      5107 1.79799E+00
 -1      5108 1.87053E+00
 -1      5110 1.79799E+00
 -1      5111 1.87053E+00
 -1      5113 1.79799E+00
 -1      5114 1.87053E+00
 -1      5116 1.79799E+00
 -1      5117 1.87053E+00
 -1      5119 1.79799E+00
 -1      5121 1.63849E+00
 -1      5122 1.71824E+00
 -1      5124 1.63849E+00
 -1      5125 1.71824E+00
 -1      5127 1.63849E+00
 -1      5128 1.71824E+00
 -1      5130 1.63849E+00
 -1      5131 1.71824E+00
 -1      5133 1.63849E+00
 -1      5134 1.71824E+00
 -1      5136 1.63849E+00
 -1      5137 1.71824E+00
 -1      5139 1.63849E+00
 -1      5140 1.71824E+00
 -1      5142 1.63849E+00
 -1      5143 1.71824E+00
 -1      5145 1.63849E+00
 -1      5146 1.71824E+00
 -1      5148 1.63849E+00
 -1      5150 1.50033E+00
 -1      5151 1.56941E+00
 -1      5153 1.50033E+00
 -1      5154 1.56941E+00
 -1      5156 1.50033E+00
 -1      5157 1.56941E+00
 -1      5159 1.50033E+00
 -1      5160 1.56941E+00
 -1      5162 1.50033E+00
 -1      5163 1.56941E+00
 -1      5165 1.50033E+00
 -1      5166 1.56941E+00
 -1      5168 1.50033E+00
 -1      5169 1.56941E+00
 -1      5171 1.50033E+00
 -1      5172 1.56941E+00
 -1      5174 1.50033E+00
 -1      5175 1.56941E+00
 -1      5177 1.50033E+00
 -1      5179 1.37959E+00
 -1      5180 1.43996E+00
 -1      5182 1.37959E+00
 -1      5183 1.43996E+00
 -1      5185 1.37959E+00
 -1      5186 1.43996E+00
 -1      5188 1.37959E+00
 -1      5189 1.43996E+00
 -1      5191 1.37959E+00
 -1      5192 1.43996E+00
 -1      5194 1.37959E+00
 -1      5195 1.43996E+00
 -1      5197 1.37959E+00
 -1      5198 1.43996E+00
 -1      5200 1.37959E+00
 -1      5201 1.43996E+00
 -1      5203 1.37959E+00
 -1      5204 1.43996E+00
 -1      5206 1.37959E+00
 -1      5208 1.27307E+00
 -1      5209 1.32633E+00
 -1      5211 1.27307E+00
 -1      5212 1.32633E+00
 -1      5214 1.27307E+00
 -1      5215 1.32633E+00
 -1      5217 1.27307E+00
 -1      5218 1.32633E+00
 -1      5220 1.27307E+00
 -1      5221 1.32633E+00
 -1      5223 1.27307E+00
 -1      5224 1.32633E+00
 -1      5226 1.27307E+00
 -1      5227 1.32633E+00
 -1      5229 1.27307E+00
 -1      5230 1.32633E+00
 -1      5232 1.27307E+00
 -1      5233 1.32633E+00
 -1      5235 1.27307E+00
 -1      5237 1.17837E+00
 -1      5238 1.22572E+00
 -1      5240 1.17837E+00
 -1      5241 1.22572E+00
 -1      5243 1.17837E+00
 -1      5244 1.22572E+00
 -1      5246 1.17837E+00
 -1      5247 1.22572E+00
 -1      5249 1.17837E+00
 -1      5250 1.22572E+00
 -1      5252 1.17837E+00
 -1      5253 1.22572E+00
 -1      5255 1.17837E+00
 -1      5256 1.22572E+00
 -1      5258 1.17837E+00
 -1      5259 1.22572E+00
 -1      5261 1.17837E+00
 -1      5262 1.22572E+00
 -1      5264 1.17837E+00
 -1      5266 1.09363E+00
 -1      5267 1.13600E+00
 -1      5269 1.09363E+00
 -1      5270 1.13600E+00
 -1      5272 1.09363E+00
 -1      5273 1.13600E+00
 -1      5275 1.09363E+00
 -1      5276 1.13600E+00
 -1      5278 1.09363E+00
 -1      5279 1.13600E+00
 -1      5281 1.09363E+00
 -1      5282 1.13600E+00
 -1      5284 1.09363E+00
 -1      5285 1.13600E+00
 -1      5287 1.09363E+00
 -1      5288 1.13600E+00
 -1      5290 1.09363E+00
 -1      5291 1.13600E+00
 -1      5293 1.09363E+00
 -1      5295 1.01737E+00
 -1      5296 1.05550E+00
 -1      5298 1.01737E+00
 -1      5299 1.05550E+00
 -1      5301 1.01737E+00
 -1      5302 1.05550E+00
 -1      5304 1.01737E+00
 -1      5305 1.05550E+00
 -1      5307 1.01737E+00
 -1      5308 1.05550E+00
 -1      5310 1.01737E+00
 -1      5311 1.05550E+00
 -1      5313 1.01737E+00
 -1      5314 1.05550E+00
 -1      5316 1.01737E+00
 -1      5317 1.05550E+00
 -1      5319 1.01737E+00
 -1      5320 1.05550E+00
 -1      5322 1.01737E+00
 -1      5324 9.48385E-01
 -1      5325 9.82877E-01
 -1      5327 9.48385E-01
 -1      5328 9.82877E-01
 -1      5330 9.48385E-01
 -1      5331 9.82877E-01
 -1      5333 9.48385E-01
 -1      5334 9.82877E-01
 -1      5336 9.48385E-01
 -1      5337 9.82877E-01
 -1      5339 9.48385E-01
 -1      5340 9.82877E-01
 -1      5342 9.48385E-01
 -1      5343 9.82877E-01
 -1      5345 9.48385E-01
 -1      5346 9.82877E-01
 -1      5348 9.48385E-01
 -1      5349 9.82877E-01
 -1      5351 9.48385E-01
 -1      5353 8.85716E-01
 -1      5354 9.17050E-01
 -1      5356 8.85716E-01
 -1      5357 9.17050E-01
 -1      5359 8.85716E-01
 -1      5360 9.17050E-01
 -1      5362 8.85716E-01
 -1      5363 9.17050E-01
 -1      5365 8.85716E-01
 -1      5366 9.17050E-01
 -1      5368 8.85716E-01
 -1      5369 9.17050E-01
 -1      5371 8.85716E-01
 -1      5372 9.17050E-01
 -1      5374 8.85716E-01
 -1      5375 9.17050E-01
 -1      5377 8.85716E-01
 -1      5378 9.17050E-01
 -1      5380 8.85716E-01
 -1      5382 8.28565E-01
 -1      5383 8.57140E-01
 -1      5385 8.28565E-01
 -1      5386 8.57140E-01
 -1      5388 8.28565E-01
 -1      5389 8.57140E-01
 -1      5391 8.28565E-01
 -1      5392 8.57140E-01
 -1      5394 8.28565E-01
 -1      5395 8.57140E-01
 -1      5397 8.28565E-01
 -1      5398 8.57140E-01
 -1      5400 8.28565E-01
 -1      5401 8.57140E-01
 -1      5403 8.28565E-01
 -1      5404 8.57140E-01
 -1      5406 8.28565E-01
 -1      5407 8.57140E-01
 -1      5409 8.28565E-01
 -1      5411 7.76270E-01
 -1      5412 8.02417E-01
 -1      5414 7.76270E-01
 -1      5415 8.02417E-01
 -1      5417 7.76270E-01
 -1      5418 8.02417E-01
 -1      5420 7.76270E-01
 -1      5421 8.02417E-01
 -1      5423 7.76270E-01
 -1      5424 8.02417E-01
 -1      5426 7.76270E-01
 -1      5427 8.02417E-01
 -1      5429 7.76270E-01
 -1      5430 8.02417E-01
 -1      5432 7.76270E-01
 -1      5433 8.02417E-01
 -1      5435 7.76270E-01
 -1      5436 8.02417E-01
 -1      5438 7.76270E-01
 -1      5440 7.28276E-01
 -1      5441 7.52273E-01
 -1      5443 7.28276E-01
 -1      5444 7.52273E-01
 -1      5446 7.28276E-01
 -1      5447 7.52273E-01
 -1      5449 7.28276E-01
 -1      5450 7.52273E-01
 -1      5452 7.28276E-01
 -1      5453 7.52273E-01
 -1      5455 7.28276E-01
 -1      5456 7.52273E-01
 -1      5458 7.28276E-01
 -1      5459 7.52273E-01
 -1      5461 7.28276E-01
 -1      5462 7.52273E-01
 -1      5464 7.28276E-01
 -1      5465 7.52273E-01
 -1      5467 7.28276E-01
 -1      5469 6.84113E-01
 -1      5470 7.06194E-01
 -1      5472 6.84113E-01
 -1      5473 7.06194E-01
 -1      5475 6.84113E-01
 -1      5476 7.06194E-01
 -1      5478 6.84113E-01
 -1      5479 7.06194E-01
 -1      5481 6.84113E-01
 -1      5482 7.06194E-01
 -1      5484 6.84113E-01
 -1      5485 7.06194E-01
 -1      5487 6.84113E-01
 -1      5488 7.06194E-01
 -1      5490 6.84113E-01
 -1      5491 7.06194E-01
 -1      5493 6.84113E-01
 -1      5494 7.06194E-01
 -1      5496 6.84113E-01
 -1      5498 6.43378E-01
 -1      5499 6.63745E-01
 -1      5501 6.43378E-01
 -1      5502 6.63745E-01
 -1      5504 6.43378E-01
 -1      5505 6.63745E-01
 -1      5507 6.43378E-01
 -1      5508 6.63745E-01
 -1      5510 6.43378E-01
 -1      5511 6.63745E-01
 -1      5513 6.43378E-01
 -1      5514 6.63745E-01
 -1      5516 6.43378E-01
 -1      5517 6.63745E-01
 -1      5519 6.43378E-01
 -1      5520 6.63745E-01
 -1      5522 6.43378E-01
 -1      5523 6.63745E-01
 -1      5525 6.43378E-01
 -1      5527 6.05725E-01
 -1      5528 6.24551E-01
 -1      5530 6.05725E-01
 -1      5531 6.24551E-01
 -1      5533 6.05725E-01
 -1      5534 6.24551E-01
 -1      5536 6.05725E-01
 -1      5537 6.24551E-01
 -1      5539 6.05725E-01
 -1      5540 6.24551E-01
 -1      5542 6.05725E-01
 -1      5543 6.24551E-01
 -1      5545 6.05725E-01
 -1      5546 6.24551E-01
 -1      5548 6.05725E-01
 -1      5549 6.24551E-01
 -1      5551 6.05725E-01
 -1      5552 6.24551E-01
 -1      5554 6.05725E-01
 -1      5556 5.70855E-01
 -1      5557 5.88290E-01
 -1      5559 5.70855E-01
 -1      5560 5.88290E-01
 -1      5562 5.70855E-01
 -1      5563 5.88290E-01
 -1      5565 5.70855E-01
 -1      5566 5.88290E-01
 -1      5568 5.70855E-01
 -1      5569 5.88290E-01
 -1      5571 5.70855E-01
 -1      5572 5.88290E-01
 -1      5574 5.70855E-01
 -1      5575 5.88290E-01
 -1      5577 5.70855E-01
 -1      5578 5.88290E-01
 -1      5580 5.70855E-01
 -1      5581 5.88290E-01
 -1      5583 5.70855E-01
 -1      5585 5.38507E-01
 -1      5586 5.54681E-01
 -1      5588 5.38507E-01
 -1      5589 5.54681E-01
 -1      5591 5.38507E-01
 -1      5592 5.54681E-01
 -1      5594 5.38507E-01
 -1      5595 5.54681E-01
 -1      5597 5.38507E-01
 -1      5598 5.54681E-01
 -1      5600 5.38507E-01
 -1      5601 5.54681E-01
 -1      5603 5.38507E-01
 -1      5604 5.54681E-01
 -1      5606 5.38507E-01
 -1      5607 5.54681E-01
 -1      5609 5.38507E-01
 -1      5610 5.54681E-01
 -1      5612 5.38507E-01
 -1      5614 5.08450E-01
 -1      5615 5.23478E-01
 -1      5617 5.08450E-01
 -1      5618 5.23478E-01
 -1      5620 5.08450E-01
 -1      5621 5.23478E-01
 -1      5623 5.08450E-01
 -1      5624 5.23478E-01
 -1      5626 5.08450E-01
 -1      5627 5.23478E-01
 -1      5629 5.08450E-01
 -1      5630 5.23478E-01
 -1      5632 5.08450E-01
 -1      5633 5.23478E-01
 -1      5635 5.08450E-01
 -1      5636 5.23478E-01
 -1      5638 5.08450E-01
 -1      5639 5.23478E-01
 -1      5641 5.08450E-01
 -1      5643 4.80482E-01
 -1      5644 4.94466E-01
 -1      5646 4.80482E-01
 -1      5647 4.94466E-01
 -1      5649 4.80482E-01
 -1      5650 4.94466E-01
 -1      5652 4.80482E-01
 -1      5653 4.94466E-01
 -1      5655 4.80482E-01
 -1      5656 4.94466E-01
 -1      5658 4.80482E-01
 -1      5659 4.94466E-01
 -1      5661 4.80482E-01
 -1      5662 4.94466E-01
 -1      5664 4.80482E-01
 -1      5665 4.94466E-01
 -1      5667 4.80482E-01
 -1      5668 4.94466E-01
 -1      5670 4.80482E-01
 -1      5672 4.54424E-01
 -1      5673 4.67453E-01
 -1      5675 4.54424E-01
 -1      5676 4.67453E-01
 -1      5678 4.54424E-01
 -1      5679 4.67453E-01
 -1      5681 4.54424E-01
 -1      5682 4.67453E-01
 -1      5684 4.54424E-01
 -1      5685 4.67453E-01
 -1      5687 4.54424E-01
 -1      5688 4.67453E-01
 -1      5690 4.54424E-01
 -1      5691 4.67453E-01
 -1      5693 4.54424E-01
 -1      5694 4.67453E-01
 -1      5696 4.54424E-01
 -1      5697 4.67453E-01
 -1      5699 4.54424E-01
 -1      5701 4.30116E-01
 -1      5702 4.42270E-01
 -1      5704 4.30116E-01
 -1      5705 4.42270E-01
 -1      5707 4.30116E-01
 -1      5708 4.42270E-01
 -1      5710 4.30116E-01
 -1      5711 4.42270E-01
 -1      5713 4.30116E-01
 -1      5714 4.42270E-01
 -1      5716 4.30116E-01
 -1      5717 4.42270E-01
 -1      5719 4.30116E-01
 -1      5720 4.42270E-01
 -1      5722 4.30116E-01
 -1      5723 4.42270E-01
 -1      5725 4.30116E-01
 -1      5726 4.42270E-01
 -1      5728 4.30116E-01
 -1      5730 4.07414E-01
 -1      5731 4.18765E-01
 -1      5733 4.07414E-01
 -1      5734 4.18765E-01
 -1      5736 4.07414E-01
 -1      5737 4.18765E-01
 -1      5739 4.07414E-01
 -1      5740 4.18765E-01
 -1      5742 4.07414E-01
 -1      5743 4.18765E-01
 -1      5745 4.07414E-01
 -1      5746 4.18765E-01
 -1      5748 4.07414E-01
 -1      5749 4.18765E-01
 -1      5751 4.07414E-01
 -1      5752 4.18765E-01
 -1      5754 4.07414E-01
 -1      5755 4.18765E-01
 -1      5757 4.07414E-01
 -1      5759 3.86188E-01
 -1      5760 3.96801E-01
 -1      5762 3.86188E-01
 -1      5763 3.96801E-01
 -1      5765 3.86188E-01
 -1      5766 3.96801E-01
 -1      5768 3.86188E-01
 -1      5769 3.96801E-01
 -1      5771 3.86189E-01
 -1      5772 3.96801E-01
 -1      5774 3.86188E-01
 -1      5775 3.96801E-01
 -1      5777 3.86188E-01
 -1      5778 3.96801E-01
 -1      5780 3.86189E-01
 -1      5781 3.96801E-01
 -1      5783 3.86189E-01
 -1      5784 3.96801E-01
 -1      5786 3.86188E-01
 -1      5788 3.66332E-01
 -1      5789 3.76260E-01
 -1      5791 3.66332E-01
 -1      5792 3.76260E-01
 -1      5794 3.66332E-01
 -1      5795 3.76260E-01
 -1      5797 3.66332E-01
 -1      5798 3.76260E-01
 -1      5800 3.66332E-01
 -1      5801 3.76260E-01
 -1      5803 3.66332E-01
 -1      5804 3.76260E-01
 -1      5806 3.66332E-01
 -1      5807 3.76260E-01
 -1      5809 3.66332E-01
 -1      5810 3.76260E-01
 -1      5812 3.66332E-01
 -1      5813 3.76260E-01
 -1      5815 3.66332E-01
 -1      5817 3.47708E-01
 -1      5818 3.57020E-01
 -1      5820 3.47708E-01
 -1      5821 3.57020E-01
 -1      5823 3.47708E-01
 -1      5824 3.57020E-01
 -1      5826 3.47708E-01
 -1      5827 3.57020E-01
 -1      5829 3.47708E-01
 -1      5830 3.57020E-01
 -1      5832 3.47708E-01
 -1      5833 3.57020E-01
 -1      5835 3.47708E-01
 -1      5836 3.57020E-01
 -1      5838 3.47708E-01
 -1      5839 3.57020E-01
 -1      5841 3.47708E-01
 -1      5842 3.57020E-01
 -1      5844 3.47708E-01
 -1      5846 3.30356E-01
 -1      5847 3.39032E-01
 -1      5849 3.30356E-01
 -1      5850 3.39032E-01
 -1      5852 3.30356E-01
 -1      5853 3.39032E-01
 -1      5855 3.30356E-01
 -1      5856 3.39032E-01
 -1      5858 3.30356E-01
 -1      5859 3.39032E-01
 -1      5861 3.30356E-01
 -1      5862 3.39032E-01
 -1      5864 3.30356E-01
 -1      5865 3.39032E-01
 -1      5867 3.30356E-01
 -1      5868 3.39032E-01
 -1      5870 3.30357E-01
 -1      5871 3.39032E-01
 -1      5873 3.30357E-01
 -1      5875 3.20347E-01
 -1      5876 3.25351E-01
 -1      5878 3.20347E-01
 -1      5879 3.25352E-01
 -1      5881 3.20347E-01
 -1      5882 3.25352E-01
 -1      5884 3.20350E-01
 -1      5885 3.25355E-01
 -1      5887 3.20360E-01
 -1      5888 3.25362E-01
 -1      5890 3.20367E-01
 -1      5891 3.25362E-01
 -1      5893 3.20358E-01
 -1      5894 3.25353E-01
 -1      5896 3.20360E-01
 -1      5897 3.25364E-01
 -1      5899 3.20373E-01
 -1      5900 3.25366E-01
 -1      5902 3.20375E-01
 -1      5904 3.20347E-01
 -1      5906 3.20347E-01
 -1      5908 3.20347E-01
 -1      5910 3.20353E-01
 -1      5912 3.20367E-01
 -1      5914 3.20367E-01
 -1      5916 3.20349E-01
 -1      5918 3.20371E-01
 -1      5920 3.20375E-01
 -1      5923 1.94306E+00
 -1      5924 1.94301E+00
 -1      5925 1.94299E+00
 -1      5926 1.94299E+00
 -1      5927 1.94299E+00
 -1      5928 1.94299E+00
 -1      5929 1.94299E+00
 -1      5930 1.94299E+00
 -1      5931 1.94301E+00
 -1      5932 1.94306E+00
 -1      5933 1.94306E+00
 -1      5934 1.94301E+00
 -1      5935 1.94299E+00
 -1      5936 1.94299E+00
 -1      5937 1.94299E+00
 -1      5938 1.94299E+00
 -1      5939 1.94299E+00
 -1      5940 1.94299E+00
 -1      5941 1.94301E+00
 -1      5942 1.94306E+00
 -1      5943 1.94306E+00
 -1      5944 1.94301E+00
 -1      5945 1.94299E+00
 -1      5946 1.94299E+00
 -1      5947 1.94299E+00
 -1      5948 1.94299E+00
 -1      5949 1.94299E+00
 -1      5950 1.94299E+00
 -1      5951 1.94301E+00
 -1      5952 1.94306E+00
 -1      5953 1.94306E+00
 -1      5954 1.94301E+00
 -1      5955 1.94299E+00
 -1      5956 1.94299E+00
 -1      5957 1.94299E+00
 -1      5958 1.94299E+00
 -1      5959 1.94299E+00
 -1      5960 1.94299E+00
 -1      5961 1.94301E+00
 -1      5962 1.94306E+00
 -1      5963 1.94306E+00
 -1      5964 1.94301E+00
 -1      5965 1.94299E+00
 -1      5966 1.94299E+00
 -1      5967 1.94299E+00
 -1      5968 1.94299E+00
 -1      5969 1.94299E+00
 -1      5970 1.94299E+00
 -1      5971 1.94301E+00
 -1      5972 1.94306E+00
 -1      5973 1.94306E+00
 -1      5974 1.94301E+00
 -1      5975 1.94299E+00
 -1      5976 1.94299E+00
 -1      5977 1.94299E+00
 -1      5978 1.94299E+00
 -1      5979 1.94299E+00
 -1      5980 1.94299E+00
 -1      5981 1.94301E+00
 -1      5982 1.94306E+00
 -1      5983 1.94306E+00
 -1      5984 1.94301E+00
 -1      5985 1.94299E+00
 -1      5986 1.94299E+00
 -1      5987 1.94299E+00
 -1      5988 1.94299E+00
 -1      5989 1.94299E+00
 -1      5990 1.94299E+00
 -1      5991 1.94301E+00
 -1      5992 1.94306E+00
 -1      5993 1.94306E+00
 -1      5994 1.94301E+00
 -1      5995 1.94299E+00
 -1      5996 1.94299E+00
 -1      5997 1.94299E+00
 -1      5998 1.94299E+00
 -1      5999 1.94299E+00
 -1      6000 1.94299E+00
 -1      6001 1.94301E+00
 -1      6002 1.94306E+00
 -1      6003 1.94306E+00
 -1      6004 1.94301E+00
 -1      6005 1.94299E+00
 -1      6006 1.94299E+00
 -1      6007 1.94299E+00
 -1      6008 1.94299E+00
 -1      6009 1.94299E+00
 -1      6010 1.94299E+00
 -1      6011 1.94301E+00
 -1      6012 1.94306E+00
 -1      6013 1.79799E+00
 -1      6014 1.79796E+00
 -1      6015 1.79796E+00
 -1      6016 1.79796E+00
 -1      6017 1.79796E+00
 -1      6018 1.79796E+00
 -1      6019 1.79796E+00
 -1      6020 1.79796E+00
 -1      6021 1.79796E+00
 -1      6022 1.79799E+00
 -1      6023 1.79799E+00
 -1      6024 1.79796E+00
 -1      6025 1.79796E+00
 -1      6026 1.79796E+00
 -1      6027 1.79796E+00
 -1      6028 1.79796E+00
 -1      6029 1.79796E+00
 -1      6030 1.79796E+00
 -1      6031 1.79796E+00
 -1      6032 1.79799E+00
 -1      6033 1.79799E+00
 -1      6034 1.79796E+00
 -1      6035 1.79796E+00
 -1      6036 1.79796E+00
 -1      6037 1.79796E+00
 -1      6038 1.79796E+00
 -1      6039 1.79796E+00
 -1      6040 1.79796E+00
 -1      6041 1.79796E+00
 -1      6042 1.79799E+00
 -1      6043 1.79799E+00
 -1      6044 1.79796E+00
 -1      6045 1.79796E+00
 -1      6046 1.79796E+00
 -1      6047 1.79796E+00
 -1      6048 1.79796E+00
 -1      6049 1.79796E+00
 -1      6050 1.79796E+00
 -1      6051 1.79796E+00
 -1      6052 1.79799E+00
 -1      6053 1.79799E+00
 -1      6054 1.79796E+00
 -1      6055 1.79796E+00
 -1      6056 1.79796E+00
 -1      6057 1.79796E+00
 -1      6058 1.79796E+00
 -1      6059 1.79796E+00
 -1      6060 1.79796E+00
 -1      6061 1.79796E+00
 -1      6062 1.79799E+00
 -1      6063 1.79799E+00
 -1      6064 1.79796E+00
 -1      6065 1.79796E+00
 -1      6066 1.79796E+00
 -1      6067 1.79796E+00
 -1      6068 1.79796E+00
 -1      6069 1.79796E+00
 -1      6070 1.79796E+00
 -1      6071 1.79796E+00
 -1      6072 1.79799E+00
 -1      6073 1.79799E+00
 -1      6074 1.79796E+00
 -1      6075 1.79796E+00
 -1      6076 1.79796E+00
 -1      6077 1.79796E+00
 -1      6078 1.79796E+00
 -1      6079 1.79796E+00
 -1      6080 1.79796E+00
 -1      6081 1.79796E+00
 -1      6082 1.79799E+00
 -1      6083 1.79799E+00
 -1      6084 1.79796E+00
 -1      6085 1.79796E+00
 -1      6086 1.79796E+00
 -1      6087 1.79796E+00
 -1      6088 1.79796E+00
 -1      6089 1.79796E+00
 -1      6090 1.79796E+00
 -1      6091 1.79796E+00
 -1      6092 1.79799E+00
 -1      6093 1.79799E+00
 -1      6094 1.79796E+00
 -1      6095 1.79796E+00
 -1      6096 1.79796E+00
 -1      6097 1.79796E+00
 -1      6098 1.79796E+00
 -1      6099 1.79796E+00
 -1      6100 1.79796E+00
 -1      6101 1.79796E+00
 -1      6102 1.79799E+00
 -1      6103 1.63850E+00
 -1      6104 1.63850E+00
 -1      6105 1.63850E+00
 -1      6106 1.63850E+00
 -1      6107 1.63850E+00
 -1      6108 1.63850E+00
 -1      6109 1.63850E+00
 -1      6110 1.63850E+00
 -1      6111 1.63850E+00
 -1      6112 1.63850E+00
 -1      6113 1.63850E+00
 -1      6114 1.63850E+00
 -1      6115 1.63850E+00
 -1      6116 1.63850E+00
 -1      6117 1.63850E+00
 -1      6118 1.63850E+00
 -1      6119 1.63850E+00
 -1      6120 1.63850E+00
 -1      6121 1.63850E+00
 -1      6122 1.63850E+00
 -1      6123 1.63850E+00
 -1      6124 1.63850E+00
 -1      6125 1.63850E+00
 -1      6126 1.63850E+00
 -1      6127 1.63850E+00
 -1      6128 1.63850E+00
 -1      6129 1.63850E+00
 -1      6130 1.63850E+00
 -1      6131 1.63850E+00
 -1      6132 1.63850E+00
 -1      6133 1.63850E+00
 -1      6134 1.63850E+00
 -1      6135 1.63850E+00
 -1      6136 1.63850E+00
 -1      6137 1.63850E+00
 -1      6138 1.63850E+00
 -1      6139 1.63850E+00
 -1      6140 1.63850E+00
 -1      6141 1.63850E+00
 -1      6142 1.63850E+00
 -1      6143 1.63850E+00
 -1      6144 1.63850E+00
 -1      6145 1.63850E+00
 -1      6146 1.63850E+00
 -1      6147 1.63850E+00
 -1      6148 1.63850E+00
 -1      6149 1.63850E+00
 -1      6150 1.63850E+00
 -1      6151 1.63850E+00
 -1      6152 1.63850E+00
 -1      6153 1.63850E+00
 -1      6154 1.63850E+00
 -1      6155 1.63850E+00
 -1      6156 1.63850E+00
 -1      6157 1.63850E+00
 -1      6158 1.63850E+00
 -1      6159 1.63850E+00
 -1      6160 1.63850E+00
 -1      6161 1.63850E+00
 -1      6162 1.63850E+00
 -1      6163 1.63850E+00
 -1      6164 1.63850E+00
 -1      6165 1.63850E+00
 -1      6166 1.63850E+00
 -1      6167 1.63850E+00
 -1      6168 1.63850E+00
 -1      6169 1.63850E+00
 -1      6170 1.63850E+00
 -1      6171 1.63850E+00
 -1      6172 1.63850E+00
 -1      6173 1.63850E+00
 -1      6174 1.63850E+00
 -1      6175 1.63850E+00
 -1      6176 1.63850E+00
 -1      6177 1.63850E+00
 -1      6178 1.63850E+00
 -1      6179 1.63850E+00
 -1      6180 1.63850E+00
 -1      6181 1.63850E+00
 -1      6182 1.63850E+00
 -1      6183 1.63850E+00
 -1      6184 1.63850E+00
 -1      6185 1.63850E+00
 -1      6186 1.63850E+00
 -1      6187 1.63850E+00
 -1      6188 1.63850E+00
 -1      6189 1.63850E+00
 -1      6190 1.63850E+00
 -1      6191 1.63850E+00
 -1      6192 1.63850E+00
 -1      6193 1.50033E+00
 -1      6194 1.50032E+00
 -1      6195 1.50032E+00
 -1      6196 1.50032E+00
 -1      6197 1.50032E+00
 -1      6198 1.50032E+00
 -1      6199 1.50032E+00
 -1      6200 1.50032E+00
 -1      6201 1.50032E+00
 -1      6202 1.50033E+00
 -1      6203 1.50033E+00
 -1      6204 1.50032E+00
 -1      6205 1.50032E+00
 -1      6206 1.50032E+00
 -1      6207 1.50032E+00
 -1      6208 1.50032E+00
 -1      6209 1.50032E+00
 -1      6210 1.50032E+00
 -1      6211 1.50032E+00
 -1      6212 1.50033E+00
 -1      6213 1.50033E+00
 -1      6214 1.50032E+00
 -1      6215 1.50032E+00
 -1      6216 1.50032E+00
 -1      6217 1.50032E+00
 -1      6218 1.50032E+00
 -1      6219 1.50032E+00
 -1      6220 1.50032E+00
 -1      6221 1.50032E+00
 -1      6222 1.50033E+00
 -1      6223 1.50033E+00
 -1      6224 1.50032E+00
 -1      6225 1.50032E+00
 -1      6226 1.50032E+00
 -1      6227 1.50032E+00
 -1      6228 1.50032E+00
 -1      6229 1.50032E+00
 -1      6230 1.50032E+00
 -1      6231 1.50032E+00
 -1      6232 1.50033E+00
 -1      6233 1.50033E+00
 -1      6234 1.50032E+00
 -1      6235 1.50032E+00
 -1      6236 1.50032E+00
 -1      6237 1.50032E+00
 -1      6238 1.50032E+00
 -1      6239 1.50032E+00
 -1      6240 1.50032E+00
 -1      6241 1.50032E+00
 -1      6242 1.50033E+00
 -1      6243 1.50033E+00
 -1      6244 1.50032E+00
 -1      6245 1.50032E+00
 -1      6246 1.50032E+00
 -1      6247 1.50032E+00
 -1      6248 1.50032E+00
 -1      6249 1.50032E+00
 -1      6250 1.50032E+00
 -1      6251 1.50032E+00
 -1      6252 1.50033E+00
 -1      6253 1.50033E+00
 -1      6254 1.50032E+00
 -1      6255 1.50032E+00
 -1      6256 1.50032E+00
 -1      6257 1.50032E+00
 -1      6258 1.50032E+00
 -1      6259 1.50032E+00
 -1      6260 1.50032E+00
 -1      6261 1.50032E+00
 -1      6262 1.50033E+00
 -1      6263 1.50033E+00
 -1      6264 1.50032E+00
 -1      6265 1.50032E+00
 -1      6266 1.50032E+00
 -1      6267 1.50032E+00
 -1      6268 1.50032E+00
 -1      6269 1.50032E+00
 -1      6270 1.50032E+00
 -1      6271 1.50032E+00
 -1      6272 1.50033E+00
 -1      6273 1.50033E+00
 -1      6274 1.50032E+00
 -1      6275 1.50032E+00
 -1      6276 1.50032E+00
 -1      6277 1.50032E+00
 -1      6278 1.50032E+00
 -1      6279 1.50032E+00
 -1      6280 1.50032E+00
 -1      6281 1.50032E+00
 -1      6282 1.50033E+00
 -1      6283 1.37959E+00
 -1      6284 1.37959E+00
 -1      6285 1.37959E+00
 -1      6286 1.37959E+00
 -1      6287 1.37959E+00
 -1      6288 1.37959E+00
 -1      6289 1.37959E+00
 -1      6290 1.37959E+00
 -1      6291 1.37959E+00
 -1      6292 1.37959E+00
 -1      6293 1.37959E+00
 -1      6294 1.37959E+00
 -1      6295 1.37959E+00
 -1      6296 1.37959E+00
 -1      6297 1.37959E+00
 -1      6298 1.37959E+00
 -1      6299 1.37959E+00
 -1      6300 1.37959E+00
 -1      6301 1.37959E+00
 -1      6302 1.37959E+00
 -1      6303 1.37959E+00
 -1      6304 1.37959E+00
 -1      6305 1.37959E+00
 -1      6306 1.37959E+00
 -1      6307 1.37959E+00
 -1      6308 1.37959E+00
 -1      6309 1.37959E+00
 -1      6310 1.37959E+00
 -1      6311 1.37959E+00
 -1      6312 1.37959E+00
 -1      6313 1.37959E+00
 -1      6314 1.37959E+00
 -1      6315 1.37959E+00
 -1      6316 1.37959E+00
 -1      6317 1.37959E+00
 -1      6318 1.37959E+00
 -1      6319 1.37959E+00
 -1      6320 1.37959E+00
 -1      6321 1.37959E+00
 -1      6322 1.37959E+00
 -1      6323 1.37959E+00
 -1      6324 1.37959E+00
 -1      6325 1.37959E+00
 -1      6326 1.37959E+00
 -1      6327 1.37959E+00
 -1      6328 1.37959E+00
 -1      6329 1.37959E+00
 -1      6330 1.37959E+00
 -1      6331 1.37959E+00
 -1      6332 1.37959E+00
 -1      6333 1.37959E+00
 -1      6334 1.37959E+00
 -1      6335 1.37959E+00
 -1      6336 1.37959E+00
 -1      6337 1.37959E+00
 -1      6338 1.37959E+00
 -1      6339 1.37959E+00
 -1      6340 1.37959E+00
 -1      6341 1.37959E+00
 -1      6342 1.37959E+00
 -1      6343 1.37959E+00
 -1      6344 1.37959E+00
 -1      6345 1.37959E+00
 -1      6346 1.37959E+00
 -1      6347 1.37959E+00
 -1      6348 1.37959E+00
 -1      6349 1.37959E+00
 -1      6350 1.37959E+00
 -1      6351 1.37959E+00
 -1      6352 1.37959E+00
 -1      6353 1.37959E+00
 -1      6354 1.37959E+00
 -1      6355 1.37959E+00
 -1      6356 1.37959E+00
 -1      6357 1.37959E+00
 -1      6358 1.37959E+00
 -1      6359 1.37959E+00
 -1      6360 1.37959E+00
 -1      6361 1.37959E+00
 -1      6362 1.37959E+00
 -1      6363 1.37959E+00
 -1      6364 1.37959E+00
 -1      6365 1.37959E+00
 -1      6366 1.37959E+00
 -1      6367 1.37959E+00
 -1      6368 1.37959E+00
 -1      6369 1.37959E+00
 -1      6370 1.37959E+00
 -1      6371 1.37959E+00
 -1      6372 1.37959E+00
 -1      6373 1.27307E+00
 -1      6374 1.27306E+00
 -1      6375 1.27306E+00
 -1      6376 1.27306E+00
 -1      6377 1.27306E+00
 -1      6378 1.27306E+00
 -1      6379 1.27306E+00
 -1      6380 1.27306E+00
 -1      6381 1.27306E+00
 -1      6382 1.27307E+00
 -1      6383 1.27307E+00
 -1      6384 1.27306E+00
 -1      6385 1.27306E+00
 -1      6386 1.27306E+00
 -1      6387 1.27306E+00
 -1      6388 1.27306E+00
 -1      6389 1.27306E+00
 -1      6390 1.27306E+00
 -1      6391 1.27306E+00
 -1      6392 1.27307E+00
 -1      6393 1.27307E+00
 -1      6394 1.27306E+00
 -1      6395 1.27306E+00
 -1      6396 1.27306E+00
 -1      6397 1.27306E+00
 -1      6398 1.27306E+00
 -1      6399 1.27306E+00
 -1      6400 1.27306E+00
 -1      6401 1.27306E+00
 -1      6402 1.27307E+00
 -1      6403 1.27307E+00
 -1      6404 1.27306E+00
 -1      6405 1.27306E+00
 -1      6406 1.27306E+00
 -1      6407 1.27306E+00
 -1      6408 1.27306E+00
 -1      6409 1.27306E+00
 -1      6410 1.27306E+00
 -1      6411 1.27306E+00
 -1      6412 1.27307E+00
 -1      6413 1.27307E+00
 -1      6414 1.27306E+00
 -1      6415 1.27306E+00
 -1      6416 1.27306E+00
 -1      6417 1.27306E+00
 -1      6418 1.27306E+00
 -1      6419 1.27306E+00
 -1      6420 1.27306E+00
 -1      6421 1.27306E+00
 -1      6422 1.27307E+00
 -1      6423 1.27307E+00
 -1      6424 1.27306E+00
 -1      6425 1.27306E+00
 -1      6426 1.27306E+00
 -1      6427 1.27306E+00
 -1      6428 1.27306E+00
 -1      6429 1.27306E+00
 -1      6430 1.27306E+00
 -1      6431 1.27306E+00
 -1      6432 1.27307E+00
 -1      6433 1.27307E+00
 -1      6434 1.27306E+00
 -1      6435 1.27306E+00
 -1      6436 1.27306E+00
 -1      6437 1.27306E+00
 -1      6438 1.27306E+00
 -1      6439 1.27306E+00
 -1      6440 1.27306E+00
 -1      6441 1.27306E+00
 -1      6442 1.27307E+00
 -1      6443 1.27307E+00
 -1      6444 1.27306E+00
 -1      6445 1.27306E+00
 -1      6446 1.27306E+00
 -1      6447 1.27306E+00
 -1      6448 1.27306E+00
 -1      6449 1.27306E+00
 -1      6450 1.27306E+00
 -1      6451 1.27306E+00
 -1      6452 1.27307E+00
 -1      6453 1.27307E+00
 -1      6454 1.27306E+00
 -1      6455 1.27306E+00
 -1      6456 1.27306E+00
 -1      6457 1.27306E+00
 -1      6458 1.27306E+00
 -1      6459 1.27306E+00
 -1      6460 1.27306E+00
 -1      6461 1.27306E+00
 -1      6462 1.27307E+00
 -1      6463 1.17837E+00
 -1      6464 1.17837E+00
 -1      6465 1.17837E+00
 -1      6466 1.17837E+00
 -1      6467 1.17837E+00
 -1      6468 1.17837E+00
 -1      6469 1.17837E+00
 -1      6470 1.17837E+00
 -1      6471 1.17837E+00
 -1      6472 1.17837E+00
 -1      6473 1.17837E+00
 -1      6474 1.17837E+00
 -1      6475 1.17837E+00
 -1      6476 1.17837E+00
 -1      6477 1.17837E+00
 -1      6478 1.17837E+00
 -1      6479 1.17837E+00
 -1      6480 1.17837E+00
 -1      6481 1.17837E+00
 -1      6482 1.17837E+00
 -1      6483 1.17837E+00
 -1      6484 1.17837E+00
 -1      6485 1.17837E+00
 -1      6486 1.17837E+00
 -1      6487 1.17837E+00
 -1      6488 1.17837E+00
 -1      6489 1.17837E+00
 -1      6490 1.17837E+00
 -1      6491 1.17837E+00
 -1      6492 1.17837E+00
 -1      6493 1.17837E+00
 -1      6494 1.17837E+00
 -1      6495 1.17837E+00
 -1      6496 1.17837E+00
 -1      6497 1.17837E+00
 -1      6498 1.17837E+00
 -1      6499 1.17837E+00
 -1      6500 1.17837E+00
 -1      6501 1.17837E+00
 -1      6502 1.17837E+00
 -1      6503 1.17837E+00
 -1      6504 1.17837E+00
 -1      6505 1.17837E+00
 -1      6506 1.17837E+00
 -1      6507 1.17837E+00
 -1      6508 1.17837E+00
 -1      6509 1.17837E+00
 -1      6510 1.17837E+00
 -1      6511 1.17837E+00
 -1      6512 1.17837E+00
 -1      6513 1.17837E+00
 -1      6514 1.17837E+00
 -1      6515 1.17837E+00
 -1      6516 1.17837E+00
 -1      6517 1.17837E+00
 -1      6518 1.17837E+00
 -1      6519 1.17837E+00
 -1      6520 1.17837E+00
 -1      6521 1.17837E+00
 -1      6522 1.17837E+00
 -1      6523 1.17837E+00
 -1      6524 1.17837E+00
 -1      6525 1.17837E+00
 -1      6526 1.17837E+00
 -1      6527 1.17837E+00
 -1      6528 1.17837E+00
 -1      6529 1.17837E+00
 -1      6530 1.17837E+00
 -1      6531 1.17837E+00
 -1      6532 1.17837E+00
 -1      6533 1.17837E+00
 -1      6534 1.17837E+00
 -1      6535 1.17837E+00
 -1      6536 1.17837E+00
 -1      6537 1.17837E+00
 -1      6538 1.17837E+00
 -1      6539 1.17837E+00
 -1      6540 1.17837E+00
 -1      6541 1.17837E+00
 -1      6542 1.17837E+00
 -1      6543 1.17837E+00
 -1      6544 1.17837E+00
 -1      6545 1.17837E+00
 -1      6546 1.17837E+00
 -1      6547 1.17837E+00
 -1      6548 1.17837E+00
 -1      6549 1.17837E+00
 -1      6550 1.17837E+00
 -1      6551 1.17837E+00
 -1      6552 1.17837E+00
 -1      6553 1.09363E+00
 -1      6554 1.09363E+00
 -1      6555 1.09363E+00
 -1      6556 1.09363E+00
 -1      6557 1.09363E+00
 -1      6558 1.09363E+00
 -1      6559 1.09363E+00
 -1      6560 1.09363E+00
 -1      6561 1.09363E+00
 -1      6562 1.09363E+00
 -1      6563 1.09363E+00
 -1      6564 1.09363E+00
 -1      6565 1.09363E+00
 -1      6566 1.09363E+00
 -1      6567 1.09363E+00
 -1      6568 1.09363E+00
 -1      6569 1.09363E+00
 -1      6570 1.09363E+00
 -1      6571 1.09363E+00
 -1      6572 1.09363E+00
 -1      6573 1.09363E+00
 -1      6574 1.09363E+00
 -1      6575 1.09363E+00
 -1      6576 1.09363E+00
 -1      6577 1.09363E+00
 -1      6578 1.09363E+00
 -1      6579 1.09363E+00
 -1      6580 1.09363E+00
 -1      6581 1.09363E+00
 -1      6582 1.09363E+00
 -1      6583 1.09363E+00
 -1      6584 1.09363E+00
 -1      6585 1.09363E+00
 -1      6586 1.09363E+00
 -1      6587 1.09363E+00
 -1      6588 1.09363E+00
 -1      6589 1.09363E+00
 -1      6590 1.09363E+00
 -1      6591 1.09363E+00
 -1      6592 1.09363E+00
 -1      6593 1.09363E+00
 -1      6594 1.09363E+00
 -1      6595 1.09363E+00
 -1      6596 1.09363E+00
 -1      6597 1.09363E+00
 -1      6598 1.09363E+00
 -1      6599 1.09363E+00
 -1      6600 1.09363E+00
 -1      6601 1.09363E+00
 -1      6602 1.09363E+00
 -1      6603 1.09363E+00
 -1      6604 1.09363E+00
 -1      6605 1.09363E+00
 -1      6606 1.09363E+00
 -1      6607 1.09363E+00
 -1      6608 1.09363E+00
 -1      6609 1.09363E+00
 -1      6610 1.09363E+00
 -1      6611 1.09363E+00
 -1      6612 1.09363E+00
 -1      6613 1.09363E+00
 -1      6614 1.09363E+00
 -1      6615 1.09363E+00
 -1      6616 1.09363E+00
 -1      6617 1.09363E+00
 -1      6618 1.09363E+00
 -1      6619 1.09363E+00
 -1      6620 1.09363E+00
 -1      6621 1.09363E+00
 -1      6622 1.09363E+00
 -1      6623 1.09363E+00
 -1      6624 1.09363E+00
 -1      6625 1.09363E+00
 -1      6626 1.09363E+00
 -1      6627 1.09363E+00
 -1      6628 1.09363E+00
 -1      6629 1.09363E+00
 -1      6630 1.09363E+00
 -1      6631 1.09363E+00
 -1      6632 1.09363E+00
 -1      6633 1.09363E+00
 -1      6634 1.09363E+00
 -1      6635 1.09363E+00
 -1      6636 1.09363E+00
 -1      6637 1.09363E+00
 -1      6638 1.09363E+00
 -1      6639 1.09363E+00
 -1      6640 1.09363E+00
 -1      6641 1.09363E+00
 -1      6642 1.09363E+00
 -1      6643 1.01737E+00
 -1      6644 1.01737E+00
 -1      6645 1.01737E+00
 -1      6646 1.01737E+00
 -1      6647 1.01737E+00
 -1      6648 1.01737E+00
 -1      6649 1.01737E+00
 -1      6650 1.01737E+00
 -1      6651 1.01737E+00
 -1      6652 1.01737E+00
 -1      6653 1.01737E+00
 -1      6654 1.01737E+00
 -1      6655 1.01737E+00
 -1      6656 1.01737E+00
 -1      6657 1.01737E+00
 -1      6658 1.01737E+00
 -1      6659 1.01737E+00
 -1      6660 1.01737E+00
 -1      6661 1.01737E+00
 -1      6662 1.01737E+00
 -1      6663 1.01737E+00
 -1      6664 1.01737E+00
 -1      6665 1.01737E+00
 -1      6666 1.01737E+00
 -1      6667 1.01737E+00
 -1      6668 1.01737E+00
 -1      6669 1.01737E+00
 -1      6670 1.01737E+00
 -1      6671 1.01737E+00
 -1      6672 1.01737E+00
 -1      6673 1.01737E+00
 -1      6674 1.01737E+00
 -1      6675 1.01737E+00
 -1      6676 1.01737E+00
 -1      6677 1.01737E+00
 -1      6678 1.01737E+00
 -1      6679 1.01737E+00
 -1      6680 1.01737E+00
 -1      6681 1.01737E+00
 -1      6682 1.01737E+00
 -1      6683 1.01737E+00
 -1      6684 1.01737E+00
 -1      6685 1.01737E+00
 -1      6686 1.01737E+00
 -1      6687 1.01737E+00
 -1      6688 1.01737E+00
 -1      6689 1.01737E+00
 -1      6690 1.01737E+00
 -1      6691 1.01737E+00
 -1      6692 1.01737E+00
 -1      6693 1.01737E+00
 -1      6694 1.01737E+00
 -1      6695 1.01737E+00
 -1      6696 1.01737E+00
 -1      6697 1.01737E+00
 -1      6698 1.01737E+00
 -1      6699 1.01737E+00
 -1      6700 1.01737E+00
 -1      6701 1.01737E+00
 -1      6702 1.01737E+00
 -1      6703 1.01737E+00
 -1      6704 1.01737E+00
 -1      6705 1.01737E+00
 -1      6706 1.01737E+00
 -1      6707 1.01737E+00
 -1      6708 1.01737E+00
 -1      6709 1.01737E+00
 -1      6710 1.01737E+00
 -1      6711 1.01737E+00
 -1      6712 1.01737E+00
 -1      6713 1.01737E+00
 -1      6714 1.01737E+00
 -1      6715 1.01737E+00
 -1      6716 1.01737E+00
 -1      6717 1.01737E+00
 -1      6718 1.01737E+00
 -1      6719 1.01737E+00
 -1      6720 1.01737E+00
 -1      6721 1.01737E+00
 -1      6722 1.01737E+00
 -1      6723 1.01737E+00
 -1      6724 1.01737E+00
 -1      6725 1.01737E+00
 -1      6726 1.01737E+00
 -1      6727 1.01737E+00
 -1      6728 1.01737E+00
 -1      6729 1.01737E+00
 -1      6730 1.01737E+00
 -1      6731 1.01737E+00
 -1      6732 1.01737E+00
 -1      6733 9.48385E-01
 -1      6734 9.48385E-01
 -1      6735 9.48385E-01
 -1      6736 9.48385E-01
 -1      6737 9.48385E-01
 -1      6738 9.48385E-01
 -1      6739 9.48385E-01
 -1      6740 9.48385E-01
 -1      6741 9.48385E-01
 -1      6742 9.48385E-01
 -1      6743 9.48385E-01
 -1      6744 9.48385E-01
 -1      6745 9.48385E-01
 -1      6746 9.48385E-01
 -1      6747 9.48385E-01
 -1      6748 9.48385E-01
 -1      6749 9.48385E-01
 -1      6750 9.48385E-01
 -1      6751 9.48385E-01
 -1      6752 9.48385E-01
 -1      6753 9.48385E-01
 -1      6754 9.48385E-01
 -1      6755 9.48385E-01
 -1      6756 9.48385E-01
 -1      6757 9.48385E-01
 -1      6758 9.48385E-01
 -1      6759 9.48385E-01
 -1      6760 9.48385E-01
 -1      6761 9.48385E-01
 -1      6762 9.48385E-01
 -1      6763 9.48385E-01
 -1      6764 9.48385E-01
 -1      6765 9.48385E-01
 -1      6766 9.48385E-01
 -1      6767 9.48385E-01
 -1      6768 9.48385E-01
 -1      6769 9.48385E-01
 -1      6770 9.48385E-01
 -1      6771 9.48385E-01
 -1      6772 9.48385E-01
 -1      6773 9.48385E-01
 -1      6774 9.48385E-01
 -1      6775 9.48385E-01
 -1      6776 9.48385E-01
 -1      6777 9.48385E-01
 -1      6778 9.48385E-01
 -1      6779 9.48385E-01
 -1      6780 9.48385E-01
 -1      6781 9.48385E-01
 -1      6782 9.48385E-01
 -1      6783 9.48385E-01
 -1      6784 9.48385E-01
 -1      6785 9.48385E-01
 -1      6786 9.48385E-01
 -1      6787 9.48385E-01
 -1      6788 9.48385E-01
 -1      6789 9.48385E-01
 -1      6790 9.48385E-01
 -1      6791 9.48385E-01
 -1      6792 9.48385E-01
 -1      6793 9.48385E-01
 -1      6794 9.48385E-01
 -1      6795 9.48385E-01
 -1      6796 9.48385E-01
 -1      6797 9.48385E-01
 -1      6798 9.48385E-01
 -1      6799 9.48385E-01
 -1      6800 9.48385E-01
 -1      6801 9.48385E-01
 -1      6802 9.48385E-01
 -1      6803 9.48385E-01
 -1      6804 9.48385E-01
 -1      6805 9.48385E-01
 -1      6806 9.48385E-01
 -1      6807 9.48385E-01
 -1      6808 9.48385E-01
 -1      6809 9.48385E-01
 -1      6810 9.48385E-01
 -1      6811 9.48385E-01
 -1      6812 9.48385E-01
 -1      6813 9.48385E-01
 -1      6814 9.48385E-01
 -1      6815 9.48385E-01
 -1      6816 9.48385E-01
 -1      6817 9.48385E-01
 -1      6818 9.48385E-01
 -1      6819 9.48385E-01
 -1      6820 9.48385E-01
 -1      6821 9.48385E-01
 -1      6822 9.48385E-01
 -1      6823 8.85716E-01
 -1      6824 8.85716E-01
 -1      6825 8.85716E-01
 -1      6826 8.85716E-01
 -1      6827 8.85716E-01
 -1      6828 8.85716E-01
 -1      6829 8.85716E-01
 -1      6830 8.85716E-01
 -1      6831 8.85716E-01
 -1      6832 8.85716E-01
 -1      6833 8.85716E-01
 -1      6834 8.85716E-01
 -1      6835 8.85716E-01
 -1      6836 8.85716E-01
 -1      6837 8.85716E-01
 -1      6838 8.85716E-01
 -1      6839 8.85716E-01
 -1      6840 8.85716E-01
 -1      6841 8.85716E-01
 -1      6842 8.85716E-01
 -1      6843 8.85716E-01
 -1      6844 8.85716E-01
 -1      6845 8.85716E-01
 -1      6846 8.85716E-01
 -1      6847 8.85716E-01
 -1      6848 8.85716E-01
 -1      6849 8.85716E-01
 -1      6850 8.85716E-01
 -1      6851 8.85716E-01
 -1      6852 8.85716E-01
 -1      6853 8.85716E-01
 -1      6854 8.85716E-01
 -1      6855 8.85716E-01
 -1      6856 8.85716E-01
 -1      6857 8.85716E-01
 -1      6858 8.85716E-01
 -1      6859 8.85716E-01
 -1      6860 8.85716E-01
 -1      6861 8.85716E-01
 -1      6862 8.85716E-01
 -1      6863 8.85716E-01
 -1      6864 8.85716E-01
 -1      6865 8.85716E-01
 -1      6866 8.85716E-01
 -1      6867 8.85716E-01
 -1      6868 8.85716E-01
 -1      6869 8.85716E-01
 -1      6870 8.85716E-01
 -1      6871 8.85716E-01
 -1      6872 8.85716E-01
 -1      6873 8.85716E-01
 -1      6874 8.85716E-01
 -1      6875 8.85716E-01
 -1      6876 8.85716E-01
 -1      6877 8.85716E-01
 -1      6878 8.85716E-01
 -1      6879 8.85716E-01
 -1      6880 8.85716E-01
 -1      6881 8.85716E-01
 -1      6882 8.85716E-01
 -1      6883 8.85716E-01
 -1      6884 8.85716E-01
 -1      6885 8.85716E-01
 -1      6886 8.85716E-01
 -1      6887 8.85716E-01
 -1      6888 8.85716E-01
 -1      6889 8.85716E-01
 -1      6890 8.85716E-01
 -1      6891 8.85716E-01
 -1      6892 8.85716E-01
 -1      6893 8.85716E-01
 -1      6894 8.85716E-01
 -1      6895 8.85716E-01
 -1      6896 8.85716E-01
 -1      6897 8.85716E-01
 -1      6898 8.85716E-01
 -1      6899 8.85716E-01
 -1      6900 8.85716E-01
 -1      6901 8.85716E-01
 -1      6902 8.85716E-01
 -1      6903 8.85716E-01
 -1      6904 8.85716E-01
 -1      6905 8.85716E-01
 -1      6906 8.85716E-01
 -1      6907 8.85716E-01
 -1      6908 8.85716E-01
 -1      6909 8.85716E-01
 -1      6910 8.85716E-01
 -1      6911 8.85716E-01
 -1      6912 8.85716E-01
 -1      6913 8.28565E-01
 -1      6914 8.28565E-01
 -1      6915 8.28565E-01
 -1      6916 8.28565E-01
 -1      6917 8.28565E-01
 -1      6918 8.28565E-01
 -1      6919 8.28565E-01
 -1      6920 8.28565E-01
 -1      6921 8.28565E-01
 -1      6922 8.28565E-01
 -1      6923 8.28565E-01
 -1      6924 8.28565E-01
 -1      6925 8.28565E-01
 -1      6926 8.28565E-01
 -1      6927 8.28565E-01
 -1      6928 8.28565E-01
 -1      6929 8.28565E-01
 -1      6930 8.28565E-01
 -1      6931 8.28565E-01
 -1      6932 8.28565E-01
 -1      6933 8.28565E-01
 -1      6934 8.28565E-01
 -1      6935 8.28565E-01
 -1      6936 8.28565E-01
 -1      6937 8.28565E-01
 -1      6938 8.28565E-01
 -1      6939 8.28565E-01
 -1      6940 8.28565E-01
 -1      6941 8.28565E-01
 -1      6942 8.28565E-01
 -1      6943 8.28565E-01
 -1      6944 8.28565E-01
 -1      6945 8.28565E-01
 -1      6946 8.28565E-01
 -1      6947 8.28565E-01
 -1      6948 8.28565E-01
 -1      6949 8.28565E-01
 -1      6950 8.28565E-01
 -1      6951 8.28565E-01
 -1      6952 8.28565E-01
 -1      6953 8.28565E-01
 -1      6954 8.28565E-01
 -1      6955 8.28565E-01
 -1      6956 8.28565E-01
 -1      6957 8.28565E-01
 -1      6958 8.28565E-01
 -1      6959 8.28565E-01
 -1      6960 8.28565E-01
 -1      6961 8.28565E-01
 -1      6962 8.28565E-01
 -1      6963 8.28565E-01
 -1      6964 8.28565E-01
 -1      6965 8.28565E-01
 -1      6966 8.28565E-01
 -1      6967 8.28565E-01
 -1      6968 8.28565E-01
 -1      6969 8.28565E-01
 -1      6970 8.28565E-01
 -1      6971 8.28565E-01
 -1      6972 8.28565E-01
 -1      6973 8.28565E-01
 -1      6974 8.28565E-01
 -1      6975 8.28565E-01
 -1      6976 8.28565E-01
 -1      6977 8.28565E-01
 -1      6978 8.28565E-01
 -1      6979 8.28565E-01
 -1      6980 8.28565E-01
 -1      6981 8.28565E-01
 -1      6982 8.28565E-01
 -1      6983 8.28565E-01
 -1      6984 8.28565E-01
 -1      6985 8.28565E-01
 -1      6986 8.28565E-01
 -1      6987 8.28565E-01
 -1      6988 8.28565E-01
 -1      6989 8.28565E-01
 -1      6990 8.28565E-01
 -1      6991 8.28565E-01
 -1      6992 8.28565E-01
 -1      6993 8.28565E-01
 -1      6994 8.28565E-01
 -1      6995 8.28565E-01
 -1      6996 8.28565E-01
 -1      6997 8.28565E-01
 -1      6998 8.28565E-01
 -1      6999 8.28565E-01
 -1      7000 8.28565E-01
 -1      7001 8.28565E-01
 -1      7002 8.28565E-01
 -1      7003 7.76270E-01
 -1      7004 7.76270E-01
 -1      7005 7.76270E-01
 -1      7006 7.76270E-01
 -1      7007 7.76270E-01
 -1      7008 7.76270E-01
 -1      7009 7.76270E-01
 -1      7010 7.76270E-01
 -1      7011 7.76270E-01
 -1      7012 7.76270E-01
 -1      7013 7.76270E-01
 -1      7014 7.76270E-01
 -1      7015 7.76270E-01
 -1      7016 7.76270E-01
 -1      7017 7.76270E-01
 -1      7018 7.76270E-01
 -1      7019 7.76270E-01
 -1      7020 7.76270E-01
 -1      7021 7.76270E-01
 -1      7022 7.76270E-01
 -1      7023 7.76270E-01
 -1      7024 7.76270E-01
 -1      7025 7.76270E-01
 -1      7026 7.76270E-01
 -1      7027 7.76270E-01
 -1      7028 7.76270E-01
 -1      7029 7.76270E-01
 -1      7030 7.76270E-01
 -1      7031 7.76270E-01
 -1      7032 7.76270E-01
 -1      7033 7.76270E-01
 -1      7034 7.76270E-01
 -1      7035 7.76270E-01
 -1      7036 7.76270E-01
 -1      7037 7.76270E-01
 -1      7038 7.76270E-01
 -1      7039 7.76270E-01
 -1      7040 7.76270E-01
 -1      7041 7.76270E-01
 -1      7042 7.76270E-01
 -1      7043 7.76270E-01
 -1      7044 7.76270E-01
 -1      7045 7.76270E-01
 -1      7046 7.76270E-01
 -1      7047 7.76270E-01
 -1      7048 7.76270E-01
 -1      7049 7.76270E-01
 -1      7050 7.76270E-01
 -1      7051 7.76270E-01
 -1      7052 7.76270E-01
 -1      7053 7.76270E-01
 -1      7054 7.76270E-01
 -1      7055 7.76270E-01
 -1      7056 7.76270E-01
 -1      7057 7.76270E-01
 -1      7058 7.76270E-01
 -1      7059 7.76270E-01
 -1      7060 7.76270E-01
 -1      7061 7.76270E-01
 -1      7062 7.76270E-01
 -1      7063 7.76270E-01
 -1      7064 7.76270E-01
 -1      7065 7.76270E-01
 -1      7066 7.76270E-01
 -1      7067 7.76270E-01
 -1      7068 7.76270E-01
 -1      7069 7.76270E-01
 -1      7070 7.76270E-01
 -1      7071 7.76270E-01
 -1      7072 7.76270E-01
 -1      7073 7.76270E-01
 -1      7074 7.76270E-01
 -1      7075 7.76270E-01
 -1      7076 7.76270E-01
 -1      7077 7.76270E-01
 -1      7078 7.76270E-01
 -1      7079 7.76270E-01
 -1      7080 7.76270E-01
 -1      7081 7.76270E-01
 -1      7082 7.76270E-01
 -1      7083 7.76270E-01
 -1      7084 7.76270E-01
 -1      7085 7.76270E-01
 -1      7086 7.76270E-01
 -1      7087 7.76270E-01
 -1      7088 7.76270E-01
 -1      7089 7.76270E-01
 -1      7090 7.76270E-01
 -1      7091 7.76270E-01
 -1      7092 7.76270E-01
 -1      7093 7.28276E-01
 -1      7094 7.28276E-01
 -1      7095 7.28276E-01
 -1      7096 7.28276E-01
 -1      7097 7.28276E-01
 -1      7098 7.28276E-01
 -1      7099 7.28276E-01
 -1      7100 7.28276E-01
 -1      7101 7.28276E-01
 -1      7102 7.28276E-01
 -1      7103 7.28276E-01
 -1      7104 7.28276E-01
 -1      7105 7.28276E-01
 -1      7106 7.28276E-01
 -1      7107 7.28276E-01
 -1      7108 7.28276E-01
 -1      7109 7.28276E-01
 -1      7110 7.28276E-01
 -1      7111 7.28276E-01
 -1      7112 7.28276E-01
 -1      7113 7.28276E-01
 -1      7114 7.28276E-01
 -1      7115 7.28276E-01
 -1      7116 7.28276E-01
 -1      7117 7.28276E-01
 -1      7118 7.28276E-01
 -1      7119 7.28276E-01
 -1      7120 7.28276E-01
 -1      7121 7.28276E-01
 -1      7122 7.28276E-01
 -1      7123 7.28276E-01
 -1      7124 7.28276E-01
 -1      7125 7.28276E-01
 -1      7126 7.28276E-01
 -1      7127 7.28276E-01
 -1      7128 7.28276E-01
 -1      7129 7.28276E-01
 -1      7130 7.28276E-01
 -1      7131 7.28276E-01
 -1      7132 7.28276E-01
 -1      7133 7.28276E-01
 -1      7134 7.28276E-01
 -1      7135 7.28276E-01
 -1      7136 7.28276E-01
 -1      7137 7.28276E-01
 -1      7138 7.28276E-01
 -1      7139 7.28276E-01
 -1      7140 7.28276E-01
 -1      7141 7.28276E-01
 -1      7142 7.28276E-01
 -1      7143 7.28276E-01
 -1      7144 7.28276E-01
 -1      7145 7.28276E-01
 -1      7146 7.28276E-01
 -1      7147 7.28276E-01
 -1      7148 7.28276E-01
 -1      7149 7.28276E-01
 -1      7150 7.28276E-01
 -1      7151 7.28276E-01
 -1      7152 7.28276E-01
 -1      7153 7.28276E-01
 -1      7154 7.28276E-01
 -1      7155 7.28276E-01
 -1      7156 7.28276E-01
 -1      7157 7.28276E-01
 -1      7158 7.28276E-01
 -1      7159 7.28276E-01
 -1      7160 7.28276E-01
 -1      7161 7.28276E-01
 -1      7162 7.28276E-01
 -1      7163 7.28276E-01
 -1      7164 7.28276E-01
 -1      7165 7.28276E-01
 -1      7166 7.28276E-01
 -1      7167 7.28276E-01
 -1      7168 7.28276E-01
 -1      7169 7.28276E-01
 -1      7170 7.28276E-01
 -1      7171 7.28276E-01
 -1      7172 7.28276E-01
 -1      7173 7.28276E-01
 -1      7174 7.28276E-01
 -1      7175 7.28276E-01
 -1      7176 7.28276E-01
 -1      7177 7.28276E-01
 -1      7178 7.28276E-01
 -1      7179 7.28276E-01
 -1      7180 7.28276E-01
 -1      7181 7.28276E-01
 -1      7182 7.28276E-01
 -1      7183 6.84113E-01
 -1      7184 6.84113E-01
 -1      7185 6.84113E-01
 -1      7186 6.84113E-01
 -1      7187 6.84113E-01
 -1      7188 6.84113E-01
 -1      7189 6.84113E-01
 -1      7190 6.84113E-01
 -1      7191 6.84113E-01
 -1      7192 6.84113E-01
 -1      7193 6.84113E-01
 -1      7194 6.84113E-01
 -1      7195 6.84113E-01
 -1      7196 6.84113E-01
 -1      7197 6.84113E-01
 -1      7198 6.84113E-01
 -1      7199 6.84113E-01
 -1      7200 6.84113E-01
 -1      7201 6.84113E-01
 -1      7202 6.84113E-01
 -1      7203 6.84113E-01
 -1      7204 6.84113E-01
 -1      7205 6.84113E-01
 -1      7206 6.84113E-01
 -1      7207 6.84113E-01
 -1      7208 6.84113E-01
 -1      7209 6.84113E-01
 -1      7210 6.84113E-01
 -1      7211 6.84113E-01
 -1      7212 6.84113E-01
 -1      7213 6.84113E-01
 -1      7214 6.84113E-01
 -1      7215 6.84113E-01
 -1      7216 6.84113E-01
 -1      7217 6.84113E-01
 -1      7218 6.84113E-01
 -1      7219 6.84113E-01
 -1      7220 6.84113E-01
 -1      7221 6.84113E-01
 -1      7222 6.84113E-01
 -1      7223 6.84113E-01
 -1      7224 6.84113E-01
 -1      7225 6.84113E-01
 -1      7226 6.84113E-01
 -1      7227 6.84113E-01
 -1      7228 6.84113E-01
 -1      7229 6.84113E-01
 -1      7230 6.84113E-01
 -1      7231 6.84113E-01
 -1      7232 6.84113E-01
 -1      7233 6.84113E-01
 -1      7234 6.84113E-01
 -1      7235 6.84113E-01
 -1      7236 6.84113E-01
 -1      7237 6.84113E-01
 -1      7238 6.84113E-01
 -1      7239 6.84113E-01
 -1      7240 6.84113E-01
 -1      7241 6.84113E-01
 -1      7242 6.84113E-01
 -1      7243 6.84113E-01
 -1      7244 6.84113E-01
 -1      7245 6.84113E-01
 -1      7246 6.84113E-01
 -1      7247 6.84113E-01
 -1      7248 6.84113E-01
 -1      7249 6.84113E-01
 -1      7250 6.84113E-01
 -1      7251 6.84113E-01
 -1      7252 6.84113E-01
 -1      7253 6.84113E-01
 -1      7254 6.84113E-01
 -1      7255 6.84113E-01
 -1      7256 6.84113E-01
 -1      7257 6.84113E-01
 -1      7258 6.84113E-01
 -1      7259 6.84113E-01
 -1      7260 6.84113E-01
 -1      7261 6.84113E-01
 -1      7262 6.84113E-01
 -1      7263 6.84113E-01
 -1      7264 6.84113E-01
 -1      7265 6.84113E-01
 -1      7266 6.84113E-01
 -1      7267 6.84113E-01
 -1      7268 6.84113E-01
 -1      7269 6.84113E-01
 -1      7270 6.84113E-01
 -1      7271 6.84113E-01
 -1      7272 6.84113E-01
 -1      7273 6.43378E-01
 -1      7274 6.43378E-01
 -1      7275 6.43378E-01
 -1      7276 6.43378E-01
 -1      7277 6.43378E-01
 -1      7278 6.43378E-01
 -1      7279 6.43378E-01
 -1      7280 6.43378E-01
 -1      7281 6.43378E-01
 -1      7282 6.43378E-01
 -1      7283 6.43378E-01
 -1      7284 6.43378E-01
 -1      7285 6.43378E-01
 -1      7286 6.43378E-01
 -1      7287 6.43378E-01
 -1      7288 6.43378E-01
 -1      7289 6.43378E-01
 -1      7290 6.43378E-01
 -1      7291 6.43378E-01
 -1      7292 6.43378E-01
 -1      7293 6.43378E-01
 -1      7294 6.43378E-01
 -1      7295 6.43378E-01
 -1      7296 6.43378E-01
 -1      7297 6.43378E-01
 -1      7298 6.43378E-01
 -1      7299 6.43378E-01
 -1      7300 6.43378E-01
 -1      7301 6.43378E-01
 -1      7302 6.43378E-01
 -1      7303 6.43378E-01
 -1      7304 6.43378E-01
 -1      7305 6.43378E-01
 -1      7306 6.43378E-01
 -1      7307 6.43378E-01
 -1      7308 6.43378E-01
 -1      7309 6.43378E-01
 -1      7310 6.43378E-01
 -1      7311 6.43378E-01
 -1      7312 6.43378E-01
 -1      7313 6.43378E-01
 -1      7314 6.43378E-01
 -1      7315 6.43378E-01
 -1      7316 6.43378E-01
 -1      7317 6.43378E-01
 -1      7318 6.43378E-01
 -1      7319 6.43378E-01
 -1      7320 6.43378E-01
 -1      7321 6.43378E-01
 -1      7322 6.43378E-01
 -1      7323 6.43378E-01
 -1      7324 6.43378E-01
 -1      7325 6.43378E-01
 -1      7326 6.43378E-01
 -1      7327 6.43378E-01
 -1      7328 6.43378E-01
 -1      7329 6.43378E-01
 -1      7330 6.43378E-01
 -1      7331 6.43378E-01
 -1      7332 6.43378E-01
 -1      7333 6.43378E-01
 -1      7334 6.43378E-01
 -1      7335 6.43378E-01
 -1      7336 6.43378E-01
 -1      7337 6.43378E-01
 -1      7338 6.43378E-01
 -1      7339 6.43378E-01
 -1      7340 6.43378E-01
 -1      7341 6.43378E-01
 -1      7342 6.43378E-01
 -1      7343 6.43378E-01
 -1      7344 6.43378E-01
 -1      7345 6.43378E-01
 -1      7346 6.43378E-01
 -1      7347 6.43378E-01
 -1      7348 6.43378E-01
 -1      7349 6.43378E-01
 -1      7350 6.43378E-01
 -1      7351 6.43378E-01
 -1      7352 6.43378E-01
 -1      7353 6.43378E-01
 -1      7354 6.43378E-01
 -1      7355 6.43378E-01
 -1      7356 6.43378E-01
 -1      7357 6.43378E-01
 -1      7358 6.43378E-01
 -1      7359 6.43378E-01
 -1      7360 6.43378E-01
 -1      7361 6.43378E-01
 -1      7362 6.43378E-01
 -1      7363 6.05725E-01
 -1      7364 6.05725E-01
 -1      7365 6.05725E-01
 -1      7366 6.05725E-01
 -1      7367 6.05725E-01
 -1      7368 6.05725E-01
 -1      7369 6.05725E-01
 -1      7370 6.05725E-01
 -1      7371 6.05725E-01
 -1      7372 6.05725E-01
 -1      7373 6.05725E-01
 -1      7374 6.05725E-01
 -1      7375 6.05725E-01
 -1      7376 6.05725E-01
 -1      7377 6.05725E-01
 -1      7378 6.05725E-01
 -1      7379 6.05725E-01
 -1      7380 6.05725E-01
 -1      7381 6.05725E-01
 -1      7382 6.05725E-01
 -1      7383 6.05725E-01
 -1      7384 6.05725E-01
 -1      7385 6.05725E-01
 -1      7386 6.05725E-01
 -1      7387 6.05725E-01
 -1      7388 6.05725E-01
 -1      7389 6.05725E-01
 -1      7390 6.05725E-01
 -1      7391 6.05725E-01
 -1      7392 6.05725E-01
 -1      7393 6.05725E-01
 -1      7394 6.05725E-01
 -1      7395 6.05725E-01
 -1      7396 6.05725E-01
 -1      7397 6.05725E-01
 -1      7398 6.05725E-01
 -1      7399 6.05725E-01
 -1      7400 6.05725E-01
 -1      7401 6.05725E-01
 -1      7402 6.05725E-01
 -1      7403 6.05725E-01
 -1      7404 6.05725E-01
 -1      7405 6.05725E-01
 -1      7406 6.05725E-01
 -1      7407 6.05725E-01
 -1      7408 6.05725E-01
 -1      7409 6.05725E-01
 -1      7410 6.05725E-01
 -1      7411 6.05725E-01
 -1      7412 6.05725E-01
 -1      7413 6.05725E-01
 -1      7414 6.05725E-01
 -1      7415 6.05725E-01
 -1      7416 6.05725E-01
 -1      7417 6.05725E-01
 -1      7418 6.05725E-01
 -1      7419 6.05725E-01
 -1      7420 6.05725E-01
 -1      7421 6.05725E-01
 -1      7422 6.05725E-01
 -1      7423 6.05725E-01
 -1      7424 6.05725E-01
 -1      7425 6.05725E-01
 -1      7426 6.05725E-01
 -1      7427 6.05725E-01
 -1      7428 6.05725E-01
 -1      7429 6.05725E-01
 -1      7430 6.05725E-01
 -1      7431 6.05725E-01
 -1      7432 6.05725E-01
 -1      7433 6.05725E-01
 -1      7434 6.05725E-01
 -1      7435 6.05725E-01
 -1      7436 6.05725E-01
 -1      7437 6.05725E-01
 -1      7438 6.05725E-01
 -1      7439 6.05725E-01
 -1      7440 6.05725E-01
 -1      7441 6.05725E-01
 -1      7442 6.05725E-01
 -1      7443 6.05725E-01
 -1      7444 6.05725E-01
 -1      7445 6.05725E-01
 -1      7446 6.05725E-01
 -1      7447 6.05725E-01
 -1      7448 6.05725E-01
 -1      7449 6.05725E-01
 -1      7450 6.05725E-01
 -1      7451 6.05725E-01
 -1      7452 6.05725E-01
 -1      7453 5.70855E-01
 -1      7454 5.70855E-01
 -1      7455 5.70855E-01
 -1      7456 5.70855E-01
 -1      7457 5.70855E-01
 -1      7458 5.70855E-01
 -1      7459 5.70855E-01
 -1      7460 5.70855E-01
 -1      7461 5.70855E-01
 -1      7462 5.70855E-01
 -1      7463 5.70855E-01
 -1      7464 5.70855E-01
 -1      7465 5.70855E-01
 -1      7466 5.70855E-01
 -1      7467 5.70855E-01
 -1      7468 5.70855E-01
 -1      7469 5.70855E-01
 -1      7470 5.70855E-01
 -1      7471 5.70855E-01
 -1      7472 5.70855E-01
 -1      7473 5.70855E-01
 -1      7474 5.70855E-01
 -1      7475 5.70855E-01
 -1      7476 5.70855E-01
 -1      7477 5.70855E-01
 -1      7478 5.70855E-01
 -1      7479 5.70855E-01
 -1      7480 5.70855E-01
 -1      7481 5.70855E-01
 -1      7482 5.70855E-01
 -1      7483 5.70855E-01
 -1      7484 5.70855E-01
 -1      7485 5.70855E-01
 -1      7486 5.70855E-01
 -1      7487 5.70855E-01
 -1      7488 5.70855E-01
 -1      7489 5.70855E-01
 -1      7490 5.70855E-01
 -1      7491 5.70855E-01
 -1      7492 5.70855E-01
 -1      7493 5.70855E-01
 -1      7494 5.70855E-01
 -1      7495 5.70855E-01
 -1      7496 5.70855E-01
 -1      7497 5.70855E-01
 -1      7498 5.70855E-01
 -1      7499 5.70855E-01
 -1      7500 5.70855E-01
 -1      7501 5.70855E-01
 -1      7502 5.70855E-01
 -1      7503 5.70855E-01
 -1      7504 5.70855E-01
 -1      7505 5.70855E-01
 -1      7506 5.70855E-01
 -1      7507 5.70855E-01
 -1      7508 5.70855E-01
 -1      7509 5.70855E-01
 -1      7510 5.70855E-01
 -1      7511 5.70855E-01
 -1      7512 5.70855E-01
 -1      7513 5.70855E-01
 -1      7514 5.70855E-01
 -1      7515 5.70855E-01
 -1      7516 5.70855E-01
 -1      7517 5.70855E-01
 -1      7518 5.70855E-01
 -1      7519 5.70855E-01
 -1      7520 5.70855E-01
 -1      7521 5.70855E-01
 -1      7522 5.70855E-01
 -1      7523 5.70855E-01
 -1      7524 5.70855E-01
 -1      7525 5.70855E-01
 -1      7526 5.70855E-01
 -1      7527 5.70855E-01
 -1      7528 5.70855E-01
 -1      7529 5.70855E-01
 -1      7530 5.70855E-01
 -1      7531 5.70855E-01
 -1      7532 5.70855E-01
 -1      7533 5.70855E-01
 -1      7534 5.70855E-01
 -1      7535 5.70855E-01
 -1      7536 5.70855E-01
 -1      7537 5.70855E-01
 -1      7538 5.70855E-01
 -1      7539 5.70855E-01
 -1      7540 5.70855E-01
 -1      7541 5.70855E-01
 -1      7542 5.70855E-01
 -1      7543 5.38507E-01
 -1      7544 5.38507E-01
 -1      7545 5.38507E-01
 -1      7546 5.38507E-01
 -1      7547 5.38507E-01
 -1      7548 5.38507E-01
 -1      7549 5.38507E-01
 -1      7550 5.38507E-01
 -1      7551 5.38507E-01
 -1      7552 5.38507E-01
 -1      7553 5.38507E-01
 -1      7554 5.38507E-01
 -1      7555 5.38507E-01
 -1      7556 5.38507E-01
 -1      7557 5.38507E-01
 -1      7558 5.38507E-01
 -1      7559 5.38507E-01
 -1      7560 5.38507E-01
 -1      7561 5.38507E-01
 -1      7562 5.38507E-01
 -1      7563 5.38507E-01
 -1      7564 5.38507E-01
 -1      7565 5.38507E-01
 -1      7566 5.38507E-01
 -1      7567 5.38507E-01
 -1      7568 5.38507E-01
 -1      7569 5.38507E-01
 -1      7570 5.38507E-01
 -1      7571 5.38507E-01
 -1      7572 5.38507E-01
 -1      7573 5.38507E-01
 -1      7574 5.38507E-01
 -1      7575 5.38507E-01
 -1      7576 5.38507E-01
 -1      7577 5.38507E-01
 -1      7578 5.38507E-01
 -1      7579 5.38507E-01
 -1      7580 5.38507E-01
 -1      7581 5.38507E-01
 -1      7582 5.38507E-01
 -1      7583 5.38507E-01
 -1      7584 5.38507E-01
 -1      7585 5.38507E-01
 -1      7586 5.38507E-01
 -1      7587 5.38507E-01
 -1      7588 5.38507E-01
 -1      7589 5.38507E-01
 -1      7590 5.38507E-01
 -1      7591 5.38507E-01
 -1      7592 5.38507E-01
 -1      7593 5.38507E-01
 -1      7594 5.38507E-01
 -1      7595 5.38507E-01
 -1      7596 5.38507E-01
 -1      7597 5.38507E-01
 -1      7598 5.38507E-01
 -1      7599 5.38507E-01
 -1      7600 5.38507E-01
 -1      7601 5.38507E-01
 -1      7602 5.38507E-01
 -1      7603 5.38507E-01
 -1      7604 5.38507E-01
 -1      7605 5.38507E-01
 -1      7606 5.38507E-01
 -1      7607 5.38507E-01
 -1      7608 5.38507E-01
 -1      7609 5.38507E-01
 -1      7610 5.38507E-01
 -1      7611 5.38507E-01
 -1      7612 5.38507E-01
 -1      7613 5.38507E-01
 -1      7614 5.38507E-01
 -1      7615 5.38507E-01
 -1      7616 5.38507E-01
 -1      7617 5.38507E-01
 -1      7618 5.38507E-01
 -1      7619 5.38507E-01
 -1      7620 5.38507E-01
 -1      7621 5.38507E-01
 -1      7622 5.38507E-01
 -1      7623 5.38507E-01
 -1      7624 5.38507E-01
 -1      7625 5.38507E-01
 -1      7626 5.38507E-01
 -1      7627 5.38507E-01
 -1      7628 5.38507E-01
 -1      7629 5.38507E-01
 -1      7630 5.38507E-01
 -1      7631 5.38507E-01
 -1      7632 5.38507E-01
 -1      7633 5.08450E-01
 -1      7634 5.08450E-01
 -1      7635 5.08450E-01
 -1      7636 5.08450E-01
 -1      7637 5.08450E-01
 -1      7638 5.08450E-01
 -1      7639 5.08450E-01
 -1      7640 5.08450E-01
 -1      7641 5.08450E-01
 -1      7642 5.08450E-01
 -1      7643 5.08450E-01
 -1      7644 5.08450E-01
 -1      7645 5.08450E-01
 -1      7646 5.08450E-01
 -1      7647 5.08450E-01
 -1      7648 5.08450E-01
 -1      7649 5.08450E-01
 -1      7650 5.08450E-01
 -1      7651 5.08450E-01
 -1      7652 5.08450E-01
 -1      7653 5.08450E-01
 -1      7654 5.08450E-01
 -1      7655 5.08450E-01
 -1      7656 5.08450E-01
 -1      7657 5.08450E-01
 -1      7658 5.08450E-01
 -1      7659 5.08450E-01
 -1      7660 5.08450E-01
 -1      7661 5.08450E-01
 -1      7662 5.08450E-01
 -1      7663 5.08450E-01
 -1      7664 5.08450E-01
 -1      7665 5.08450E-01
 -1      7666 5.08450E-01
 -1      7667 5.08450E-01
 -1      7668 5.08450E-01
 -1      7669 5.08450E-01
 -1      7670 5.08450E-01
 -1      7671 5.08450E-01
 -1      7672 5.08450E-01
 -1      7673 5.08450E-01
 -1      7674 5.08450E-01
 -1      7675 5.08450E-01
 -1      7676 5.08450E-01
 -1      7677 5.08450E-01
 -1      7678 5.08450E-01
 -1      7679 5.08450E-01
 -1      7680 5.08450E-01
 -1      7681 5.08450E-01
 -1      7682 5.08450E-01
 -1      7683 5.08450E-01
 -1      7684 5.08450E-01
 -1      7685 5.08450E-01
 -1      7686 5.08450E-01
 -1      7687 5.08450E-01
 -1      7688 5.08450E-01
 -1      7689 5.08450E-01
 -1      7690 5.08450E-01
 -1      7691 5.08450E-01
 -1      7692 5.08450E-01
 -1      7693 5.08450E-01
 -1      7694 5.08450E-01
 -1      7695 5.08450E-01
 -1      7696 5.08450E-01
 -1      7697 5.08450E-01
 -1      7698 5.08450E-01
 -1      7699 5.08450E-01
 -1      7700 5.08450E-01
 -1      7701 5.08450E-01
 -1      7702 5.08450E-01
 -1      7703 5.08450E-01
 -1      7704 5.08450E-01
 -1      7705 5.08450E-01
 -1      7706 5.08450E-01
 -1      7707 5.08450E-01
 -1      7708 5.08450E-01
 -1      7709 5.08450E-01
 -1      7710 5.08450E-01
 -1      7711 5.08450E-01
 -1      7712 5.08450E-01
 -1      7713 5.08450E-01
 -1      7714 5.08450E-01
 -1      7715 5.08450E-01
 -1      7716 5.08450E-01
 -1      7717 5.08450E-01
 -1      7718 5.08450E-01
 -1      7719 5.08450E-01
 -1      7720 5.08450E-01
 -1      7721 5.08450E-01
 -1      7722 5.08450E-01
 -1      7723 4.80482E-01
 -1      7724 4.80482E-01
 -1      7725 4.80482E-01
 -1      7726 4.80482E-01
 -1      7727 4.80482E-01
 -1      7728 4.80482E-01
 -1      7729 4.80482E-01
 -1      7730 4.80482E-01
 -1      7731 4.80482E-01
 -1      7732 4.80482E-01
 -1      7733 4.80482E-01
 -1      7734 4.80482E-01
 -1      7735 4.80482E-01
 -1      7736 4.80482E-01
 -1      7737 4.80482E-01
 -1      7738 4.80482E-01
 -1      7739 4.80482E-01
 -1      7740 4.80482E-01
 -1      7741 4.80482E-01
 -1      7742 4.80482E-01
 -1      7743 4.80482E-01
 -1      7744 4.80482E-01
 -1      7745 4.80482E-01
 -1      7746 4.80482E-01
 -1      7747 4.80482E-01
 -1      7748 4.80482E-01
 -1      7749 4.80482E-01
 -1      7750 4.80482E-01
 -1      7751 4.80482E-01
 -1      7752 4.80482E-01
 -1      7753 4.80482E-01
 -1      7754 4.80482E-01
 -1      7755 4.80482E-01
 -1      7756 4.80482E-01
 -1      7757 4.80482E-01
 -1      7758 4.80482E-01
 -1      7759 4.80482E-01
 -1      7760 4.80482E-01
 -1      7761 4.80482E-01
 -1      7762 4.80482E-01
 -1      7763 4.80482E-01
 -1      7764 4.80482E-01
 -1      7765 4.80482E-01
 -1      7766 4.80482E-01
 -1      7767 4.80482E-01
 -1      7768 4.80482E-01
 -1      7769 4.80482E-01
 -1      7770 4.80482E-01
 -1      7771 4.80482E-01
 -1      7772 4.80482E-01
 -1      7773 4.80482E-01
 -1      7774 4.80482E-01
 -1      7775 4.80482E-01
 -1      7776 4.80482E-01
 -1      7777 4.80482E-01
 -1      7778 4.80482E-01
 -1      7779 4.80482E-01
 -1      7780 4.80482E-01
 -1      7781 4.80482E-01
 -1      7782 4.80482E-01
 -1      7783 4.80482E-01
 -1      7784 4.80482E-01
 -1      7785 4.80482E-01
 -1      7786 4.80482E-01
 -1      7787 4.80482E-01
 -1      7788 4.80482E-01
 -1      7789 4.80482E-01
 -1      7790 4.80482E-01
 -1      7791 4.80482E-01
 -1      7792 4.80482E-01
 -1      7793 4.80482E-01
 -1      7794 4.80482E-01
 -1      7795 4.80482E-01
 -1      7796 4.80482E-01
 -1      7797 4.80482E-01
 -1      7798 4.80482E-01
 -1      7799 4.80482E-01
 -1      7800 4.80482E-01
 -1      7801 4.80482E-01
 -1      7802 4.80482E-01
 -1      7803 4.80482E-01
 -1      7804 4.80482E-01
 -1      7805 4.80482E-01
 -1      7806 4.80482E-01
 -1      7807 4.80482E-01
 -1      7808 4.80482E-01
 -1      7809 4.80482E-01
 -1      7810 4.80482E-01
 -1      7811 4.80482E-01
 -1      7812 4.80482E-01
 -1      7813 4.54424E-01
 -1      7814 4.54424E-01
 -1      7815 4.54424E-01
 -1      7816 4.54424E-01
 -1      7817 4.54424E-01
 -1      7818 4.54424E-01
 -1      7819 4.54424E-01
 -1      7820 4.54424E-01
 -1      7821 4.54424E-01
 -1      7822 4.54424E-01
 -1      7823 4.54424E-01
 -1      7824 4.54424E-01
 -1      7825 4.54424E-01
 -1      7826 4.54424E-01
 -1      7827 4.54424E-01
 -1      7828 4.54424E-01
 -1      7829 4.54424E-01
 -1      7830 4.54424E-01
 -1      7831 4.54424E-01
 -1      7832 4.54424E-01
 -1      7833 4.54424E-01
 -1      7834 4.54424E-01
 -1      7835 4.54424E-01
 -1      7836 4.54424E-01
 -1      7837 4.54424E-01
 -1      7838 4.54424E-01
 -1      7839 4.54424E-01
 -1      7840 4.54424E-01
 -1      7841 4.54424E-01
 -1      7842 4.54424E-01
 -1      7843 4.54424E-01
 -1      7844 4.54424E-01
 -1      7845 4.54424E-01
 -1      7846 4.54424E-01
 -1      7847 4.54424E-01
 -1      7848 4.54424E-01
 -1      7849 4.54424E-01
 -1      7850 4.54424E-01
 -1      7851 4.54424E-01
 -1      7852 4.54424E-01
 -1      7853 4.54424E-01
 -1      7854 4.54424E-01
 -1      7855 4.54424E-01
 -1      7856 4.54424E-01
 -1      7857 4.54424E-01
 -1      7858 4.54424E-01
 -1      7859 4.54424E-01
 -1      7860 4.54424E-01
 -1      7861 4.54424E-01
 -1      7862 4.54424E-01
 -1      7863 4.54424E-01
 -1      7864 4.54424E-01
 -1      7865 4.54424E-01
 -1      7866 4.54424E-01
 -1      7867 4.54424E-01
 -1      7868 4.54424E-01
 -1      7869 4.54424E-01
 -1      7870 4.54424E-01
 -1      7871 4.54424E-01
 -1      7872 4.54424E-01
 -1      7873 4.54424E-01
 -1      7874 4.54424E-01
 -1      7875 4.54424E-01
 -1      7876 4.54424E-01
 -1      7877 4.54424E-01
 -1      7878 4.54424E-01
 -1      7879 4.54424E-01
 -1      7880 4.54424E-01
 -1      7881 4.54424E-01
 -1      7882 4.54424E-01
 -1      7883 4.54424E-01
 -1      7884 4.54424E-01
 -1      7885 4.54424E-01
 -1      7886 4.54424E-01
 -1      7887 4.54424E-01
 -1      7888 4.54424E-01
 -1      7889 4.54424E-01
 -1      7890 4.54424E-01
 -1      7891 4.54424E-01
 -1      7892 4.54424E-01
 -1      7893 4.54424E-01
 -1      7894 4.54424E-01
 -1      7895 4.54424E-01
 -1      7896 4.54424E-01
 -1      7897 4.54424E-01
 -1      7898 4.54424E-01
 -1      7899 4.54424E-01
 -1      7900 4.54424E-01
 -1      7901 4.54424E-01
 -1      7902 4.54424E-01
 -1      7903 4.30116E-01
 -1      7904 4.30116E-01
 -1      7905 4.30116E-01
 -1      7906 4.30116E-01
 -1      7907 4.30116E-01
 -1      7908 4.30116E-01
 -1      7909 4.30116E-01
 -1      7910 4.30116E-01
 -1      7911 4.30116E-01
 -1      7912 4.30116E-01
 -1      7913 4.30116E-01
 -1      7914 4.30116E-01
 -1      7915 4.30116E-01
 -1      7916 4.30116E-01
 -1      7917 4.30116E-01
 -1      7918 4.30116E-01
 -1      7919 4.30116E-01
 -1      7920 4.30116E-01
 -1      7921 4.30116E-01
 -1      7922 4.30116E-01
 -1      7923 4.30116E-01
 -1      7924 4.30116E-01
 -1      7925 4.30116E-01
 -1      7926 4.30116E-01
 -1      7927 4.30116E-01
 -1      7928 4.30116E-01
 -1      7929 4.30116E-01
 -1      7930 4.30116E-01
 -1      7931 4.30116E-01
 -1      7932 4.30116E-01
 -1      7933 4.30116E-01
 -1      7934 4.30116E-01
 -1      7935 4.30116E-01
 -1      7936 4.30116E-01
 -1      7937 4.30116E-01
 -1      7938 4.30116E-01
 -1      7939 4.30116E-01
 -1      7940 4.30116E-01
 -1      7941 4.30116E-01
 -1      7942 4.30116E-01
 -1      7943 4.30116E-01
 -1      7944 4.30116E-01
 -1      7945 4.30116E-01
 -1      7946 4.30116E-01
 -1      7947 4.30116E-01
 -1      7948 4.30116E-01
 -1      7949 4.30116E-01
 -1      7950 4.30116E-01
 -1      7951 4.30116E-01
 -1      7952 4.30116E-01
 -1      7953 4.30116E-01
 -1      7954 4.30116E-01
 -1      7955 4.30116E-01
 -1      7956 4.30116E-01
 -1      7957 4.30116E-01
 -1      7958 4.30116E-01
 -1      7959 4.30116E-01
 -1      7960 4.30116E-01
 -1      7961 4.30116E-01
 -1      7962 4.30116E-01
 -1      7963 4.30116E-01
 -1      7964 4.30116E-01
 -1      7965 4.30116E-01
 -1      7966 4.30116E-01
 -1      7967 4.30116E-01
 -1      7968 4.30116E-01
 -1      7969 4.30116E-01
 -1      7970 4.30116E-01
 -1      7971 4.30116E-01
 -1      7972 4.30116E-01
 -1      7973 4.30116E-01
 -1      7974 4.30116E-01
 -1      7975 4.30116E-01
 -1      7976 4.30116E-01
 -1      7977 4.30116E-01
 -1      7978 4.30116E-01
 -1      7979 4.30116E-01
 -1      7980 4.30116E-01
 -1      7981 4.30116E-01
 -1      7982 4.30116E-01
 -1      7983 4.30116E-01
 -1      7984 4.30116E-01
 -1      7985 4.30116E-01
 -1      7986 4.30116E-01
 -1      7987 4.30116E-01
 -1      7988 4.30116E-01
 -1      7989 4.30116E-01
 -1      7990 4.30116E-01
 -1      7991 4.30116E-01
 -1      7992 4.30116E-01
 -1      7993 4.07414E-01
 -1      7994 4.07414E-01
 -1      7995 4.07414E-01
 -1      7996 4.07414E-01
 -1      7997 4.07414E-01
 -1      7998 4.07414E-01
 -1      7999 4.07414E-01
 -1      8000 4.07414E-01
 -1      8001 4.07414E-01
 -1      8002 4.07414E-01
 -1      8003 4.07414E-01
 -1      8004 4.07414E-01
 -1      8005 4.07414E-01
 -1      8006 4.07414E-01
 -1      8007 4.07414E-01
 -1      8008 4.07414E-01
 -1      8009 4.07414E-01
 -1      8010 4.07414E-01
 -1      8011 4.07414E-01
 -1      8012 4.07414E-01
 -1      8013 4.07414E-01
 -1      8014 4.07414E-01
 -1      8015 4.07414E-01
 -1      8016 4.07414E-01
 -1      8017 4.07414E-01
 -1      8018 4.07414E-01
 -1      8019 4.07414E-01
 -1      8020 4.07414E-01
 -1      8021 4.07414E-01
 -1      8022 4.07414E-01
 -1      8023 4.07414E-01
 -1      8024 4.07414E-01
 -1      8025 4.07414E-01
 -1      8026 4.07414E-01
 -1      8027 4.07414E-01
 -1      8028 4.07414E-01
 -1      8029 4.07414E-01
 -1      8030 4.07414E-01
 -1      8031 4.07414E-01
 -1      8032 4.07414E-01
 -1      8033 4.07414E-01
 -1      8034 4.07414E-01
 -1      8035 4.07414E-01
 -1      8036 4.07414E-01
 -1      8037 4.07414E-01
 -1      8038 4.07414E-01
 -1      8039 4.07414E-01
 -1      8040 4.07414E-01
 -1      8041 4.07414E-01
 -1      8042 4.07414E-01
 -1      8043 4.07414E-01
 -1      8044 4.07414E-01
 -1      8045 4.07414E-01
 -1      8046 4.07414E-01
 -1      8047 4.07414E-01
 -1      8048 4.07414E-01
 -1      8049 4.07414E-01
 -1      8050 4.07414E-01
 -1      8051 4.07414E-01
 -1      8052 4.07414E-01
 -1      8053 4.07414E-01
 -1      8054 4.07414E-01
 -1      8055 4.07414E-01
 -1      8056 4.07414E-01
 -1      8057 4.07414E-01
 -1      8058 4.07414E-01
 -1      8059 4.07414E-01
 -1      8060 4.07414E-01
 -1      8061 4.07414E-01
 -1      8062 4.07414E-01
 -1      8063 4.07414E-01
 -1      8064 4.07414E-01
 -1      8065 4.07414E-01
 -1      8066 4.07414E-01
 -1      8067 4.07414E-01
 -1      8068 4.07414E-01
 -1      8069 4.07414E-01
 -1      8070 4.07414E-01
 -1      8071 4.07414E-01
 -1      8072 4.07414E-01
 -1      8073 4.07414E-01
 -1      8074 4.07414E-01
 -1      8075 4.07414E-01
 -1      8076 4.07414E-01
 -1      8077 4.07414E-01
 -1      8078 4.07414E-01
 -1      8079 4.07414E-01
 -1      8080 4.07414E-01
 -1      8081 4.07414E-01
 -1      8082 4.07414E-01
 -1      8083 3.86188E-01
 -1      8084 3.86188E-01
 -1      8085 3.86188E-01
 -1      8086 3.86188E-01
 -1      8087 3.86188E-01
 -1      8088 3.86188E-01
 -1      8089 3.86188E-01
 -1      8090 3.86188E-01
 -1      8091 3.86188E-01
 -1      8092 3.86188E-01
 -1      8093 3.86188E-01
 -1      8094 3.86188E-01
 -1      8095 3.86188E-01
 -1      8096 3.86188E-01
 -1      8097 3.86188E-01
 -1      8098 3.86188E-01
 -1      8099 3.86188E-01
 -1      8100 3.86188E-01
 -1      8101 3.86188E-01
 -1      8102 3.86188E-01
 -1      8103 3.86188E-01
 -1      8104 3.86188E-01
 -1      8105 3.86188E-01
 -1      8106 3.86188E-01
 -1      8107 3.86188E-01
 -1      8108 3.86188E-01
 -1      8109 3.86188E-01
 -1      8110 3.86188E-01
 -1      8111 3.86188E-01
 -1      8112 3.86188E-01
 -1      8113 3.86189E-01
 -1      8114 3.86188E-01
 -1      8115 3.86188E-01
 -1      8116 3.86188E-01
 -1      8117 3.86188E-01
 -1      8118 3.86188E-01
 -1      8119 3.86188E-01
 -1      8120 3.86188E-01
 -1      8121 3.86188E-01
 -1      8122 3.86189E-01
 -1      8123 3.86189E-01
 -1      8124 3.86188E-01
 -1      8125 3.86188E-01
 -1      8126 3.86188E-01
 -1      8127 3.86188E-01
 -1      8128 3.86188E-01
 -1      8129 3.86188E-01
 -1      8130 3.86188E-01
 -1      8131 3.86188E-01
 -1      8132 3.86189E-01
 -1      8133 3.86188E-01
 -1      8134 3.86188E-01
 -1      8135 3.86188E-01
 -1      8136 3.86188E-01
 -1      8137 3.86188E-01
 -1      8138 3.86188E-01
 -1      8139 3.86188E-01
 -1      8140 3.86188E-01
 -1      8141 3.86188E-01
 -1      8142 3.86188E-01
 -1      8143 3.86188E-01
 -1      8144 3.86188E-01
 -1      8145 3.86188E-01
 -1      8146 3.86188E-01
 -1      8147 3.86188E-01
 -1      8148 3.86188E-01
 -1      8149 3.86188E-01
 -1      8150 3.86188E-01
 -1      8151 3.86188E-01
 -1      8152 3.86188E-01
 -1      8153 3.86189E-01
 -1      8154 3.86189E-01
 -1      8155 3.86188E-01
 -1      8156 3.86188E-01
 -1      8157 3.86188E-01
 -1      8158 3.86188E-01
 -1      8159 3.86188E-01
 -1      8160 3.86188E-01
 -1      8161 3.86189E-01
 -1      8162 3.86189E-01
 -1      8163 3.86189E-01
 -1      8164 3.86189E-01
 -1      8165 3.86188E-01
 -1      8166 3.86188E-01
 -1      8167 3.86188E-01
 -1      8168 3.86188E-01
 -1      8169 3.86188E-01
 -1      8170 3.86188E-01
 -1      8171 3.86189E-01
 -1      8172 3.86189E-01
 -1      8173 3.66334E-01
 -1      8174 3.66334E-01
 -1      8175 3.66333E-01
 -1      8176 3.66333E-01
 -1      8177 3.66333E-01
 -1      8178 3.66333E-01
 -1      8179 3.66333E-01
 -1      8180 3.66333E-01
 -1      8181 3.66334E-01
 -1      8182 3.66334E-01
 -1      8183 3.66334E-01
 -1      8184 3.66334E-01
 -1      8185 3.66333E-01
 -1      8186 3.66333E-01
 -1      8187 3.66333E-01
 -1      8188 3.66333E-01
 -1      8189 3.66333E-01
 -1      8190 3.66333E-01
 -1      8191 3.66334E-01
 -1      8192 3.66334E-01
 -1      8193 3.66334E-01
 -1      8194 3.66334E-01
 -1      8195 3.66333E-01
 -1      8196 3.66333E-01
 -1      8197 3.66333E-01
 -1      8198 3.66333E-01
 -1      8199 3.66333E-01
 -1      8200 3.66333E-01
 -1      8201 3.66334E-01
 -1      8202 3.66334E-01
 -1      8203 3.66334E-01
 -1      8204 3.66334E-01
 -1      8205 3.66333E-01
 -1      8206 3.66333E-01
 -1      8207 3.66333E-01
 -1      8208 3.66333E-01
 -1      8209 3.66333E-01
 -1      8210 3.66333E-01
 -1      8211 3.66334E-01
 -1      8212 3.66334E-01
 -1      8213 3.66334E-01
 -1      8214 3.66334E-01
 -1      8215 3.66333E-01
 -1      8216 3.66333E-01
 -1      8217 3.66333E-01
 -1      8218 3.66333E-01
 -1      8219 3.66333E-01
 -1      8220 3.66333E-01
 -1      8221 3.66334E-01
 -1      8222 3.66334E-01
 -1      8223 3.66334E-01
 -1      8224 3.66334E-01
 -1      8225 3.66333E-01
 -1      8226 3.66333E-01
 -1      8227 3.66333E-01
 -1      8228 3.66333E-01
 -1      8229 3.66333E-01
 -1      8230 3.66333E-01
 -1      8231 3.66334E-01
 -1      8232 3.66334E-01
 -1      8233 3.66334E-01
 -1      8234 3.66334E-01
 -1      8235 3.66333E-01
 -1      8236 3.66333E-01
 -1      8237 3.66333E-01
 -1      8238 3.66333E-01
 -1      8239 3.66333E-01
 -1      8240 3.66333E-01
 -1      8241 3.66334E-01
 -1      8242 3.66334E-01
 -1      8243 3.66334E-01
 -1      8244 3.66334E-01
 -1      8245 3.66334E-01
 -1      8246 3.66334E-01
 -1      8247 3.66333E-01
 -1      8248 3.66333E-01
 -1      8249 3.66334E-01
 -1      8250 3.66334E-01
 -1      8251 3.66334E-01
 -1      8252 3.66334E-01
 -1      8253 3.66334E-01
 -1      8254 3.66334E-01
 -1      8255 3.66334E-01
 -1      8256 3.66334E-01
 -1      8257 3.66333E-01
 -1      8258 3.66333E-01
 -1      8259 3.66334E-01
 -1      8260 3.66334E-01
 -1      8261 3.66334E-01
 -1      8262 3.66334E-01
 -1      8263 3.47708E-01
 -1      8264 3.47702E-01
 -1      8265 3.47699E-01
 -1      8266 3.47698E-01
 -1      8267 3.47698E-01
 -1      8268 3.47698E-01
 -1      8269 3.47698E-01
 -1      8270 3.47699E-01
 -1      8271 3.47702E-01
 -1      8272 3.47708E-01
 -1      8273 3.47708E-01
 -1      8274 3.47702E-01
 -1      8275 3.47699E-01
 -1      8276 3.47698E-01
 -1      8277 3.47698E-01
 -1      8278 3.47698E-01
 -1      8279 3.47698E-01
 -1      8280 3.47699E-01
 -1      8281 3.47702E-01
 -1      8282 3.47708E-01
 -1      8283 3.47708E-01
 -1      8284 3.47702E-01
 -1      8285 3.47699E-01
 -1      8286 3.47699E-01
 -1      8287 3.47698E-01
 -1      8288 3.47698E-01
 -1      8289 3.47699E-01
 -1      8290 3.47699E-01
 -1      8291 3.47702E-01
 -1      8292 3.47708E-01
 -1      8293 3.47708E-01
 -1      8294 3.47702E-01
 -1      8295 3.47699E-01
 -1      8296 3.47699E-01
 -1      8297 3.47699E-01
 -1      8298 3.47699E-01
 -1      8299 3.47699E-01
 -1      8300 3.47699E-01
 -1      8301 3.47702E-01
 -1      8302 3.47708E-01
 -1      8303 3.47708E-01
 -1      8304 3.47702E-01
 -1      8305 3.47699E-01
 -1      8306 3.47699E-01
 -1      8307 3.47699E-01
 -1      8308 3.47699E-01
 -1      8309 3.47699E-01
 -1      8310 3.47699E-01
 -1      8311 3.47702E-01
 -1      8312 3.47708E-01
 -1      8313 3.47708E-01
 -1      8314 3.47702E-01
 -1      8315 3.47699E-01
 -1      8316 3.47699E-01
 -1      8317 3.47699E-01
 -1      8318 3.47699E-01
 -1      8319 3.47699E-01
 -1      8320 3.47699E-01
 -1      8321 3.47702E-01
 -1      8322 3.47708E-01
 -1      8323 3.47708E-01
 -1      8324 3.47703E-01
 -1      8325 3.47699E-01
 -1      8326 3.47699E-01
 -1      8327 3.47699E-01
 -1      8328 3.47699E-01
 -1      8329 3.47699E-01
 -1      8330 3.47699E-01
 -1      8331 3.47703E-01
 -1      8332 3.47708E-01
 -1      8333 3.47708E-01
 -1      8334 3.47703E-01
 -1      8335 3.47699E-01
 -1      8336 3.47699E-01
 -1      8337 3.47699E-01
 -1      8338 3.47699E-01
 -1      8339 3.47699E-01
 -1      8340 3.47699E-01
 -1      8341 3.47703E-01
 -1      8342 3.47708E-01
 -1      8343 3.47708E-01
 -1      8344 3.47703E-01
 -1      8345 3.47699E-01
 -1      8346 3.47699E-01
 -1      8347 3.47699E-01
 -1      8348 3.47699E-01
 -1      8349 3.47699E-01
 -1      8350 3.47699E-01
 -1      8351 3.47703E-01
 -1      8352 3.47708E-01
 -1      8353 3.30375E-01
 -1      8354 3.30379E-01
 -1      8355 3.30379E-01
 -1      8356 3.30376E-01
 -1      8357 3.30374E-01
 -1      8358 3.30374E-01
 -1      8359 3.30376E-01
 -1      8360 3.30379E-01
 -1      8361 3.30379E-01
 -1      8362 3.30375E-01
 -1      8363 3.30375E-01
 -1      8364 3.30380E-01
 -1      8365 3.30380E-01
 -1      8366 3.30376E-01
 -1      8367 3.30374E-01
 -1      8368 3.30374E-01
 -1      8369 3.30376E-01
 -1      8370 3.30380E-01
 -1      8371 3.30380E-01
 -1      8372 3.30375E-01
 -1      8373 3.30376E-01
 -1      8374 3.30380E-01
 -1      8375 3.30380E-01
 -1      8376 3.30377E-01
 -1      8377 3.30375E-01
 -1      8378 3.30375E-01
 -1      8379 3.30377E-01
 -1      8380 3.30380E-01
 -1      8381 3.30380E-01
 -1      8382 3.30376E-01
 -1      8383 3.30376E-01
 -1      8384 3.30380E-01
 -1      8385 3.30380E-01
 -1      8386 3.30377E-01
 -1      8387 3.30375E-01
 -1      8388 3.30375E-01
 -1      8389 3.30377E-01
 -1      8390 3.30380E-01
 -1      8391 3.30380E-01
 -1      8392 3.30376E-01
 -1      8393 3.30376E-01
 -1      8394 3.30380E-01
 -1      8395 3.30380E-01
 -1      8396 3.30376E-01
 -1      8397 3.30375E-01
 -1      8398 3.30375E-01
 -1      8399 3.30376E-01
 -1      8400 3.30380E-01
 -1      8401 3.30380E-01
 -1      8402 3.30376E-01
 -1      8403 3.30376E-01
 -1      8404 3.30380E-01
 -1      8405 3.30380E-01
 -1      8406 3.30377E-01
 -1      8407 3.30375E-01
 -1      8408 3.30375E-01
 -1      8409 3.30377E-01
 -1      8410 3.30380E-01
 -1      8411 3.30380E-01
 -1      8412 3.30376E-01
 -1      8413 3.30376E-01
 -1      8414 3.30380E-01
 -1      8415 3.30380E-01
 -1      8416 3.30377E-01
 -1      8417 3.30376E-01
 -1      8418 3.30376E-01
 -1      8419 3.30377E-01
 -1      8420 3.30380E-01
 -1      8421 3.30380E-01
 -1      8422 3.30376E-01
 -1      8423 3.30376E-01
 -1      8424 3.30380E-01
 -1      8425 3.30380E-01
 -1      8426 3.30377E-01
 -1      8427 3.30376E-01
 -1      8428 3.30376E-01
 -1      8429 3.30377E-01
 -1      8430 3.30380E-01
 -1      8431 3.30380E-01
 -1      8432 3.30376E-01
 -1      8433 3.30376E-01
 -1      8434 3.30381E-01
 -1      8435 3.30381E-01
 -1      8436 3.30377E-01
 -1      8437 3.30376E-01
 -1      8438 3.30376E-01
 -1      8439 3.30377E-01
 -1      8440 3.30381E-01
 -1      8441 3.30381E-01
 -1      8442 3.30376E-01
 -1      8443 3.20347E-01
 -1      8444 3.20316E-01
 -1      8445 3.20314E-01
 -1      8446 3.20317E-01
 -1      8447 3.20317E-01
 -1      8448 3.20317E-01
 -1      8449 3.20317E-01
 -1      8450 3.20314E-01
 -1      8451 3.20316E-01
 -1      8452 3.20347E-01
 -1      8453 3.20347E-01
 -1      8454 3.20317E-01
 -1      8455 3.20315E-01
 -1      8456 3.20318E-01
 -1      8457 3.20318E-01
 -1      8458 3.20318E-01
 -1      8459 3.20318E-01
 -1      8460 3.20315E-01
 -1      8461 3.20317E-01
 -1      8462 3.20347E-01
 -1      8463 3.20347E-01
 -1      8464 3.20317E-01
 -1      8465 3.20315E-01
 -1      8466 3.20318E-01
 -1      8467 3.20318E-01
 -1      8468 3.20318E-01
 -1      8469 3.20318E-01
 -1      8470 3.20315E-01
 -1      8471 3.20317E-01
 -1      8472 3.20347E-01
 -1      8473 3.20353E-01
 -1      8474 3.20325E-01
 -1      8475 3.20324E-01
 -1      8476 3.20327E-01
 -1      8477 3.20327E-01
 -1      8478 3.20327E-01
 -1      8479 3.20327E-01
 -1      8480 3.20324E-01
 -1      8481 3.20325E-01
 -1      8482 3.20353E-01
 -1      8483 3.20367E-01
 -1      8484 3.20340E-01
 -1      8485 3.20341E-01
 -1      8486 3.20344E-01
 -1      8487 3.20345E-01
 -1      8488 3.20345E-01
 -1      8489 3.20344E-01
 -1      8490 3.20341E-01
 -1      8491 3.20340E-01
 -1      8492 3.20367E-01
 -1      8493 3.20367E-01
 -1      8494 3.20340E-01
 -1      8495 3.20341E-01
 -1      8496 3.20344E-01
 -1      8497 3.20345E-01
 -1      8498 3.20345E-01
 -1      8499 3.20344E-01
 -1      8500 3.20341E-01
 -1      8501 3.20340E-01
 -1      8502 3.20367E-01
 -1      8503 3.20349E-01
 -1      8504 3.20319E-01
 -1      8505 3.20316E-01
 -1      8506 3.20319E-01
 -1      8507 3.20320E-01
 -1      8508 3.20320E-01
 -1      8509 3.20319E-01
 -1      8510 3.20316E-01
 -1      8511 3.20319E-01
 -1      8512 3.20349E-01
 -1      8513 3.20371E-01
 -1      8514 3.20349E-01
 -1      8515 3.20350E-01
 -1      8516 3.20353E-01
 -1      8517 3.20354E-01
 -1      8518 3.20354E-01
 -1      8519 3.20353E-01
 -1      8520 3.20350E-01
 -1      8521 3.20349E-01
 -1      8522 3.20371E-01
 -1      8523 3.20375E-01
 -1      8524 3.20352E-01
 -1      8525 3.20353E-01
 -1      8526 3.20357E-01
 -1      8527 3.20357E-01
 -1      8528 3.20357E-01
 -1      8529 3.20357E-01
 -1      8530 3.20353E-01
 -1      8531 3.20352E-01
 -1      8532 3.20375E-01
 -1      8533 1.94306E+00
 -1      8534 1.94306E+00
 -1      8535 1.94306E+00
 -1      8540 1.94303E+00
 -1      8541 1.94301E+00
 -1      8542 1.94301E+00
 -1      8547 1.94300E+00
 -1      8548 1.94299E+00
 -1      8549 1.94299E+00
 -1      8554 1.94299E+00
 -1      8555 1.94299E+00
 -1      8556 1.94299E+00
 -1      8561 1.94299E+00
 -1      8562 1.94299E+00
 -1      8563 1.94299E+00
 -1      8568 1.94299E+00
 -1      8569 1.94299E+00
 -1      8570 1.94299E+00
 -1      8575 1.94299E+00
 -1      8576 1.94299E+00
 -1      8577 1.94299E+00
 -1      8582 1.94299E+00
 -1      8583 1.94299E+00
 -1      8584 1.94299E+00
 -1      8589 1.94300E+00
 -1      8590 1.94301E+00
 -1      8591 1.94301E+00
 -1      8596 1.94303E+00
 -1      8597 1.94306E+00
 -1      8598 1.94306E+00
 -1      8603 1.94306E+00
 -1      8607 1.94306E+00
 -1      8608 1.94306E+00
 -1      8609 1.94306E+00
 -1      8614 1.94303E+00
 -1      8615 1.94301E+00
 -1      8616 1.94301E+00
 -1      8621 1.94300E+00
 -1      8622 1.94299E+00
 -1      8623 1.94299E+00
 -1      8628 1.94299E+00
 -1      8629 1.94299E+00
 -1      8630 1.94299E+00
 -1      8635 1.94299E+00
 -1      8636 1.94299E+00
 -1      8637 1.94299E+00
 -1      8642 1.94299E+00
 -1      8643 1.94299E+00
 -1      8644 1.94299E+00
 -1      8649 1.94299E+00
 -1      8650 1.94299E+00
 -1      8651 1.94299E+00
 -1      8656 1.94299E+00
 -1      8657 1.94299E+00
 -1      8658 1.94299E+00
 -1      8663 1.94300E+00
 -1      8664 1.94301E+00
 -1      8665 1.94301E+00
 -1      8670 1.94303E+00
 -1      8671 1.94306E+00
 -1      8672 1.94306E+00
 -1      8677 1.94306E+00
 -1      8681 1.94306E+00
 -1      8682 1.94306E+00
 -1      8683 1.94306E+00
 -1      8688 1.94303E+00
 -1      8689 1.94301E+00
 -1      8690 1.94301E+00
 -1      8695 1.94300E+00
 -1      8696 1.94299E+00
 -1      8697 1.94299E+00
 -1      8702 1.94299E+00
 -1      8703 1.94299E+00
 -1      8704 1.94299E+00
 -1      8709 1.94299E+00
 -1      8710 1.94299E+00
 -1      8711 1.94299E+00
 -1      8716 1.94299E+00
 -1      8717 1.94299E+00
 -1      8718 1.94299E+00
 -1      8723 1.94299E+00
 -1      8724 1.94299E+00
 -1      8725 1.94299E+00
 -1      8730 1.94299E+00
 -1      8731 1.94299E+00
 -1      8732 1.94299E+00
 -1      8737 1.94300E+00
 -1      8738 1.94301E+00
 -1      8739 1.94301E+00
 -1      8744 1.94303E+00
 -1      8745 1.94306E+00
 -1      8746 1.94306E+00
 -1      8751 1.94306E+00
 -1      8755 1.94306E+00
 -1      8756 1.94306E+00
 -1      8757 1.94306E+00
 -1      8762 1.94303E+00
 -1      8763 1.94301E+00
 -1      8764 1.94301E+00
 -1      8769 1.94300E+00
 -1      8770 1.94299E+00
 -1      8771 1.94299E+00
 -1      8776 1.94299E+00
 -1      8777 1.94299E+00
 -1      8778 1.94299E+00
 -1      8783 1.94299E+00
 -1      8784 1.94299E+00
 -1      8785 1.94299E+00
 -1      8790 1.94299E+00
 -1      8791 1.94299E+00
 -1      8792 1.94299E+00
 -1      8797 1.94299E+00
 -1      8798 1.94299E+00
 -1      8799 1.94299E+00
 -1      8804 1.94299E+00
 -1      8805 1.94299E+00
 -1      8806 1.94299E+00
 -1      8811 1.94300E+00
 -1      8812 1.94301E+00
 -1      8813 1.94301E+00
 -1      8818 1.94303E+00
 -1      8819 1.94306E+00
 -1      8820 1.94306E+00
 -1      8825 1.94306E+00
 -1      8829 1.94306E+00
 -1      8830 1.94306E+00
 -1      8831 1.94306E+00
 -1      8836 1.94303E+00
 -1      8837 1.94301E+00
 -1      8838 1.94301E+00
 -1      8843 1.94300E+00
 -1      8844 1.94299E+00
 -1      8845 1.94299E+00
 -1      8850 1.94299E+00
 -1      8851 1.94299E+00
 -1      8852 1.94299E+00
 -1      8857 1.94299E+00
 -1      8858 1.94299E+00
 -1      8859 1.94299E+00
 -1      8864 1.94299E+00
 -1      8865 1.94299E+00
 -1      8866 1.94299E+00
 -1      8871 1.94299E+00
 -1      8872 1.94299E+00
 -1      8873 1.94299E+00
 -1      8878 1.94299E+00
 -1      8879 1.94299E+00
 -1      8880 1.94299E+00
 -1      8885 1.94300E+00
 -1      8886 1.94301E+00
 -1      8887 1.94301E+00
 -1      8892 1.94303E+00
 -1      8893 1.94306E+00
 -1      8894 1.94306E+00
 -1      8899 1.94306E+00
 -1      8903 1.94306E+00
 -1      8904 1.94306E+00
 -1      8905 1.94306E+00
 -1      8910 1.94303E+00
 -1      8911 1.94301E+00
 -1      8912 1.94301E+00
 -1      8917 1.94300E+00
 -1      8918 1.94299E+00
 -1      8919 1.94299E+00
 -1      8924 1.94299E+00
 -1      8925 1.94299E+00
 -1      8926 1.94299E+00
 -1      8931 1.94299E+00
 -1      8932 1.94299E+00
 -1      8933 1.94299E+00
 -1      8938 1.94299E+00
 -1      8939 1.94299E+00
 -1      8940 1.94299E+00
 -1      8945 1.94299E+00
 -1      8946 1.94299E+00
 -1      8947 1.94299E+00
 -1      8952 1.94299E+00
 -1      8953 1.94299E+00
 -1      8954 1.94299E+00
 -1      8959 1.94300E+00
 -1      8960 1.94301E+00
 -1      8961 1.94301E+00
 -1      8966 1.94303E+00
 -1      8967 1.94306E+00
 -1      8968 1.94306E+00
 -1      8973 1.94306E+00
 -1      8977 1.94306E+00
 -1      8978 1.94306E+00
 -1      8979 1.94306E+00
 -1      8984 1.94303E+00
 -1      8985 1.94301E+00
 -1      8986 1.94301E+00
 -1      8991 1.94300E+00
 -1      8992 1.94299E+00
 -1      8993 1.94299E+00
 -1      8998 1.94299E+00
 -1      8999 1.94299E+00
 -1      9000 1.94299E+00
 -1      9005 1.94299E+00
 -1      9006 1.94299E+00
 -1      9007 1.94299E+00
 -1      9012 1.94299E+00
 -1      9013 1.94299E+00
 -1      9014 1.94299E+00
 -1      9019 1.94299E+00
 -1      9020 1.94299E+00
 -1      9021 1.94299E+00
 -1      9026 1.94299E+00
 -1      9027 1.94299E+00
 -1      9028 1.94299E+00
 -1      9033 1.94300E+00
 -1      9034 1.94301E+00
 -1      9035 1.94301E+00
 -1      9040 1.94303E+00
 -1      9041 1.94306E+00
 -1      9042 1.94306E+00
 -1      9047 1.94306E+00
 -1      9051 1.94306E+00
 -1      9052 1.94306E+00
 -1      9053 1.94306E+00
 -1      9058 1.94303E+00
 -1      9059 1.94301E+00
 -1      9060 1.94301E+00
 -1      9065 1.94300E+00
 -1      9066 1.94299E+00
 -1      9067 1.94299E+00
 -1      9072 1.94299E+00
 -1      9073 1.94299E+00
 -1      9074 1.94299E+00
 -1      9079 1.94299E+00
 -1      9080 1.94299E+00
 -1      9081 1.94299E+00
 -1      9086 1.94299E+00
 -1      9087 1.94299E+00
 -1      9088 1.94299E+00
 -1      9093 1.94299E+00
 -1      9094 1.94299E+00
 -1      9095 1.94299E+00
 -1      9100 1.94299E+00
 -1      9101 1.94299E+00
 -1      9102 1.94299E+00
 -1      9107 1.94300E+00
 -1      9108 1.94301E+00
 -1      9109 1.94301E+00
 -1      9114 1.94303E+00
 -1      9115 1.94306E+00
 -1      9116 1.94306E+00
 -1      9121 1.94306E+00
 -1      9125 1.94306E+00
 -1      9126 1.94306E+00
 -1      9127 1.94306E+00
 -1      9132 1.94303E+00
 -1      9133 1.94301E+00
 -1      9134 1.94301E+00
 -1      9139 1.94300E+00
 -1      9140 1.94299E+00
 -1      9141 1.94299E+00
 -1      9146 1.94299E+00
 -1      9147 1.94299E+00
 -1      9148 1.94299E+00
 -1      9153 1.94299E+00
 -1      9154 1.94299E+00
 -1      9155 1.94299E+00
 -1      9160 1.94299E+00
 -1      9161 1.94299E+00
 -1      9162 1.94299E+00
 -1      9167 1.94299E+00
 -1      9168 1.94299E+00
 -1      9169 1.94299E+00
 -1      9174 1.94299E+00
 -1      9175 1.94299E+00
 -1      9176 1.94299E+00
 -1      9181 1.94300E+00
 -1      9182 1.94301E+00
 -1      9183 1.94301E+00
 -1      9188 1.94303E+00
 -1      9189 1.94306E+00
 -1      9190 1.94306E+00
 -1      9195 1.94306E+00
 -1      9199 1.94306E+00
 -1      9203 1.94301E+00
 -1      9207 1.94299E+00
 -1      9211 1.94299E+00
 -1      9215 1.94299E+00
 -1      9219 1.94299E+00
 -1      9223 1.94299E+00
 -1      9227 1.94299E+00
 -1      9231 1.94301E+00
 -1      9235 1.94306E+00
 -1      9241 1.79799E+00
 -1      9242 1.79799E+00
 -1      9243 1.87053E+00
 -1      9248 1.79798E+00
 -1      9249 1.79796E+00
 -1      9250 1.87048E+00
 -1      9255 1.79796E+00
 -1      9256 1.79796E+00
 -1      9257 1.87048E+00
 -1      9262 1.79796E+00
 -1      9263 1.79796E+00
 -1      9264 1.87047E+00
 -1      9269 1.79796E+00
 -1      9270 1.79796E+00
 -1      9271 1.87047E+00
 -1      9276 1.79796E+00
 -1      9277 1.79796E+00
 -1      9278 1.87047E+00
 -1      9283 1.79796E+00
 -1      9284 1.79796E+00
 -1      9285 1.87047E+00
 -1      9290 1.79796E+00
 -1      9291 1.79796E+00
 -1      9292 1.87048E+00
 -1      9297 1.79796E+00
 -1      9298 1.79796E+00
 -1      9299 1.87048E+00
 -1      9304 1.79798E+00
 -1      9305 1.79799E+00
 -1      9306 1.87053E+00
 -1      9311 1.79799E+00
 -1      9315 1.79799E+00
 -1      9316 1.79799E+00
 -1      9317 1.87053E+00
 -1      9322 1.79798E+00
 -1      9323 1.79796E+00
 -1      9324 1.87048E+00
 -1      9329 1.79796E+00
 -1      9330 1.79796E+00
 -1      9331 1.87048E+00
 -1      9336 1.79796E+00
 -1      9337 1.79796E+00
 -1      9338 1.87047E+00
 -1      9343 1.79796E+00
 -1      9344 1.79796E+00
 -1      9345 1.87047E+00
 -1      9350 1.79796E+00
 -1      9351 1.79796E+00
 -1      9352 1.87047E+00
 -1      9357 1.79796E+00
 -1      9358 1.79796E+00
 -1      9359 1.87047E+00
 -1      9364 1.79796E+00
 -1      9365 1.79796E+00
 -1      9366 1.87048E+00
 -1      9371 1.79796E+00
 -1      9372 1.79796E+00
 -1      9373 1.87048E+00
 -1      9378 1.79798E+00
 -1      9379 1.79799E+00
 -1      9380 1.87053E+00
 -1      9385 1.79799E+00
 -1      9389 1.79799E+00
 -1      9390 1.79799E+00
 -1      9391 1.87053E+00
 -1      9396 1.79798E+00
 -1      9397 1.79796E+00
 -1      9398 1.87048E+00
 -1      9403 1.79796E+00
 -1      9404 1.79796E+00
 -1      9405 1.87048E+00
 -1      9410 1.79796E+00
 -1      9411 1.79796E+00
 -1      9412 1.87047E+00
 -1      9417 1.79796E+00
 -1      9418 1.79796E+00
 -1      9419 1.87047E+00
 -1      9424 1.79796E+00
 -1      9425 1.79796E+00
 -1      9426 1.87047E+00
 -1      9431 1.79796E+00
 -1      9432 1.79796E+00
 -1      9433 1.87047E+00
 -1      9438 1.79796E+00
 -1      9439 1.79796E+00
 -1      9440 1.87048E+00
 -1      9445 1.79796E+00
 -1      9446 1.79796E+00
 -1      9447 1.87048E+00
 -1      9452 1.79798E+00
 -1      9453 1.79799E+00
 -1      9454 1.87053E+00
 -1      9459 1.79799E+00
 -1      9463 1.79799E+00
 -1      9464 1.79799E+00
 -1      9465 1.87053E+00
 -1      9470 1.79798E+00
 -1      9471 1.79796E+00
 -1      9472 1.87048E+00
 -1      9477 1.79796E+00
 -1      9478 1.79796E+00
 -1      9479 1.87048E+00
 -1      9484 1.79796E+00
 -1      9485 1.79796E+00
 -1      9486 1.87047E+00
 -1      9491 1.79796E+00
 -1      9492 1.79796E+00
 -1      9493 1.87047E+00
 -1      9498 1.79796E+00
 -1      9499 1.79796E+00
 -1      9500 1.87047E+00
 -1      9505 1.79796E+00
 -1      9506 1.79796E+00
 -1      9507 1.87047E+00
 -1      9512 1.79796E+00
 -1      9513 1.79796E+00
 -1      9514 1.87048E+00
 -1      9519 1.79796E+00
 -1      9520 1.79796E+00
 -1      9521 1.87048E+00
 -1      9526 1.79798E+00
 -1      9527 1.79799E+00
 -1      9528 1.87053E+00
 -1      9533 1.79799E+00
 -1      9537 1.79799E+00
 -1      9538 1.79799E+00
 -1      9539 1.87053E+00
 -1      9544 1.79798E+00
 -1      9545 1.79796E+00
 -1      9546 1.87048E+00
 -1      9551 1.79796E+00
 -1      9552 1.79796E+00
 -1      9553 1.87048E+00
 -1      9558 1.79796E+00
 -1      9559 1.79796E+00
 -1      9560 1.87047E+00
 -1      9565 1.79796E+00
 -1      9566 1.79796E+00
 -1      9567 1.87047E+00
 -1      9572 1.79796E+00
 -1      9573 1.79796E+00
 -1      9574 1.87047E+00
 -1      9579 1.79796E+00
 -1      9580 1.79796E+00
 -1      9581 1.87047E+00
 -1      9586 1.79796E+00
 -1      9587 1.79796E+00
 -1      9588 1.87048E+00
 -1      9593 1.79796E+00
 -1      9594 1.79796E+00
 -1      9595 1.87048E+00
 -1      9600 1.79798E+00
 -1      9601 1.79799E+00
 -1      9602 1.87053E+00
 -1      9607 1.79799E+00
 -1      9611 1.79799E+00
 -1      9612 1.79799E+00
 -1      9613 1.87053E+00
 -1      9618 1.79798E+00
 -1      9619 1.79796E+00
 -1      9620 1.87048E+00
 -1      9625 1.79796E+00
 -1      9626 1.79796E+00
 -1      9627 1.87048E+00
 -1      9632 1.79796E+00
 -1      9633 1.79796E+00
 -1      9634 1.87047E+00
 -1      9639 1.79796E+00
 -1      9640 1.79796E+00
 -1      9641 1.87047E+00
 -1      9646 1.79796E+00
 -1      9647 1.79796E+00
 -1      9648 1.87047E+00
 -1      9653 1.79796E+00
 -1      9654 1.79796E+00
 -1      9655 1.87047E+00
 -1      9660 1.79796E+00
 -1      9661 1.79796E+00
 -1      9662 1.87048E+00
 -1      9667 1.79796E+00
 -1      9668 1.79796E+00
 -1      9669 1.87048E+00
 -1      9674 1.79798E+00
 -1      9675 1.79799E+00
 -1      9676 1.87053E+00
 -1      9681 1.79799E+00
 -1      9685 1.79799E+00
 -1      9686 1.79799E+00
 -1      9687 1.87053E+00
 -1      9692 1.79798E+00
 -1      9693 1.79796E+00
 -1      9694 1.87048E+00
 -1      9699 1.79796E+00
 -1      9700 1.79796E+00
 -1      9701 1.87048E+00
 -1      9706 1.79796E+00
 -1      9707 1.79796E+00
 -1      9708 1.87047E+00
 -1      9713 1.79796E+00
 -1      9714 1.79796E+00
 -1      9715 1.87047E+00
 -1      9720 1.79796E+00
 -1      9721 1.79796E+00
 -1      9722 1.87047E+00
 -1      9727 1.79796E+00
 -1      9728 1.79796E+00
 -1      9729 1.87047E+00
 -1      9734 1.79796E+00
 -1      9735 1.79796E+00
 -1      9736 1.87048E+00
 -1      9741 1.79796E+00
 -1      9742 1.79796E+00
 -1      9743 1.87048E+00
 -1      9748 1.79798E+00
 -1      9749 1.79799E+00
 -1      9750 1.87053E+00
 -1      9755 1.79799E+00
 -1      9759 1.79799E+00
 -1      9760 1.79799E+00
 -1      9761 1.87053E+00
 -1      9766 1.79798E+00
 -1      9767 1.79796E+00
 -1      9768 1.87048E+00
 -1      9773 1.79796E+00
 -1      9774 1.79796E+00
 -1      9775 1.87048E+00
 -1      9780 1.79796E+00
 -1      9781 1.79796E+00
 -1      9782 1.87047E+00
 -1      9787 1.79796E+00
 -1      9788 1.79796E+00
 -1      9789 1.87047E+00
 -1      9794 1.79796E+00
 -1      9795 1.79796E+00
 -1      9796 1.87047E+00
 -1      9801 1.79796E+00
 -1      9802 1.79796E+00
 -1      9803 1.87047E+00
 -1      9808 1.79796E+00
 -1      9809 1.79796E+00
 -1      9810 1.87048E+00
 -1      9815 1.79796E+00
 -1      9816 1.79796E+00
 -1      9817 1.87048E+00
 -1      9822 1.79798E+00
 -1      9823 1.79799E+00
 -1      9824 1.87053E+00
 -1      9829 1.79799E+00
 -1      9833 1.79799E+00
 -1      9834 1.79799E+00
 -1      9835 1.87053E+00
 -1      9840 1.79798E+00
 -1      9841 1.79796E+00
 -1      9842 1.87048E+00
 -1      9847 1.79796E+00
 -1      9848 1.79796E+00
 -1      9849 1.87048E+00
 -1      9854 1.79796E+00
 -1      9855 1.79796E+00
 -1      9856 1.87047E+00
 -1      9861 1.79796E+00
 -1      9862 1.79796E+00
 -1      9863 1.87047E+00
 -1      9868 1.79796E+00
 -1      9869 1.79796E+00
 -1      9870 1.87047E+00
 -1      9875 1.79796E+00
 -1      9876 1.79796E+00
 -1      9877 1.87047E+00
 -1      9882 1.79796E+00
 -1      9883 1.79796E+00
 -1      9884 1.87048E+00
 -1      9889 1.79796E+00
 -1      9890 1.79796E+00
 -1      9891 1.87048E+00
 -1      9896 1.79798E+00
 -1      9897 1.79799E+00
 -1      9898 1.87053E+00
 -1      9903 1.79799E+00
 -1      9907 1.79799E+00
 -1      9911 1.79796E+00
 -1      9915 1.79796E+00
 -1      9919 1.79796E+00
 -1      9923 1.79796E+00
 -1      9927 1.79796E+00
 -1      9931 1.79796E+00
 -1      9935 1.79796E+00
 -1      9939 1.79796E+00
 -1      9943 1.79799E+00
 -1      9949 1.63850E+00
 -1      9950 1.63850E+00
 -1      9951 1.71825E+00
 -1      9956 1.63850E+00
 -1      9957 1.63850E+00
 -1      9958 1.71823E+00
 -1      9963 1.63850E+00
 -1      9964 1.63850E+00
 -1      9965 1.71823E+00
 -1      9970 1.63850E+00
 -1      9971 1.63850E+00
 -1      9972 1.71823E+00
 -1      9977 1.63850E+00
 -1      9978 1.63850E+00
 -1      9979 1.71823E+00
 -1      9984 1.63850E+00
 -1      9985 1.63850E+00
 -1      9986 1.71823E+00
 -1      9991 1.63850E+00
 -1      9992 1.63850E+00
 -1      9993 1.71823E+00
 -1      9998 1.63850E+00
 -1      9999 1.63850E+00
 -1     10000 1.71823E+00
 -1     10005 1.63850E+00
 -1     10006 1.63850E+00
 -1     10007 1.71823E+00
 -1     10012 1.63850E+00
 -1     10013 1.63850E+00
 -1     10014 1.71825E+00
 -1     10019 1.63850E+00
 -1     10023 1.63850E+00
 -1     10024 1.63850E+00
 -1     10025 1.71825E+00
 -1     10030 1.63850E+00
 -1     10031 1.63850E+00
 -1     10032 1.71823E+00
 -1     10037 1.63850E+00
 -1     10038 1.63850E+00
 -1     10039 1.71823E+00
 -1     10044 1.63850E+00
 -1     10045 1.63850E+00
 -1     10046 1.71823E+00
 -1     10051 1.63850E+00
 -1     10052 1.63850E+00
 -1     10053 1.71823E+00
 -1     10058 1.63850E+00
 -1     10059 1.63850E+00
 -1     10060 1.71823E+00
 -1     10065 1.63850E+00
 -1     10066 1.63850E+00
 -1     10067 1.71823E+00
 -1     10072 1.63850E+00
 -1     10073 1.63850E+00
 -1     10074 1.71823E+00
 -1     10079 1.63850E+00
 -1     10080 1.63850E+00
 -1     10081 1.71823E+00
 -1     10086 1.63850E+00
 -1     10087 1.63850E+00
 -1     10088 1.71825E+00
 -1     10093 1.63850E+00
 -1     10097 1.63850E+00
 -1     10098 1.63850E+00
 -1     10099 1.71825E+00
 -1     10104 1.63850E+00
 -1     10105 1.63850E+00
 -1     10106 1.71823E+00
 -1     10111 1.63850E+00
 -1     10112 1.63850E+00
 -1     10113 1.71823E+00
 -1     10118 1.63850E+00
 -1     10119 1.63850E+00
 -1     10120 1.71823E+00
 -1     10125 1.63850E+00
 -1     10126 1.63850E+00
 -1     10127 1.71823E+00
 -1     10132 1.63850E+00
 -1     10133 1.63850E+00
 -1     10134 1.71823E+00
 -1     10139 1.63850E+00
 -1     10140 1.63850E+00
 -1     10141 1.71823E+00
 -1     10146 1.63850E+00
 -1     10147 1.63850E+00
 -1     10148 1.71823E+00
 -1     10153 1.63850E+00
 -1     10154 1.63850E+00
 -1     10155 1.71823E+00
 -1     10160 1.63850E+00
 -1     10161 1.63850E+00
 -1     10162 1.71825E+00
 -1     10167 1.63850E+00
 -1     10171 1.63850E+00
 -1     10172 1.63850E+00
 -1     10173 1.71825E+00
 -1     10178 1.63850E+00
 -1     10179 1.63850E+00
 -1     10180 1.71823E+00
 -1     10185 1.63850E+00
 -1     10186 1.63850E+00
 -1     10187 1.71823E+00
 -1     10192 1.63850E+00
 -1     10193 1.63850E+00
 -1     10194 1.71823E+00
 -1     10199 1.63850E+00
 -1     10200 1.63850E+00
 -1     10201 1.71823E+00
 -1     10206 1.63850E+00
 -1     10207 1.63850E+00
 -1     10208 1.71823E+00
 -1     10213 1.63850E+00
 -1     10214 1.63850E+00
 -1     10215 1.71823E+00
 -1     10220 1.63850E+00
 -1     10221 1.63850E+00
 -1     10222 1.71823E+00
 -1     10227 1.63850E+00
 -1     10228 1.63850E+00
 -1     10229 1.71823E+00
 -1     10234 1.63850E+00
 -1     10235 1.63850E+00
 -1     10236 1.71825E+00
 -1     10241 1.63850E+00
 -1     10245 1.63850E+00
 -1     10246 1.63850E+00
 -1     10247 1.71825E+00
 -1     10252 1.63850E+00
 -1     10253 1.63850E+00
 -1     10254 1.71823E+00
 -1     10259 1.63850E+00
 -1     10260 1.63850E+00
 -1     10261 1.71823E+00
 -1     10266 1.63850E+00
 -1     10267 1.63850E+00
 -1     10268 1.71823E+00
 -1     10273 1.63850E+00
 -1     10274 1.63850E+00
 -1     10275 1.71823E+00
 -1     10280 1.63850E+00
 -1     10281 1.63850E+00
 -1     10282 1.71823E+00
 -1     10287 1.63850E+00
 -1     10288 1.63850E+00
 -1     10289 1.71823E+00
 -1     10294 1.63850E+00
 -1     10295 1.63850E+00
 -1     10296 1.71823E+00
 -1     10301 1.63850E+00
 -1     10302 1.63850E+00
 -1     10303 1.71823E+00
 -1     10308 1.63850E+00
 -1     10309 1.63850E+00
 -1     10310 1.71825E+00
 -1     10315 1.63850E+00
 -1     10319 1.63850E+00
 -1     10320 1.63850E+00
 -1     10321 1.71825E+00
 -1     10326 1.63850E+00
 -1     10327 1.63850E+00
 -1     10328 1.71823E+00
 -1     10333 1.63850E+00
 -1     10334 1.63850E+00
 -1     10335 1.71823E+00
 -1     10340 1.63850E+00
 -1     10341 1.63850E+00
 -1     10342 1.71823E+00
 -1     10347 1.63850E+00
 -1     10348 1.63850E+00
 -1     10349 1.71823E+00
 -1     10354 1.63850E+00
 -1     10355 1.63850E+00
 -1     10356 1.71823E+00
 -1     10361 1.63850E+00
 -1     10362 1.63850E+00
 -1     10363 1.71823E+00
 -1     10368 1.63850E+00
 -1     10369 1.63850E+00
 -1     10370 1.71823E+00
 -1     10375 1.63850E+00
 -1     10376 1.63850E+00
 -1     10377 1.71823E+00
 -1     10382 1.63850E+00
 -1     10383 1.63850E+00
 -1     10384 1.71825E+00
 -1     10389 1.63850E+00
 -1     10393 1.63850E+00
 -1     10394 1.63850E+00
 -1     10395 1.71825E+00
 -1     10400 1.63850E+00
 -1     10401 1.63850E+00
 -1     10402 1.71823E+00
 -1     10407 1.63850E+00
 -1     10408 1.63850E+00
 -1     10409 1.71823E+00
 -1     10414 1.63850E+00
 -1     10415 1.63850E+00
 -1     10416 1.71823E+00
 -1     10421 1.63850E+00
 -1     10422 1.63850E+00
 -1     10423 1.71823E+00
 -1     10428 1.63850E+00
 -1     10429 1.63850E+00
 -1     10430 1.71823E+00
 -1     10435 1.63850E+00
 -1     10436 1.63850E+00
 -1     10437 1.71823E+00
 -1     10442 1.63850E+00
 -1     10443 1.63850E+00
 -1     10444 1.71823E+00
 -1     10449 1.63850E+00
 -1     10450 1.63850E+00
 -1     10451 1.71823E+00
 -1     10456 1.63850E+00
 -1     10457 1.63850E+00
 -1     10458 1.71825E+00
 -1     10463 1.63850E+00
 -1     10467 1.63850E+00
 -1     10468 1.63850E+00
 -1     10469 1.71825E+00
 -1     10474 1.63850E+00
 -1     10475 1.63850E+00
 -1     10476 1.71823E+00
 -1     10481 1.63850E+00
 -1     10482 1.63850E+00
 -1     10483 1.71823E+00
 -1     10488 1.63850E+00
 -1     10489 1.63850E+00
 -1     10490 1.71823E+00
 -1     10495 1.63850E+00
 -1     10496 1.63850E+00
 -1     10497 1.71823E+00
 -1     10502 1.63850E+00
 -1     10503 1.63850E+00
 -1     10504 1.71823E+00
 -1     10509 1.63850E+00
 -1     10510 1.63850E+00
 -1     10511 1.71823E+00
 -1     10516 1.63850E+00
 -1     10517 1.63850E+00
 -1     10518 1.71823E+00
 -1     10523 1.63850E+00
 -1     10524 1.63850E+00
 -1     10525 1.71823E+00
 -1     10530 1.63850E+00
 -1     10531 1.63850E+00
 -1     10532 1.71825E+00
 -1     10537 1.63850E+00
 -1     10541 1.63850E+00
 -1     10542 1.63850E+00
 -1     10543 1.71825E+00
 -1     10548 1.63850E+00
 -1     10549 1.63850E+00
 -1     10550 1.71823E+00
 -1     10555 1.63850E+00
 -1     10556 1.63850E+00
 -1     10557 1.71823E+00
 -1     10562 1.63850E+00
 -1     10563 1.63850E+00
 -1     10564 1.71823E+00
 -1     10569 1.63850E+00
 -1     10570 1.63850E+00
 -1     10571 1.71823E+00
 -1     10576 1.63850E+00
 -1     10577 1.63850E+00
 -1     10578 1.71823E+00
 -1     10583 1.63850E+00
 -1     10584 1.63850E+00
 -1     10585 1.71823E+00
 -1     10590 1.63850E+00
 -1     10591 1.63850E+00
 -1     10592 1.71823E+00
 -1     10597 1.63850E+00
 -1     10598 1.63850E+00
 -1     10599 1.71823E+00
 -1     10604 1.63850E+00
 -1     10605 1.63850E+00
 -1     10606 1.71825E+00
 -1     10611 1.63850E+00
 -1     10615 1.63850E+00
 -1     10619 1.63850E+00
 -1     10623 1.63850E+00
 -1     10627 1.63850E+00
 -1     10631 1.63850E+00
 -1     10635 1.63850E+00
 -1     10639 1.63850E+00
 -1     10643 1.63850E+00
 -1     10647 1.63850E+00
 -1     10651 1.63850E+00
 -1     10657 1.50033E+00
 -1     10658 1.50033E+00
 -1     10659 1.56941E+00
 -1     10664 1.50033E+00
 -1     10665 1.50032E+00
 -1     10666 1.56941E+00
 -1     10671 1.50032E+00
 -1     10672 1.50032E+00
 -1     10673 1.56941E+00
 -1     10678 1.50032E+00
 -1     10679 1.50032E+00
 -1     10680 1.56941E+00
 -1     10685 1.50032E+00
 -1     10686 1.50032E+00
 -1     10687 1.56941E+00
 -1     10692 1.50032E+00
 -1     10693 1.50032E+00
 -1     10694 1.56941E+00
 -1     10699 1.50032E+00
 -1     10700 1.50032E+00
 -1     10701 1.56941E+00
 -1     10706 1.50032E+00
 -1     10707 1.50032E+00
 -1     10708 1.56941E+00
 -1     10713 1.50032E+00
 -1     10714 1.50032E+00
 -1     10715 1.56941E+00
 -1     10720 1.50033E+00
 -1     10721 1.50033E+00
 -1     10722 1.56941E+00
 -1     10727 1.50033E+00
 -1     10731 1.50033E+00
 -1     10732 1.50033E+00
 -1     10733 1.56941E+00
 -1     10738 1.50033E+00
 -1     10739 1.50032E+00
 -1     10740 1.56941E+00
 -1     10745 1.50032E+00
 -1     10746 1.50032E+00
 -1     10747 1.56941E+00
 -1     10752 1.50032E+00
 -1     10753 1.50032E+00
 -1     10754 1.56941E+00
 -1     10759 1.50032E+00
 -1     10760 1.50032E+00
 -1     10761 1.56941E+00
 -1     10766 1.50032E+00
 -1     10767 1.50032E+00
 -1     10768 1.56941E+00
 -1     10773 1.50032E+00
 -1     10774 1.50032E+00
 -1     10775 1.56941E+00
 -1     10780 1.50032E+00
 -1     10781 1.50032E+00
 -1     10782 1.56941E+00
 -1     10787 1.50032E+00
 -1     10788 1.50032E+00
 -1     10789 1.56941E+00
 -1     10794 1.50033E+00
 -1     10795 1.50033E+00
 -1     10796 1.56941E+00
 -1     10801 1.50033E+00
 -1     10805 1.50033E+00
 -1     10806 1.50033E+00
 -1     10807 1.56941E+00
 -1     10812 1.50033E+00
 -1     10813 1.50032E+00
 -1     10814 1.56941E+00
 -1     10819 1.50032E+00
 -1     10820 1.50032E+00
 -1     10821 1.56941E+00
 -1     10826 1.50032E+00
 -1     10827 1.50032E+00
 -1     10828 1.56941E+00
 -1     10833 1.50032E+00
 -1     10834 1.50032E+00
 -1     10835 1.56941E+00
 -1     10840 1.50032E+00
 -1     10841 1.50032E+00
 -1     10842 1.56941E+00
 -1     10847 1.50032E+00
 -1     10848 1.50032E+00
 -1     10849 1.56941E+00
 -1     10854 1.50032E+00
 -1     10855 1.50032E+00
 -1     10856 1.56941E+00
 -1     10861 1.50032E+00
 -1     10862 1.50032E+00
 -1     10863 1.56941E+00
 -1     10868 1.50033E+00
 -1     10869 1.50033E+00
 -1     10870 1.56941E+00
 -1     10875 1.50033E+00
 -1     10879 1.50033E+00
 -1     10880 1.50033E+00
 -1     10881 1.56941E+00
 -1     10886 1.50033E+00
 -1     10887 1.50032E+00
 -1     10888 1.56941E+00
 -1     10893 1.50032E+00
 -1     10894 1.50032E+00
 -1     10895 1.56941E+00
 -1     10900 1.50032E+00
 -1     10901 1.50032E+00
 -1     10902 1.56941E+00
 -1     10907 1.50032E+00
 -1     10908 1.50032E+00
 -1     10909 1.56941E+00
 -1     10914 1.50032E+00
 -1     10915 1.50032E+00
 -1     10916 1.56941E+00
 -1     10921 1.50032E+00
 -1     10922 1.50032E+00
 -1     10923 1.56941E+00
 -1     10928 1.50032E+00
 -1     10929 1.50032E+00
 -1     10930 1.56941E+00
 -1     10935 1.50032E+00
 -1     10936 1.50032E+00
 -1     10937 1.56941E+00
 -1     10942 1.50033E+00
 -1     10943 1.50033E+00
 -1     10944 1.56941E+00
 -1     10949 1.50033E+00
 -1     10953 1.50033E+00
 -1     10954 1.50033E+00
 -1     10955 1.56941E+00
 -1     10960 1.50033E+00
 -1     10961 1.50032E+00
 -1     10962 1.56941E+00
 -1     10967 1.50032E+00
 -1     10968 1.50032E+00
 -1     10969 1.56941E+00
 -1     10974 1.50032E+00
 -1     10975 1.50032E+00
 -1     10976 1.56941E+00
 -1     10981 1.50032E+00
 -1     10982 1.50032E+00
 -1     10983 1.56941E+00
 -1     10988 1.50032E+00
 -1     10989 1.50032E+00
 -1     10990 1.56941E+00
 -1     10995 1.50032E+00
 -1     10996 1.50032E+00
 -1     10997 1.56941E+00
 -1     11002 1.50032E+00
 -1     11003 1.50032E+00
 -1     11004 1.56941E+00
 -1     11009 1.50032E+00
 -1     11010 1.50032E+00
 -1     11011 1.56941E+00
 -1     11016 1.50033E+00
 -1     11017 1.50033E+00
 -1     11018 1.56941E+00
 -1     11023 1.50033E+00
 -1     11027 1.50033E+00
 -1     11028 1.50033E+00
 -1     11029 1.56941E+00
 -1     11034 1.50033E+00
 -1     11035 1.50032E+00
 -1     11036 1.56941E+00
 -1     11041 1.50032E+00
 -1     11042 1.50032E+00
 -1     11043 1.56941E+00
 -1     11048 1.50032E+00
 -1     11049 1.50032E+00
 -1     11050 1.56941E+00
 -1     11055 1.50032E+00
 -1     11056 1.50032E+00
 -1     11057 1.56941E+00
 -1     11062 1.50032E+00
 -1     11063 1.50032E+00
 -1     11064 1.56941E+00
 -1     11069 1.50032E+00
 -1     11070 1.50032E+00
 -1     11071 1.56941E+00
 -1     11076 1.50032E+00
 -1     11077 1.50032E+00
 -1     11078 1.56941E+00
 -1     11083 1.50032E+00
 -1     11084 1.50032E+00
 -1     11085 1.56941E+00
 -1     11090 1.50033E+00
 -1     11091 1.50033E+00
 -1     11092 1.56941E+00
 -1     11097 1.50033E+00
 -1     11101 1.50033E+00
 -1     11102 1.50033E+00
 -1     11103 1.56941E+00
 -1     11108 1.50033E+00
 -1     11109 1.50032E+00
 -1     11110 1.56941E+00
 -1     11115 1.50032E+00
 -1     11116 1.50032E+00
 -1     11117 1.56941E+00
 -1     11122 1.50032E+00
 -1     11123 1.50032E+00
 -1     11124 1.56941E+00
 -1     11129 1.50032E+00
 -1     11130 1.50032E+00
 -1     11131 1.56941E+00
 -1     11136 1.50032E+00
 -1     11137 1.50032E+00
 -1     11138 1.56941E+00
 -1     11143 1.50032E+00
 -1     11144 1.50032E+00
 -1     11145 1.56941E+00
 -1     11150 1.50032E+00
 -1     11151 1.50032E+00
 -1     11152 1.56941E+00
 -1     11157 1.50032E+00
 -1     11158 1.50032E+00
 -1     11159 1.56941E+00
 -1     11164 1.50033E+00
 -1     11165 1.50033E+00
 -1     11166 1.56941E+00
 -1     11171 1.50033E+00
 -1     11175 1.50033E+00
 -1     11176 1.50033E+00
 -1     11177 1.56941E+00
 -1     11182 1.50033E+00
 -1     11183 1.50032E+00
 -1     11184 1.56941E+00
 -1     11189 1.50032E+00
 -1     11190 1.50032E+00
 -1     11191 1.56941E+00
 -1     11196 1.50032E+00
 -1     11197 1.50032E+00
 -1     11198 1.56941E+00
 -1     11203 1.50032E+00
 -1     11204 1.50032E+00
 -1     11205 1.56941E+00
 -1     11210 1.50032E+00
 -1     11211 1.50032E+00
 -1     11212 1.56941E+00
 -1     11217 1.50032E+00
 -1     11218 1.50032E+00
 -1     11219 1.56941E+00
 -1     11224 1.50032E+00
 -1     11225 1.50032E+00
 -1     11226 1.56941E+00
 -1     11231 1.50032E+00
 -1     11232 1.50032E+00
 -1     11233 1.56941E+00
 -1     11238 1.50033E+00
 -1     11239 1.50033E+00
 -1     11240 1.56941E+00
 -1     11245 1.50033E+00
 -1     11249 1.50033E+00
 -1     11250 1.50033E+00
 -1     11251 1.56941E+00
 -1     11256 1.50033E+00
 -1     11257 1.50032E+00
 -1     11258 1.56941E+00
 -1     11263 1.50032E+00
 -1     11264 1.50032E+00
 -1     11265 1.56941E+00
 -1     11270 1.50032E+00
 -1     11271 1.50032E+00
 -1     11272 1.56941E+00
 -1     11277 1.50032E+00
 -1     11278 1.50032E+00
 -1     11279 1.56941E+00
 -1     11284 1.50032E+00
 -1     11285 1.50032E+00
 -1     11286 1.56941E+00
 -1     11291 1.50032E+00
 -1     11292 1.50032E+00
 -1     11293 1.56941E+00
 -1     11298 1.50032E+00
 -1     11299 1.50032E+00
 -1     11300 1.56941E+00
 -1     11305 1.50032E+00
 -1     11306 1.50032E+00
 -1     11307 1.56941E+00
 -1     11312 1.50033E+00
 -1     11313 1.50033E+00
 -1     11314 1.56941E+00
 -1     11319 1.50033E+00
 -1     11323 1.50033E+00
 -1     11327 1.50032E+00
 -1     11331 1.50032E+00
 -1     11335 1.50032E+00
 -1     11339 1.50032E+00
 -1     11343 1.50032E+00
 -1     11347 1.50032E+00
 -1     11351 1.50032E+00
 -1     11355 1.50032E+00
 -1     11359 1.50033E+00
 -1     11365 1.37959E+00
 -1     11366 1.37959E+00
 -1     11367 1.43996E+00
 -1     11372 1.37959E+00
 -1     11373 1.37959E+00
 -1     11374 1.43996E+00
 -1     11379 1.37959E+00
 -1     11380 1.37959E+00
 -1     11381 1.43996E+00
 -1     11386 1.37959E+00
 -1     11387 1.37959E+00
 -1     11388 1.43996E+00
 -1     11393 1.37959E+00
 -1     11394 1.37959E+00
 -1     11395 1.43996E+00
 -1     11400 1.37959E+00
 -1     11401 1.37959E+00
 -1     11402 1.43996E+00
 -1     11407 1.37959E+00
 -1     11408 1.37959E+00
 -1     11409 1.43996E+00
 -1     11414 1.37959E+00
 -1     11415 1.37959E+00
 -1     11416 1.43996E+00
 -1     11421 1.37959E+00
 -1     11422 1.37959E+00
 -1     11423 1.43996E+00
 -1     11428 1.37959E+00
 -1     11429 1.37959E+00
 -1     11430 1.43996E+00
 -1     11435 1.37959E+00
 -1     11439 1.37959E+00
 -1     11440 1.37959E+00
 -1     11441 1.43996E+00
 -1     11446 1.37959E+00
 -1     11447 1.37959E+00
 -1     11448 1.43996E+00
 -1     11453 1.37959E+00
 -1     11454 1.37959E+00
 -1     11455 1.43996E+00
 -1     11460 1.37959E+00
 -1     11461 1.37959E+00
 -1     11462 1.43996E+00
 -1     11467 1.37959E+00
 -1     11468 1.37959E+00
 -1     11469 1.43996E+00
 -1     11474 1.37959E+00
 -1     11475 1.37959E+00
 -1     11476 1.43996E+00
 -1     11481 1.37959E+00
 -1     11482 1.37959E+00
 -1     11483 1.43996E+00
 -1     11488 1.37959E+00
 -1     11489 1.37959E+00
 -1     11490 1.43996E+00
 -1     11495 1.37959E+00
 -1     11496 1.37959E+00
 -1     11497 1.43996E+00
 -1     11502 1.37959E+00
 -1     11503 1.37959E+00
 -1     11504 1.43996E+00
 -1     11509 1.37959E+00
 -1     11513 1.37959E+00
 -1     11514 1.37959E+00
 -1     11515 1.43996E+00
 -1     11520 1.37959E+00
 -1     11521 1.37959E+00
 -1     11522 1.43996E+00
 -1     11527 1.37959E+00
 -1     11528 1.37959E+00
 -1     11529 1.43996E+00
 -1     11534 1.37959E+00
 -1     11535 1.37959E+00
 -1     11536 1.43996E+00
 -1     11541 1.37959E+00
 -1     11542 1.37959E+00
 -1     11543 1.43996E+00
 -1     11548 1.37959E+00
 -1     11549 1.37959E+00
 -1     11550 1.43996E+00
 -1     11555 1.37959E+00
 -1     11556 1.37959E+00
 -1     11557 1.43996E+00
 -1     11562 1.37959E+00
 -1     11563 1.37959E+00
 -1     11564 1.43996E+00
 -1     11569 1.37959E+00
 -1     11570 1.37959E+00
 -1     11571 1.43996E+00
 -1     11576 1.37959E+00
 -1     11577 1.37959E+00
 -1     11578 1.43996E+00
 -1     11583 1.37959E+00
 -1     11587 1.37959E+00
 -1     11588 1.37959E+00
 -1     11589 1.43996E+00
 -1     11594 1.37959E+00
 -1     11595 1.37959E+00
 -1     11596 1.43996E+00
 -1     11601 1.37959E+00
 -1     11602 1.37959E+00
 -1     11603 1.43996E+00
 -1     11608 1.37959E+00
 -1     11609 1.37959E+00
 -1     11610 1.43996E+00
 -1     11615 1.37959E+00
 -1     11616 1.37959E+00
 -1     11617 1.43996E+00
 -1     11622 1.37959E+00
 -1     11623 1.37959E+00
 -1     11624 1.43996E+00
 -1     11629 1.37959E+00
 -1     11630 1.37959E+00
 -1     11631 1.43996E+00
 -1     11636 1.37959E+00
 -1     11637 1.37959E+00
 -1     11638 1.43996E+00
 -1     11643 1.37959E+00
 -1     11644 1.37959E+00
 -1     11645 1.43996E+00
 -1     11650 1.37959E+00
 -1     11651 1.37959E+00
 -1     11652 1.43996E+00
 -1     11657 1.37959E+00
 -1     11661 1.37959E+00
 -1     11662 1.37959E+00
 -1     11663 1.43996E+00
 -1     11668 1.37959E+00
 -1     11669 1.37959E+00
 -1     11670 1.43996E+00
 -1     11675 1.37959E+00
 -1     11676 1.37959E+00
 -1     11677 1.43996E+00
 -1     11682 1.37959E+00
 -1     11683 1.37959E+00
 -1     11684 1.43996E+00
 -1     11689 1.37959E+00
 -1     11690 1.37959E+00
 -1     11691 1.43996E+00
 -1     11696 1.37959E+00
 -1     11697 1.37959E+00
 -1     11698 1.43996E+00
 -1     11703 1.37959E+00
 -1     11704 1.37959E+00
 -1     11705 1.43996E+00
 -1     11710 1.37959E+00
 -1     11711 1.37959E+00
 -1     11712 1.43996E+00
 -1     11717 1.37959E+00
 -1     11718 1.37959E+00
 -1     11719 1.43996E+00
 -1     11724 1.37959E+00
 -1     11725 1.37959E+00
 -1     11726 1.43996E+00
 -1     11731 1.37959E+00
 -1     11735 1.37959E+00
 -1     11736 1.37959E+00
 -1     11737 1.43996E+00
 -1     11742 1.37959E+00
 -1     11743 1.37959E+00
 -1     11744 1.43996E+00
 -1     11749 1.37959E+00
 -1     11750 1.37959E+00
 -1     11751 1.43996E+00
 -1     11756 1.37959E+00
 -1     11757 1.37959E+00
 -1     11758 1.43996E+00
 -1     11763 1.37959E+00
 -1     11764 1.37959E+00
 -1     11765 1.43996E+00
 -1     11770 1.37959E+00
 -1     11771 1.37959E+00
 -1     11772 1.43996E+00
 -1     11777 1.37959E+00
 -1     11778 1.37959E+00
 -1     11779 1.43996E+00
 -1     11784 1.37959E+00
 -1     11785 1.37959E+00
 -1     11786 1.43996E+00
 -1     11791 1.37959E+00
 -1     11792 1.37959E+00
 -1     11793 1.43996E+00
 -1     11798 1.37959E+00
 -1     11799 1.37959E+00
 -1     11800 1.43996E+00
 -1     11805 1.37959E+00
 -1     11809 1.37959E+00
 -1     11810 1.37959E+00
 -1     11811 1.43996E+00
 -1     11816 1.37959E+00
 -1     11817 1.37959E+00
 -1     11818 1.43996E+00
 -1     11823 1.37959E+00
 -1     11824 1.37959E+00
 -1     11825 1.43996E+00
 -1     11830 1.37959E+00
 -1     11831 1.37959E+00
 -1     11832 1.43996E+00
 -1     11837 1.37959E+00
 -1     11838 1.37959E+00
 -1     11839 1.43996E+00
 -1     11844 1.37959E+00
 -1     11845 1.37959E+00
 -1     11846 1.43996E+00
 -1     11851 1.37959E+00
 -1     11852 1.37959E+00
 -1     11853 1.43996E+00
 -1     11858 1.37959E+00
 -1     11859 1.37959E+00
 -1     11860 1.43996E+00
 -1     11865 1.37959E+00
 -1     11866 1.37959E+00
 -1     11867 1.43996E+00
 -1     11872 1.37959E+00
 -1     11873 1.37959E+00
 -1     11874 1.43996E+00
 -1     11879 1.37959E+00
 -1     11883 1.37959E+00
 -1     11884 1.37959E+00
 -1     11885 1.43996E+00
 -1     11890 1.37959E+00
 -1     11891 1.37959E+00
 -1     11892 1.43996E+00
 -1     11897 1.37959E+00
 -1     11898 1.37959E+00
 -1     11899 1.43996E+00
 -1     11904 1.37959E+00
 -1     11905 1.37959E+00
 -1     11906 1.43996E+00
 -1     11911 1.37959E+00
 -1     11912 1.37959E+00
 -1     11913 1.43996E+00
 -1     11918 1.37959E+00
 -1     11919 1.37959E+00
 -1     11920 1.43996E+00
 -1     11925 1.37959E+00
 -1     11926 1.37959E+00
 -1     11927 1.43996E+00
 -1     11932 1.37959E+00
 -1     11933 1.37959E+00
 -1     11934 1.43996E+00
 -1     11939 1.37959E+00
 -1     11940 1.37959E+00
 -1     11941 1.43996E+00
 -1     11946 1.37959E+00
 -1     11947 1.37959E+00
 -1     11948 1.43996E+00
 -1     11953 1.37959E+00
 -1     11957 1.37959E+00
 -1     11958 1.37959E+00
 -1     11959 1.43996E+00
 -1     11964 1.37959E+00
 -1     11965 1.37959E+00
 -1     11966 1.43996E+00
 -1     11971 1.37959E+00
 -1     11972 1.37959E+00
 -1     11973 1.43996E+00
 -1     11978 1.37959E+00
 -1     11979 1.37959E+00
 -1     11980 1.43996E+00
 -1     11985 1.37959E+00
 -1     11986 1.37959E+00
 -1     11987 1.43996E+00
 -1     11992 1.37959E+00
 -1     11993 1.37959E+00
 -1     11994 1.43996E+00
 -1     11999 1.37959E+00
 -1     12000 1.37959E+00
 -1     12001 1.43996E+00
 -1     12006 1.37959E+00
 -1     12007 1.37959E+00
 -1     12008 1.43996E+00
 -1     12013 1.37959E+00
 -1     12014 1.37959E+00
 -1     12015 1.43996E+00
 -1     12020 1.37959E+00
 -1     12021 1.37959E+00
 -1     12022 1.43996E+00
 -1     12027 1.37959E+00
 -1     12031 1.37959E+00
 -1     12035 1.37959E+00
 -1     12039 1.37959E+00
 -1     12043 1.37959E+00
 -1     12047 1.37959E+00
 -1     12051 1.37959E+00
 -1     12055 1.37959E+00
 -1     12059 1.37959E+00
 -1     12063 1.37959E+00
 -1     12067 1.37959E+00
 -1     12073 1.27307E+00
 -1     12074 1.27307E+00
 -1     12075 1.32633E+00
 -1     12080 1.27306E+00
 -1     12081 1.27306E+00
 -1     12082 1.32633E+00
 -1     12087 1.27306E+00
 -1     12088 1.27306E+00
 -1     12089 1.32633E+00
 -1     12094 1.27306E+00
 -1     12095 1.27306E+00
 -1     12096 1.32633E+00
 -1     12101 1.27306E+00
 -1     12102 1.27306E+00
 -1     12103 1.32633E+00
 -1     12108 1.27306E+00
 -1     12109 1.27306E+00
 -1     12110 1.32633E+00
 -1     12115 1.27306E+00
 -1     12116 1.27306E+00
 -1     12117 1.32633E+00
 -1     12122 1.27306E+00
 -1     12123 1.27306E+00
 -1     12124 1.32633E+00
 -1     12129 1.27306E+00
 -1     12130 1.27306E+00
 -1     12131 1.32633E+00
 -1     12136 1.27306E+00
 -1     12137 1.27307E+00
 -1     12138 1.32633E+00
 -1     12143 1.27307E+00
 -1     12147 1.27307E+00
 -1     12148 1.27307E+00
 -1     12149 1.32633E+00
 -1     12154 1.27306E+00
 -1     12155 1.27306E+00
 -1     12156 1.32633E+00
 -1     12161 1.27306E+00
 -1     12162 1.27306E+00
 -1     12163 1.32633E+00
 -1     12168 1.27306E+00
 -1     12169 1.27306E+00
 -1     12170 1.32633E+00
 -1     12175 1.27306E+00
 -1     12176 1.27306E+00
 -1     12177 1.32633E+00
 -1     12182 1.27306E+00
 -1     12183 1.27306E+00
 -1     12184 1.32633E+00
 -1     12189 1.27306E+00
 -1     12190 1.27306E+00
 -1     12191 1.32633E+00
 -1     12196 1.27306E+00
 -1     12197 1.27306E+00
 -1     12198 1.32633E+00
 -1     12203 1.27306E+00
 -1     12204 1.27306E+00
 -1     12205 1.32633E+00
 -1     12210 1.27306E+00
 -1     12211 1.27307E+00
 -1     12212 1.32633E+00
 -1     12217 1.27307E+00
 -1     12221 1.27307E+00
 -1     12222 1.27307E+00
 -1     12223 1.32633E+00
 -1     12228 1.27306E+00
 -1     12229 1.27306E+00
 -1     12230 1.32633E+00
 -1     12235 1.27306E+00
 -1     12236 1.27306E+00
 -1     12237 1.32633E+00
 -1     12242 1.27306E+00
 -1     12243 1.27306E+00
 -1     12244 1.32633E+00
 -1     12249 1.27306E+00
 -1     12250 1.27306E+00
 -1     12251 1.32633E+00
 -1     12256 1.27306E+00
 -1     12257 1.27306E+00
 -1     12258 1.32633E+00
 -1     12263 1.27306E+00
 -1     12264 1.27306E+00
 -1     12265 1.32633E+00
 -1     12270 1.27306E+00
 -1     12271 1.27306E+00
 -1     12272 1.32633E+00
 -1     12277 1.27306E+00
 -1     12278 1.27306E+00
 -1     12279 1.32633E+00
 -1     12284 1.27306E+00
 -1     12285 1.27307E+00
 -1     12286 1.32633E+00
 -1     12291 1.27307E+00
 -1     12295 1.27307E+00
 -1     12296 1.27307E+00
 -1     12297 1.32633E+00
 -1     12302 1.27306E+00
 -1     12303 1.27306E+00
 -1     12304 1.32633E+00
 -1     12309 1.27306E+00
 -1     12310 1.27306E+00
 -1     12311 1.32633E+00
 -1     12316 1.27306E+00
 -1     12317 1.27306E+00
 -1     12318 1.32633E+00
 -1     12323 1.27306E+00
 -1     12324 1.27306E+00
 -1     12325 1.32633E+00
 -1     12330 1.27306E+00
 -1     12331 1.27306E+00
 -1     12332 1.32633E+00
 -1     12337 1.27306E+00
 -1     12338 1.27306E+00
 -1     12339 1.32633E+00
 -1     12344 1.27306E+00
 -1     12345 1.27306E+00
 -1     12346 1.32633E+00
 -1     12351 1.27306E+00
 -1     12352 1.27306E+00
 -1     12353 1.32633E+00
 -1     12358 1.27306E+00
 -1     12359 1.27307E+00
 -1     12360 1.32633E+00
 -1     12365 1.27307E+00
 -1     12369 1.27307E+00
 -1     12370 1.27307E+00
 -1     12371 1.32633E+00
 -1     12376 1.27306E+00
 -1     12377 1.27306E+00
 -1     12378 1.32633E+00
 -1     12383 1.27306E+00
 -1     12384 1.27306E+00
 -1     12385 1.32633E+00
 -1     12390 1.27306E+00
 -1     12391 1.27306E+00
 -1     12392 1.32633E+00
 -1     12397 1.27306E+00
 -1     12398 1.27306E+00
 -1     12399 1.32633E+00
 -1     12404 1.27306E+00
 -1     12405 1.27306E+00
 -1     12406 1.32633E+00
 -1     12411 1.27306E+00
 -1     12412 1.27306E+00
 -1     12413 1.32633E+00
 -1     12418 1.27306E+00
 -1     12419 1.27306E+00
 -1     12420 1.32633E+00
 -1     12425 1.27306E+00
 -1     12426 1.27306E+00
 -1     12427 1.32633E+00
 -1     12432 1.27306E+00
 -1     12433 1.27307E+00
 -1     12434 1.32633E+00
 -1     12439 1.27307E+00
 -1     12443 1.27307E+00
 -1     12444 1.27307E+00
 -1     12445 1.32633E+00
 -1     12450 1.27306E+00
 -1     12451 1.27306E+00
 -1     12452 1.32633E+00
 -1     12457 1.27306E+00
 -1     12458 1.27306E+00
 -1     12459 1.32633E+00
 -1     12464 1.27306E+00
 -1     12465 1.27306E+00
 -1     12466 1.32633E+00
 -1     12471 1.27306E+00
 -1     12472 1.27306E+00
 -1     12473 1.32633E+00
 -1     12478 1.27306E+00
 -1     12479 1.27306E+00
 -1     12480 1.32633E+00
 -1     12485 1.27306E+00
 -1     12486 1.27306E+00
 -1     12487 1.32633E+00
 -1     12492 1.27306E+00
 -1     12493 1.27306E+00
 -1     12494 1.32633E+00
 -1     12499 1.27306E+00
 -1     12500 1.27306E+00
 -1     12501 1.32633E+00
 -1     12506 1.27306E+00
 -1     12507 1.27307E+00
 -1     12508 1.32633E+00
 -1     12513 1.27307E+00
 -1     12517 1.27307E+00
 -1     12518 1.27307E+00
 -1     12519 1.32633E+00
 -1     12524 1.27306E+00
 -1     12525 1.27306E+00
 -1     12526 1.32633E+00
 -1     12531 1.27306E+00
 -1     12532 1.27306E+00
 -1     12533 1.32633E+00
 -1     12538 1.27306E+00
 -1     12539 1.27306E+00
 -1     12540 1.32633E+00
 -1     12545 1.27306E+00
 -1     12546 1.27306E+00
 -1     12547 1.32633E+00
 -1     12552 1.27306E+00
 -1     12553 1.27306E+00
 -1     12554 1.32633E+00
 -1     12559 1.27306E+00
 -1     12560 1.27306E+00
 -1     12561 1.32633E+00
 -1     12566 1.27306E+00
 -1     12567 1.27306E+00
 -1     12568 1.32633E+00
 -1     12573 1.27306E+00
 -1     12574 1.27306E+00
 -1     12575 1.32633E+00
 -1     12580 1.27306E+00
 -1     12581 1.27307E+00
 -1     12582 1.32633E+00
 -1     12587 1.27307E+00
 -1     12591 1.27307E+00
 -1     12592 1.27307E+00
 -1     12593 1.32633E+00
 -1     12598 1.27306E+00
 -1     12599 1.27306E+00
 -1     12600 1.32633E+00
 -1     12605 1.27306E+00
 -1     12606 1.27306E+00
 -1     12607 1.32633E+00
 -1     12612 1.27306E+00
 -1     12613 1.27306E+00
 -1     12614 1.32633E+00
 -1     12619 1.27306E+00
 -1     12620 1.27306E+00
 -1     12621 1.32633E+00
 -1     12626 1.27306E+00
 -1     12627 1.27306E+00
 -1     12628 1.32633E+00
 -1     12633 1.27306E+00
 -1     12634 1.27306E+00
 -1     12635 1.32633E+00
 -1     12640 1.27306E+00
 -1     12641 1.27306E+00
 -1     12642 1.32633E+00
 -1     12647 1.27306E+00
 -1     12648 1.27306E+00
 -1     12649 1.32633E+00
 -1     12654 1.27306E+00
 -1     12655 1.27307E+00
 -1     12656 1.32633E+00
 -1     12661 1.27307E+00
 -1     12665 1.27307E+00
 -1     12666 1.27307E+00
 -1     12667 1.32633E+00
 -1     12672 1.27306E+00
 -1     12673 1.27306E+00
 -1     12674 1.32633E+00
 -1     12679 1.27306E+00
 -1     12680 1.27306E+00
 -1     12681 1.32633E+00
 -1     12686 1.27306E+00
 -1     12687 1.27306E+00
 -1     12688 1.32633E+00
 -1     12693 1.27306E+00
 -1     12694 1.27306E+00
 -1     12695 1.32633E+00
 -1     12700 1.27306E+00
 -1     12701 1.27306E+00
 -1     12702 1.32633E+00
 -1     12707 1.27306E+00
 -1     12708 1.27306E+00
 -1     12709 1.32633E+00
 -1     12714 1.27306E+00
 -1     12715 1.27306E+00
 -1     12716 1.32633E+00
 -1     12721 1.27306E+00
 -1     12722 1.27306E+00
 -1     12723 1.32633E+00
 -1     12728 1.27306E+00
 -1     12729 1.27307E+00
 -1     12730 1.32633E+00
 -1     12735 1.27307E+00
 -1     12739 1.27307E+00
 -1     12743 1.27306E+00
 -1     12747 1.27306E+00
 -1     12751 1.27306E+00
 -1     12755 1.27306E+00
 -1     12759 1.27306E+00
 -1     12763 1.27306E+00
 -1     12767 1.27306E+00
 -1     12771 1.27306E+00
 -1     12775 1.27307E+00
 -1     12781 1.17837E+00
 -1     12782 1.17837E+00
 -1     12783 1.22572E+00
 -1     12788 1.17837E+00
 -1     12789 1.17837E+00
 -1     12790 1.22572E+00
 -1     12795 1.17837E+00
 -1     12796 1.17837E+00
 -1     12797 1.22572E+00
 -1     12802 1.17837E+00
 -1     12803 1.17837E+00
 -1     12804 1.22572E+00
 -1     12809 1.17837E+00
 -1     12810 1.17837E+00
 -1     12811 1.22572E+00
 -1     12816 1.17837E+00
 -1     12817 1.17837E+00
 -1     12818 1.22572E+00
 -1     12823 1.17837E+00
 -1     12824 1.17837E+00
 -1     12825 1.22572E+00
 -1     12830 1.17837E+00
 -1     12831 1.17837E+00
 -1     12832 1.22572E+00
 -1     12837 1.17837E+00
 -1     12838 1.17837E+00
 -1     12839 1.22572E+00
 -1     12844 1.17837E+00
 -1     12845 1.17837E+00
 -1     12846 1.22572E+00
 -1     12851 1.17837E+00
 -1     12855 1.17837E+00
 -1     12856 1.17837E+00
 -1     12857 1.22572E+00
 -1     12862 1.17837E+00
 -1     12863 1.17837E+00
 -1     12864 1.22572E+00
 -1     12869 1.17837E+00
 -1     12870 1.17837E+00
 -1     12871 1.22572E+00
 -1     12876 1.17837E+00
 -1     12877 1.17837E+00
 -1     12878 1.22572E+00
 -1     12883 1.17837E+00
 -1     12884 1.17837E+00
 -1     12885 1.22572E+00
 -1     12890 1.17837E+00
 -1     12891 1.17837E+00
 -1     12892 1.22572E+00
 -1     12897 1.17837E+00
 -1     12898 1.17837E+00
 -1     12899 1.22572E+00
 -1     12904 1.17837E+00
 -1     12905 1.17837E+00
 -1     12906 1.22572E+00
 -1     12911 1.17837E+00
 -1     12912 1.17837E+00
 -1     12913 1.22572E+00
 -1     12918 1.17837E+00
 -1     12919 1.17837E+00
 -1     12920 1.22572E+00
 -1     12925 1.17837E+00
 -1     12929 1.17837E+00
 -1     12930 1.17837E+00
 -1     12931 1.22572E+00
 -1     12936 1.17837E+00
 -1     12937 1.17837E+00
 -1     12938 1.22572E+00
 -1     12943 1.17837E+00
 -1     12944 1.17837E+00
 -1     12945 1.22572E+00
 -1     12950 1.17837E+00
 -1     12951 1.17837E+00
 -1     12952 1.22572E+00
 -1     12957 1.17837E+00
 -1     12958 1.17837E+00
 -1     12959 1.22572E+00
 -1     12964 1.17837E+00
 -1     12965 1.17837E+00
 -1     12966 1.22572E+00
 -1     12971 1.17837E+00
 -1     12972 1.17837E+00
 -1     12973 1.22572E+00
 -1     12978 1.17837E+00
 -1     12979 1.17837E+00
 -1     12980 1.22572E+00
 -1     12985 1.17837E+00
 -1     12986 1.17837E+00
 -1     12987 1.22572E+00
 -1     12992 1.17837E+00
 -1     12993 1.17837E+00
 -1     12994 1.22572E+00
 -1     12999 1.17837E+00
 -1     13003 1.17837E+00
 -1     13004 1.17837E+00
 -1     13005 1.22572E+00
 -1     13010 1.17837E+00
 -1     13011 1.17837E+00
 -1     13012 1.22572E+00
 -1     13017 1.17837E+00
 -1     13018 1.17837E+00
 -1     13019 1.22572E+00
 -1     13024 1.17837E+00
 -1     13025 1.17837E+00
 -1     13026 1.22572E+00
 -1     13031 1.17837E+00
 -1     13032 1.17837E+00
 -1     13033 1.22572E+00
 -1     13038 1.17837E+00
 -1     13039 1.17837E+00
 -1     13040 1.22572E+00
 -1     13045 1.17837E+00
 -1     13046 1.17837E+00
 -1     13047 1.22572E+00
 -1     13052 1.17837E+00
 -1     13053 1.17837E+00
 -1     13054 1.22572E+00
 -1     13059 1.17837E+00
 -1     13060 1.17837E+00
 -1     13061 1.22572E+00
 -1     13066 1.17837E+00
 -1     13067 1.17837E+00
 -1     13068 1.22572E+00
 -1     13073 1.17837E+00
 -1     13077 1.17837E+00
 -1     13078 1.17837E+00
 -1     13079 1.22572E+00
 -1     13084 1.17837E+00
 -1     13085 1.17837E+00
 -1     13086 1.22572E+00
 -1     13091 1.17837E+00
 -1     13092 1.17837E+00
 -1     13093 1.22572E+00
 -1     13098 1.17837E+00
 -1     13099 1.17837E+00
 -1     13100 1.22572E+00
 -1     13105 1.17837E+00
 -1     13106 1.17837E+00
 -1     13107 1.22572E+00
 -1     13112 1.17837E+00
 -1     13113 1.17837E+00
 -1     13114 1.22572E+00
 -1     13119 1.17837E+00
 -1     13120 1.17837E+00
 -1     13121 1.22572E+00
 -1     13126 1.17837E+00
 -1     13127 1.17837E+00
 -1     13128 1.22572E+00
 -1     13133 1.17837E+00
 -1     13134 1.17837E+00
 -1     13135 1.22572E+00
 -1     13140 1.17837E+00
 -1     13141 1.17837E+00
 -1     13142 1.22572E+00
 -1     13147 1.17837E+00
 -1     13151 1.17837E+00
 -1     13152 1.17837E+00
 -1     13153 1.22572E+00
 -1     13158 1.17837E+00
 -1     13159 1.17837E+00
 -1     13160 1.22572E+00
 -1     13165 1.17837E+00
 -1     13166 1.17837E+00
 -1     13167 1.22572E+00
 -1     13172 1.17837E+00
 -1     13173 1.17837E+00
 -1     13174 1.22572E+00
 -1     13179 1.17837E+00
 -1     13180 1.17837E+00
 -1     13181 1.22572E+00
 -1     13186 1.17837E+00
 -1     13187 1.17837E+00
 -1     13188 1.22572E+00
 -1     13193 1.17837E+00
 -1     13194 1.17837E+00
 -1     13195 1.22572E+00
 -1     13200 1.17837E+00
 -1     13201 1.17837E+00
 -1     13202 1.22572E+00
 -1     13207 1.17837E+00
 -1     13208 1.17837E+00
 -1     13209 1.22572E+00
 -1     13214 1.17837E+00
 -1     13215 1.17837E+00
 -1     13216 1.22572E+00
 -1     13221 1.17837E+00
 -1     13225 1.17837E+00
 -1     13226 1.17837E+00
 -1     13227 1.22572E+00
 -1     13232 1.17837E+00
 -1     13233 1.17837E+00
 -1     13234 1.22572E+00
 -1     13239 1.17837E+00
 -1     13240 1.17837E+00
 -1     13241 1.22572E+00
 -1     13246 1.17837E+00
 -1     13247 1.17837E+00
 -1     13248 1.22572E+00
 -1     13253 1.17837E+00
 -1     13254 1.17837E+00
 -1     13255 1.22572E+00
 -1     13260 1.17837E+00
 -1     13261 1.17837E+00
 -1     13262 1.22572E+00
 -1     13267 1.17837E+00
 -1     13268 1.17837E+00
 -1     13269 1.22572E+00
 -1     13274 1.17837E+00
 -1     13275 1.17837E+00
 -1     13276 1.22572E+00
 -1     13281 1.17837E+00
 -1     13282 1.17837E+00
 -1     13283 1.22572E+00
 -1     13288 1.17837E+00
 -1     13289 1.17837E+00
 -1     13290 1.22572E+00
 -1     13295 1.17837E+00
 -1     13299 1.17837E+00
 -1     13300 1.17837E+00
 -1     13301 1.22572E+00
 -1     13306 1.17837E+00
 -1     13307 1.17837E+00
 -1     13308 1.22572E+00
 -1     13313 1.17837E+00
 -1     13314 1.17837E+00
 -1     13315 1.22572E+00
 -1     13320 1.17837E+00
 -1     13321 1.17837E+00
 -1     13322 1.22572E+00
 -1     13327 1.17837E+00
 -1     13328 1.17837E+00
 -1     13329 1.22572E+00
 -1     13334 1.17837E+00
 -1     13335 1.17837E+00
 -1     13336 1.22572E+00
 -1     13341 1.17837E+00
 -1     13342 1.17837E+00
 -1     13343 1.22572E+00
 -1     13348 1.17837E+00
 -1     13349 1.17837E+00
 -1     13350 1.22572E+00
 -1     13355 1.17837E+00
 -1     13356 1.17837E+00
 -1     13357 1.22572E+00
 -1     13362 1.17837E+00
 -1     13363 1.17837E+00
 -1     13364 1.22572E+00
 -1     13369 1.17837E+00
 -1     13373 1.17837E+00
 -1     13374 1.17837E+00
 -1     13375 1.22572E+00
 -1     13380 1.17837E+00
 -1     13381 1.17837E+00
 -1     13382 1.22572E+00
 -1     13387 1.17837E+00
 -1     13388 1.17837E+00
 -1     13389 1.22572E+00
 -1     13394 1.17837E+00
 -1     13395 1.17837E+00
 -1     13396 1.22572E+00
 -1     13401 1.17837E+00
 -1     13402 1.17837E+00
 -1     13403 1.22572E+00
 -1     13408 1.17837E+00
 -1     13409 1.17837E+00
 -1     13410 1.22572E+00
 -1     13415 1.17837E+00
 -1     13416 1.17837E+00
 -1     13417 1.22572E+00
 -1     13422 1.17837E+00
 -1     13423 1.17837E+00
 -1     13424 1.22572E+00
 -1     13429 1.17837E+00
 -1     13430 1.17837E+00
 -1     13431 1.22572E+00
 -1     13436 1.17837E+00
 -1     13437 1.17837E+00
 -1     13438 1.22572E+00
 -1     13443 1.17837E+00
 -1     13447 1.17837E+00
 -1     13451 1.17837E+00
 -1     13455 1.17837E+00
 -1     13459 1.17837E+00
 -1     13463 1.17837E+00
 -1     13467 1.17837E+00
 -1     13471 1.17837E+00
 -1     13475 1.17837E+00
 -1     13479 1.17837E+00
 -1     13483 1.17837E+00
 -1     13489 1.09363E+00
 -1     13490 1.09363E+00
 -1     13491 1.13600E+00
 -1     13496 1.09363E+00
 -1     13497 1.09363E+00
 -1     13498 1.13600E+00
 -1     13503 1.09363E+00
 -1     13504 1.09363E+00
 -1     13505 1.13600E+00
 -1     13510 1.09363E+00
 -1     13511 1.09363E+00
 -1     13512 1.13600E+00
 -1     13517 1.09363E+00
 -1     13518 1.09363E+00
 -1     13519 1.13600E+00
 -1     13524 1.09363E+00
 -1     13525 1.09363E+00
 -1     13526 1.13600E+00
 -1     13531 1.09363E+00
 -1     13532 1.09363E+00
 -1     13533 1.13600E+00
 -1     13538 1.09363E+00
 -1     13539 1.09363E+00
 -1     13540 1.13600E+00
 -1     13545 1.09363E+00
 -1     13546 1.09363E+00
 -1     13547 1.13600E+00
 -1     13552 1.09363E+00
 -1     13553 1.09363E+00
 -1     13554 1.13600E+00
 -1     13559 1.09363E+00
 -1     13563 1.09363E+00
 -1     13564 1.09363E+00
 -1     13565 1.13600E+00
 -1     13570 1.09363E+00
 -1     13571 1.09363E+00
 -1     13572 1.13600E+00
 -1     13577 1.09363E+00
 -1     13578 1.09363E+00
 -1     13579 1.13600E+00
 -1     13584 1.09363E+00
 -1     13585 1.09363E+00
 -1     13586 1.13600E+00
 -1     13591 1.09363E+00
 -1     13592 1.09363E+00
 -1     13593 1.13600E+00
 -1     13598 1.09363E+00
 -1     13599 1.09363E+00
 -1     13600 1.13600E+00
 -1     13605 1.09363E+00
 -1     13606 1.09363E+00
 -1     13607 1.13600E+00
 -1     13612 1.09363E+00
 -1     13613 1.09363E+00
 -1     13614 1.13600E+00
 -1     13619 1.09363E+00
 -1     13620 1.09363E+00
 -1     13621 1.13600E+00
 -1     13626 1.09363E+00
 -1     13627 1.09363E+00
 -1     13628 1.13600E+00
 -1     13633 1.09363E+00
 -1     13637 1.09363E+00
 -1     13638 1.09363E+00
 -1     13639 1.13600E+00
 -1     13644 1.09363E+00
 -1     13645 1.09363E+00
 -1     13646 1.13600E+00
 -1     13651 1.09363E+00
 -1     13652 1.09363E+00
 -1     13653 1.13600E+00
 -1     13658 1.09363E+00
 -1     13659 1.09363E+00
 -1     13660 1.13600E+00
 -1     13665 1.09363E+00
 -1     13666 1.09363E+00
 -1     13667 1.13600E+00
 -1     13672 1.09363E+00
 -1     13673 1.09363E+00
 -1     13674 1.13600E+00
 -1     13679 1.09363E+00
 -1     13680 1.09363E+00
 -1     13681 1.13600E+00
 -1     13686 1.09363E+00
 -1     13687 1.09363E+00
 -1     13688 1.13600E+00
 -1     13693 1.09363E+00
 -1     13694 1.09363E+00
 -1     13695 1.13600E+00
 -1     13700 1.09363E+00
 -1     13701 1.09363E+00
 -1     13702 1.13600E+00
 -1     13707 1.09363E+00
 -1     13711 1.09363E+00
 -1     13712 1.09363E+00
 -1     13713 1.13600E+00
 -1     13718 1.09363E+00
 -1     13719 1.09363E+00
 -1     13720 1.13600E+00
 -1     13725 1.09363E+00
 -1     13726 1.09363E+00
 -1     13727 1.13600E+00
 -1     13732 1.09363E+00
 -1     13733 1.09363E+00
 -1     13734 1.13600E+00
 -1     13739 1.09363E+00
 -1     13740 1.09363E+00
 -1     13741 1.13600E+00
 -1     13746 1.09363E+00
 -1     13747 1.09363E+00
 -1     13748 1.13600E+00
 -1     13753 1.09363E+00
 -1     13754 1.09363E+00
 -1     13755 1.13600E+00
 -1     13760 1.09363E+00
 -1     13761 1.09363E+00
 -1     13762 1.13600E+00
 -1     13767 1.09363E+00
 -1     13768 1.09363E+00
 -1     13769 1.13600E+00
 -1     13774 1.09363E+00
 -1     13775 1.09363E+00
 -1     13776 1.13600E+00
 -1     13781 1.09363E+00
 -1     13785 1.09363E+00
 -1     13786 1.09363E+00
 -1     13787 1.13600E+00
 -1     13792 1.09363E+00
 -1     13793 1.09363E+00
 -1     13794 1.13600E+00
 -1     13799 1.09363E+00
 -1     13800 1.09363E+00
 -1     13801 1.13600E+00
 -1     13806 1.09363E+00
 -1     13807 1.09363E+00
 -1     13808 1.13600E+00
 -1     13813 1.09363E+00
 -1     13814 1.09363E+00
 -1     13815 1.13600E+00
 -1     13820 1.09363E+00
 -1     13821 1.09363E+00
 -1     13822 1.13600E+00
 -1     13827 1.09363E+00
 -1     13828 1.09363E+00
 -1     13829 1.13600E+00
 -1     13834 1.09363E+00
 -1     13835 1.09363E+00
 -1     13836 1.13600E+00
 -1     13841 1.09363E+00
 -1     13842 1.09363E+00
 -1     13843 1.13600E+00
 -1     13848 1.09363E+00
 -1     13849 1.09363E+00
 -1     13850 1.13600E+00
 -1     13855 1.09363E+00
 -1     13859 1.09363E+00
 -1     13860 1.09363E+00
 -1     13861 1.13600E+00
 -1     13866 1.09363E+00
 -1     13867 1.09363E+00
 -1     13868 1.13600E+00
 -1     13873 1.09363E+00
 -1     13874 1.09363E+00
 -1     13875 1.13600E+00
 -1     13880 1.09363E+00
 -1     13881 1.09363E+00
 -1     13882 1.13600E+00
 -1     13887 1.09363E+00
 -1     13888 1.09363E+00
 -1     13889 1.13600E+00
 -1     13894 1.09363E+00
 -1     13895 1.09363E+00
 -1     13896 1.13600E+00
 -1     13901 1.09363E+00
 -1     13902 1.09363E+00
 -1     13903 1.13600E+00
 -1     13908 1.09363E+00
 -1     13909 1.09363E+00
 -1     13910 1.13600E+00
 -1     13915 1.09363E+00
 -1     13916 1.09363E+00
 -1     13917 1.13600E+00
 -1     13922 1.09363E+00
 -1     13923 1.09363E+00
 -1     13924 1.13600E+00
 -1     13929 1.09363E+00
 -1     13933 1.09363E+00
 -1     13934 1.09363E+00
 -1     13935 1.13600E+00
 -1     13940 1.09363E+00
 -1     13941 1.09363E+00
 -1     13942 1.13600E+00
 -1     13947 1.09363E+00
 -1     13948 1.09363E+00
 -1     13949 1.13600E+00
 -1     13954 1.09363E+00
 -1     13955 1.09363E+00
 -1     13956 1.13600E+00
 -1     13961 1.09363E+00
 -1     13962 1.09363E+00
 -1     13963 1.13600E+00
 -1     13968 1.09363E+00
 -1     13969 1.09363E+00
 -1     13970 1.13600E+00
 -1     13975 1.09363E+00
 -1     13976 1.09363E+00
 -1     13977 1.13600E+00
 -1     13982 1.09363E+00
 -1     13983 1.09363E+00
 -1     13984 1.13600E+00
 -1     13989 1.09363E+00
 -1     13990 1.09363E+00
 -1     13991 1.13600E+00
 -1     13996 1.09363E+00
 -1     13997 1.09363E+00
 -1     13998 1.13600E+00
 -1     14003 1.09363E+00
 -1     14007 1.09363E+00
 -1     14008 1.09363E+00
 -1     14009 1.13600E+00
 -1     14014 1.09363E+00
 -1     14015 1.09363E+00
 -1     14016 1.13600E+00
 -1     14021 1.09363E+00
 -1     14022 1.09363E+00
 -1     14023 1.13600E+00
 -1     14028 1.09363E+00
 -1     14029 1.09363E+00
 -1     14030 1.13600E+00
 -1     14035 1.09363E+00
 -1     14036 1.09363E+00
 -1     14037 1.13600E+00
 -1     14042 1.09363E+00
 -1     14043 1.09363E+00
 -1     14044 1.13600E+00
 -1     14049 1.09363E+00
 -1     14050 1.09363E+00
 -1     14051 1.13600E+00
 -1     14056 1.09363E+00
 -1     14057 1.09363E+00
 -1     14058 1.13600E+00
 -1     14063 1.09363E+00
 -1     14064 1.09363E+00
 -1     14065 1.13600E+00
 -1     14070 1.09363E+00
 -1     14071 1.09363E+00
 -1     14072 1.13600E+00
 -1     14077 1.09363E+00
 -1     14081 1.09363E+00
 -1     14082 1.09363E+00
 -1     14083 1.13600E+00
 -1     14088 1.09363E+00
 -1     14089 1.09363E+00
 -1     14090 1.13600E+00
 -1     14095 1.09363E+00
 -1     14096 1.09363E+00
 -1     14097 1.13600E+00
 -1     14102 1.09363E+00
 -1     14103 1.09363E+00
 -1     14104 1.13600E+00
 -1     14109 1.09363E+00
 -1     14110 1.09363E+00
 -1     14111 1.13600E+00
 -1     14116 1.09363E+00
 -1     14117 1.09363E+00
 -1     14118 1.13600E+00
 -1     14123 1.09363E+00
 -1     14124 1.09363E+00
 -1     14125 1.13600E+00
 -1     14130 1.09363E+00
 -1     14131 1.09363E+00
 -1     14132 1.13600E+00
 -1     14137 1.09363E+00
 -1     14138 1.09363E+00
 -1     14139 1.13600E+00
 -1     14144 1.09363E+00
 -1     14145 1.09363E+00
 -1     14146 1.13600E+00
 -1     14151 1.09363E+00
 -1     14155 1.09363E+00
 -1     14159 1.09363E+00
 -1     14163 1.09363E+00
 -1     14167 1.09363E+00
 -1     14171 1.09363E+00
 -1     14175 1.09363E+00
 -1     14179 1.09363E+00
 -1     14183 1.09363E+00
 -1     14187 1.09363E+00
 -1     14191 1.09363E+00
 -1     14197 1.01737E+00
 -1     14198 1.01737E+00
 -1     14199 1.05550E+00
 -1     14204 1.01737E+00
 -1     14205 1.01737E+00
 -1     14206 1.05550E+00
 -1     14211 1.01737E+00
 -1     14212 1.01737E+00
 -1     14213 1.05550E+00
 -1     14218 1.01737E+00
 -1     14219 1.01737E+00
 -1     14220 1.05550E+00
 -1     14225 1.01737E+00
 -1     14226 1.01737E+00
 -1     14227 1.05550E+00
 -1     14232 1.01737E+00
 -1     14233 1.01737E+00
 -1     14234 1.05550E+00
 -1     14239 1.01737E+00
 -1     14240 1.01737E+00
 -1     14241 1.05550E+00
 -1     14246 1.01737E+00
 -1     14247 1.01737E+00
 -1     14248 1.05550E+00
 -1     14253 1.01737E+00
 -1     14254 1.01737E+00
 -1     14255 1.05550E+00
 -1     14260 1.01737E+00
 -1     14261 1.01737E+00
 -1     14262 1.05550E+00
 -1     14267 1.01737E+00
 -1     14271 1.01737E+00
 -1     14272 1.01737E+00
 -1     14273 1.05550E+00
 -1     14278 1.01737E+00
 -1     14279 1.01737E+00
 -1     14280 1.05550E+00
 -1     14285 1.01737E+00
 -1     14286 1.01737E+00
 -1     14287 1.05550E+00
 -1     14292 1.01737E+00
 -1     14293 1.01737E+00
 -1     14294 1.05550E+00
 -1     14299 1.01737E+00
 -1     14300 1.01737E+00
 -1     14301 1.05550E+00
 -1     14306 1.01737E+00
 -1     14307 1.01737E+00
 -1     14308 1.05550E+00
 -1     14313 1.01737E+00
 -1     14314 1.01737E+00
 -1     14315 1.05550E+00
 -1     14320 1.01737E+00
 -1     14321 1.01737E+00
 -1     14322 1.05550E+00
 -1     14327 1.01737E+00
 -1     14328 1.01737E+00
 -1     14329 1.05550E+00
 -1     14334 1.01737E+00
 -1     14335 1.01737E+00
 -1     14336 1.05550E+00
 -1     14341 1.01737E+00
 -1     14345 1.01737E+00
 -1     14346 1.01737E+00
 -1     14347 1.05550E+00
 -1     14352 1.01737E+00
 -1     14353 1.01737E+00
 -1     14354 1.05550E+00
 -1     14359 1.01737E+00
 -1     14360 1.01737E+00
 -1     14361 1.05550E+00
 -1     14366 1.01737E+00
 -1     14367 1.01737E+00
 -1     14368 1.05550E+00
 -1     14373 1.01737E+00
 -1     14374 1.01737E+00
 -1     14375 1.05550E+00
 -1     14380 1.01737E+00
 -1     14381 1.01737E+00
 -1     14382 1.05550E+00
 -1     14387 1.01737E+00
 -1     14388 1.01737E+00
 -1     14389 1.05550E+00
 -1     14394 1.01737E+00
 -1     14395 1.01737E+00
 -1     14396 1.05550E+00
 -1     14401 1.01737E+00
 -1     14402 1.01737E+00
 -1     14403 1.05550E+00
 -1     14408 1.01737E+00
 -1     14409 1.01737E+00
 -1     14410 1.05550E+00
 -1     14415 1.01737E+00
 -1     14419 1.01737E+00
 -1     14420 1.01737E+00
 -1     14421 1.05550E+00
 -1     14426 1.01737E+00
 -1     14427 1.01737E+00
 -1     14428 1.05550E+00
 -1     14433 1.01737E+00
 -1     14434 1.01737E+00
 -1     14435 1.05550E+00
 -1     14440 1.01737E+00
 -1     14441 1.01737E+00
 -1     14442 1.05550E+00
 -1     14447 1.01737E+00
 -1     14448 1.01737E+00
 -1     14449 1.05550E+00
 -1     14454 1.01737E+00
 -1     14455 1.01737E+00
 -1     14456 1.05550E+00
 -1     14461 1.01737E+00
 -1     14462 1.01737E+00
 -1     14463 1.05550E+00
 -1     14468 1.01737E+00
 -1     14469 1.01737E+00
 -1     14470 1.05550E+00
 -1     14475 1.01737E+00
 -1     14476 1.01737E+00
 -1     14477 1.05550E+00
 -1     14482 1.01737E+00
 -1     14483 1.01737E+00
 -1     14484 1.05550E+00
 -1     14489 1.01737E+00
 -1     14493 1.01737E+00
 -1     14494 1.01737E+00
 -1     14495 1.05550E+00
 -1     14500 1.01737E+00
 -1     14501 1.01737E+00
 -1     14502 1.05550E+00
 -1     14507 1.01737E+00
 -1     14508 1.01737E+00
 -1     14509 1.05550E+00
 -1     14514 1.01737E+00
 -1     14515 1.01737E+00
 -1     14516 1.05550E+00
 -1     14521 1.01737E+00
 -1     14522 1.01737E+00
 -1     14523 1.05550E+00
 -1     14528 1.01737E+00
 -1     14529 1.01737E+00
 -1     14530 1.05550E+00
 -1     14535 1.01737E+00
 -1     14536 1.01737E+00
 -1     14537 1.05550E+00
 -1     14542 1.01737E+00
 -1     14543 1.01737E+00
 -1     14544 1.05550E+00
 -1     14549 1.01737E+00
 -1     14550 1.01737E+00
 -1     14551 1.05550E+00
 -1     14556 1.01737E+00
 -1     14557 1.01737E+00
 -1     14558 1.05550E+00
 -1     14563 1.01737E+00
 -1     14567 1.01737E+00
 -1     14568 1.01737E+00
 -1     14569 1.05550E+00
 -1     14574 1.01737E+00
 -1     14575 1.01737E+00
 -1     14576 1.05550E+00
 -1     14581 1.01737E+00
 -1     14582 1.01737E+00
 -1     14583 1.05550E+00
 -1     14588 1.01737E+00
 -1     14589 1.01737E+00
 -1     14590 1.05550E+00
 -1     14595 1.01737E+00
 -1     14596 1.01737E+00
 -1     14597 1.05550E+00
 -1     14602 1.01737E+00
 -1     14603 1.01737E+00
 -1     14604 1.05550E+00
 -1     14609 1.01737E+00
 -1     14610 1.01737E+00
 -1     14611 1.05550E+00
 -1     14616 1.01737E+00
 -1     14617 1.01737E+00
 -1     14618 1.05550E+00
 -1     14623 1.01737E+00
 -1     14624 1.01737E+00
 -1     14625 1.05550E+00
 -1     14630 1.01737E+00
 -1     14631 1.01737E+00
 -1     14632 1.05550E+00
 -1     14637 1.01737E+00
 -1     14641 1.01737E+00
 -1     14642 1.01737E+00
 -1     14643 1.05550E+00
 -1     14648 1.01737E+00
 -1     14649 1.01737E+00
 -1     14650 1.05550E+00
 -1     14655 1.01737E+00
 -1     14656 1.01737E+00
 -1     14657 1.05550E+00
 -1     14662 1.01737E+00
 -1     14663 1.01737E+00
 -1     14664 1.05550E+00
 -1     14669 1.01737E+00
 -1     14670 1.01737E+00
 -1     14671 1.05550E+00
 -1     14676 1.01737E+00
 -1     14677 1.01737E+00
 -1     14678 1.05550E+00
 -1     14683 1.01737E+00
 -1     14684 1.01737E+00
 -1     14685 1.05550E+00
 -1     14690 1.01737E+00
 -1     14691 1.01737E+00
 -1     14692 1.05550E+00
 -1     14697 1.01737E+00
 -1     14698 1.01737E+00
 -1     14699 1.05550E+00
 -1     14704 1.01737E+00
 -1     14705 1.01737E+00
 -1     14706 1.05550E+00
 -1     14711 1.01737E+00
 -1     14715 1.01737E+00
 -1     14716 1.01737E+00
 -1     14717 1.05550E+00
 -1     14722 1.01737E+00
 -1     14723 1.01737E+00
 -1     14724 1.05550E+00
 -1     14729 1.01737E+00
 -1     14730 1.01737E+00
 -1     14731 1.05550E+00
 -1     14736 1.01737E+00
 -1     14737 1.01737E+00
 -1     14738 1.05550E+00
 -1     14743 1.01737E+00
 -1     14744 1.01737E+00
 -1     14745 1.05550E+00
 -1     14750 1.01737E+00
 -1     14751 1.01737E+00
 -1     14752 1.05550E+00
 -1     14757 1.01737E+00
 -1     14758 1.01737E+00
 -1     14759 1.05550E+00
 -1     14764 1.01737E+00
 -1     14765 1.01737E+00
 -1     14766 1.05550E+00
 -1     14771 1.01737E+00
 -1     14772 1.01737E+00
 -1     14773 1.05550E+00
 -1     14778 1.01737E+00
 -1     14779 1.01737E+00
 -1     14780 1.05550E+00
 -1     14785 1.01737E+00
 -1     14789 1.01737E+00
 -1     14790 1.01737E+00
 -1     14791 1.05550E+00
 -1     14796 1.01737E+00
 -1     14797 1.01737E+00
 -1     14798 1.05550E+00
 -1     14803 1.01737E+00
 -1     14804 1.01737E+00
 -1     14805 1.05550E+00
 -1     14810 1.01737E+00
 -1     14811 1.01737E+00
 -1     14812 1.05550E+00
 -1     14817 1.01737E+00
 -1     14818 1.01737E+00
 -1     14819 1.05550E+00
 -1     14824 1.01737E+00
 -1     14825 1.01737E+00
 -1     14826 1.05550E+00
 -1     14831 1.01737E+00
 -1     14832 1.01737E+00
 -1     14833 1.05550E+00
 -1     14838 1.01737E+00
 -1     14839 1.01737E+00
 -1     14840 1.05550E+00
 -1     14845 1.01737E+00
 -1     14846 1.01737E+00
 -1     14847 1.05550E+00
 -1     14852 1.01737E+00
 -1     14853 1.01737E+00
 -1     14854 1.05550E+00
 -1     14859 1.01737E+00
 -1     14863 1.01737E+00
 -1     14867 1.01737E+00
 -1     14871 1.01737E+00
 -1     14875 1.01737E+00
 -1     14879 1.01737E+00
 -1     14883 1.01737E+00
 -1     14887 1.01737E+00
 -1     14891 1.01737E+00
 -1     14895 1.01737E+00
 -1     14899 1.01737E+00
 -1     14905 9.48385E-01
 -1     14906 9.48385E-01
 -1     14907 9.82877E-01
 -1     14912 9.48385E-01
 -1     14913 9.48385E-01
 -1     14914 9.82877E-01
 -1     14919 9.48385E-01
 -1     14920 9.48385E-01
 -1     14921 9.82877E-01
 -1     14926 9.48385E-01
 -1     14927 9.48385E-01
 -1     14928 9.82877E-01
 -1     14933 9.48385E-01
 -1     14934 9.48385E-01
 -1     14935 9.82877E-01
 -1     14940 9.48385E-01
 -1     14941 9.48385E-01
 -1     14942 9.82877E-01
 -1     14947 9.48385E-01
 -1     14948 9.48385E-01
 -1     14949 9.82877E-01
 -1     14954 9.48385E-01
 -1     14955 9.48385E-01
 -1     14956 9.82877E-01
 -1     14961 9.48385E-01
 -1     14962 9.48385E-01
 -1     14963 9.82877E-01
 -1     14968 9.48385E-01
 -1     14969 9.48385E-01
 -1     14970 9.82877E-01
 -1     14975 9.48385E-01
 -1     14979 9.48385E-01
 -1     14980 9.48385E-01
 -1     14981 9.82877E-01
 -1     14986 9.48385E-01
 -1     14987 9.48385E-01
 -1     14988 9.82877E-01
 -1     14993 9.48385E-01
 -1     14994 9.48385E-01
 -1     14995 9.82877E-01
 -1     15000 9.48385E-01
 -1     15001 9.48385E-01
 -1     15002 9.82877E-01
 -1     15007 9.48385E-01
 -1     15008 9.48385E-01
 -1     15009 9.82877E-01
 -1     15014 9.48385E-01
 -1     15015 9.48385E-01
 -1     15016 9.82877E-01
 -1     15021 9.48385E-01
 -1     15022 9.48385E-01
 -1     15023 9.82877E-01
 -1     15028 9.48385E-01
 -1     15029 9.48385E-01
 -1     15030 9.82877E-01
 -1     15035 9.48385E-01
 -1     15036 9.48385E-01
 -1     15037 9.82877E-01
 -1     15042 9.48385E-01
 -1     15043 9.48385E-01
 -1     15044 9.82877E-01
 -1     15049 9.48385E-01
 -1     15053 9.48385E-01
 -1     15054 9.48385E-01
 -1     15055 9.82877E-01
 -1     15060 9.48385E-01
 -1     15061 9.48385E-01
 -1     15062 9.82877E-01
 -1     15067 9.48385E-01
 -1     15068 9.48385E-01
 -1     15069 9.82877E-01
 -1     15074 9.48385E-01
 -1     15075 9.48385E-01
 -1     15076 9.82877E-01
 -1     15081 9.48385E-01
 -1     15082 9.48385E-01
 -1     15083 9.82877E-01
 -1     15088 9.48385E-01
 -1     15089 9.48385E-01
 -1     15090 9.82877E-01
 -1     15095 9.48385E-01
 -1     15096 9.48385E-01
 -1     15097 9.82877E-01
 -1     15102 9.48385E-01
 -1     15103 9.48385E-01
 -1     15104 9.82877E-01
 -1     15109 9.48385E-01
 -1     15110 9.48385E-01
 -1     15111 9.82877E-01
 -1     15116 9.48385E-01
 -1     15117 9.48385E-01
 -1     15118 9.82877E-01
 -1     15123 9.48385E-01
 -1     15127 9.48385E-01
 -1     15128 9.48385E-01
 -1     15129 9.82877E-01
 -1     15134 9.48385E-01
 -1     15135 9.48385E-01
 -1     15136 9.82877E-01
 -1     15141 9.48385E-01
 -1     15142 9.48385E-01
 -1     15143 9.82877E-01
 -1     15148 9.48385E-01
 -1     15149 9.48385E-01
 -1     15150 9.82877E-01
 -1     15155 9.48385E-01
 -1     15156 9.48385E-01
 -1     15157 9.82877E-01
 -1     15162 9.48385E-01
 -1     15163 9.48385E-01
 -1     15164 9.82877E-01
 -1     15169 9.48385E-01
 -1     15170 9.48385E-01
 -1     15171 9.82877E-01
 -1     15176 9.48385E-01
 -1     15177 9.48385E-01
 -1     15178 9.82877E-01
 -1     15183 9.48385E-01
 -1     15184 9.48385E-01
 -1     15185 9.82877E-01
 -1     15190 9.48385E-01
 -1     15191 9.48385E-01
 -1     15192 9.82877E-01
 -1     15197 9.48385E-01
 -1     15201 9.48385E-01
 -1     15202 9.48385E-01
 -1     15203 9.82877E-01
 -1     15208 9.48385E-01
 -1     15209 9.48385E-01
 -1     15210 9.82877E-01
 -1     15215 9.48385E-01
 -1     15216 9.48385E-01
 -1     15217 9.82877E-01
 -1     15222 9.48385E-01
 -1     15223 9.48385E-01
 -1     15224 9.82877E-01
 -1     15229 9.48385E-01
 -1     15230 9.48385E-01
 -1     15231 9.82877E-01
 -1     15236 9.48385E-01
 -1     15237 9.48385E-01
 -1     15238 9.82877E-01
 -1     15243 9.48385E-01
 -1     15244 9.48385E-01
 -1     15245 9.82877E-01
 -1     15250 9.48385E-01
 -1     15251 9.48385E-01
 -1     15252 9.82877E-01
 -1     15257 9.48385E-01
 -1     15258 9.48385E-01
 -1     15259 9.82877E-01
 -1     15264 9.48385E-01
 -1     15265 9.48385E-01
 -1     15266 9.82877E-01
 -1     15271 9.48385E-01
 -1     15275 9.48385E-01
 -1     15276 9.48385E-01
 -1     15277 9.82877E-01
 -1     15282 9.48385E-01
 -1     15283 9.48385E-01
 -1     15284 9.82877E-01
 -1     15289 9.48385E-01
 -1     15290 9.48385E-01
 -1     15291 9.82877E-01
 -1     15296 9.48385E-01
 -1     15297 9.48385E-01
 -1     15298 9.82877E-01
 -1     15303 9.48385E-01
 -1     15304 9.48385E-01
 -1     15305 9.82877E-01
 -1     15310 9.48385E-01
 -1     15311 9.48385E-01
 -1     15312 9.82877E-01
 -1     15317 9.48385E-01
 -1     15318 9.48385E-01
 -1     15319 9.82877E-01
 -1     15324 9.48385E-01
 -1     15325 9.48385E-01
 -1     15326 9.82877E-01
 -1     15331 9.48385E-01
 -1     15332 9.48385E-01
 -1     15333 9.82877E-01
 -1     15338 9.48385E-01
 -1     15339 9.48385E-01
 -1     15340 9.82877E-01
 -1     15345 9.48385E-01
 -1     15349 9.48385E-01
 -1     15350 9.48385E-01
 -1     15351 9.82877E-01
 -1     15356 9.48385E-01
 -1     15357 9.48385E-01
 -1     15358 9.82877E-01
 -1     15363 9.48385E-01
 -1     15364 9.48385E-01
 -1     15365 9.82877E-01
 -1     15370 9.48385E-01
 -1     15371 9.48385E-01
 -1     15372 9.82877E-01
 -1     15377 9.48385E-01
 -1     15378 9.48385E-01
 -1     15379 9.82877E-01
 -1     15384 9.48385E-01
 -1     15385 9.48385E-01
 -1     15386 9.82877E-01
 -1     15391 9.48385E-01
 -1     15392 9.48385E-01
 -1     15393 9.82877E-01
 -1     15398 9.48385E-01
 -1     15399 9.48385E-01
 -1     15400 9.82877E-01
 -1     15405 9.48385E-01
 -1     15406 9.48385E-01
 -1     15407 9.82877E-01
 -1     15412 9.48385E-01
 -1     15413 9.48385E-01
 -1     15414 9.82877E-01
 -1     15419 9.48385E-01
 -1     15423 9.48385E-01
 -1     15424 9.48385E-01
 -1     15425 9.82877E-01
 -1     15430 9.48385E-01
 -1     15431 9.48385E-01
 -1     15432 9.82877E-01
 -1     15437 9.48385E-01
 -1     15438 9.48385E-01
 -1     15439 9.82877E-01
 -1     15444 9.48385E-01
 -1     15445 9.48385E-01
 -1     15446 9.82877E-01
 -1     15451 9.48385E-01
 -1     15452 9.48385E-01
 -1     15453 9.82877E-01
 -1     15458 9.48385E-01
 -1     15459 9.48385E-01
 -1     15460 9.82877E-01
 -1     15465 9.48385E-01
 -1     15466 9.48385E-01
 -1     15467 9.82877E-01
 -1     15472 9.48385E-01
 -1     15473 9.48385E-01
 -1     15474 9.82877E-01
 -1     15479 9.48385E-01
 -1     15480 9.48385E-01
 -1     15481 9.82877E-01
 -1     15486 9.48385E-01
 -1     15487 9.48385E-01
 -1     15488 9.82877E-01
 -1     15493 9.48385E-01
 -1     15497 9.48385E-01
 -1     15498 9.48385E-01
 -1     15499 9.82877E-01
 -1     15504 9.48385E-01
 -1     15505 9.48385E-01
 -1     15506 9.82877E-01
 -1     15511 9.48385E-01
 -1     15512 9.48385E-01
 -1     15513 9.82877E-01
 -1     15518 9.48385E-01
 -1     15519 9.48385E-01
 -1     15520 9.82877E-01
 -1     15525 9.48385E-01
 -1     15526 9.48385E-01
 -1     15527 9.82877E-01
 -1     15532 9.48385E-01
 -1     15533 9.48385E-01
 -1     15534 9.82877E-01
 -1     15539 9.48385E-01
 -1     15540 9.48385E-01
 -1     15541 9.82877E-01
 -1     15546 9.48385E-01
 -1     15547 9.48385E-01
 -1     15548 9.82877E-01
 -1     15553 9.48385E-01
 -1     15554 9.48385E-01
 -1     15555 9.82877E-01
 -1     15560 9.48385E-01
 -1     15561 9.48385E-01
 -1     15562 9.82877E-01
 -1     15567 9.48385E-01
 -1     15571 9.48385E-01
 -1     15575 9.48385E-01
 -1     15579 9.48385E-01
 -1     15583 9.48385E-01
 -1     15587 9.48385E-01
 -1     15591 9.48385E-01
 -1     15595 9.48385E-01
 -1     15599 9.48385E-01
 -1     15603 9.48385E-01
 -1     15607 9.48385E-01
 -1     15613 8.85716E-01
 -1     15614 8.85716E-01
 -1     15615 9.17050E-01
 -1     15620 8.85716E-01
 -1     15621 8.85716E-01
 -1     15622 9.17050E-01
 -1     15627 8.85716E-01
 -1     15628 8.85716E-01
 -1     15629 9.17050E-01
 -1     15634 8.85716E-01
 -1     15635 8.85716E-01
 -1     15636 9.17050E-01
 -1     15641 8.85716E-01
 -1     15642 8.85716E-01
 -1     15643 9.17050E-01
 -1     15648 8.85716E-01
 -1     15649 8.85716E-01
 -1     15650 9.17050E-01
 -1     15655 8.85716E-01
 -1     15656 8.85716E-01
 -1     15657 9.17050E-01
 -1     15662 8.85716E-01
 -1     15663 8.85716E-01
 -1     15664 9.17050E-01
 -1     15669 8.85716E-01
 -1     15670 8.85716E-01
 -1     15671 9.17050E-01
 -1     15676 8.85716E-01
 -1     15677 8.85716E-01
 -1     15678 9.17050E-01
 -1     15683 8.85716E-01
 -1     15687 8.85716E-01
 -1     15688 8.85716E-01
 -1     15689 9.17050E-01
 -1     15694 8.85716E-01
 -1     15695 8.85716E-01
 -1     15696 9.17050E-01
 -1     15701 8.85716E-01
 -1     15702 8.85716E-01
 -1     15703 9.17050E-01
 -1     15708 8.85716E-01
 -1     15709 8.85716E-01
 -1     15710 9.17050E-01
 -1     15715 8.85716E-01
 -1     15716 8.85716E-01
 -1     15717 9.17050E-01
 -1     15722 8.85716E-01
 -1     15723 8.85716E-01
 -1     15724 9.17050E-01
 -1     15729 8.85716E-01
 -1     15730 8.85716E-01
 -1     15731 9.17050E-01
 -1     15736 8.85716E-01
 -1     15737 8.85716E-01
 -1     15738 9.17050E-01
 -1     15743 8.85716E-01
 -1     15744 8.85716E-01
 -1     15745 9.17050E-01
 -1     15750 8.85716E-01
 -1     15751 8.85716E-01
 -1     15752 9.17050E-01
 -1     15757 8.85716E-01
 -1     15761 8.85716E-01
 -1     15762 8.85716E-01
 -1     15763 9.17050E-01
 -1     15768 8.85716E-01
 -1     15769 8.85716E-01
 -1     15770 9.17050E-01
 -1     15775 8.85716E-01
 -1     15776 8.85716E-01
 -1     15777 9.17050E-01
 -1     15782 8.85716E-01
 -1     15783 8.85716E-01
 -1     15784 9.17050E-01
 -1     15789 8.85716E-01
 -1     15790 8.85716E-01
 -1     15791 9.17050E-01
 -1     15796 8.85716E-01
 -1     15797 8.85716E-01
 -1     15798 9.17050E-01
 -1     15803 8.85716E-01
 -1     15804 8.85716E-01
 -1     15805 9.17050E-01
 -1     15810 8.85716E-01
 -1     15811 8.85716E-01
 -1     15812 9.17050E-01
 -1     15817 8.85716E-01
 -1     15818 8.85716E-01
 -1     15819 9.17050E-01
 -1     15824 8.85716E-01
 -1     15825 8.85716E-01
 -1     15826 9.17050E-01
 -1     15831 8.85716E-01
 -1     15835 8.85716E-01
 -1     15836 8.85716E-01
 -1     15837 9.17050E-01
 -1     15842 8.85716E-01
 -1     15843 8.85716E-01
 -1     15844 9.17050E-01
 -1     15849 8.85716E-01
 -1     15850 8.85716E-01
 -1     15851 9.17050E-01
 -1     15856 8.85716E-01
 -1     15857 8.85716E-01
 -1     15858 9.17050E-01
 -1     15863 8.85716E-01
 -1     15864 8.85716E-01
 -1     15865 9.17050E-01
 -1     15870 8.85716E-01
 -1     15871 8.85716E-01
 -1     15872 9.17050E-01
 -1     15877 8.85716E-01
 -1     15878 8.85716E-01
 -1     15879 9.17050E-01
 -1     15884 8.85716E-01
 -1     15885 8.85716E-01
 -1     15886 9.17050E-01
 -1     15891 8.85716E-01
 -1     15892 8.85716E-01
 -1     15893 9.17050E-01
 -1     15898 8.85716E-01
 -1     15899 8.85716E-01
 -1     15900 9.17050E-01
 -1     15905 8.85716E-01
 -1     15909 8.85716E-01
 -1     15910 8.85716E-01
 -1     15911 9.17050E-01
 -1     15916 8.85716E-01
 -1     15917 8.85716E-01
 -1     15918 9.17050E-01
 -1     15923 8.85716E-01
 -1     15924 8.85716E-01
 -1     15925 9.17050E-01
 -1     15930 8.85716E-01
 -1     15931 8.85716E-01
 -1     15932 9.17050E-01
 -1     15937 8.85716E-01
 -1     15938 8.85716E-01
 -1     15939 9.17050E-01
 -1     15944 8.85716E-01
 -1     15945 8.85716E-01
 -1     15946 9.17050E-01
 -1     15951 8.85716E-01
 -1     15952 8.85716E-01
 -1     15953 9.17050E-01
 -1     15958 8.85716E-01
 -1     15959 8.85716E-01
 -1     15960 9.17050E-01
 -1     15965 8.85716E-01
 -1     15966 8.85716E-01
 -1     15967 9.17050E-01
 -1     15972 8.85716E-01
 -1     15973 8.85716E-01
 -1     15974 9.17050E-01
 -1     15979 8.85716E-01
 -1     15983 8.85716E-01
 -1     15984 8.85716E-01
 -1     15985 9.17050E-01
 -1     15990 8.85716E-01
 -1     15991 8.85716E-01
 -1     15992 9.17050E-01
 -1     15997 8.85716E-01
 -1     15998 8.85716E-01
 -1     15999 9.17050E-01
 -1     16004 8.85716E-01
 -1     16005 8.85716E-01
 -1     16006 9.17050E-01
 -1     16011 8.85716E-01
 -1     16012 8.85716E-01
 -1     16013 9.17050E-01
 -1     16018 8.85716E-01
 -1     16019 8.85716E-01
 -1     16020 9.17050E-01
 -1     16025 8.85716E-01
 -1     16026 8.85716E-01
 -1     16027 9.17050E-01
 -1     16032 8.85716E-01
 -1     16033 8.85716E-01
 -1     16034 9.17050E-01
 -1     16039 8.85716E-01
 -1     16040 8.85716E-01
 -1     16041 9.17050E-01
 -1     16046 8.85716E-01
 -1     16047 8.85716E-01
 -1     16048 9.17050E-01
 -1     16053 8.85716E-01
 -1     16057 8.85716E-01
 -1     16058 8.85716E-01
 -1     16059 9.17050E-01
 -1     16064 8.85716E-01
 -1     16065 8.85716E-01
 -1     16066 9.17050E-01
 -1     16071 8.85716E-01
 -1     16072 8.85716E-01
 -1     16073 9.17050E-01
 -1     16078 8.85716E-01
 -1     16079 8.85716E-01
 -1     16080 9.17050E-01
 -1     16085 8.85716E-01
 -1     16086 8.85716E-01
 -1     16087 9.17050E-01
 -1     16092 8.85716E-01
 -1     16093 8.85716E-01
 -1     16094 9.17050E-01
 -1     16099 8.85716E-01
 -1     16100 8.85716E-01
 -1     16101 9.17050E-01
 -1     16106 8.85716E-01
 -1     16107 8.85716E-01
 -1     16108 9.17050E-01
 -1     16113 8.85716E-01
 -1     16114 8.85716E-01
 -1     16115 9.17050E-01
 -1     16120 8.85716E-01
 -1     16121 8.85716E-01
 -1     16122 9.17050E-01
 -1     16127 8.85716E-01
 -1     16131 8.85716E-01
 -1     16132 8.85716E-01
 -1     16133 9.17050E-01
 -1     16138 8.85716E-01
 -1     16139 8.85716E-01
 -1     16140 9.17050E-01
 -1     16145 8.85716E-01
 -1     16146 8.85716E-01
 -1     16147 9.17050E-01
 -1     16152 8.85716E-01
 -1     16153 8.85716E-01
 -1     16154 9.17050E-01
 -1     16159 8.85716E-01
 -1     16160 8.85716E-01
 -1     16161 9.17050E-01
 -1     16166 8.85716E-01
 -1     16167 8.85716E-01
 -1     16168 9.17050E-01
 -1     16173 8.85716E-01
 -1     16174 8.85716E-01
 -1     16175 9.17050E-01
 -1     16180 8.85716E-01
 -1     16181 8.85716E-01
 -1     16182 9.17050E-01
 -1     16187 8.85716E-01
 -1     16188 8.85716E-01
 -1     16189 9.17050E-01
 -1     16194 8.85716E-01
 -1     16195 8.85716E-01
 -1     16196 9.17050E-01
 -1     16201 8.85716E-01
 -1     16205 8.85716E-01
 -1     16206 8.85716E-01
 -1     16207 9.17050E-01
 -1     16212 8.85716E-01
 -1     16213 8.85716E-01
 -1     16214 9.17050E-01
 -1     16219 8.85716E-01
 -1     16220 8.85716E-01
 -1     16221 9.17050E-01
 -1     16226 8.85716E-01
 -1     16227 8.85716E-01
 -1     16228 9.17050E-01
 -1     16233 8.85716E-01
 -1     16234 8.85716E-01
 -1     16235 9.17050E-01
 -1     16240 8.85716E-01
 -1     16241 8.85716E-01
 -1     16242 9.17050E-01
 -1     16247 8.85716E-01
 -1     16248 8.85716E-01
 -1     16249 9.17050E-01
 -1     16254 8.85716E-01
 -1     16255 8.85716E-01
 -1     16256 9.17050E-01
 -1     16261 8.85716E-01
 -1     16262 8.85716E-01
 -1     16263 9.17050E-01
 -1     16268 8.85716E-01
 -1     16269 8.85716E-01
 -1     16270 9.17050E-01
 -1     16275 8.85716E-01
 -1     16279 8.85716E-01
 -1     16283 8.85716E-01
 -1     16287 8.85716E-01
 -1     16291 8.85716E-01
 -1     16295 8.85716E-01
 -1     16299 8.85716E-01
 -1     16303 8.85716E-01
 -1     16307 8.85716E-01
 -1     16311 8.85716E-01
 -1     16315 8.85716E-01
 -1     16321 8.28565E-01
 -1     16322 8.28565E-01
 -1     16323 8.57140E-01
 -1     16328 8.28565E-01
 -1     16329 8.28565E-01
 -1     16330 8.57140E-01
 -1     16335 8.28565E-01
 -1     16336 8.28565E-01
 -1     16337 8.57140E-01
 -1     16342 8.28565E-01
 -1     16343 8.28565E-01
 -1     16344 8.57140E-01
 -1     16349 8.28565E-01
 -1     16350 8.28565E-01
 -1     16351 8.57140E-01
 -1     16356 8.28565E-01
 -1     16357 8.28565E-01
 -1     16358 8.57140E-01
 -1     16363 8.28565E-01
 -1     16364 8.28565E-01
 -1     16365 8.57140E-01
 -1     16370 8.28565E-01
 -1     16371 8.28565E-01
 -1     16372 8.57140E-01
 -1     16377 8.28565E-01
 -1     16378 8.28565E-01
 -1     16379 8.57140E-01
 -1     16384 8.28565E-01
 -1     16385 8.28565E-01
 -1     16386 8.57140E-01
 -1     16391 8.28565E-01
 -1     16395 8.28565E-01
 -1     16396 8.28565E-01
 -1     16397 8.57140E-01
 -1     16402 8.28565E-01
 -1     16403 8.28565E-01
 -1     16404 8.57140E-01
 -1     16409 8.28565E-01
 -1     16410 8.28565E-01
 -1     16411 8.57140E-01
 -1     16416 8.28565E-01
 -1     16417 8.28565E-01
 -1     16418 8.57140E-01
 -1     16423 8.28565E-01
 -1     16424 8.28565E-01
 -1     16425 8.57140E-01
 -1     16430 8.28565E-01
 -1     16431 8.28565E-01
 -1     16432 8.57140E-01
 -1     16437 8.28565E-01
 -1     16438 8.28565E-01
 -1     16439 8.57140E-01
 -1     16444 8.28565E-01
 -1     16445 8.28565E-01
 -1     16446 8.57140E-01
 -1     16451 8.28565E-01
 -1     16452 8.28565E-01
 -1     16453 8.57140E-01
 -1     16458 8.28565E-01
 -1     16459 8.28565E-01
 -1     16460 8.57140E-01
 -1     16465 8.28565E-01
 -1     16469 8.28565E-01
 -1     16470 8.28565E-01
 -1     16471 8.57140E-01
 -1     16476 8.28565E-01
 -1     16477 8.28565E-01
 -1     16478 8.57140E-01
 -1     16483 8.28565E-01
 -1     16484 8.28565E-01
 -1     16485 8.57140E-01
 -1     16490 8.28565E-01
 -1     16491 8.28565E-01
 -1     16492 8.57140E-01
 -1     16497 8.28565E-01
 -1     16498 8.28565E-01
 -1     16499 8.57140E-01
 -1     16504 8.28565E-01
 -1     16505 8.28565E-01
 -1     16506 8.57140E-01
 -1     16511 8.28565E-01
 -1     16512 8.28565E-01
 -1     16513 8.57140E-01
 -1     16518 8.28565E-01
 -1     16519 8.28565E-01
 -1     16520 8.57140E-01
 -1     16525 8.28565E-01
 -1     16526 8.28565E-01
 -1     16527 8.57140E-01
 -1     16532 8.28565E-01
 -1     16533 8.28565E-01
 -1     16534 8.57140E-01
 -1     16539 8.28565E-01
 -1     16543 8.28565E-01
 -1     16544 8.28565E-01
 -1     16545 8.57140E-01
 -1     16550 8.28565E-01
 -1     16551 8.28565E-01
 -1     16552 8.57140E-01
 -1     16557 8.28565E-01
 -1     16558 8.28565E-01
 -1     16559 8.57140E-01
 -1     16564 8.28565E-01
 -1     16565 8.28565E-01
 -1     16566 8.57140E-01
 -1     16571 8.28565E-01
 -1     16572 8.28565E-01
 -1     16573 8.57140E-01
 -1     16578 8.28565E-01
 -1     16579 8.28565E-01
 -1     16580 8.57140E-01
 -1     16585 8.28565E-01
 -1     16586 8.28565E-01
 -1     16587 8.57140E-01
 -1     16592 8.28565E-01
 -1     16593 8.28565E-01
 -1     16594 8.57140E-01
 -1     16599 8.28565E-01
 -1     16600 8.28565E-01
 -1     16601 8.57140E-01
 -1     16606 8.28565E-01
 -1     16607 8.28565E-01
 -1     16608 8.57140E-01
 -1     16613 8.28565E-01
 -1     16617 8.28565E-01
 -1     16618 8.28565E-01
 -1     16619 8.57140E-01
 -1     16624 8.28565E-01
 -1     16625 8.28565E-01
 -1     16626 8.57140E-01
 -1     16631 8.28565E-01
 -1     16632 8.28565E-01
 -1     16633 8.57140E-01
 -1     16638 8.28565E-01
 -1     16639 8.28565E-01
 -1     16640 8.57140E-01
 -1     16645 8.28565E-01
 -1     16646 8.28565E-01
 -1     16647 8.57140E-01
 -1     16652 8.28565E-01
 -1     16653 8.28565E-01
 -1     16654 8.57140E-01
 -1     16659 8.28565E-01
 -1     16660 8.28565E-01
 -1     16661 8.57140E-01
 -1     16666 8.28565E-01
 -1     16667 8.28565E-01
 -1     16668 8.57140E-01
 -1     16673 8.28565E-01
 -1     16674 8.28565E-01
 -1     16675 8.57140E-01
 -1     16680 8.28565E-01
 -1     16681 8.28565E-01
 -1     16682 8.57140E-01
 -1     16687 8.28565E-01
 -1     16691 8.28565E-01
 -1     16692 8.28565E-01
 -1     16693 8.57140E-01
 -1     16698 8.28565E-01
 -1     16699 8.28565E-01
 -1     16700 8.57140E-01
 -1     16705 8.28565E-01
 -1     16706 8.28565E-01
 -1     16707 8.57140E-01
 -1     16712 8.28565E-01
 -1     16713 8.28565E-01
 -1     16714 8.57140E-01
 -1     16719 8.28565E-01
 -1     16720 8.28565E-01
 -1     16721 8.57140E-01
 -1     16726 8.28565E-01
 -1     16727 8.28565E-01
 -1     16728 8.57140E-01
 -1     16733 8.28565E-01
 -1     16734 8.28565E-01
 -1     16735 8.57140E-01
 -1     16740 8.28565E-01
 -1     16741 8.28565E-01
 -1     16742 8.57140E-01
 -1     16747 8.28565E-01
 -1     16748 8.28565E-01
 -1     16749 8.57140E-01
 -1     16754 8.28565E-01
 -1     16755 8.28565E-01
 -1     16756 8.57140E-01
 -1     16761 8.28565E-01
 -1     16765 8.28565E-01
 -1     16766 8.28565E-01
 -1     16767 8.57140E-01
 -1     16772 8.28565E-01
 -1     16773 8.28565E-01
 -1     16774 8.57140E-01
 -1     16779 8.28565E-01
 -1     16780 8.28565E-01
 -1     16781 8.57140E-01
 -1     16786 8.28565E-01
 -1     16787 8.28565E-01
 -1     16788 8.57140E-01
 -1     16793 8.28565E-01
 -1     16794 8.28565E-01
 -1     16795 8.57140E-01
 -1     16800 8.28565E-01
 -1     16801 8.28565E-01
 -1     16802 8.57140E-01
 -1     16807 8.28565E-01
 -1     16808 8.28565E-01
 -1     16809 8.57140E-01
 -1     16814 8.28565E-01
 -1     16815 8.28565E-01
 -1     16816 8.57140E-01
 -1     16821 8.28565E-01
 -1     16822 8.28565E-01
 -1     16823 8.57140E-01
 -1     16828 8.28565E-01
 -1     16829 8.28565E-01
 -1     16830 8.57140E-01
 -1     16835 8.28565E-01
 -1     16839 8.28565E-01
 -1     16840 8.28565E-01
 -1     16841 8.57140E-01
 -1     16846 8.28565E-01
 -1     16847 8.28565E-01
 -1     16848 8.57140E-01
 -1     16853 8.28565E-01
 -1     16854 8.28565E-01
 -1     16855 8.57140E-01
 -1     16860 8.28565E-01
 -1     16861 8.28565E-01
 -1     16862 8.57140E-01
 -1     16867 8.28565E-01
 -1     16868 8.28565E-01
 -1     16869 8.57140E-01
 -1     16874 8.28565E-01
 -1     16875 8.28565E-01
 -1     16876 8.57140E-01
 -1     16881 8.28565E-01
 -1     16882 8.28565E-01
 -1     16883 8.57140E-01
 -1     16888 8.28565E-01
 -1     16889 8.28565E-01
 -1     16890 8.57140E-01
 -1     16895 8.28565E-01
 -1     16896 8.28565E-01
 -1     16897 8.57140E-01
 -1     16902 8.28565E-01
 -1     16903 8.28565E-01
 -1     16904 8.57140E-01
 -1     16909 8.28565E-01
 -1     16913 8.28565E-01
 -1     16914 8.28565E-01
 -1     16915 8.57140E-01
 -1     16920 8.28565E-01
 -1     16921 8.28565E-01
 -1     16922 8.57140E-01
 -1     16927 8.28565E-01
 -1     16928 8.28565E-01
 -1     16929 8.57140E-01
 -1     16934 8.28565E-01
 -1     16935 8.28565E-01
 -1     16936 8.57140E-01
 -1     16941 8.28565E-01
 -1     16942 8.28565E-01
 -1     16943 8.57140E-01
 -1     16948 8.28565E-01
 -1     16949 8.28565E-01
 -1     16950 8.57140E-01
 -1     16955 8.28565E-01
 -1     16956 8.28565E-01
 -1     16957 8.57140E-01
 -1     16962 8.28565E-01
 -1     16963 8.28565E-01
 -1     16964 8.57140E-01
 -1     16969 8.28565E-01
 -1     16970 8.28565E-01
 -1     16971 8.57140E-01
 -1     16976 8.28565E-01
 -1     16977 8.28565E-01
 -1     16978 8.57140E-01
 -1     16983 8.28565E-01
 -1     16987 8.28565E-01
 -1     16991 8.28565E-01
 -1     16995 8.28565E-01
 -1     16999 8.28565E-01
 -1     17003 8.28565E-01
 -1     17007 8.28565E-01
 -1     17011 8.28565E-01
 -1     17015 8.28565E-01
 -1     17019 8.28565E-01
 -1     17023 8.28565E-01
 -1     17029 7.76270E-01
 -1     17030 7.76270E-01
 -1     17031 8.02417E-01
 -1     17036 7.76270E-01
 -1     17037 7.76270E-01
 -1     17038 8.02417E-01
 -1     17043 7.76270E-01
 -1     17044 7.76270E-01
 -1     17045 8.02417E-01
 -1     17050 7.76270E-01
 -1     17051 7.76270E-01
 -1     17052 8.02417E-01
 -1     17057 7.76270E-01
 -1     17058 7.76270E-01
 -1     17059 8.02417E-01
 -1     17064 7.76270E-01
 -1     17065 7.76270E-01
 -1     17066 8.02417E-01
 -1     17071 7.76270E-01
 -1     17072 7.76270E-01
 -1     17073 8.02417E-01
 -1     17078 7.76270E-01
 -1     17079 7.76270E-01
 -1     17080 8.02417E-01
 -1     17085 7.76270E-01
 -1     17086 7.76270E-01
 -1     17087 8.02417E-01
 -1     17092 7.76270E-01
 -1     17093 7.76270E-01
 -1     17094 8.02417E-01
 -1     17099 7.76270E-01
 -1     17103 7.76270E-01
 -1     17104 7.76270E-01
 -1     17105 8.02417E-01
 -1     17110 7.76270E-01
 -1     17111 7.76270E-01
 -1     17112 8.02417E-01
 -1     17117 7.76270E-01
 -1     17118 7.76270E-01
 -1     17119 8.02417E-01
 -1     17124 7.76270E-01
 -1     17125 7.76270E-01
 -1     17126 8.02417E-01
 -1     17131 7.76270E-01
 -1     17132 7.76270E-01
 -1     17133 8.02417E-01
 -1     17138 7.76270E-01
 -1     17139 7.76270E-01
 -1     17140 8.02417E-01
 -1     17145 7.76270E-01
 -1     17146 7.76270E-01
 -1     17147 8.02417E-01
 -1     17152 7.76270E-01
 -1     17153 7.76270E-01
 -1     17154 8.02417E-01
 -1     17159 7.76270E-01
 -1     17160 7.76270E-01
 -1     17161 8.02417E-01
 -1     17166 7.76270E-01
 -1     17167 7.76270E-01
 -1     17168 8.02417E-01
 -1     17173 7.76270E-01
 -1     17177 7.76270E-01
 -1     17178 7.76270E-01
 -1     17179 8.02417E-01
 -1     17184 7.76270E-01
 -1     17185 7.76270E-01
 -1     17186 8.02417E-01
 -1     17191 7.76270E-01
 -1     17192 7.76270E-01
 -1     17193 8.02417E-01
 -1     17198 7.76270E-01
 -1     17199 7.76270E-01
 -1     17200 8.02417E-01
 -1     17205 7.76270E-01
 -1     17206 7.76270E-01
 -1     17207 8.02417E-01
 -1     17212 7.76270E-01
 -1     17213 7.76270E-01
 -1     17214 8.02417E-01
 -1     17219 7.76270E-01
 -1     17220 7.76270E-01
 -1     17221 8.02417E-01
 -1     17226 7.76270E-01
 -1     17227 7.76270E-01
 -1     17228 8.02417E-01
 -1     17233 7.76270E-01
 -1     17234 7.76270E-01
 -1     17235 8.02417E-01
 -1     17240 7.76270E-01
 -1     17241 7.76270E-01
 -1     17242 8.02417E-01
 -1     17247 7.76270E-01
 -1     17251 7.76270E-01
 -1     17252 7.76270E-01
 -1     17253 8.02417E-01
 -1     17258 7.76270E-01
 -1     17259 7.76270E-01
 -1     17260 8.02417E-01
 -1     17265 7.76270E-01
 -1     17266 7.76270E-01
 -1     17267 8.02417E-01
 -1     17272 7.76270E-01
 -1     17273 7.76270E-01
 -1     17274 8.02417E-01
 -1     17279 7.76270E-01
 -1     17280 7.76270E-01
 -1     17281 8.02417E-01
 -1     17286 7.76270E-01
 -1     17287 7.76270E-01
 -1     17288 8.02417E-01
 -1     17293 7.76270E-01
 -1     17294 7.76270E-01
 -1     17295 8.02417E-01
 -1     17300 7.76270E-01
 -1     17301 7.76270E-01
 -1     17302 8.02417E-01
 -1     17307 7.76270E-01
 -1     17308 7.76270E-01
 -1     17309 8.02417E-01
 -1     17314 7.76270E-01
 -1     17315 7.76270E-01
 -1     17316 8.02417E-01
 -1     17321 7.76270E-01
 -1     17325 7.76270E-01
 -1     17326 7.76270E-01
 -1     17327 8.02417E-01
 -1     17332 7.76270E-01
 -1     17333 7.76270E-01
 -1     17334 8.02417E-01
 -1     17339 7.76270E-01
 -1     17340 7.76270E-01
 -1     17341 8.02417E-01
 -1     17346 7.76270E-01
 -1     17347 7.76270E-01
 -1     17348 8.02417E-01
 -1     17353 7.76270E-01
 -1     17354 7.76270E-01
 -1     17355 8.02417E-01
 -1     17360 7.76270E-01
 -1     17361 7.76270E-01
 -1     17362 8.02417E-01
 -1     17367 7.76270E-01
 -1     17368 7.76270E-01
 -1     17369 8.02417E-01
 -1     17374 7.76270E-01
 -1     17375 7.76270E-01
 -1     17376 8.02417E-01
 -1     17381 7.76270E-01
 -1     17382 7.76270E-01
 -1     17383 8.02417E-01
 -1     17388 7.76270E-01
 -1     17389 7.76270E-01
 -1     17390 8.02417E-01
 -1     17395 7.76270E-01
 -1     17399 7.76270E-01
 -1     17400 7.76270E-01
 -1     17401 8.02417E-01
 -1     17406 7.76270E-01
 -1     17407 7.76270E-01
 -1     17408 8.02417E-01
 -1     17413 7.76270E-01
 -1     17414 7.76270E-01
 -1     17415 8.02417E-01
 -1     17420 7.76270E-01
 -1     17421 7.76270E-01
 -1     17422 8.02417E-01
 -1     17427 7.76270E-01
 -1     17428 7.76270E-01
 -1     17429 8.02417E-01
 -1     17434 7.76270E-01
 -1     17435 7.76270E-01
 -1     17436 8.02417E-01
 -1     17441 7.76270E-01
 -1     17442 7.76270E-01
 -1     17443 8.02417E-01
 -1     17448 7.76270E-01
 -1     17449 7.76270E-01
 -1     17450 8.02417E-01
 -1     17455 7.76270E-01
 -1     17456 7.76270E-01
 -1     17457 8.02417E-01
 -1     17462 7.76270E-01
 -1     17463 7.76270E-01
 -1     17464 8.02417E-01
 -1     17469 7.76270E-01
 -1     17473 7.76270E-01
 -1     17474 7.76270E-01
 -1     17475 8.02417E-01
 -1     17480 7.76270E-01
 -1     17481 7.76270E-01
 -1     17482 8.02417E-01
 -1     17487 7.76270E-01
 -1     17488 7.76270E-01
 -1     17489 8.02417E-01
 -1     17494 7.76270E-01
 -1     17495 7.76270E-01
 -1     17496 8.02417E-01
 -1     17501 7.76270E-01
 -1     17502 7.76270E-01
 -1     17503 8.02417E-01
 -1     17508 7.76270E-01
 -1     17509 7.76270E-01
 -1     17510 8.02417E-01
 -1     17515 7.76270E-01
 -1     17516 7.76270E-01
 -1     17517 8.02417E-01
 -1     17522 7.76270E-01
 -1     17523 7.76270E-01
 -1     17524 8.02417E-01
 -1     17529 7.76270E-01
 -1     17530 7.76270E-01
 -1     17531 8.02417E-01
 -1     17536 7.76270E-01
 -1     17537 7.76270E-01
 -1     17538 8.02417E-01
 -1     17543 7.76270E-01
 -1     17547 7.76270E-01
 -1     17548 7.76270E-01
 -1     17549 8.02417E-01
 -1     17554 7.76270E-01
 -1     17555 7.76270E-01
 -1     17556 8.02417E-01
 -1     17561 7.76270E-01
 -1     17562 7.76270E-01
 -1     17563 8.02417E-01
 -1     17568 7.76270E-01
 -1     17569 7.76270E-01
 -1     17570 8.02417E-01
 -1     17575 7.76270E-01
 -1     17576 7.76270E-01
 -1     17577 8.02417E-01
 -1     17582 7.76270E-01
 -1     17583 7.76270E-01
 -1     17584 8.02417E-01
 -1     17589 7.76270E-01
 -1     17590 7.76270E-01
 -1     17591 8.02417E-01
 -1     17596 7.76270E-01
 -1     17597 7.76270E-01
 -1     17598 8.02417E-01
 -1     17603 7.76270E-01
 -1     17604 7.76270E-01
 -1     17605 8.02417E-01
 -1     17610 7.76270E-01
 -1     17611 7.76270E-01
 -1     17612 8.02417E-01
 -1     17617 7.76270E-01
 -1     17621 7.76270E-01
 -1     17622 7.76270E-01
 -1     17623 8.02417E-01
 -1     17628 7.76270E-01
 -1     17629 7.76270E-01
 -1     17630 8.02417E-01
 -1     17635 7.76270E-01
 -1     17636 7.76270E-01
 -1     17637 8.02417E-01
 -1     17642 7.76270E-01
 -1     17643 7.76270E-01
 -1     17644 8.02417E-01
 -1     17649 7.76270E-01
 -1     17650 7.76270E-01
 -1     17651 8.02417E-01
 -1     17656 7.76270E-01
 -1     17657 7.76270E-01
 -1     17658 8.02417E-01
 -1     17663 7.76270E-01
 -1     17664 7.76270E-01
 -1     17665 8.02417E-01
 -1     17670 7.76270E-01
 -1     17671 7.76270E-01
 -1     17672 8.02417E-01
 -1     17677 7.76270E-01
 -1     17678 7.76270E-01
 -1     17679 8.02417E-01
 -1     17684 7.76270E-01
 -1     17685 7.76270E-01
 -1     17686 8.02417E-01
 -1     17691 7.76270E-01
 -1     17695 7.76270E-01
 -1     17699 7.76270E-01
 -1     17703 7.76270E-01
 -1     17707 7.76270E-01
 -1     17711 7.76270E-01
 -1     17715 7.76270E-01
 -1     17719 7.76270E-01
 -1     17723 7.76270E-01
 -1     17727 7.76270E-01
 -1     17731 7.76270E-01
 -1     17737 7.28276E-01
 -1     17738 7.28276E-01
 -1     17739 7.52273E-01
 -1     17744 7.28276E-01
 -1     17745 7.28276E-01
 -1     17746 7.52273E-01
 -1     17751 7.28276E-01
 -1     17752 7.28276E-01
 -1     17753 7.52273E-01
 -1     17758 7.28276E-01
 -1     17759 7.28276E-01
 -1     17760 7.52273E-01
 -1     17765 7.28276E-01
 -1     17766 7.28276E-01
 -1     17767 7.52273E-01
 -1     17772 7.28276E-01
 -1     17773 7.28276E-01
 -1     17774 7.52273E-01
 -1     17779 7.28276E-01
 -1     17780 7.28276E-01
 -1     17781 7.52273E-01
 -1     17786 7.28276E-01
 -1     17787 7.28276E-01
 -1     17788 7.52273E-01
 -1     17793 7.28276E-01
 -1     17794 7.28276E-01
 -1     17795 7.52273E-01
 -1     17800 7.28276E-01
 -1     17801 7.28276E-01
 -1     17802 7.52273E-01
 -1     17807 7.28276E-01
 -1     17811 7.28276E-01
 -1     17812 7.28276E-01
 -1     17813 7.52273E-01
 -1     17818 7.28276E-01
 -1     17819 7.28276E-01
 -1     17820 7.52273E-01
 -1     17825 7.28276E-01
 -1     17826 7.28276E-01
 -1     17827 7.52273E-01
 -1     17832 7.28276E-01
 -1     17833 7.28276E-01
 -1     17834 7.52273E-01
 -1     17839 7.28276E-01
 -1     17840 7.28276E-01
 -1     17841 7.52273E-01
 -1     17846 7.28276E-01
 -1     17847 7.28276E-01
 -1     17848 7.52273E-01
 -1     17853 7.28276E-01
 -1     17854 7.28276E-01
 -1     17855 7.52273E-01
 -1     17860 7.28276E-01
 -1     17861 7.28276E-01
 -1     17862 7.52273E-01
 -1     17867 7.28276E-01
 -1     17868 7.28276E-01
 -1     17869 7.52273E-01
 -1     17874 7.28276E-01
 -1     17875 7.28276E-01
 -1     17876 7.52273E-01
 -1     17881 7.28276E-01
 -1     17885 7.28276E-01
 -1     17886 7.28276E-01
 -1     17887 7.52273E-01
 -1     17892 7.28276E-01
 -1     17893 7.28276E-01
 -1     17894 7.52273E-01
 -1     17899 7.28276E-01
 -1     17900 7.28276E-01
 -1     17901 7.52273E-01
 -1     17906 7.28276E-01
 -1     17907 7.28276E-01
 -1     17908 7.52273E-01
 -1     17913 7.28276E-01
 -1     17914 7.28276E-01
 -1     17915 7.52273E-01
 -1     17920 7.28276E-01
 -1     17921 7.28276E-01
 -1     17922 7.52273E-01
 -1     17927 7.28276E-01
 -1     17928 7.28276E-01
 -1     17929 7.52273E-01
 -1     17934 7.28276E-01
 -1     17935 7.28276E-01
 -1     17936 7.52273E-01
 -1     17941 7.28276E-01
 -1     17942 7.28276E-01
 -1     17943 7.52273E-01
 -1     17948 7.28276E-01
 -1     17949 7.28276E-01
 -1     17950 7.52273E-01
 -1     17955 7.28276E-01
 -1     17959 7.28276E-01
 -1     17960 7.28276E-01
 -1     17961 7.52273E-01
 -1     17966 7.28276E-01
 -1     17967 7.28276E-01
 -1     17968 7.52273E-01
 -1     17973 7.28276E-01
 -1     17974 7.28276E-01
 -1     17975 7.52273E-01
 -1     17980 7.28276E-01
 -1     17981 7.28276E-01
 -1     17982 7.52273E-01
 -1     17987 7.28276E-01
 -1     17988 7.28276E-01
 -1     17989 7.52273E-01
 -1     17994 7.28276E-01
 -1     17995 7.28276E-01
 -1     17996 7.52273E-01
 -1     18001 7.28276E-01
 -1     18002 7.28276E-01
 -1     18003 7.52273E-01
 -1     18008 7.28276E-01
 -1     18009 7.28276E-01
 -1     18010 7.52273E-01
 -1     18015 7.28276E-01
 -1     18016 7.28276E-01
 -1     18017 7.52273E-01
 -1     18022 7.28276E-01
 -1     18023 7.28276E-01
 -1     18024 7.52273E-01
 -1     18029 7.28276E-01
 -1     18033 7.28276E-01
 -1     18034 7.28276E-01
 -1     18035 7.52273E-01
 -1     18040 7.28276E-01
 -1     18041 7.28276E-01
 -1     18042 7.52273E-01
 -1     18047 7.28276E-01
 -1     18048 7.28276E-01
 -1     18049 7.52273E-01
 -1     18054 7.28276E-01
 -1     18055 7.28276E-01
 -1     18056 7.52273E-01
 -1     18061 7.28276E-01
 -1     18062 7.28276E-01
 -1     18063 7.52273E-01
 -1     18068 7.28276E-01
 -1     18069 7.28276E-01
 -1     18070 7.52273E-01
 -1     18075 7.28276E-01
 -1     18076 7.28276E-01
 -1     18077 7.52273E-01
 -1     18082 7.28276E-01
 -1     18083 7.28276E-01
 -1     18084 7.52273E-01
 -1     18089 7.28276E-01
 -1     18090 7.28276E-01
 -1     18091 7.52273E-01
 -1     18096 7.28276E-01
 -1     18097 7.28276E-01
 -1     18098 7.52273E-01
 -1     18103 7.28276E-01
 -1     18107 7.28276E-01
 -1     18108 7.28276E-01
 -1     18109 7.52273E-01
 -1     18114 7.28276E-01
 -1     18115 7.28276E-01
 -1     18116 7.52273E-01
 -1     18121 7.28276E-01
 -1     18122 7.28276E-01
 -1     18123 7.52273E-01
 -1     18128 7.28276E-01
 -1     18129 7.28276E-01
 -1     18130 7.52273E-01
 -1     18135 7.28276E-01
 -1     18136 7.28276E-01
 -1     18137 7.52273E-01
 -1     18142 7.28276E-01
 -1     18143 7.28276E-01
 -1     18144 7.52273E-01
 -1     18149 7.28276E-01
 -1     18150 7.28276E-01
 -1     18151 7.52273E-01
 -1     18156 7.28276E-01
 -1     18157 7.28276E-01
 -1     18158 7.52273E-01
 -1     18163 7.28276E-01
 -1     18164 7.28276E-01
 -1     18165 7.52273E-01
 -1     18170 7.28276E-01
 -1     18171 7.28276E-01
 -1     18172 7.52273E-01
 -1     18177 7.28276E-01
 -1     18181 7.28276E-01
 -1     18182 7.28276E-01
 -1     18183 7.52273E-01
 -1     18188 7.28276E-01
 -1     18189 7.28276E-01
 -1     18190 7.52273E-01
 -1     18195 7.28276E-01
 -1     18196 7.28276E-01
 -1     18197 7.52273E-01
 -1     18202 7.28276E-01
 -1     18203 7.28276E-01
 -1     18204 7.52273E-01
 -1     18209 7.28276E-01
 -1     18210 7.28276E-01
 -1     18211 7.52273E-01
 -1     18216 7.28276E-01
 -1     18217 7.28276E-01
 -1     18218 7.52273E-01
 -1     18223 7.28276E-01
 -1     18224 7.28276E-01
 -1     18225 7.52273E-01
 -1     18230 7.28276E-01
 -1     18231 7.28276E-01
 -1     18232 7.52273E-01
 -1     18237 7.28276E-01
 -1     18238 7.28276E-01
 -1     18239 7.52273E-01
 -1     18244 7.28276E-01
 -1     18245 7.28276E-01
 -1     18246 7.52273E-01
 -1     18251 7.28276E-01
 -1     18255 7.28276E-01
 -1     18256 7.28276E-01
 -1     18257 7.52273E-01
 -1     18262 7.28276E-01
 -1     18263 7.28276E-01
 -1     18264 7.52273E-01
 -1     18269 7.28276E-01
 -1     18270 7.28276E-01
 -1     18271 7.52273E-01
 -1     18276 7.28276E-01
 -1     18277 7.28276E-01
 -1     18278 7.52273E-01
 -1     18283 7.28276E-01
 -1     18284 7.28276E-01
 -1     18285 7.52273E-01
 -1     18290 7.28276E-01
 -1     18291 7.28276E-01
 -1     18292 7.52273E-01
 -1     18297 7.28276E-01
 -1     18298 7.28276E-01
 -1     18299 7.52273E-01
 -1     18304 7.28276E-01
 -1     18305 7.28276E-01
 -1     18306 7.52273E-01
 -1     18311 7.28276E-01
 -1     18312 7.28276E-01
 -1     18313 7.52273E-01
 -1     18318 7.28276E-01
 -1     18319 7.28276E-01
 -1     18320 7.52273E-01
 -1     18325 7.28276E-01
 -1     18329 7.28276E-01
 -1     18330 7.28276E-01
 -1     18331 7.52273E-01
 -1     18336 7.28276E-01
 -1     18337 7.28276E-01
 -1     18338 7.52273E-01
 -1     18343 7.28276E-01
 -1     18344 7.28276E-01
 -1     18345 7.52273E-01
 -1     18350 7.28276E-01
 -1     18351 7.28276E-01
 -1     18352 7.52273E-01
 -1     18357 7.28276E-01
 -1     18358 7.28276E-01
 -1     18359 7.52273E-01
 -1     18364 7.28276E-01
 -1     18365 7.28276E-01
 -1     18366 7.52273E-01
 -1     18371 7.28276E-01
 -1     18372 7.28276E-01
 -1     18373 7.52273E-01
 -1     18378 7.28276E-01
 -1     18379 7.28276E-01
 -1     18380 7.52273E-01
 -1     18385 7.28276E-01
 -1     18386 7.28276E-01
 -1     18387 7.52273E-01
 -1     18392 7.28276E-01
 -1     18393 7.28276E-01
 -1     18394 7.52273E-01
 -1     18399 7.28276E-01
 -1     18403 7.28276E-01
 -1     18407 7.28276E-01
 -1     18411 7.28276E-01
 -1     18415 7.28276E-01
 -1     18419 7.28276E-01
 -1     18423 7.28276E-01
 -1     18427 7.28276E-01
 -1     18431 7.28276E-01
 -1     18435 7.28276E-01
 -1     18439 7.28276E-01
 -1     18445 6.84113E-01
 -1     18446 6.84113E-01
 -1     18447 7.06194E-01
 -1     18452 6.84113E-01
 -1     18453 6.84113E-01
 -1     18454 7.06194E-01
 -1     18459 6.84113E-01
 -1     18460 6.84113E-01
 -1     18461 7.06194E-01
 -1     18466 6.84113E-01
 -1     18467 6.84113E-01
 -1     18468 7.06194E-01
 -1     18473 6.84113E-01
 -1     18474 6.84113E-01
 -1     18475 7.06194E-01
 -1     18480 6.84113E-01
 -1     18481 6.84113E-01
 -1     18482 7.06194E-01
 -1     18487 6.84113E-01
 -1     18488 6.84113E-01
 -1     18489 7.06194E-01
 -1     18494 6.84113E-01
 -1     18495 6.84113E-01
 -1     18496 7.06194E-01
 -1     18501 6.84113E-01
 -1     18502 6.84113E-01
 -1     18503 7.06194E-01
 -1     18508 6.84113E-01
 -1     18509 6.84113E-01
 -1     18510 7.06194E-01
 -1     18515 6.84113E-01
 -1     18519 6.84113E-01
 -1     18520 6.84113E-01
 -1     18521 7.06194E-01
 -1     18526 6.84113E-01
 -1     18527 6.84113E-01
 -1     18528 7.06194E-01
 -1     18533 6.84113E-01
 -1     18534 6.84113E-01
 -1     18535 7.06194E-01
 -1     18540 6.84113E-01
 -1     18541 6.84113E-01
 -1     18542 7.06194E-01
 -1     18547 6.84113E-01
 -1     18548 6.84113E-01
 -1     18549 7.06194E-01
 -1     18554 6.84113E-01
 -1     18555 6.84113E-01
 -1     18556 7.06194E-01
 -1     18561 6.84113E-01
 -1     18562 6.84113E-01
 -1     18563 7.06194E-01
 -1     18568 6.84113E-01
 -1     18569 6.84113E-01
 -1     18570 7.06194E-01
 -1     18575 6.84113E-01
 -1     18576 6.84113E-01
 -1     18577 7.06194E-01
 -1     18582 6.84113E-01
 -1     18583 6.84113E-01
 -1     18584 7.06194E-01
 -1     18589 6.84113E-01
 -1     18593 6.84113E-01
 -1     18594 6.84113E-01
 -1     18595 7.06194E-01
 -1     18600 6.84113E-01
 -1     18601 6.84113E-01
 -1     18602 7.06194E-01
 -1     18607 6.84113E-01
 -1     18608 6.84113E-01
 -1     18609 7.06194E-01
 -1     18614 6.84113E-01
 -1     18615 6.84113E-01
 -1     18616 7.06194E-01
 -1     18621 6.84113E-01
 -1     18622 6.84113E-01
 -1     18623 7.06194E-01
 -1     18628 6.84113E-01
 -1     18629 6.84113E-01
 -1     18630 7.06194E-01
 -1     18635 6.84113E-01
 -1     18636 6.84113E-01
 -1     18637 7.06194E-01
 -1     18642 6.84113E-01
 -1     18643 6.84113E-01
 -1     18644 7.06194E-01
 -1     18649 6.84113E-01
 -1     18650 6.84113E-01
 -1     18651 7.06194E-01
 -1     18656 6.84113E-01
 -1     18657 6.84113E-01
 -1     18658 7.06194E-01
 -1     18663 6.84113E-01
 -1     18667 6.84113E-01
 -1     18668 6.84113E-01
 -1     18669 7.06194E-01
 -1     18674 6.84113E-01
 -1     18675 6.84113E-01
 -1     18676 7.06194E-01
 -1     18681 6.84113E-01
 -1     18682 6.84113E-01
 -1     18683 7.06194E-01
 -1     18688 6.84113E-01
 -1     18689 6.84113E-01
 -1     18690 7.06194E-01
 -1     18695 6.84113E-01
 -1     18696 6.84113E-01
 -1     18697 7.06194E-01
 -1     18702 6.84113E-01
 -1     18703 6.84113E-01
 -1     18704 7.06194E-01
 -1     18709 6.84113E-01
 -1     18710 6.84113E-01
 -1     18711 7.06194E-01
 -1     18716 6.84113E-01
 -1     18717 6.84113E-01
 -1     18718 7.06194E-01
 -1     18723 6.84113E-01
 -1     18724 6.84113E-01
 -1     18725 7.06194E-01
 -1     18730 6.84113E-01
 -1     18731 6.84113E-01
 -1     18732 7.06194E-01
 -1     18737 6.84113E-01
 -1     18741 6.84113E-01
 -1     18742 6.84113E-01
 -1     18743 7.06194E-01
 -1     18748 6.84113E-01
 -1     18749 6.84113E-01
 -1     18750 7.06194E-01
 -1     18755 6.84113E-01
 -1     18756 6.84113E-01
 -1     18757 7.06194E-01
 -1     18762 6.84113E-01
 -1     18763 6.84113E-01
 -1     18764 7.06194E-01
 -1     18769 6.84113E-01
 -1     18770 6.84113E-01
 -1     18771 7.06194E-01
 -1     18776 6.84113E-01
 -1     18777 6.84113E-01
 -1     18778 7.06194E-01
 -1     18783 6.84113E-01
 -1     18784 6.84113E-01
 -1     18785 7.06194E-01
 -1     18790 6.84113E-01
 -1     18791 6.84113E-01
 -1     18792 7.06194E-01
 -1     18797 6.84113E-01
 -1     18798 6.84113E-01
 -1     18799 7.06194E-01
 -1     18804 6.84113E-01
 -1     18805 6.84113E-01
 -1     18806 7.06194E-01
 -1     18811 6.84113E-01
 -1     18815 6.84113E-01
 -1     18816 6.84113E-01
 -1     18817 7.06194E-01
 -1     18822 6.84113E-01
 -1     18823 6.84113E-01
 -1     18824 7.06194E-01
 -1     18829 6.84113E-01
 -1     18830 6.84113E-01
 -1     18831 7.06194E-01
 -1     18836 6.84113E-01
 -1     18837 6.84113E-01
 -1     18838 7.06194E-01
 -1     18843 6.84113E-01
 -1     18844 6.84113E-01
 -1     18845 7.06194E-01
 -1     18850 6.84113E-01
 -1     18851 6.84113E-01
 -1     18852 7.06194E-01
 -1     18857 6.84113E-01
 -1     18858 6.84113E-01
 -1     18859 7.06194E-01
 -1     18864 6.84113E-01
 -1     18865 6.84113E-01
 -1     18866 7.06194E-01
 -1     18871 6.84113E-01
 -1     18872 6.84113E-01
 -1     18873 7.06194E-01
 -1     18878 6.84113E-01
 -1     18879 6.84113E-01
 -1     18880 7.06194E-01
 -1     18885 6.84113E-01
 -1     18889 6.84113E-01
 -1     18890 6.84113E-01
 -1     18891 7.06194E-01
 -1     18896 6.84113E-01
 -1     18897 6.84113E-01
 -1     18898 7.06194E-01
 -1     18903 6.84113E-01
 -1     18904 6.84113E-01
 -1     18905 7.06194E-01
 -1     18910 6.84113E-01
 -1     18911 6.84113E-01
 -1     18912 7.06194E-01
 -1     18917 6.84113E-01
 -1     18918 6.84113E-01
 -1     18919 7.06194E-01
 -1     18924 6.84113E-01
 -1     18925 6.84113E-01
 -1     18926 7.06194E-01
 -1     18931 6.84113E-01
 -1     18932 6.84113E-01
 -1     18933 7.06194E-01
 -1     18938 6.84113E-01
 -1     18939 6.84113E-01
 -1     18940 7.06194E-01
 -1     18945 6.84113E-01
 -1     18946 6.84113E-01
 -1     18947 7.06194E-01
 -1     18952 6.84113E-01
 -1     18953 6.84113E-01
 -1     18954 7.06194E-01
 -1     18959 6.84113E-01
 -1     18963 6.84113E-01
 -1     18964 6.84113E-01
 -1     18965 7.06194E-01
 -1     18970 6.84113E-01
 -1     18971 6.84113E-01
 -1     18972 7.06194E-01
 -1     18977 6.84113E-01
 -1     18978 6.84113E-01
 -1     18979 7.06194E-01
 -1     18984 6.84113E-01
 -1     18985 6.84113E-01
 -1     18986 7.06194E-01
 -1     18991 6.84113E-01
 -1     18992 6.84113E-01
 -1     18993 7.06194E-01
 -1     18998 6.84113E-01
 -1     18999 6.84113E-01
 -1     19000 7.06194E-01
 -1     19005 6.84113E-01
 -1     19006 6.84113E-01
 -1     19007 7.06194E-01
 -1     19012 6.84113E-01
 -1     19013 6.84113E-01
 -1     19014 7.06194E-01
 -1     19019 6.84113E-01
 -1     19020 6.84113E-01
 -1     19021 7.06194E-01
 -1     19026 6.84113E-01
 -1     19027 6.84113E-01
 -1     19028 7.06194E-01
 -1     19033 6.84113E-01
 -1     19037 6.84113E-01
 -1     19038 6.84113E-01
 -1     19039 7.06194E-01
 -1     19044 6.84113E-01
 -1     19045 6.84113E-01
 -1     19046 7.06194E-01
 -1     19051 6.84113E-01
 -1     19052 6.84113E-01
 -1     19053 7.06194E-01
 -1     19058 6.84113E-01
 -1     19059 6.84113E-01
 -1     19060 7.06194E-01
 -1     19065 6.84113E-01
 -1     19066 6.84113E-01
 -1     19067 7.06194E-01
 -1     19072 6.84113E-01
 -1     19073 6.84113E-01
 -1     19074 7.06194E-01
 -1     19079 6.84113E-01
 -1     19080 6.84113E-01
 -1     19081 7.06194E-01
 -1     19086 6.84113E-01
 -1     19087 6.84113E-01
 -1     19088 7.06194E-01
 -1     19093 6.84113E-01
 -1     19094 6.84113E-01
 -1     19095 7.06194E-01
 -1     19100 6.84113E-01
 -1     19101 6.84113E-01
 -1     19102 7.06194E-01
 -1     19107 6.84113E-01
 -1     19111 6.84113E-01
 -1     19115 6.84113E-01
 -1     19119 6.84113E-01
 -1     19123 6.84113E-01
 -1     19127 6.84113E-01
 -1     19131 6.84113E-01
 -1     19135 6.84113E-01
 -1     19139 6.84113E-01
 -1     19143 6.84113E-01
 -1     19147 6.84113E-01
 -1     19153 6.43378E-01
 -1     19154 6.43378E-01
 -1     19155 6.63745E-01
 -1     19160 6.43378E-01
 -1     19161 6.43378E-01
 -1     19162 6.63745E-01
 -1     19167 6.43378E-01
 -1     19168 6.43378E-01
 -1     19169 6.63745E-01
 -1     19174 6.43378E-01
 -1     19175 6.43378E-01
 -1     19176 6.63745E-01
 -1     19181 6.43378E-01
 -1     19182 6.43378E-01
 -1     19183 6.63745E-01
 -1     19188 6.43378E-01
 -1     19189 6.43378E-01
 -1     19190 6.63745E-01
 -1     19195 6.43378E-01
 -1     19196 6.43378E-01
 -1     19197 6.63745E-01
 -1     19202 6.43378E-01
 -1     19203 6.43378E-01
 -1     19204 6.63745E-01
 -1     19209 6.43378E-01
 -1     19210 6.43378E-01
 -1     19211 6.63745E-01
 -1     19216 6.43378E-01
 -1     19217 6.43378E-01
 -1     19218 6.63745E-01
 -1     19223 6.43378E-01
 -1     19227 6.43378E-01
 -1     19228 6.43378E-01
 -1     19229 6.63745E-01
 -1     19234 6.43378E-01
 -1     19235 6.43378E-01
 -1     19236 6.63745E-01
 -1     19241 6.43378E-01
 -1     19242 6.43378E-01
 -1     19243 6.63745E-01
 -1     19248 6.43378E-01
 -1     19249 6.43378E-01
 -1     19250 6.63745E-01
 -1     19255 6.43378E-01
 -1     19256 6.43378E-01
 -1     19257 6.63745E-01
 -1     19262 6.43378E-01
 -1     19263 6.43378E-01
 -1     19264 6.63745E-01
 -1     19269 6.43378E-01
 -1     19270 6.43378E-01
 -1     19271 6.63745E-01
 -1     19276 6.43378E-01
 -1     19277 6.43378E-01
 -1     19278 6.63745E-01
 -1     19283 6.43378E-01
 -1     19284 6.43378E-01
 -1     19285 6.63745E-01
 -1     19290 6.43378E-01
 -1     19291 6.43378E-01
 -1     19292 6.63745E-01
 -1     19297 6.43378E-01
 -1     19301 6.43378E-01
 -1     19302 6.43378E-01
 -1     19303 6.63745E-01
 -1     19308 6.43378E-01
 -1     19309 6.43378E-01
 -1     19310 6.63745E-01
 -1     19315 6.43378E-01
 -1     19316 6.43378E-01
 -1     19317 6.63745E-01
 -1     19322 6.43378E-01
 -1     19323 6.43378E-01
 -1     19324 6.63745E-01
 -1     19329 6.43378E-01
 -1     19330 6.43378E-01
 -1     19331 6.63745E-01
 -1     19336 6.43378E-01
 -1     19337 6.43378E-01
 -1     19338 6.63745E-01
 -1     19343 6.43378E-01
 -1     19344 6.43378E-01
 -1     19345 6.63745E-01
 -1     19350 6.43378E-01
 -1     19351 6.43378E-01
 -1     19352 6.63745E-01
 -1     19357 6.43378E-01
 -1     19358 6.43378E-01
 -1     19359 6.63745E-01
 -1     19364 6.43378E-01
 -1     19365 6.43378E-01
 -1     19366 6.63745E-01
 -1     19371 6.43378E-01
 -1     19375 6.43378E-01
 -1     19376 6.43378E-01
 -1     19377 6.63745E-01
 -1     19382 6.43378E-01
 -1     19383 6.43378E-01
 -1     19384 6.63745E-01
 -1     19389 6.43378E-01
 -1     19390 6.43378E-01
 -1     19391 6.63745E-01
 -1     19396 6.43378E-01
 -1     19397 6.43378E-01
 -1     19398 6.63745E-01
 -1     19403 6.43378E-01
 -1     19404 6.43378E-01
 -1     19405 6.63745E-01
 -1     19410 6.43378E-01
 -1     19411 6.43378E-01
 -1     19412 6.63745E-01
 -1     19417 6.43378E-01
 -1     19418 6.43378E-01
 -1     19419 6.63745E-01
 -1     19424 6.43378E-01
 -1     19425 6.43378E-01
 -1     19426 6.63745E-01
 -1     19431 6.43378E-01
 -1     19432 6.43378E-01
 -1     19433 6.63745E-01
 -1     19438 6.43378E-01
 -1     19439 6.43378E-01
 -1     19440 6.63745E-01
 -1     19445 6.43378E-01
 -1     19449 6.43378E-01
 -1     19450 6.43378E-01
 -1     19451 6.63745E-01
 -1     19456 6.43378E-01
 -1     19457 6.43378E-01
 -1     19458 6.63745E-01
 -1     19463 6.43378E-01
 -1     19464 6.43378E-01
 -1     19465 6.63745E-01
 -1     19470 6.43378E-01
 -1     19471 6.43378E-01
 -1     19472 6.63745E-01
 -1     19477 6.43378E-01
 -1     19478 6.43378E-01
 -1     19479 6.63745E-01
 -1     19484 6.43378E-01
 -1     19485 6.43378E-01
 -1     19486 6.63745E-01
 -1     19491 6.43378E-01
 -1     19492 6.43378E-01
 -1     19493 6.63745E-01
 -1     19498 6.43378E-01
 -1     19499 6.43378E-01
 -1     19500 6.63745E-01
 -1     19505 6.43378E-01
 -1     19506 6.43378E-01
 -1     19507 6.63745E-01
 -1     19512 6.43378E-01
 -1     19513 6.43378E-01
 -1     19514 6.63745E-01
 -1     19519 6.43378E-01
 -1     19523 6.43378E-01
 -1     19524 6.43378E-01
 -1     19525 6.63745E-01
 -1     19530 6.43378E-01
 -1     19531 6.43378E-01
 -1     19532 6.63745E-01
 -1     19537 6.43378E-01
 -1     19538 6.43378E-01
 -1     19539 6.63745E-01
 -1     19544 6.43378E-01
 -1     19545 6.43378E-01
 -1     19546 6.63745E-01
 -1     19551 6.43378E-01
 -1     19552 6.43378E-01
 -1     19553 6.63745E-01
 -1     19558 6.43378E-01
 -1     19559 6.43378E-01
 -1     19560 6.63745E-01
 -1     19565 6.43378E-01
 -1     19566 6.43378E-01
 -1     19567 6.63745E-01
 -1     19572 6.43378E-01
 -1     19573 6.43378E-01
 -1     19574 6.63745E-01
 -1     19579 6.43378E-01
 -1     19580 6.43378E-01
 -1     19581 6.63745E-01
 -1     19586 6.43378E-01
 -1     19587 6.43378E-01
 -1     19588 6.63745E-01
 -1     19593 6.43378E-01
 -1     19597 6.43378E-01
 -1     19598 6.43378E-01
 -1     19599 6.63745E-01
 -1     19604 6.43378E-01
 -1     19605 6.43378E-01
 -1     19606 6.63745E-01
 -1     19611 6.43378E-01
 -1     19612 6.43378E-01
 -1     19613 6.63745E-01
 -1     19618 6.43378E-01
 -1     19619 6.43378E-01
 -1     19620 6.63745E-01
 -1     19625 6.43378E-01
 -1     19626 6.43378E-01
 -1     19627 6.63745E-01
 -1     19632 6.43378E-01
 -1     19633 6.43378E-01
 -1     19634 6.63745E-01
 -1     19639 6.43378E-01
 -1     19640 6.43378E-01
 -1     19641 6.63745E-01
 -1     19646 6.43378E-01
 -1     19647 6.43378E-01
 -1     19648 6.63745E-01
 -1     19653 6.43378E-01
 -1     19654 6.43378E-01
 -1     19655 6.63745E-01
 -1     19660 6.43378E-01
 -1     19661 6.43378E-01
 -1     19662 6.63745E-01
 -1     19667 6.43378E-01
 -1     19671 6.43378E-01
 -1     19672 6.43378E-01
 -1     19673 6.63745E-01
 -1     19678 6.43378E-01
 -1     19679 6.43378E-01
 -1     19680 6.63745E-01
 -1     19685 6.43378E-01
 -1     19686 6.43378E-01
 -1     19687 6.63745E-01
 -1     19692 6.43378E-01
 -1     19693 6.43378E-01
 -1     19694 6.63745E-01
 -1     19699 6.43378E-01
 -1     19700 6.43378E-01
 -1     19701 6.63745E-01
 -1     19706 6.43378E-01
 -1     19707 6.43378E-01
 -1     19708 6.63745E-01
 -1     19713 6.43378E-01
 -1     19714 6.43378E-01
 -1     19715 6.63745E-01
 -1     19720 6.43378E-01
 -1     19721 6.43378E-01
 -1     19722 6.63745E-01
 -1     19727 6.43378E-01
 -1     19728 6.43378E-01
 -1     19729 6.63745E-01
 -1     19734 6.43378E-01
 -1     19735 6.43378E-01
 -1     19736 6.63745E-01
 -1     19741 6.43378E-01
 -1     19745 6.43378E-01
 -1     19746 6.43378E-01
 -1     19747 6.63745E-01
 -1     19752 6.43378E-01
 -1     19753 6.43378E-01
 -1     19754 6.63745E-01
 -1     19759 6.43378E-01
 -1     19760 6.43378E-01
 -1     19761 6.63745E-01
 -1     19766 6.43378E-01
 -1     19767 6.43378E-01
 -1     19768 6.63745E-01
 -1     19773 6.43378E-01
 -1     19774 6.43378E-01
 -1     19775 6.63745E-01
 -1     19780 6.43378E-01
 -1     19781 6.43378E-01
 -1     19782 6.63745E-01
 -1     19787 6.43378E-01
 -1     19788 6.43378E-01
 -1     19789 6.63745E-01
 -1     19794 6.43378E-01
 -1     19795 6.43378E-01
 -1     19796 6.63745E-01
 -1     19801 6.43378E-01
 -1     19802 6.43378E-01
 -1     19803 6.63745E-01
 -1     19808 6.43378E-01
 -1     19809 6.43378E-01
 -1     19810 6.63745E-01
 -1     19815 6.43378E-01
 -1     19819 6.43378E-01
 -1     19823 6.43378E-01
 -1     19827 6.43378E-01
 -1     19831 6.43378E-01
 -1     19835 6.43378E-01
 -1     19839 6.43378E-01
 -1     19843 6.43378E-01
 -1     19847 6.43378E-01
 -1     19851 6.43378E-01
 -1     19855 6.43378E-01
 -1     19861 6.05725E-01
 -1     19862 6.05725E-01
 -1     19863 6.24551E-01
 -1     19868 6.05725E-01
 -1     19869 6.05725E-01
 -1     19870 6.24551E-01
 -1     19875 6.05725E-01
 -1     19876 6.05725E-01
 -1     19877 6.24551E-01
 -1     19882 6.05725E-01
 -1     19883 6.05725E-01
 -1     19884 6.24551E-01
 -1     19889 6.05725E-01
 -1     19890 6.05725E-01
 -1     19891 6.24551E-01
 -1     19896 6.05725E-01
 -1     19897 6.05725E-01
 -1     19898 6.24551E-01
 -1     19903 6.05725E-01
 -1     19904 6.05725E-01
 -1     19905 6.24551E-01
 -1     19910 6.05725E-01
 -1     19911 6.05725E-01
 -1     19912 6.24551E-01
 -1     19917 6.05725E-01
 -1     19918 6.05725E-01
 -1     19919 6.24551E-01
 -1     19924 6.05725E-01
 -1     19925 6.05725E-01
 -1     19926 6.24551E-01
 -1     19931 6.05725E-01
 -1     19935 6.05725E-01
 -1     19936 6.05725E-01
 -1     19937 6.24551E-01
 -1     19942 6.05725E-01
 -1     19943 6.05725E-01
 -1     19944 6.24551E-01
 -1     19949 6.05725E-01
 -1     19950 6.05725E-01
 -1     19951 6.24551E-01
 -1     19956 6.05725E-01
 -1     19957 6.05725E-01
 -1     19958 6.24551E-01
 -1     19963 6.05725E-01
 -1     19964 6.05725E-01
 -1     19965 6.24551E-01
 -1     19970 6.05725E-01
 -1     19971 6.05725E-01
 -1     19972 6.24551E-01
 -1     19977 6.05725E-01
 -1     19978 6.05725E-01
 -1     19979 6.24551E-01
 -1     19984 6.05725E-01
 -1     19985 6.05725E-01
 -1     19986 6.24551E-01
 -1     19991 6.05725E-01
 -1     19992 6.05725E-01
 -1     19993 6.24551E-01
 -1     19998 6.05725E-01
 -1     19999 6.05725E-01
 -1     20000 6.24551E-01
 -1     20005 6.05725E-01
 -1     20009 6.05725E-01
 -1     20010 6.05725E-01
 -1     20011 6.24551E-01
 -1     20016 6.05725E-01
 -1     20017 6.05725E-01
 -1     20018 6.24551E-01
 -1     20023 6.05725E-01
 -1     20024 6.05725E-01
 -1     20025 6.24551E-01
 -1     20030 6.05725E-01
 -1     20031 6.05725E-01
 -1     20032 6.24551E-01
 -1     20037 6.05725E-01
 -1     20038 6.05725E-01
 -1     20039 6.24551E-01
 -1     20044 6.05725E-01
 -1     20045 6.05725E-01
 -1     20046 6.24551E-01
 -1     20051 6.05725E-01
 -1     20052 6.05725E-01
 -1     20053 6.24551E-01
 -1     20058 6.05725E-01
 -1     20059 6.05725E-01
 -1     20060 6.24551E-01
 -1     20065 6.05725E-01
 -1     20066 6.05725E-01
 -1     20067 6.24551E-01
 -1     20072 6.05725E-01
 -1     20073 6.05725E-01
 -1     20074 6.24551E-01
 -1     20079 6.05725E-01
 -1     20083 6.05725E-01
 -1     20084 6.05725E-01
 -1     20085 6.24551E-01
 -1     20090 6.05725E-01
 -1     20091 6.05725E-01
 -1     20092 6.24551E-01
 -1     20097 6.05725E-01
 -1     20098 6.05725E-01
 -1     20099 6.24551E-01
 -1     20104 6.05725E-01
 -1     20105 6.05725E-01
 -1     20106 6.24551E-01
 -1     20111 6.05725E-01
 -1     20112 6.05725E-01
 -1     20113 6.24551E-01
 -1     20118 6.05725E-01
 -1     20119 6.05725E-01
 -1     20120 6.24551E-01
 -1     20125 6.05725E-01
 -1     20126 6.05725E-01
 -1     20127 6.24551E-01
 -1     20132 6.05725E-01
 -1     20133 6.05725E-01
 -1     20134 6.24551E-01
 -1     20139 6.05725E-01
 -1     20140 6.05725E-01
 -1     20141 6.24551E-01
 -1     20146 6.05725E-01
 -1     20147 6.05725E-01
 -1     20148 6.24551E-01
 -1     20153 6.05725E-01
 -1     20157 6.05725E-01
 -1     20158 6.05725E-01
 -1     20159 6.24551E-01
 -1     20164 6.05725E-01
 -1     20165 6.05725E-01
 -1     20166 6.24551E-01
 -1     20171 6.05725E-01
 -1     20172 6.05725E-01
 -1     20173 6.24551E-01
 -1     20178 6.05725E-01
 -1     20179 6.05725E-01
 -1     20180 6.24551E-01
 -1     20185 6.05725E-01
 -1     20186 6.05725E-01
 -1     20187 6.24551E-01
 -1     20192 6.05725E-01
 -1     20193 6.05725E-01
 -1     20194 6.24551E-01
 -1     20199 6.05725E-01
 -1     20200 6.05725E-01
 -1     20201 6.24551E-01
 -1     20206 6.05725E-01
 -1     20207 6.05725E-01
 -1     20208 6.24551E-01
 -1     20213 6.05725E-01
 -1     20214 6.05725E-01
 -1     20215 6.24551E-01
 -1     20220 6.05725E-01
 -1     20221 6.05725E-01
 -1     20222 6.24551E-01
 -1     20227 6.05725E-01
 -1     20231 6.05725E-01
 -1     20232 6.05725E-01
 -1     20233 6.24551E-01
 -1     20238 6.05725E-01
 -1     20239 6.05725E-01
 -1     20240 6.24551E-01
 -1     20245 6.05725E-01
 -1     20246 6.05725E-01
 -1     20247 6.24551E-01
 -1     20252 6.05725E-01
 -1     20253 6.05725E-01
 -1     20254 6.24551E-01
 -1     20259 6.05725E-01
 -1     20260 6.05725E-01
 -1     20261 6.24551E-01
 -1     20266 6.05725E-01
 -1     20267 6.05725E-01
 -1     20268 6.24551E-01
 -1     20273 6.05725E-01
 -1     20274 6.05725E-01
 -1     20275 6.24551E-01
 -1     20280 6.05725E-01
 -1     20281 6.05725E-01
 -1     20282 6.24551E-01
 -1     20287 6.05725E-01
 -1     20288 6.05725E-01
 -1     20289 6.24551E-01
 -1     20294 6.05725E-01
 -1     20295 6.05725E-01
 -1     20296 6.24551E-01
 -1     20301 6.05725E-01
 -1     20305 6.05725E-01
 -1     20306 6.05725E-01
 -1     20307 6.24551E-01
 -1     20312 6.05725E-01
 -1     20313 6.05725E-01
 -1     20314 6.24551E-01
 -1     20319 6.05725E-01
 -1     20320 6.05725E-01
 -1     20321 6.24551E-01
 -1     20326 6.05725E-01
 -1     20327 6.05725E-01
 -1     20328 6.24551E-01
 -1     20333 6.05725E-01
 -1     20334 6.05725E-01
 -1     20335 6.24551E-01
 -1     20340 6.05725E-01
 -1     20341 6.05725E-01
 -1     20342 6.24551E-01
 -1     20347 6.05725E-01
 -1     20348 6.05725E-01
 -1     20349 6.24551E-01
 -1     20354 6.05725E-01
 -1     20355 6.05725E-01
 -1     20356 6.24551E-01
 -1     20361 6.05725E-01
 -1     20362 6.05725E-01
 -1     20363 6.24551E-01
 -1     20368 6.05725E-01
 -1     20369 6.05725E-01
 -1     20370 6.24551E-01
 -1     20375 6.05725E-01
 -1     20379 6.05725E-01
 -1     20380 6.05725E-01
 -1     20381 6.24551E-01
 -1     20386 6.05725E-01
 -1     20387 6.05725E-01
 -1     20388 6.24551E-01
 -1     20393 6.05725E-01
 -1     20394 6.05725E-01
 -1     20395 6.24551E-01
 -1     20400 6.05725E-01
 -1     20401 6.05725E-01
 -1     20402 6.24551E-01
 -1     20407 6.05725E-01
 -1     20408 6.05725E-01
 -1     20409 6.24551E-01
 -1     20414 6.05725E-01
 -1     20415 6.05725E-01
 -1     20416 6.24551E-01
 -1     20421 6.05725E-01
 -1     20422 6.05725E-01
 -1     20423 6.24551E-01
 -1     20428 6.05725E-01
 -1     20429 6.05725E-01
 -1     20430 6.24551E-01
 -1     20435 6.05725E-01
 -1     20436 6.05725E-01
 -1     20437 6.24551E-01
 -1     20442 6.05725E-01
 -1     20443 6.05725E-01
 -1     20444 6.24551E-01
 -1     20449 6.05725E-01
 -1     20453 6.05725E-01
 -1     20454 6.05725E-01
 -1     20455 6.24551E-01
 -1     20460 6.05725E-01
 -1     20461 6.05725E-01
 -1     20462 6.24551E-01
 -1     20467 6.05725E-01
 -1     20468 6.05725E-01
 -1     20469 6.24551E-01
 -1     20474 6.05725E-01
 -1     20475 6.05725E-01
 -1     20476 6.24551E-01
 -1     20481 6.05725E-01
 -1     20482 6.05725E-01
 -1     20483 6.24551E-01
 -1     20488 6.05725E-01
 -1     20489 6.05725E-01
 -1     20490 6.24551E-01
 -1     20495 6.05725E-01
 -1     20496 6.05725E-01
 -1     20497 6.24551E-01
 -1     20502 6.05725E-01
 -1     20503 6.05725E-01
 -1     20504 6.24551E-01
 -1     20509 6.05725E-01
 -1     20510 6.05725E-01
 -1     20511 6.24551E-01
 -1     20516 6.05725E-01
 -1     20517 6.05725E-01
 -1     20518 6.24551E-01
 -1     20523 6.05725E-01
 -1     20527 6.05725E-01
 -1     20531 6.05725E-01
 -1     20535 6.05725E-01
 -1     20539 6.05725E-01
 -1     20543 6.05725E-01
 -1     20547 6.05725E-01
 -1     20551 6.05725E-01
 -1     20555 6.05725E-01
 -1     20559 6.05725E-01
 -1     20563 6.05725E-01
 -1     20569 5.70855E-01
 -1     20570 5.70855E-01
 -1     20571 5.88290E-01
 -1     20576 5.70855E-01
 -1     20577 5.70855E-01
 -1     20578 5.88290E-01
 -1     20583 5.70855E-01
 -1     20584 5.70855E-01
 -1     20585 5.88290E-01
 -1     20590 5.70855E-01
 -1     20591 5.70855E-01
 -1     20592 5.88290E-01
 -1     20597 5.70855E-01
 -1     20598 5.70855E-01
 -1     20599 5.88290E-01
 -1     20604 5.70855E-01
 -1     20605 5.70855E-01
 -1     20606 5.88290E-01
 -1     20611 5.70855E-01
 -1     20612 5.70855E-01
 -1     20613 5.88290E-01
 -1     20618 5.70855E-01
 -1     20619 5.70855E-01
 -1     20620 5.88290E-01
 -1     20625 5.70855E-01
 -1     20626 5.70855E-01
 -1     20627 5.88290E-01
 -1     20632 5.70855E-01
 -1     20633 5.70855E-01
 -1     20634 5.88290E-01
 -1     20639 5.70855E-01
 -1     20643 5.70855E-01
 -1     20644 5.70855E-01
 -1     20645 5.88290E-01
 -1     20650 5.70855E-01
 -1     20651 5.70855E-01
 -1     20652 5.88290E-01
 -1     20657 5.70855E-01
 -1     20658 5.70855E-01
 -1     20659 5.88290E-01
 -1     20664 5.70855E-01
 -1     20665 5.70855E-01
 -1     20666 5.88290E-01
 -1     20671 5.70855E-01
 -1     20672 5.70855E-01
 -1     20673 5.88290E-01
 -1     20678 5.70855E-01
 -1     20679 5.70855E-01
 -1     20680 5.88290E-01
 -1     20685 5.70855E-01
 -1     20686 5.70855E-01
 -1     20687 5.88290E-01
 -1     20692 5.70855E-01
 -1     20693 5.70855E-01
 -1     20694 5.88290E-01
 -1     20699 5.70855E-01
 -1     20700 5.70855E-01
 -1     20701 5.88290E-01
 -1     20706 5.70855E-01
 -1     20707 5.70855E-01
 -1     20708 5.88290E-01
 -1     20713 5.70855E-01
 -1     20717 5.70855E-01
 -1     20718 5.70855E-01
 -1     20719 5.88290E-01
 -1     20724 5.70855E-01
 -1     20725 5.70855E-01
 -1     20726 5.88290E-01
 -1     20731 5.70855E-01
 -1     20732 5.70855E-01
 -1     20733 5.88290E-01
 -1     20738 5.70855E-01
 -1     20739 5.70855E-01
 -1     20740 5.88290E-01
 -1     20745 5.70855E-01
 -1     20746 5.70855E-01
 -1     20747 5.88290E-01
 -1     20752 5.70855E-01
 -1     20753 5.70855E-01
 -1     20754 5.88290E-01
 -1     20759 5.70855E-01
 -1     20760 5.70855E-01
 -1     20761 5.88290E-01
 -1     20766 5.70855E-01
 -1     20767 5.70855E-01
 -1     20768 5.88290E-01
 -1     20773 5.70855E-01
 -1     20774 5.70855E-01
 -1     20775 5.88290E-01
 -1     20780 5.70855E-01
 -1     20781 5.70855E-01
 -1     20782 5.88290E-01
 -1     20787 5.70855E-01
 -1     20791 5.70855E-01
 -1     20792 5.70855E-01
 -1     20793 5.88290E-01
 -1     20798 5.70855E-01
 -1     20799 5.70855E-01
 -1     20800 5.88290E-01
 -1     20805 5.70855E-01
 -1     20806 5.70855E-01
 -1     20807 5.88290E-01
 -1     20812 5.70855E-01
 -1     20813 5.70855E-01
 -1     20814 5.88290E-01
 -1     20819 5.70855E-01
 -1     20820 5.70855E-01
 -1     20821 5.88290E-01
 -1     20826 5.70855E-01
 -1     20827 5.70855E-01
 -1     20828 5.88290E-01
 -1     20833 5.70855E-01
 -1     20834 5.70855E-01
 -1     20835 5.88290E-01
 -1     20840 5.70855E-01
 -1     20841 5.70855E-01
 -1     20842 5.88290E-01
 -1     20847 5.70855E-01
 -1     20848 5.70855E-01
 -1     20849 5.88290E-01
 -1     20854 5.70855E-01
 -1     20855 5.70855E-01
 -1     20856 5.88290E-01
 -1     20861 5.70855E-01
 -1     20865 5.70855E-01
 -1     20866 5.70855E-01
 -1     20867 5.88290E-01
 -1     20872 5.70855E-01
 -1     20873 5.70855E-01
 -1     20874 5.88290E-01
 -1     20879 5.70855E-01
 -1     20880 5.70855E-01
 -1     20881 5.88290E-01
 -1     20886 5.70855E-01
 -1     20887 5.70855E-01
 -1     20888 5.88290E-01
 -1     20893 5.70855E-01
 -1     20894 5.70855E-01
 -1     20895 5.88290E-01
 -1     20900 5.70855E-01
 -1     20901 5.70855E-01
 -1     20902 5.88290E-01
 -1     20907 5.70855E-01
 -1     20908 5.70855E-01
 -1     20909 5.88290E-01
 -1     20914 5.70855E-01
 -1     20915 5.70855E-01
 -1     20916 5.88290E-01
 -1     20921 5.70855E-01
 -1     20922 5.70855E-01
 -1     20923 5.88290E-01
 -1     20928 5.70855E-01
 -1     20929 5.70855E-01
 -1     20930 5.88290E-01
 -1     20935 5.70855E-01
 -1     20939 5.70855E-01
 -1     20940 5.70855E-01
 -1     20941 5.88290E-01
 -1     20946 5.70855E-01
 -1     20947 5.70855E-01
 -1     20948 5.88290E-01
 -1     20953 5.70855E-01
 -1     20954 5.70855E-01
 -1     20955 5.88290E-01
 -1     20960 5.70855E-01
 -1     20961 5.70855E-01
 -1     20962 5.88290E-01
 -1     20967 5.70855E-01
 -1     20968 5.70855E-01
 -1     20969 5.88290E-01
 -1     20974 5.70855E-01
 -1     20975 5.70855E-01
 -1     20976 5.88290E-01
 -1     20981 5.70855E-01
 -1     20982 5.70855E-01
 -1     20983 5.88290E-01
 -1     20988 5.70855E-01
 -1     20989 5.70855E-01
 -1     20990 5.88290E-01
 -1     20995 5.70855E-01
 -1     20996 5.70855E-01
 -1     20997 5.88290E-01
 -1     21002 5.70855E-01
 -1     21003 5.70855E-01
 -1     21004 5.88290E-01
 -1     21009 5.70855E-01
 -1     21013 5.70855E-01
 -1     21014 5.70855E-01
 -1     21015 5.88290E-01
 -1     21020 5.70855E-01
 -1     21021 5.70855E-01
 -1     21022 5.88290E-01
 -1     21027 5.70855E-01
 -1     21028 5.70855E-01
 -1     21029 5.88290E-01
 -1     21034 5.70855E-01
 -1     21035 5.70855E-01
 -1     21036 5.88290E-01
 -1     21041 5.70855E-01
 -1     21042 5.70855E-01
 -1     21043 5.88290E-01
 -1     21048 5.70855E-01
 -1     21049 5.70855E-01
 -1     21050 5.88290E-01
 -1     21055 5.70855E-01
 -1     21056 5.70855E-01
 -1     21057 5.88290E-01
 -1     21062 5.70855E-01
 -1     21063 5.70855E-01
 -1     21064 5.88290E-01
 -1     21069 5.70855E-01
 -1     21070 5.70855E-01
 -1     21071 5.88290E-01
 -1     21076 5.70855E-01
 -1     21077 5.70855E-01
 -1     21078 5.88290E-01
 -1     21083 5.70855E-01
 -1     21087 5.70855E-01
 -1     21088 5.70855E-01
 -1     21089 5.88290E-01
 -1     21094 5.70855E-01
 -1     21095 5.70855E-01
 -1     21096 5.88290E-01
 -1     21101 5.70855E-01
 -1     21102 5.70855E-01
 -1     21103 5.88290E-01
 -1     21108 5.70855E-01
 -1     21109 5.70855E-01
 -1     21110 5.88290E-01
 -1     21115 5.70855E-01
 -1     21116 5.70855E-01
 -1     21117 5.88290E-01
 -1     21122 5.70855E-01
 -1     21123 5.70855E-01
 -1     21124 5.88290E-01
 -1     21129 5.70855E-01
 -1     21130 5.70855E-01
 -1     21131 5.88290E-01
 -1     21136 5.70855E-01
 -1     21137 5.70855E-01
 -1     21138 5.88290E-01
 -1     21143 5.70855E-01
 -1     21144 5.70855E-01
 -1     21145 5.88290E-01
 -1     21150 5.70855E-01
 -1     21151 5.70855E-01
 -1     21152 5.88290E-01
 -1     21157 5.70855E-01
 -1     21161 5.70855E-01
 -1     21162 5.70855E-01
 -1     21163 5.88290E-01
 -1     21168 5.70855E-01
 -1     21169 5.70855E-01
 -1     21170 5.88290E-01
 -1     21175 5.70855E-01
 -1     21176 5.70855E-01
 -1     21177 5.88290E-01
 -1     21182 5.70855E-01
 -1     21183 5.70855E-01
 -1     21184 5.88290E-01
 -1     21189 5.70855E-01
 -1     21190 5.70855E-01
 -1     21191 5.88290E-01
 -1     21196 5.70855E-01
 -1     21197 5.70855E-01
 -1     21198 5.88290E-01
 -1     21203 5.70855E-01
 -1     21204 5.70855E-01
 -1     21205 5.88290E-01
 -1     21210 5.70855E-01
 -1     21211 5.70855E-01
 -1     21212 5.88290E-01
 -1     21217 5.70855E-01
 -1     21218 5.70855E-01
 -1     21219 5.88290E-01
 -1     21224 5.70855E-01
 -1     21225 5.70855E-01
 -1     21226 5.88290E-01
 -1     21231 5.70855E-01
 -1     21235 5.70855E-01
 -1     21239 5.70855E-01
 -1     21243 5.70855E-01
 -1     21247 5.70855E-01
 -1     21251 5.70855E-01
 -1     21255 5.70855E-01
 -1     21259 5.70855E-01
 -1     21263 5.70855E-01
 -1     21267 5.70855E-01
 -1     21271 5.70855E-01
 -1     21277 5.38507E-01
 -1     21278 5.38507E-01
 -1     21279 5.54681E-01
 -1     21284 5.38507E-01
 -1     21285 5.38507E-01
 -1     21286 5.54681E-01
 -1     21291 5.38507E-01
 -1     21292 5.38507E-01
 -1     21293 5.54681E-01
 -1     21298 5.38507E-01
 -1     21299 5.38507E-01
 -1     21300 5.54681E-01
 -1     21305 5.38507E-01
 -1     21306 5.38507E-01
 -1     21307 5.54681E-01
 -1     21312 5.38507E-01
 -1     21313 5.38507E-01
 -1     21314 5.54681E-01
 -1     21319 5.38507E-01
 -1     21320 5.38507E-01
 -1     21321 5.54681E-01
 -1     21326 5.38507E-01
 -1     21327 5.38507E-01
 -1     21328 5.54681E-01
 -1     21333 5.38507E-01
 -1     21334 5.38507E-01
 -1     21335 5.54681E-01
 -1     21340 5.38507E-01
 -1     21341 5.38507E-01
 -1     21342 5.54681E-01
 -1     21347 5.38507E-01
 -1     21351 5.38507E-01
 -1     21352 5.38507E-01
 -1     21353 5.54681E-01
 -1     21358 5.38507E-01
 -1     21359 5.38507E-01
 -1     21360 5.54681E-01
 -1     21365 5.38507E-01
 -1     21366 5.38507E-01
 -1     21367 5.54681E-01
 -1     21372 5.38507E-01
 -1     21373 5.38507E-01
 -1     21374 5.54681E-01
 -1     21379 5.38507E-01
 -1     21380 5.38507E-01
 -1     21381 5.54681E-01
 -1     21386 5.38507E-01
 -1     21387 5.38507E-01
 -1     21388 5.54681E-01
 -1     21393 5.38507E-01
 -1     21394 5.38507E-01
 -1     21395 5.54681E-01
 -1     21400 5.38507E-01
 -1     21401 5.38507E-01
 -1     21402 5.54681E-01
 -1     21407 5.38507E-01
 -1     21408 5.38507E-01
 -1     21409 5.54681E-01
 -1     21414 5.38507E-01
 -1     21415 5.38507E-01
 -1     21416 5.54681E-01
 -1     21421 5.38507E-01
 -1     21425 5.38507E-01
 -1     21426 5.38507E-01
 -1     21427 5.54681E-01
 -1     21432 5.38507E-01
 -1     21433 5.38507E-01
 -1     21434 5.54681E-01
 -1     21439 5.38507E-01
 -1     21440 5.38507E-01
 -1     21441 5.54681E-01
 -1     21446 5.38507E-01
 -1     21447 5.38507E-01
 -1     21448 5.54681E-01
 -1     21453 5.38507E-01
 -1     21454 5.38507E-01
 -1     21455 5.54681E-01
 -1     21460 5.38507E-01
 -1     21461 5.38507E-01
 -1     21462 5.54681E-01
 -1     21467 5.38507E-01
 -1     21468 5.38507E-01
 -1     21469 5.54681E-01
 -1     21474 5.38507E-01
 -1     21475 5.38507E-01
 -1     21476 5.54681E-01
 -1     21481 5.38507E-01
 -1     21482 5.38507E-01
 -1     21483 5.54681E-01
 -1     21488 5.38507E-01
 -1     21489 5.38507E-01
 -1     21490 5.54681E-01
 -1     21495 5.38507E-01
 -1     21499 5.38507E-01
 -1     21500 5.38507E-01
 -1     21501 5.54681E-01
 -1     21506 5.38507E-01
 -1     21507 5.38507E-01
 -1     21508 5.54681E-01
 -1     21513 5.38507E-01
 -1     21514 5.38507E-01
 -1     21515 5.54681E-01
 -1     21520 5.38507E-01
 -1     21521 5.38507E-01
 -1     21522 5.54681E-01
 -1     21527 5.38507E-01
 -1     21528 5.38507E-01
 -1     21529 5.54681E-01
 -1     21534 5.38507E-01
 -1     21535 5.38507E-01
 -1     21536 5.54681E-01
 -1     21541 5.38507E-01
 -1     21542 5.38507E-01
 -1     21543 5.54681E-01
 -1     21548 5.38507E-01
 -1     21549 5.38507E-01
 -1     21550 5.54681E-01
 -1     21555 5.38507E-01
 -1     21556 5.38507E-01
 -1     21557 5.54681E-01
 -1     21562 5.38507E-01
 -1     21563 5.38507E-01
 -1     21564 5.54681E-01
 -1     21569 5.38507E-01
 -1     21573 5.38507E-01
 -1     21574 5.38507E-01
 -1     21575 5.54681E-01
 -1     21580 5.38507E-01
 -1     21581 5.38507E-01
 -1     21582 5.54681E-01
 -1     21587 5.38507E-01
 -1     21588 5.38507E-01
 -1     21589 5.54681E-01
 -1     21594 5.38507E-01
 -1     21595 5.38507E-01
 -1     21596 5.54681E-01
 -1     21601 5.38507E-01
 -1     21602 5.38507E-01
 -1     21603 5.54681E-01
 -1     21608 5.38507E-01
 -1     21609 5.38507E-01
 -1     21610 5.54681E-01
 -1     21615 5.38507E-01
 -1     21616 5.38507E-01
 -1     21617 5.54681E-01
 -1     21622 5.38507E-01
 -1     21623 5.38507E-01
 -1     21624 5.54681E-01
 -1     21629 5.38507E-01
 -1     21630 5.38507E-01
 -1     21631 5.54681E-01
 -1     21636 5.38507E-01
 -1     21637 5.38507E-01
 -1     21638 5.54681E-01
 -1     21643 5.38507E-01
 -1     21647 5.38507E-01
 -1     21648 5.38507E-01
 -1     21649 5.54681E-01
 -1     21654 5.38507E-01
 -1     21655 5.38507E-01
 -1     21656 5.54681E-01
 -1     21661 5.38507E-01
 -1     21662 5.38507E-01
 -1     21663 5.54681E-01
 -1     21668 5.38507E-01
 -1     21669 5.38507E-01
 -1     21670 5.54681E-01
 -1     21675 5.38507E-01
 -1     21676 5.38507E-01
 -1     21677 5.54681E-01
 -1     21682 5.38507E-01
 -1     21683 5.38507E-01
 -1     21684 5.54681E-01
 -1     21689 5.38507E-01
 -1     21690 5.38507E-01
 -1     21691 5.54681E-01
 -1     21696 5.38507E-01
 -1     21697 5.38507E-01
 -1     21698 5.54681E-01
 -1     21703 5.38507E-01
 -1     21704 5.38507E-01
 -1     21705 5.54681E-01
 -1     21710 5.38507E-01
 -1     21711 5.38507E-01
 -1     21712 5.54681E-01
 -1     21717 5.38507E-01
 -1     21721 5.38507E-01
 -1     21722 5.38507E-01
 -1     21723 5.54681E-01
 -1     21728 5.38507E-01
 -1     21729 5.38507E-01
 -1     21730 5.54681E-01
 -1     21735 5.38507E-01
 -1     21736 5.38507E-01
 -1     21737 5.54681E-01
 -1     21742 5.38507E-01
 -1     21743 5.38507E-01
 -1     21744 5.54681E-01
 -1     21749 5.38507E-01
 -1     21750 5.38507E-01
 -1     21751 5.54681E-01
 -1     21756 5.38507E-01
 -1     21757 5.38507E-01
 -1     21758 5.54681E-01
 -1     21763 5.38507E-01
 -1     21764 5.38507E-01
 -1     21765 5.54681E-01
 -1     21770 5.38507E-01
 -1     21771 5.38507E-01
 -1     21772 5.54681E-01
 -1     21777 5.38507E-01
 -1     21778 5.38507E-01
 -1     21779 5.54681E-01
 -1     21784 5.38507E-01
 -1     21785 5.38507E-01
 -1     21786 5.54681E-01
 -1     21791 5.38507E-01
 -1     21795 5.38507E-01
 -1     21796 5.38507E-01
 -1     21797 5.54681E-01
 -1     21802 5.38507E-01
 -1     21803 5.38507E-01
 -1     21804 5.54681E-01
 -1     21809 5.38507E-01
 -1     21810 5.38507E-01
 -1     21811 5.54681E-01
 -1     21816 5.38507E-01
 -1     21817 5.38507E-01
 -1     21818 5.54681E-01
 -1     21823 5.38507E-01
 -1     21824 5.38507E-01
 -1     21825 5.54681E-01
 -1     21830 5.38507E-01
 -1     21831 5.38507E-01
 -1     21832 5.54681E-01
 -1     21837 5.38507E-01
 -1     21838 5.38507E-01
 -1     21839 5.54681E-01
 -1     21844 5.38507E-01
 -1     21845 5.38507E-01
 -1     21846 5.54681E-01
 -1     21851 5.38507E-01
 -1     21852 5.38507E-01
 -1     21853 5.54681E-01
 -1     21858 5.38507E-01
 -1     21859 5.38507E-01
 -1     21860 5.54681E-01
 -1     21865 5.38507E-01
 -1     21869 5.38507E-01
 -1     21870 5.38507E-01
 -1     21871 5.54681E-01
 -1     21876 5.38507E-01
 -1     21877 5.38507E-01
 -1     21878 5.54681E-01
 -1     21883 5.38507E-01
 -1     21884 5.38507E-01
 -1     21885 5.54681E-01
 -1     21890 5.38507E-01
 -1     21891 5.38507E-01
 -1     21892 5.54681E-01
 -1     21897 5.38507E-01
 -1     21898 5.38507E-01
 -1     21899 5.54681E-01
 -1     21904 5.38507E-01
 -1     21905 5.38507E-01
 -1     21906 5.54681E-01
 -1     21911 5.38507E-01
 -1     21912 5.38507E-01
 -1     21913 5.54681E-01
 -1     21918 5.38507E-01
 -1     21919 5.38507E-01
 -1     21920 5.54681E-01
 -1     21925 5.38507E-01
 -1     21926 5.38507E-01
 -1     21927 5.54681E-01
 -1     21932 5.38507E-01
 -1     21933 5.38507E-01
 -1     21934 5.54681E-01
 -1     21939 5.38507E-01
 -1     21943 5.38507E-01
 -1     21947 5.38507E-01
 -1     21951 5.38507E-01
 -1     21955 5.38507E-01
 -1     21959 5.38507E-01
 -1     21963 5.38507E-01
 -1     21967 5.38507E-01
 -1     21971 5.38507E-01
 -1     21975 5.38507E-01
 -1     21979 5.38507E-01
 -1     21985 5.08450E-01
 -1     21986 5.08450E-01
 -1     21987 5.23478E-01
 -1     21992 5.08450E-01
 -1     21993 5.08450E-01
 -1     21994 5.23478E-01
 -1     21999 5.08450E-01
 -1     22000 5.08450E-01
 -1     22001 5.23478E-01
 -1     22006 5.08450E-01
 -1     22007 5.08450E-01
 -1     22008 5.23478E-01
 -1     22013 5.08450E-01
 -1     22014 5.08450E-01
 -1     22015 5.23478E-01
 -1     22020 5.08450E-01
 -1     22021 5.08450E-01
 -1     22022 5.23478E-01
 -1     22027 5.08450E-01
 -1     22028 5.08450E-01
 -1     22029 5.23478E-01
 -1     22034 5.08450E-01
 -1     22035 5.08450E-01
 -1     22036 5.23478E-01
 -1     22041 5.08450E-01
 -1     22042 5.08450E-01
 -1     22043 5.23478E-01
 -1     22048 5.08450E-01
 -1     22049 5.08450E-01
 -1     22050 5.23478E-01
 -1     22055 5.08450E-01
 -1     22059 5.08450E-01
 -1     22060 5.08450E-01
 -1     22061 5.23478E-01
 -1     22066 5.08450E-01
 -1     22067 5.08450E-01
 -1     22068 5.23478E-01
 -1     22073 5.08450E-01
 -1     22074 5.08450E-01
 -1     22075 5.23478E-01
 -1     22080 5.08450E-01
 -1     22081 5.08450E-01
 -1     22082 5.23478E-01
 -1     22087 5.08450E-01
 -1     22088 5.08450E-01
 -1     22089 5.23478E-01
 -1     22094 5.08450E-01
 -1     22095 5.08450E-01
 -1     22096 5.23478E-01
 -1     22101 5.08450E-01
 -1     22102 5.08450E-01
 -1     22103 5.23478E-01
 -1     22108 5.08450E-01
 -1     22109 5.08450E-01
 -1     22110 5.23478E-01
 -1     22115 5.08450E-01
 -1     22116 5.08450E-01
 -1     22117 5.23478E-01
 -1     22122 5.08450E-01
 -1     22123 5.08450E-01
 -1     22124 5.23478E-01
 -1     22129 5.08450E-01
 -1     22133 5.08450E-01
 -1     22134 5.08450E-01
 -1     22135 5.23478E-01
 -1     22140 5.08450E-01
 -1     22141 5.08450E-01
 -1     22142 5.23478E-01
 -1     22147 5.08450E-01
 -1     22148 5.08450E-01
 -1     22149 5.23478E-01
 -1     22154 5.08450E-01
 -1     22155 5.08450E-01
 -1     22156 5.23478E-01
 -1     22161 5.08450E-01
 -1     22162 5.08450E-01
 -1     22163 5.23478E-01
 -1     22168 5.08450E-01
 -1     22169 5.08450E-01
 -1     22170 5.23478E-01
 -1     22175 5.08450E-01
 -1     22176 5.08450E-01
 -1     22177 5.23478E-01
 -1     22182 5.08450E-01
 -1     22183 5.08450E-01
 -1     22184 5.23478E-01
 -1     22189 5.08450E-01
 -1     22190 5.08450E-01
 -1     22191 5.23478E-01
 -1     22196 5.08450E-01
 -1     22197 5.08450E-01
 -1     22198 5.23478E-01
 -1     22203 5.08450E-01
 -1     22207 5.08450E-01
 -1     22208 5.08450E-01
 -1     22209 5.23478E-01
 -1     22214 5.08450E-01
 -1     22215 5.08450E-01
 -1     22216 5.23478E-01
 -1     22221 5.08450E-01
 -1     22222 5.08450E-01
 -1     22223 5.23478E-01
 -1     22228 5.08450E-01
 -1     22229 5.08450E-01
 -1     22230 5.23478E-01
 -1     22235 5.08450E-01
 -1     22236 5.08450E-01
 -1     22237 5.23478E-01
 -1     22242 5.08450E-01
 -1     22243 5.08450E-01
 -1     22244 5.23478E-01
 -1     22249 5.08450E-01
 -1     22250 5.08450E-01
 -1     22251 5.23478E-01
 -1     22256 5.08450E-01
 -1     22257 5.08450E-01
 -1     22258 5.23478E-01
 -1     22263 5.08450E-01
 -1     22264 5.08450E-01
 -1     22265 5.23478E-01
 -1     22270 5.08450E-01
 -1     22271 5.08450E-01
 -1     22272 5.23478E-01
 -1     22277 5.08450E-01
 -1     22281 5.08450E-01
 -1     22282 5.08450E-01
 -1     22283 5.23478E-01
 -1     22288 5.08450E-01
 -1     22289 5.08450E-01
 -1     22290 5.23478E-01
 -1     22295 5.08450E-01
 -1     22296 5.08450E-01
 -1     22297 5.23478E-01
 -1     22302 5.08450E-01
 -1     22303 5.08450E-01
 -1     22304 5.23478E-01
 -1     22309 5.08450E-01
 -1     22310 5.08450E-01
 -1     22311 5.23478E-01
 -1     22316 5.08450E-01
 -1     22317 5.08450E-01
 -1     22318 5.23478E-01
 -1     22323 5.08450E-01
 -1     22324 5.08450E-01
 -1     22325 5.23478E-01
 -1     22330 5.08450E-01
 -1     22331 5.08450E-01
 -1     22332 5.23478E-01
 -1     22337 5.08450E-01
 -1     22338 5.08450E-01
 -1     22339 5.23478E-01
 -1     22344 5.08450E-01
 -1     22345 5.08450E-01
 -1     22346 5.23478E-01
 -1     22351 5.08450E-01
 -1     22355 5.08450E-01
 -1     22356 5.08450E-01
 -1     22357 5.23478E-01
 -1     22362 5.08450E-01
 -1     22363 5.08450E-01
 -1     22364 5.23478E-01
 -1     22369 5.08450E-01
 -1     22370 5.08450E-01
 -1     22371 5.23478E-01
 -1     22376 5.08450E-01
 -1     22377 5.08450E-01
 -1     22378 5.23478E-01
 -1     22383 5.08450E-01
 -1     22384 5.08450E-01
 -1     22385 5.23478E-01
 -1     22390 5.08450E-01
 -1     22391 5.08450E-01
 -1     22392 5.23478E-01
 -1     22397 5.08450E-01
 -1     22398 5.08450E-01
 -1     22399 5.23478E-01
 -1     22404 5.08450E-01
 -1     22405 5.08450E-01
 -1     22406 5.23478E-01
 -1     22411 5.08450E-01
 -1     22412 5.08450E-01
 -1     22413 5.23478E-01
 -1     22418 5.08450E-01
 -1     22419 5.08450E-01
 -1     22420 5.23478E-01
 -1     22425 5.08450E-01
 -1     22429 5.08450E-01
 -1     22430 5.08450E-01
 -1     22431 5.23478E-01
 -1     22436 5.08450E-01
 -1     22437 5.08450E-01
 -1     22438 5.23478E-01
 -1     22443 5.08450E-01
 -1     22444 5.08450E-01
 -1     22445 5.23478E-01
 -1     22450 5.08450E-01
 -1     22451 5.08450E-01
 -1     22452 5.23478E-01
 -1     22457 5.08450E-01
 -1     22458 5.08450E-01
 -1     22459 5.23478E-01
 -1     22464 5.08450E-01
 -1     22465 5.08450E-01
 -1     22466 5.23478E-01
 -1     22471 5.08450E-01
 -1     22472 5.08450E-01
 -1     22473 5.23478E-01
 -1     22478 5.08450E-01
 -1     22479 5.08450E-01
 -1     22480 5.23478E-01
 -1     22485 5.08450E-01
 -1     22486 5.08450E-01
 -1     22487 5.23478E-01
 -1     22492 5.08450E-01
 -1     22493 5.08450E-01
 -1     22494 5.23478E-01
 -1     22499 5.08450E-01
 -1     22503 5.08450E-01
 -1     22504 5.08450E-01
 -1     22505 5.23478E-01
 -1     22510 5.08450E-01
 -1     22511 5.08450E-01
 -1     22512 5.23478E-01
 -1     22517 5.08450E-01
 -1     22518 5.08450E-01
 -1     22519 5.23478E-01
 -1     22524 5.08450E-01
 -1     22525 5.08450E-01
 -1     22526 5.23478E-01
 -1     22531 5.08450E-01
 -1     22532 5.08450E-01
 -1     22533 5.23478E-01
 -1     22538 5.08450E-01
 -1     22539 5.08450E-01
 -1     22540 5.23478E-01
 -1     22545 5.08450E-01
 -1     22546 5.08450E-01
 -1     22547 5.23478E-01
 -1     22552 5.08450E-01
 -1     22553 5.08450E-01
 -1     22554 5.23478E-01
 -1     22559 5.08450E-01
 -1     22560 5.08450E-01
 -1     22561 5.23478E-01
 -1     22566 5.08450E-01
 -1     22567 5.08450E-01
 -1     22568 5.23478E-01
 -1     22573 5.08450E-01
 -1     22577 5.08450E-01
 -1     22578 5.08450E-01
 -1     22579 5.23478E-01
 -1     22584 5.08450E-01
 -1     22585 5.08450E-01
 -1     22586 5.23478E-01
 -1     22591 5.08450E-01
 -1     22592 5.08450E-01
 -1     22593 5.23478E-01
 -1     22598 5.08450E-01
 -1     22599 5.08450E-01
 -1     22600 5.23478E-01
 -1     22605 5.08450E-01
 -1     22606 5.08450E-01
 -1     22607 5.23478E-01
 -1     22612 5.08450E-01
 -1     22613 5.08450E-01
 -1     22614 5.23478E-01
 -1     22619 5.08450E-01
 -1     22620 5.08450E-01
 -1     22621 5.23478E-01
 -1     22626 5.08450E-01
 -1     22627 5.08450E-01
 -1     22628 5.23478E-01
 -1     22633 5.08450E-01
 -1     22634 5.08450E-01
 -1     22635 5.23478E-01
 -1     22640 5.08450E-01
 -1     22641 5.08450E-01
 -1     22642 5.23478E-01
 -1     22647 5.08450E-01
 -1     22651 5.08450E-01
 -1     22655 5.08450E-01
 -1     22659 5.08450E-01
 -1     22663 5.08450E-01
 -1     22667 5.08450E-01
 -1     22671 5.08450E-01
 -1     22675 5.08450E-01
 -1     22679 5.08450E-01
 -1     22683 5.08450E-01
 -1     22687 5.08450E-01
 -1     22693 4.80482E-01
 -1     22694 4.80482E-01
 -1     22695 4.94466E-01
 -1     22700 4.80482E-01
 -1     22701 4.80482E-01
 -1     22702 4.94466E-01
 -1     22707 4.80482E-01
 -1     22708 4.80482E-01
 -1     22709 4.94466E-01
 -1     22714 4.80482E-01
 -1     22715 4.80482E-01
 -1     22716 4.94466E-01
 -1     22721 4.80482E-01
 -1     22722 4.80482E-01
 -1     22723 4.94466E-01
 -1     22728 4.80482E-01
 -1     22729 4.80482E-01
 -1     22730 4.94466E-01
 -1     22735 4.80482E-01
 -1     22736 4.80482E-01
 -1     22737 4.94466E-01
 -1     22742 4.80482E-01
 -1     22743 4.80482E-01
 -1     22744 4.94466E-01
 -1     22749 4.80482E-01
 -1     22750 4.80482E-01
 -1     22751 4.94466E-01
 -1     22756 4.80482E-01
 -1     22757 4.80482E-01
 -1     22758 4.94466E-01
 -1     22763 4.80482E-01
 -1     22767 4.80482E-01
 -1     22768 4.80482E-01
 -1     22769 4.94466E-01
 -1     22774 4.80482E-01
 -1     22775 4.80482E-01
 -1     22776 4.94466E-01
 -1     22781 4.80482E-01
 -1     22782 4.80482E-01
 -1     22783 4.94466E-01
 -1     22788 4.80482E-01
 -1     22789 4.80482E-01
 -1     22790 4.94466E-01
 -1     22795 4.80482E-01
 -1     22796 4.80482E-01
 -1     22797 4.94466E-01
 -1     22802 4.80482E-01
 -1     22803 4.80482E-01
 -1     22804 4.94466E-01
 -1     22809 4.80482E-01
 -1     22810 4.80482E-01
 -1     22811 4.94466E-01
 -1     22816 4.80482E-01
 -1     22817 4.80482E-01
 -1     22818 4.94466E-01
 -1     22823 4.80482E-01
 -1     22824 4.80482E-01
 -1     22825 4.94466E-01
 -1     22830 4.80482E-01
 -1     22831 4.80482E-01
 -1     22832 4.94466E-01
 -1     22837 4.80482E-01
 -1     22841 4.80482E-01
 -1     22842 4.80482E-01
 -1     22843 4.94466E-01
 -1     22848 4.80482E-01
 -1     22849 4.80482E-01
 -1     22850 4.94466E-01
 -1     22855 4.80482E-01
 -1     22856 4.80482E-01
 -1     22857 4.94466E-01
 -1     22862 4.80482E-01
 -1     22863 4.80482E-01
 -1     22864 4.94466E-01
 -1     22869 4.80482E-01
 -1     22870 4.80482E-01
 -1     22871 4.94466E-01
 -1     22876 4.80482E-01
 -1     22877 4.80482E-01
 -1     22878 4.94466E-01
 -1     22883 4.80482E-01
 -1     22884 4.80482E-01
 -1     22885 4.94466E-01
 -1     22890 4.80482E-01
 -1     22891 4.80482E-01
 -1     22892 4.94466E-01
 -1     22897 4.80482E-01
 -1     22898 4.80482E-01
 -1     22899 4.94466E-01
 -1     22904 4.80482E-01
 -1     22905 4.80482E-01
 -1     22906 4.94466E-01
 -1     22911 4.80482E-01
 -1     22915 4.80482E-01
 -1     22916 4.80482E-01
 -1     22917 4.94466E-01
 -1     22922 4.80482E-01
 -1     22923 4.80482E-01
 -1     22924 4.94466E-01
 -1     22929 4.80482E-01
 -1     22930 4.80482E-01
 -1     22931 4.94466E-01
 -1     22936 4.80482E-01
 -1     22937 4.80482E-01
 -1     22938 4.94466E-01
 -1     22943 4.80482E-01
 -1     22944 4.80482E-01
 -1     22945 4.94466E-01
 -1     22950 4.80482E-01
 -1     22951 4.80482E-01
 -1     22952 4.94466E-01
 -1     22957 4.80482E-01
 -1     22958 4.80482E-01
 -1     22959 4.94466E-01
 -1     22964 4.80482E-01
 -1     22965 4.80482E-01
 -1     22966 4.94466E-01
 -1     22971 4.80482E-01
 -1     22972 4.80482E-01
 -1     22973 4.94466E-01
 -1     22978 4.80482E-01
 -1     22979 4.80482E-01
 -1     22980 4.94466E-01
 -1     22985 4.80482E-01
 -1     22989 4.80482E-01
 -1     22990 4.80482E-01
 -1     22991 4.94466E-01
 -1     22996 4.80482E-01
 -1     22997 4.80482E-01
 -1     22998 4.94466E-01
 -1     23003 4.80482E-01
 -1     23004 4.80482E-01
 -1     23005 4.94466E-01
 -1     23010 4.80482E-01
 -1     23011 4.80482E-01
 -1     23012 4.94466E-01
 -1     23017 4.80482E-01
 -1     23018 4.80482E-01
 -1     23019 4.94466E-01
 -1     23024 4.80482E-01
 -1     23025 4.80482E-01
 -1     23026 4.94466E-01
 -1     23031 4.80482E-01
 -1     23032 4.80482E-01
 -1     23033 4.94466E-01
 -1     23038 4.80482E-01
 -1     23039 4.80482E-01
 -1     23040 4.94466E-01
 -1     23045 4.80482E-01
 -1     23046 4.80482E-01
 -1     23047 4.94466E-01
 -1     23052 4.80482E-01
 -1     23053 4.80482E-01
 -1     23054 4.94466E-01
 -1     23059 4.80482E-01
 -1     23063 4.80482E-01
 -1     23064 4.80482E-01
 -1     23065 4.94466E-01
 -1     23070 4.80482E-01
 -1     23071 4.80482E-01
 -1     23072 4.94466E-01
 -1     23077 4.80482E-01
 -1     23078 4.80482E-01
 -1     23079 4.94466E-01
 -1     23084 4.80482E-01
 -1     23085 4.80482E-01
 -1     23086 4.94466E-01
 -1     23091 4.80482E-01
 -1     23092 4.80482E-01
 -1     23093 4.94466E-01
 -1     23098 4.80482E-01
 -1     23099 4.80482E-01
 -1     23100 4.94466E-01
 -1     23105 4.80482E-01
 -1     23106 4.80482E-01
 -1     23107 4.94466E-01
 -1     23112 4.80482E-01
 -1     23113 4.80482E-01
 -1     23114 4.94466E-01
 -1     23119 4.80482E-01
 -1     23120 4.80482E-01
 -1     23121 4.94466E-01
 -1     23126 4.80482E-01
 -1     23127 4.80482E-01
 -1     23128 4.94466E-01
 -1     23133 4.80482E-01
 -1     23137 4.80482E-01
 -1     23138 4.80482E-01
 -1     23139 4.94466E-01
 -1     23144 4.80482E-01
 -1     23145 4.80482E-01
 -1     23146 4.94466E-01
 -1     23151 4.80482E-01
 -1     23152 4.80482E-01
 -1     23153 4.94466E-01
 -1     23158 4.80482E-01
 -1     23159 4.80482E-01
 -1     23160 4.94466E-01
 -1     23165 4.80482E-01
 -1     23166 4.80482E-01
 -1     23167 4.94466E-01
 -1     23172 4.80482E-01
 -1     23173 4.80482E-01
 -1     23174 4.94466E-01
 -1     23179 4.80482E-01
 -1     23180 4.80482E-01
 -1     23181 4.94466E-01
 -1     23186 4.80482E-01
 -1     23187 4.80482E-01
 -1     23188 4.94466E-01
 -1     23193 4.80482E-01
 -1     23194 4.80482E-01
 -1     23195 4.94466E-01
 -1     23200 4.80482E-01
 -1     23201 4.80482E-01
 -1     23202 4.94466E-01
 -1     23207 4.80482E-01
 -1     23211 4.80482E-01
 -1     23212 4.80482E-01
 -1     23213 4.94466E-01
 -1     23218 4.80482E-01
 -1     23219 4.80482E-01
 -1     23220 4.94466E-01
 -1     23225 4.80482E-01
 -1     23226 4.80482E-01
 -1     23227 4.94466E-01
 -1     23232 4.80482E-01
 -1     23233 4.80482E-01
 -1     23234 4.94466E-01
 -1     23239 4.80482E-01
 -1     23240 4.80482E-01
 -1     23241 4.94466E-01
 -1     23246 4.80482E-01
 -1     23247 4.80482E-01
 -1     23248 4.94466E-01
 -1     23253 4.80482E-01
 -1     23254 4.80482E-01
 -1     23255 4.94466E-01
 -1     23260 4.80482E-01
 -1     23261 4.80482E-01
 -1     23262 4.94466E-01
 -1     23267 4.80482E-01
 -1     23268 4.80482E-01
 -1     23269 4.94466E-01
 -1     23274 4.80482E-01
 -1     23275 4.80482E-01
 -1     23276 4.94466E-01
 -1     23281 4.80482E-01
 -1     23285 4.80482E-01
 -1     23286 4.80482E-01
 -1     23287 4.94466E-01
 -1     23292 4.80482E-01
 -1     23293 4.80482E-01
 -1     23294 4.94466E-01
 -1     23299 4.80482E-01
 -1     23300 4.80482E-01
 -1     23301 4.94466E-01
 -1     23306 4.80482E-01
 -1     23307 4.80482E-01
 -1     23308 4.94466E-01
 -1     23313 4.80482E-01
 -1     23314 4.80482E-01
 -1     23315 4.94466E-01
 -1     23320 4.80482E-01
 -1     23321 4.80482E-01
 -1     23322 4.94466E-01
 -1     23327 4.80482E-01
 -1     23328 4.80482E-01
 -1     23329 4.94466E-01
 -1     23334 4.80482E-01
 -1     23335 4.80482E-01
 -1     23336 4.94466E-01
 -1     23341 4.80482E-01
 -1     23342 4.80482E-01
 -1     23343 4.94466E-01
 -1     23348 4.80482E-01
 -1     23349 4.80482E-01
 -1     23350 4.94466E-01
 -1     23355 4.80482E-01
 -1     23359 4.80482E-01
 -1     23363 4.80482E-01
 -1     23367 4.80482E-01
 -1     23371 4.80482E-01
 -1     23375 4.80482E-01
 -1     23379 4.80482E-01
 -1     23383 4.80482E-01
 -1     23387 4.80482E-01
 -1     23391 4.80482E-01
 -1     23395 4.80482E-01
 -1     23401 4.54424E-01
 -1     23402 4.54424E-01
 -1     23403 4.67453E-01
 -1     23408 4.54424E-01
 -1     23409 4.54424E-01
 -1     23410 4.67453E-01
 -1     23415 4.54424E-01
 -1     23416 4.54424E-01
 -1     23417 4.67453E-01
 -1     23422 4.54424E-01
 -1     23423 4.54424E-01
 -1     23424 4.67453E-01
 -1     23429 4.54424E-01
 -1     23430 4.54424E-01
 -1     23431 4.67453E-01
 -1     23436 4.54424E-01
 -1     23437 4.54424E-01
 -1     23438 4.67453E-01
 -1     23443 4.54424E-01
 -1     23444 4.54424E-01
 -1     23445 4.67453E-01
 -1     23450 4.54424E-01
 -1     23451 4.54424E-01
 -1     23452 4.67453E-01
 -1     23457 4.54424E-01
 -1     23458 4.54424E-01
 -1     23459 4.67453E-01
 -1     23464 4.54424E-01
 -1     23465 4.54424E-01
 -1     23466 4.67453E-01
 -1     23471 4.54424E-01
 -1     23475 4.54424E-01
 -1     23476 4.54424E-01
 -1     23477 4.67453E-01
 -1     23482 4.54424E-01
 -1     23483 4.54424E-01
 -1     23484 4.67453E-01
 -1     23489 4.54424E-01
 -1     23490 4.54424E-01
 -1     23491 4.67453E-01
 -1     23496 4.54424E-01
 -1     23497 4.54424E-01
 -1     23498 4.67453E-01
 -1     23503 4.54424E-01
 -1     23504 4.54424E-01
 -1     23505 4.67453E-01
 -1     23510 4.54424E-01
 -1     23511 4.54424E-01
 -1     23512 4.67453E-01
 -1     23517 4.54424E-01
 -1     23518 4.54424E-01
 -1     23519 4.67453E-01
 -1     23524 4.54424E-01
 -1     23525 4.54424E-01
 -1     23526 4.67453E-01
 -1     23531 4.54424E-01
 -1     23532 4.54424E-01
 -1     23533 4.67453E-01
 -1     23538 4.54424E-01
 -1     23539 4.54424E-01
 -1     23540 4.67453E-01
 -1     23545 4.54424E-01
 -1     23549 4.54424E-01
 -1     23550 4.54424E-01
 -1     23551 4.67453E-01
 -1     23556 4.54424E-01
 -1     23557 4.54424E-01
 -1     23558 4.67453E-01
 -1     23563 4.54424E-01
 -1     23564 4.54424E-01
 -1     23565 4.67453E-01
 -1     23570 4.54424E-01
 -1     23571 4.54424E-01
 -1     23572 4.67453E-01
 -1     23577 4.54424E-01
 -1     23578 4.54424E-01
 -1     23579 4.67453E-01
 -1     23584 4.54424E-01
 -1     23585 4.54424E-01
 -1     23586 4.67453E-01
 -1     23591 4.54424E-01
 -1     23592 4.54424E-01
 -1     23593 4.67453E-01
 -1     23598 4.54424E-01
 -1     23599 4.54424E-01
 -1     23600 4.67453E-01
 -1     23605 4.54424E-01
 -1     23606 4.54424E-01
 -1     23607 4.67453E-01
 -1     23612 4.54424E-01
 -1     23613 4.54424E-01
 -1     23614 4.67453E-01
 -1     23619 4.54424E-01
 -1     23623 4.54424E-01
 -1     23624 4.54424E-01
 -1     23625 4.67453E-01
 -1     23630 4.54424E-01
 -1     23631 4.54424E-01
 -1     23632 4.67453E-01
 -1     23637 4.54424E-01
 -1     23638 4.54424E-01
 -1     23639 4.67453E-01
 -1     23644 4.54424E-01
 -1     23645 4.54424E-01
 -1     23646 4.67453E-01
 -1     23651 4.54424E-01
 -1     23652 4.54424E-01
 -1     23653 4.67453E-01
 -1     23658 4.54424E-01
 -1     23659 4.54424E-01
 -1     23660 4.67453E-01
 -1     23665 4.54424E-01
 -1     23666 4.54424E-01
 -1     23667 4.67453E-01
 -1     23672 4.54424E-01
 -1     23673 4.54424E-01
 -1     23674 4.67453E-01
 -1     23679 4.54424E-01
 -1     23680 4.54424E-01
 -1     23681 4.67453E-01
 -1     23686 4.54424E-01
 -1     23687 4.54424E-01
 -1     23688 4.67453E-01
 -1     23693 4.54424E-01
 -1     23697 4.54424E-01
 -1     23698 4.54424E-01
 -1     23699 4.67453E-01
 -1     23704 4.54424E-01
 -1     23705 4.54424E-01
 -1     23706 4.67453E-01
 -1     23711 4.54424E-01
 -1     23712 4.54424E-01
 -1     23713 4.67453E-01
 -1     23718 4.54424E-01
 -1     23719 4.54424E-01
 -1     23720 4.67453E-01
 -1     23725 4.54424E-01
 -1     23726 4.54424E-01
 -1     23727 4.67453E-01
 -1     23732 4.54424E-01
 -1     23733 4.54424E-01
 -1     23734 4.67453E-01
 -1     23739 4.54424E-01
 -1     23740 4.54424E-01
 -1     23741 4.67453E-01
 -1     23746 4.54424E-01
 -1     23747 4.54424E-01
 -1     23748 4.67453E-01
 -1     23753 4.54424E-01
 -1     23754 4.54424E-01
 -1     23755 4.67453E-01
 -1     23760 4.54424E-01
 -1     23761 4.54424E-01
 -1     23762 4.67453E-01
 -1     23767 4.54424E-01
 -1     23771 4.54424E-01
 -1     23772 4.54424E-01
 -1     23773 4.67453E-01
 -1     23778 4.54424E-01
 -1     23779 4.54424E-01
 -1     23780 4.67453E-01
 -1     23785 4.54424E-01
 -1     23786 4.54424E-01
 -1     23787 4.67453E-01
 -1     23792 4.54424E-01
 -1     23793 4.54424E-01
 -1     23794 4.67453E-01
 -1     23799 4.54424E-01
 -1     23800 4.54424E-01
 -1     23801 4.67453E-01
 -1     23806 4.54424E-01
 -1     23807 4.54424E-01
 -1     23808 4.67453E-01
 -1     23813 4.54424E-01
 -1     23814 4.54424E-01
 -1     23815 4.67453E-01
 -1     23820 4.54424E-01
 -1     23821 4.54424E-01
 -1     23822 4.67453E-01
 -1     23827 4.54424E-01
 -1     23828 4.54424E-01
 -1     23829 4.67453E-01
 -1     23834 4.54424E-01
 -1     23835 4.54424E-01
 -1     23836 4.67453E-01
 -1     23841 4.54424E-01
 -1     23845 4.54424E-01
 -1     23846 4.54424E-01
 -1     23847 4.67453E-01
 -1     23852 4.54424E-01
 -1     23853 4.54424E-01
 -1     23854 4.67453E-01
 -1     23859 4.54424E-01
 -1     23860 4.54424E-01
 -1     23861 4.67453E-01
 -1     23866 4.54424E-01
 -1     23867 4.54424E-01
 -1     23868 4.67453E-01
 -1     23873 4.54424E-01
 -1     23874 4.54424E-01
 -1     23875 4.67453E-01
 -1     23880 4.54424E-01
 -1     23881 4.54424E-01
 -1     23882 4.67453E-01
 -1     23887 4.54424E-01
 -1     23888 4.54424E-01
 -1     23889 4.67453E-01
 -1     23894 4.54424E-01
 -1     23895 4.54424E-01
 -1     23896 4.67453E-01
 -1     23901 4.54424E-01
 -1     23902 4.54424E-01
 -1     23903 4.67453E-01
 -1     23908 4.54424E-01
 -1     23909 4.54424E-01
 -1     23910 4.67453E-01
 -1     23915 4.54424E-01
 -1     23919 4.54424E-01
 -1     23920 4.54424E-01
 -1     23921 4.67453E-01
 -1     23926 4.54424E-01
 -1     23927 4.54424E-01
 -1     23928 4.67453E-01
 -1     23933 4.54424E-01
 -1     23934 4.54424E-01
 -1     23935 4.67453E-01
 -1     23940 4.54424E-01
 -1     23941 4.54424E-01
 -1     23942 4.67453E-01
 -1     23947 4.54424E-01
 -1     23948 4.54424E-01
 -1     23949 4.67453E-01
 -1     23954 4.54424E-01
 -1     23955 4.54424E-01
 -1     23956 4.67453E-01
 -1     23961 4.54424E-01
 -1     23962 4.54424E-01
 -1     23963 4.67453E-01
 -1     23968 4.54424E-01
 -1     23969 4.54424E-01
 -1     23970 4.67453E-01
 -1     23975 4.54424E-01
 -1     23976 4.54424E-01
 -1     23977 4.67453E-01
 -1     23982 4.54424E-01
 -1     23983 4.54424E-01
 -1     23984 4.67453E-01
 -1     23989 4.54424E-01
 -1     23993 4.54424E-01
 -1     23994 4.54424E-01
 -1     23995 4.67453E-01
 -1     24000 4.54424E-01
 -1     24001 4.54424E-01
 -1     24002 4.67453E-01
 -1     24007 4.54424E-01
 -1     24008 4.54424E-01
 -1     24009 4.67453E-01
 -1     24014 4.54424E-01
 -1     24015 4.54424E-01
 -1     24016 4.67453E-01
 -1     24021 4.54424E-01
 -1     24022 4.54424E-01
 -1     24023 4.67453E-01
 -1     24028 4.54424E-01
 -1     24029 4.54424E-01
 -1     24030 4.67453E-01
 -1     24035 4.54424E-01
 -1     24036 4.54424E-01
 -1     24037 4.67453E-01
 -1     24042 4.54424E-01
 -1     24043 4.54424E-01
 -1     24044 4.67453E-01
 -1     24049 4.54424E-01
 -1     24050 4.54424E-01
 -1     24051 4.67453E-01
 -1     24056 4.54424E-01
 -1     24057 4.54424E-01
 -1     24058 4.67453E-01
 -1     24063 4.54424E-01
 -1     24067 4.54424E-01
 -1     24071 4.54424E-01
 -1     24075 4.54424E-01
 -1     24079 4.54424E-01
 -1     24083 4.54424E-01
 -1     24087 4.54424E-01
 -1     24091 4.54424E-01
 -1     24095 4.54424E-01
 -1     24099 4.54424E-01
 -1     24103 4.54424E-01
 -1     24109 4.30116E-01
 -1     24110 4.30116E-01
 -1     24111 4.42270E-01
 -1     24116 4.30116E-01
 -1     24117 4.30116E-01
 -1     24118 4.42270E-01
 -1     24123 4.30116E-01
 -1     24124 4.30116E-01
 -1     24125 4.42270E-01
 -1     24130 4.30116E-01
 -1     24131 4.30116E-01
 -1     24132 4.42270E-01
 -1     24137 4.30116E-01
 -1     24138 4.30116E-01
 -1     24139 4.42270E-01
 -1     24144 4.30116E-01
 -1     24145 4.30116E-01
 -1     24146 4.42270E-01
 -1     24151 4.30116E-01
 -1     24152 4.30116E-01
 -1     24153 4.42270E-01
 -1     24158 4.30116E-01
 -1     24159 4.30116E-01
 -1     24160 4.42270E-01
 -1     24165 4.30116E-01
 -1     24166 4.30116E-01
 -1     24167 4.42270E-01
 -1     24172 4.30116E-01
 -1     24173 4.30116E-01
 -1     24174 4.42270E-01
 -1     24179 4.30116E-01
 -1     24183 4.30116E-01
 -1     24184 4.30116E-01
 -1     24185 4.42270E-01
 -1     24190 4.30116E-01
 -1     24191 4.30116E-01
 -1     24192 4.42270E-01
 -1     24197 4.30116E-01
 -1     24198 4.30116E-01
 -1     24199 4.42270E-01
 -1     24204 4.30116E-01
 -1     24205 4.30116E-01
 -1     24206 4.42270E-01
 -1     24211 4.30116E-01
 -1     24212 4.30116E-01
 -1     24213 4.42270E-01
 -1     24218 4.30116E-01
 -1     24219 4.30116E-01
 -1     24220 4.42270E-01
 -1     24225 4.30116E-01
 -1     24226 4.30116E-01
 -1     24227 4.42270E-01
 -1     24232 4.30116E-01
 -1     24233 4.30116E-01
 -1     24234 4.42270E-01
 -1     24239 4.30116E-01
 -1     24240 4.30116E-01
 -1     24241 4.42270E-01
 -1     24246 4.30116E-01
 -1     24247 4.30116E-01
 -1     24248 4.42270E-01
 -1     24253 4.30116E-01
 -1     24257 4.30116E-01
 -1     24258 4.30116E-01
 -1     24259 4.42270E-01
 -1     24264 4.30116E-01
 -1     24265 4.30116E-01
 -1     24266 4.42270E-01
 -1     24271 4.30116E-01
 -1     24272 4.30116E-01
 -1     24273 4.42270E-01
 -1     24278 4.30116E-01
 -1     24279 4.30116E-01
 -1     24280 4.42270E-01
 -1     24285 4.30116E-01
 -1     24286 4.30116E-01
 -1     24287 4.42270E-01
 -1     24292 4.30116E-01
 -1     24293 4.30116E-01
 -1     24294 4.42270E-01
 -1     24299 4.30116E-01
 -1     24300 4.30116E-01
 -1     24301 4.42270E-01
 -1     24306 4.30116E-01
 -1     24307 4.30116E-01
 -1     24308 4.42270E-01
 -1     24313 4.30116E-01
 -1     24314 4.30116E-01
 -1     24315 4.42270E-01
 -1     24320 4.30116E-01
 -1     24321 4.30116E-01
 -1     24322 4.42270E-01
 -1     24327 4.30116E-01
 -1     24331 4.30116E-01
 -1     24332 4.30116E-01
 -1     24333 4.42270E-01
 -1     24338 4.30116E-01
 -1     24339 4.30116E-01
 -1     24340 4.42270E-01
 -1     24345 4.30116E-01
 -1     24346 4.30116E-01
 -1     24347 4.42270E-01
 -1     24352 4.30116E-01
 -1     24353 4.30116E-01
 -1     24354 4.42270E-01
 -1     24359 4.30116E-01
 -1     24360 4.30116E-01
 -1     24361 4.42270E-01
 -1     24366 4.30116E-01
 -1     24367 4.30116E-01
 -1     24368 4.42270E-01
 -1     24373 4.30116E-01
 -1     24374 4.30116E-01
 -1     24375 4.42270E-01
 -1     24380 4.30116E-01
 -1     24381 4.30116E-01
 -1     24382 4.42270E-01
 -1     24387 4.30116E-01
 -1     24388 4.30116E-01
 -1     24389 4.42270E-01
 -1     24394 4.30116E-01
 -1     24395 4.30116E-01
 -1     24396 4.42270E-01
 -1     24401 4.30116E-01
 -1     24405 4.30116E-01
 -1     24406 4.30116E-01
 -1     24407 4.42270E-01
 -1     24412 4.30116E-01
 -1     24413 4.30116E-01
 -1     24414 4.42270E-01
 -1     24419 4.30116E-01
 -1     24420 4.30116E-01
 -1     24421 4.42270E-01
 -1     24426 4.30116E-01
 -1     24427 4.30116E-01
 -1     24428 4.42270E-01
 -1     24433 4.30116E-01
 -1     24434 4.30116E-01
 -1     24435 4.42270E-01
 -1     24440 4.30116E-01
 -1     24441 4.30116E-01
 -1     24442 4.42270E-01
 -1     24447 4.30116E-01
 -1     24448 4.30116E-01
 -1     24449 4.42270E-01
 -1     24454 4.30116E-01
 -1     24455 4.30116E-01
 -1     24456 4.42270E-01
 -1     24461 4.30116E-01
 -1     24462 4.30116E-01
 -1     24463 4.42270E-01
 -1     24468 4.30116E-01
 -1     24469 4.30116E-01
 -1     24470 4.42270E-01
 -1     24475 4.30116E-01
 -1     24479 4.30116E-01
 -1     24480 4.30116E-01
 -1     24481 4.42270E-01
 -1     24486 4.30116E-01
 -1     24487 4.30116E-01
 -1     24488 4.42270E-01
 -1     24493 4.30116E-01
 -1     24494 4.30116E-01
 -1     24495 4.42270E-01
 -1     24500 4.30116E-01
 -1     24501 4.30116E-01
 -1     24502 4.42270E-01
 -1     24507 4.30116E-01
 -1     24508 4.30116E-01
 -1     24509 4.42270E-01
 -1     24514 4.30116E-01
 -1     24515 4.30116E-01
 -1     24516 4.42270E-01
 -1     24521 4.30116E-01
 -1     24522 4.30116E-01
 -1     24523 4.42270E-01
 -1     24528 4.30116E-01
 -1     24529 4.30116E-01
 -1     24530 4.42270E-01
 -1     24535 4.30116E-01
 -1     24536 4.30116E-01
 -1     24537 4.42270E-01
 -1     24542 4.30116E-01
 -1     24543 4.30116E-01
 -1     24544 4.42270E-01
 -1     24549 4.30116E-01
 -1     24553 4.30116E-01
 -1     24554 4.30116E-01
 -1     24555 4.42270E-01
 -1     24560 4.30116E-01
 -1     24561 4.30116E-01
 -1     24562 4.42270E-01
 -1     24567 4.30116E-01
 -1     24568 4.30116E-01
 -1     24569 4.42270E-01
 -1     24574 4.30116E-01
 -1     24575 4.30116E-01
 -1     24576 4.42270E-01
 -1     24581 4.30116E-01
 -1     24582 4.30116E-01
 -1     24583 4.42270E-01
 -1     24588 4.30116E-01
 -1     24589 4.30116E-01
 -1     24590 4.42270E-01
 -1     24595 4.30116E-01
 -1     24596 4.30116E-01
 -1     24597 4.42270E-01
 -1     24602 4.30116E-01
 -1     24603 4.30116E-01
 -1     24604 4.42270E-01
 -1     24609 4.30116E-01
 -1     24610 4.30116E-01
 -1     24611 4.42270E-01
 -1     24616 4.30116E-01
 -1     24617 4.30116E-01
 -1     24618 4.42270E-01
 -1     24623 4.30116E-01
 -1     24627 4.30116E-01
 -1     24628 4.30116E-01
 -1     24629 4.42270E-01
 -1     24634 4.30116E-01
 -1     24635 4.30116E-01
 -1     24636 4.42270E-01
 -1     24641 4.30116E-01
 -1     24642 4.30116E-01
 -1     24643 4.42270E-01
 -1     24648 4.30116E-01
 -1     24649 4.30116E-01
 -1     24650 4.42270E-01
 -1     24655 4.30116E-01
 -1     24656 4.30116E-01
 -1     24657 4.42270E-01
 -1     24662 4.30116E-01
 -1     24663 4.30116E-01
 -1     24664 4.42270E-01
 -1     24669 4.30116E-01
 -1     24670 4.30116E-01
 -1     24671 4.42270E-01
 -1     24676 4.30116E-01
 -1     24677 4.30116E-01
 -1     24678 4.42270E-01
 -1     24683 4.30116E-01
 -1     24684 4.30116E-01
 -1     24685 4.42270E-01
 -1     24690 4.30116E-01
 -1     24691 4.30116E-01
 -1     24692 4.42270E-01
 -1     24697 4.30116E-01
 -1     24701 4.30116E-01
 -1     24702 4.30116E-01
 -1     24703 4.42270E-01
 -1     24708 4.30116E-01
 -1     24709 4.30116E-01
 -1     24710 4.42270E-01
 -1     24715 4.30116E-01
 -1     24716 4.30116E-01
 -1     24717 4.42270E-01
 -1     24722 4.30116E-01
 -1     24723 4.30116E-01
 -1     24724 4.42270E-01
 -1     24729 4.30116E-01
 -1     24730 4.30116E-01
 -1     24731 4.42270E-01
 -1     24736 4.30116E-01
 -1     24737 4.30116E-01
 -1     24738 4.42270E-01
 -1     24743 4.30116E-01
 -1     24744 4.30116E-01
 -1     24745 4.42270E-01
 -1     24750 4.30116E-01
 -1     24751 4.30116E-01
 -1     24752 4.42270E-01
 -1     24757 4.30116E-01
 -1     24758 4.30116E-01
 -1     24759 4.42270E-01
 -1     24764 4.30116E-01
 -1     24765 4.30116E-01
 -1     24766 4.42270E-01
 -1     24771 4.30116E-01
 -1     24775 4.30116E-01
 -1     24779 4.30116E-01
 -1     24783 4.30116E-01
 -1     24787 4.30116E-01
 -1     24791 4.30116E-01
 -1     24795 4.30116E-01
 -1     24799 4.30116E-01
 -1     24803 4.30116E-01
 -1     24807 4.30116E-01
 -1     24811 4.30116E-01
 -1     24817 4.07414E-01
 -1     24818 4.07414E-01
 -1     24819 4.18765E-01
 -1     24824 4.07414E-01
 -1     24825 4.07414E-01
 -1     24826 4.18765E-01
 -1     24831 4.07414E-01
 -1     24832 4.07414E-01
 -1     24833 4.18765E-01
 -1     24838 4.07414E-01
 -1     24839 4.07414E-01
 -1     24840 4.18765E-01
 -1     24845 4.07414E-01
 -1     24846 4.07414E-01
 -1     24847 4.18765E-01
 -1     24852 4.07414E-01
 -1     24853 4.07414E-01
 -1     24854 4.18765E-01
 -1     24859 4.07414E-01
 -1     24860 4.07414E-01
 -1     24861 4.18765E-01
 -1     24866 4.07414E-01
 -1     24867 4.07414E-01
 -1     24868 4.18765E-01
 -1     24873 4.07414E-01
 -1     24874 4.07414E-01
 -1     24875 4.18765E-01
 -1     24880 4.07414E-01
 -1     24881 4.07414E-01
 -1     24882 4.18765E-01
 -1     24887 4.07414E-01
 -1     24891 4.07414E-01
 -1     24892 4.07414E-01
 -1     24893 4.18765E-01
 -1     24898 4.07414E-01
 -1     24899 4.07414E-01
 -1     24900 4.18765E-01
 -1     24905 4.07414E-01
 -1     24906 4.07414E-01
 -1     24907 4.18765E-01
 -1     24912 4.07414E-01
 -1     24913 4.07414E-01
 -1     24914 4.18765E-01
 -1     24919 4.07414E-01
 -1     24920 4.07414E-01
 -1     24921 4.18765E-01
 -1     24926 4.07414E-01
 -1     24927 4.07414E-01
 -1     24928 4.18765E-01
 -1     24933 4.07414E-01
 -1     24934 4.07414E-01
 -1     24935 4.18765E-01
 -1     24940 4.07414E-01
 -1     24941 4.07414E-01
 -1     24942 4.18765E-01
 -1     24947 4.07414E-01
 -1     24948 4.07414E-01
 -1     24949 4.18765E-01
 -1     24954 4.07414E-01
 -1     24955 4.07414E-01
 -1     24956 4.18765E-01
 -1     24961 4.07414E-01
 -1     24965 4.07414E-01
 -1     24966 4.07414E-01
 -1     24967 4.18765E-01
 -1     24972 4.07414E-01
 -1     24973 4.07414E-01
 -1     24974 4.18765E-01
 -1     24979 4.07414E-01
 -1     24980 4.07414E-01
 -1     24981 4.18765E-01
 -1     24986 4.07414E-01
 -1     24987 4.07414E-01
 -1     24988 4.18765E-01
 -1     24993 4.07414E-01
 -1     24994 4.07414E-01
 -1     24995 4.18765E-01
 -1     25000 4.07414E-01
 -1     25001 4.07414E-01
 -1     25002 4.18765E-01
 -1     25007 4.07414E-01
 -1     25008 4.07414E-01
 -1     25009 4.18765E-01
 -1     25014 4.07414E-01
 -1     25015 4.07414E-01
 -1     25016 4.18765E-01
 -1     25021 4.07414E-01
 -1     25022 4.07414E-01
 -1     25023 4.18765E-01
 -1     25028 4.07414E-01
 -1     25029 4.07414E-01
 -1     25030 4.18765E-01
 -1     25035 4.07414E-01
 -1     25039 4.07414E-01
 -1     25040 4.07414E-01
 -1     25041 4.18765E-01
 -1     25046 4.07414E-01
 -1     25047 4.07414E-01
 -1     25048 4.18765E-01
 -1     25053 4.07414E-01
 -1     25054 4.07414E-01
 -1     25055 4.18765E-01
 -1     25060 4.07414E-01
 -1     25061 4.07414E-01
 -1     25062 4.18765E-01
 -1     25067 4.07414E-01
 -1     25068 4.07414E-01
 -1     25069 4.18765E-01
 -1     25074 4.07414E-01
 -1     25075 4.07414E-01
 -1     25076 4.18765E-01
 -1     25081 4.07414E-01
 -1     25082 4.07414E-01
 -1     25083 4.18765E-01
 -1     25088 4.07414E-01
 -1     25089 4.07414E-01
 -1     25090 4.18765E-01
 -1     25095 4.07414E-01
 -1     25096 4.07414E-01
 -1     25097 4.18765E-01
 -1     25102 4.07414E-01
 -1     25103 4.07414E-01
 -1     25104 4.18765E-01
 -1     25109 4.07414E-01
 -1     25113 4.07414E-01
 -1     25114 4.07414E-01
 -1     25115 4.18765E-01
 -1     25120 4.07414E-01
 -1     25121 4.07414E-01
 -1     25122 4.18765E-01
 -1     25127 4.07414E-01
 -1     25128 4.07414E-01
 -1     25129 4.18765E-01
 -1     25134 4.07414E-01
 -1     25135 4.07414E-01
 -1     25136 4.18765E-01
 -1     25141 4.07414E-01
 -1     25142 4.07414E-01
 -1     25143 4.18765E-01
 -1     25148 4.07414E-01
 -1     25149 4.07414E-01
 -1     25150 4.18765E-01
 -1     25155 4.07414E-01
 -1     25156 4.07414E-01
 -1     25157 4.18765E-01
 -1     25162 4.07414E-01
 -1     25163 4.07414E-01
 -1     25164 4.18765E-01
 -1     25169 4.07414E-01
 -1     25170 4.07414E-01
 -1     25171 4.18765E-01
 -1     25176 4.07414E-01
 -1     25177 4.07414E-01
 -1     25178 4.18765E-01
 -1     25183 4.07414E-01
 -1     25187 4.07414E-01
 -1     25188 4.07414E-01
 -1     25189 4.18765E-01
 -1     25194 4.07414E-01
 -1     25195 4.07414E-01
 -1     25196 4.18765E-01
 -1     25201 4.07414E-01
 -1     25202 4.07414E-01
 -1     25203 4.18765E-01
 -1     25208 4.07414E-01
 -1     25209 4.07414E-01
 -1     25210 4.18765E-01
 -1     25215 4.07414E-01
 -1     25216 4.07414E-01
 -1     25217 4.18765E-01
 -1     25222 4.07414E-01
 -1     25223 4.07414E-01
 -1     25224 4.18765E-01
 -1     25229 4.07414E-01
 -1     25230 4.07414E-01
 -1     25231 4.18765E-01
 -1     25236 4.07414E-01
 -1     25237 4.07414E-01
 -1     25238 4.18765E-01
 -1     25243 4.07414E-01
 -1     25244 4.07414E-01
 -1     25245 4.18765E-01
 -1     25250 4.07414E-01
 -1     25251 4.07414E-01
 -1     25252 4.18765E-01
 -1     25257 4.07414E-01
 -1     25261 4.07414E-01
 -1     25262 4.07414E-01
 -1     25263 4.18765E-01
 -1     25268 4.07414E-01
 -1     25269 4.07414E-01
 -1     25270 4.18765E-01
 -1     25275 4.07414E-01
 -1     25276 4.07414E-01
 -1     25277 4.18765E-01
 -1     25282 4.07414E-01
 -1     25283 4.07414E-01
 -1     25284 4.18765E-01
 -1     25289 4.07414E-01
 -1     25290 4.07414E-01
 -1     25291 4.18765E-01
 -1     25296 4.07414E-01
 -1     25297 4.07414E-01
 -1     25298 4.18765E-01
 -1     25303 4.07414E-01
 -1     25304 4.07414E-01
 -1     25305 4.18765E-01
 -1     25310 4.07414E-01
 -1     25311 4.07414E-01
 -1     25312 4.18765E-01
 -1     25317 4.07414E-01
 -1     25318 4.07414E-01
 -1     25319 4.18765E-01
 -1     25324 4.07414E-01
 -1     25325 4.07414E-01
 -1     25326 4.18765E-01
 -1     25331 4.07414E-01
 -1     25335 4.07414E-01
 -1     25336 4.07414E-01
 -1     25337 4.18765E-01
 -1     25342 4.07414E-01
 -1     25343 4.07414E-01
 -1     25344 4.18765E-01
 -1     25349 4.07414E-01
 -1     25350 4.07414E-01
 -1     25351 4.18765E-01
 -1     25356 4.07414E-01
 -1     25357 4.07414E-01
 -1     25358 4.18765E-01
 -1     25363 4.07414E-01
 -1     25364 4.07414E-01
 -1     25365 4.18765E-01
 -1     25370 4.07414E-01
 -1     25371 4.07414E-01
 -1     25372 4.18765E-01
 -1     25377 4.07414E-01
 -1     25378 4.07414E-01
 -1     25379 4.18765E-01
 -1     25384 4.07414E-01
 -1     25385 4.07414E-01
 -1     25386 4.18765E-01
 -1     25391 4.07414E-01
 -1     25392 4.07414E-01
 -1     25393 4.18765E-01
 -1     25398 4.07414E-01
 -1     25399 4.07414E-01
 -1     25400 4.18765E-01
 -1     25405 4.07414E-01
 -1     25409 4.07414E-01
 -1     25410 4.07414E-01
 -1     25411 4.18765E-01
 -1     25416 4.07414E-01
 -1     25417 4.07414E-01
 -1     25418 4.18765E-01
 -1     25423 4.07414E-01
 -1     25424 4.07414E-01
 -1     25425 4.18765E-01
 -1     25430 4.07414E-01
 -1     25431 4.07414E-01
 -1     25432 4.18765E-01
 -1     25437 4.07414E-01
 -1     25438 4.07414E-01
 -1     25439 4.18765E-01
 -1     25444 4.07414E-01
 -1     25445 4.07414E-01
 -1     25446 4.18765E-01
 -1     25451 4.07414E-01
 -1     25452 4.07414E-01
 -1     25453 4.18765E-01
 -1     25458 4.07414E-01
 -1     25459 4.07414E-01
 -1     25460 4.18765E-01
 -1     25465 4.07414E-01
 -1     25466 4.07414E-01
 -1     25467 4.18765E-01
 -1     25472 4.07414E-01
 -1     25473 4.07414E-01
 -1     25474 4.18765E-01
 -1     25479 4.07414E-01
 -1     25483 4.07414E-01
 -1     25487 4.07414E-01
 -1     25491 4.07414E-01
 -1     25495 4.07414E-01
 -1     25499 4.07414E-01
 -1     25503 4.07414E-01
 -1     25507 4.07414E-01
 -1     25511 4.07414E-01
 -1     25515 4.07414E-01
 -1     25519 4.07414E-01
 -1     25525 3.86188E-01
 -1     25526 3.86188E-01
 -1     25527 3.96801E-01
 -1     25532 3.86188E-01
 -1     25533 3.86188E-01
 -1     25534 3.96801E-01
 -1     25539 3.86188E-01
 -1     25540 3.86188E-01
 -1     25541 3.96801E-01
 -1     25546 3.86188E-01
 -1     25547 3.86188E-01
 -1     25548 3.96801E-01
 -1     25553 3.86188E-01
 -1     25554 3.86188E-01
 -1     25555 3.96801E-01
 -1     25560 3.86188E-01
 -1     25561 3.86188E-01
 -1     25562 3.96801E-01
 -1     25567 3.86188E-01
 -1     25568 3.86188E-01
 -1     25569 3.96801E-01
 -1     25574 3.86188E-01
 -1     25575 3.86188E-01
 -1     25576 3.96801E-01
 -1     25581 3.86188E-01
 -1     25582 3.86188E-01
 -1     25583 3.96801E-01
 -1     25588 3.86188E-01
 -1     25589 3.86188E-01
 -1     25590 3.96801E-01
 -1     25595 3.86188E-01
 -1     25599 3.86188E-01
 -1     25600 3.86188E-01
 -1     25601 3.96801E-01
 -1     25606 3.86188E-01
 -1     25607 3.86188E-01
 -1     25608 3.96801E-01
 -1     25613 3.86188E-01
 -1     25614 3.86188E-01
 -1     25615 3.96801E-01
 -1     25620 3.86188E-01
 -1     25621 3.86188E-01
 -1     25622 3.96801E-01
 -1     25627 3.86188E-01
 -1     25628 3.86188E-01
 -1     25629 3.96801E-01
 -1     25634 3.86188E-01
 -1     25635 3.86188E-01
 -1     25636 3.96801E-01
 -1     25641 3.86188E-01
 -1     25642 3.86188E-01
 -1     25643 3.96801E-01
 -1     25648 3.86188E-01
 -1     25649 3.86188E-01
 -1     25650 3.96801E-01
 -1     25655 3.86188E-01
 -1     25656 3.86188E-01
 -1     25657 3.96801E-01
 -1     25662 3.86188E-01
 -1     25663 3.86188E-01
 -1     25664 3.96801E-01
 -1     25669 3.86188E-01
 -1     25673 3.86188E-01
 -1     25674 3.86188E-01
 -1     25675 3.96801E-01
 -1     25680 3.86188E-01
 -1     25681 3.86188E-01
 -1     25682 3.96801E-01
 -1     25687 3.86188E-01
 -1     25688 3.86188E-01
 -1     25689 3.96801E-01
 -1     25694 3.86188E-01
 -1     25695 3.86188E-01
 -1     25696 3.96801E-01
 -1     25701 3.86188E-01
 -1     25702 3.86188E-01
 -1     25703 3.96801E-01
 -1     25708 3.86188E-01
 -1     25709 3.86188E-01
 -1     25710 3.96801E-01
 -1     25715 3.86188E-01
 -1     25716 3.86188E-01
 -1     25717 3.96801E-01
 -1     25722 3.86188E-01
 -1     25723 3.86188E-01
 -1     25724 3.96801E-01
 -1     25729 3.86188E-01
 -1     25730 3.86188E-01
 -1     25731 3.96801E-01
 -1     25736 3.86188E-01
 -1     25737 3.86188E-01
 -1     25738 3.96801E-01
 -1     25743 3.86188E-01
 -1     25747 3.86189E-01
 -1     25748 3.86188E-01
 -1     25749 3.96801E-01
 -1     25754 3.86188E-01
 -1     25755 3.86188E-01
 -1     25756 3.96801E-01
 -1     25761 3.86188E-01
 -1     25762 3.86188E-01
 -1     25763 3.96801E-01
 -1     25768 3.86188E-01
 -1     25769 3.86188E-01
 -1     25770 3.96801E-01
 -1     25775 3.86188E-01
 -1     25776 3.86188E-01
 -1     25777 3.96801E-01
 -1     25782 3.86188E-01
 -1     25783 3.86188E-01
 -1     25784 3.96801E-01
 -1     25789 3.86188E-01
 -1     25790 3.86188E-01
 -1     25791 3.96801E-01
 -1     25796 3.86188E-01
 -1     25797 3.86188E-01
 -1     25798 3.96801E-01
 -1     25803 3.86188E-01
 -1     25804 3.86188E-01
 -1     25805 3.96801E-01
 -1     25810 3.86188E-01
 -1     25811 3.86188E-01
 -1     25812 3.96801E-01
 -1     25817 3.86189E-01
 -1     25821 3.86189E-01
 -1     25822 3.86189E-01
 -1     25823 3.96801E-01
 -1     25828 3.86188E-01
 -1     25829 3.86188E-01
 -1     25830 3.96801E-01
 -1     25835 3.86188E-01
 -1     25836 3.86188E-01
 -1     25837 3.96801E-01
 -1     25842 3.86188E-01
 -1     25843 3.86188E-01
 -1     25844 3.96801E-01
 -1     25849 3.86188E-01
 -1     25850 3.86188E-01
 -1     25851 3.96801E-01
 -1     25856 3.86188E-01
 -1     25857 3.86188E-01
 -1     25858 3.96801E-01
 -1     25863 3.86188E-01
 -1     25864 3.86188E-01
 -1     25865 3.96801E-01
 -1     25870 3.86188E-01
 -1     25871 3.86188E-01
 -1     25872 3.96801E-01
 -1     25877 3.86188E-01
 -1     25878 3.86188E-01
 -1     25879 3.96801E-01
 -1     25884 3.86188E-01
 -1     25885 3.86189E-01
 -1     25886 3.96801E-01
 -1     25891 3.86189E-01
 -1     25895 3.86188E-01
 -1     25896 3.86188E-01
 -1     25897 3.96801E-01
 -1     25902 3.86188E-01
 -1     25903 3.86188E-01
 -1     25904 3.96801E-01
 -1     25909 3.86188E-01
 -1     25910 3.86188E-01
 -1     25911 3.96801E-01
 -1     25916 3.86188E-01
 -1     25917 3.86188E-01
 -1     25918 3.96801E-01
 -1     25923 3.86188E-01
 -1     25924 3.86188E-01
 -1     25925 3.96801E-01
 -1     25930 3.86188E-01
 -1     25931 3.86188E-01
 -1     25932 3.96801E-01
 -1     25937 3.86188E-01
 -1     25938 3.86188E-01
 -1     25939 3.96801E-01
 -1     25944 3.86188E-01
 -1     25945 3.86188E-01
 -1     25946 3.96801E-01
 -1     25951 3.86188E-01
 -1     25952 3.86188E-01
 -1     25953 3.96801E-01
 -1     25958 3.86188E-01
 -1     25959 3.86188E-01
 -1     25960 3.96801E-01
 -1     25965 3.86188E-01
 -1     25969 3.86188E-01
 -1     25970 3.86188E-01
 -1     25971 3.96801E-01
 -1     25976 3.86188E-01
 -1     25977 3.86188E-01
 -1     25978 3.96801E-01
 -1     25983 3.86188E-01
 -1     25984 3.86188E-01
 -1     25985 3.96801E-01
 -1     25990 3.86188E-01
 -1     25991 3.86188E-01
 -1     25992 3.96801E-01
 -1     25997 3.86188E-01
 -1     25998 3.86188E-01
 -1     25999 3.96801E-01
 -1     26004 3.86188E-01
 -1     26005 3.86188E-01
 -1     26006 3.96801E-01
 -1     26011 3.86188E-01
 -1     26012 3.86188E-01
 -1     26013 3.96801E-01
 -1     26018 3.86188E-01
 -1     26019 3.86188E-01
 -1     26020 3.96801E-01
 -1     26025 3.86188E-01
 -1     26026 3.86188E-01
 -1     26027 3.96801E-01
 -1     26032 3.86188E-01
 -1     26033 3.86188E-01
 -1     26034 3.96801E-01
 -1     26039 3.86188E-01
 -1     26043 3.86189E-01
 -1     26044 3.86189E-01
 -1     26045 3.96801E-01
 -1     26050 3.86189E-01
 -1     26051 3.86188E-01
 -1     26052 3.96801E-01
 -1     26057 3.86188E-01
 -1     26058 3.86188E-01
 -1     26059 3.96801E-01
 -1     26064 3.86188E-01
 -1     26065 3.86188E-01
 -1     26066 3.96801E-01
 -1     26071 3.86188E-01
 -1     26072 3.86188E-01
 -1     26073 3.96801E-01
 -1     26078 3.86188E-01
 -1     26079 3.86188E-01
 -1     26080 3.96801E-01
 -1     26085 3.86188E-01
 -1     26086 3.86188E-01
 -1     26087 3.96801E-01
 -1     26092 3.86188E-01
 -1     26093 3.86188E-01
 -1     26094 3.96801E-01
 -1     26099 3.86188E-01
 -1     26100 3.86188E-01
 -1     26101 3.96801E-01
 -1     26106 3.86189E-01
 -1     26107 3.86189E-01
 -1     26108 3.96801E-01
 -1     26113 3.86189E-01
 -1     26117 3.86189E-01
 -1     26118 3.86189E-01
 -1     26119 3.96801E-01
 -1     26124 3.86189E-01
 -1     26125 3.86189E-01
 -1     26126 3.96801E-01
 -1     26131 3.86188E-01
 -1     26132 3.86188E-01
 -1     26133 3.96801E-01
 -1     26138 3.86188E-01
 -1     26139 3.86188E-01
 -1     26140 3.96801E-01
 -1     26145 3.86188E-01
 -1     26146 3.86188E-01
 -1     26147 3.96801E-01
 -1     26152 3.86188E-01
 -1     26153 3.86188E-01
 -1     26154 3.96801E-01
 -1     26159 3.86188E-01
 -1     26160 3.86188E-01
 -1     26161 3.96801E-01
 -1     26166 3.86188E-01
 -1     26167 3.86188E-01
 -1     26168 3.96801E-01
 -1     26173 3.86188E-01
 -1     26174 3.86189E-01
 -1     26175 3.96801E-01
 -1     26180 3.86189E-01
 -1     26181 3.86189E-01
 -1     26182 3.96801E-01
 -1     26187 3.86189E-01
 -1     26191 3.86188E-01
 -1     26195 3.86188E-01
 -1     26199 3.86188E-01
 -1     26203 3.86188E-01
 -1     26207 3.86188E-01
 -1     26211 3.86188E-01
 -1     26215 3.86188E-01
 -1     26219 3.86188E-01
 -1     26223 3.86188E-01
 -1     26227 3.86188E-01
 -1     26233 3.66333E-01
 -1     26234 3.66334E-01
 -1     26235 3.76261E-01
 -1     26240 3.66334E-01
 -1     26241 3.66334E-01
 -1     26242 3.76261E-01
 -1     26247 3.66334E-01
 -1     26248 3.66333E-01
 -1     26249 3.76261E-01
 -1     26254 3.66333E-01
 -1     26255 3.66333E-01
 -1     26256 3.76261E-01
 -1     26261 3.66333E-01
 -1     26262 3.66333E-01
 -1     26263 3.76260E-01
 -1     26268 3.66333E-01
 -1     26269 3.66333E-01
 -1     26270 3.76260E-01
 -1     26275 3.66333E-01
 -1     26276 3.66333E-01
 -1     26277 3.76261E-01
 -1     26282 3.66333E-01
 -1     26283 3.66333E-01
 -1     26284 3.76261E-01
 -1     26289 3.66334E-01
 -1     26290 3.66334E-01
 -1     26291 3.76261E-01
 -1     26296 3.66334E-01
 -1     26297 3.66334E-01
 -1     26298 3.76261E-01
 -1     26303 3.66333E-01
 -1     26307 3.66333E-01
 -1     26308 3.66334E-01
 -1     26309 3.76261E-01
 -1     26314 3.66334E-01
 -1     26315 3.66334E-01
 -1     26316 3.76261E-01
 -1     26321 3.66334E-01
 -1     26322 3.66333E-01
 -1     26323 3.76261E-01
 -1     26328 3.66333E-01
 -1     26329 3.66333E-01
 -1     26330 3.76261E-01
 -1     26335 3.66333E-01
 -1     26336 3.66333E-01
 -1     26337 3.76260E-01
 -1     26342 3.66333E-01
 -1     26343 3.66333E-01
 -1     26344 3.76260E-01
 -1     26349 3.66333E-01
 -1     26350 3.66333E-01
 -1     26351 3.76261E-01
 -1     26356 3.66333E-01
 -1     26357 3.66333E-01
 -1     26358 3.76261E-01
 -1     26363 3.66334E-01
 -1     26364 3.66334E-01
 -1     26365 3.76261E-01
 -1     26370 3.66334E-01
 -1     26371 3.66334E-01
 -1     26372 3.76261E-01
 -1     26377 3.66333E-01
 -1     26381 3.66333E-01
 -1     26382 3.66334E-01
 -1     26383 3.76261E-01
 -1     26388 3.66334E-01
 -1     26389 3.66334E-01
 -1     26390 3.76261E-01
 -1     26395 3.66334E-01
 -1     26396 3.66333E-01
 -1     26397 3.76261E-01
 -1     26402 3.66333E-01
 -1     26403 3.66333E-01
 -1     26404 3.76261E-01
 -1     26409 3.66333E-01
 -1     26410 3.66333E-01
 -1     26411 3.76260E-01
 -1     26416 3.66333E-01
 -1     26417 3.66333E-01
 -1     26418 3.76260E-01
 -1     26423 3.66333E-01
 -1     26424 3.66333E-01
 -1     26425 3.76261E-01
 -1     26430 3.66333E-01
 -1     26431 3.66333E-01
 -1     26432 3.76261E-01
 -1     26437 3.66334E-01
 -1     26438 3.66334E-01
 -1     26439 3.76261E-01
 -1     26444 3.66334E-01
 -1     26445 3.66334E-01
 -1     26446 3.76261E-01
 -1     26451 3.66333E-01
 -1     26455 3.66333E-01
 -1     26456 3.66334E-01
 -1     26457 3.76261E-01
 -1     26462 3.66334E-01
 -1     26463 3.66334E-01
 -1     26464 3.76261E-01
 -1     26469 3.66334E-01
 -1     26470 3.66333E-01
 -1     26471 3.76261E-01
 -1     26476 3.66333E-01
 -1     26477 3.66333E-01
 -1     26478 3.76261E-01
 -1     26483 3.66333E-01
 -1     26484 3.66333E-01
 -1     26485 3.76261E-01
 -1     26490 3.66333E-01
 -1     26491 3.66333E-01
 -1     26492 3.76261E-01
 -1     26497 3.66333E-01
 -1     26498 3.66333E-01
 -1     26499 3.76261E-01
 -1     26504 3.66333E-01
 -1     26505 3.66333E-01
 -1     26506 3.76261E-01
 -1     26511 3.66334E-01
 -1     26512 3.66334E-01
 -1     26513 3.76261E-01
 -1     26518 3.66334E-01
 -1     26519 3.66334E-01
 -1     26520 3.76261E-01
 -1     26525 3.66333E-01
 -1     26529 3.66333E-01
 -1     26530 3.66334E-01
 -1     26531 3.76261E-01
 -1     26536 3.66334E-01
 -1     26537 3.66334E-01
 -1     26538 3.76261E-01
 -1     26543 3.66334E-01
 -1     26544 3.66333E-01
 -1     26545 3.76261E-01
 -1     26550 3.66333E-01
 -1     26551 3.66333E-01
 -1     26552 3.76261E-01
 -1     26557 3.66333E-01
 -1     26558 3.66333E-01
 -1     26559 3.76261E-01
 -1     26564 3.66333E-01
 -1     26565 3.66333E-01
 -1     26566 3.76261E-01
 -1     26571 3.66333E-01
 -1     26572 3.66333E-01
 -1     26573 3.76261E-01
 -1     26578 3.66333E-01
 -1     26579 3.66333E-01
 -1     26580 3.76261E-01
 -1     26585 3.66334E-01
 -1     26586 3.66334E-01
 -1     26587 3.76261E-01
 -1     26592 3.66334E-01
 -1     26593 3.66334E-01
 -1     26594 3.76261E-01
 -1     26599 3.66333E-01
 -1     26603 3.66333E-01
 -1     26604 3.66334E-01
 -1     26605 3.76261E-01
 -1     26610 3.66334E-01
 -1     26611 3.66334E-01
 -1     26612 3.76261E-01
 -1     26617 3.66334E-01
 -1     26618 3.66333E-01
 -1     26619 3.76261E-01
 -1     26624 3.66333E-01
 -1     26625 3.66333E-01
 -1     26626 3.76261E-01
 -1     26631 3.66333E-01
 -1     26632 3.66333E-01
 -1     26633 3.76260E-01
 -1     26638 3.66333E-01
 -1     26639 3.66333E-01
 -1     26640 3.76260E-01
 -1     26645 3.66333E-01
 -1     26646 3.66333E-01
 -1     26647 3.76261E-01
 -1     26652 3.66333E-01
 -1     26653 3.66333E-01
 -1     26654 3.76261E-01
 -1     26659 3.66334E-01
 -1     26660 3.66334E-01
 -1     26661 3.76261E-01
 -1     26666 3.66334E-01
 -1     26667 3.66334E-01
 -1     26668 3.76261E-01
 -1     26673 3.66333E-01
 -1     26677 3.66333E-01
 -1     26678 3.66334E-01
 -1     26679 3.76261E-01
 -1     26684 3.66334E-01
 -1     26685 3.66334E-01
 -1     26686 3.76261E-01
 -1     26691 3.66334E-01
 -1     26692 3.66333E-01
 -1     26693 3.76261E-01
 -1     26698 3.66333E-01
 -1     26699 3.66333E-01
 -1     26700 3.76261E-01
 -1     26705 3.66333E-01
 -1     26706 3.66333E-01
 -1     26707 3.76261E-01
 -1     26712 3.66333E-01
 -1     26713 3.66333E-01
 -1     26714 3.76261E-01
 -1     26719 3.66333E-01
 -1     26720 3.66333E-01
 -1     26721 3.76261E-01
 -1     26726 3.66333E-01
 -1     26727 3.66333E-01
 -1     26728 3.76261E-01
 -1     26733 3.66334E-01
 -1     26734 3.66334E-01
 -1     26735 3.76261E-01
 -1     26740 3.66334E-01
 -1     26741 3.66334E-01
 -1     26742 3.76261E-01
 -1     26747 3.66333E-01
 -1     26751 3.66333E-01
 -1     26752 3.66334E-01
 -1     26753 3.76261E-01
 -1     26758 3.66334E-01
 -1     26759 3.66334E-01
 -1     26760 3.76261E-01
 -1     26765 3.66334E-01
 -1     26766 3.66333E-01
 -1     26767 3.76261E-01
 -1     26772 3.66334E-01
 -1     26773 3.66333E-01
 -1     26774 3.76261E-01
 -1     26779 3.66334E-01
 -1     26780 3.66333E-01
 -1     26781 3.76261E-01
 -1     26786 3.66333E-01
 -1     26787 3.66333E-01
 -1     26788 3.76261E-01
 -1     26793 3.66334E-01
 -1     26794 3.66333E-01
 -1     26795 3.76261E-01
 -1     26800 3.66334E-01
 -1     26801 3.66333E-01
 -1     26802 3.76261E-01
 -1     26807 3.66334E-01
 -1     26808 3.66334E-01
 -1     26809 3.76261E-01
 -1     26814 3.66334E-01
 -1     26815 3.66334E-01
 -1     26816 3.76261E-01
 -1     26821 3.66333E-01
 -1     26825 3.66333E-01
 -1     26826 3.66334E-01
 -1     26827 3.76261E-01
 -1     26832 3.66334E-01
 -1     26833 3.66334E-01
 -1     26834 3.76261E-01
 -1     26839 3.66334E-01
 -1     26840 3.66334E-01
 -1     26841 3.76261E-01
 -1     26846 3.66334E-01
 -1     26847 3.66334E-01
 -1     26848 3.76261E-01
 -1     26853 3.66334E-01
 -1     26854 3.66333E-01
 -1     26855 3.76261E-01
 -1     26860 3.66333E-01
 -1     26861 3.66333E-01
 -1     26862 3.76261E-01
 -1     26867 3.66334E-01
 -1     26868 3.66334E-01
 -1     26869 3.76261E-01
 -1     26874 3.66334E-01
 -1     26875 3.66334E-01
 -1     26876 3.76261E-01
 -1     26881 3.66334E-01
 -1     26882 3.66334E-01
 -1     26883 3.76261E-01
 -1     26888 3.66334E-01
 -1     26889 3.66334E-01
 -1     26890 3.76261E-01
 -1     26895 3.66333E-01
 -1     26899 3.66334E-01
 -1     26903 3.66334E-01
 -1     26907 3.66333E-01
 -1     26911 3.66333E-01
 -1     26915 3.66333E-01
 -1     26919 3.66333E-01
 -1     26923 3.66333E-01
 -1     26927 3.66333E-01
 -1     26931 3.66334E-01
 -1     26935 3.66334E-01
 -1     26941 3.47708E-01
 -1     26942 3.47708E-01
 -1     26943 3.57021E-01
 -1     26948 3.47705E-01
 -1     26949 3.47702E-01
 -1     26950 3.57018E-01
 -1     26955 3.47701E-01
 -1     26956 3.47699E-01
 -1     26957 3.57016E-01
 -1     26962 3.47699E-01
 -1     26963 3.47698E-01
 -1     26964 3.57016E-01
 -1     26969 3.47698E-01
 -1     26970 3.47698E-01
 -1     26971 3.57016E-01
 -1     26976 3.47698E-01
 -1     26977 3.47698E-01
 -1     26978 3.57016E-01
 -1     26983 3.47698E-01
 -1     26984 3.47698E-01
 -1     26985 3.57016E-01
 -1     26990 3.47699E-01
 -1     26991 3.47699E-01
 -1     26992 3.57016E-01
 -1     26997 3.47701E-01
 -1     26998 3.47702E-01
 -1     26999 3.57018E-01
 -1     27004 3.47705E-01
 -1     27005 3.47708E-01
 -1     27006 3.57021E-01
 -1     27011 3.47708E-01
 -1     27015 3.47708E-01
 -1     27016 3.47708E-01
 -1     27017 3.57021E-01
 -1     27022 3.47705E-01
 -1     27023 3.47702E-01
 -1     27024 3.57018E-01
 -1     27029 3.47701E-01
 -1     27030 3.47699E-01
 -1     27031 3.57016E-01
 -1     27036 3.47699E-01
 -1     27037 3.47698E-01
 -1     27038 3.57016E-01
 -1     27043 3.47698E-01
 -1     27044 3.47698E-01
 -1     27045 3.57016E-01
 -1     27050 3.47698E-01
 -1     27051 3.47698E-01
 -1     27052 3.57016E-01
 -1     27057 3.47698E-01
 -1     27058 3.47698E-01
 -1     27059 3.57016E-01
 -1     27064 3.47699E-01
 -1     27065 3.47699E-01
 -1     27066 3.57016E-01
 -1     27071 3.47701E-01
 -1     27072 3.47702E-01
 -1     27073 3.57018E-01
 -1     27078 3.47705E-01
 -1     27079 3.47708E-01
 -1     27080 3.57021E-01
 -1     27085 3.47708E-01
 -1     27089 3.47708E-01
 -1     27090 3.47708E-01
 -1     27091 3.57021E-01
 -1     27096 3.47705E-01
 -1     27097 3.47702E-01
 -1     27098 3.57018E-01
 -1     27103 3.47701E-01
 -1     27104 3.47699E-01
 -1     27105 3.57016E-01
 -1     27110 3.47699E-01
 -1     27111 3.47699E-01
 -1     27112 3.57016E-01
 -1     27117 3.47698E-01
 -1     27118 3.47698E-01
 -1     27119 3.57016E-01
 -1     27124 3.47698E-01
 -1     27125 3.47698E-01
 -1     27126 3.57016E-01
 -1     27131 3.47698E-01
 -1     27132 3.47699E-01
 -1     27133 3.57016E-01
 -1     27138 3.47699E-01
 -1     27139 3.47699E-01
 -1     27140 3.57016E-01
 -1     27145 3.47701E-01
 -1     27146 3.47702E-01
 -1     27147 3.57018E-01
 -1     27152 3.47705E-01
 -1     27153 3.47708E-01
 -1     27154 3.57021E-01
 -1     27159 3.47708E-01
 -1     27163 3.47708E-01
 -1     27164 3.47708E-01
 -1     27165 3.57021E-01
 -1     27170 3.47705E-01
 -1     27171 3.47702E-01
 -1     27172 3.57018E-01
 -1     27177 3.47701E-01
 -1     27178 3.47699E-01
 -1     27179 3.57016E-01
 -1     27184 3.47699E-01
 -1     27185 3.47699E-01
 -1     27186 3.57016E-01
 -1     27191 3.47699E-01
 -1     27192 3.47699E-01
 -1     27193 3.57016E-01
 -1     27198 3.47699E-01
 -1     27199 3.47699E-01
 -1     27200 3.57016E-01
 -1     27205 3.47699E-01
 -1     27206 3.47699E-01
 -1     27207 3.57016E-01
 -1     27212 3.47699E-01
 -1     27213 3.47699E-01
 -1     27214 3.57016E-01
 -1     27219 3.47701E-01
 -1     27220 3.47702E-01
 -1     27221 3.57018E-01
 -1     27226 3.47705E-01
 -1     27227 3.47708E-01
 -1     27228 3.57021E-01
 -1     27233 3.47708E-01
 -1     27237 3.47708E-01
 -1     27238 3.47708E-01
 -1     27239 3.57021E-01
 -1     27244 3.47705E-01
 -1     27245 3.47702E-01
 -1     27246 3.57018E-01
 -1     27251 3.47701E-01
 -1     27252 3.47699E-01
 -1     27253 3.57016E-01
 -1     27258 3.47699E-01
 -1     27259 3.47699E-01
 -1     27260 3.57016E-01
 -1     27265 3.47699E-01
 -1     27266 3.47699E-01
 -1     27267 3.57016E-01
 -1     27272 3.47699E-01
 -1     27273 3.47699E-01
 -1     27274 3.57016E-01
 -1     27279 3.47699E-01
 -1     27280 3.47699E-01
 -1     27281 3.57016E-01
 -1     27286 3.47699E-01
 -1     27287 3.47699E-01
 -1     27288 3.57016E-01
 -1     27293 3.47701E-01
 -1     27294 3.47702E-01
 -1     27295 3.57018E-01
 -1     27300 3.47705E-01
 -1     27301 3.47708E-01
 -1     27302 3.57021E-01
 -1     27307 3.47708E-01
 -1     27311 3.47708E-01
 -1     27312 3.47708E-01
 -1     27313 3.57021E-01
 -1     27318 3.47705E-01
 -1     27319 3.47702E-01
 -1     27320 3.57018E-01
 -1     27325 3.47701E-01
 -1     27326 3.47699E-01
 -1     27327 3.57016E-01
 -1     27332 3.47699E-01
 -1     27333 3.47699E-01
 -1     27334 3.57016E-01
 -1     27339 3.47699E-01
 -1     27340 3.47699E-01
 -1     27341 3.57016E-01
 -1     27346 3.47699E-01
 -1     27347 3.47699E-01
 -1     27348 3.57016E-01
 -1     27353 3.47699E-01
 -1     27354 3.47699E-01
 -1     27355 3.57016E-01
 -1     27360 3.47699E-01
 -1     27361 3.47699E-01
 -1     27362 3.57016E-01
 -1     27367 3.47701E-01
 -1     27368 3.47702E-01
 -1     27369 3.57018E-01
 -1     27374 3.47705E-01
 -1     27375 3.47708E-01
 -1     27376 3.57021E-01
 -1     27381 3.47708E-01
 -1     27385 3.47708E-01
 -1     27386 3.47708E-01
 -1     27387 3.57021E-01
 -1     27392 3.47705E-01
 -1     27393 3.47702E-01
 -1     27394 3.57018E-01
 -1     27399 3.47701E-01
 -1     27400 3.47699E-01
 -1     27401 3.57016E-01
 -1     27406 3.47699E-01
 -1     27407 3.47699E-01
 -1     27408 3.57016E-01
 -1     27413 3.47699E-01
 -1     27414 3.47699E-01
 -1     27415 3.57016E-01
 -1     27420 3.47699E-01
 -1     27421 3.47699E-01
 -1     27422 3.57016E-01
 -1     27427 3.47699E-01
 -1     27428 3.47699E-01
 -1     27429 3.57016E-01
 -1     27434 3.47699E-01
 -1     27435 3.47699E-01
 -1     27436 3.57016E-01
 -1     27441 3.47701E-01
 -1     27442 3.47702E-01
 -1     27443 3.57018E-01
 -1     27448 3.47705E-01
 -1     27449 3.47708E-01
 -1     27450 3.57021E-01
 -1     27455 3.47708E-01
 -1     27459 3.47708E-01
 -1     27460 3.47708E-01
 -1     27461 3.57021E-01
 -1     27466 3.47705E-01
 -1     27467 3.47703E-01
 -1     27468 3.57019E-01
 -1     27473 3.47701E-01
 -1     27474 3.47699E-01
 -1     27475 3.57017E-01
 -1     27480 3.47699E-01
 -1     27481 3.47699E-01
 -1     27482 3.57016E-01
 -1     27487 3.47699E-01
 -1     27488 3.47699E-01
 -1     27489 3.57016E-01
 -1     27494 3.47699E-01
 -1     27495 3.47699E-01
 -1     27496 3.57016E-01
 -1     27501 3.47699E-01
 -1     27502 3.47699E-01
 -1     27503 3.57016E-01
 -1     27508 3.47699E-01
 -1     27509 3.47699E-01
 -1     27510 3.57017E-01
 -1     27515 3.47701E-01
 -1     27516 3.47703E-01
 -1     27517 3.57019E-01
 -1     27522 3.47705E-01
 -1     27523 3.47708E-01
 -1     27524 3.57021E-01
 -1     27529 3.47708E-01
 -1     27533 3.47708E-01
 -1     27534 3.47708E-01
 -1     27535 3.57021E-01
 -1     27540 3.47705E-01
 -1     27541 3.47703E-01
 -1     27542 3.57019E-01
 -1     27547 3.47701E-01
 -1     27548 3.47699E-01
 -1     27549 3.57017E-01
 -1     27554 3.47699E-01
 -1     27555 3.47699E-01
 -1     27556 3.57016E-01
 -1     27561 3.47699E-01
 -1     27562 3.47699E-01
 -1     27563 3.57016E-01
 -1     27568 3.47699E-01
 -1     27569 3.47699E-01
 -1     27570 3.57016E-01
 -1     27575 3.47699E-01
 -1     27576 3.47699E-01
 -1     27577 3.57016E-01
 -1     27582 3.47699E-01
 -1     27583 3.47699E-01
 -1     27584 3.57017E-01
 -1     27589 3.47701E-01
 -1     27590 3.47703E-01
 -1     27591 3.57019E-01
 -1     27596 3.47705E-01
 -1     27597 3.47708E-01
 -1     27598 3.57021E-01
 -1     27603 3.47708E-01
 -1     27607 3.47708E-01
 -1     27611 3.47703E-01
 -1     27615 3.47699E-01
 -1     27619 3.47699E-01
 -1     27623 3.47699E-01
 -1     27627 3.47699E-01
 -1     27631 3.47699E-01
 -1     27635 3.47699E-01
 -1     27639 3.47703E-01
 -1     27643 3.47708E-01
 -1     27649 3.30366E-01
 -1     27650 3.30375E-01
 -1     27651 3.39041E-01
 -1     27656 3.30377E-01
 -1     27657 3.30379E-01
 -1     27658 3.39041E-01
 -1     27663 3.30379E-01
 -1     27664 3.30379E-01
 -1     27665 3.39039E-01
 -1     27670 3.30378E-01
 -1     27671 3.30376E-01
 -1     27672 3.39037E-01
 -1     27677 3.30375E-01
 -1     27678 3.30374E-01
 -1     27679 3.39036E-01
 -1     27684 3.30374E-01
 -1     27685 3.30374E-01
 -1     27686 3.39036E-01
 -1     27691 3.30375E-01
 -1     27692 3.30376E-01
 -1     27693 3.39037E-01
 -1     27698 3.30378E-01
 -1     27699 3.30379E-01
 -1     27700 3.39039E-01
 -1     27705 3.30379E-01
 -1     27706 3.30379E-01
 -1     27707 3.39041E-01
 -1     27712 3.30377E-01
 -1     27713 3.30375E-01
 -1     27714 3.39041E-01
 -1     27719 3.30366E-01
 -1     27723 3.30366E-01
 -1     27724 3.30375E-01
 -1     27725 3.39042E-01
 -1     27730 3.30378E-01
 -1     27731 3.30380E-01
 -1     27732 3.39041E-01
 -1     27737 3.30380E-01
 -1     27738 3.30380E-01
 -1     27739 3.39039E-01
 -1     27744 3.30378E-01
 -1     27745 3.30376E-01
 -1     27746 3.39037E-01
 -1     27751 3.30375E-01
 -1     27752 3.30374E-01
 -1     27753 3.39036E-01
 -1     27758 3.30374E-01
 -1     27759 3.30374E-01
 -1     27760 3.39036E-01
 -1     27765 3.30375E-01
 -1     27766 3.30376E-01
 -1     27767 3.39037E-01
 -1     27772 3.30378E-01
 -1     27773 3.30380E-01
 -1     27774 3.39039E-01
 -1     27779 3.30380E-01
 -1     27780 3.30380E-01
 -1     27781 3.39041E-01
 -1     27786 3.30378E-01
 -1     27787 3.30375E-01
 -1     27788 3.39042E-01
 -1     27793 3.30366E-01
 -1     27797 3.30366E-01
 -1     27798 3.30376E-01
 -1     27799 3.39042E-01
 -1     27804 3.30378E-01
 -1     27805 3.30380E-01
 -1     27806 3.39041E-01
 -1     27811 3.30380E-01
 -1     27812 3.30380E-01
 -1     27813 3.39039E-01
 -1     27818 3.30378E-01
 -1     27819 3.30376E-01
 -1     27820 3.39038E-01
 -1     27825 3.30376E-01
 -1     27826 3.30375E-01
 -1     27827 3.39037E-01
 -1     27832 3.30375E-01
 -1     27833 3.30375E-01
 -1     27834 3.39037E-01
 -1     27839 3.30376E-01
 -1     27840 3.30376E-01
 -1     27841 3.39038E-01
 -1     27846 3.30378E-01
 -1     27847 3.30380E-01
 -1     27848 3.39039E-01
 -1     27853 3.30380E-01
 -1     27854 3.30380E-01
 -1     27855 3.39041E-01
 -1     27860 3.30378E-01
 -1     27861 3.30376E-01
 -1     27862 3.39042E-01
 -1     27867 3.30366E-01
 -1     27871 3.30366E-01
 -1     27872 3.30376E-01
 -1     27873 3.39042E-01
 -1     27878 3.30378E-01
 -1     27879 3.30380E-01
 -1     27880 3.39041E-01
 -1     27885 3.30380E-01
 -1     27886 3.30380E-01
 -1     27887 3.39040E-01
 -1     27892 3.30378E-01
 -1     27893 3.30377E-01
 -1     27894 3.39038E-01
 -1     27899 3.30376E-01
 -1     27900 3.30375E-01
 -1     27901 3.39037E-01
 -1     27906 3.30375E-01
 -1     27907 3.30375E-01
 -1     27908 3.39037E-01
 -1     27913 3.30376E-01
 -1     27914 3.30377E-01
 -1     27915 3.39038E-01
 -1     27920 3.30378E-01
 -1     27921 3.30380E-01
 -1     27922 3.39040E-01
 -1     27927 3.30380E-01
 -1     27928 3.30380E-01
 -1     27929 3.39041E-01
 -1     27934 3.30378E-01
 -1     27935 3.30376E-01
 -1     27936 3.39042E-01
 -1     27941 3.30366E-01
 -1     27945 3.30366E-01
 -1     27946 3.30376E-01
 -1     27947 3.39042E-01
 -1     27952 3.30378E-01
 -1     27953 3.30380E-01
 -1     27954 3.39041E-01
 -1     27959 3.30380E-01
 -1     27960 3.30380E-01
 -1     27961 3.39039E-01
 -1     27966 3.30378E-01
 -1     27967 3.30377E-01
 -1     27968 3.39038E-01
 -1     27973 3.30376E-01
 -1     27974 3.30375E-01
 -1     27975 3.39037E-01
 -1     27980 3.30375E-01
 -1     27981 3.30375E-01
 -1     27982 3.39037E-01
 -1     27987 3.30376E-01
 -1     27988 3.30377E-01
 -1     27989 3.39038E-01
 -1     27994 3.30378E-01
 -1     27995 3.30380E-01
 -1     27996 3.39039E-01
 -1     28001 3.30380E-01
 -1     28002 3.30380E-01
 -1     28003 3.39041E-01
 -1     28008 3.30378E-01
 -1     28009 3.30376E-01
 -1     28010 3.39042E-01
 -1     28015 3.30366E-01
 -1     28019 3.30366E-01
 -1     28020 3.30376E-01
 -1     28021 3.39042E-01
 -1     28026 3.30378E-01
 -1     28027 3.30380E-01
 -1     28028 3.39041E-01
 -1     28033 3.30380E-01
 -1     28034 3.30380E-01
 -1     28035 3.39040E-01
 -1     28040 3.30379E-01
 -1     28041 3.30377E-01
 -1     28042 3.39038E-01
 -1     28047 3.30376E-01
 -1     28048 3.30375E-01
 -1     28049 3.39037E-01
 -1     28054 3.30375E-01
 -1     28055 3.30375E-01
 -1     28056 3.39037E-01
 -1     28061 3.30376E-01
 -1     28062 3.30377E-01
 -1     28063 3.39038E-01
 -1     28068 3.30379E-01
 -1     28069 3.30380E-01
 -1     28070 3.39040E-01
 -1     28075 3.30380E-01
 -1     28076 3.30380E-01
 -1     28077 3.39041E-01
 -1     28082 3.30378E-01
 -1     28083 3.30376E-01
 -1     28084 3.39042E-01
 -1     28089 3.30366E-01
 -1     28093 3.30366E-01
 -1     28094 3.30376E-01
 -1     28095 3.39042E-01
 -1     28100 3.30378E-01
 -1     28101 3.30380E-01
 -1     28102 3.39042E-01
 -1     28107 3.30380E-01
 -1     28108 3.30380E-01
 -1     28109 3.39040E-01
 -1     28114 3.30379E-01
 -1     28115 3.30377E-01
 -1     28116 3.39038E-01
 -1     28121 3.30376E-01
 -1     28122 3.30375E-01
 -1     28123 3.39037E-01
 -1     28128 3.30376E-01
 -1     28129 3.30375E-01
 -1     28130 3.39037E-01
 -1     28135 3.30376E-01
 -1     28136 3.30377E-01
 -1     28137 3.39038E-01
 -1     28142 3.30379E-01
 -1     28143 3.30380E-01
 -1     28144 3.39040E-01
 -1     28149 3.30380E-01
 -1     28150 3.30380E-01
 -1     28151 3.39042E-01
 -1     28156 3.30378E-01
 -1     28157 3.30376E-01
 -1     28158 3.39042E-01
 -1     28163 3.30366E-01
 -1     28167 3.30366E-01
 -1     28168 3.30376E-01
 -1     28169 3.39042E-01
 -1     28174 3.30378E-01
 -1     28175 3.30380E-01
 -1     28176 3.39042E-01
 -1     28181 3.30380E-01
 -1     28182 3.30380E-01
 -1     28183 3.39040E-01
 -1     28188 3.30379E-01
 -1     28189 3.30377E-01
 -1     28190 3.39038E-01
 -1     28195 3.30376E-01
 -1     28196 3.30376E-01
 -1     28197 3.39037E-01
 -1     28202 3.30376E-01
 -1     28203 3.30376E-01
 -1     28204 3.39037E-01
 -1     28209 3.30376E-01
 -1     28210 3.30377E-01
 -1     28211 3.39038E-01
 -1     28216 3.30379E-01
 -1     28217 3.30380E-01
 -1     28218 3.39040E-01
 -1     28223 3.30380E-01
 -1     28224 3.30380E-01
 -1     28225 3.39042E-01
 -1     28230 3.30378E-01
 -1     28231 3.30376E-01
 -1     28232 3.39042E-01
 -1     28237 3.30366E-01
 -1     28241 3.30366E-01
 -1     28242 3.30376E-01
 -1     28243 3.39042E-01
 -1     28248 3.30378E-01
 -1     28249 3.30380E-01
 -1     28250 3.39042E-01
 -1     28255 3.30381E-01
 -1     28256 3.30380E-01
 -1     28257 3.39040E-01
 -1     28262 3.30379E-01
 -1     28263 3.30377E-01
 -1     28264 3.39038E-01
 -1     28269 3.30377E-01
 -1     28270 3.30376E-01
 -1     28271 3.39037E-01
 -1     28276 3.30376E-01
 -1     28277 3.30376E-01
 -1     28278 3.39037E-01
 -1     28283 3.30377E-01
 -1     28284 3.30377E-01
 -1     28285 3.39038E-01
 -1     28290 3.30379E-01
 -1     28291 3.30380E-01
 -1     28292 3.39040E-01
 -1     28297 3.30381E-01
 -1     28298 3.30380E-01
 -1     28299 3.39042E-01
 -1     28304 3.30378E-01
 -1     28305 3.30376E-01
 -1     28306 3.39042E-01
 -1     28311 3.30366E-01
 -1     28315 3.30376E-01
 -1     28319 3.30381E-01
 -1     28323 3.30381E-01
 -1     28327 3.30377E-01
 -1     28331 3.30376E-01
 -1     28335 3.30376E-01
 -1     28339 3.30377E-01
 -1     28343 3.30381E-01
 -1     28347 3.30381E-01
 -1     28351 3.30376E-01
 -1     28357 3.20347E-01
 -1     28358 3.20347E-01
 -1     28359 3.25361E-01
 -1     28364 3.20331E-01
 -1     28365 3.20316E-01
 -1     28366 3.25348E-01
 -1     28371 3.20315E-01
 -1     28372 3.20314E-01
 -1     28373 3.25347E-01
 -1     28378 3.20316E-01
 -1     28379 3.20317E-01
 -1     28380 3.25346E-01
 -1     28385 3.20317E-01
 -1     28386 3.20317E-01
 -1     28387 3.25346E-01
 -1     28392 3.20317E-01
 -1     28393 3.20317E-01
 -1     28394 3.25346E-01
 -1     28399 3.20317E-01
 -1     28400 3.20317E-01
 -1     28401 3.25346E-01
 -1     28406 3.20316E-01
 -1     28407 3.20314E-01
 -1     28408 3.25347E-01
 -1     28413 3.20315E-01
 -1     28414 3.20316E-01
 -1     28415 3.25348E-01
 -1     28420 3.20331E-01
 -1     28421 3.20347E-01
 -1     28422 3.25361E-01
 -1     28427 3.20347E-01
 -1     28431 3.20347E-01
 -1     28432 3.20347E-01
 -1     28433 3.25361E-01
 -1     28438 3.20332E-01
 -1     28439 3.20316E-01
 -1     28440 3.25348E-01
 -1     28445 3.20316E-01
 -1     28446 3.20314E-01
 -1     28447 3.25347E-01
 -1     28452 3.20316E-01
 -1     28453 3.20317E-01
 -1     28454 3.25347E-01
 -1     28459 3.20318E-01
 -1     28460 3.20318E-01
 -1     28461 3.25346E-01
 -1     28466 3.20318E-01
 -1     28467 3.20318E-01
 -1     28468 3.25346E-01
 -1     28473 3.20318E-01
 -1     28474 3.20317E-01
 -1     28475 3.25347E-01
 -1     28480 3.20316E-01
 -1     28481 3.20314E-01
 -1     28482 3.25347E-01
 -1     28487 3.20316E-01
 -1     28488 3.20316E-01
 -1     28489 3.25348E-01
 -1     28494 3.20332E-01
 -1     28495 3.20347E-01
 -1     28496 3.25361E-01
 -1     28501 3.20347E-01
 -1     28505 3.20347E-01
 -1     28506 3.20347E-01
 -1     28507 3.25362E-01
 -1     28512 3.20332E-01
 -1     28513 3.20317E-01
 -1     28514 3.25348E-01
 -1     28519 3.20316E-01
 -1     28520 3.20315E-01
 -1     28521 3.25347E-01
 -1     28526 3.20316E-01
 -1     28527 3.20318E-01
 -1     28528 3.25347E-01
 -1     28533 3.20318E-01
 -1     28534 3.20318E-01
 -1     28535 3.25347E-01
 -1     28540 3.20318E-01
 -1     28541 3.20318E-01
 -1     28542 3.25347E-01
 -1     28547 3.20318E-01
 -1     28548 3.20318E-01
 -1     28549 3.25347E-01
 -1     28554 3.20316E-01
 -1     28555 3.20315E-01
 -1     28556 3.25347E-01
 -1     28561 3.20316E-01
 -1     28562 3.20317E-01
 -1     28563 3.25348E-01
 -1     28568 3.20332E-01
 -1     28569 3.20347E-01
 -1     28570 3.25362E-01
 -1     28575 3.20347E-01
 -1     28579 3.20353E-01
 -1     28580 3.20350E-01
 -1     28581 3.25365E-01
 -1     28586 3.20339E-01
 -1     28587 3.20321E-01
 -1     28588 3.25353E-01
 -1     28593 3.20324E-01
 -1     28594 3.20319E-01
 -1     28595 3.25352E-01
 -1     28600 3.20325E-01
 -1     28601 3.20322E-01
 -1     28602 3.25352E-01
 -1     28607 3.20327E-01
 -1     28608 3.20323E-01
 -1     28609 3.25351E-01
 -1     28614 3.20327E-01
 -1     28615 3.20323E-01
 -1     28616 3.25351E-01
 -1     28621 3.20327E-01
 -1     28622 3.20322E-01
 -1     28623 3.25352E-01
 -1     28628 3.20325E-01
 -1     28629 3.20319E-01
 -1     28630 3.25352E-01
 -1     28635 3.20324E-01
 -1     28636 3.20321E-01
 -1     28637 3.25353E-01
 -1     28642 3.20339E-01
 -1     28643 3.20350E-01
 -1     28644 3.25365E-01
 -1     28649 3.20353E-01
 -1     28653 3.20367E-01
 -1     28654 3.20360E-01
 -1     28655 3.25371E-01
 -1     28660 3.20354E-01
 -1     28661 3.20333E-01
 -1     28662 3.25360E-01
 -1     28667 3.20341E-01
 -1     28668 3.20332E-01
 -1     28669 3.25360E-01
 -1     28674 3.20343E-01
 -1     28675 3.20335E-01
 -1     28676 3.25360E-01
 -1     28681 3.20344E-01
 -1     28682 3.20336E-01
 -1     28683 3.25360E-01
 -1     28688 3.20345E-01
 -1     28689 3.20336E-01
 -1     28690 3.25360E-01
 -1     28695 3.20344E-01
 -1     28696 3.20335E-01
 -1     28697 3.25360E-01
 -1     28702 3.20343E-01
 -1     28703 3.20332E-01
 -1     28704 3.25360E-01
 -1     28709 3.20341E-01
 -1     28710 3.20333E-01
 -1     28711 3.25360E-01
 -1     28716 3.20354E-01
 -1     28717 3.20360E-01
 -1     28718 3.25371E-01
 -1     28723 3.20367E-01
 -1     28727 3.20367E-01
 -1     28728 3.20367E-01
 -1     28729 3.25372E-01
 -1     28734 3.20354E-01
 -1     28735 3.20340E-01
 -1     28736 3.25360E-01
 -1     28741 3.20341E-01
 -1     28742 3.20341E-01
 -1     28743 3.25361E-01
 -1     28748 3.20343E-01
 -1     28749 3.20344E-01
 -1     28750 3.25361E-01
 -1     28755 3.20344E-01
 -1     28756 3.20345E-01
 -1     28757 3.25360E-01
 -1     28762 3.20345E-01
 -1     28763 3.20345E-01
 -1     28764 3.25360E-01
 -1     28769 3.20344E-01
 -1     28770 3.20344E-01
 -1     28771 3.25361E-01
 -1     28776 3.20343E-01
 -1     28777 3.20341E-01
 -1     28778 3.25361E-01
 -1     28783 3.20341E-01
 -1     28784 3.20340E-01
 -1     28785 3.25360E-01
 -1     28790 3.20354E-01
 -1     28791 3.20367E-01
 -1     28792 3.25372E-01
 -1     28797 3.20367E-01
 -1     28801 3.20349E-01
 -1     28802 3.20358E-01
 -1     28803 3.25363E-01
 -1     28808 3.20334E-01
 -1     28809 3.20330E-01
 -1     28810 3.25350E-01
 -1     28815 3.20318E-01
 -1     28816 3.20329E-01
 -1     28817 3.25348E-01
 -1     28822 3.20318E-01
 -1     28823 3.20332E-01
 -1     28824 3.25348E-01
 -1     28829 3.20320E-01
 -1     28830 3.20332E-01
 -1     28831 3.25348E-01
 -1     28836 3.20320E-01
 -1     28837 3.20332E-01
 -1     28838 3.25348E-01
 -1     28843 3.20320E-01
 -1     28844 3.20332E-01
 -1     28845 3.25348E-01
 -1     28850 3.20318E-01
 -1     28851 3.20329E-01
 -1     28852 3.25348E-01
 -1     28857 3.20318E-01
 -1     28858 3.20330E-01
 -1     28859 3.25350E-01
 -1     28864 3.20334E-01
 -1     28865 3.20358E-01
 -1     28866 3.25363E-01
 -1     28871 3.20349E-01
 -1     28875 3.20371E-01
 -1     28876 3.20360E-01
 -1     28877 3.25373E-01
 -1     28882 3.20360E-01
 -1     28883 3.20334E-01
 -1     28884 3.25365E-01
 -1     28889 3.20350E-01
 -1     28890 3.20333E-01
 -1     28891 3.25365E-01
 -1     28896 3.20352E-01
 -1     28897 3.20336E-01
 -1     28898 3.25365E-01
 -1     28903 3.20354E-01
 -1     28904 3.20337E-01
 -1     28905 3.25365E-01
 -1     28910 3.20354E-01
 -1     28911 3.20337E-01
 -1     28912 3.25365E-01
 -1     28917 3.20354E-01
 -1     28918 3.20336E-01
 -1     28919 3.25365E-01
 -1     28924 3.20352E-01
 -1     28925 3.20333E-01
 -1     28926 3.25365E-01
 -1     28931 3.20350E-01
 -1     28932 3.20334E-01
 -1     28933 3.25365E-01
 -1     28938 3.20360E-01
 -1     28939 3.20360E-01
 -1     28940 3.25373E-01
 -1     28945 3.20371E-01
 -1     28949 3.20375E-01
 -1     28950 3.20373E-01
 -1     28951 3.25376E-01
 -1     28956 3.20363E-01
 -1     28957 3.20350E-01
 -1     28958 3.25366E-01
 -1     28963 3.20352E-01
 -1     28964 3.20352E-01
 -1     28965 3.25367E-01
 -1     28970 3.20355E-01
 -1     28971 3.20355E-01
 -1     28972 3.25367E-01
 -1     28977 3.20357E-01
 -1     28978 3.20356E-01
 -1     28979 3.25367E-01
 -1     28984 3.20357E-01
 -1     28985 3.20356E-01
 -1     28986 3.25367E-01
 -1     28991 3.20357E-01
 -1     28992 3.20355E-01
 -1     28993 3.25367E-01
 -1     28998 3.20355E-01
 -1     28999 3.20352E-01
 -1     29000 3.25367E-01
 -1     29005 3.20352E-01
 -1     29006 3.20350E-01
 -1     29007 3.25366E-01
 -1     29012 3.20363E-01
 -1     29013 3.20373E-01
 -1     29014 3.25376E-01
 -1     29019 3.20375E-01
 -1     29023 3.20375E-01
 -1     29027 3.20352E-01
 -1     29031 3.20353E-01
 -1     29035 3.20357E-01
 -1     29039 3.20357E-01
 -1     29043 3.20357E-01
 -1     29047 3.20357E-01
 -1     29051 3.20353E-01
 -1     29055 3.20352E-01
 -1     29059 3.20375E-01
 -1     29065 3.20347E-01
 -1     29069 3.20316E-01
 -1     29073 3.20314E-01
 -1     29077 3.20317E-01
 -1     29081 3.20317E-01
 -1     29085 3.20317E-01
 -1     29089 3.20317E-01
 -1     29093 3.20314E-01
 -1     29097 3.20316E-01
 -1     29101 3.20347E-01
 -1     29107 3.20347E-01
 -1     29111 3.20317E-01
 -1     29115 3.20315E-01
 -1     29119 3.20318E-01
 -1     29123 3.20318E-01
 -1     29127 3.20318E-01
 -1     29131 3.20318E-01
 -1     29135 3.20315E-01
 -1     29139 3.20317E-01
 -1     29143 3.20347E-01
 -1     29149 3.20347E-01
 -1     29153 3.20317E-01
 -1     29157 3.20315E-01
 -1     29161 3.20318E-01
 -1     29165 3.20318E-01
 -1     29169 3.20318E-01
 -1     29173 3.20318E-01
 -1     29177 3.20315E-01
 -1     29181 3.20317E-01
 -1     29185 3.20347E-01
 -1     29191 3.20353E-01
 -1     29195 3.20325E-01
 -1     29199 3.20324E-01
 -1     29203 3.20327E-01
 -1     29207 3.20327E-01
 -1     29211 3.20327E-01
 -1     29215 3.20327E-01
 -1     29219 3.20324E-01
 -1     29223 3.20325E-01
 -1     29227 3.20353E-01
 -1     29233 3.20367E-01
 -1     29237 3.20340E-01
 -1     29241 3.20341E-01
 -1     29245 3.20344E-01
 -1     29249 3.20345E-01
 -1     29253 3.20345E-01
 -1     29257 3.20344E-01
 -1     29261 3.20341E-01
 -1     29265 3.20340E-01
 -1     29269 3.20367E-01
 -1     29275 3.20367E-01
 -1     29279 3.20340E-01
 -1     29283 3.20341E-01
 -1     29287 3.20344E-01
 -1     29291 3.20345E-01
 -1     29295 3.20345E-01
 -1     29299 3.20344E-01
 -1     29303 3.20341E-01
 -1     29307 3.20340E-01
 -1     29311 3.20367E-01
 -1     29317 3.20349E-01
 -1     29321 3.20319E-01
 -1     29325 3.20316E-01
 -1     29329 3.20319E-01
 -1     29333 3.20320E-01
 -1     29337 3.20320E-01
 -1     29341 3.20319E-01
 -1     29345 3.20316E-01
 -1     29349 3.20319E-01
 -1     29353 3.20349E-01
 -1     29359 3.20371E-01
 -1     29363 3.20349E-01
 -1     29367 3.20350E-01
 -1     29371 3.20353E-01
 -1     29375 3.20354E-01
 -1     29379 3.20354E-01
 -1     29383 3.20353E-01
 -1     29387 3.20350E-01
 -1     29391 3.20349E-01
 -1     29395 3.20371E-01
 -1     29401 3.20375E-01
 -1     29405 3.20352E-01
 -1     29409 3.20353E-01
 -1     29413 3.20357E-01
 -1     29417 3.20357E-01
 -1     29421 3.20357E-01
 -1     29425 3.20357E-01
 -1     29429 3.20353E-01
 -1     29433 3.20352E-01
 -1     29437 3.20375E-01
 -3
 9999
